********************************************************************************
Field Output Report, written Tue May  6 13:40:45 2025

Source 1
---------

   ODB: D:/AISI_1020/Vel_40/aisi_1020_2a_40_red_150_cal_10_vel_40_fric_025.odb
   Step: Step-1
   Frame: Increment   1721169: Step Time =   0.2030

Loc 1 : Nodal values from source 1

Output sorted by column "Node Label".

Field Output reported at nodes for region: DIE_2A_40_D0_36-1.Region_1
   Computation algorithm: EXTRAPOLATE_COMPUTE_AVERAGE
   Averaged at nodes
   Averaging regions: ODB_REGIONS

      Node Label     COORD.COOR1     COORD.COOR2
                          @Loc 1          @Loc 1
-------------------------------------------------
               1     23.7940E-03     115.558E-03


Field Output reported at nodes for region: DIE_2A_40_D0_36-1.Region_2
   Computation algorithm: EXTRAPOLATE_COMPUTE_AVERAGE
   Averaged at nodes
   Averaging regions: ODB_REGIONS

      Node Label     COORD.COOR1     COORD.COOR2
                          @Loc 1          @Loc 1
-------------------------------------------------
               1     23.7940E-03     115.558E-03


Field Output reported at nodes for part: WIRE_1-1
   Computation algorithm: EXTRAPOLATE_COMPUTE_AVERAGE
   Averaged at nodes
   Averaging regions: ODB_REGIONS

      Node Label     COORD.COOR1     COORD.COOR2    ER.Max. Prin    ER.Mid. Prin    ER.Min. Prin         ER.ER11         ER.ER22         ER.ER33         ER.ER12    PE.Max. Prin    PE.Mid. Prin    PE.Min. Prin         PE.PE11         PE.PE22         PE.PE33         PE.PE12     S.Max. Prin     S.Mid. Prin     S.Min. Prin           S.S11           S.S22           S.S33           S.S12            TEMP
                          @Loc 1          @Loc 1          @Loc 1          @Loc 1          @Loc 1          @Loc 1          @Loc 1          @Loc 1          @Loc 1          @Loc 1          @Loc 1          @Loc 1          @Loc 1          @Loc 1          @Loc 1          @Loc 1          @Loc 1          @Loc 1          @Loc 1          @Loc 1          @Loc 1          @Loc 1          @Loc 1          @Loc 1
-----------------------------------------------------------------------------------------------------------------------------------------------------------------------------------------------------------------------------------------------------------------------------------------------------------------------------------------------------------------------------------------------------------------
               1     17.7200E-03     58.2882E-03     479.705E-03    -389.507E-03    -692.006E-03     466.149E-03    -678.451E-03    -389.507E-03     249.520E-03     449.234E-03    -16.8999E-03    -432.334E-03    -133.942E-03     150.842E-03    -16.8999E-03     833.771E-03     180.093E+06     147.433E+06    -7.00871E+06    -6.81892E+06     179.903E+06     147.433E+06     2.02912E+06         79.0245
               2    -661.219E-09     56.5807E-03         11.3265        -3.49690        -8.36462         3.33706         4.49259        -8.36462        -14.7755     33.6678E-03    -16.7930E-03    -16.8748E-03    -16.7834E-03     33.6571E-03    -16.8736E-03     1.36438E-03     6.01027E+06     696.944E+03    -198.552E+06     3.23584E+06    -198.535E+06     3.45343E+06     1.16108E+06         22.4629
               3     470.660E-09    -201.228E-18         2.25514         1.04758        -2.86202        -2.82195         2.21507         1.04758     902.068E-03     41.3896E-03    -20.5503E-03    -20.8394E-03    -20.8394E-03     41.3896E-03    -20.5503E-03     11.8606E-06    -37.1500E+06    -39.5280E+06    -239.500E+06    -37.1516E+06    -239.499E+06    -39.5280E+06     566.932E+03         24.4441
               4     17.6346E-03    -201.228E-18         2.13479    -164.637E-03        -1.96547    -163.833E-03         2.13399        -1.96547     85.9542E-03     205.472E-03    -16.2315E-03    -189.240E-03    -167.019E-03     183.250E-03    -16.2315E-03     181.961E-03     163.284E+06     111.301E+06     15.8526E+06     16.7251E+06     162.411E+06     111.301E+06     11.3080E+06         42.5003
               5     17.3276E-03     114.572E-03     878.947E-03    -208.041E-03    -401.303E-03    -208.417E-03    -400.927E-03     878.947E-03     17.0306E-03     16.2554E-03     13.0613E-03    -29.3167E-03     14.2096E-03     15.1071E-03    -29.3167E-03     3.06539E-03    -1.01258E+06    -13.2805E+06    -133.675E+06    -1.09407E+06    -13.1991E+06    -133.675E+06     996.499E+03         30.3459
               6     6.84008E-06     113.052E-03         1.70023     654.386E-03    -666.825E-03         1.65853    -625.126E-03     654.386E-03     622.781E-03     22.6831E-03    -10.5025E-03    -12.1806E-03    -12.1661E-03     22.6686E-03    -10.5025E-03    -1.42095E-03     65.0949E+06     38.1882E+06     75.3146E+03     30.3310E+06     7.93260E+06     65.0949E+06    -15.4184E+06         21.3843
               7     16.7262E-03     57.2042E-03     522.588E-03    -423.430E-03    -685.388E-03     507.766E-03    -610.653E-03    -483.343E-03     258.204E-03     317.074E-03    -16.6803E-03    -300.393E-03    -79.1711E-03     95.8514E-03    -16.6803E-03     589.810E-03     165.579E+06     106.733E+06    -6.09021E+06    -5.80784E+06     165.297E+06     106.733E+06     447.011E+03         73.8883
               8     15.7496E-03     56.8461E-03     592.938E-03    -457.373E-03    -695.860E-03     558.362E-03    -480.410E-03    -638.248E-03    -93.1524E-03     125.992E-03    -16.3590E-03    -109.633E-03    -19.9098E-03     36.2687E-03    -16.3590E-03     226.938E-03     121.215E+06     29.1958E+06    -11.7970E+06    -8.76996E+06     120.727E+06     26.6565E+06    -644.834E+03         61.5477
               9     14.7586E-03     56.7316E-03     775.654E-03    -537.862E-03    -778.240E-03     559.776E-03    -350.302E-03    -749.921E-03    -891.148E-03     51.1228E-03    -16.1153E-03    -35.0075E-03    -15.5479E-03     31.6631E-03    -16.1153E-03     67.3989E-03     68.7478E+06    -10.7439E+06    -48.6464E+06    -13.2700E+06      68.423E+06    -45.7955E+06     49.1514E+03         47.7991
              10     13.7746E-03     56.7017E-03     973.171E-03    -623.577E-03    -874.685E-03     545.886E-03    -217.794E-03    -853.184E-03        -1.39577     34.8347E-03    -16.0621E-03    -18.7725E-03    -15.5725E-03     31.6347E-03    -16.0621E-03     25.3698E-03     33.9945E+06    -10.7544E+06    -61.2059E+06    -10.5625E+06     33.8026E+06    -61.2059E+06    -192.551E+03         36.7899
              11     12.7899E-03     56.6773E-03         1.00203    -550.582E-03    -965.151E-03     527.833E-03    -76.3840E-03    -965.151E-03        -1.40002     33.7383E-03    -16.2144E-03    -17.5239E-03    -15.7628E-03     31.9772E-03    -16.2144E-03     17.6192E-03     8.82479E+06    -22.7864E+06    -44.2450E+06    -6.00652E+06    -11.4745E+06    -40.7255E+06     882.841E+03         29.8512
              12     11.8052E-03     56.6636E-03     980.575E-03    -395.252E-03        -1.09079     473.972E-03     111.351E-03        -1.09079        -1.28067     33.0713E-03    -16.3493E-03    -16.7220E-03    -16.1542E-03     32.5035E-03    -16.3493E-03     10.5390E-03    -4.23184E+06    -30.9879E+06    -66.3231E+06    -4.52895E+06    -66.0260E+06    -30.9879E+06     2.51316E+06         26.1908
              13     10.8214E-03     56.6540E-03     960.926E-03    -232.699E-03        -1.22947     338.974E-03     389.253E-03        -1.22947        -1.10425     33.3408E-03    -16.4744E-03    -16.8664E-03    -16.3288E-03     32.8033E-03    -16.4744E-03     10.3169E-03    -3.61966E+06    -18.2267E+06    -99.5555E+06    -3.70966E+06    -99.4655E+06    -18.2267E+06     2.46373E+06         24.4680
              14     9.83758E-03     56.6414E-03         1.01747    -141.064E-03        -1.37692     105.113E-03     771.294E-03        -1.37692    -171.825E-03     33.5867E-03    -16.5567E-03    -17.0300E-03    -16.4925E-03     33.0492E-03    -16.5567E-03     10.3622E-03    -1.19598E+06    -9.68608E+06    -120.035E+06    -1.26745E+06    -119.964E+06    -9.68608E+06     1.74692E+06         23.6769
              15     8.85389E-03     56.6317E-03         1.49249    -470.114E-03        -1.52745    -184.830E-03         1.20720        -1.52745         1.33851     33.6233E-03    -16.6166E-03    -17.0067E-03    -16.5788E-03     33.1954E-03    -16.6166E-03     9.24119E-03     2.44065E+06    -4.89710E+06    -140.948E+06     2.39872E+06    -140.906E+06    -4.89710E+06     914.606E+03         23.2797
              16     7.86996E-03     56.6222E-03         2.31137        -1.14381        -1.67880    -475.553E-03         1.64311        -1.67880         2.71125     33.6115E-03    -16.6726E-03    -16.9389E-03    -16.5834E-03     33.2560E-03    -16.6726E-03     8.44284E-03     5.87904E+06    -1.23510E+06    -160.318E+06     5.86849E+06    -160.308E+06    -1.23510E+06     428.378E+03         23.0434
              17     6.88591E-03     56.6139E-03         2.73049        -1.41841        -1.83123    -768.650E-03         2.08072        -1.83123         2.95228     33.6358E-03    -16.7110E-03    -16.9248E-03    -16.6139E-03     33.3249E-03    -16.7110E-03     7.89345E-03     7.29428E+06    -769.409E+03    -172.707E+06     7.26338E+06    -172.676E+06    -769.409E+03     126.046E+03         22.8795
              18     5.90190E-03     56.6057E-03         3.08465        -1.62834        -1.98332        -1.08232         2.53863        -1.98332         3.01047     33.7165E-03    -16.7645E-03    -16.9521E-03    -16.7024E-03     33.4668E-03    -16.7645E-03     7.08290E-03     7.65314E+06     2.02843E+06    -184.801E+06     7.35096E+06    -184.761E+06     2.29086E+06     445.462E+03         22.7562
              19     4.91840E-03     56.5988E-03         3.40910        -1.81012        -2.12958        -1.42670         3.02568        -2.12958         2.48898     33.8132E-03    -16.8231E-03    -16.9901E-03    -16.7985E-03     33.6216E-03    -16.8231E-03     6.20828E-03     9.78901E+06     6.75891E+06    -194.865E+06     7.78494E+06    -194.826E+06     8.72457E+06     1.25449E+06         22.6608
              20     3.93476E-03     56.5925E-03         3.84848        -2.01897        -2.36232        -1.78414         3.51138        -2.26005         2.61749     33.7974E-03    -16.8355E-03    -16.9619E-03    -16.8228E-03     33.6583E-03    -16.8355E-03     5.28416E-03     9.70614E+06     7.22846E+06    -198.823E+06     7.40142E+06    -198.795E+06     9.50476E+06     1.08260E+06         22.5873
              21     2.95119E-03     56.5878E-03         4.39116        -2.36316        -2.55929        -2.10457         3.93645        -2.36316     358.059E-03     33.7369E-03    -16.8279E-03    -16.9091E-03    -16.8187E-03     33.6473E-03    -16.8285E-03     4.21041E-03     7.65586E+06     6.66229E+06    -199.979E+06     6.64468E+06    -199.961E+06     7.65586E+06    -68.7398E+03         22.5324
              22     1.96717E-03     56.5839E-03         4.67688        -2.43741        -2.76259        -2.31441         4.22870        -2.43741     475.562E-03     33.6776E-03    -16.7885E-03    -16.8891E-03    -16.8003E-03     33.6338E-03    -16.8335E-03     2.88933E-03     7.86283E+06     5.25980E+06    -199.881E+06     5.24034E+06    -199.862E+06     7.86283E+06    -422.977E+03         22.4941
              23     984.033E-06     56.5818E-03         8.10422        -2.98261        -5.64780     478.912E-03         4.41136        -5.41647        -5.39024     33.6538E-03    -16.7718E-03    -16.8819E-03    -16.7800E-03     33.6365E-03    -16.8564E-03     1.77728E-03     7.22215E+06     2.38297E+06    -198.931E+06     3.64312E+06    -198.913E+06     5.94373E+06     482.124E+03         22.4709
              24     670.685E-09     55.5462E-03         11.1198        -3.57399        -8.04667         3.01651         4.52927        -8.04667        -14.6155     33.7998E-03    -16.7922E-03    -17.0076E-03    -16.9910E-03     33.7832E-03    -16.7922E-03     1.83197E-03     3.16250E+06    -69.2361E+03    -199.788E+06     382.164E+03    -199.764E+06     2.68725E+06     2.11226E+06         22.4620
              25    -282.036E-09     54.5136E-03         10.9123        -3.74922        -7.62184         2.71803         4.44502        -7.62184        -14.5587     33.2760E-03    -16.4671E-03    -16.8089E-03    -16.8012E-03     33.2682E-03    -16.4671E-03     1.06341E-03    -463.284E+03    -1.00779E+06    -203.045E+06    -469.482E+03    -203.039E+06    -1.00779E+06     850.368E+03         22.4599
              26     520.667E-09     53.4825E-03         10.6565        -4.11765        -6.97621         2.33398         4.20490        -6.97621        -14.6552     33.0256E-03    -16.4160E-03    -16.6096E-03    -16.6089E-03     33.0250E-03    -16.4160E-03     361.265E-06    -3.55821E+06    -4.38275E+06    -204.118E+06    -4.31797E+06    -204.113E+06    -3.62746E+06    -601.678E+03         22.4551
              27    -392.137E-09     52.4497E-03         10.5535        -4.73858        -6.22346         1.95754         3.85737        -6.22346        -15.1736     33.6266E-03    -16.6701E-03    -16.9565E-03    -16.7350E-03     33.6255E-03    -16.8905E-03     448.642E-06     3.50915E+06     1.71713E+06    -197.414E+06     2.74552E+06    -197.406E+06     2.47243E+06    -1.29092E+06         22.4470
              28    -68.7775E-09     51.4149E-03         10.4664        -5.04153        -5.78581         1.57601         3.49093        -5.42790        -15.7498     33.5718E-03    -16.5867E-03    -16.9851E-03    -16.7627E-03     33.5699E-03    -16.8071E-03     627.787E-06     5.79966E+06     2.99519E+06    -195.830E+06     4.02595E+06    -195.824E+06     4.76294E+06    -1.07921E+06         22.4360
              29     429.095E-09     50.3820E-03         10.1638        -4.49509        -5.98049         1.12994         3.05340        -4.49509        -16.0293     32.7274E-03    -16.1844E-03    -16.5430E-03    -16.5405E-03     32.7250E-03    -16.1844E-03     690.722E-06     1.55597E+06    -1.82538E+06    -197.698E+06    -220.296E+03    -197.689E+06    -57.6294E+03     350.738E+03         22.4240
              30    -108.999E-09     49.3516E-03         9.82768        -3.52013        -6.57499     533.735E-03         2.71896        -3.52013        -16.2549     32.3838E-03    -15.9499E-03    -16.4338E-03    -16.1277E-03     32.3810E-03    -16.2533E-03     726.433E-06     2.03935E+06    -670.687E+03    -196.856E+06     934.943E+03    -196.848E+06     425.747E+03     1.18610E+06         22.4132
              31    -488.146E-09     48.3180E-03         9.44208        -2.56803        -7.07887    -157.272E-03         2.52048        -2.56803        -16.3004     32.3761E-03    -16.0000E-03    -16.3760E-03    -15.9955E-03     32.3715E-03    -16.3760E-03     921.255E-06     5.02000E+06     343.741E+03    -195.170E+06     3.92198E+06    -195.168E+06     1.44018E+06     470.880E+03         22.4060
              32     279.674E-09     47.2863E-03         8.80227        -1.49905        -7.45378    -850.921E-03         2.19941        -1.49905        -15.9665     32.5255E-03    -15.9826E-03    -16.5430E-03    -16.4665E-03     32.5217E-03    -16.0552E-03     825.273E-06     5.96222E+06    -3.05634E+06    -196.869E+06     504.071E+03    -196.850E+06     2.38240E+06    -1.28441E+06         22.4042
              33     740.242E-09     46.2558E-03         7.98534    -367.518E-03        -7.71562        -1.65592         1.92564    -367.518E-03        -15.2787     32.5497E-03    -15.8704E-03    -16.6793E-03    -16.3572E-03     32.5488E-03    -16.1916E-03     359.899E-06     5.21189E+06    -5.79108E+06    -198.068E+06    -289.415E+03    -198.006E+06    -352.344E+03    -3.45670E+06         22.4073
              34    -1.45808E-06     45.2219E-03         7.09121     649.184E-03        -7.77805        -2.64715         1.96031     649.184E-03        -14.1146     32.4912E-03    -15.9823E-03    -16.5089E-03    -16.1847E-03     32.4882E-03    -16.3035E-03     609.452E-06     1.89429E+06    -7.06138E+06    -198.954E+06    -1.55612E+06    -198.895E+06    -3.66994E+06    -853.218E+03         22.4141
              35     1.89015E-06     44.1904E-03         6.12045         1.63160        -7.71797        -3.81049         2.21297         1.63160        -12.4041     32.9403E-03    -16.3470E-03    -16.5934E-03    -16.5848E-03     32.9318E-03    -16.3470E-03     1.28598E-03    -3.26814E+06    -8.36241E+06    -201.643E+06    -6.67596E+06    -201.626E+06    -4.97097E+06     985.436E+03         22.4238
              36    -1.85520E-06     43.1571E-03         5.16252         2.70382        -7.76216        -5.08993         2.49029         2.70382        -10.4007     33.1034E-03    -16.4789E-03    -16.6245E-03    -16.5142E-03     33.0976E-03    -16.5834E-03     718.225E-06    -1.01142E+06    -4.42295E+06    -199.136E+06    -1.01618E+06    -199.132E+06    -4.42295E+06     393.893E+03         22.4355
              37     1.61539E-06     42.1256E-03         4.55954         3.56390        -7.95735        -6.33732         2.67233         3.83108        -8.18582     33.1353E-03    -16.3940E-03    -16.7413E-03    -16.6349E-03     33.1334E-03    -16.4985E-03     403.887E-06     2.01706E+06    -2.08146E+06    -198.131E+06    -399.507E+03    -198.104E+06     308.365E+03     2.13052E+06         22.4468
              38    -1.12130E-06     41.0920E-03         4.97404         3.60430        -8.33981        -7.59930         2.86380         4.97404        -5.52893     33.3875E-03    -16.3727E-03    -17.0148E-03    -16.6130E-03     33.3850E-03    -16.7720E-03     689.969E-06     3.52100E+06    -1.05607E+06    -197.880E+06     1.09930E+06    -197.848E+06     1.33375E+06     520.720E+03         22.4557
              39     294.415E-09     40.0594E-03         6.05894         3.48459        -9.23095        -9.03601         3.28966         6.05894        -2.64068     33.6190E-03    -16.5569E-03    -17.0621E-03    -16.6616E-03     33.6178E-03    -16.9562E-03     492.698E-06     1.29517E+06    -1.01057E+06    -198.881E+06     1.15367E+06    -198.858E+06    -892.082E+03     199.118E+03         22.4608
              40    -97.8600E-09     39.0252E-03         7.08508         3.85473        -10.5596        -10.5336         3.82878         7.08508     55.9158E-03     33.6976E-03    -16.6058E-03    -17.0918E-03    -17.0890E-03     33.6948E-03    -16.6058E-03     714.306E-06     2.00302E+06    -786.166E+03    -197.929E+06    -850.042E+03    -197.865E+06     2.00302E+06    -1.05049E+06         22.4620
              41     866.294E-09     37.9923E-03         8.22241         4.16312        -11.9459        -11.8120         4.02919         8.22241         2.64018     33.5830E-03    -16.5446E-03    -17.0384E-03    -17.0353E-03     33.5798E-03    -16.5446E-03     778.419E-06     463.652E+03    -3.03282E+06    -198.861E+06    -2.28198E+06    -198.786E+06    -362.115E+03    -653.794E+03         22.4606
              42    -668.095E-09     36.9597E-03         9.49238         4.27979        -13.2399        -12.8417         3.88162         9.49238         5.13072     33.3384E-03    -16.4596E-03    -16.8787E-03    -16.5714E-03     33.3365E-03    -16.7651E-03     604.635E-06    -2.31587E+06    -4.28210E+06    -200.593E+06    -2.34118E+06    -200.568E+06    -4.28210E+06     1.33706E+06         22.4585
              43     38.5347E-09     35.9258E-03         10.7470         4.41340        -14.5897        -13.8411         3.66472         10.7470         7.34568     33.2747E-03    -16.2873E-03    -16.9874E-03    -16.6792E-03     33.2720E-03    -16.5928E-03     719.498E-06    -598.105E+03    -4.73756E+06    -199.435E+06    -3.59904E+06    -199.433E+06    -1.73857E+06     144.973E+03         22.4563
              44     762.133E-09     34.8939E-03         11.8989         4.59033        -15.8503        -14.7248         3.46479         11.8989         9.30228     33.1199E-03    -16.2785E-03    -16.8414E-03    -16.6697E-03     33.1164E-03    -16.4468E-03     824.453E-06     2.38449E+06    -5.23265E+06    -199.432E+06    -620.979E+03    -199.426E+06    -2.23367E+06    -348.280E+03         22.4540
              45    -1.17050E-06     33.8606E-03         13.0580         4.59073        -16.9175        -15.4166         3.08985         13.0580         10.9412     33.0791E-03    -16.4257E-03    -16.6533E-03    -16.4796E-03     33.0736E-03    -16.5940E-03     1.02403E-03     1.19498E+06     -7.3973E+06    -201.228E+06    -2.86109E+06    -201.146E+06    -3.42317E+06     1.99273E+06         22.4526
              46     1.32166E-06     32.8279E-03         14.3335         4.11860        -17.7135        -15.8288         2.23387         14.3335         12.2420     33.3763E-03    -16.4154E-03    -16.9610E-03    -16.9571E-03     33.3725E-03    -16.4154E-03     641.568E-06     1.59184E+06    -2.66563E+06    -198.385E+06    -2.50824E+06    -198.259E+06     1.30850E+06     495.087E+03         22.4531
              47    -379.541E-09     31.7959E-03         15.6323         3.39259        -18.1914        -15.8549         1.05602         15.6323         13.3831     33.0356E-03    -16.1316E-03    -16.9040E-03    -16.6171E-03     33.0348E-03    -16.4177E-03     306.082E-06    -1.23134E+06    -2.72945E+06    -200.566E+06    -1.28937E+06    -200.508E+06    -2.72945E+06    -1.27356E+06         22.4555
              48    -212.461E-09     30.7628E-03         16.7507         2.79428        -18.6245        -15.7704    -59.8100E-03         16.7507         14.5379     33.3604E-03    -16.4397E-03    -16.9207E-03    -16.6333E-03     33.3592E-03    -16.7258E-03     483.601E-06     1.98721E+06    -1.54835E+06    -197.406E+06     1.96625E+06    -197.385E+06    -1.54835E+06     2.03957E+06         22.4590
              49     552.233E-09     29.7299E-03         17.6327         2.35967        -18.9790        -15.5919        -1.02751         17.6327         15.5761     34.0101E-03    -16.7339E-03    -17.2762E-03    -16.9242E-03     34.0056E-03    -17.0814E-03     842.348E-06     266.130E+03    -4.63986E+06    -200.187E+06    -2.33123E+06    -200.174E+06    -2.05465E+06     1.22567E+06         22.4626
              50    -1.22042E-06     28.6941E-03         18.3067         1.92418        -19.1780        -15.1701        -2.08369         18.3067         16.5260     33.6486E-03    -16.4652E-03    -17.1834E-03    -16.8292E-03     33.6419E-03    -16.8127E-03     1.15538E-03    -6.14127E+06     -9.4644E+06    -203.977E+06    -9.51100E+06    -203.931E+06    -6.14127E+06    -1.99138E+06         22.4660
              51     1.94264E-06     27.6624E-03         18.7795         1.53941        -19.2683        -14.4256        -3.30334         18.7795         17.5433     32.9444E-03    -16.2348E-03    -16.7096E-03    -16.7056E-03     32.9404E-03    -16.2348E-03     878.220E-06     3.65777E+06    -390.211E+03    -195.157E+06     2.70774E+06    -194.945E+06     347.711E+03     1.96873E+06         22.4681
              52    -1.79418E-06     26.6314E-03         19.1194         1.38737        -19.3892        -13.4895        -4.51235         19.1194         18.6980     32.8948E-03    -16.2814E-03    -16.6134E-03    -16.3836E-03     32.8929E-03    -16.5093E-03     130.603E-06     41.8312E+03    -5.35288E+06    -200.807E+06    -2.20943E+06    -200.640E+06    -3.26823E+06     4.39015E+06         22.4668
              53     1.36032E-06     25.5986E-03         19.1207         1.65240        -19.5980        -12.6049        -5.34075         19.1207         19.9525     33.6891E-03    -16.7074E-03    -16.9818E-03    -16.7501E-03     33.6852E-03    -16.9352E-03     348.270E-06     504.090E+03    -4.19092E+06    -201.461E+06    -1.59926E+06    -201.442E+06    -2.10628E+06     1.64839E+06         22.4598
              54    -1.32193E-06     24.5626E-03         18.6165         2.33746        -19.7611        -11.7171        -5.70649         18.6165         21.2523     33.9413E-03    -16.9291E-03    -17.0122E-03    -17.0072E-03     33.9363E-03    -16.9291E-03     995.473E-06     3.94204E+06    -640.198E+03    -199.139E+06     1.94204E+06    -199.111E+06     1.33167E+06     2.35976E+06         22.4452
              55     1.40423E-06     23.5311E-03         17.8271         3.13301        -19.7869        -10.7338        -5.92014         17.8271         22.3980     33.3753E-03    -16.5593E-03    -16.8160E-03    -16.8124E-03     33.3717E-03    -16.5593E-03     844.933E-06    -1.59322E+06    -5.46094E+06    -202.770E+06    -5.47136E+06    -202.760E+06    -1.59322E+06     924.534E+03         22.4220
              56    -961.442E-09     22.4970E-03         16.7682         4.03066        -19.6353        -9.65316        -5.95150         16.7682         23.3676     32.3987E-03    -16.0028E-03    -16.3959E-03    -16.2170E-03     32.3928E-03    -16.1758E-03     1.05087E-03     3.07605E+06    -3.28993E+06    -198.435E+06     1.18013E+06    -198.435E+06    -1.39408E+06    -98.3531E+03         22.3901
              57     540.539E-09     21.4665E-03         15.3775         5.03745        -19.3006        -8.58614        -5.67699         15.3775         24.1614     31.5103E-03    -15.6276E-03    -15.8827E-03    -15.7055E-03     31.5061E-03    -15.8006E-03     761.304E-06    -1.08283E+06    -9.45466E+06    -202.017E+06    -4.99186E+06    -202.009E+06    -5.55297E+06    -849.629E+03         22.3487
              58    -339.587E-09     20.4364E-03         13.7744         6.06215        -18.7499        -7.69921        -4.98858         13.7744         24.6635     30.9782E-03    -15.3971E-03    -15.5811E-03    -15.5801E-03     30.9772E-03    -15.3971E-03     416.146E-06    -3.56161E+06    -9.52094E+06    -203.799E+06    -7.47277E+06    -203.790E+06    -5.61925E+06    -376.122E+03         22.2953
              59     499.595E-09     19.4052E-03         11.9450         7.00405        -17.9020        -7.00781        -3.89013         11.9450         24.7078     30.2873E-03    -15.0430E-03    -15.2442E-03    -15.1442E-03     30.2865E-03    -15.1423E-03     251.882E-06    -1.27081E+06    -4.23238E+06    -199.529E+06    -2.18727E+06    -199.516E+06    -3.32845E+06     1.46601E+06         22.2265
              60    -696.314E-09     18.3772E-03         9.98003         7.83286        -16.7965        -6.38070        -2.58292         9.98003         24.3317     29.2090E-03    -14.5359E-03    -14.6730E-03    -14.5350E-03     29.2080E-03    -14.6730E-03     264.553E-06    -5.96765E+06    -7.06933E+06    -201.698E+06    -7.08139E+06    -201.686E+06    -5.96765E+06     1.40700E+06         22.1394
              61     609.989E-09     17.3468E-03         8.75120         7.73999        -15.5376        -5.79368        -1.37820         8.12545         23.4891     27.6578E-03    -13.7723E-03    -13.8854E-03    -13.8467E-03     27.6568E-03    -13.8101E-03     295.546E-06     1.31359E+06    -3.67125E+03    -192.931E+06     875.126E+03    -192.690E+06     194.076E+03    -4.38829E+06         22.0324
              62    -486.648E-09     16.3235E-03         8.65026         6.34798        -14.1269        -5.27849    -198.146E-03         6.34798         22.1966     25.5917E-03    -12.6988E-03    -12.8929E-03    -12.8924E-03     25.5912E-03    -12.6988E-03    -181.841E-06     3.79024E+06     564.734E+03    -188.458E+06     3.24855E+06    -187.917E+06     564.734E+03     588.912E+03         21.9065
              63     683.399E-09     15.2972E-03         8.86787         4.59325        -12.6400        -4.87968         1.10753         4.59325         20.6451     23.3740E-03    -11.6223E-03    -11.7518E-03    -11.7389E-03     23.3719E-03    -11.6330E-03    -524.839E-06     3.84234E+06    -1.40395E+06    -189.303E+06     258.180E+03    -188.859E+06     1.73634E+06     9.02221E+06         21.7645
              64    -677.623E-09     14.2784E-03         8.89752         3.04969        -11.1895        -4.60896         2.31698         3.04969         18.8408     21.1016E-03    -10.4907E-03    -10.6109E-03    -10.4873E-03     21.0982E-03    -10.6109E-03    -661.097E-06     10.4030E+06     4.57197E+06    -187.134E+06     7.04536E+06    -186.917E+06     7.71227E+06     878.163E+03         21.6126
              65     408.433E-09     13.2565E-03         8.78472         1.73200        -9.82126        -4.38567         3.34913         1.73200         16.9054     18.6655E-03    -9.23258E-03    -9.43290E-03    -9.31886E-03     18.6609E-03    -9.34202E-03    -710.754E-06     14.4253E+06     9.25661E+06    -187.325E+06     11.8651E+06    -187.243E+06     11.7345E+06    -1.98307E+06         21.4608
              66    -214.880E-09     12.2422E-03         8.58846     648.801E-03        -8.59105        -4.13543         4.13285     648.801E-03         15.0485     16.1431E-03    -8.00632E-03    -8.13673E-03    -8.08998E-03     16.1358E-03    -8.04585E-03    -826.814E-06     20.6725E+06     14.6911E+06    -181.598E+06     18.1862E+06    -181.590E+06     17.1690E+06     1.25457E+06         21.3215
              67     66.8117E-09     11.2267E-03         8.24054    -81.1432E-03        -7.56328        -3.87083         4.54809    -81.1432E-03         13.3680     14.0262E-03    -6.98287E-03    -7.04334E-03    -6.99122E-03     14.0136E-03    -7.02240E-03    -1.01282E-03     23.0514E+06     15.5288E+06    -178.715E+06     19.0167E+06    -178.699E+06     19.5479E+06    -666.282E+03         21.2082
              68    -2.65021E-09     10.2160E-03         7.90331    -629.085E-03        -6.71196        -3.66018         4.85153    -629.085E-03         11.8710     12.4360E-03    -6.20654E-03    -6.22950E-03    -6.21833E-03     12.4269E-03    -6.20856E-03    -755.218E-06     17.7570E+06     11.2295E+06    -185.093E+06     13.7215E+06    -185.077E+06     15.2486E+06    -1.68685E+06         21.1346
              69    -51.3695E-09     9.20300E-03         7.63652        -1.03859        -6.05453        -3.51186         5.09385        -1.03859         10.6431     11.2731E-03    -5.56820E-03    -5.70492E-03    -5.56649E-03     11.2714E-03    -5.70492E-03    -338.215E-06     17.9751E+06     15.4557E+06    -182.948E+06     17.9513E+06    -182.936E+06     15.4667E+06     441.160E+03         21.1126
              70    -233.484E-09     8.19512E-03         7.22925        -1.17333        -5.52877        -3.33175         5.03223        -1.17333         9.63293     11.2884E-03    -5.57452E-03    -5.71391E-03    -5.57372E-03     11.2876E-03    -5.71391E-03    -208.923E-06     16.9026E+06     15.3745E+06    -183.920E+06     15.3581E+06    -183.904E+06     16.9026E+06     175.368E+03         21.1506
              71     229.190E-09     7.18322E-03         6.69045        -1.10935        -5.07151        -3.14510         4.76404        -1.10935         8.70452     12.5744E-03    -6.23696E-03    -6.33748E-03    -6.23642E-03     12.5739E-03    -6.33748E-03     74.9074E-06     11.9955E+06     10.2839E+06    -190.239E+06     10.4553E+06    -190.216E+06     11.8010E+06    -2.09988E+06         21.2545
              72    -443.600E-09     6.17084E-03         6.06423    -888.856E-03        -4.68813        -2.94485         4.32096    -888.856E-03         7.92543     14.6463E-03    -7.26722E-03    -7.37906E-03    -7.25931E-03     14.6384E-03    -7.37906E-03     729.259E-06     4.11802E+06     3.06521E+06    -195.295E+06     3.23961E+06    -195.275E+06     3.92358E+06    -1.87632E+06         21.4279
              73     390.432E-09     5.15522E-03         5.36057    -527.512E-03        -4.35355        -2.76868         3.77570    -527.512E-03         7.17852     18.2311E-03    -9.05296E-03    -9.17819E-03    -9.14734E-03     18.2163E-03    -9.06897E-03     1.27161E-03    -1.79069E+06    -4.92688E+06    -199.859E+06    -2.65264E+06    -199.855E+06    -4.06851E+06    -660.827E+03         21.6735
              74    -244.595E-09     4.13682E-03         4.69526    -156.200E-03        -4.07991        -2.76913         3.38448    -156.200E-03         6.24925     23.2435E-03    -11.4999E-03    -11.7436E-03    -11.5983E-03     23.2327E-03    -11.6344E-03     1.19171E-03    -11.9224E+06    -15.8774E+06    -212.332E+06    -13.7227E+06    -212.208E+06    -14.2003E+06    -3.57293E+06         22.0007
              75    -29.8286E-09     3.11051E-03         4.01510     203.919E-03        -3.76335        -2.80341         3.05516     203.919E-03         5.10484     29.0016E-03    -14.4168E-03    -14.5848E-03    -14.4422E-03     28.9935E-03    -14.5513E-03     1.18222E-03    -20.0778E+06    -24.8153E+06    -223.778E+06    -21.8804E+06    -223.652E+06    -23.1381E+06    -3.00680E+06         22.4388
              76     1.52150E-09     2.08007E-03         3.22671     619.846E-03        -3.39597        -2.82765         2.65839     619.846E-03         3.66523     35.0264E-03    -17.4299E-03    -17.5965E-03    -17.4581E-03     35.0212E-03    -17.5631E-03     936.292E-06    -21.6521E+06    -28.1980E+06    -227.991E+06    -25.1641E+06    -227.964E+06    -24.7125E+06    -1.06252E+06         23.0499
              77    -303.393E-09     1.04170E-03         2.53610     945.127E-03        -3.04206        -2.84137         2.33541     945.127E-03         1.88334     39.6684E-03    -19.6953E-03    -19.9731E-03    -19.8392E-03     39.6677E-03    -19.8285E-03     275.959E-06    -31.1572E+06    -35.8318E+06    -236.350E+06    -34.6677E+06    -236.325E+06    -32.3462E+06    -1.27301E+06         23.9264
              78     979.336E-06    -201.228E-18         2.38704     44.6824E-03        -1.98758        -1.96121         2.36067     44.6824E-03     236.833E-03     40.8959E-03    -20.2435E-03    -20.6524E-03    -20.3877E-03     40.8955E-03    -20.5078E-03     218.077E-06    -29.7344E+06    -35.6392E+06    -234.582E+06    -34.5296E+06    -234.503E+06    -30.9234E+06    -2.50447E+06         24.4325
              79     1.95979E-03    -201.228E-18         2.59885    -999.058E-03        -1.17182        -1.16233         2.58936    -999.058E-03    -57.3853E-03     39.6087E-03    -19.3735E-03    -20.2352E-03    -19.3705E-03     39.6056E-03    -20.2352E-03     770.061E-06    -24.0463E+06    -29.1091E+06    -227.189E+06    -28.8482E+06    -227.103E+06    -24.3932E+06    -1.93041E+06         24.3993
              80     2.94073E-03    -201.228E-18         2.87585        -1.08836        -1.38179        -1.37861         2.87266        -1.08836     138.553E-03     37.7927E-03    -18.0834E-03    -19.7092E-03    -18.0768E-03     37.7860E-03    -19.7092E-03     1.21115E-03    -24.9336E+06    -29.6202E+06    -225.261E+06    -25.0471E+06    -225.147E+06    -29.6202E+06    -2.41238E+06         24.3467
              81     3.92408E-03    -201.228E-18         3.23336        -1.19423        -1.65346        -1.65236         3.23226        -1.19423     86.4120E-03     35.7347E-03    -16.6383E-03    -19.0964E-03    -16.6271E-03     35.7235E-03    -19.0964E-03     1.51149E-03    -21.7400E+06    -32.7828E+06    -229.451E+06    -21.8506E+06    -229.341E+06    -32.7828E+06    -3.96692E+06         24.2776
              82     4.90822E-03    -201.228E-18         3.62053        -1.31524        -1.95040        -1.94901         3.61914        -1.31524     167.289E-03     33.6218E-03    -15.2026E-03    -18.4192E-03    -15.1877E-03     33.6069E-03    -18.4192E-03     1.70084E-03    -16.8491E+06    -36.3398E+06    -233.075E+06    -16.9727E+06    -232.951E+06    -36.3398E+06    -4.30358E+06         24.1979
              83     5.89449E-03    -201.228E-18         4.05529        -1.44860        -2.28347        -2.28232         4.05414        -1.44860     167.756E-03     31.4782E-03    -13.8243E-03    -17.6539E-03    -13.8026E-03     31.4565E-03    -17.6539E-03     1.95043E-03    -11.6133E+06    -50.0754E+06    -230.551E+06    -11.8227E+06    -230.342E+06    -50.0754E+06    -6.75249E+06         24.1166
              84     6.88140E-03    -201.228E-18         4.46117        -1.58978        -2.58595        -2.58477         4.45998        -1.58978     178.271E-03     29.3810E-03    -12.5186E-03    -16.8624E-03    -12.4914E-03     29.3537E-03    -16.8624E-03     2.13643E-03    -7.41444E+06    -66.1081E+06    -220.559E+06     -7.6298E+06    -220.344E+06    -66.1081E+06    -6.74145E+06         24.0454
              85     7.87052E-03    -201.228E-18         4.81393        -1.73053        -2.83464        -2.83404         4.81332        -1.73053     135.273E-03     27.4127E-03    -11.3356E-03    -16.0771E-03    -11.3024E-03     27.3795E-03    -16.0771E-03     2.24989E-03    -3.90104E+06    -79.3176E+06    -196.114E+06    -4.10252E+06    -195.913E+06    -79.3176E+06    -6.19866E+06         24.0014
              86     8.85983E-03    -201.228E-18         5.05776        -1.86228        -2.97970        -2.97930         5.05737        -1.86228     112.161E-03     25.5467E-03    -10.2449E-03    -15.3018E-03    -10.2040E-03     25.5058E-03    -15.3018E-03     2.41714E-03     703.729E+03    -91.7051E+06    -161.086E+06     181.492E+03    -160.563E+06    -91.7051E+06    -8.29587E+06         24.0169
              87     9.85082E-03    -201.228E-18         5.14285        -1.97541        -2.98365        -2.98350         5.14269        -1.97541     56.7722E-03     23.8773E-03    -9.30710E-03    -14.5702E-03    -9.26711E-03     23.8373E-03    -14.5702E-03     2.30250E-03     4.35909E+06    -96.9833E+06    -123.423E+06     3.83618E+06    -119.603E+06    -100.280E+06    -7.68185E+06         24.1598
              88     10.8430E-03    -201.228E-18         5.09744        -2.06353        -2.88173        -2.88173         5.09743        -2.06353     11.6629E-03     22.5668E-03    -8.66348E-03    -13.9033E-03    -8.57569E-03     22.4790E-03    -13.9033E-03     3.14528E-03     5.00760E+06    -71.7608E+06    -103.895E+06     4.80697E+06    -71.5601E+06    -103.895E+06    -3.75679E+06         24.5647
              89     11.8321E-03    -201.228E-18         4.96908        -2.12594        -2.72201        -2.72199         4.96907        -2.12594     18.9750E-03     21.3042E-03    -7.97967E-03    -13.3246E-03    -7.89474E-03     21.2193E-03    -13.3246E-03     2.99556E-03     12.6455E+06    -22.3342E+06    -98.2199E+06     3.06897E+06    -12.7577E+06    -98.2199E+06    -2.68596E+06         25.4575
              90     12.8303E-03    -201.228E-18         4.70583        -2.16207        -2.44989        -2.44984         4.70577        -2.16207     38.1822E-03     20.1147E-03    -7.20246E-03    -12.9123E-03    -7.07420E-03     19.9865E-03    -12.9123E-03     3.38142E-03     35.8088E+06    -1.75923E+06    -72.7483E+06    -1.64643E+06     35.6960E+06    -72.7483E+06    -105.227E+03         27.1363
              91     13.8149E-03    -201.228E-18         4.28192        -1.99043        -2.21899        -2.04072         4.28184        -2.16861     46.1928E-03     19.9135E-03    -7.23796E-03    -12.6756E-03    -7.05857E-03     19.7341E-03    -12.6756E-03     4.35681E-03     64.0882E+06    -3.83744E+06    -30.4056E+06    -3.77096E+06     64.0217E+06    -30.4056E+06     2.12021E+06         29.8438
              92     14.8194E-03    -201.228E-18         3.73869        -1.53968        -2.14380        -1.53951         3.73852        -2.14380     56.9605E-03     21.9462E-03    -9.36569E-03    -12.5805E-03    -8.89998E-03     21.4804E-03    -12.5805E-03     7.13615E-03     82.4354E+06     11.6264E+06    -12.1069E+06    -9.29682E+06     82.2531E+06     8.99867E+06     3.99678E+06         33.5222
              93     15.7907E-03    -201.228E-18         3.10775    -980.634E-03        -2.08876    -980.438E-03         3.10756        -2.08876     56.4174E-03     19.4815E-03    -6.96098E-03    -12.5205E-03    -6.41148E-03     18.9320E-03    -12.5205E-03     7.52337E-03     101.341E+06     49.4460E+06    -11.9576E+06    -11.5713E+06     100.955E+06     49.4460E+06    -1.19187E+06         37.6189
              94     16.8014E-03    -201.228E-18         2.45369    -427.099E-03        -2.00971    -426.630E-03         2.45322        -2.00971     64.5117E-03     110.376E-03    -9.52363E-03    -100.852E-03    -84.7660E-03     99.1138E-03    -14.3478E-03     93.2999E-03     139.176E+06     92.1989E+06     4.17648E+06     4.85956E+06     138.493E+06     92.1989E+06     1.77254E+06         41.0846
              95     17.6748E-03     1.38418E-03         2.12035    -191.794E-03        -1.93654    -191.021E-03         2.11957        -1.93654     84.5143E-03     238.628E-03    -15.9332E-03    -222.695E-03    -165.471E-03     181.405E-03    -15.9332E-03     291.438E-03     156.111E+06     106.368E+06     1.74933E+06     2.93356E+06     154.927E+06     106.368E+06    -2.07659E+06         43.1731
              96     17.6807E-03     2.63739E-03         2.04751    -207.040E-03        -1.85398    -206.658E-03         2.04713        -1.85398     48.4265E-03     299.536E-03    -15.7749E-03    -283.761E-03    -162.389E-03     178.164E-03    -15.7749E-03     471.518E-03     151.262E+06     120.679E+06    -12.8881E+06    -12.1335E+06     150.507E+06     120.679E+06    -6.98627E+06         45.3954
              97     17.6948E-03     3.84886E-03         1.92567    -182.995E-03        -1.72624    -182.705E-03         1.92538        -1.72624     40.5222E-03     338.457E-03    -15.8942E-03    -322.563E-03    -151.342E-03     167.237E-03    -15.8942E-03     578.180E-03     166.830E+06     134.932E+06     1.18002E+06     2.73291E+06     165.277E+06     134.932E+06     11.9080E+06         48.7914
              98     17.7060E-03     4.94231E-03         1.78224    -158.144E-03        -1.56129    -157.132E-03         1.78123        -1.56129     85.7024E-03     354.708E-03    -15.6794E-03    -339.028E-03    -143.050E-03     158.730E-03    -15.6794E-03     624.654E-03     161.718E+06     126.751E+06    -6.59996E+06    -3.57927E+06     158.698E+06     126.751E+06     -11.293E+03         52.4309
              99     17.7107E-03     6.07438E-03         1.61851    -144.913E-03        -1.36640    -143.261E-03         1.61686        -1.36640     107.542E-03     383.409E-03    -15.1937E-03    -368.215E-03    -163.901E-03     179.094E-03    -15.1937E-03     668.517E-03     162.438E+06     149.699E+06    -12.0379E+06    -10.0810E+06     157.644E+06     152.536E+06    -4.77121E+06         55.7789
             100     17.7174E-03     7.29841E-03         1.43682    -131.061E-03        -1.15549    -129.553E-03         1.43531        -1.15549     96.9319E-03     404.073E-03    -15.1314E-03    -388.941E-03    -166.680E-03     181.811E-03    -15.1314E-03     711.513E-03     169.462E+06     149.418E+06     905.321E+03     1.38894E+06     166.142E+06     152.255E+06     6.10879E+06         58.5514
             101     17.7186E-03     8.30460E-03         1.23796    -102.588E-03    -942.372E-03    -101.884E-03         1.23726    -942.372E-03     58.1956E-03     396.358E-03    -15.7242E-03    -380.634E-03    -138.954E-03     154.678E-03    -15.7242E-03     719.120E-03     166.377E+06     143.390E+06    -4.88426E+06    -4.87355E+06     160.587E+06     149.170E+06    -1.20038E+06         60.7797
             102     17.7181E-03     9.36453E-03         1.04078    -76.4813E-03    -731.559E-03    -76.3317E-03         1.04063    -731.559E-03     25.1653E-03     380.806E-03    -15.8666E-03    -364.940E-03    -129.369E-03     145.235E-03    -15.8666E-03     693.259E-03     172.905E+06     165.561E+06    -2.96758E+06     -2.7151E+06     166.873E+06     171.341E+06     3.62798E+06         62.6593
             103     17.7189E-03     10.4364E-03     875.932E-03    -71.2210E-03    -528.360E-03    -71.0091E-03     875.721E-03    -528.360E-03     26.1002E-03     365.555E-03    -15.6980E-03    -349.857E-03    -125.116E-03     140.814E-03    -15.6980E-03     664.098E-03     167.703E+06     161.265E+06    -2.63381E+06    -2.37588E+06     167.446E+06     161.265E+06     5.66823E+06         64.2796
             104     17.7193E-03     11.4911E-03     760.409E-03    -92.4852E-03    -337.091E-03    -92.2359E-03     760.160E-03    -337.091E-03     28.5948E-03     356.413E-03    -15.6865E-03    -340.727E-03    -119.250E-03     134.936E-03    -15.6865E-03     649.142E-03     161.089E+06     150.405E+06    -10.0419E+06    -9.76814E+06     160.816E+06     150.405E+06    -3.56578E+06         65.7646
             105     17.7180E-03     12.5748E-03     691.670E-03    -91.7505E-03    -201.173E-03    -132.883E-03     691.594E-03    -159.964E-03     13.3432E-03     357.930E-03    -15.6363E-03    -342.294E-03    -121.851E-03     137.487E-03    -15.6363E-03     650.427E-03     167.634E+06     154.101E+06    -4.14069E+06    -3.58596E+06     167.080E+06     154.101E+06     339.419E+03         67.2051
             106     17.7199E-03     13.6834E-03     680.262E-03    -468.139E-06    -190.193E-03    -189.879E-03     679.948E-03    -468.139E-06     26.2193E-03     370.824E-03    -15.7577E-03    -355.066E-03    -124.199E-03     139.957E-03    -15.7577E-03     676.091E-03     163.517E+06     150.686E+06    -8.46453E+06    -7.34370E+06     162.396E+06     150.686E+06    -3.33515E+06         68.5737
             107     17.7166E-03     14.7621E-03     721.312E-03     139.618E-03    -267.667E-03    -267.096E-03     720.741E-03     139.618E-03     47.3812E-03     391.073E-03    -16.0342E-03    -375.039E-03    -127.442E-03     143.476E-03    -16.0342E-03     716.607E-03     161.998E+06     155.888E+06    -9.66281E+06    -8.71525E+06     161.050E+06     155.888E+06    -5.13266E+06         69.8124
             108     17.7197E-03     15.8726E-03     804.564E-03     259.928E-03    -364.985E-03    -364.236E-03     803.816E-03     259.928E-03     58.8151E-03     415.410E-03    -16.3436E-03    -399.066E-03    -131.206E-03     147.550E-03    -16.3436E-03     765.249E-03     165.578E+06     154.744E+06    -4.85607E+06    -4.57984E+06     165.302E+06     154.744E+06    -358.828E+03         70.8342
             109     17.7158E-03     16.9245E-03     927.636E-03     362.017E-03    -470.193E-03    -468.295E-03     925.738E-03     362.017E-03     100.693E-03     428.431E-03    -16.8019E-03    -411.629E-03    -124.915E-03     141.717E-03    -16.8019E-03     796.497E-03     163.829E+06     152.061E+06    -9.10525E+06    -8.90483E+06     161.693E+06     153.996E+06    -1.58919E+06         71.5963
             110     17.7196E-03     17.9425E-03         1.06344     448.365E-03    -575.310E-03    -572.752E-03         1.06088     448.365E-03     128.892E-03     425.957E-03    -17.1639E-03    -408.793E-03    -112.686E-03     129.850E-03    -17.1639E-03     798.681E-03     170.132E+06     157.363E+06    -2.83576E+06    -2.77056E+06     168.132E+06     159.298E+06     3.25665E+06         72.1230
             111     17.7152E-03     18.9559E-03         1.20114     520.289E-03    -680.906E-03    -678.358E-03         1.19859     520.289E-03     138.370E-03     408.959E-03    -17.3612E-03    -391.597E-03    -94.4345E-03     111.796E-03    -17.3612E-03     773.312E-03     172.929E+06     151.065E+06     1.19449E+06     1.76165E+06     172.362E+06     151.065E+06     8.13531E+06         72.4684
             112     17.7205E-03     19.9184E-03         1.34427     579.687E-03    -779.487E-03    -776.284E-03         1.34107     579.687E-03     164.741E-03     382.894E-03    -17.3173E-03    -365.577E-03    -80.5859E-03     97.9032E-03    -17.3173E-03     726.870E-03     166.879E+06     145.006E+06    -7.37766E+06    -6.05611E+06     165.558E+06     145.006E+06    -1.28090E+06         72.7411
             113     17.7147E-03     20.9297E-03         1.46644     627.813E-03    -863.922E-03    -861.704E-03         1.46422     627.813E-03     134.590E-03     371.826E-03    -16.8115E-03    -355.015E-03    -92.9898E-03     109.801E-03    -16.8115E-03     697.449E-03     170.449E+06     155.235E+06    -4.33732E+06    -3.23592E+06     169.347E+06     155.235E+06    -2.81597E+06         73.0135
             114     17.7210E-03     22.0379E-03         1.55372     663.956E-03    -927.232E-03    -926.459E-03         1.55295     663.956E-03     87.4723E-03     391.391E-03    -16.3649E-03    -375.026E-03    -118.053E-03     134.418E-03    -16.3649E-03     723.548E-03     166.902E+06     150.261E+06    -7.30630E+06    -6.05705E+06     165.652E+06     150.261E+06    -3.52600E+06         73.2767
             115     17.7133E-03     23.1376E-03         1.60096     689.045E-03    -962.097E-03    -961.288E-03         1.60015     689.045E-03     90.9127E-03     417.476E-03    -16.5391E-03    -400.937E-03    -127.257E-03     143.796E-03    -16.5391E-03     772.160E-03     164.087E+06     150.207E+06    -11.0586E+06    -9.75929E+06     162.788E+06     150.207E+06    -3.10309E+06         73.5592
             116     17.7220E-03     24.1733E-03         1.58293     704.782E-03    -968.356E-03    -967.880E-03         1.58246     704.782E-03     59.7192E-03     426.281E-03    -16.9616E-03    -409.320E-03    -117.696E-03     134.658E-03    -16.9616E-03     796.429E-03     168.299E+06     149.435E+06    -5.13171E+06    -4.51697E+06     167.684E+06     149.435E+06     1.30952E+06         73.8711
             117     17.7141E-03     25.1888E-03         1.50966     712.135E-03    -939.470E-03    -939.405E-03         1.50959     712.135E-03     25.0812E-03     420.480E-03    -17.3800E-03    -403.100E-03    -100.249E-03     117.629E-03    -17.3800E-03     794.058E-03     169.176E+06     148.401E+06    -4.57586E+06    -3.81000E+06     168.410E+06     148.401E+06     2.37227E+06         74.1309
             118     17.7217E-03     26.1776E-03         1.40716     711.743E-03    -882.287E-03    -882.171E-03         1.40705     711.743E-03     32.0405E-03     418.292E-03    -17.4330E-03    -400.859E-03    -95.9211E-03     113.354E-03    -17.4330E-03     791.914E-03     172.227E+06     147.329E+06    -1.66302E+06    -841.535E+03     171.406E+06     147.329E+06     1.87078E+06         74.2800
             119     17.7146E-03     27.2309E-03         1.28241     703.343E-03    -813.224E-03    -813.114E-03         1.28230     703.343E-03     29.7783E-03     424.731E-03    -17.1452E-03    -407.585E-03    -109.441E-03     126.586E-03    -17.1452E-03     798.009E-03     167.089E+06     144.011E+06    -7.11333E+06    -6.81508E+06     166.790E+06     144.011E+06    -5.74388E+06         74.3081
             120     17.7203E-03     28.2746E-03         1.14631     686.345E-03    -733.724E-03    -733.522E-03         1.14611     686.345E-03     35.8335E-03     423.506E-03    -17.1705E-03    -406.336E-03    -108.856E-03     126.026E-03    -17.1705E-03     795.758E-03     175.539E+06     153.744E+06    -679.938E+03    -301.740E+03     175.161E+06     153.744E+06     4.90149E+06         74.2634
             121     17.7175E-03     29.2493E-03         1.00956     658.827E-03    -640.769E-03    -640.312E-03         1.00910     658.827E-03     54.1952E-03     405.333E-03    -17.2295E-03    -388.104E-03    -94.8566E-03     112.086E-03    -17.2295E-03     765.966E-03     174.927E+06     147.984E+06    -1.95741E+06    -1.56104E+06     174.531E+06     147.984E+06     4.17997E+06         74.2664
             122     17.7190E-03     30.2549E-03     870.039E-03     614.962E-03    -540.758E-03    -540.467E-03     869.748E-03     614.962E-03     32.4713E-03     398.151E-03    -16.9157E-03    -381.236E-03    -103.269E-03     120.185E-03    -16.9157E-03     746.271E-03     172.187E+06     154.327E+06    -6.46948E+06    -6.43492E+06     172.152E+06     154.327E+06    -2.42230E+06         74.3243
             123     17.7167E-03     31.3662E-03     737.225E-03     548.881E-03    -444.719E-03    -444.634E-03     737.140E-03     548.881E-03     16.0793E-03     417.119E-03    -16.6542E-03    -400.465E-03    -123.558E-03     140.212E-03    -16.6542E-03     773.847E-03     170.866E+06     153.507E+06    -8.04820E+06    -7.92974E+06     170.748E+06     153.507E+06    -4.05609E+06         74.3726
             124     17.7177E-03     32.4288E-03     647.096E-03     461.943E-03    -359.202E-03    -357.052E-03     644.946E-03     461.943E-03     75.3828E-03     421.666E-03    -17.0209E-03    -404.645E-03    -112.267E-03     129.288E-03    -17.0209E-03     789.564E-03     175.674E+06     149.461E+06    -3.46867E+06    -2.71841E+06     174.924E+06     149.461E+06     4.40254E+06         74.4841
             125     17.7193E-03     33.3648E-03     597.331E-03     355.602E-03    -286.435E-03    -282.580E-03     593.475E-03     355.602E-03     116.489E-03     396.653E-03    -17.2468E-03    -379.406E-03    -89.6378E-03     106.885E-03    -17.2468E-03     750.764E-03     175.197E+06     146.763E+06    -4.22054E+06    -3.16624E+06     174.142E+06     146.763E+06     1.43751E+06         74.7477
             126     17.7171E-03     34.3832E-03     574.751E-03     224.811E-03    -228.946E-03    -226.424E-03     572.229E-03     224.811E-03     88.1310E-03     388.762E-03    -16.8626E-03    -371.899E-03    -100.648E-03     117.510E-03    -16.8626E-03     728.203E-03     173.922E+06     155.477E+06    -6.42148E+06    -5.93227E+06     173.433E+06     155.477E+06    -3.47269E+06         75.0378
             127     17.7183E-03     35.5151E-03     582.253E-03     67.8876E-03    -173.804E-03    -171.373E-03     579.822E-03     67.8876E-03     83.5893E-03     417.937E-03    -16.6286E-03    -401.308E-03    -125.263E-03     141.891E-03    -16.6286E-03     774.446E-03     172.845E+06     152.515E+06    -7.21187E+06    -6.87105E+06     172.505E+06     152.515E+06    -2.25225E+06         75.2307
             128     17.7151E-03     36.5825E-03     622.202E-03    -63.0217E-03    -172.843E-03    -122.187E-03     618.028E-03    -109.504E-03     111.074E-03     433.697E-03    -17.0408E-03    -416.656E-03    -121.579E-03     138.620E-03    -17.0408E-03     809.236E-03     172.056E+06     155.341E+06    -8.63760E+06    -8.23537E+06     171.654E+06     155.341E+06    -1.34201E+06         75.4324
             129     17.7197E-03     37.5432E-03     701.446E-03    -103.120E-03    -302.125E-03    -96.0418E-03     694.368E-03    -302.125E-03     149.067E-03     411.909E-03    -17.3315E-03    -394.578E-03    -96.7586E-03     114.090E-03    -17.3315E-03     778.271E-03     179.401E+06     150.287E+06     179.287E+03     458.468E+03     179.122E+06     150.287E+06     7.06759E+06         75.7330
             130     17.7181E-03     38.5262E-03     794.986E-03    -89.2832E-03    -507.051E-03    -81.7487E-03     787.452E-03    -507.051E-03     161.111E-03     393.905E-03    -17.0699E-03    -376.835E-03    -92.6332E-03     109.703E-03    -17.0699E-03     743.515E-03     174.388E+06     139.157E+06    -5.21065E+06    -4.88116E+06     174.059E+06     139.157E+06    -596.666E+03         76.0288
             131     17.7194E-03     39.6139E-03     872.809E-03    -65.4838E-03    -719.327E-03    -61.4265E-03     868.752E-03    -719.327E-03     119.557E-03     415.122E-03    -16.7610E-03    -398.361E-03    -116.806E-03     133.567E-03    -16.7610E-03     773.750E-03     177.047E+06     151.817E+06    -4.83732E+06    -4.64887E+06     176.858E+06     151.817E+06    -3.96024E+06         76.1933
             132     17.7176E-03     40.7256E-03     971.485E-03    -49.7104E-03    -929.006E-03    -45.7408E-03     967.515E-03    -929.006E-03     124.728E-03     444.727E-03    -16.9015E-03    -427.825E-03    -130.775E-03     147.676E-03    -16.9015E-03     826.877E-03     177.446E+06     157.167E+06    -4.84871E+06    -4.78297E+06     177.380E+06     157.167E+06    -2.27154E+06         76.2580
             133     17.7187E-03     41.7202E-03         1.10672    -57.3534E-03        -1.12411    -49.4121E-03         1.09878        -1.12411     190.458E-03     440.375E-03    -17.3443E-03    -423.031E-03    -114.659E-03     132.003E-03    -17.3443E-03     827.135E-03     177.173E+06     158.296E+06    -5.80239E+06    -5.59837E+06     176.969E+06     158.296E+06     1.11536E+06         76.3322
             134     17.7182E-03     42.6851E-03         1.23556    -74.1721E-03        -1.29730    -65.0650E-03         1.22646        -1.29730     216.862E-03     413.213E-03    -17.4148E-03    -395.799E-03    -94.9481E-03     112.363E-03    -17.4148E-03     781.989E-03     181.530E+06     153.114E+06    -977.881E+03    -804.123E+03     181.357E+06     153.114E+06     5.34740E+06         76.4346
             135     17.7191E-03     43.6914E-03         1.34212    -81.6391E-03        -1.44441    -73.2643E-03         1.33375        -1.44441     217.745E-03     400.143E-03    -17.0820E-03    -383.061E-03    -97.8410E-03     114.923E-03    -17.0820E-03     753.573E-03     179.174E+06     151.906E+06    -3.46615E+06    -3.36110E+06     179.069E+06     151.906E+06    -743.013E+03         76.5181
             136     17.7178E-03     44.7676E-03         1.42995    -82.0901E-03        -1.56058    -73.5286E-03         1.42139        -1.56058     226.845E-03     409.523E-03    -16.8076E-03    -392.715E-03    -113.704E-03     130.512E-03    -16.8076E-03     764.090E-03     178.643E+06     159.038E+06    -4.33459E+06    -4.26110E+06     178.570E+06     159.038E+06    -3.10346E+06         76.5952
             137     17.7183E-03     45.8262E-03         1.48930    -86.3832E-03        -1.64161    -78.1163E-03         1.48103        -1.64161     227.638E-03     418.761E-03    -16.8388E-03    -401.922E-03    -118.995E-03     135.834E-03    -16.8388E-03     780.099E-03     176.309E+06     158.430E+06    -6.04939E+06    -6.04575E+06     176.306E+06     158.430E+06    -638.104E+03         76.7440
             138     17.7176E-03     46.8462E-03         1.51418    -87.9515E-03        -1.68504    -78.6305E-03         1.50485        -1.68504     243.216E-03     411.780E-03    -17.0107E-03    -394.770E-03    -107.721E-03     124.732E-03    -17.0107E-03     772.201E-03     177.212E+06     150.437E+06    -4.54033E+06    -4.38139E+06     177.053E+06     150.437E+06     3.72710E+06         76.9974
             139     17.7197E-03     47.8522E-03         1.49458    -75.5970E-03        -1.68917    -64.8702E-03         1.48385        -1.68917     258.608E-03     407.437E-03    -17.0264E-03    -390.410E-03    -103.332E-03     120.358E-03    -17.0264E-03     765.811E-03     178.338E+06     147.868E+06    -3.91740E+06    -3.59220E+06     178.013E+06     147.868E+06    -106.901E+03         77.3015
             140     17.7171E-03     48.9229E-03         1.42312    -47.9995E-03        -1.65529    -37.6293E-03         1.41275        -1.65529     246.152E-03     417.736E-03    -16.9209E-03    -400.815E-03    -114.354E-03     131.274E-03    -16.9209E-03     780.774E-03     177.343E+06     154.979E+06    -6.15072E+06    -5.97524E+06     177.168E+06     154.979E+06    -2.98127E+06         77.5819
             141     17.7193E-03     49.9738E-03         1.30487    -9.18368E-03        -1.58873     1.21477E-03         1.29447        -1.58873     232.356E-03     426.100E-03    -16.9913E-03    -409.109E-03    -116.683E-03     133.674E-03    -16.9913E-03     796.748E-03     180.107E+06     154.114E+06    -3.95547E+06    -3.93607E+06     180.087E+06     154.114E+06     1.88865E+06         77.8106
             142     17.7182E-03     50.9878E-03         1.13769     42.7173E-03        -1.49443     54.1657E-03         1.12625        -1.49443     222.093E-03     425.733E-03    -17.1426E-03    -408.590E-03    -111.853E-03     128.995E-03    -17.1426E-03     798.803E-03     179.625E+06     154.218E+06    -4.93619E+06    -4.91971E+06     179.608E+06     154.218E+06     210.451E+03         78.0145
             143     17.7184E-03     52.0169E-03     925.233E-03     103.516E-03        -1.37756     116.672E-03     912.077E-03        -1.37756     204.207E-03     423.295E-03    -17.1404E-03    -406.155E-03    -110.395E-03     127.535E-03    -17.1404E-03     794.592E-03     179.616E+06     150.425E+06    -4.94226E+06    -4.88980E+06     179.564E+06     150.425E+06     1.30262E+06         78.1641
             144     17.7187E-03     53.0487E-03     686.912E-03     158.386E-03        -1.24366     181.072E-03     664.226E-03        -1.24366     202.029E-03     427.599E-03    -17.1394E-03    -410.459E-03    -111.729E-03     128.868E-03    -17.1394E-03     802.778E-03     181.876E+06     148.311E+06    -3.20097E+06    -3.09793E+06     181.773E+06     148.311E+06    -234.665E+03         78.2361
             145     17.7185E-03     54.0907E-03     464.349E-03     169.445E-03        -1.09564     246.127E-03     387.667E-03        -1.09564     205.329E-03     424.654E-03    -17.2395E-03    -407.414E-03    -107.922E-03     125.162E-03    -17.2395E-03     798.719E-03     183.368E+06     155.383E+06    -2.52333E+06    -2.35264E+06     183.198E+06     155.383E+06     953.973E+03         78.3055
             146     17.7181E-03     55.0690E-03     370.474E-03     39.4597E-03    -934.142E-03     318.280E-03     91.6538E-03    -934.142E-03     197.499E-03     401.388E-03    -17.2216E-03    -384.167E-03    -92.3005E-03     109.522E-03    -17.2216E-03     759.090E-03     182.604E+06     137.712E+06    -663.966E+03    -503.921E+03     182.444E+06     137.712E+06     5.29320E+06         78.4449
             147     17.7198E-03     56.0504E-03     407.456E-03    -217.122E-03    -758.202E-03     391.385E-03    -201.051E-03    -758.202E-03     187.907E-03     394.876E-03    -16.8269E-03    -378.049E-03    -102.468E-03     119.294E-03    -16.8269E-03     739.562E-03     178.522E+06     137.561E+06    -6.08173E+06    -5.48302E+06     177.924E+06     137.561E+06    -5.15539E+06         78.6575
             148     17.7154E-03     57.2036E-03     455.955E-03    -417.781E-03    -632.972E-03     445.652E-03    -467.053E-03    -573.397E-03     194.215E-03     425.152E-03    -16.4844E-03    -408.668E-03    -134.887E-03     151.371E-03    -16.4844E-03     783.064E-03     178.644E+06     150.719E+06    -9.05583E+06    -8.34745E+06     177.935E+06     150.719E+06    -3.38499E+06         78.8489
             149     17.7173E-03     59.2543E-03     489.289E-03    -207.054E-03    -869.084E-03     469.847E-03    -849.642E-03    -207.054E-03     322.567E-03     432.179E-03    -17.4843E-03    -414.695E-03    -104.844E-03     122.328E-03    -17.4843E-03     815.558E-03     184.860E+06     154.524E+06    -2.55127E+06    -2.24221E+06     184.551E+06     154.524E+06     3.28711E+06         79.2565
             150     17.7203E-03     60.2110E-03     489.328E-03    -24.5759E-03        -1.03974     472.059E-03        -1.02247    -24.5759E-03     319.033E-03     409.612E-03    -17.3577E-03    -392.254E-03    -95.0744E-03     112.432E-03    -17.3577E-03     774.437E-03     187.617E+06     149.345E+06     766.510E+03     1.10209E+06     187.282E+06     149.345E+06     2.69801E+06         79.4203
             151     17.7167E-03     61.2891E-03     478.418E-03     153.010E-03        -1.20360     466.448E-03        -1.19163     153.010E-03     282.340E-03     418.395E-03    -17.0030E-03    -401.392E-03    -112.708E-03     129.711E-03    -17.0030E-03     782.931E-03     180.798E+06     145.174E+06    -6.71535E+06    -6.65422E+06     180.737E+06     145.174E+06    -2.62391E+06         79.4273
             152     17.7184E-03     62.3561E-03     459.935E-03     321.694E-03        -1.32768     444.364E-03        -1.31211     321.694E-03     329.192E-03     421.262E-03    -17.0881E-03    -404.173E-03    -110.808E-03     127.896E-03    -17.0881E-03     789.830E-03     184.215E+06     145.192E+06    -3.46436E+06    -3.07744E+06     183.829E+06     145.192E+06     5.73909E+06         79.4167
             153     17.7192E-03     63.2979E-03     505.219E-03     400.833E-03        -1.41304     402.628E-03        -1.39277     483.148E-03     383.736E-03     395.215E-03    -17.1823E-03    -378.033E-03    -89.5049E-03     106.687E-03    -17.1823E-03     747.913E-03     185.784E+06     134.991E+06    -1.32411E+06    -863.445E+03     185.324E+06     134.991E+06     3.34976E+06         79.5556
             154     17.7192E-03     64.3063E-03     638.954E-03     368.444E-03        -1.48642     350.655E-03        -1.46863     638.954E-03     360.382E-03     381.440E-03    -16.8211E-03    -364.619E-03    -94.7110E-03     111.532E-03    -16.8211E-03     716.573E-03     187.203E+06     142.132E+06    -1.55147E+06    -1.47535E+06     187.127E+06     142.132E+06    -2.24046E+06         79.8252
             155     17.7184E-03     65.4179E-03     786.465E-03     334.413E-03        -1.58285     321.530E-03        -1.56997     786.465E-03     311.744E-03     401.096E-03    -16.5308E-03    -384.566E-03    -117.198E-03     133.728E-03    -16.5308E-03     744.453E-03     180.990E+06     144.313E+06    -9.64616E+06    -9.12105E+06     180.465E+06     144.313E+06    -6.65675E+06         80.1313
             156     17.7169E-03     66.4921E-03     922.870E-03     323.876E-03        -1.71508     313.894E-03        -1.70510     922.870E-03     284.201E-03     421.788E-03    -16.7551E-03    -405.033E-03    -123.153E-03     139.908E-03    -16.7551E-03     783.786E-03     180.628E+06     150.233E+06    -10.7550E+06    -9.91343E+06     179.786E+06     150.233E+06    -1.54907E+06         80.4954
             157     17.7204E-03     67.5156E-03         1.04975     316.708E-03        -1.86040     306.486E-03        -1.85018         1.04975     297.501E-03     423.410E-03    -17.0115E-03    -406.399E-03    -113.317E-03     130.329E-03    -17.0115E-03     793.158E-03     185.181E+06     141.687E+06    -3.06717E+06    -2.69640E+06     184.811E+06     141.687E+06     3.30127E+06         80.9015
             158     17.7177E-03     68.5273E-03         1.17206     322.014E-03        -2.02994     312.219E-03        -2.02015         1.17206     301.534E-03     422.007E-03    -17.1191E-03    -404.888E-03    -108.545E-03     125.664E-03    -17.1191E-03     793.030E-03     186.099E+06     141.272E+06    -2.58355E+06    -2.46472E+06     185.980E+06     141.272E+06     314.185E+03         81.2160
             159     17.7200E-03     69.5817E-03         1.29291     350.823E-03        -2.24357     344.289E-03        -2.23704         1.29291     256.370E-03     427.141E-03    -17.1708E-03    -409.970E-03    -110.928E-03     128.099E-03    -17.1708E-03     802.260E-03     185.360E+06     144.400E+06    -5.63111E+06    -5.30548E+06     185.034E+06     144.400E+06    -2.43296E+06         81.3667
             160     17.7163E-03     70.6005E-03         1.41335     395.079E-03        -2.46836     389.721E-03        -2.46300         1.41335     247.311E-03     419.671E-03    -17.3151E-03    -402.356E-03    -101.703E-03     119.018E-03    -17.3151E-03     791.702E-03     188.611E+06     143.800E+06    -3.22674E+06    -2.22668E+06     187.611E+06     143.800E+06     3.48827E+06         81.4376
             161     17.7211E-03     71.5662E-03         1.53510     444.291E-03        -2.68228     438.174E-03        -2.67617         1.53510     276.288E-03     394.479E-03    -17.2175E-03    -377.261E-03    -88.5061E-03     105.724E-03    -17.2175E-03     746.898E-03     186.810E+06     131.559E+06    -2.62755E+06    -1.34708E+06     185.529E+06     131.559E+06     1.39818E+06         81.5584
             162     17.7163E-03     72.5753E-03         1.65751     496.976E-03        -2.90782     491.933E-03        -2.90278         1.65751     259.327E-03     386.520E-03    -16.7450E-03    -369.775E-03    -100.686E-03     117.431E-03    -16.7450E-03     723.633E-03     188.111E+06     136.097E+06    -2.34530E+06    -1.59802E+06     187.364E+06     136.097E+06    -2.54058E+06         81.7778
             163     17.7203E-03     73.7017E-03         1.77580     559.517E-03        -3.15301     555.795E-03        -3.14929         1.77580     234.768E-03     407.916E-03    -16.4786E-03    -391.437E-03    -123.795E-03     140.273E-03    -16.4786E-03     754.449E-03     184.571E+06     137.175E+06    -8.24755E+06    -7.40421E+06     183.728E+06     137.175E+06    -3.23541E+06         82.0725
             164     17.7126E-03     74.7688E-03         1.88528     635.218E-03        -3.40431     631.968E-03        -3.40106         1.88528     228.481E-03     426.666E-03    -16.7818E-03    -409.884E-03    -125.916E-03     142.697E-03    -16.7818E-03     792.122E-03     179.020E+06     133.293E+06    -14.4530E+06    -13.5047E+06     178.072E+06     133.293E+06    -2.19683E+06         82.4536
             165     17.7217E-03     75.7814E-03         1.98192     721.196E-03        -3.66372     718.862E-03        -3.66139         1.98192     200.122E-03     424.044E-03    -17.0552E-03    -406.988E-03    -112.661E-03     129.716E-03    -17.0552E-03     794.812E-03     187.395E+06     130.915E+06    -2.33478E+06    -2.02177E+06     187.082E+06     130.915E+06     5.29602E+06         82.8969
             166     17.7163E-03     76.7946E-03         2.06180     813.866E-03        -3.92141     811.785E-03        -3.91933         2.06180     198.135E-03     415.541E-03    -17.1727E-03    -398.369E-03    -101.527E-03     118.699E-03    -17.1727E-03     783.526E-03     188.748E+06     126.127E+06    -1.73365E+06    -1.68410E+06     188.698E+06     126.127E+06     1.95768E+06         83.2446
             167     17.7206E-03     77.8205E-03         2.12277     903.723E-03        -4.15822     901.421E-03        -4.15592         2.12277     215.670E-03     417.704E-03    -17.2115E-03    -400.493E-03    -101.817E-03     119.029E-03    -17.2115E-03     787.808E-03     194.313E+06     132.513E+06    -392.326E+03    -334.953E+03     194.256E+06     132.513E+06     1.30486E+06         83.4320
             168     17.7166E-03     78.8587E-03         2.16242     985.509E-03        -4.37839     983.743E-03        -4.37663         2.16242     192.840E-03     419.064E-03    -17.1059E-03    -401.958E-03    -106.247E-03     123.353E-03    -17.1059E-03     788.259E-03     192.554E+06     128.704E+06    -3.60150E+06    -3.59130E+06     192.543E+06     128.704E+06    -1.31436E+06         83.5268
             169     17.7191E-03     79.8738E-03         2.17814         1.06559        -4.56594         1.06388        -4.56423         2.17814     195.401E-03     403.960E-03    -17.0990E-03    -386.862E-03    -96.5911E-03     113.690E-03    -17.0990E-03     762.216E-03     193.301E+06     120.211E+06    -1.26874E+06    -1.05080E+06     193.083E+06     120.211E+06     4.08114E+06         83.6182
             170     17.7188E-03     80.8441E-03         2.16800         1.14718        -4.72965         1.14541        -4.72787         2.16800     203.360E-03     384.243E-03    -16.9007E-03    -367.342E-03    -90.0450E-03     106.946E-03    -16.9007E-03     725.221E-03     194.805E+06     111.502E+06    -196.109E+03     110.960E+03     194.498E+06     111.502E+06     1.46451E+06         83.8284
             171     17.7186E-03     81.9031E-03         2.12898         1.21634        -4.88799         1.21550        -4.88716         2.12898     129.579E-03     395.293E-03    -16.4849E-03    -378.808E-03    -114.411E-03     130.895E-03    -16.4849E-03     733.547E-03     194.606E+06     127.705E+06    -8.53610E+06    -8.40112E+06     194.471E+06     127.705E+06    -5.15184E+06         84.1707
             172     17.7162E-03     83.0550E-03         2.06278         1.27643        -5.00544         1.27614        -5.00515         2.06278     84.2468E-03     428.594E-03    -16.4456E-03    -412.149E-03    -135.822E-03     152.268E-03    -16.4456E-03     789.791E-03     194.613E+06     126.471E+06    -9.49894E+06    -9.38284E+06     194.497E+06     126.471E+06     591.773E+03         84.5424
             173     17.7191E-03     84.0851E-03         1.97828         1.33228        -5.06349         1.33163        -5.06284         1.97828     125.696E-03     432.668E-03    -17.0359E-03    -415.632E-03    -115.576E-03     132.612E-03    -17.0359E-03     810.351E-03     191.902E+06     109.474E+06    -8.96542E+06    -8.88324E+06     191.820E+06     109.474E+06     1.70813E+06         84.9136
             174     17.7175E-03     85.0191E-03         1.88159         1.36774        -5.07409         1.36684        -5.07319         1.88159     151.887E-03     401.348E-03    -17.3044E-03    -384.044E-03    -82.2180E-03     99.5224E-03    -17.3044E-03     763.911E-03     194.637E+06     84.8116E+06     3.37842E+06     3.66300E+06     194.353E+06     84.8116E+06     4.03063E+06         85.2907
             175     17.7215E-03     86.0065E-03         1.77349         1.37420        -5.03306         1.37348        -5.03233         1.77349     135.858E-03     384.936E-03    -16.9115E-03    -368.025E-03    -82.8867E-03     99.7982E-03    -16.9115E-03     730.052E-03     194.270E+06     77.8204E+06     3.71326E+06     4.59361E+06     193.389E+06     77.8204E+06    -2.64460E+06         85.6294
             176     17.7177E-03     87.0996E-03         1.65547         1.36516        -4.94181         1.36471        -4.94137         1.65547     104.742E-03     408.739E-03    -16.4052E-03    -392.334E-03    -116.238E-03     132.643E-03    -16.4052E-03     760.860E-03     195.359E+06     96.9348E+06    -5.28397E+06    -4.66175E+06     194.737E+06     96.9348E+06    -6.38784E+06         85.9146
             177     17.7210E-03     88.2170E-03         1.53240         1.35573        -4.81727         1.35530        -4.81684         1.53240     101.326E-03     435.275E-03    -16.3720E-03    -418.903E-03    -132.696E-03     149.068E-03    -16.3720E-03     806.271E-03     190.691E+06      89.749E+06    -7.50082E+06    -7.42563E+06     190.616E+06      89.749E+06    -1.08068E+06         86.1521
             178     17.7183E-03     89.2149E-03         1.40934         1.33656        -4.67244         1.33584        -4.67172         1.40934     130.076E-03     426.667E-03    -16.8002E-03    -409.867E-03    -109.059E-03     125.859E-03    -16.8002E-03     802.235E-03     168.793E+06     55.9318E+06    -13.2799E+06    -12.9230E+06     168.436E+06     55.9318E+06    -7.44283E+06         86.3770
             179     17.7229E-03     90.1629E-03         1.31202         1.27477        -4.50795         1.29739        -4.50719         1.28863     132.472E-03     401.043E-03    -16.9691E-03    -384.073E-03    -85.9604E-03     102.930E-03    -16.9691E-03     762.053E-03     151.488E+06     57.6553E+06     2.72721E+06     3.16831E+06     151.047E+06     57.6553E+06    -8.05054E+06         86.6264
             180     17.7227E-03     91.1968E-03         1.26168         1.17133        -4.34417         1.26133        -4.34382         1.17133     79.7208E-03     399.992E-03    -16.5975E-03    -383.394E-03    -97.6510E-03     114.249E-03    -16.5975E-03     753.749E-03     132.152E+06     73.0312E+06     2.98736E+06     4.62963E+06     130.509E+06     73.0312E+06    -12.8900E+06         86.8570
             181     17.7238E-03     92.2935E-03         1.24226         1.05951        -4.18773         1.24218        -4.18765         1.05951     40.6380E-03     411.304E-03    -16.4095E-03    -394.894E-03    -111.059E-03     127.468E-03    -16.4095E-03     770.091E-03     106.149E+06     79.0391E+06    -9.88430E+06    -7.75750E+06     104.022E+06     79.0391E+06    -15.4217E+06         87.0451
             182     17.7264E-03     93.2889E-03         1.21955     956.069E-03        -4.02360         1.21946        -4.02352     956.069E-03     42.6539E-03     398.457E-03    -16.5787E-03    -381.879E-03    -95.6421E-03     112.221E-03    -16.5787E-03     751.866E-03     81.8213E+06     69.3705E+06    -4.01414E+06    -2.73046E+06     74.4601E+06     75.4480E+06    -9.95373E+06         87.3057
             183     17.7298E-03     94.2570E-03         1.17615     861.269E-03        -3.84903         1.17610        -3.84898     861.269E-03     24.3176E-03     381.631E-03    -16.4413E-03    -365.190E-03    -89.3308E-03     105.772E-03    -16.4413E-03     720.701E-03     101.576E+06     77.1710E+06     7.93673E+06     9.98898E+06     75.1188E+06     101.576E+06     2.75426E+06         87.7730
             184     17.7325E-03     95.3508E-03         1.14164     773.919E-03        -3.69413         1.14162        -3.69412     773.919E-03    -9.96098E-03     401.475E-03    -15.9752E-03    -385.500E-03    -116.522E-03     132.497E-03    -15.9752E-03     746.065E-03     138.273E+06     101.890E+06     1.20956E+06     2.62437E+06     100.476E+06     138.273E+06     8.27028E+06         88.3490
             185     17.7321E-03     96.4899E-03         1.13607     694.885E-03        -3.59674         1.13588        -3.59654     694.885E-03    -53.1919E-03     434.461E-03    -16.1205E-03    -418.340E-03    -133.132E-03     149.253E-03    -16.1205E-03     804.573E-03     171.858E+06     127.479E+06    -16.1356E+06    -15.1607E+06     126.504E+06     171.858E+06     9.84624E+06         88.8287
             186     17.7366E-03     97.4872E-03         1.14137     626.120E-03        -3.54138         1.14081        -3.54083     626.120E-03    -100.010E-03     426.764E-03    -16.7634E-03    -410.000E-03    -105.444E-03     122.208E-03    -16.7634E-03     804.198E-03     189.941E+06     154.559E+06    -7.72624E+06    -5.57566E+06     152.408E+06     189.941E+06     18.5264E+06         89.1747
             187     17.7366E-03     98.4098E-03         1.14863     569.653E-03        -3.49655         1.14792        -3.49584     569.653E-03    -114.675E-03     388.739E-03    -16.8827E-03    -371.857E-03    -75.4158E-03     92.2986E-03    -16.8827E-03     741.870E-03     185.330E+06     158.105E+06    -3.69982E+06    -2.28952E+06     156.695E+06     185.330E+06     5.57643E+06         89.4064
             188     17.7372E-03     99.4224E-03         1.15386     527.450E-03        -3.44772         1.15323        -3.44709     527.450E-03    -107.975E-03     376.711E-03    -16.3688E-03    -360.342E-03    -87.5692E-03     103.938E-03    -16.3688E-03     711.017E-03     199.592E+06     162.161E+06    -5.65349E+06    -5.43510E+06     161.942E+06     199.592E+06    -3.73556E+06         89.4556
             189     17.7354E-03     100.539E-03         1.14921     500.750E-03        -3.38848         1.14848        -3.38776     500.750E-03    -114.513E-03     396.381E-03    -16.0184E-03    -380.362E-03    -109.752E-03     125.770E-03    -16.0184E-03     740.173E-03     200.066E+06     168.423E+06    -2.89254E+06    -2.87137E+06     168.402E+06     200.066E+06     1.70558E+06         89.2822
             190     17.7375E-03     101.581E-03         1.13699     489.690E-03        -3.31432         1.13587        -3.31319     489.690E-03    -140.199E-03     399.900E-03    -16.4846E-03    -383.416E-03    -94.8313E-03     111.316E-03    -16.4846E-03     754.892E-03     191.484E+06     163.326E+06    -3.98666E+06    -3.88171E+06     163.221E+06     191.484E+06    -1.40443E+06         88.8563
             191     17.7356E-03     102.526E-03         1.12294     491.827E-03        -3.22863         1.12140        -3.22709     491.827E-03    -163.527E-03     377.608E-03    -17.0444E-03    -360.564E-03    -63.8633E-03     80.9077E-03    -17.0444E-03     723.615E-03     187.362E+06     163.830E+06    -1.09046E+06    -766.595E+03     163.506E+06     187.362E+06     1.74292E+06         88.0808
             192     17.7369E-03     103.504E-03         1.09478     502.543E-03        -3.13053         1.09345        -3.12921     502.543E-03    -148.725E-03     362.615E-03    -16.9910E-03    -345.624E-03    -57.1960E-03     74.1870E-03    -16.9910E-03     695.871E-03     173.010E+06     157.359E+06    -10.6959E+06    -9.45405E+06     156.117E+06     173.010E+06    -4.82663E+06         86.8293
             193     17.7347E-03     104.542E-03         1.04284     519.678E-03        -3.01581         1.04188        -3.01486     519.678E-03    -124.458E-03     368.530E-03    -16.8520E-03    -351.678E-03    -65.7354E-03     82.5873E-03    -16.8520E-03     704.755E-03     172.845E+06     158.017E+06    -6.66108E+06    -5.28964E+06     156.645E+06     172.845E+06     -3.8741E+06         85.0096
             194     17.7368E-03     105.559E-03     982.112E-03     544.698E-03        -2.88227     980.923E-03        -2.88108     544.698E-03    -134.494E-03     362.833E-03    -16.9617E-03    -345.872E-03    -59.0814E-03     76.0431E-03    -16.9617E-03     695.521E-03     166.946E+06     154.352E+06    -109.312E+03     879.727E+03     153.363E+06     166.946E+06    -1.47166E+06         82.5911
             195     17.7348E-03     106.478E-03     918.749E-03     577.926E-03        -2.70799     917.816E-03        -2.70705     577.926E-03    -111.938E-03     317.984E-03    -16.7979E-03    -301.187E-03    -42.9786E-03     59.7765E-03    -16.7979E-03     610.584E-03     152.063E+06     140.958E+06     4.01012E+06     4.66383E+06     140.304E+06     152.063E+06    -5.43538E+06         79.4579
             196     17.7368E-03     107.414E-03     838.097E-03     616.013E-03        -2.49046     837.837E-03        -2.49020     616.013E-03    -20.0084E-03     281.232E-03    -15.7474E-03    -265.484E-03    -63.1268E-03     78.8742E-03    -15.7474E-03     525.049E-03     140.051E+06     107.757E+06    -9.39681E+06    -7.93449E+06     106.294E+06     140.051E+06    -7.43353E+06         75.7009
             197     17.7360E-03     108.535E-03     733.156E-03     625.354E-03        -2.22295     702.612E-03        -2.22269     655.635E-03     51.8848E-03     272.252E-03    -14.7044E-03    -257.547E-03    -93.4916E-03     108.196E-03    -14.7044E-03     489.744E-03     130.471E+06     88.0402E+06    -23.0566E+06    -21.4875E+06     86.4712E+06     130.471E+06    -11.5959E+06         71.8127
             198     17.7403E-03     109.604E-03     696.873E-03     548.091E-03        -1.91547     547.459E-03        -1.91484     696.873E-03     77.1073E-03     258.698E-03    -14.7355E-03    -243.963E-03    -86.6868E-03     101.422E-03    -14.7355E-03     465.853E-03     135.652E+06     86.8642E+06     2.51617E+06     3.17550E+06     86.2049E+06     135.652E+06    -6.62871E+06         67.6782
             199     17.7372E-03     110.595E-03     738.999E-03     398.968E-03        -1.59043     398.458E-03        -1.58992     738.999E-03     61.1602E-03     235.746E-03    -14.7445E-03    -221.002E-03    -76.1792E-03     90.9237E-03    -14.7445E-03     424.917E-03     100.195E+06     44.6086E+06    -29.5066E+06    -25.1522E+06     40.2543E+06     100.195E+06    -16.4101E+06         62.3760
             200     17.7436E-03     111.655E-03     778.752E-03     234.215E-03        -1.24532     234.088E-03        -1.24519     778.752E-03     27.1607E-03     201.199E-03    -14.6647E-03    -186.534E-03    -56.8833E-03     71.5481E-03    -14.6647E-03     364.805E-03     43.2188E+06     10.6509E+06    -61.7066E+06    -31.7781E+06    -9.08475E+06     33.0260E+06    -29.9276E+06         54.7443
             201     17.7424E-03     112.635E-03     816.616E-03     88.1245E-03    -912.407E-03     86.9742E-03    -911.257E-03     816.616E-03     50.9728E-03     142.851E-03    -16.8691E-03    -125.981E-03    -17.6601E-03     34.5292E-03    -16.8691E-03     262.738E-03     46.2129E+06     11.2302E+06    -52.0308E+06     20.5198E+06    -26.3377E+06     11.2302E+06     8.22067E+06         44.3774
             202     17.6181E-03     113.567E-03     857.269E-03    -91.7077E-03    -578.688E-03    -93.0104E-03    -577.385E-03     857.269E-03     50.1756E-03     60.9268E-03    -2.91233E-03    -58.0144E-03     7.85547E-03     16.2459E-03    -24.1013E-03     97.3593E-03     33.4584E+06     2.53453E+06    -93.4412E+06     19.3055E+06    -19.0908E+06    -57.6629E+06     26.1028E+06         34.4587
             203     16.3647E-03     114.262E-03     904.723E-03    -163.204E-03    -468.654E-03    -166.937E-03    -464.921E-03     904.723E-03    -45.4371E-03     20.6285E-03     9.26280E-03    -29.8913E-03     11.3102E-03     18.5811E-03    -29.8913E-03     8.52444E-03     21.1561E+06     13.5150E+06    -84.4767E+06    -8.48372E+06     3.85346E+06    -45.1753E+06     17.0075E+06         29.7633
             204     15.3927E-03     114.018E-03     954.187E-03    -103.011E-03    -545.971E-03    -106.566E-03    -542.417E-03     954.187E-03    -56.9607E-03     44.3256E-03    -12.1518E-03    -32.1737E-03    -12.7347E-03     42.8516E-03    -30.1169E-03     7.36798E-03     65.8219E+06     44.5516E+06    -43.0425E+06    -27.8067E+06     29.3158E+06     65.8219E+06     858.309E+03         28.5297
             205     14.4875E-03     113.782E-03         1.00077    -31.5958E-03    -586.794E-03    -32.9386E-03    -585.451E-03         1.00077    -44.2998E-03     66.9265E-03    -28.6037E-03    -38.3227E-03    -38.0968E-03     66.7006E-03    -28.6037E-03    -6.74255E-03     59.5272E+06     8.25289E+06    -58.6230E+06    -37.8598E+06    -12.5103E+06     59.5272E+06    -20.9535E+06         27.2529
             206     13.5641E-03     113.607E-03         1.04675     87.6142E-03    -626.838E-03     86.2526E-03    -625.477E-03         1.04675    -47.9790E-03     71.4267E-03    -26.2609E-03    -45.1658E-03    -44.4797E-03     70.7406E-03    -26.2609E-03    -17.6059E-03     43.0435E+06     5.91089E+06    -46.5501E+06    -30.0791E+06    -10.5601E+06     43.0435E+06    -11.8130E+06         26.0905
             207     12.6341E-03     113.474E-03         1.09222     248.094E-03    -681.693E-03     247.484E-03    -681.082E-03         1.09222    -42.0082E-03     70.1076E-03    -23.9475E-03    -46.1600E-03    -45.3517E-03     69.2992E-03    -23.9475E-03    -19.2934E-03     49.7071E+06     11.4115E+06    -34.9900E+06    -23.3475E+06    -230.934E+03     49.7071E+06    -9.04014E+06         25.1238
             208     11.7021E-03     113.365E-03         1.13452     454.358E-03    -789.253E-03     453.489E-03    -788.383E-03         1.13452    -6.81948E-03     61.9574E-03    -21.8411E-03    -40.1163E-03    -39.6290E-03     61.4700E-03    -21.8411E-03    -13.8690E-03     52.6927E+06     4.88590E+06    -32.4575E+06    -21.6383E+06    -5.93331E+06     52.6927E+06    -5.82113E+06         24.3430
             209     10.7517E-03     113.285E-03         1.17154     637.637E-03    -885.383E-03     636.934E-03    -884.681E-03         1.17154     65.2892E-03     54.5385E-03    -20.0650E-03    -34.4735E-03    -34.2292E-03     54.2942E-03    -20.0650E-03    -9.29812E-03     49.1095E+06     6.96739E+06    -26.9820E+06    -19.7894E+06    -225.253E+03     49.1095E+06    -5.68799E+06         23.7363
             210     9.79155E-03     113.226E-03         1.20370     771.674E-03    -935.486E-03     771.235E-03    -935.048E-03         1.20370     45.9610E-03     50.3876E-03    -18.4675E-03    -31.9201E-03    -31.7299E-03     50.1973E-03    -18.4675E-03    -7.90212E-03     38.9518E+06     3.91924E+06    -27.9108E+06    -21.0004E+06    -2.99116E+06     38.9518E+06    -4.20524E+06         23.2866
             211     8.83015E-03     113.175E-03         1.23255     879.011E-03    -955.174E-03     878.900E-03    -955.064E-03         1.23255     27.2851E-03     45.3847E-03    -16.9715E-03    -28.4132E-03    -28.2721E-03     45.2436E-03    -16.9715E-03    -6.42823E-03     36.1677E+06     8.21822E+06    -24.9015E+06    -21.1233E+06     4.44003E+06     36.1677E+06    -6.18975E+06         22.9186
             212     7.86163E-03     113.139E-03         1.25884     978.904E-03    -970.304E-03     978.785E-03    -970.184E-03         1.25884     29.5056E-03     40.4066E-03    -15.6516E-03    -24.7550E-03    -24.6579E-03     40.3095E-03    -15.6516E-03    -5.02368E-03     36.6581E+06     298.346E+03    -20.0050E+06    -15.7120E+06    -3.99461E+06     36.6581E+06    -7.02466E+06         22.5843
             213     6.88859E-03     113.109E-03         1.28137         1.08155    -999.618E-03         1.08096    -999.026E-03         1.28137     60.4382E-03     35.8384E-03    -14.4665E-03    -21.3720E-03    -21.2979E-03     35.7644E-03    -14.4665E-03    -4.11058E-03     33.9422E+06     3.05157E+06    -14.2752E+06    -11.9121E+06     688.484E+03     33.9422E+06    -5.33276E+06         22.2838
             214     5.91166E-03     113.088E-03         1.29999         1.15941        -1.00624         1.15715        -1.00398         1.29999    -37.0005E-03     31.7966E-03    -13.4428E-03    -18.3538E-03    -18.3026E-03     31.7454E-03    -13.4428E-03    -3.18790E-03     24.6796E+06     895.944E+03    -14.7858E+06    -12.3358E+06    -1.55405E+06     24.6796E+06    -5.26687E+06         22.0263
             215     4.93174E-03     113.071E-03         1.32066         1.17745    -958.606E-03         1.17502    -956.179E-03         1.32066    -30.9313E-03     28.4983E-03    -12.6186E-03    -15.8797E-03    -15.8498E-03     28.4684E-03    -12.6186E-03    -2.28944E-03     21.8046E+06     5.85375E+06    -12.1531E+06    -7.60696E+06     1.30758E+06     21.8046E+06    -6.69544E+06         21.8158
             216     3.94789E-03     113.060E-03         1.34343         1.24408    -969.502E-03         1.24326    -968.683E-03         1.34343     75.7998E-03     25.8619E-03    -11.9854E-03    -13.8764E-03    -13.8551E-03     25.8406E-03    -11.9854E-03    -1.83888E-03     18.0792E+06     4.99227E+06    -10.2042E+06    -527.683E+03    -4.68426E+06     18.0792E+06    -6.62113E+06         21.6506
             217     2.96207E-03     113.050E-03         1.42432         1.32720        -1.08910         1.39602        -1.07778         1.34417     263.886E-03     24.0836E-03    -11.5019E-03    -12.5816E-03    -12.5665E-03     24.0684E-03    -11.5019E-03    -1.46504E-03     15.2059E+06     7.94813E+06    -3.23936E+06     4.32871E+06     380.055E+03     15.2059E+06    -4.58613E+06         21.5273
             218     1.97697E-03     113.047E-03         1.48181         1.29274        -1.15262         1.45637        -1.12718         1.29274    -27.8327E-03     22.7152E-03    -11.1352E-03    -11.5799E-03    -11.5726E-03     22.7078E-03    -11.1352E-03    -999.866E-06     17.8992E+06     2.53774E+06    -3.88527E+06     13.6199E+06    -401.240E+03     3.33305E+06    -5.92200E+06         21.4438
             219     987.538E-06     113.042E-03         1.58466     952.812E-03    -905.251E-03         1.54960    -870.189E-03     952.812E-03     40.3576E-03     22.3407E-03    -10.7449E-03    -11.5958E-03    -11.5859E-03     22.3308E-03    -10.7449E-03    -1.13427E-03     43.2469E+06     15.2274E+06    -6.00052E+06     24.9323E+06    -1.13926E+06     28.6807E+06    -11.5485E+06         21.3980
             220    -5.05395E-06     112.021E-03         1.54632     571.492E-03    -652.325E-03         1.41660    -522.612E-03     571.492E-03     939.588E-03     20.9707E-03    -9.61005E-03    -11.3606E-03    -10.4276E-03     20.9492E-03    -10.5216E-03    -1.60204E-03     43.3112E+06     2.49609E+06    -20.2359E+06     24.6327E+06    -15.0107E+06     15.9494E+06    -13.9188E+06         21.2984
             221     2.77056E-06     111.004E-03         1.34710     369.362E-03    -585.227E-03     947.599E-03    -185.730E-03     369.362E-03         1.48167     16.8084E-03    -7.82450E-03    -8.98392E-03    -8.05787E-03     16.7939E-03    -8.73603E-03    -777.370E-06    -7.98281E+06    -46.1096E+06    -55.1402E+06    -23.3817E+06    -50.5063E+06    -35.3446E+06    -3.61465E+06         21.0816
             222    -2.13858E-06     109.986E-03         1.31373     30.8483E-03    -454.273E-03     711.901E-03     147.557E-03     30.8483E-03         1.67304     12.0241E-03    -5.79150E-03    -6.23259E-03    -6.03872E-03     12.0234E-03    -5.98469E-03     10.3592E-06    -52.1917E+06    -63.2401E+06    -77.5922E+06    -66.5376E+06    -65.0143E+06    -61.4721E+06     2.49641E+06         20.8179
             223     1.60069E-06     108.980E-03         1.32601    -241.121E-03    -488.280E-03     485.591E-03     352.137E-03    -241.121E-03         1.77837     8.28423E-03    -3.98561E-03    -4.29862E-03    -4.10333E-03     8.28213E-03    -4.17880E-03    -293.462E-06    -77.3829E+06    -90.5003E+06    -112.724E+06    -102.026E+06    -79.0841E+06    -99.4973E+06    -6.46507E+06         20.5717
             224    -1.23870E-06     107.971E-03         1.51621    -436.586E-03    -792.434E-03     159.743E-03     564.033E-03    -436.586E-03         2.26790     5.23989E-03    -2.46906E-03    -2.77083E-03    -2.58711E-03     5.23812E-03    -2.65101E-03    -213.156E-06    -94.9781E+06    -133.016E+06    -158.794E+06    -144.488E+06    -96.7323E+06    -145.568E+06    -7.89380E+06         20.3742
             225     678.899E-09     106.968E-03         1.82347    -764.784E-03    -995.301E-03     79.9386E-03     748.231E-03    -764.784E-03         2.73833     2.62777E-03    -1.21501E-03    -1.41276E-03    -1.22995E-03     2.62690E-03    -1.39696E-03     40.1567E-06    -110.226E+06    -184.037E+06    -207.435E+06    -194.715E+06    -110.394E+06    -196.588E+06    -3.64391E+06         20.2425
             226    -524.073E-09     105.966E-03         2.05362    -968.358E-03        -1.26108     37.4494E-03     755.096E-03    -968.358E-03         3.23504     1.75107E-03    -854.619E-06    -896.452E-06    -855.076E-06     1.73573E-03    -880.651E-06     344.658E-06    -104.921E+06    -168.749E+06    -186.198E+06    -170.944E+06    -113.572E+06    -175.351E+06     5.43235E+06         20.1872
             227     217.924E-09     104.963E-03         2.41529        -1.03096        -1.83575     109.965E-03     469.569E-03        -1.03096         4.21575     2.31119E-03    -1.09982E-03    -1.21137E-03    -1.16609E-03     2.29195E-03    -1.12585E-03     480.775E-06    -42.9003E+06    -68.2969E+06    -102.520E+06    -65.0172E+06    -73.8008E+06    -74.8996E+06     26.1340E+06         20.2061
             228    -2.34765E-09     103.962E-03         3.01353        -1.18721        -2.46165     510.112E-03     41.7654E-03        -1.18721         5.43905     3.54785E-03    -1.72296E-03    -1.82489E-03    -1.81884E-03     3.54180E-03    -1.72296E-03     331.754E-06     29.6098E+06    -5.16928E+06    -40.4066E+06    -15.4658E+06     4.66897E+06    -5.16928E+06     27.3861E+06         20.2880
             229     84.5071E-09     102.958E-03         3.86255        -1.42236        -3.27193     845.096E-03    -254.475E-03        -1.42236         7.04923     5.83171E-03    -2.86692E-03    -2.96480E-03    -2.85889E-03     5.80727E-03    -2.94838E-03     841.087E-06     69.1300E+06     10.6734E+06     1.45925E+06     4.12642E+06     66.4629E+06     10.6734E+06     10.1401E+06         20.4239
             230    -284.858E-09     101.949E-03         5.10197        -1.76843        -4.37600         1.16514    -439.169E-03        -1.76843         9.34044     9.10213E-03    -4.43111E-03    -4.67102E-03    -4.54559E-03     9.05816E-03    -4.51258E-03     1.53664E-03     93.6852E+06     34.4515E+06     29.9772E+06     32.9052E+06     93.6340E+06     31.5747E+06     1.46386E+06         20.6099
             231     505.167E-09     100.938E-03         6.74524        -2.23783        -5.67001         1.81916    -743.925E-03        -2.23783         12.1442     12.5738E-03    -6.17904E-03    -6.39473E-03    -6.35333E-03     12.5324E-03    -6.17904E-03     1.76587E-03     98.8028E+06     61.3773E+06     53.2501E+06     56.5325E+06     98.3972E+06     58.5006E+06    -2.49038E+06         20.8400
             232    -382.189E-09     99.9227E-03         8.70563        -2.70029        -7.28361         2.64170        -1.21968        -2.70029         15.5145     16.5600E-03    -8.21527E-03    -8.34471E-03    -8.21835E-03     16.5058E-03    -8.28747E-03     2.31355E-03     97.2485E+06     80.1073E+06     63.4927E+06     79.3717E+06     81.3695E+06     80.1073E+06    -6.52217E+06         21.0995
             233     104.980E-09     98.9035E-03         11.0737        -3.17356        -9.32741         3.58577        -1.83945        -3.17356         19.6651     20.3677E-03    -10.1213E-03    -10.2463E-03    -10.1275E-03     20.3210E-03    -10.1935E-03     2.30067E-03     105.313E+06     98.3992E+06     59.2650E+06     102.024E+06     60.7366E+06     100.216E+06    -7.54506E+06         21.3645
             234    -7.78329E-09     97.8804E-03         13.8558        -3.83344        -11.4968         4.73740        -2.37837        -3.83344         24.3333     23.3351E-03    -11.5346E-03    -11.8004E-03    -11.7633E-03     23.2979E-03    -11.5346E-03     2.26704E-03     111.564E+06     109.042E+06     39.1488E+06     109.121E+06     39.7745E+06     110.859E+06    -6.08835E+06         21.6107
             235     361.749E-09     96.8573E-03         16.7555        -4.66402        -13.6331         5.84337        -2.72098        -4.66402         29.1567     26.2629E-03    -12.8737E-03    -13.3892E-03    -13.0579E-03     26.2341E-03    -13.1762E-03     1.95989E-03     112.798E+06     109.195E+06     25.5229E+06     112.567E+06     25.7540E+06     109.195E+06    -4.45405E+06         21.8245
             236    -1.01633E-06     95.8282E-03         19.7006        -5.50400        -15.8647         6.92795        -3.09209        -5.50400         34.1246     28.9670E-03    -14.1228E-03    -14.8442E-03    -14.5286E-03     28.9539E-03    -14.4253E-03     1.50069E-03     111.318E+06     104.959E+06     13.7666E+06     107.750E+06     13.8738E+06     108.420E+06    -2.91366E+06         22.0013
             237     1.86007E-06     94.7975E-03         22.6636        -6.35182        -18.0154         8.19797        -3.54974        -6.35182         38.9452     30.6709E-03    -15.0678E-03    -15.6032E-03    -15.5917E-03     30.6595E-03    -15.0678E-03     1.40488E-03     104.121E+06     98.8392E+06    -2.95032E+06     97.8692E+06    -1.98040E+06     104.121E+06    -7.89550E+06         22.1389
             238    -1.60859E-06     93.7679E-03         25.3134        -7.17886        -19.9062         9.37697        -3.96979        -7.17886         43.2050     31.6808E-03    -15.5971E-03    -16.0837E-03    -15.7052E-03     31.6725E-03    -15.9673E-03     1.24232E-03      94.076E+06     82.0444E+06    -23.1323E+06     91.2970E+06    -22.1749E+06     83.8659E+06    -6.46939E+06         22.2409
             239     721.303E-09     92.7329E-03         27.6429        -7.96024        -21.5149         10.4054        -4.27743        -7.96024         46.9136     32.6724E-03    -16.0283E-03    -16.6441E-03    -16.2589E-03     32.6574E-03    -16.3985E-03     1.69870E-03     86.6546E+06     69.1210E+06    -36.6775E+06     79.3256E+06    -36.6721E+06     76.4445E+06     768.095E+03         22.3155
             240    -170.745E-09     91.7001E-03         29.6363        -8.74685        -22.6847         11.3445        -4.39295        -8.74685         49.8981     33.2578E-03    -16.4153E-03    -16.8425E-03    -16.8317E-03     33.2470E-03    -16.4153E-03     1.32315E-03     69.7332E+06     59.7154E+06    -48.8299E+06     61.9351E+06    -48.3554E+06     67.0390E+06    -4.98752E+06         22.3674
             241     486.699E-09     90.6695E-03         31.0364        -9.46405        -23.3799         12.0798        -4.42328        -9.46405         51.8533     34.0107E-03    -16.8636E-03    -17.1471E-03    -17.1456E-03     34.0092E-03    -16.8636E-03     518.521E-06     50.9640E+06     45.2138E+06    -68.4887E+06     47.2722E+06    -67.8529E+06     48.2698E+06    -8.30271E+06         22.3986
             242    -254.335E-09     89.6314E-03         31.8017        -9.92814        -23.7066         12.6239        -4.52872        -9.92814         52.7913     34.3859E-03    -17.0630E-03    -17.3229E-03    -17.1569E-03     34.3779E-03    -17.2210E-03     1.05973E-03     39.0063E+06     31.3694E+06    -85.8958E+06     35.7496E+06    -85.6951E+06     34.4253E+06    -4.62635E+06         22.4145
             243    -141.425E-09     88.5977E-03         32.0485        -10.2193        -23.6455         13.0867        -4.68372        -10.2193         52.7814     33.7333E-03    -16.7069E-03    -17.0264E-03    -16.8604E-03     33.7253E-03    -16.8649E-03     1.05659E-03     23.7272E+06     17.3445E+06    -102.648E+06     21.8586E+06    -102.581E+06     19.1463E+06    -2.88066E+06         22.4219
             244     472.289E-09     87.5656E-03         31.7884        -10.4405        -23.1469         13.4133        -4.77182        -10.4405         51.8371     33.6573E-03    -16.6264E-03    -17.0310E-03    -17.0276E-03     33.6539E-03    -16.6264E-03     734.031E-06     12.9594E+06     9.39429E+06    -116.149E+06     9.28048E+06    -116.035E+06     12.9594E+06    -3.66703E+06         22.4239
             245     15.5961E-09     86.5309E-03         31.0166        -10.5265        -22.3080         13.4156        -4.70694        -10.5265         50.1503     34.0793E-03    -16.7711E-03    -17.3082E-03    -17.0091E-03     34.0741E-03    -17.0651E-03     1.02389E-03     6.22148E+06    -184.041E+03    -128.901E+06     4.10332E+06    -128.546E+06     1.57932E+06    -6.63746E+06         22.4197
             246    -666.869E-09     85.4965E-03         29.8250        -10.5382        -21.1165         13.2514        -4.54288        -10.5382         47.7315     33.8318E-03    -16.7386E-03    -17.0932E-03    -16.7958E-03     33.8283E-03    -17.0326E-03     834.094E-06    -3.13368E+06    -7.97924E+06    -142.383E+06    -3.60694E+06    -142.113E+06    -7.77583E+06    -4.41559E+06         22.4103
             247     775.669E-09     84.4630E-03         28.2701        -10.3595        -19.6815         13.0723        -4.48375        -10.3595         44.6187     33.2174E-03    -16.4958E-03    -16.7216E-03    -16.7166E-03     33.2124E-03    -16.4958E-03     976.917E-06    -10.2457E+06    -12.9184E+06    -154.623E+06    -12.9416E+06    -154.600E+06    -10.2457E+06     1.15026E+06         22.3987
             248    -435.254E-09     83.4305E-03         26.4120        -9.93899        -18.2294         12.8687        -4.68612        -9.93899         41.0370     32.8827E-03    -16.3261E-03    -16.5566E-03    -16.4876E-03     32.8789E-03    -16.3913E-03     724.558E-06    -10.1062E+06    -14.8768E+06     -161.47E+06    -12.8238E+06    -161.222E+06    -12.4075E+06    -2.90293E+06         22.3882
             249     268.675E-09     82.3989E-03         24.3618        -9.48119        -16.6458         12.6200        -4.90404        -9.48119         37.0660     32.9462E-03    -16.3695E-03    -16.5767E-03    -16.5110E-03     32.9457E-03    -16.4347E-03     302.821E-06    -9.72580E+06    -13.2936E+06    -171.047E+06    -11.2374E+06    -170.801E+06    -12.0271E+06    -5.45306E+06         22.3821
             250     16.7178E-09     81.3651E-03         22.1823        -9.04582        -14.8307         12.2717        -4.92001        -9.04582         32.7677     33.3013E-03    -16.5421E-03    -16.7592E-03    -16.7569E-03     33.2990E-03    -16.5421E-03     627.889E-06    -11.4406E+06    -13.7210E+06    -180.753E+06    -13.7842E+06    -180.689E+06    -11.4406E+06    -3.19247E+06         22.3819
             251     130.605E-09     80.3323E-03         19.8207        -8.53163        -12.9238         11.8392        -4.94225        -8.53163         28.0955     33.3020E-03    -16.5735E-03    -16.7285E-03    -16.7232E-03     33.2968E-03    -16.5735E-03     1.01379E-03    -12.8136E+06    -17.5514E+06    -187.528E+06    -13.8728E+06    -187.483E+06    -16.5375E+06    -1.52507E+06         22.3859
             252    -40.9724E-09     79.2976E-03         17.3688        -7.83966        -11.1029         11.4919        -5.22604        -7.83966         22.9866     33.1837E-03    -16.5101E-03    -16.6735E-03    -16.6675E-03     33.1776E-03    -16.5101E-03     1.10168E-03    -12.7177E+06    -20.1680E+06    -200.074E+06    -16.4500E+06    -200.068E+06    -16.4417E+06    -234.437E+03         22.3927
             253     238.676E-09     78.2682E-03         15.1598        -7.04404        -9.63832         11.3422        -5.82073        -7.04404         17.7866     33.5013E-03    -16.6519E-03    -16.8494E-03    -16.7317E-03     33.4974E-03    -16.7657E-03     857.216E-06    -8.18652E+06    -16.8594E+06    -203.561E+06    -11.9182E+06    -203.556E+06    -13.1330E+06    -293.991E+03         22.4005
             254    -541.881E-09     77.2311E-03         13.2043        -6.23368        -8.45268         11.1355        -6.38391        -6.23368         12.5346     33.4778E-03    -16.6305E-03    -16.8473E-03    -16.6272E-03     33.4745E-03    -16.8473E-03     797.655E-06    -7.54671E+06    -15.1097E+06    -201.971E+06    -10.2276E+06    -201.907E+06    -12.4932E+06     2.78529E+06         22.4066
             255     358.986E-09     76.2011E-03         11.5711        -5.49118        -7.47465         10.7812        -6.68482        -5.49118         7.21254     33.3672E-03    -16.4682E-03    -16.8990E-03    -16.7914E-03     33.3626E-03    -16.5712E-03     954.578E-06    -7.37574E+06    -10.8048E+06    -199.657E+06    -10.8915E+06    -199.570E+06    -7.37574E+06     967.104E+03         22.4087
             256     280.257E-09     75.1659E-03         10.6675        -4.84320        -7.13063         10.5131        -6.97620        -4.84320         1.93301     33.0560E-03    -16.3528E-03    -16.7031E-03    -16.6976E-03     33.0504E-03    -16.3528E-03     1.04568E-03    -9.37727E+06    -12.7447E+06    -201.991E+06    -10.2909E+06    -201.890E+06    -11.9321E+06     1.27042E+06         22.4059
             257    -286.419E-09     74.1344E-03         10.5937        -4.13149        -7.68092         10.3747        -7.46188        -4.13149        -3.19699     32.6863E-03    -16.2504E-03    -16.4359E-03    -16.4315E-03     32.6819E-03    -16.2504E-03     904.272E-06    -8.33998E+06    -15.3284E+06    -204.337E+06    -12.8550E+06    -204.256E+06    -10.8948E+06     2.15262E+06         22.4010
             258     651.871E-09     73.1036E-03         11.1305        -3.47038        -8.84129         10.2560        -7.96680        -3.47038        -7.91619     33.0160E-03    -16.3908E-03    -16.6252E-03    -16.6240E-03     33.0148E-03    -16.3908E-03     384.222E-06    -3.61882E+06    -10.6481E+06    -200.103E+06    -8.07712E+06    -200.078E+06    -6.21455E+06    -2.03286E+06         22.3969
             259    -557.325E-09     72.0692E-03         11.9319        -3.12010        -9.93538         10.0597        -8.06321        -3.12010        -12.1136     32.8918E-03    -16.2207E-03    -16.6711E-03    -16.2896E-03     32.8892E-03    -16.5996E-03     543.551E-06    -4.99146E+06    -10.7514E+06    -200.777E+06    -5.03061E+06    -200.738E+06    -10.7514E+06    -98.0954E+03         22.3936
             260    -248.336E-09     71.0372E-03         12.7714        -3.02651        -10.7591         9.68269        -7.67038        -3.02651        -15.8042     32.6294E-03    -15.9985E-03    -16.6310E-03    -16.2493E-03     32.6266E-03    -16.3774E-03     650.206E-06    -1.69946E+06    -9.56313E+06    -197.838E+06    -6.42192E+06    -197.815E+06    -4.86362E+06     1.99878E+06         22.3909
             261     797.634E-09     70.0057E-03         13.5882        -3.06272        -11.4763         9.25055        -7.13864        -3.06272        -18.9251     32.5609E-03    -16.1271E-03    -16.4338E-03    -16.3790E-03     32.5592E-03    -16.1802E-03     536.541E-06    -1.15269E+06    -9.70076E+06    -201.326E+06    -5.86477E+06    -201.314E+06    -5.00126E+06    -229.822E+03         22.3886
             262    -969.400E-09     68.9729E-03         14.4013        -3.16895        -12.1192         9.01111        -6.72902        -3.16895        -21.3293     32.7346E-03    -16.3029E-03    -16.4317E-03    -16.3770E-03     32.7331E-03    -16.3560E-03     406.917E-06     1.84946E+06    -5.96834E+06    -198.741E+06    -2.12847E+06    -198.733E+06    -1.99911E+06    -1.17594E+06         22.3860
             263     1.15895E-06     67.9419E-03         14.9564        -3.36709        -12.4296         8.76617        -6.23930        -3.36709        -22.8980     32.9781E-03    -16.3618E-03    -16.6163E-03    -16.6162E-03     32.9780E-03    -16.3618E-03     116.793E-06     1.75037E+06    -4.42882E+06    -199.842E+06    -2.36900E+06    -199.691E+06    -459.602E+03    -4.19205E+06         22.3822
             264    -846.433E-09     66.9071E-03         15.1565        -3.81890        -12.1538         8.27935        -5.27662        -3.81890        -23.6893     32.6549E-03    -16.1881E-03    -16.4668E-03    -16.4635E-03     32.6516E-03    -16.1881E-03     651.940E-06    -6.23532E+06    -9.12528E+06    -208.362E+06    -7.26016E+06    -208.018E+06    -8.44530E+06     482.714E+03         22.3791
             265     1.03650E-06     65.8764E-03         15.1940        -4.45371        -11.5108         7.68833        -4.00517        -4.45371        -23.9936     32.6263E-03    -16.2345E-03    -16.3918E-03    -16.3865E-03     32.6210E-03    -16.2345E-03     1.01363E-03    -2.24548E+06    -3.43496E+06    -203.388E+06    -3.68727E+06    -203.136E+06    -2.24548E+06     1.99855E+06         22.3797
             266    -931.930E-09     64.8434E-03         15.1084        -5.11738        -10.7134         7.18424        -2.78928        -5.11738        -23.8091     32.6188E-03    -16.1968E-03    -16.4220E-03    -16.2522E-03     32.6167E-03    -16.3645E-03     435.456E-06    -1.03601E+06    -4.33680E+06    -202.789E+06    -1.60229E+06    -202.733E+06    -3.82729E+06    -2.38420E+06         22.3847
             267     553.820E-09     63.8128E-03         14.7535        -5.77979        -9.69227         6.70562        -1.64441        -5.77979        -22.9685     32.7747E-03    -16.2791E-03    -16.4956E-03    -16.3144E-03     32.7612E-03    -16.4468E-03     1.13669E-03    -1.11167E+06    -5.97477E+06    -201.498E+06    -3.21111E+06    -201.471E+06    -3.90295E+06     1.65618E+06         22.3936
             268    -468.679E-09     62.7763E-03         14.2365        -6.40100        -8.51120         6.19152    -466.262E-03        -6.40100        -21.7418     32.9150E-03    -16.3963E-03    -16.5187E-03    -16.5034E-03     32.8997E-03    -16.3963E-03     1.58090E-03    -2.53867E+06    -5.00461E+06    -201.460E+06    -4.64108E+06    -201.429E+06    -2.93279E+06     2.18809E+06         22.4063
             269     594.525E-09     61.7483E-03         13.7326        -6.69248        -7.66255         5.64183     794.042E-03        -7.05832        -20.4487     32.7425E-03    -16.3098E-03    -16.4327E-03    -16.4300E-03     32.7397E-03    -16.3098E-03     724.155E-06    -4.87637E+06    -5.27504E+06    -203.957E+06    -4.88502E+06    -203.953E+06    -5.27049E+06     208.301E+03         22.4216
             270    -510.543E-09     60.7140E-03         13.2032        -6.09978        -7.71662         5.06988         2.03353        -7.71662        -19.0481     33.2186E-03    -16.5769E-03    -16.6417E-03    -16.6219E-03     33.2143E-03    -16.5924E-03     878.904E-06    -132.178E+03    -357.399E+03    -200.847E+06    -361.485E+03    -200.842E+06    -132.178E+03     211.299E+03         22.4371
             271     465.175E-09     59.6808E-03         12.6558        -5.11598        -8.12999         4.58602         2.95374        -8.12999        -17.6902     33.8097E-03    -16.8602E-03    -16.9495E-03    -16.9286E-03     33.8043E-03    -16.8757E-03     1.04416E-03     4.89552E+06     4.34210E+06    -196.934E+06     4.65962E+06    -196.919E+06     4.56277E+06    -570.044E+03         22.4497
             272    -339.616E-09     58.6479E-03         12.1641        -4.36949        -8.36540         4.20290         3.59171        -8.36540        -16.5158     33.9369E-03    -16.9019E-03    -17.0349E-03    -17.0327E-03     33.9346E-03    -16.9019E-03     586.897E-06     2.97485E+06     1.99296E+06    -198.325E+06     2.31193E+06    -198.311E+06     2.64209E+06    -1.50406E+06         22.4582
             273     454.373E-09     57.6141E-03         11.7213        -3.76311        -8.50361         3.79174         4.16640        -8.50361        -15.4713     33.7125E-03    -16.7864E-03    -16.9262E-03    -16.8439E-03     33.7108E-03    -16.8670E-03     519.101E-06     2.72706E+06    -478.909E+03    -200.187E+06     2.07616E+06    -200.186E+06     170.218E+03    -549.249E+03         22.4622
             274     16.7780E-03     56.2306E-03     465.700E-03    -342.164E-03    -697.974E-03     448.860E-03    -355.112E-03    -668.187E-03     218.868E-03     315.179E-03    -16.2169E-03    -298.962E-03    -75.4797E-03     91.6966E-03    -16.2169E-03     587.237E-03     160.782E+06     101.016E+06    -9.35761E+06    -8.66087E+06     160.085E+06     101.016E+06    -1.01005E+06         73.8201
             275     15.7426E-03     55.8134E-03     503.167E-03    -216.877E-03    -826.829E-03     431.678E-03    -145.388E-03    -826.829E-03    -117.558E-03     136.011E-03    -16.0944E-03    -119.916E-03    -17.4404E-03     33.5348E-03    -16.0944E-03     247.795E-03     117.969E+06     25.8638E+06    -15.1436E+06    -12.1015E+06     117.466E+06     23.3245E+06     2.12818E+06         61.5767
             276     14.7629E-03     55.6988E-03     734.339E-03    -311.154E-03    -941.612E-03     390.761E-03     32.4235E-03    -941.612E-03    -910.596E-03     50.3160E-03    -16.0502E-03    -34.2658E-03    -16.3283E-03     32.3785E-03    -16.0502E-03     65.9805E-03     72.3530E+06    -4.34412E+06    -47.0803E+06    -12.0664E+06     72.0933E+06    -39.0984E+06     9.44791E+03         47.8620
             277     13.7759E-03     55.6710E-03     994.309E-03    -451.710E-03        -1.04508     351.899E-03     190.699E-03        -1.04508        -1.40337     34.1756E-03    -15.9724E-03    -18.2032E-03    -14.6989E-03     30.6713E-03    -15.9724E-03     25.9452E-03     33.0549E+06    -7.95098E+06    -59.4368E+06    -7.62542E+06     32.7294E+06    -59.4368E+06    -1.62266E+06         36.8927
             278     12.7906E-03     55.6436E-03         1.05705    -392.302E-03        -1.15544     301.226E-03     363.519E-03        -1.15544        -1.39595     33.5934E-03    -16.1505E-03    -17.4428E-03    -15.6503E-03     31.8008E-03    -16.1505E-03     17.8016E-03     5.01784E+06    -21.9903E+06    -44.8042E+06    -5.61219E+06    -14.9034E+06    -41.2611E+06     1.71196E+06         29.9326
             279     11.8067E-03     55.6320E-03         1.09999    -306.672E-03        -1.27585     201.376E-03     591.945E-03        -1.27585        -1.27245     32.8348E-03    -16.2915E-03    -16.5433E-03    -15.9556E-03     32.2472E-03    -16.2915E-03     10.6572E-03     -2.5667E+06    -30.4224E+06    -65.9496E+06    -2.85501E+06    -65.6613E+06    -30.4224E+06     3.07864E+06         26.2393
             280     10.8220E-03     55.6204E-03         1.19563    -268.135E-03        -1.40473     34.2624E-03     893.231E-03        -1.40473        -1.09340     33.1780E-03    -16.4201E-03    -16.7579E-03    -16.2137E-03     32.6339E-03    -16.4201E-03     10.3492E-03     1.02960E+06    -17.7076E+06    -98.0861E+06     945.445E+03    -98.0019E+06    -17.7076E+06     1.48245E+06         24.4914
             281     9.83784E-03     55.6092E-03         1.37349    -310.435E-03        -1.53967    -182.771E-03         1.24583        -1.53967    -159.240E-03     33.3651E-03    -16.5095E-03    -16.8557E-03    -16.3100E-03     32.8195E-03    -16.5095E-03     10.4002E-03     3.77712E+06    -10.3436E+06    -119.320E+06     3.72378E+06    -119.266E+06    -10.3436E+06     298.772E+03         23.6865
             282     8.85352E-03     55.5982E-03         1.86003    -663.123E-03        -1.67754    -442.536E-03         1.63944        -1.67754         1.35403     33.4650E-03    -16.5889E-03    -16.8761E-03    -16.4402E-03     33.0291E-03    -16.5889E-03     9.30212E-03     5.06282E+06    -5.75311E+06    -140.854E+06     5.04828E+06    -140.840E+06    -5.75311E+06    -284.269E+03         23.2831
             283     7.86989E-03     55.5896E-03         2.62953        -1.30124        -1.81502    -730.636E-03         2.05892        -1.81502         2.75093     33.6106E-03    -16.6633E-03    -16.9473E-03    -16.5811E-03     33.2445E-03    -16.6633E-03     8.57116E-03     5.54093E+06    -674.209E+03    -160.024E+06     5.53441E+06    -160.018E+06    -674.209E+03    -516.280E+03         23.0445
             284     6.88607E-03     55.5807E-03         3.05649        -1.60138        -1.95015        -1.01938         2.47449        -1.95015         3.02711     33.6999E-03    -16.7155E-03    -16.9844E-03    -16.6674E-03     33.3830E-03    -16.7155E-03     7.97494E-03     7.23351E+06     2.15436E+06    -173.347E+06     6.17629E+06    -173.332E+06     3.19655E+06     574.328E+03         22.8801
             285     5.90244E-03     55.5729E-03         3.39951        -1.81526        -2.08717        -1.31671         2.89472        -2.08094         3.07768     33.7075E-03    -16.7542E-03    -16.9533E-03    -16.7023E-03     33.4565E-03    -16.7542E-03     7.10271E-03     7.34858E+06     4.02205E+06    -184.805E+06     6.02180E+06    -184.783E+06     5.32667E+06     1.00020E+06         22.7566
             286     4.91848E-03     55.5656E-03         3.68437        -1.98256        -2.20806        -1.63321         3.32879        -2.20182         2.52605     33.7019E-03    -16.7975E-03    -16.9045E-03    -16.7072E-03     33.5047E-03    -16.7975E-03     6.29119E-03     8.44898E+06     5.82992E+06    -195.017E+06     6.01761E+06    -194.979E+06     8.22338E+06     620.924E+03         22.6610
             287     3.93470E-03     55.5596E-03         4.03184        -2.12732        -2.41435        -1.92119         3.71833        -2.30698         2.59083     33.7161E-03    -16.8295E-03    -16.8866E-03    -16.7439E-03     33.5734E-03    -16.8295E-03     5.33861E-03     10.6989E+06     6.77492E+06    -198.365E+06     6.74134E+06    -198.331E+06     10.6989E+06     635.318E+03         22.5873
             288     2.95075E-03     55.5546E-03         4.47131        -2.39669        -2.58113        -2.14717         4.03735        -2.39669     308.678E-03     33.6986E-03    -16.8093E-03    -16.8893E-03    -16.7794E-03     33.6095E-03    -16.8301E-03     4.19271E-03     8.08820E+06     5.90832E+06    -198.418E+06     5.89978E+06    -198.409E+06     8.08820E+06     568.304E+03         22.5320
             289     1.96756E-03     55.5508E-03         4.74114        -2.46697        -2.77494        -2.35158         4.31778        -2.46697     398.650E-03     33.6502E-03    -16.7717E-03    -16.8785E-03    -16.7590E-03     33.6069E-03    -16.8479E-03     2.87026E-03     6.60412E+06     3.81693E+06    -199.349E+06     3.80809E+06    -199.340E+06     6.60412E+06    -414.327E+03         22.4933
             290     983.117E-06     55.5489E-03         8.03593        -3.03486        -5.50211     280.335E-03         4.48983        -5.27120        -5.37996     33.7149E-03    -16.7759E-03    -16.9390E-03    -16.8637E-03     33.6950E-03    -16.8313E-03     1.99962E-03     5.31409E+06     1.29794E+06    -199.850E+06     1.51685E+06    -199.831E+06     5.07646E+06     278.389E+03         22.4700
             291     16.7269E-03     55.2324E-03     402.958E-03    -96.5640E-03    -851.325E-03     348.748E-03    -42.3542E-03    -851.325E-03     211.863E-03     309.859E-03    -16.6099E-03    -293.249E-03    -70.1520E-03     86.7619E-03    -16.6099E-03     580.894E-03     158.359E+06     97.1725E+06    -11.8187E+06    -11.2350E+06     157.775E+06     97.1725E+06    -1.31993E+06         73.6422
             292     15.7503E-03     54.7689E-03     489.782E-03     10.1416E-03        -1.00831     268.497E-03     231.426E-03        -1.00831    -132.667E-03     143.777E-03    -16.2584E-03    -127.518E-03    -27.2272E-03     43.4856E-03    -16.2584E-03     259.779E-03     117.380E+06     34.8473E+06    -20.5356E+06    -9.97688E+06     117.053E+06     24.6163E+06    -78.4275E+03         61.5317
             293     14.7646E-03     54.6737E-03     819.710E-03    -184.530E-03        -1.12261     210.701E-03     424.479E-03        -1.12261    -930.182E-03     49.3669E-03    -15.9882E-03    -33.3786E-03    -15.3134E-03     31.3016E-03    -15.9882E-03     66.1912E-03     72.5684E+06     4.48552E+06    -47.5295E+06    -3.00923E+06     72.0812E+06    -39.5476E+06    -297.893E+03         47.9597
             294     13.7762E-03     54.6371E-03         1.13576    -385.410E-03        -1.22449     143.210E-03     607.144E-03        -1.22449        -1.40961     35.3654E-03    -15.9594E-03    -19.4059E-03    -14.8227E-03     30.7821E-03    -15.9594E-03     29.8238E-03     32.8029E+06    -4.97123E+06    -57.7079E+06    -4.22195E+06     32.0536E+06    -57.7079E+06     2.86664E+06         37.0066
             295     12.7921E-03     54.6128E-03         1.27093    -405.064E-03        -1.32936     17.7848E-03     848.079E-03        -1.32936        -1.39884     33.7787E-03    -16.1221E-03    -17.6566E-03    -15.6865E-03     31.8086E-03    -16.1221E-03     19.0019E-03     7.77118E+06    -23.1247E+06    -45.6216E+06    -3.50485E+06    -15.4110E+06    -42.0593E+06     1.44274E+06         30.0198
             296     11.8063E-03     54.5987E-03         1.41344    -432.533E-03        -1.43742    -148.284E-03         1.12919        -1.43742        -1.27441     32.9865E-03    -16.2650E-03    -16.7215E-03    -15.9821E-03     32.2471E-03    -16.2650E-03     11.8852E-03     1.65557E+06    -29.6180E+06    -66.0274E+06     1.55243E+06    -65.9242E+06    -29.6180E+06     610.264E+03         26.2893
             297     10.8227E-03     54.5883E-03         1.59396    -497.102E-03        -1.54830    -326.683E-03         1.42354        -1.54830        -1.09206     33.2308E-03    -16.4091E-03    -16.8217E-03    -16.2195E-03     32.6286E-03    -16.4091E-03     10.8926E-03     5.06559E+06    -13.1279E+06    -96.4305E+06     4.99659E+06    -96.3615E+06    -13.1279E+06     1.08442E+06         24.5141
             298     9.83825E-03     54.5762E-03         1.80678    -594.956E-03        -1.66250    -515.324E-03         1.72715        -1.66250    -161.870E-03     33.3665E-03    -16.4998E-03    -16.8667E-03    -16.2867E-03     32.7866E-03    -16.4998E-03     10.6964E-03     5.62732E+06    -6.29434E+06    -118.833E+06     5.59080E+06    -118.796E+06    -6.29434E+06     267.431E+03         23.6948
             299     8.85430E-03     54.5659E-03         2.22634    -901.279E-03        -1.77968    -720.776E-03         2.04584        -1.77968         1.35531     33.3896E-03    -16.5844E-03    -16.8052E-03    -16.3720E-03     32.9564E-03    -16.5844E-03     9.25563E-03     6.03900E+06    -1.42079E+06    -140.430E+06     6.02707E+06    -140.418E+06    -1.42079E+06     90.2666E+03         23.2853
             300     7.86982E-03     54.5565E-03         2.89977        -1.46144        -1.89785    -959.114E-03         2.39744        -1.89785         2.75825     33.5166E-03    -16.6756E-03    -16.8411E-03    -16.4812E-03     33.1568E-03    -16.6756E-03     8.48147E-03     7.07790E+06     3.79884E+06    -161.284E+06     6.00232E+06    -161.271E+06     4.86125E+06     671.039E+03         23.0445
             301     6.88618E-03     54.5477E-03         3.32379        -1.77988        -2.01129        -1.25014         2.79404        -2.01129         3.06322     33.6585E-03    -16.7142E-03    -16.9442E-03    -16.6195E-03     33.3337E-03    -16.7142E-03     8.07269E-03     6.94860E+06     2.38385E+06    -174.026E+06     4.82939E+06    -174.011E+06     4.48844E+06     1.33925E+06         22.8793
             302     5.90234E-03     54.5398E-03         3.67063        -1.97103        -2.17457        -1.55491         3.19221        -2.11226         3.15346     33.6997E-03    -16.7374E-03    -16.9624E-03    -16.6935E-03     33.4309E-03    -16.7374E-03     7.35098E-03     6.24187E+06     2.55721E+06    -183.632E+06     4.84692E+06    -183.617E+06     3.93731E+06     880.598E+03         22.7554
             303     4.91865E-03     54.5328E-03         3.87395        -2.09158        -2.26051        -1.80258         3.52265        -2.19820         2.63984     33.7202E-03    -16.7673E-03    -16.9529E-03    -16.7481E-03     33.5153E-03    -16.7673E-03     6.40359E-03     6.46452E+06     4.85468E+06    -194.043E+06     5.68273E+06    -194.027E+06     5.62039E+06    -303.958E+03         22.6595
             304     3.93474E-03     54.5265E-03         4.12410        -2.16513        -2.44023        -1.99792         3.78842        -2.27175         2.72421     33.6744E-03    -16.7808E-03    -16.8936E-03    -16.7441E-03     33.5345E-03    -16.7905E-03     5.28159E-03     8.09070E+06     5.09927E+06    -198.688E+06     5.70387E+06    -198.674E+06     7.47216E+06    -449.682E+03         22.5855
             305     2.95135E-03     54.5213E-03         4.45180        -2.33460        -2.59569        -2.16098         4.01708        -2.33460     448.634E-03     33.6252E-03    -16.7820E-03    -16.8432E-03    -16.7274E-03     33.5399E-03    -16.8126E-03     4.09315E-03     9.15779E+06     5.82149E+06    -198.128E+06     5.80801E+06    -198.115E+06     9.15779E+06     766.064E+03         22.5301
             306     1.96696E-03     54.5180E-03         4.62947        -2.38929        -2.71532        -2.28492         4.19907        -2.38929     517.119E-03     33.6842E-03    -16.7642E-03    -16.9200E-03    -16.8483E-03     33.6444E-03    -16.7961E-03     2.74403E-03     7.77295E+06     3.93595E+06    -197.936E+06     3.92835E+06    -197.928E+06     7.77295E+06     326.102E+03         22.4913
             307     984.095E-06     54.5152E-03         7.86615        -3.08222        -5.25194     189.856E-03         4.36067        -5.01853        -5.30872     33.5172E-03    -16.6102E-03    -16.9070E-03    -16.8818E-03     33.5031E-03    -16.6213E-03     1.55050E-03     3.30495E+06     586.908E+03    -201.179E+06     854.846E+03    -201.175E+06     3.03270E+06     140.498E+03         22.4679
             308     16.7173E-03     54.1588E-03     445.940E-03     81.3340E-03        -1.02629     244.575E-03     282.700E-03        -1.02629     197.061E-03     305.628E-03    -17.0576E-03    -288.570E-03    -68.7830E-03     85.8406E-03    -17.0576E-03     573.631E-03     166.704E+06     103.640E+06    -2.04092E+06    -1.84980E+06     166.512E+06     103.640E+06    -276.265E+03         73.4517
             309     15.7504E-03     53.7425E-03     679.448E-03     36.8215E-03        -1.18011     114.384E-03     601.885E-03        -1.18011    -181.602E-03     137.750E-03    -16.5503E-03    -121.200E-03    -29.7475E-03     46.2978E-03    -16.5503E-03     247.098E-03     117.574E+06     31.5530E+06    -17.2064E+06    -6.80453E+06     117.404E+06     21.3220E+06    -2.95023E+06         61.4880
             310     14.7579E-03     53.6422E-03         1.08115    -240.281E-03        -1.29052     3.33936E-03     837.531E-03        -1.29052    -987.284E-03     52.3126E-03    -16.1156E-03    -36.1970E-03    -15.4332E-03     31.5488E-03    -16.1156E-03     71.6896E-03     66.6735E+06    -9.28332E+06    -52.5668E+06    -10.8947E+06     66.2493E+06    -50.5312E+06     2.57986E+06         48.0601
             311     13.7753E-03     53.6046E-03         1.43288    -487.833E-03        -1.38647    -128.212E-03         1.07326        -1.38647        -1.46329     37.1649E-03    -16.0768E-03    -21.0881E-03    -16.2170E-03     32.2938E-03    -16.0768E-03     31.8755E-03     33.4512E+06    -7.57176E+06    -60.3889E+06    -6.98695E+06     32.8664E+06    -60.3889E+06     3.62103E+06         37.1230
             312     12.7897E-03     53.5804E-03         1.63512    -588.667E-03        -1.48023    -305.023E-03         1.35148        -1.48023        -1.44421     34.4993E-03    -16.1724E-03    -18.3269E-03    -16.1048E-03     32.2772E-03    -16.1724E-03     20.3798E-03     9.63966E+06    -21.9710E+06    -45.7042E+06    -758.263E+03    -12.7941E+06    -44.4833E+06     1.19831E+06         30.1114
             313     11.8066E-03     53.5659E-03         1.83763    -693.577E-03        -1.57203    -503.578E-03         1.64763        -1.57203        -1.30475     33.4791E-03    -16.2860E-03    -17.1931E-03    -16.3559E-03     32.6419E-03    -16.2860E-03     12.8020E-03     1.36416E+06    -33.7741E+06    -67.2817E+06     1.20966E+06    -66.4152E+06    -34.4861E+06    -159.840E+03         26.3417
             314     10.8219E-03     53.5556E-03         2.04263    -804.693E-03        -1.66214    -687.611E-03         1.92554        -1.66214        -1.10010     33.5047E-03    -16.4198E-03    -17.0849E-03    -16.4138E-03     32.8336E-03    -16.4198E-03     11.5545E-03     3.06775E+06    -16.5538E+06    -97.4708E+06     3.04143E+06    -97.4444E+06    -16.5538E+06     661.082E+03         24.5381
             315     9.83818E-03     53.5434E-03         2.24723    -918.529E-03        -1.75200    -860.279E-03         2.18898        -1.75200    -146.943E-03     33.6009E-03    -16.5029E-03    -17.0979E-03    -16.4790E-03     32.9819E-03    -16.5029E-03     11.1082E-03     4.75903E+06    -6.71265E+06    -117.016E+06     4.73615E+06    -116.993E+06    -6.71265E+06     883.436E+03         23.7039
             316     8.85416E-03     53.5330E-03         2.60577        -1.18992        -1.84193        -1.03745         2.45330        -1.84193         1.37051     33.5069E-03    -16.5595E-03    -16.9475E-03    -16.4755E-03     33.0350E-03    -16.5595E-03     9.68821E-03     5.48182E+06    -4.67245E+06    -140.523E+06     5.47737E+06    -140.518E+06    -4.67245E+06     229.132E+03         23.2878
             317     7.87052E-03     53.5238E-03         3.17608        -1.65257        -1.95431        -1.23343         2.73311        -1.93049         2.75654     33.5488E-03    -16.6485E-03    -16.9004E-03    -16.5178E-03     33.1663E-03    -16.6485E-03     8.74516E-03     7.30931E+06     1.56182E+06    -163.074E+06     6.23119E+06    -163.058E+06     2.62422E+06     1.46601E+06         23.0443
             318     6.88608E-03     53.5148E-03         3.51457        -1.91472        -2.03771        -1.45583         3.03185        -2.01388         3.05889     33.5659E-03    -16.6942E-03    -16.8718E-03    -16.5507E-03     33.2448E-03    -16.6942E-03     8.00698E-03     7.95940E+06     3.39663E+06    -173.575E+06     6.87616E+06    -173.554E+06     4.45904E+06     1.86238E+06         22.8777
             319     5.90218E-03     53.5068E-03         3.79353        -2.02170        -2.21546        -1.67879         3.32269        -2.08753         3.19489     33.6403E-03    -16.7196E-03    -16.9208E-03    -16.6620E-03     33.3816E-03    -16.7196E-03     7.20156E-03     7.86159E+06     3.27790E+06    -181.564E+06     7.51478E+06    -181.555E+06     3.61581E+06     348.744E+03         22.7528
             320     4.91849E-03     53.4995E-03         3.92712        -2.09618        -2.27784        -1.86282         3.56584        -2.14992         2.72534     33.7492E-03    -16.7626E-03    -16.9866E-03    -16.7818E-03     33.5444E-03    -16.7626E-03     6.41524E-03     8.99352E+06     5.98939E+06    -193.698E+06     7.72832E+06    -193.694E+06     7.25110E+06    -138.467E+03         22.6563
             321     3.93521E-03     53.4935E-03         4.13129        -2.14890        -2.43130        -2.00712         3.76085        -2.20264         2.86286     33.7175E-03    -16.7609E-03    -16.9566E-03    -16.8033E-03     33.5739E-03    -16.7707E-03     5.34709E-03     8.89186E+06     6.60795E+06    -199.174E+06     7.22194E+06    -199.170E+06     8.27332E+06     129.925E+03         22.5819
             322     2.95087E-03     53.4886E-03         4.37515        -2.24814        -2.57285        -2.11932         3.92162        -2.24814     612.144E-03     33.6366E-03    -16.7529E-03    -16.8837E-03    -16.7873E-03     33.5499E-03    -16.7626E-03     4.13951E-03     8.90034E+06     6.08716E+06    -198.983E+06     6.07626E+06    -198.972E+06     8.90034E+06     173.073E+03         22.5261
             323     1.96787E-03     53.4844E-03         4.51878        -2.28685        -2.67299        -2.21650         4.06229        -2.28685     694.403E-03     33.5966E-03    -16.7119E-03    -16.8847E-03    -16.8328E-03     33.5525E-03    -16.7197E-03     2.89619E-03     9.77478E+06     4.29516E+06    -197.153E+06     4.26369E+06    -197.122E+06     9.77478E+06     1.35144E+06         22.4870
             324     984.053E-06     53.4822E-03         7.70292        -3.21096        -4.93033     32.7569E-03         4.16911        -4.64024        -5.24912     33.3018E-03    -16.5412E-03    -16.7606E-03    -16.7399E-03     33.2889E-03    -16.5490E-03     1.29374E-03     3.08976E+06    -730.507E+03    -200.688E+06    -721.808E+03    -200.662E+06     3.05513E+06     747.179E+03         22.4633
             325     16.7296E-03     53.0996E-03     636.541E-03     108.424E-03        -1.18666     150.970E-03     593.994E-03        -1.18666     175.138E-03     310.857E-03    -17.0790E-03    -293.778E-03    -70.3771E-03     87.4561E-03    -17.0790E-03     583.307E-03     163.039E+06     103.010E+06    -4.74432E+06    -4.59312E+06     162.887E+06     103.010E+06    -24.7995E+03         73.3827
             326     15.7388E-03     52.7212E-03     996.606E-03    -75.9625E-03        -1.33695    -36.2893E-03     956.933E-03        -1.33695    -225.011E-03     133.419E-03    -16.7583E-03    -116.660E-03    -25.4224E-03     42.1807E-03    -16.7583E-03     239.400E-03     115.297E+06     20.0901E+06    -14.5844E+06    -14.4778E+06     115.191E+06     20.0901E+06     985.661E+03         61.5187
             327     14.7546E-03     52.6021E-03         1.43571    -404.692E-03        -1.44139    -239.263E-03         1.27028        -1.44139        -1.01293     53.9709E-03    -16.3776E-03    -37.5933E-03    -17.6489E-03     34.0265E-03    -16.3776E-03     71.6197E-03     67.5919E+06    -13.6336E+06    -51.8265E+06    -19.1714E+06     67.2559E+06    -45.9527E+06    -57.9678E+03         48.1560
             328     13.7722E-03     52.5740E-03         1.82348    -703.431E-03        -1.52680    -451.939E-03         1.57199        -1.52680        -1.48699     37.2239E-03    -16.1818E-03    -21.0422E-03    -17.0085E-03     33.1903E-03    -16.1818E-03     29.4552E-03     32.4571E+06    -11.8984E+06    -67.8984E+06    -11.5979E+06     32.1565E+06    -67.8984E+06    -1.65418E+06         37.2471
             329     12.7888E-03     52.5452E-03         2.05369    -851.337E-03        -1.60510    -644.063E-03         1.84641        -1.60510        -1.46827     35.0078E-03    -16.2469E-03    -18.7609E-03    -16.6798E-03     32.9267E-03    -16.2469E-03     19.6938E-03     7.86405E+06    -24.2214E+06    -49.0093E+06    -4.53306E+06    -12.2193E+06    -48.6143E+06     785.760E+03         30.2064
             330     11.8048E-03     52.5340E-03         2.25174    -971.823E-03        -1.67926    -826.322E-03         2.10624        -1.67926        -1.31880     33.7217E-03    -16.3374E-03    -17.3844E-03    -16.6500E-03     32.9874E-03    -16.3374E-03     12.1141E-03    -794.687E+03    -36.3202E+06    -67.3410E+06    -950.836E+03    -66.4728E+06    -37.0323E+06     1.53983E+06         26.3969
             331     10.8214E-03     52.5217E-03         2.45664        -1.10302        -1.74926        -1.01240         2.36602        -1.74926        -1.09457     33.7852E-03    -16.4300E-03    -17.3552E-03    -16.7069E-03     33.1370E-03    -16.4300E-03     11.4246E-03     676.651E+03    -22.8445E+06    -97.8354E+06     610.114E+03    -97.7688E+06    -22.8445E+06     501.321E+03         24.5645
             332     9.83787E-03     52.5107E-03         2.66607        -1.24632        -1.81413        -1.20030         2.62006        -1.81413    -123.093E-03     33.7414E-03    -16.5002E-03    -17.2412E-03    -16.6729E-03     33.1731E-03    -16.5002E-03     10.6704E-03     2.88783E+06    -10.9882E+06    -116.210E+06     2.87304E+06    -116.195E+06    -10.9882E+06     253.052E+03         23.7146
             333     8.85390E-03     52.5000E-03         2.98695        -1.51122        -1.87240        -1.38252         2.85825        -1.87240         1.37614     33.6115E-03    -16.5458E-03    -17.0657E-03    -16.6215E-03     33.1674E-03    -16.5458E-03     9.41898E-03     4.02790E+06    -7.90108E+06    -140.873E+06     4.02045E+06    -140.866E+06    -7.90108E+06     931.327E+03         23.2912
             334     7.86994E-03     52.4908E-03         3.45836        -1.82281        -2.03531        -1.53940         3.06328        -1.92362         2.75707     33.6445E-03    -16.6143E-03    -17.0301E-03    -16.6668E-03     33.2812E-03    -16.6143E-03     8.52723E-03     4.84365E+06    -2.21537E+06    -164.347E+06     3.98508E+06    -164.335E+06    -1.36819E+06     1.25198E+06         23.0442
             335     6.88663E-03     52.4820E-03         3.66032        -1.95325        -2.11284        -1.65107         3.21539        -1.97009         3.04556     33.5929E-03    -16.6467E-03    -16.9462E-03    -16.6404E-03     33.2871E-03    -16.6467E-03     7.82264E-03     5.86939E+06     1.91680E+06    -172.151E+06     5.01365E+06    -172.143E+06     2.76398E+06     1.13119E+06         22.8754
             336     5.90273E-03     52.4738E-03         3.80373        -1.99850        -2.21592        -1.73887         3.34351        -2.01534         3.16888     33.5186E-03    -16.6646E-03    -16.8540E-03    -16.6071E-03     33.2717E-03    -16.6646E-03     7.01495E-03     6.47753E+06     2.57990E+06    -180.346E+06     6.47384E+06    -180.343E+06     2.57990E+06     44.7910E+03         22.7490
             337     4.91877E-03     52.4666E-03         3.85306        -2.03450        -2.22848        -1.84602         3.49506        -2.05896         2.68190     33.5518E-03    -16.7228E-03    -16.8290E-03    -16.6379E-03     33.3607E-03    -16.7228E-03     6.18215E-03     8.70204E+06     5.80790E+06    -194.782E+06     7.77412E+06    -194.778E+06     6.73171E+06     130.680E+03         22.6512
             338     3.93456E-03     52.4603E-03         4.02419        -2.07185        -2.36369        -1.96192         3.64688        -2.09631         2.83383     33.6467E-03    -16.7470E-03    -16.8996E-03    -16.7608E-03     33.5079E-03    -16.7470E-03     5.24921E-03     9.49857E+06     6.44773E+06    -199.246E+06     7.24289E+06    -199.242E+06     8.69891E+06     958.890E+03         22.5759
             339     2.95177E-03     52.4554E-03         4.24525        -2.12759        -2.52462        -2.03660         3.75723        -2.12759     549.097E-03     33.6080E-03    -16.7207E-03    -16.8873E-03    -16.8008E-03     33.5216E-03    -16.7207E-03     4.14703E-03     7.31757E+06     4.48212E+06    -198.646E+06     4.95089E+06    -198.614E+06     6.81636E+06     1.39773E+06         22.5193
             340     1.96744E-03     52.4516E-03         4.38947        -2.14768        -2.64155        -2.12562         3.87354        -2.14768     709.062E-03     33.3866E-03    -16.6225E-03    -16.7641E-03    -16.6246E-03     33.3380E-03    -16.7135E-03     3.06149E-03     5.71497E+06     2.25461E+06    -197.615E+06     2.88114E+06    -197.560E+06     5.03406E+06     1.89521E+06         22.4794
             341     983.595E-06     52.4493E-03         7.59442        -3.44575        -4.55242    -117.861E-03         3.90231        -4.18819        -5.42124     33.4566E-03    -16.6112E-03    -16.8454E-03    -16.6284E-03     33.4408E-03    -16.8124E-03     1.46013E-03     4.73271E+06     1.88442E+06    -197.688E+06     2.55431E+06    -197.660E+06     4.03465E+06     311.532E+03         22.4552
             342     16.7255E-03     52.0818E-03     899.461E-03     46.1542E-03        -1.33190     60.1733E-03     885.442E-03        -1.33190     180.134E-03     313.340E-03    -17.0671E-03    -296.273E-03    -70.2348E-03     87.3019E-03    -17.0671E-03     588.297E-03     160.138E+06     103.109E+06    -10.3446E+06    -10.2749E+06     160.068E+06     103.109E+06     859.720E+03         73.3665
             343     15.7370E-03     51.6782E-03         1.33204    -229.512E-03        -1.47666    -206.908E-03         1.30944        -1.47666    -186.340E-03     133.402E-03    -16.8274E-03    -116.575E-03    -24.7514E-03     41.5788E-03    -16.8274E-03     238.684E-03     115.697E+06     25.4866E+06    -16.8570E+06    -16.0021E+06     115.651E+06     24.6784E+06     1.07983E+06         61.5795
             344     14.7573E-03     51.5719E-03         1.80441    -604.669E-03        -1.57344    -496.034E-03         1.69577        -1.57344    -949.481E-03     52.3638E-03    -16.4068E-03    -35.9571E-03    -18.6466E-03     35.0534E-03    -16.4068E-03     66.9789E-03     71.3956E+06    -9.44017E+06    -47.7005E+06    -12.9405E+06     71.0577E+06    -43.8622E+06    -1.25696E+06         48.2685
             345     13.7716E-03     51.5368E-03         2.21017    -936.688E-03        -1.64690    -761.879E-03         2.03536        -1.64690        -1.42425     36.4196E-03    -16.1879E-03    -20.2317E-03    -16.7362E-03     32.9241E-03    -16.1879E-03     27.0648E-03     31.9830E+06    -11.9972E+06    -67.7435E+06    -11.1639E+06     31.1498E+06    -67.7435E+06    -2.82692E+06         37.3755
             346     12.7890E-03     51.5134E-03         2.46619        -1.12906        -1.70910    -978.789E-03         2.31592        -1.70910        -1.41809     34.7253E-03    -16.2630E-03    -18.4622E-03    -16.7732E-03     33.0363E-03    -16.2630E-03     17.8181E-03     3.67997E+06    -27.2313E+06    -50.3986E+06    -8.99977E+06    -15.5864E+06    -49.3638E+06    -672.253E+03         30.3011
             347     11.8051E-03     51.4995E-03         2.66069        -1.26703        -1.76389        -1.15562         2.54928        -1.76389        -1.28810     33.7098E-03    -16.3406E-03    -17.3691E-03    -16.7642E-03     33.1049E-03    -16.3406E-03     11.0023E-03    -4.29632E+06    -36.6915E+06    -66.1057E+06    -4.46984E+06    -65.9322E+06    -36.6915E+06     1.03231E+06         26.4524
             348     10.8216E-03     51.4892E-03         2.85243        -1.40753        -1.81166        -1.33405         2.77894        -1.81166        -1.08918     33.7793E-03    -16.4135E-03    -17.3658E-03    -16.8341E-03     33.2476E-03    -16.4135E-03     10.3556E-03     561.246E+03    -22.4351E+06    -96.2038E+06     474.060E+03    -96.1166E+06    -22.4351E+06    -415.057E+03         24.5914
             349     9.83788E-03     51.4768E-03         3.05496        -1.56975        -1.84969        -1.53131         3.01652        -1.84969    -138.587E-03     33.7153E-03    -16.4831E-03    -17.2322E-03    -16.7511E-03     33.2342E-03    -16.4831E-03     9.80990E-03     2.26702E+06    -9.40507E+06    -118.091E+06     2.24645E+06     -118.07E+06    -9.40507E+06     160.701E+03         23.7255
             350     8.85457E-03     51.4676E-03         3.32104        -1.75881        -1.92718        -1.70112         3.21153        -1.87537         1.34982     33.6166E-03    -16.5166E-03    -17.1001E-03    -16.7207E-03     33.2373E-03    -16.5166E-03     8.73336E-03     2.16472E+06    -5.81052E+06    -141.385E+06     2.13868E+06    -141.359E+06    -5.81052E+06     1.86041E+06         23.2944
             351     7.87090E-03     51.4575E-03         3.67751        -1.87839        -2.16559        -1.79565         3.31995        -1.89078         2.72983     33.5613E-03    -16.5512E-03    -17.0101E-03    -16.6851E-03     33.2363E-03    -16.5512E-03     8.07183E-03     3.74305E+06    -3.21076E+06    -163.338E+06     2.87880E+06    -163.320E+06    -2.36358E+06     1.48456E+06         23.0433
             352     6.88686E-03     51.4493E-03         3.77410        -1.90134        -2.24354        -1.83001         3.36057        -1.90134         3.02029     33.4776E-03    -16.5694E-03    -16.9082E-03    -16.6268E-03     33.1962E-03    -16.5694E-03     7.50240E-03     4.38512E+06    -32.7589E+03    -171.113E+06     3.52845E+06    -171.104E+06     814.421E+03     62.5704E+03         22.8721
             353     5.90307E-03     51.4408E-03         3.82861        -1.91114        -2.28961        -1.84610         3.38510        -1.91114         3.14001     33.3915E-03    -16.5815E-03    -16.8100E-03    -16.5702E-03     33.1517E-03    -16.5815E-03     6.90382E-03     4.51791E+06     693.100E+03    -180.313E+06     4.50387E+06    -180.298E+06     693.100E+03    -136.802E+03         22.7438
             354     4.91922E-03     51.4341E-03         3.75294        -1.91284        -2.21056        -1.85854         3.41008        -1.92199         2.59294     33.3997E-03    -16.6186E-03    -16.7812E-03    -16.5974E-03     33.2160E-03    -16.6186E-03     6.04526E-03     4.38515E+06     1.87257E+06    -195.835E+06     4.37726E+06    -195.827E+06     1.87257E+06     563.609E+03         22.6446
             355     3.93552E-03     51.4274E-03         3.82886        -1.92246        -2.27361        -1.89699         3.46138        -1.93161         2.70646     33.3668E-03    -16.5964E-03    -16.7705E-03    -16.5880E-03     33.2372E-03    -16.6492E-03     5.05883E-03     5.72835E+06     3.38866E+06    -199.258E+06     4.51140E+06    -199.253E+06     4.60013E+06     972.640E+03         22.5679
             356     2.95096E-03     51.4223E-03         4.03825        -1.93440        -2.46583        -1.93745         3.50987        -1.93440     371.187E-03     33.3442E-03    -16.6062E-03    -16.7380E-03    -16.5822E-03     33.2655E-03    -16.6833E-03     3.90990E-03     8.55460E+06     5.10806E+06    -197.870E+06     5.83967E+06    -197.832E+06     7.78476E+06     1.35031E+06         22.5100
             357     1.96766E-03     51.4191E-03         4.12374        -1.93107        -2.54995        -1.93879         3.51258        -1.93107     638.617E-03     33.3634E-03    -16.6085E-03    -16.7548E-03    -16.6070E-03     33.3229E-03    -16.7159E-03     2.78078E-03     8.43131E+06     5.43065E+06    -195.808E+06     6.06739E+06    -195.764E+06     7.75040E+06     1.28266E+06         22.4692
             358     983.428E-06     51.4163E-03         7.38440        -3.48514        -4.25743    -178.891E-03         3.49905        -3.67832        -5.65385     33.4687E-03    -16.5784E-03    -16.8902E-03    -16.6832E-03     33.4550E-03    -16.7718E-03     1.43801E-03     6.64483E+06     4.20838E+06    -196.178E+06     4.89323E+06    -196.164E+06     5.94677E+06     39.7117E+03         22.4445
             359     16.7297E-03     51.0610E-03         1.16852    -51.4572E-03        -1.46125    -41.2819E-03         1.15834        -1.46125     209.644E-03     314.263E-03    -17.0199E-03    -297.243E-03    -71.3682E-03     88.3881E-03    -17.0199E-03     589.797E-03     161.817E+06     106.841E+06    -8.28116E+06    -8.24863E+06     161.784E+06     106.841E+06     1.27439E+06         73.3259
             360     15.7418E-03     50.6412E-03         1.65127    -393.186E-03        -1.59772    -379.650E-03         1.63774        -1.59772    -109.600E-03     134.804E-03    -16.6975E-03    -118.107E-03    -25.7814E-03     42.4789E-03    -16.6975E-03     241.444E-03     117.740E+06     25.8421E+06    -13.1415E+06    -12.3145E+06     117.721E+06     25.0338E+06     50.5234E+03         61.6200
             361     14.7570E-03     50.5369E-03         2.14315    -798.006E-03        -1.68609    -724.810E-03         2.06995        -1.68609    -857.278E-03     50.5303E-03    -16.2841E-03    -34.2462E-03    -17.7368E-03     34.0209E-03    -16.2841E-03     64.1306E-03     71.9826E+06    -11.3697E+06    -44.9998E+06    -12.0472E+06     71.9235E+06    -44.2631E+06    -462.798E+03         48.3750
             362     13.7747E-03     50.5045E-03         2.56362        -1.15658        -1.74870        -1.02972         2.43676        -1.74870        -1.34150     35.8792E-03    -16.1099E-03    -19.7693E-03    -16.2821E-03     32.3920E-03    -16.1099E-03     26.7684E-03     31.8987E+06    -11.1250E+06    -66.6152E+06    -10.1526E+06     30.9262E+06    -66.6152E+06     154.414E+03         37.4893
             363     12.7893E-03     50.4791E-03         2.85872        -1.40436        -1.79591        -1.29025         2.74461        -1.79591        -1.36562     34.4134E-03    -16.1928E-03    -18.2206E-03    -16.5877E-03     32.7805E-03    -16.1928E-03     17.3084E-03     1.97802E+06    -27.4277E+06    -51.6259E+06    -8.50137E+06    -17.7415E+06    -50.8328E+06    -234.392E+03         30.3871
             364     11.8062E-03     50.4667E-03         3.08891        -1.59597        -1.83340        -1.51077         3.00005        -1.82974        -1.26915     33.6460E-03    -16.2655E-03    -17.3805E-03    -16.8266E-03     33.0921E-03    -16.2655E-03     10.5307E-03    -4.89886E+06    -38.1365E+06    -64.6910E+06    -5.15023E+06    -64.4397E+06    -38.1365E+06    -1.41851E+06         26.5029
             365     10.8227E-03     50.4552E-03         3.27069        -1.71813        -1.88954        -1.69421         3.20786        -1.85063        -1.10491     33.5876E-03    -16.3344E-03    -17.2532E-03    -16.7662E-03     33.1006E-03    -16.3344E-03     9.89866E-03    -1.81454E+06    -24.3569E+06    -96.4279E+06    -1.85181E+06    -96.3906E+06    -24.3569E+06    -1.41182E+06         24.6154
             366     9.83915E-03     50.4445E-03         3.39962        -1.79294        -1.94006        -1.84077         3.36616        -1.85878    -192.241E-03     33.5751E-03    -16.4016E-03    -17.1734E-03    -16.7253E-03     33.1270E-03    -16.4016E-03     9.46745E-03     22.0677E+03    -11.6719E+06    -120.622E+06     11.4232E+03    -120.611E+06    -11.6719E+06     274.536E+03         23.7344
             367     8.85514E-03     50.4338E-03         3.55346        -1.84007        -2.04485        -1.93759         3.46107        -1.85495         1.27531     33.4690E-03    -16.4353E-03    -17.0337E-03    -16.6782E-03     33.1135E-03    -16.4353E-03     8.43781E-03     2.80984E+06    -5.69429E+06    -141.975E+06     2.79015E+06    -141.956E+06    -5.69429E+06     1.25812E+06         23.2958
             368     7.87144E-03     50.4253E-03         3.80820        -1.84164        -2.29753        -1.97519         3.48587        -1.84164         2.65134     33.3808E-03    -16.4654E-03    -16.9154E-03    -16.5962E-03     33.0617E-03    -16.4654E-03     7.98425E-03     5.08869E+06    -1.68503E+06    -161.390E+06     5.07707E+06    -161.379E+06    -1.68503E+06     917.298E+03         23.0410
             369     6.88771E-03     50.4160E-03         3.84749        -1.82179        -2.35779        -1.97497         3.46468        -1.82179         2.96493     33.2974E-03    -16.4836E-03    -16.8137E-03    -16.5322E-03     33.0159E-03    -16.4836E-03     7.47970E-03     5.94840E+06     681.160E+03    -170.471E+06     5.93633E+06    -170.459E+06     681.160E+03     107.969E+03         22.8676
             370     5.90367E-03     50.4088E-03         3.86006        -1.79598        -2.39566        -1.96546         3.42986        -1.79598         3.12610     33.2969E-03    -16.5017E-03    -16.7952E-03    -16.5607E-03     33.0624E-03    -16.5017E-03     6.83076E-03     5.90538E+06     1.13809E+06    -181.598E+06     5.54944E+06    -181.579E+06     1.47454E+06     811.782E+03         22.7379
             371     4.91967E-03     50.4009E-03         3.69920        -1.76477        -2.26092        -1.92640         3.36468        -1.76477         2.56026     33.3174E-03    -16.5219E-03    -16.7955E-03    -16.6099E-03     33.1318E-03    -16.5219E-03     6.07071E-03     5.43761E+06     2.87329E+06    -195.004E+06     5.09001E+06    -194.993E+06     3.20974E+06     1.36709E+06         22.6372
             372     3.93584E-03     50.3951E-03         3.65244        -1.73251        -2.24133        -1.85297         3.26408        -1.73251         2.68253     33.2020E-03    -16.4714E-03    -16.7307E-03    -16.5531E-03     33.0773E-03    -16.5242E-03     4.93999E-03     5.53191E+06     3.83948E+06    -198.577E+06     4.71895E+06    -198.566E+06     4.64159E+06     348.384E+03         22.5591
             373     2.95201E-03     50.3899E-03         3.74870        -1.70629        -2.35590        -1.76707         3.15987        -1.70629     342.680E-03     33.0937E-03    -16.4672E-03    -16.6265E-03    -16.4802E-03     33.0245E-03    -16.5442E-03     3.65183E-03     8.45415E+06     5.24906E+06    -198.147E+06     5.50456E+06    -198.134E+06     8.18553E+06    -606.434E+03         22.4999
             374     1.96750E-03     50.3859E-03         3.80838        -1.69137        -2.42481        -1.70712         3.09068        -1.69137     685.122E-03     33.1495E-03    -16.5140E-03    -16.6355E-03    -16.5794E-03     33.1176E-03    -16.5382E-03     2.44273E-03     10.8954E+06     5.31415E+06    -194.576E+06     5.29880E+06    -194.561E+06     10.8954E+06     61.4049E+03         22.4581
             375     984.345E-06     50.3836E-03         7.08709        -3.09108        -4.30597    -281.747E-03         3.06286        -3.09108        -5.70498     32.9732E-03    -16.3502E-03    -16.6230E-03    -16.6130E-03     32.9633E-03    -16.3502E-03     1.27503E-03     6.15674E+06     1.01918E+06    -195.599E+06     1.81135E+06    -195.584E+06     5.34994E+06     734.393E+03         22.4327
             376     16.7281E-03     50.0287E-03         1.41235    -154.283E-03        -1.57144    -144.377E-03         1.40244        -1.57144     241.343E-03     316.303E-03    -16.9496E-03    -299.354E-03    -73.8398E-03     90.7894E-03    -16.9496E-03     592.905E-03     161.469E+06     107.195E+06    -8.02252E+06    -8.00651E+06     161.453E+06     107.195E+06     856.711E+03         73.2117
             377     15.7451E-03     49.6073E-03         1.93223    -548.453E-03        -1.69622    -537.522E-03         1.92130        -1.69622    -67.2144E-03     135.185E-03    -16.5511E-03    -118.634E-03    -26.3399E-03     42.8910E-03    -16.5511E-03     242.820E-03     119.001E+06     25.5319E+06    -11.0991E+06    -10.8137E+06     118.969E+06     25.2784E+06    -49.3812E+03         61.6062
             378     14.7609E-03     49.5038E-03         2.43640    -972.949E-03        -1.77537    -914.432E-03         2.37788        -1.77537    -823.374E-03     49.9958E-03    -16.1649E-03    -33.8308E-03    -16.3900E-03     32.5549E-03    -16.1649E-03     64.8057E-03     69.3059E+06    -10.3248E+06    -45.7738E+06    -10.6927E+06     68.9371E+06    -45.0371E+06     594.486E+03         48.4452
             379     13.7741E-03     49.4717E-03         2.88733        -1.37074        -1.82788        -1.26287         2.77945        -1.82788        -1.33662     35.8974E-03    -16.0380E-03    -19.8594E-03    -16.1832E-03     32.2212E-03    -16.0380E-03     27.4549E-03     31.6040E+06    -10.5458E+06    -66.1688E+06    -9.79915E+06     30.8573E+06    -66.1688E+06     2.95580E+06         37.5770
             380     12.7910E-03     49.4458E-03         3.22388        -1.66086        -1.87399        -1.57212         3.12177        -1.86063        -1.39409     34.4102E-03    -16.1131E-03    -18.2971E-03    -16.5852E-03     32.6984E-03    -16.1131E-03     17.6950E-03     7.66682E+06    -28.1286E+06    -50.2098E+06    -6.50467E+06    -14.1105E+06    -50.0565E+06    -186.897E+03         30.4583
             381     11.8072E-03     49.4329E-03         3.47951        -1.82824        -1.96094        -1.83401         3.39844        -1.87410        -1.30655     33.4795E-03    -16.1803E-03    -17.2991E-03    -16.7452E-03     32.9255E-03    -16.1803E-03     10.4965E-03    -3.09228E+06    -38.4371E+06    -65.7881E+06    -3.25371E+06    -64.8629E+06    -39.2008E+06    -2.02646E+06         26.5451
             382     10.8234E-03     49.4227E-03         3.64442        -1.86904        -2.08077        -2.02250         3.58615        -1.86904        -1.14132     33.4695E-03    -16.2584E-03    -17.2111E-03    -16.7247E-03     32.9831E-03    -16.2584E-03     9.87476E-03    -2.02876E+06    -24.2676E+06    -97.5760E+06    -2.03672E+06    -97.5681E+06    -24.2676E+06    -185.710E+03         24.6345
             383     9.83968E-03     49.4108E-03         3.69061        -1.84888        -2.14185        -2.11212         3.66088        -1.84888    -242.990E-03     33.4086E-03    -16.3045E-03    -17.1041E-03    -16.6512E-03     32.9556E-03    -16.3045E-03     9.49785E-03    -876.358E+03    -15.3604E+06    -121.552E+06    -881.797E+03    -121.546E+06    -15.3604E+06    -280.629E+03         23.7402
             384     8.85621E-03     49.4016E-03         3.72253        -1.81854        -2.20004        -2.12324         3.64572        -1.81854         1.18257     33.2609E-03    -16.3339E-03    -16.9270E-03    -16.5657E-03     32.8997E-03    -16.3339E-03     8.47694E-03     1.53249E+06    -10.3572E+06    -142.053E+06     1.52659E+06    -142.047E+06    -10.3572E+06    -541.379E+03         23.2952
             385     7.87212E-03     49.3920E-03         3.88284        -1.78086        -2.39380        -2.10550         3.59454        -1.78086         2.53774     33.1919E-03    -16.3759E-03    -16.8159E-03    -16.4966E-03     32.8725E-03    -16.3759E-03     7.96015E-03     3.56250E+06    -4.77731E+06    -161.492E+06     3.56023E+06    -161.490E+06    -4.77731E+06    -47.5099E+03         23.0376
             386     6.88791E-03     49.3841E-03         3.87146        -1.73535        -2.42694        -2.07975         3.52427        -1.73535         2.85355     33.1722E-03    -16.4003E-03    -16.7719E-03    -16.4895E-03     32.8898E-03    -16.4003E-03     7.48383E-03     4.94437E+06    -722.004E+03    -170.244E+06     4.93895E+06    -170.238E+06    -722.004E+03     736.436E+03         22.8628
             387     5.90402E-03     49.3755E-03         3.83058        -1.68124        -2.43726        -2.02615         3.41947        -1.68124         3.04903     33.2266E-03    -16.4248E-03    -16.8018E-03    -16.5670E-03     32.9918E-03    -16.4248E-03     6.82552E-03     6.35788E+06     2.42614E+06    -182.184E+06     5.41814E+06    -182.173E+06     3.35474E+06     1.39479E+06         22.7319
             388     4.92033E-03     49.3689E-03         3.60291        -1.62051        -2.26196        -1.93203         3.27297        -1.62051         2.52922     33.1746E-03    -16.4339E-03    -16.7407E-03    -16.5612E-03     32.9951E-03    -16.4339E-03     5.95993E-03     6.67146E+06     4.53312E+06    -194.156E+06     5.08617E+06    -194.148E+06     6.10971E+06     1.20506E+06         22.6301
             389     3.93622E-03     49.3621E-03         3.49254        -1.56115        -2.20466        -1.78031         3.06820        -1.56115         2.71638     33.0783E-03    -16.4052E-03    -16.6731E-03    -16.5478E-03     32.9530E-03    -16.4052E-03     4.95569E-03     7.14479E+06     4.69502E+06    -196.702E+06     5.68697E+06    -196.694E+06     6.14513E+06    -28.5251E+03         22.5509
             390     2.95246E-03     49.3577E-03         3.49686        -1.52052        -2.23965        -1.59573         2.85294        -1.52052     411.112E-03     33.0062E-03    -16.3594E-03    -16.6469E-03    -16.5724E-03     32.9318E-03    -16.3594E-03     3.78782E-03     8.21409E+06     4.07357E+06    -198.018E+06     4.50283E+06    -198.009E+06     7.77617E+06    -868.960E+03         22.4908
             391     1.96879E-03     49.3535E-03         3.57655        -1.50533        -2.32796        -1.51370         2.76229        -1.50533     820.900E-03     32.7046E-03    -16.2262E-03    -16.4784E-03    -16.3889E-03     32.6692E-03    -16.2803E-03     2.55661E-03     7.65107E+06     2.08601E+06    -195.785E+06     2.08182E+06    -195.781E+06     7.65107E+06    -657.163E+03         22.4480
             392     984.284E-06     49.3510E-03         6.84409        -2.51156        -4.59512    -494.051E-03         2.74302        -2.51156        -5.70477     32.4376E-03    -16.0387E-03    -16.3989E-03    -16.1815E-03     32.4260E-03    -16.2445E-03     1.34269E-03     4.40985E+06     390.261E+03    -195.614E+06     1.19242E+06    -195.609E+06     3.60305E+06     349.456E+03         22.4220
             393     16.7290E-03     48.9866E-03         1.59968    -235.109E-03        -1.65687    -225.214E-03         1.58978        -1.65687     264.593E-03     315.502E-03    -16.7785E-03    -298.723E-03    -73.9341E-03     90.7126E-03    -16.7785E-03     590.897E-03     163.049E+06     106.413E+06    -5.11918E+06    -5.10032E+06     163.030E+06     106.413E+06     713.888E+03         73.0600
             394     15.7482E-03     48.5771E-03         2.16323    -685.175E-03        -1.76695    -674.426E-03         2.15248        -1.76695    -52.2106E-03     135.428E-03    -16.4336E-03    -118.994E-03    -24.0609E-03     40.4946E-03    -16.4336E-03     244.595E-03     117.796E+06     22.2022E+06    -11.1818E+06    -10.1327E+06     117.634E+06     21.3154E+06     791.145E+03         61.5488
             395     14.7584E-03     48.4721E-03         2.69635        -1.14569        -1.83533        -1.09103         2.64168        -1.83533    -842.581E-03     51.5669E-03    -16.1138E-03    -35.4532E-03    -16.9258E-03     33.0396E-03    -16.1138E-03     67.3402E-03     66.9632E+06    -13.3466E+06    -48.9146E+06    -12.8556E+06     66.4722E+06    -48.9146E+06     2.51463E+06         48.4667
             396     13.7759E-03     48.4379E-03         3.16359        -1.56852        -1.87698        -1.46437         3.05945        -1.87698        -1.38778     36.0993E-03    -15.9717E-03    -20.1276E-03    -16.6529E-03     32.6247E-03    -15.9717E-03     26.8490E-03     32.8628E+06    -8.08052E+06    -64.1208E+06    -7.73724E+06     32.5195E+06    -64.1208E+06     1.66304E+06         37.6421
             397     12.7916E-03     48.4126E-03         3.51594        -1.82759        -1.96746        -1.79740         3.41449        -1.89620        -1.46397     34.1068E-03    -16.0448E-03    -18.0621E-03    -16.4489E-03     32.4937E-03    -16.0448E-03     17.1030E-03     9.92679E+06    -21.9436E+06    -45.5294E+06    -2.71761E+06    -10.7623E+06    -44.0664E+06     94.6853E+03         30.5183
             398     11.8076E-03     48.3999E-03         3.75675        -1.89337        -2.14006        -2.05854         3.67523        -1.89337        -1.37255     33.2142E-03    -16.1076E-03    -17.1066E-03    -16.5905E-03     32.6981E-03    -16.1076E-03     10.0700E-03    -1.79261E+06    -36.1863E+06    -67.0060E+06    -1.86662E+06    -66.1683E+06    -36.9500E+06    -529.851E+03         26.5807
             399     10.8244E-03     48.3893E-03         3.88638        -1.87021        -2.28756        -2.22855         3.82737        -1.87021        -1.19383     33.2241E-03    -16.1879E-03    -17.0362E-03    -16.5833E-03     32.7712E-03    -16.1879E-03     9.48867E-03    -57.2638E+03    -22.5043E+06    -98.6599E+06    -82.6866E+03    -98.6345E+06    -22.5043E+06     287.609E+03         24.6499
             400     9.84056E-03     48.3785E-03         3.90279        -1.82984        -2.33713        -2.30890         3.87456        -1.82984    -296.414E-03     33.1445E-03    -16.2481E-03    -16.8964E-03    -16.4506E-03     32.6987E-03    -16.2481E-03     9.39160E-03     2.17927E+06    -11.7402E+06    -119.983E+06     2.16184E+06    -119.966E+06    -11.7402E+06     272.428E+03         23.7441
             401     8.85633E-03     48.3685E-03         3.88745        -1.77629        -2.36815        -2.30396         3.82326        -1.77629         1.09787     33.1210E-03    -16.2864E-03    -16.8345E-03    -16.4629E-03     32.7493E-03    -16.2864E-03     8.57522E-03     2.24023E+06    -8.25809E+06    -142.959E+06     2.23224E+06    -142.951E+06    -8.25809E+06    -443.551E+03         23.2938
             402     7.87253E-03     48.3601E-03         3.95639        -1.71367        -2.49361        -2.23910         3.70189        -1.71367         2.41145     33.1729E-03    -16.3273E-03    -16.8456E-03    -16.5215E-03     32.8488E-03    -16.3273E-03     8.01962E-03     2.98369E+06    -3.42694E+06    -161.403E+06     2.10114E+06    -161.397E+06    -2.55030E+06    -126.752E+03         23.0343
             403     6.88874E-03     48.3512E-03         3.85324        -1.64422        -2.45624        -2.14778         3.54478        -1.64422         2.70140     33.1248E-03    -16.3372E-03    -16.7876E-03    -16.5056E-03     32.8428E-03    -16.3372E-03     7.47507E-03     3.36065E+06     24.4407E+03    -170.813E+06     2.48100E+06    -170.810E+06     901.086E+03    -10.3959E+03         22.8586
             404     5.90473E-03     48.3434E-03         3.72871        -1.56999        -2.40018        -2.02012         3.34865        -1.56999         2.89027     33.0751E-03    -16.3422E-03    -16.7329E-03    -16.4944E-03     32.8366E-03    -16.3422E-03     6.86717E-03     4.20896E+06     2.67545E+06    -182.350E+06     3.51162E+06    -182.346E+06     3.36891E+06     404.105E+03         22.7270
             405     4.92071E-03     48.3359E-03         3.41469        -1.49739        -2.14979        -1.84068         3.10558        -1.49739         2.38243     33.0459E-03    -16.3449E-03    -16.7010E-03    -16.5171E-03     32.8620E-03    -16.3449E-03     6.00734E-03     7.21843E+06     5.39540E+06    -193.074E+06     5.38717E+06    -193.066E+06     7.21843E+06    -175.692E+03         22.6245
             406     3.93681E-03     48.3304E-03         3.28403        -1.43525        -2.07101        -1.65240         2.86542        -1.43525         2.59092     32.8975E-03    -16.3127E-03    -16.5848E-03    -16.4565E-03     32.7692E-03    -16.3127E-03     5.01596E-03     8.06600E+06     6.00765E+06    -196.266E+06     6.43948E+06    -196.260E+06     7.62809E+06    -166.637E+03         22.5447
             407     2.95263E-03     48.3245E-03         3.33976        -1.38880        -2.16188        -1.50147         2.67935        -1.38880     335.953E-03     32.7344E-03    -16.2322E-03    -16.5022E-03    -16.3756E-03     32.6483E-03    -16.2727E-03     4.07423E-03     8.12760E+06     3.76650E+06    -197.840E+06     5.40082E+06    -197.835E+06     6.48873E+06    -174.282E+03         22.4841
             408     1.96880E-03     48.3219E-03         3.41718        -1.36281        -2.26046        -1.38994         2.54666        -1.36281     804.260E-03     32.5734E-03    -16.1455E-03    -16.4279E-03    -16.2878E-03     32.5278E-03    -16.2401E-03     2.90183E-03     8.84592E+06     2.86367E+06    -196.718E+06     4.05541E+06    -196.709E+06     7.64497E+06    -1.06000E+06         22.4412
             409     984.174E-06     48.3197E-03         6.55267        -1.96193        -4.79689    -749.741E-03         2.50552        -1.96193        -5.72794     32.4171E-03    -16.0587E-03    -16.3584E-03    -16.1010E-03     32.4018E-03    -16.3008E-03     1.58440E-03     6.88550E+06     1.99745E+06    -195.683E+06     3.78091E+06    -195.676E+06     5.09559E+06    -379.653E+03         22.4150
             410     16.7491E-03     47.9749E-03         1.73002    -294.107E-03        -1.71232    -284.602E-03         1.72051        -1.71232     271.649E-03     315.354E-03    -16.7027E-03    -298.652E-03    -72.1845E-03     88.8872E-03    -16.7027E-03     591.485E-03     158.782E+06     102.315E+06    -9.01029E+06    -8.82177E+06     158.593E+06     102.315E+06    -102.908E+03         72.8730
             411     15.7405E-03     47.5470E-03         2.31916    -781.376E-03        -1.80504    -771.420E-03         2.30921        -1.80504    -53.0500E-03     139.754E-03    -16.4064E-03    -123.347E-03    -25.0073E-03     41.4136E-03    -16.4064E-03     252.140E-03     115.653E+06     21.3402E+06    -15.4183E+06    -14.5489E+06     115.417E+06     20.7069E+06     2.78083E+06         61.4494
             412     14.7606E-03     47.4348E-03         2.88299        -1.27899        -1.86232        -1.22738         2.83138        -1.86232    -852.274E-03     51.3140E-03    -16.0733E-03    -35.2407E-03    -18.3879E-03     34.4613E-03    -16.0733E-03     64.6426E-03     70.4457E+06    -9.56031E+06    -47.8609E+06    -14.7206E+06     70.2412E+06    -42.4961E+06     30.4798E+03         48.4659
             413     13.7779E-03     47.4055E-03         3.36270        -1.70429        -1.90945        -1.62056         3.26321        -1.89368        -1.40757     35.3232E-03    -15.8420E-03    -19.4812E-03    -16.4153E-03     32.2573E-03    -15.8420E-03     25.1424E-03     33.3656E+06    -8.42287E+06    -65.5480E+06    -8.28068E+06     33.2234E+06    -65.5480E+06    -1.85380E+06         37.7005
             414     12.7935E-03     47.3796E-03         3.69396        -1.88687        -2.05318        -1.93755         3.59349        -1.90203        -1.50156     33.6787E-03    -15.9304E-03    -17.7483E-03    -16.1228E-03     32.0533E-03    -15.9304E-03     17.0231E-03     7.94900E+06    -20.3747E+06    -47.6265E+06    -2.84268E+06    -12.0121E+06    -45.1974E+06     549.207E+03         30.5735
             415     11.8097E-03     47.3671E-03         3.90489        -1.88868        -2.25771        -2.17277         3.81995        -1.88868        -1.43366     32.8285E-03    -16.0349E-03    -16.7936E-03    -16.2657E-03     32.3006E-03    -16.0349E-03     10.1156E-03    -14.1358E+03    -32.4761E+06    -65.6197E+06    -120.667E+03    -65.5131E+06    -32.4761E+06     1.46610E+06         26.6145
             416     10.8252E-03     47.3566E-03         4.01230        -1.85523        -2.39103        -2.32637         3.94763        -1.85523        -1.27395     32.8987E-03    -16.1247E-03    -16.7740E-03    -16.3071E-03     32.4318E-03    -16.1247E-03     9.57328E-03     1.04670E+06    -20.2837E+06    -99.0345E+06     970.388E+03    -98.9582E+06    -20.2837E+06     401.196E+03         24.6650
             417     9.84099E-03     47.3460E-03         4.02334        -1.80291        -2.44493        -2.41544         3.99385        -1.80291    -398.213E-03     32.9357E-03    -16.2086E-03    -16.7271E-03    -16.2787E-03     32.4872E-03    -16.2086E-03     9.38122E-03     1.87172E+06    -7.93170E+06    -119.497E+06     1.83128E+06    -119.457E+06    -7.93170E+06     588.602E+03         23.7483
             418     8.85690E-03     47.3363E-03         4.00724        -1.73280        -2.48910        -2.43724         3.95538        -1.73280     980.040E-03     32.9732E-03    -16.2587E-03    -16.7145E-03    -16.3416E-03     32.6002E-03    -16.2587E-03     8.56704E-03     2.36026E+06    -3.74568E+06    -142.459E+06     2.33693E+06    -142.436E+06    -3.74568E+06     451.421E+03         23.2934
             419     7.87292E-03     47.3272E-03         4.02458        -1.64877        -2.58154        -2.35996         3.80299        -1.64877         2.27044     33.1051E-03    -16.2958E-03    -16.8093E-03    -16.4730E-03     32.7689E-03    -16.2958E-03     8.16250E-03     4.21802E+06    -17.5905E+03    -160.986E+06     3.33173E+06    -160.976E+06     859.055E+03    -612.932E+03         23.0322
             420     6.88904E-03     47.3189E-03         3.82440        -1.55857        -2.46513        -2.19136         3.55064        -1.55857         2.55108     33.1232E-03    -16.2985E-03    -16.8247E-03    -16.5235E-03     32.8220E-03    -16.2985E-03     7.72579E-03     5.51992E+06     2.70826E+06    -171.747E+06     4.64050E+06    -171.744E+06     3.58490E+06    -586.325E+03         22.8561
             421     5.90509E-03     47.3110E-03         3.60538        -1.47022        -2.32819        -1.98057         3.25776        -1.47022         2.71594     33.0053E-03    -16.2832E-03    -16.7221E-03    -16.4677E-03     32.7509E-03    -16.2832E-03     7.08999E-03     5.11002E+06     3.37653E+06    -182.130E+06     5.00765E+06    -182.129E+06     3.47784E+06    -411.870E+03         22.7243
             422     4.92095E-03     47.3039E-03         3.25018        -1.38961        -2.04151        -1.76401         2.97269        -1.38961         2.17255     32.8924E-03    -16.2789E-03    -16.6135E-03    -16.4152E-03     32.6941E-03    -16.2789E-03     6.22516E-03     5.55053E+06     4.46131E+06    -192.297E+06     4.96146E+06    -192.290E+06     5.04420E+06    -919.933E+03         22.6216
             423     3.93706E-03     47.2976E-03         3.08940        -1.32050        -1.93894        -1.56890         2.71936        -1.32050         2.32630     32.7335E-03    -16.2677E-03    -16.4657E-03    -16.3277E-03     32.5954E-03    -16.2677E-03     5.18160E-03     6.01875E+06     4.68725E+06    -197.181E+06     5.03485E+06    -197.170E+06     5.65970E+06    -938.548E+03         22.5417
             424     2.95278E-03     47.2936E-03         3.18680        -1.26147        -2.08303        -1.42582         2.52959        -1.26147     111.769E-03     32.5391E-03    -16.2064E-03    -16.3326E-03    -16.1714E-03     32.4493E-03    -16.2779E-03     4.13535E-03     7.32071E+06     4.73971E+06    -197.964E+06     6.15888E+06    -197.958E+06     5.89545E+06    -311.929E+03         22.4814
             425     1.96769E-03     47.2892E-03         3.23054        -1.21238        -2.17224        -1.29704         2.35533        -1.21238     577.034E-03     32.5989E-03    -16.2241E-03    -16.3748E-03    -16.2374E-03     32.5546E-03    -16.3172E-03     2.83778E-03     8.81035E+06     4.05335E+06    -196.371E+06     5.24824E+06    -196.365E+06     7.60939E+06    -706.408E+03         22.4390
             426     984.494E-06     47.2878E-03         6.08480        -1.34502        -4.89496        -1.03660         2.22644        -1.34502        -5.72223     32.6407E-03    -16.1406E-03    -16.5001E-03    -16.4287E-03     32.6273E-03    -16.1986E-03     1.47410E-03     7.71113E+06     310.675E+03    -196.261E+06     2.08483E+06    -196.245E+06     5.92122E+06    -1.33206E+06         22.4132
             427     16.7197E-03     46.9507E-03         1.80015    -328.773E-03        -1.73319    -320.170E-03         1.79155        -1.73319     260.475E-03     312.692E-03    -16.8162E-03    -295.875E-03    -71.5702E-03     88.3864E-03    -16.8162E-03     586.864E-03     158.635E+06     104.166E+06    -11.5421E+06    -11.2696E+06     158.362E+06     104.166E+06     1.03922E+06         72.6263
             428     15.7476E-03     46.5049E-03         2.38087    -819.597E-03        -1.80650    -810.792E-03         2.37207        -1.80650    -71.7699E-03     140.106E-03    -16.3452E-03    -123.760E-03    -29.6333E-03     45.9785E-03    -16.3452E-03     250.670E-03     117.774E+06     30.5985E+06    -17.8613E+06    -14.4472E+06     117.639E+06     27.3192E+06    -8.42281E+03         61.3353
             429     14.7661E-03     46.4032E-03         2.94624        -1.32199        -1.85438        -1.27214         2.89639        -1.85438    -850.505E-03     48.3320E-03    -15.8753E-03    -32.4567E-03    -17.0712E-03     32.9465E-03    -15.8753E-03     60.7278E-03     72.9510E+06    -3.24272E+06    -44.0282E+06    -8.52169E+06     72.8651E+06    -38.6634E+06    -1.76505E+06         48.4877
             430     13.7791E-03     46.3725E-03         3.44040        -1.73651        -1.92276        -1.68265         3.34341        -1.87963        -1.40974     34.2579E-03    -15.7185E-03    -18.5395E-03    -15.1342E-03     30.8526E-03    -15.7185E-03     25.7299E-03     32.1525E+06    -7.66311E+06    -64.1378E+06    -7.53048E+06     32.0198E+06    -64.1378E+06    -1.16361E+06         37.7625
             431     12.7947E-03     46.3476E-03         3.76851        -1.88161        -2.09710        -1.99529         3.66670        -1.88161        -1.53074     33.2993E-03    -15.8517E-03    -17.4476E-03    -15.6597E-03     31.5114E-03    -15.8517E-03     17.9676E-03     5.30312E+06    -23.3114E+06    -50.6907E+06    -6.22331E+06    -14.8309E+06    -47.6447E+06     275.506E+03         30.6298
             432     11.8096E-03     46.3345E-03         3.96567        -1.86207        -2.30625        -2.21374         3.87316        -1.86207        -1.50984     32.5777E-03    -15.9932E-03    -16.5845E-03    -15.9347E-03     31.9279E-03    -15.9932E-03     11.1208E-03    -2.59229E+06    -31.6063E+06    -65.0509E+06    -2.66658E+06    -64.9766E+06    -31.6063E+06     1.81399E+06         26.6508
             433     10.8257E-03     46.3245E-03         4.07052        -1.82228        -2.44155        -2.36562         3.99459        -1.82228        -1.39246     32.8012E-03    -16.0958E-03    -16.7054E-03    -16.1781E-03     32.2739E-03    -16.0958E-03     10.1499E-03     366.373E+03    -18.9905E+06    -97.2849E+06     312.151E+03    -97.2306E+06    -18.9905E+06     658.821E+03         24.6826
             434     9.84150E-03     46.3135E-03         4.06808        -1.76261        -2.48644        -2.45295         4.03459        -1.76261    -554.910E-03     32.9209E-03    -16.1790E-03    -16.7420E-03    -16.2468E-03     32.4258E-03    -16.1790E-03     9.82958E-03     1.83198E+06    -8.15355E+06    -120.404E+06     1.79994E+06    -120.372E+06    -8.15355E+06     57.5542E+03         23.7549
             435     8.85744E-03     46.3041E-03         4.01671        -1.68451        -2.50041        -2.46051         3.97681        -1.68451     803.465E-03     32.9146E-03    -16.2254E-03    -16.6892E-03    -16.2762E-03     32.5016E-03    -16.2254E-03     9.00581E-03     3.47500E+06    -4.06004E+06    -140.705E+06     3.45140E+06    -140.682E+06    -4.06004E+06     90.5833E+03         23.2951
             436     7.87308E-03     46.2949E-03         4.00123        -1.59216        -2.56543        -2.37252         3.80832        -1.59216         2.10040     32.9775E-03    -16.2618E-03    -16.7157E-03    -16.3401E-03     32.6019E-03    -16.2618E-03     8.59498E-03     4.68283E+06    -2.01092E+06    -160.896E+06     4.67561E+06    -160.889E+06    -2.01092E+06    -743.835E+03         23.0324
             437     6.88901E-03     46.2863E-03         3.78350        -1.49287        -2.43947        -2.19427         3.53830        -1.49287         2.40831     33.0463E-03    -16.2844E-03    -16.7619E-03    -16.4357E-03     32.7201E-03    -16.2844E-03     8.02789E-03     4.65494E+06     970.407E+03    -172.797E+06     4.65290E+06    -172.795E+06     970.407E+03    -509.101E+03         22.8562
             438     5.90507E-03     46.2788E-03         3.53319        -1.39527        -2.27766        -1.96043         3.21596        -1.39527         2.56780     33.0393E-03    -16.2776E-03    -16.7617E-03    -16.4840E-03     32.7616E-03    -16.2776E-03     7.40285E-03     5.09693E+06     1.83679E+06    -181.714E+06     5.09617E+06    -181.714E+06     1.83679E+06    -260.239E+03         22.7247
             439     4.92122E-03     46.2716E-03         3.18085        -1.30276        -2.00511        -1.75266         2.92840        -1.30276         2.04216     32.8605E-03    -16.2807E-03    -16.5798E-03    -16.3687E-03     32.6494E-03    -16.2807E-03     6.42002E-03     5.22233E+06     3.62083E+06    -192.138E+06     5.08037E+06    -192.136E+06     3.76097E+06    -499.892E+03         22.6224
             440     3.93658E-03     46.2661E-03         2.98559        -1.21394        -1.88734        -1.56097         2.65921        -1.21394         2.14373     32.6837E-03    -16.2920E-03    -16.3917E-03    -16.2472E-03     32.5392E-03    -16.2920E-03     5.29228E-03     5.16287E+06     4.05716E+06    -196.995E+06     4.40745E+06    -196.986E+06     4.80382E+06    -1.20869E+06         22.5428
             441     2.95244E-03     46.2610E-03         3.02486        -1.13217        -1.99272        -1.35967         2.39181        -1.13217    -19.6601E-03     32.6854E-03    -16.2770E-03    -16.4083E-03    -16.2867E-03     32.5948E-03    -16.3080E-03     4.16205E-03     6.34659E+06     3.56462E+06    -198.638E+06     3.77769E+06    -198.627E+06     6.12228E+06    -1.28119E+06         22.4830
             442     1.96887E-03     46.2580E-03         2.98512        -1.06579        -2.01659        -1.17789         2.14642        -1.06579     367.070E-03     32.6414E-03    -16.2527E-03    -16.3887E-03    -16.2916E-03     32.5970E-03    -16.3054E-03     2.85308E-03     6.80667E+06     3.04515E+06    -196.857E+06     3.03944E+06    -196.852E+06     6.80667E+06    -330.805E+03         22.4413
             443     983.660E-06     46.2545E-03         5.50875    -702.540E-03        -4.90743        -1.37201         1.97333    -702.540E-03        -5.59835     32.5665E-03    -16.0619E-03    -16.5045E-03    -16.3099E-03     32.5542E-03    -16.2443E-03     1.25403E-03     5.73658E+06    -1.57529E+06    -197.085E+06     1.17360E+06    -197.052E+06     2.95446E+06    -1.63475E+06         22.4161
             444     16.7368E-03     45.9127E-03         1.79917    -328.592E-03        -1.71518    -321.335E-03         1.79191        -1.71518     238.860E-03     312.146E-03    -16.7033E-03    -295.443E-03    -75.1606E-03     91.8639E-03    -16.7033E-03     583.988E-03     163.448E+06     110.253E+06    -6.08210E+06    -5.98621E+06     163.353E+06     110.253E+06     973.350E+03         72.3970
             445     15.7558E-03     45.4693E-03         2.35362    -803.961E-03        -1.76863    -794.328E-03         2.34399        -1.76863    -108.297E-03     136.610E-03    -16.1039E-03    -120.506E-03    -28.4956E-03     44.5995E-03    -16.1039E-03     245.618E-03     120.924E+06     30.9387E+06    -11.3452E+06    -8.00477E+06     120.863E+06     27.6594E+06    -2.38559E+06         61.2682
             446     14.7670E-03     45.3746E-03         2.90062        -1.29072        -1.80906        -1.23452         2.84442        -1.80906    -898.359E-03     47.8427E-03    -15.6983E-03    -32.1443E-03    -14.3282E-03     30.0265E-03    -15.6983E-03     63.6177E-03     68.9837E+06    -8.31663E+06    -46.9890E+06    -8.40607E+06     68.9154E+06    -46.8312E+06    -742.077E+03         48.5282
             447     13.7804E-03     45.3406E-03         3.38630        -1.69092        -1.87801        -1.62671         3.27671        -1.83263        -1.47916     34.4709E-03    -15.6867E-03    -18.7841E-03    -14.5431E-03     30.2298E-03    -15.6867E-03     28.6380E-03     31.4936E+06    -6.80514E+06    -64.9224E+06    -6.56361E+06     31.2521E+06    -64.9224E+06     2.00357E+06         37.8299
             448     12.7943E-03     45.3162E-03         3.73430        -1.83382        -2.07065        -1.95477         3.61841        -1.83382        -1.61951     33.3657E-03    -15.8584E-03    -17.5073E-03    -15.3400E-03     31.1985E-03    -15.8584E-03     19.6487E-03     6.77104E+06    -23.8059E+06    -49.4466E+06    -4.19726E+06    -14.9175E+06    -47.3667E+06     1.31765E+06         30.6943
             449     11.8099E-03     45.3022E-03         3.95586        -1.81218        -2.30408        -2.19655         3.84834        -1.81218        -1.62406     32.7213E-03    -15.9989E-03    -16.7224E-03    -15.9500E-03     31.9490E-03    -15.9989E-03     12.1331E-03    -1.81399E+06    -33.9338E+06    -65.8396E+06    -1.82469E+06    -65.1501E+06    -34.6125E+06     246.474E+03         26.6937
             450     10.8253E-03     45.2922E-03         4.06027        -1.76922        -2.43899        -2.34691         3.96819        -1.76922        -1.52987     32.8444E-03    -16.1126E-03    -16.7318E-03    -16.1195E-03     32.2322E-03    -16.1126E-03     10.9282E-03     1.34860E+06    -20.4777E+06    -96.2904E+06     1.34626E+06    -96.2881E+06    -20.4777E+06     363.088E+03         24.7050
             451     9.84118E-03     45.2810E-03         4.02313        -1.70722        -2.44928        -2.40917         3.98302        -1.70722    -712.579E-03     33.0109E-03    -16.1896E-03    -16.8213E-03    -16.2412E-03     32.4309E-03    -16.1896E-03     10.6581E-03     3.84922E+06    -11.9844E+06    -119.752E+06     3.83892E+06    -119.742E+06    -11.9844E+06    -561.342E+03         23.7649
             452     8.85688E-03     45.2719E-03         3.92072        -1.63007        -2.40795        -2.37671         3.88948        -1.63007     628.240E-03     33.0633E-03    -16.2489E-03    -16.8144E-03    -16.3369E-03     32.5858E-03    -16.2489E-03     9.70528E-03     5.57772E+06    -6.14120E+06    -140.805E+06     5.56516E+06    -140.792E+06    -6.14120E+06    -276.432E+03         23.2997
             453     7.87294E-03     45.2625E-03         3.87161        -1.54301        -2.43184        -2.26503         3.70480        -1.54301         1.90359     33.0938E-03    -16.3014E-03    -16.7923E-03    -16.3744E-03     32.6758E-03    -16.3014E-03     9.08350E-03     5.81733E+06    -1.33198E+06    -160.856E+06     5.80902E+06    -160.848E+06    -1.33198E+06     622.710E+03         23.0355
             454     6.88871E-03     45.2543E-03         3.69537        -1.44961        -2.33884        -2.12068         3.47720        -1.44961         2.24050     33.0793E-03    -16.3322E-03    -16.7471E-03    -16.3901E-03     32.7222E-03    -16.3322E-03     8.39861E-03     5.04271E+06     1.63208E+06    -172.668E+06     5.03783E+06    -172.663E+06     1.63208E+06     8.97445E+03         22.8594
             455     5.90457E-03     45.2461E-03         3.49957        -1.35158        -2.23191        -1.94988         3.21755        -1.35158         2.41559     33.0560E-03    -16.3441E-03    -16.7119E-03    -16.4183E-03     32.7624E-03    -16.3441E-03     7.60539E-03     5.05762E+06     2.50803E+06    -181.982E+06     5.05639E+06    -181.981E+06     2.50803E+06    -334.378E+03         22.7286
             456     4.92048E-03     45.2396E-03         3.15909        -1.25173        -1.97830        -1.74985         2.93063        -1.25173         1.96643     32.9787E-03    -16.3631E-03    -16.6156E-03    -16.3949E-03     32.7580E-03    -16.3631E-03     6.57927E-03     6.03551E+06     4.15572E+06    -191.742E+06     5.44985E+06    -191.740E+06     4.73961E+06    -378.051E+03         22.6271
             457     3.93672E-03     45.2339E-03         2.92989        -1.15514        -1.83176        -1.52813         2.62626        -1.15514         2.06844     32.9153E-03    -16.3775E-03    -16.5378E-03    -16.3818E-03     32.7593E-03    -16.3775E-03     5.51490E-03     6.77497E+06     4.64751E+06    -196.607E+06     4.64299E+06    -196.603E+06     6.77497E+06    -277.987E+03         22.5481
             458     2.95238E-03     45.2292E-03         2.90545        -1.06711        -1.88057        -1.31501         2.33989        -1.06711     32.3109E-03     32.8840E-03    -16.3659E-03    -16.5182E-03    -16.4196E-03     32.7855E-03    -16.3659E-03     4.36117E-03     6.36749E+06     2.60175E+06    -198.789E+06     2.59375E+06    -198.781E+06     6.36749E+06    -703.254E+03         22.4886
             459     1.96806E-03     45.2251E-03         2.78623        -1.00502        -1.82124        -1.08801         2.05299        -1.00502     289.572E-03     32.7535E-03    -16.3253E-03    -16.4282E-03    -16.3789E-03     32.7042E-03    -16.3253E-03     3.02896E-03     5.28697E+06     468.302E+03    -198.273E+06     452.285E+03    -198.257E+06     5.28697E+06    -1.06358E+06         22.4472
             460     984.935E-06     45.2236E-03         4.93392    -167.546E-03        -4.80874        -1.80093         1.92610    -167.546E-03        -5.24122     32.5634E-03    -16.1413E-03    -16.4221E-03    -16.2465E-03     32.5484E-03    -16.3019E-03     1.45840E-03     3.36776E+06    -3.70657E+06    -198.513E+06    -965.545E+03    -198.471E+06     585.648E+03    -876.430E+03         22.4225
             461     16.7369E-03     44.8568E-03         1.74882    -312.469E-03        -1.65765    -306.213E-03         1.74256        -1.65765     217.248E-03     313.152E-03    -16.4794E-03    -296.673E-03    -76.6418E-03     93.1212E-03    -16.4794E-03     584.907E-03     162.970E+06     110.243E+06    -5.42012E+06    -5.38376E+06     162.933E+06     110.243E+06    -1.55574E+06         72.2403
             462     15.7566E-03     44.4501E-03         2.26167    -759.094E-03        -1.69124    -747.057E-03         2.24963        -1.69124    -157.739E-03     136.204E-03    -16.0037E-03    -120.200E-03    -23.7871E-03     39.7908E-03    -16.0037E-03     247.668E-03     118.308E+06     23.6421E+06    -10.8462E+06    -9.69736E+06     118.067E+06     22.7343E+06     75.2802E+03         61.2457
             463     14.7635E-03     44.3407E-03         2.77855        -1.21500        -1.72471        -1.14415         2.70770        -1.72471    -989.150E-03     50.2730E-03    -15.7911E-03    -34.4819E-03    -13.9377E-03     29.7288E-03    -15.7911E-03     69.2820E-03     66.3941E+06    -15.1024E+06    -49.4647E+06    -15.0344E+06     66.1683E+06    -49.3069E+06     1.84367E+06         48.5732
             464     13.7785E-03     44.3118E-03         3.23598        -1.60317        -1.77359        -1.49233         3.09986        -1.74831        -1.60007     35.4308E-03    -15.7751E-03    -19.6557E-03    -14.9692E-03     30.7444E-03    -15.7751E-03     30.6450E-03     31.3052E+06    -12.1633E+06    -69.5828E+06    -11.8141E+06     30.9560E+06    -69.5828E+06     742.444E+03         37.9123
             465     12.7927E-03     44.2830E-03         3.57528        -1.75302        -1.94809        -1.80400         3.43118        -1.75302        -1.75319     34.0734E-03    -15.9224E-03    -18.1510E-03    -15.6759E-03     31.5983E-03    -15.9224E-03     21.0761E-03     7.89804E+06    -25.8417E+06    -50.8514E+06    -4.63509E+06    -13.3085E+06    -50.8514E+06     329.905E+03         30.7725
             466     11.8086E-03     44.2704E-03         3.81722        -1.73589        -2.19444        -2.06349         3.68628        -1.73589        -1.74869     32.9109E-03    -16.0607E-03    -16.8502E-03    -16.0341E-03     32.0948E-03    -16.0607E-03     12.5762E-03     265.000E+03    -35.4827E+06    -65.4705E+06     235.376E+03    -64.5539E+06    -36.3696E+06    -375.551E+03         26.7459
             467     10.8243E-03     44.2596E-03         3.93169        -1.69739        -2.33312        -2.22319         3.82175        -1.69739        -1.63865     33.0023E-03    -16.1864E-03    -16.8159E-03    -16.1547E-03     32.3411E-03    -16.1864E-03     11.4002E-03     3.24246E+06    -20.8022E+06    -96.8385E+06     3.22617E+06    -96.8223E+06    -20.8022E+06    -500.400E+03         24.7332
             468     9.83992E-03     44.2490E-03         3.87083        -1.64168        -2.31064        -2.26235         3.82255        -1.64168    -829.888E-03     33.1539E-03    -16.2744E-03    -16.8795E-03    -16.2874E-03     32.5618E-03    -16.2744E-03     10.7974E-03     4.72113E+06    -11.0312E+06    -119.255E+06     4.69956E+06    -119.234E+06    -11.0312E+06     252.074E+03         23.7789
             469     8.85603E-03     44.2390E-03         3.75815        -1.57417        -2.24687        -2.21999         3.73127        -1.57417     500.696E-03     33.2137E-03    -16.3373E-03    -16.8764E-03    -16.3843E-03     32.7216E-03    -16.3373E-03     9.87492E-03     3.94379E+06    -6.29775E+06    -141.624E+06     3.91862E+06    -141.599E+06    -6.29775E+06     656.170E+03         23.3075
             470     7.87202E-03     44.2304E-03         3.71948        -1.49880        -2.26721        -2.12374         3.57601        -1.49880         1.72159     33.2916E-03    -16.3943E-03    -16.8973E-03    -16.4627E-03     32.8569E-03    -16.3943E-03     9.29523E-03     4.26857E+06    -750.245E+03    -160.331E+06     3.99929E+06    -160.324E+06    -487.925E+03     808.751E+03         23.0414
             471     6.88813E-03     44.2216E-03         3.57844        -1.41732        -2.19649        -2.00692         3.38887        -1.41732         2.04679     33.2567E-03    -16.4223E-03    -16.8344E-03    -16.4587E-03     32.8810E-03    -16.4223E-03     8.63690E-03     5.68126E+06     2.43677E+06    -171.484E+06     5.41518E+06    -171.480E+06     2.69909E+06     237.319E+03         22.8654
             472     5.90417E-03     44.2140E-03         3.41777        -1.32981        -2.11318        -1.87233         3.17691        -1.32981         2.20481     33.1415E-03    -16.4497E-03    -16.6918E-03    -16.3924E-03     32.8422E-03    -16.4497E-03     7.67703E-03     6.06993E+06     3.39201E+06    -182.541E+06     5.62820E+06    -182.535E+06     3.82723E+06     132.068E+03         22.7355
             473     4.91994E-03     44.2072E-03         3.11403        -1.23965        -1.88611        -1.68855         2.91647        -1.23965         1.82882     33.1176E-03    -16.4862E-03    -16.6314E-03    -16.4048E-03     32.8910E-03    -16.4862E-03     6.68818E-03     5.39102E+06     3.91900E+06    -191.784E+06     4.25280E+06    -191.777E+06     5.05016E+06     551.808E+03         22.6350
             474     3.93570E-03     44.2015E-03         2.87393        -1.15899        -1.71248        -1.44582         2.60726        -1.15899         1.92305     33.2126E-03    -16.4935E-03    -16.7190E-03    -16.5521E-03     33.0456E-03    -16.4935E-03     5.73256E-03     4.97292E+06     3.21657E+06    -196.427E+06     3.21094E+06    -196.421E+06     4.97292E+06     86.8517E+03         22.5568
             475     2.95217E-03     44.1966E-03         2.83720        -1.09734        -1.71875        -1.25333         2.37177        -1.09734     72.5896E-03     33.1258E-03    -16.4730E-03    -16.6528E-03    -16.5499E-03     33.0230E-03    -16.4730E-03     4.46916E-03     4.90583E+06     2.89750E+06    -198.783E+06     2.89106E+06    -198.776E+06     4.90583E+06    -97.8269E+03         22.4978
             476     1.96837E-03     44.1932E-03         2.71708        -1.06379        -1.63168        -1.09515         2.18055        -1.06379     142.258E-03     32.9250E-03    -16.4238E-03    -16.5012E-03    -16.4095E-03     32.8754E-03    -16.4659E-03     3.03810E-03     5.19497E+06     1.51007E+06    -198.082E+06     1.49733E+06    -198.070E+06     5.19497E+06    -459.194E+03         22.4565
             477     983.310E-06     44.1910E-03         4.39668     287.749E-03        -4.66246        -2.40023         2.13446     287.749E-03        -4.71806     32.9062E-03    -16.3699E-03    -16.5363E-03    -16.4767E-03     32.8887E-03    -16.4119E-03     1.78731E-03     1.19965E+06    -4.08447E+06    -200.133E+06    -3.25220E+06    -200.113E+06     348.238E+03    -28.5149E+03         22.4320
             478     16.7503E-03     43.8382E-03         1.66462    -293.166E-03        -1.56295    -287.172E-03         1.65863        -1.56295     204.080E-03     310.487E-03    -16.5479E-03    -293.939E-03    -71.5851E-03     88.1330E-03    -16.5479E-03     581.843E-03     159.786E+06     107.501E+06    -9.16741E+06    -9.05349E+06     159.672E+06     107.501E+06    -1.42336E+06         72.1491
             479     15.7458E-03     43.4188E-03         2.11857    -690.619E-03        -1.57688    -675.796E-03         2.10375        -1.57688    -197.417E-03     139.550E-03    -16.2457E-03    -123.305E-03    -23.2376E-03     39.4833E-03    -16.2457E-03     253.730E-03     113.771E+06     22.1933E+06    -16.8996E+06    -15.7306E+06     113.510E+06     21.2855E+06     1.94771E+06         61.2397
             480     14.7624E-03     43.3119E-03         2.58360        -1.09532        -1.60356        -1.00901         2.49728        -1.60356        -1.05129     52.1963E-03    -16.0416E-03    -36.1548E-03    -16.0838E-03     32.1253E-03    -16.0416E-03     71.1383E-03     68.7558E+06    -11.7639E+06    -48.3483E+06    -14.7825E+06     68.5711E+06    -45.1449E+06     1.94727E+06         48.6369
             481     13.7751E-03     43.2782E-03         3.00853        -1.46621        -1.63529        -1.31015         2.84520        -1.62803        -1.67593     36.4218E-03    -15.9230E-03    -20.4988E-03    -15.7602E-03     31.6833E-03    -15.9230E-03     31.2636E-03     33.1134E+06    -10.0355E+06    -68.5856E+06    -9.83108E+06     32.9090E+06    -68.5856E+06    -1.40309E+06         38.0197
             482     12.7924E-03     43.2509E-03         3.31309        -1.62916        -1.75982        -1.57607         3.13864        -1.63847        -1.84130     34.5955E-03    -16.0212E-03    -18.5743E-03    -16.1931E-03     32.2143E-03    -16.0212E-03     21.0255E-03     5.83003E+06    -25.4238E+06    -53.5420E+06    -5.76071E+06    -13.8331E+06    -53.5420E+06    -1.98323E+06         30.8658
             483     11.8074E-03     43.2377E-03         3.52647        -1.63214        -1.95568        -1.79371         3.36450        -1.63214        -1.84831     33.1037E-03    -16.1519E-03    -16.9518E-03    -16.1360E-03     32.2879E-03    -16.1519E-03     12.5931E-03    -1.32034E+06    -35.1017E+06    -66.1483E+06    -1.41791E+06    -64.0095E+06    -37.1430E+06    -550.096E+03         26.8067
             484     10.8233E-03     43.2272E-03         3.64871        -1.60871        -2.08518        -1.94991         3.51343        -1.60871        -1.72686     33.2160E-03    -16.2771E-03    -16.9389E-03    -16.2837E-03     32.5609E-03    -16.2771E-03     11.3854E-03     200.537E+03    -21.6657E+06    -97.1621E+06     172.359E+03    -97.1339E+06    -21.6657E+06    -256.293E+03         24.7667
             485     9.83954E-03     43.2161E-03         3.62596        -1.56961        -2.08245        -2.02348         3.56699        -1.56961    -925.524E-03     33.3036E-03    -16.3710E-03    -16.9326E-03    -16.3427E-03     32.7137E-03    -16.3710E-03     10.7966E-03     1.29198E+06    -10.7965E+06    -120.382E+06     1.27499E+06    -120.365E+06    -10.7965E+06     411.875E+03         23.7965
             486     8.85526E-03     43.2069E-03         3.55905        -1.51834        -2.04602        -2.02104         3.53406        -1.51834     394.140E-03     33.3328E-03    -16.4386E-03    -16.8942E-03    -16.4023E-03     32.8410E-03    -16.4386E-03     9.88884E-03     4.19551E+06    -4.61989E+06    -141.434E+06     4.16842E+06    -141.407E+06    -4.61989E+06     1.25867E+06         23.3179
             487     7.87120E-03     43.1974E-03         3.56914        -1.45774        -2.09914        -1.97348         3.44349        -1.45774         1.57443     33.4214E-03    -16.4921E-03    -16.9294E-03    -16.4940E-03     32.9861E-03    -16.4921E-03     9.31387E-03     4.92259E+06    -1.12145E+06    -159.629E+06     4.64899E+06    -159.617E+06    -859.131E+03     712.210E+03         23.0496
             488     6.88734E-03     43.1892E-03         3.46925        -1.38980        -2.05566        -1.88579         3.29937        -1.38980         1.90039     33.4008E-03    -16.5294E-03    -16.8713E-03    -16.5003E-03     33.0297E-03    -16.5294E-03     8.59968E-03     4.56926E+06     977.336E+03    -171.190E+06     3.90631E+06    -171.184E+06     1.63458E+06     486.622E+03         22.8735
             489     5.90323E-03     43.1813E-03         3.29857        -1.31941        -1.94405        -1.73738         3.09189        -1.31941         2.00327     33.3340E-03    -16.5644E-03    -16.7696E-03    -16.4709E-03     33.0352E-03    -16.5644E-03     7.69101E-03     4.69104E+06     1.66577E+06    -183.090E+06     3.84875E+06    -183.078E+06     2.49591E+06     725.753E+03         22.7442
             490     4.91928E-03     43.1750E-03         3.04113        -1.25258        -1.73918        -1.57279         2.87474        -1.25258         1.65390     33.3556E-03    -16.6006E-03    -16.7550E-03    -16.5271E-03     33.1277E-03    -16.6006E-03     6.73131E-03     5.13764E+06     3.21032E+06    -191.624E+06     4.43973E+06    -191.614E+06     3.89772E+06     868.217E+03         22.6445
             491     3.93547E-03     43.1686E-03         2.83773        -1.19794        -1.57547        -1.38018         2.64244        -1.19794         1.65107     33.3817E-03    -16.6080E-03    -16.7736E-03    -16.6030E-03     33.2164E-03    -16.6135E-03     5.71015E-03     4.39581E+06     2.69937E+06    -195.818E+06     4.00408E+06    -195.802E+06     3.07492E+06     863.201E+03         22.5672
             492     2.95155E-03     43.1640E-03         2.82198        -1.16443        -1.57218        -1.23025         2.48005        -1.16443    -15.5050E-03     33.3396E-03    -16.6127E-03    -16.7269E-03    -16.6234E-03     33.2416E-03    -16.6182E-03     4.36559E-03     3.37033E+06     2.07151E+06    -198.657E+06     2.83951E+06    -198.644E+06     2.58904E+06     490.616E+03         22.5089
             493     1.96742E-03     43.1608E-03         2.70473        -1.15619        -1.46275        -1.14617         2.38815        -1.15619    -187.273E-03     33.2912E-03    -16.5753E-03    -16.7159E-03    -16.6259E-03     33.2432E-03    -16.6174E-03     3.01481E-03     3.81365E+06     1.00580E+06    -198.563E+06      998.82E+03    -198.556E+06     3.81365E+06     927.053E+03         22.4681
             494     984.381E-06     43.1585E-03         3.88452     772.513E-03        -4.56852        -3.09005         2.40605     772.513E-03        -4.21014     33.1970E-03    -16.5054E-03    -16.6916E-03    -16.5804E-03     33.1801E-03    -16.5997E-03     1.53962E-03     1.64963E+06    -2.46983E+06    -199.726E+06    -772.273E+03    -199.718E+06    -56.1340E+03     891.306E+03         22.4437
             495     16.7259E-03     42.8161E-03         1.53366    -250.705E-03        -1.43377    -244.754E-03         1.52771        -1.43377     195.700E-03     308.714E-03    -16.9553E-03    -291.758E-03    -67.0984E-03     84.0537E-03    -16.9553E-03     580.706E-03     159.584E+06     107.417E+06    -10.3433E+06    -10.2454E+06     159.486E+06     107.417E+06     594.879E+03         72.0775
             496     15.7414E-03     42.3809E-03         1.90713    -574.547E-03        -1.42953    -555.933E-03         1.88851        -1.42953    -217.755E-03     141.357E-03    -16.6368E-03    -124.720E-03    -27.7494E-03     44.3862E-03    -16.6368E-03     254.143E-03     114.052E+06     27.8635E+06    -18.4303E+06    -15.3568E+06     113.995E+06     24.8472E+06     210.508E+03         61.2380
             497     14.7574E-03     42.2800E-03         2.31827    -930.049E-03        -1.45106    -829.209E-03         2.21743        -1.45106        -1.07070     51.8440E-03    -16.2326E-03    -35.6114E-03    -17.7446E-03     33.9772E-03    -16.2326E-03     68.1572E-03     71.0756E+06    -7.23578E+06    -47.3612E+06    -10.3952E+06     71.0317E+06    -44.1578E+06    -1.36484E+06         48.7343
             498     13.7752E-03     42.2443E-03         2.71279        -1.27334        -1.47791        -1.08099         2.52044        -1.47791        -1.70215     37.0687E-03    -16.0387E-03    -21.0300E-03    -16.4126E-03     32.4513E-03    -16.0387E-03     31.1600E-03     34.6049E+06    -6.60255E+06    -68.7981E+06    -6.42439E+06     34.4267E+06    -68.7981E+06    -668.853E+03         38.1474
             499     12.7899E-03     42.2182E-03         2.97852        -1.45911        -1.53949        -1.29183         2.76773        -1.49598        -1.88778     34.6409E-03    -16.1131E-03    -18.5278E-03    -16.3356E-03     32.4487E-03    -16.1131E-03     20.4131E-03     5.53145E+06    -25.5374E+06    -56.0266E+06    -4.93543E+06    -15.0706E+06    -56.0266E+06    -737.002E+03         30.9697
             500     11.8065E-03     42.2049E-03         3.15299        -1.50367        -1.65449        -1.45166         2.95016        -1.50367        -1.92280     33.3947E-03    -16.2405E-03    -17.1542E-03    -16.3158E-03     32.5563E-03    -16.2405E-03     12.8109E-03    -3.66633E+06    -37.9730E+06    -67.5939E+06    -3.73878E+06    -65.3221E+06    -40.1723E+06    -175.147E+03         26.8732
             501     10.8225E-03     42.1945E-03         3.26955        -1.50069        -1.75626        -1.58214         3.09543        -1.50069        -1.82127     33.3999E-03    -16.3687E-03    -17.0312E-03    -16.3700E-03     32.7387E-03    -16.3687E-03     11.4695E-03    -1.65184E+06    -22.7078E+06    -96.6058E+06    -1.67118E+06    -96.5865E+06    -22.7078E+06     765.189E+03         24.8039
             502     9.83815E-03     42.1835E-03         3.29485        -1.48520        -1.77692        -1.69915         3.21709        -1.48520        -1.04267     33.4404E-03    -16.4603E-03    -16.9801E-03    -16.3676E-03     32.8279E-03    -16.4603E-03     11.0253E-03    -460.161E+03    -13.0790E+06    -120.573E+06    -473.382E+03    -120.560E+06    -13.0790E+06    -267.114E+03         23.8168
             503     8.85441E-03     42.1740E-03         3.30435        -1.45639        -1.79377        -1.76815         3.27874        -1.45639     277.278E-03     33.5274E-03    -16.5212E-03    -17.0062E-03    -16.4939E-03     33.0151E-03    -16.5212E-03     10.1211E-03     1.40513E+06    -9.34377E+06    -142.138E+06     1.37709E+06    -142.110E+06    -9.34377E+06    -532.923E+03         23.3304
             504     7.87049E-03     42.1648E-03         3.36786        -1.41710        -1.87805        -1.76060         3.25040        -1.41710         1.46238     33.5674E-03    -16.5916E-03    -16.9759E-03    -16.5328E-03     33.1243E-03    -16.5916E-03     9.41150E-03     4.72915E+06    -2.19978E+06    -159.594E+06     4.69453E+06    -159.560E+06    -2.19978E+06     704.117E+03         23.0592
             505     6.88648E-03     42.1563E-03         3.32933        -1.37166        -1.87233        -1.70397         3.16097        -1.37166         1.83670     33.5688E-03    -16.6486E-03    -16.9202E-03    -16.5529E-03     33.2015E-03    -16.6486E-03     8.57279E-03     5.74269E+06     2.09861E+06    -171.655E+06     5.33005E+06    -171.637E+06     2.49353E+06     1.35078E+06         22.8823
             506     5.90263E-03     42.1489E-03         3.21369        -1.32516        -1.79118        -1.59820         3.02070        -1.32516         1.90807     33.6155E-03    -16.6749E-03    -16.9406E-03    -16.6495E-03     33.3244E-03    -16.6749E-03     7.62740E-03     5.31069E+06     1.45039E+06    -182.514E+06     4.89924E+06    -182.497E+06     1.84531E+06     1.06869E+06         22.7532
             507     4.91880E-03     42.1419E-03         3.03210        -1.28249        -1.63664        -1.48328         2.87874        -1.28249         1.59578     33.6090E-03    -16.6918E-03    -16.9172E-03    -16.6955E-03     33.3873E-03    -16.6918E-03     6.66857E-03     4.55934E+06     1.10151E+06    -191.731E+06     4.53899E+06    -191.711E+06     1.10151E+06     1.39656E+06         22.6540
             508     3.93501E-03     42.1360E-03         2.88349        -1.24698        -1.50592        -1.37248         2.75004        -1.24698         1.44201     33.5271E-03    -16.7096E-03    -16.8175E-03    -16.6531E-03     33.3681E-03    -16.7150E-03     5.60651E-03     4.40019E+06     1.69315E+06    -196.000E+06     4.16306E+06    -195.979E+06     1.90967E+06     1.95568E+06         22.5773
             509     2.95100E-03     42.1311E-03         2.88505        -1.21799        -1.51625        -1.29923         2.66803        -1.21799    -65.6937E-03     33.5447E-03    -16.7421E-03    -16.8027E-03    -16.7059E-03     33.4535E-03    -16.7475E-03     4.22007E-03     5.55237E+06     3.08029E+06    -197.191E+06     3.84088E+06    -197.170E+06     4.77108E+06     1.68455E+06         22.5196
             510     1.96762E-03     42.1277E-03         2.71091        -1.18056        -1.38131        -1.20287         2.55707        -1.20516    -525.141E-03     33.6010E-03    -16.7315E-03    -16.8696E-03    -16.8273E-03     33.5588E-03    -16.7315E-03     2.82255E-03     6.39252E+06     1.92961E+06    -197.665E+06     1.91406E+06    -197.650E+06     6.39252E+06     1.05571E+06         22.4793
             511     983.568E-06     42.1254E-03         3.54369         1.20366        -4.59663        -3.72461         2.56267         1.31265        -3.64211     33.3625E-03    -16.5484E-03    -16.8141E-03    -16.7492E-03     33.3499E-03    -16.6007E-03     1.26804E-03     4.15999E+06    -877.908E+03    -198.915E+06    -42.4806E+03    -198.896E+06     3.30564E+06     1.42015E+06         22.4551
             512     16.7166E-03     41.7696E-03         1.36179    -186.673E-03        -1.27335    -181.090E-03         1.35621        -1.27335     165.280E-03     310.916E-03    -17.3023E-03    -293.614E-03    -69.2709E-03     86.5732E-03    -17.3023E-03     584.055E-03     163.229E+06     110.447E+06    -5.99334E+06    -5.90360E+06     163.139E+06     110.447E+06     2.24146E+06         72.0001
             513     15.7409E-03     41.3444E-03         1.63308    -419.720E-03        -1.25213    -393.278E-03         1.60664        -1.25213    -276.564E-03     135.880E-03    -16.8449E-03    -119.035E-03    -30.3673E-03     47.2122E-03    -16.8449E-03     241.679E-03     118.078E+06     31.1921E+06    -12.5371E+06    -9.45580E+06     118.013E+06     28.1758E+06    -2.05274E+06         61.2550
             514     14.7582E-03     41.2464E-03         2.00155    -732.561E-03        -1.27074    -598.643E-03         1.86763        -1.27074        -1.12299     50.8980E-03    -16.3072E-03    -34.5908E-03    -16.9863E-03     33.2935E-03    -16.3072E-03     66.4175E-03     70.0619E+06    -8.75717E+06    -47.5233E+06    -9.84990E+06     69.8363E+06    -46.2050E+06    -974.352E+03         48.8555
             515     13.7726E-03     41.2102E-03         2.36970        -1.04427        -1.30195    -795.025E-03         2.12046        -1.30195        -1.75934     37.1619E-03    -16.1387E-03    -21.0232E-03    -16.5511E-03     32.6899E-03    -16.1387E-03     30.7601E-03     33.2770E+06    -10.6053E+06    -71.9112E+06    -10.3602E+06     33.0319E+06    -71.9112E+06     1.64279E+06         38.2775
             516     12.7898E-03     41.1857E-03         2.59585        -1.22143        -1.33278    -951.202E-03         2.32299        -1.33014        -1.95067     34.7608E-03    -16.2183E-03    -18.5425E-03    -16.3819E-03     32.6001E-03    -16.2183E-03     20.3541E-03     5.99578E+06    -27.8590E+06    -57.1155E+06    -7.30805E+06    -14.5552E+06    -57.1155E+06     1.37931E+06         31.0736
             517     11.8049E-03     41.1717E-03         2.75685        -1.31356        -1.38593        -1.08313         2.49381        -1.35332        -1.99509     33.6865E-03    -16.3341E-03    -17.3525E-03    -16.5107E-03     32.8448E-03    -16.3341E-03     12.8511E-03    -4.03231E+06    -40.4417E+06    -68.4703E+06    -4.04204E+06    -66.0784E+06    -42.8239E+06     371.962E+03         26.9405
             518     10.8212E-03     41.1616E-03         2.87599        -1.35814        -1.44348        -1.20488         2.64970        -1.37044        -1.90173     33.5895E-03    -16.4585E-03    -17.1309E-03    -16.4959E-03     32.9544E-03    -16.4585E-03     11.2675E-03    -1.16061E+06    -24.8180E+06    -96.9225E+06    -1.16827E+06    -96.9149E+06    -24.8180E+06     553.304E+03         24.8424
             519     9.83736E-03     41.1508E-03         2.89464        -1.33721        -1.46297        -1.31730         2.79153        -1.37978        -1.14050     33.6741E-03    -16.5506E-03    -17.1235E-03    -16.5334E-03     33.0840E-03    -16.5506E-03     10.8534E-03     237.784E+03    -13.8376E+06    -119.616E+06     216.264E+03    -119.595E+06    -13.8376E+06     741.614E+03         23.8382
             520     8.85323E-03     41.1409E-03         2.93911        -1.33004        -1.49265        -1.41298         2.90947        -1.38008     187.919E-03     33.6700E-03    -16.6015E-03    -17.0685E-03    -16.5935E-03     33.1950E-03    -16.6015E-03     9.75559E-03    -708.530E+03    -12.2423E+06    -142.043E+06    -735.416E+03    -142.017E+06    -12.2423E+06    -273.900E+03         23.3436
             521     7.86954E-03     41.1319E-03         3.07323        -1.36088        -1.57803        -1.45011         2.95724        -1.37281         1.36972     33.6571E-03    -16.6589E-03    -16.9983E-03    -16.5869E-03     33.2458E-03    -16.6589E-03     9.07559E-03    -595.755E+03    -8.96181E+06    -160.811E+06    -632.566E+03    -160.774E+06    -8.96181E+06    -446.057E+03         23.0688
             522     6.88562E-03     41.1235E-03         3.13059        -1.36201        -1.62141        -1.44207         2.95125        -1.36201         1.80804     33.7141E-03    -16.7113E-03    -17.0028E-03    -16.6544E-03     33.3657E-03    -16.7113E-03     8.36384E-03     2.32359E+06    -4.19847E+06    -171.740E+06     2.29764E+06    -171.714E+06    -4.19847E+06     420.020E+03         22.8905
             523     5.90193E-03     41.1155E-03         3.13680        -1.34966        -1.62590        -1.42987         2.94077        -1.34966         1.88592     33.7924E-03    -16.7522E-03    -17.0401E-03    -16.7646E-03     33.5169E-03    -16.7522E-03     7.43902E-03     3.90746E+06    -922.733E+03    -182.811E+06     3.88733E+06    -182.791E+06    -922.733E+03     1.73727E+06         22.7610
             524     4.91842E-03     41.1090E-03         3.10292        -1.33331        -1.59213        -1.43285         2.94364        -1.33331         1.66446     33.7896E-03    -16.7851E-03    -17.0046E-03    -16.7948E-03     33.5798E-03    -16.7851E-03     6.50280E-03     4.91344E+06     1.66488E+06    -192.171E+06     4.28872E+06    -192.136E+06     2.25503E+06     2.59968E+06         22.6618
             525     3.93463E-03     41.1029E-03         3.02284        -1.31283        -1.51412        -1.40022         2.90894        -1.31283         1.40753     33.7538E-03    -16.8002E-03    -16.9536E-03    -16.8048E-03     33.6049E-03    -16.8002E-03     5.44404E-03     5.44263E+06     3.33388E+06    -195.177E+06     4.47870E+06    -195.153E+06     4.27300E+06     2.15252E+06         22.5852
             526     2.95109E-03     41.0982E-03         3.00058        -1.28772        -1.49366        -1.37528         2.88220        -1.28772     104.561E-03     33.7368E-03    -16.8037E-03    -16.9331E-03    -16.8455E-03     33.6492E-03    -16.8037E-03     4.16816E-03     6.49338E+06     3.42007E+06    -196.163E+06     3.40126E+06    -196.145E+06     6.49338E+06     1.41794E+06         22.5278
             527     1.96729E-03     41.0942E-03         2.82856        -1.23089        -1.38381        -1.28405         2.76786        -1.26995    -702.365E-03     33.6455E-03    -16.7790E-03    -16.8665E-03    -16.8215E-03     33.6064E-03    -16.7849E-03     2.65449E-03     9.14403E+06     2.61850E+06    -195.793E+06     2.60687E+06    -195.781E+06     9.14403E+06     218.906E+03         22.4877
             528     984.088E-06     41.0928E-03         3.81213         1.20793        -4.80319        -4.38616         2.74930         1.85373        -2.82159     33.4766E-03    -16.5645E-03    -16.9121E-03    -16.6978E-03     33.4679E-03    -16.7700E-03     1.21221E-03     6.83681E+06     747.085E+03    -196.883E+06     1.82371E+06    -196.866E+06     5.74318E+06    -63.1393E+03         22.4638
             529     16.7135E-03     40.6994E-03         1.17113    -120.709E-03        -1.08650    -116.492E-03         1.16692        -1.08650     98.9698E-03     315.623E-03    -17.1726E-03    -298.450E-03    -75.1309E-03     92.3035E-03    -17.1726E-03     590.367E-03     163.772E+06     112.147E+06    -3.94947E+06    -3.79219E+06     163.615E+06     112.147E+06    -1.00648E+06         71.9541
             530     15.7465E-03     40.3184E-03         1.34913    -271.800E-03        -1.04840    -229.643E-03         1.30698        -1.04840    -370.929E-03     128.791E-03    -16.7629E-03    -112.028E-03    -25.2147E-03     41.9776E-03    -16.7629E-03     230.459E-03     118.261E+06     26.9822E+06    -9.60005E+06    -8.13861E+06     118.016E+06     25.7656E+06    -915.207E+03         61.3060
             531     14.7544E-03     40.2108E-03         1.66661    -533.074E-03        -1.06471    -332.215E-03         1.46575        -1.06471        -1.20865     52.4968E-03    -16.3738E-03    -36.1229E-03    -16.0258E-03     32.3996E-03    -16.3738E-03     69.9756E-03     66.1212E+06    -14.2447E+06    -49.8511E+06    -15.2337E+06     65.7919E+06    -48.5328E+06     2.37145E+06         48.9591
             532     13.7724E-03     40.1777E-03         2.00003    -805.238E-03        -1.10186    -447.754E-03         1.64254        -1.10186        -1.84265     37.1002E-03    -16.2575E-03    -20.8427E-03    -16.7311E-03     32.9886E-03    -16.2575E-03     29.6116E-03     33.4005E+06    -13.5492E+06    -69.4801E+06    -13.3074E+06     33.1586E+06    -69.4801E+06     2.93499E+06         38.3908
             533     12.7866E-03     40.1520E-03         2.19924    -946.776E-03        -1.14238    -567.134E-03         1.81960        -1.14238        -2.02073     35.0738E-03    -16.3202E-03    -18.7536E-03    -16.6128E-03     32.9330E-03    -16.3202E-03     19.9672E-03     7.24554E+06    -27.7366E+06    -54.7028E+06    -8.36583E+06    -12.1252E+06    -54.7028E+06     983.169E+03         31.1687
             534     11.8043E-03     40.1382E-03         2.34563        -1.03873        -1.18222    -685.459E-03         1.99235        -1.18222        -2.04636     33.8672E-03    -16.4023E-03    -17.4650E-03    -16.7583E-03     33.1605E-03    -16.4023E-03     11.7800E-03    -4.10009E+06    -40.7163E+06    -70.6609E+06    -4.14223E+06    -66.5119E+06    -44.8231E+06     56.7201E+03         27.0035
             535     10.8202E-03     40.1287E-03         2.45539        -1.09407        -1.21990    -805.971E-03         2.16729        -1.21990        -1.91194     33.7057E-03    -16.5134E-03    -17.1923E-03    -16.6332E-03     33.1466E-03    -16.5134E-03     10.5929E-03    -1.87517E+06    -27.9121E+06    -98.7587E+06    -1.91290E+06    -98.7210E+06    -27.9121E+06     1.34691E+06         24.8785
             536     9.83652E-03     40.1173E-03         2.45224        -1.03744        -1.25441    -910.678E-03         2.32547        -1.25441        -1.14531     33.8586E-03    -16.5991E-03    -17.2595E-03    -16.7368E-03     33.3359E-03    -16.5991E-03     10.2463E-03    -1.21330E+06    -15.4051E+06    -118.686E+06    -1.26049E+06    -118.639E+06    -15.4051E+06     1.99011E+06         23.8581
             537     8.85328E-03     40.1079E-03         2.49969        -1.03165        -1.28679    -992.662E-03         2.46070        -1.28679     178.537E-03     33.7740E-03    -16.6482E-03    -17.1258E-03    -16.7156E-03     33.3639E-03    -16.6482E-03     9.08789E-03    -9.44281E+03    -10.9210E+06    -140.335E+06    -24.7765E+03    -140.319E+06    -10.9210E+06     1.21164E+06         23.3553
             538     7.86919E-03     40.0989E-03         2.71104        -1.16431        -1.34757        -1.06972         2.58677        -1.31790         1.31517     33.7385E-03    -16.6894E-03    -17.0491E-03    -16.6967E-03     33.3861E-03    -16.6894E-03     8.42424E-03     304.903E+03    -9.36664E+06    -160.637E+06     291.116E+03    -160.623E+06    -9.36664E+06    -323.825E+03         23.0767
             539     6.88560E-03     40.0903E-03         2.90682        -1.28624        -1.40840        -1.15237         2.71149        -1.34694         1.77792     33.7277E-03    -16.7338E-03    -16.9939E-03    -16.6894E-03     33.4231E-03    -16.7338E-03     7.82438E-03    -375.561E+03    -6.64340E+06    -173.475E+06    -396.841E+03    -173.453E+06    -6.64340E+06     230.756E+03         22.8967
             540     5.90181E-03     40.0825E-03         3.02644        -1.34479        -1.45581        -1.23154         2.82990        -1.37253         1.82787     33.7552E-03    -16.7845E-03    -16.9707E-03    -16.7247E-03     33.5093E-03    -16.7845E-03     7.03102E-03     195.139E+03    -3.19203E+06    -183.463E+06    -727.557E+03    -183.444E+06    -2.28849E+06     1.75303E+06         22.7664
             541     4.91798E-03     40.0757E-03         3.12716        -1.37718        -1.50700        -1.32684         2.96068        -1.39087         1.71085     33.8400E-03    -16.8251E-03    -17.0149E-03    -16.8272E-03     33.6522E-03    -16.8251E-03     6.14261E-03     3.10796E+06    -229.722E+03    -191.198E+06     186.906E+03    -191.174E+06     2.66745E+06     1.17608E+06         22.6668
             542     3.93454E-03     40.0697E-03         3.14307        -1.38149        -1.49979        -1.36849         3.03212        -1.40184         1.39690     33.8531E-03    -16.8262E-03    -17.0269E-03    -16.8920E-03     33.7182E-03    -16.8262E-03     5.20415E-03     4.90727E+06     2.49912E+06    -194.467E+06      2.4792E+06    -194.447E+06     4.90727E+06     880.115E+03         22.5901
             543     2.95101E-03     40.0647E-03         3.13847        -1.37577        -1.47758        -1.39141         3.08612        -1.40958     361.249E-03     33.7554E-03    -16.8032E-03    -16.9522E-03    -16.8682E-03     33.6715E-03    -16.8032E-03     4.07036E-03     6.04097E+06     3.15334E+06    -195.052E+06     3.98210E+06    -195.040E+06     5.20008E+06     966.500E+03         22.5326
             544     1.96760E-03     40.0614E-03         3.14058        -1.39613        -1.46280        -1.38047         3.08618        -1.42406    -822.372E-03     33.6063E-03    -16.7560E-03    -16.8502E-03    -16.7711E-03     33.5695E-03    -16.7984E-03     2.59880E-03     7.54013E+06     2.82642E+06    -195.099E+06     3.63885E+06    -195.071E+06     6.69924E+06    -879.163E+03         22.4926
             545     983.384E-06     40.0595E-03         4.58646         1.03915        -5.33713        -5.18137         3.15799         2.31186        -1.89902     33.5713E-03    -16.6382E-03    -16.9331E-03    -16.6825E-03     33.5627E-03    -16.8802E-03     1.14142E-03     4.50183E+06     1.10837E+06    -197.115E+06     2.16780E+06    -197.081E+06     3.40821E+06    -1.12601E+06         22.4688
             546     16.7453E-03     39.6648E-03     988.979E-03    -67.5070E-03    -880.785E-03    -65.3508E-03     986.823E-03    -880.785E-03     58.9957E-03     317.660E-03    -16.7578E-03    -300.902E-03    -74.9978E-03     91.7556E-03    -16.7578E-03     593.432E-03     160.058E+06     107.332E+06    -7.00506E+06    -6.88966E+06     159.943E+06     107.332E+06    -1.56706E+06         71.9515
             547     15.7399E-03     39.2975E-03         1.08750    -147.577E-03    -828.020E-03    -85.5404E-03         1.02546    -828.020E-03    -391.296E-03     131.026E-03    -16.6339E-03    -114.392E-03    -18.7967E-03     35.4306E-03    -16.6339E-03     237.067E-03     113.713E+06     24.6312E+06    -16.3188E+06    -14.8344E+06     113.446E+06     23.4146E+06     2.57486E+06         61.3552
             548     14.7544E-03     39.1723E-03         1.35552    -367.099E-03    -840.632E-03    -77.2934E-03         1.06572    -840.632E-03        -1.23216     54.0113E-03    -16.4459E-03    -37.5654E-03    -17.5654E-03     34.0114E-03    -16.4459E-03     70.8556E-03     66.4043E+06    -12.1072E+06    -51.8552E+06    -18.3163E+06     66.2090E+06    -45.4508E+06     3.17343E+06         49.0213
             549     13.7703E-03     39.1463E-03         1.65568    -603.777E-03    -883.002E-03    -89.0129E-03         1.14091    -883.002E-03        -1.86396     36.4017E-03    -16.2726E-03    -20.1291E-03    -16.8248E-03     33.0975E-03    -16.2726E-03     26.4505E-03     35.0422E+06    -13.1779E+06    -66.2953E+06    -12.9694E+06     34.8337E+06    -66.2953E+06    -14.0413E+03         38.4868
             550     12.7881E-03     39.1164E-03         1.81517    -694.677E-03    -936.124E-03    -155.745E-03         1.27623    -936.124E-03        -2.02217     34.8876E-03    -16.3341E-03    -18.5535E-03    -16.7570E-03     33.0911E-03    -16.3341E-03     17.9241E-03     8.01350E+06    -26.4919E+06    -50.2292E+06    -8.17112E+06    -10.9633E+06    -49.5732E+06     470.103E+03         31.2520
             551     11.8039E-03     39.1058E-03         1.93087    -739.393E-03    -993.690E-03    -256.361E-03         1.44784    -993.690E-03        -2.02101     33.5271E-03    -16.4160E-03    -17.1112E-03    -16.6231E-03     33.0391E-03    -16.4160E-03     9.84505E-03    -6.21045E+06    -38.2707E+06    -69.6102E+06    -6.39432E+06    -67.3355E+06    -40.3616E+06     1.03239E+06         27.0583
             552     10.8204E-03     39.0947E-03         2.01132    -744.825E-03        -1.05366    -367.226E-03         1.63372        -1.05366        -1.85302     33.6114E-03    -16.5178E-03    -17.0936E-03    -16.6319E-03     33.1498E-03    -16.5178E-03     9.60091E-03    -3.84685E+06    -25.5202E+06    -99.4910E+06    -3.88568E+06    -99.4522E+06    -25.5202E+06     1.11801E+06         24.9088
             553     9.83691E-03     39.0843E-03         1.98175    -636.244E-03        -1.11515    -476.957E-03         1.82247        -1.11515        -1.08274     33.7323E-03    -16.6029E-03    -17.1293E-03    -16.6840E-03     33.2870E-03    -16.6029E-03     9.45266E-03    -178.169E+03    -12.0511E+06     -118.48E+06    -230.706E+03    -118.427E+06    -12.0511E+06     1.79698E+06         23.8734
             554     8.85285E-03     39.0743E-03         2.06995    -641.265E-03        -1.17883    -584.468E-03         2.01315        -1.17883     243.778E-03     33.7556E-03    -16.6584E-03    -17.0972E-03    -16.7365E-03     33.3949E-03    -16.6584E-03     8.52076E-03     1.32339E+06    -5.85861E+06    -138.967E+06     1.30422E+06    -138.948E+06    -5.85861E+06     976.287E+03         23.3630
             555     7.86976E-03     39.0659E-03         2.37133    -860.591E-03        -1.24436    -710.056E-03         2.22080        -1.24436         1.33103     33.7630E-03    -16.7088E-03    -17.0542E-03    -16.7270E-03     33.4358E-03    -16.7088E-03     8.12771E-03     2.91762E+06    -2.25581E+06    -159.509E+06     2.09815E+06    -159.503E+06    -1.44270E+06     497.882E+03         23.0811
             556     6.88584E-03     39.0571E-03         2.68600        -1.09997        -1.30785    -878.351E-03         2.46438        -1.30785         1.77292     33.7571E-03    -16.7535E-03    -17.0036E-03    -16.7138E-03     33.4674E-03    -16.7535E-03     7.63350E-03     3.44525E+06     562.511E+03    -175.590E+06     2.10391E+06    -175.576E+06     1.89018E+06     1.34746E+06         22.8996
             557     5.90202E-03     39.0497E-03         2.88360        -1.22568        -1.36641        -1.02784         2.68576        -1.36641         1.74863     33.7398E-03    -16.7806E-03    -16.9592E-03    -16.7269E-03     33.5075E-03    -16.7806E-03     6.84024E-03     4.21532E+06     1.95624E+06    -182.753E+06     2.36452E+06    -182.743E+06     3.79682E+06     1.20979E+06         22.7684
             558     4.91845E-03     39.0422E-03         3.05095        -1.31089        -1.43313        -1.14965         2.87832        -1.42175         1.70072     33.7851E-03    -16.8041E-03    -16.9810E-03    -16.8005E-03     33.6046E-03    -16.8041E-03     6.01957E-03     6.18554E+06     2.69377E+06    -189.124E+06     2.68490E+06    -189.115E+06     6.18554E+06    -362.216E+03         22.6684
             559     3.93480E-03     39.0366E-03         3.16051        -1.34370        -1.48956        -1.24558         3.05101        -1.47817         1.28098     33.7709E-03    -16.7936E-03    -16.9772E-03    -16.8511E-03     33.6448E-03    -16.7936E-03     5.02280E-03     5.07241E+06     2.17322E+06    -194.844E+06     2.61537E+06    -194.835E+06     4.62104E+06    -1.10255E+06         22.5916
             560     2.95108E-03     39.0315E-03         3.27775        -1.39062        -1.53529        -1.36895         3.25608        -1.53529     468.577E-03     33.6079E-03    -16.7262E-03    -16.8817E-03    -16.7561E-03     33.5309E-03    -16.7747E-03     3.88818E-03     4.26815E+06     2.02769E+06    -194.784E+06     3.97759E+06    -194.776E+06     2.30975E+06     28.2048E+03         22.5341
             561     1.96718E-03     39.0283E-03         3.54111        -1.55140        -1.63627        -1.45971         3.41111        -1.59797        -1.05488     33.5634E-03    -16.7225E-03    -16.8409E-03    -16.7208E-03     33.5283E-03    -16.8075E-03     2.56450E-03     5.11106E+06     2.28286E+06    -195.762E+06     3.75207E+06    -195.724E+06     3.60404E+06    -26.9491E+03         22.4941
             562     983.804E-06     39.0265E-03         5.38499         1.11101        -6.13446        -5.99371         3.62907         2.72618        -1.10056     33.6605E-03    -16.6866E-03    -16.9739E-03    -16.9273E-03     33.6504E-03    -16.7231E-03     1.29215E-03     3.55645E+06     840.677E+03    -197.917E+06     776.863E+03    -197.853E+06     3.55645E+06    -876.875E+03         22.4701
             563     16.7445E-03     38.6869E-03     839.641E-03    -38.1830E-03    -665.889E-03    -35.8123E-03     837.271E-03    -665.889E-03     81.4565E-03     314.703E-03    -16.6654E-03    -298.037E-03    -69.1327E-03     85.7981E-03    -16.6654E-03     590.587E-03     155.324E+06     102.091E+06    -13.1642E+06    -13.0240E+06     155.184E+06     102.091E+06    -104.285E+03         71.9051
             564     15.7352E-03     38.2513E-03     850.559E-03    -45.1072E-03    -603.172E-03     47.5465E-03     757.906E-03    -603.172E-03    -347.481E-03     141.204E-03    -16.6089E-03    -124.595E-03    -22.1050E-03     38.7139E-03    -16.6089E-03     254.710E-03     112.519E+06     25.1141E+06    -18.6777E+06    -18.5458E+06     112.388E+06     25.1141E+06     2.09709E+06         61.3399
             565     14.7586E-03     38.1433E-03         1.08905    -245.386E-03    -611.360E-03     151.734E-03     691.925E-03    -611.360E-03        -1.17000     51.8495E-03    -16.3519E-03    -35.4976E-03    -19.2429E-03     35.5948E-03    -16.3519E-03     64.8841E-03     71.2835E+06    -5.24511E+06    -47.7288E+06    -12.0081E+06     71.1828E+06    -40.8651E+06    -401.384E+03         49.0623
             566     13.7737E-03     38.1089E-03         1.38738    -480.345E-03    -657.014E-03     220.895E-03     686.145E-03    -657.014E-03        -1.77933     35.3925E-03    -16.1239E-03    -19.2686E-03    -16.1667E-03     32.2906E-03    -16.1239E-03     25.0822E-03     34.7126E+06    -8.20283E+06    -64.5205E+06    -7.72112E+06     34.2309E+06    -64.5205E+06    -320.974E+03         38.5704
             567     12.7899E-03     38.0849E-03         1.51050    -528.024E-03    -719.577E-03     227.854E-03     754.623E-03    -719.577E-03        -1.92958     34.0525E-03    -16.2377E-03    -17.8148E-03    -16.3197E-03     32.5573E-03    -16.2377E-03     16.4649E-03     5.54648E+06    -24.4519E+06    -46.2778E+06    -7.33160E+06    -12.7020E+06    -45.1495E+06     1.89597E+06         31.3219
             568     11.8055E-03     38.0715E-03         1.59393    -525.981E-03    -792.872E-03     167.887E-03     900.063E-03    -792.872E-03        -1.93963     33.0478E-03    -16.3445E-03    -16.7033E-03    -16.2502E-03     32.5947E-03    -16.3445E-03     9.35533E-03    -5.20489E+06    -34.3394E+06    -65.7520E+06    -5.37656E+06    -65.5803E+06    -34.3394E+06     1.77371E+06         27.1025
             569     10.8218E-03     38.0624E-03         1.63234    -470.090E-03    -873.971E-03     74.6515E-03         1.08760    -873.971E-03        -1.78341     33.2822E-03    -16.4502E-03    -16.8321E-03    -16.4164E-03     32.8666E-03    -16.4502E-03     9.04763E-03    -3.07535E+06    -22.3985E+06    -99.0588E+06    -3.07880E+06    -99.0554E+06    -22.3985E+06    -197.213E+03         24.9314
             570     9.83736E-03     38.0507E-03         1.53395    -268.499E-03    -961.325E-03    -41.4427E-03         1.30689    -961.325E-03        -1.01650     33.4218E-03    -16.5379E-03    -16.8838E-03    -16.4567E-03     32.9946E-03    -16.5379E-03     9.19980E-03    -661.307E+03    -11.7021E+06    -119.260E+06    -692.345E+03    -119.229E+06    -11.7021E+06     -360.43E+03         23.8828
             571     8.85403E-03     38.0415E-03         1.66922    -293.961E-03        -1.05281    -208.219E-03         1.58348        -1.05281     319.413E-03     33.4875E-03    -16.6220E-03    -16.8654E-03    -16.5284E-03     33.1504E-03    -16.6220E-03     8.20611E-03     2.42284E+06    -2.48189E+06    -138.967E+06     2.38135E+06    -138.925E+06    -2.48189E+06     570.488E+03         23.3661
             572     7.86958E-03     38.0326E-03         2.08359    -601.925E-03        -1.14488    -405.197E-03         1.88686        -1.14488         1.38088     33.6157E-03    -16.6939E-03    -16.9218E-03    -16.6037E-03     33.2975E-03    -16.6939E-03     7.99376E-03     3.95938E+06     1.51629E+06    -159.986E+06     2.36871E+06    -159.962E+06     3.08253E+06     1.54149E+06         23.0815
             573     6.88603E-03     38.0243E-03         2.47430    -891.727E-03        -1.23491    -609.881E-03         2.19245        -1.23491         1.85186     33.7259E-03    -16.7244E-03    -17.0015E-03    -16.7142E-03     33.4386E-03    -16.7244E-03     7.59905E-03     3.40968E+06     1.24758E+06    -175.156E+06     1.31540E+06    -175.143E+06     3.32838E+06     1.42602E+06         22.8990
             574     5.90250E-03     38.0162E-03         2.71917        -1.03850        -1.32197    -805.838E-03         2.48650        -1.32197         1.77138     33.6788E-03    -16.7126E-03    -16.9663E-03    -16.7274E-03     33.4400E-03    -16.7126E-03     6.93418E-03     3.01092E+06    -1.27871E+06    -180.982E+06     2.05304E+06    -180.961E+06    -341.673E+03    -274.077E+03         22.7674
             575     4.91858E-03     38.0096E-03         2.95861        -1.17961        -1.40676    -985.321E-03         2.76432        -1.40676         1.74455     33.6755E-03    -16.7342E-03    -16.9413E-03    -16.7478E-03     33.4820E-03    -16.7342E-03     6.22528E-03     5.30449E+06     764.862E+03    -188.798E+06     4.01282E+06    -188.775E+06     2.03320E+06    -1.39117E+06         22.6672
             576     3.93490E-03     38.0030E-03         3.13830        -1.25366        -1.49377        -1.13318         3.01782        -1.49377         1.17452     33.6624E-03    -16.7575E-03    -16.9049E-03    -16.7753E-03     33.5328E-03    -16.7575E-03     5.07192E-03     5.60881E+06     4.06215E+06    -195.663E+06     4.50569E+06    -195.655E+06     5.15744E+06    -845.735E+03         22.5902
             577     2.95131E-03     37.9989E-03         3.34744        -1.35402        -1.57924        -1.33629         3.32971        -1.57924     526.645E-03     33.5385E-03    -16.7053E-03    -16.8332E-03    -16.7114E-03     33.4652E-03    -16.7538E-03     3.78766E-03     4.82751E+06     2.22955E+06    -194.941E+06     3.34312E+06    -194.937E+06     3.71001E+06    -379.690E+03         22.5328
             578     1.96733E-03     37.9952E-03         3.85121        -1.60425        -1.83113        -1.49912         3.57482        -1.65987        -1.37167     33.5217E-03    -16.7114E-03    -16.8103E-03    -16.7040E-03     33.4871E-03    -16.7831E-03     2.56324E-03     5.93975E+06     2.59294E+06    -195.427E+06     3.24734E+06    -195.416E+06     5.27363E+06     244.074E+03         22.4928
             579     983.517E-06     37.9931E-03         6.18460         1.23155        -6.99423        -6.66387         3.82460         3.26119    -388.886E-03     33.5828E-03    -16.6524E-03    -16.9303E-03    -16.8959E-03     33.5716E-03    -16.6757E-03     1.37346E-03     3.59673E+06     398.837E+03    -198.026E+06     763.276E+03    -197.978E+06     3.18385E+06     129.405E+03         22.4688
             580     16.7286E-03     37.6861E-03     697.327E-03    -10.1690E-03    -450.610E-03    -5.94375E-03     693.102E-03    -450.610E-03     102.564E-03     311.662E-03    -16.9720E-03    -294.690E-03    -67.6159E-03     84.5879E-03    -16.9720E-03     586.419E-03     160.184E+06     104.436E+06    -9.57785E+06    -9.31103E+06     159.918E+06     104.436E+06     2.38686E+06         71.7204
             581     15.7434E-03     37.2059E-03     650.624E-03     24.6661E-03    -381.871E-03     179.420E-03     495.871E-03    -381.871E-03    -316.322E-03     145.320E-03    -16.6018E-03    -128.718E-03    -31.2216E-03     47.8234E-03    -16.6018E-03     259.650E-03     117.852E+06     29.9632E+06    -14.0412E+06    -12.0528E+06     117.579E+06     28.2481E+06    -98.7483E+03         61.2395
             582     14.7619E-03     37.1109E-03     917.496E-03    -175.182E-03    -422.685E-03     359.628E-03     347.309E-03    -387.309E-03        -1.08957     48.6798E-03    -16.1081E-03    -32.5717E-03    -17.6615E-03     33.7696E-03    -16.1081E-03     60.6744E-03     69.2001E+06    -9.18410E+06    -46.2641E+06    -9.43489E+06     68.9916E+06    -45.8048E+06    -2.62798E+06         49.0938
             583     13.7767E-03     37.0767E-03         1.23827    -381.676E-03    -522.848E-03     469.805E-03     298.164E-03    -434.224E-03        -1.67470     35.1255E-03    -15.9650E-03    -19.1606E-03    -15.5112E-03     31.4762E-03    -15.9650E-03     26.8684E-03     32.3272E+06    -7.45887E+06    -64.7039E+06    -6.97260E+06     31.8409E+06    -64.7039E+06     2.21538E+06         38.6320
             584     12.7912E-03     37.0520E-03         1.35512    -436.334E-03    -573.880E-03     525.379E-03     320.413E-03    -500.887E-03        -1.82478     33.4296E-03    -16.1109E-03    -17.3187E-03    -15.7027E-03     31.8135E-03    -16.1109E-03     17.0371E-03     7.45782E+06    -22.7099E+06    -45.9604E+06    -3.28310E+06    -12.8801E+06    -45.0492E+06     2.83898E+06         31.3767
             585     11.8070E-03     37.0391E-03         1.41859    -460.224E-03    -603.517E-03     533.694E-03     404.927E-03    -583.772E-03        -1.85164     32.7985E-03    -16.2513E-03    -16.5472E-03    -16.0012E-03     32.2525E-03    -16.2513E-03     10.1896E-03    -411.482E+03    -32.2284E+06    -63.8467E+06    -483.473E+03    -63.7747E+06    -32.2284E+06     1.81904E+06         27.1369
             586     10.8224E-03     37.0294E-03         1.40592    -359.074E-03    -680.420E-03     468.982E-03     577.868E-03    -680.420E-03        -1.70278     33.0567E-03    -16.3779E-03    -16.6788E-03    -16.2132E-03     32.5911E-03    -16.3779E-03     9.53219E-03     310.629E+03    -19.3322E+06    -97.3838E+06     268.503E+03    -97.3417E+06    -19.3322E+06     1.01473E+06         24.9475
             587     9.83873E-03     37.0182E-03         1.19473    -27.7390E-03    -786.550E-03     329.857E-03     837.137E-03    -786.550E-03    -962.970E-03     33.2105E-03    -16.4618E-03    -16.7488E-03    -16.2783E-03     32.7401E-03    -16.4618E-03     9.61345E-03     379.604E+03    -12.6413E+06    -118.659E+06     351.348E+03    -118.631E+06    -12.6413E+06    -1.32541E+06         23.8877
             588     8.85402E-03     37.0084E-03         1.31049    -15.7964E-03    -898.211E-03     137.391E-03         1.15730    -898.211E-03     378.477E-03     33.2921E-03    -16.5488E-03    -16.7433E-03    -16.3813E-03     32.9301E-03    -16.5488E-03     8.46726E-03     1.58275E+06    -6.38245E+06    -141.297E+06     1.54311E+06    -141.257E+06    -6.38245E+06    -785.797E+03         23.3655
             589     7.87040E-03     37.0000E-03         1.79569    -373.912E-03        -1.01226    -85.7112E-03         1.50749        -1.01226         1.44200     33.5076E-03    -16.6369E-03    -16.8706E-03    -16.5486E-03     33.1855E-03    -16.6369E-03     8.02834E-03     4.25404E+06     1.18068E+06    -161.428E+06     3.46934E+06    -161.396E+06     1.93381E+06     1.75055E+06         23.0790
             590     6.88639E-03     36.9908E-03         2.25175    -706.491E-03        -1.12659    -320.599E-03         1.86586        -1.12659         1.97525     33.5772E-03    -16.6719E-03    -16.9052E-03    -16.6245E-03     33.2964E-03    -16.6719E-03     7.49409E-03     4.74971E+06     2.88551E+06    -173.034E+06     3.97710E+06    -173.014E+06     3.63864E+06     1.42577E+06         22.8959
             591     5.90242E-03     36.9838E-03         2.53891    -871.185E-03        -1.23962    -563.657E-03         2.23138        -1.23962         1.88447     33.5821E-03    -16.6620E-03    -16.9201E-03    -16.6858E-03     33.3477E-03    -16.6620E-03     6.85920E-03     3.73173E+06    -828.198E+03    -179.036E+06     3.71231E+06    -179.016E+06    -828.198E+03    -642.021E+03         22.7642
             592     4.91882E-03     36.9761E-03         2.87523        -1.08909        -1.34614    -837.800E-03         2.62394        -1.34614         1.91571     33.5661E-03    -16.6770E-03    -16.8891E-03    -16.7003E-03     33.3774E-03    -16.6770E-03     6.13321E-03     3.50492E+06    -1.56091E+06    -189.811E+06     3.39951E+06    -189.789E+06    -1.47730E+06    -1.44400E+06         22.6640
             593     3.93502E-03     36.9706E-03         3.14384        -1.24577        -1.44128        -1.08303         2.98110        -1.44128         1.22192     33.5259E-03    -16.7228E-03    -16.8030E-03    -16.6726E-03     33.3987E-03    -16.7260E-03     5.02252E-03     5.42173E+06     2.46904E+06    -197.183E+06     3.45546E+06    -197.177E+06     4.42868E+06    -758.399E+03         22.5871
             594     2.95107E-03     36.9654E-03         3.35765        -1.34352        -1.53373        -1.31088         3.31190        -1.52062     715.876E-03     33.5450E-03    -16.7450E-03    -16.8000E-03    -16.7228E-03     33.4710E-03    -16.7482E-03     3.79975E-03     8.97071E+06     4.18344E+06    -194.217E+06     4.17963E+06    -194.213E+06     8.97071E+06    -379.798E+03         22.5297
             595     1.96770E-03     36.9626E-03         3.99753        -1.56206        -1.95293        -1.46708         3.53418        -1.58457        -1.56642     33.5095E-03    -16.7148E-03    -16.7947E-03    -16.7354E-03     33.4734E-03    -16.7381E-03     2.64811E-03     9.35117E+06     2.97947E+06    -194.360E+06     2.97524E+06    -194.355E+06     9.35117E+06    -154.917E+03         22.4900
             596     983.875E-06     36.9597E-03         6.95088         1.33302        -7.78207        -7.16457         3.72709         3.93931     351.531E-03     33.3930E-03    -16.5696E-03    -16.8235E-03    -16.6349E-03     33.3805E-03    -16.7455E-03     1.38190E-03     2.98133E+06    -1.46226E+06    -198.615E+06    -495.119E+03    -198.599E+06     1.99821E+06     746.924E+03         22.4664
             597     16.7092E-03     36.6146E-03     548.093E-03     25.8865E-03    -242.200E-03     30.3560E-03     543.623E-03    -242.200E-03     91.4254E-03     313.922E-03    -17.1219E-03    -296.800E-03    -73.4376E-03     90.5595E-03    -17.1219E-03     588.174E-03     166.507E+06     113.702E+06    -2.99565E+06    -2.68641E+06     166.198E+06     113.702E+06     3.51193E+06         71.4538
             598     15.7519E-03     36.1748E-03     519.241E-03     59.5972E-03    -196.046E-03     288.296E-03     263.845E-03    -169.348E-03    -313.913E-03     138.503E-03    -16.5114E-03    -121.992E-03    -32.1263E-03     48.6377E-03    -16.5114E-03     247.046E-03     121.490E+06     33.2233E+06    -10.7329E+06    -7.96428E+06     121.034E+06     30.9108E+06     103.500E+03         61.1138
             599     14.7620E-03     36.0784E-03     872.119E-03    -112.129E-03    -353.698E-03     513.118E-03     65.6648E-03    -172.491E-03        -1.06341     48.8939E-03    -15.9711E-03    -32.9227E-03    -15.0316E-03     31.0027E-03    -15.9711E-03     64.1556E-03     65.2273E+06    -12.0866E+06    -50.9912E+06    -11.7689E+06     64.9095E+06    -50.9912E+06     414.054E+03         49.0986
             600     13.7769E-03     36.0448E-03         1.21146    -217.120E-03    -575.355E-03     666.573E-03    -30.4671E-03    -217.120E-03        -1.62986     35.5953E-03    -15.8991E-03    -19.6962E-03    -15.6354E-03     31.5344E-03    -15.8991E-03     28.6857E-03     29.5722E+06    -9.18245E+06    -71.9326E+06    -9.03879E+06     29.4285E+06    -71.9326E+06     828.685E+03         38.6677
             601     12.7922E-03     36.0199E-03         1.33382    -284.084E-03    -621.656E-03     766.207E-03    -54.0443E-03    -284.084E-03        -1.75190     33.6653E-03    -16.0507E-03    -17.6146E-03    -15.6385E-03     31.6892E-03    -16.0507E-03     18.7353E-03     9.40484E+06    -22.8211E+06    -50.1332E+06    -2.05810E+06    -12.5122E+06    -48.9791E+06     1.94716E+06         31.4194
             602     11.8070E-03     36.0067E-03         1.38075    -363.264E-03    -580.806E-03     809.678E-03    -2.51043E-03    -370.488E-03        -1.75299     32.8440E-03    -16.2068E-03    -16.6372E-03    -16.0041E-03     32.2109E-03    -16.2068E-03     11.0329E-03     1.42458E+06    -33.3486E+06    -63.9406E+06     1.26280E+06    -63.7788E+06    -33.3486E+06     2.71488E+06         27.1657
             603     10.8230E-03     35.9967E-03         1.32291    -326.891E-03    -550.026E-03     761.549E-03     158.000E-03    -473.553E-03        -1.58525     33.0427E-03    -16.3367E-03    -16.7060E-03    -16.1864E-03     32.5231E-03    -16.3367E-03     10.1042E-03     3.71929E+06    -18.4666E+06    -94.9338E+06     3.67209E+06    -94.8866E+06    -18.4666E+06     1.53725E+06         24.9608
             604     9.83843E-03     35.9855E-03         1.01381     32.1589E-03    -588.065E-03     621.700E-03     424.265E-03    -588.065E-03    -860.820E-03     33.1955E-03    -16.4261E-03    -16.7694E-03    -16.2845E-03     32.7106E-03    -16.4261E-03     9.76594E-03     4.74143E+06    -10.5874E+06    -117.443E+06     4.70692E+06    -117.408E+06    -10.5874E+06     451.413E+03         23.8908
             605     8.85467E-03     35.9761E-03         1.07243     110.533E-03    -710.644E-03     442.212E-03     740.750E-03    -710.644E-03     468.736E-03     33.2946E-03    -16.4980E-03    -16.7966E-03    -16.4101E-03     32.9081E-03    -16.4980E-03     8.75828E-03     2.54931E+06    -8.14965E+06    -142.988E+06     2.51292E+06    -142.951E+06    -8.14965E+06     316.637E+03         23.3639
             606     7.87062E-03     35.9666E-03         1.54480    -221.435E-03    -840.284E-03     237.010E-03         1.08635    -840.284E-03         1.50424     33.4540E-03    -16.5733E-03    -16.8807E-03    -16.5454E-03     33.1187E-03    -16.5733E-03     8.17778E-03     2.51423E+06    -1.73212E+06    -162.557E+06     2.33604E+06    -162.536E+06    -1.57524E+06     311.803E+03         23.0755
             607     6.88679E-03     35.9586E-03         2.01699    -551.541E-03    -974.167E-03    -20.9908E-03         1.48644    -974.167E-03         2.05452     33.4705E-03    -16.6166E-03    -16.8538E-03    -16.5640E-03     33.1806E-03    -16.6166E-03     7.60502E-03     4.91966E+06     3.33566E+06    -171.223E+06     4.74096E+06    -171.201E+06     3.49254E+06     552.539E+03         22.8920
             608     5.90300E-03     35.9502E-03         2.31837    -711.792E-03        -1.10704    -313.904E-03         1.92048        -1.10704         1.95568     33.5189E-03    -16.6319E-03    -16.8870E-03    -16.6492E-03     33.2811E-03    -16.6319E-03     6.88322E-03     5.52246E+06     3.82415E+06    -178.352E+06     5.51892E+06    -178.348E+06     3.82415E+06     409.271E+03         22.7603
             609     4.91914E-03     35.9437E-03         2.72158    -971.521E-03        -1.24155    -656.126E-03         2.39402        -1.22938         2.08564     33.4830E-03    -16.6495E-03    -16.8334E-03    -16.6561E-03     33.3056E-03    -16.6495E-03     5.94826E-03     5.57023E+06     2.84509E+06    -189.629E+06     4.64392E+06    -189.623E+06     3.76568E+06     196.520E+03         22.6602
             610     3.93518E-03     35.9374E-03         3.05723        -1.19155        -1.34168    -980.160E-03         2.83368        -1.32952         1.32028     33.4187E-03    -16.6713E-03    -16.7474E-03    -16.6192E-03     33.2937E-03    -16.6745E-03     4.97328E-03     6.35816E+06     2.76535E+06    -196.308E+06     3.79317E+06    -196.290E+06     5.31256E+06    -914.063E+03         22.5835
             611     2.95146E-03     35.9329E-03         3.27787        -1.27018        -1.46441        -1.22838         3.17302        -1.40136     991.108E-03     33.4112E-03    -16.6731E-03    -16.7382E-03    -16.6435E-03     33.3381E-03    -16.6947E-03     3.76613E-03     7.47945E+06     2.45157E+06    -195.840E+06     2.48346E+06    -195.819E+06     7.42691E+06    -1.85946E+06         22.5263
             612     1.96742E-03     35.9290E-03         4.02366        -1.45620        -2.02191        -1.35030         3.35205        -1.45620        -1.57724     33.3836E-03    -16.6528E-03    -16.7308E-03    -16.6548E-03     33.3484E-03    -16.6935E-03     2.60896E-03     6.86768E+06    -104.120E+03    -195.836E+06    -115.100E+03    -195.825E+06     6.86768E+06    -625.074E+03         22.4870
             613     983.906E-06     35.9275E-03         7.62773         1.46546        -8.53877        -7.59760         3.51977         4.63225         1.10187     33.3221E-03    -16.4643E-03    -16.8578E-03    -16.6701E-03     33.3095E-03    -16.6394E-03     1.42160E-03     2.51549E+06    -3.17731E+06    -197.996E+06    -2.61051E+06    -197.992E+06     1.94526E+06     270.070E+03         22.4640
             614     16.7360E-03     35.5471E-03     438.512E-03     61.0554E-03    -79.2417E-03     32.2349E-03     435.662E-03    -47.5721E-03     64.8637E-03     316.624E-03    -16.7678E-03    -299.856E-03    -77.4253E-03     94.1931E-03    -16.7678E-03     590.948E-03     160.537E+06     111.666E+06    -8.52356E+06    -8.23579E+06     160.249E+06     111.666E+06    -2.68142E+06         71.2499
             615     15.7513E-03     35.1565E-03     449.140E-03     114.283E-03    -93.4125E-03     333.319E-03     107.795E-03     28.8967E-03    -322.325E-03     133.319E-03    -16.3384E-03    -116.981E-03    -23.9398E-03     40.2783E-03    -16.3384E-03     240.762E-03     118.843E+06     29.6526E+06    -13.3231E+06    -12.4802E+06     118.598E+06     29.0552E+06    -510.010E+03         61.0293
             616     14.7594E-03     35.0426E-03     871.442E-03     31.2334E-03    -409.439E-03     597.814E-03    -135.811E-03     31.2334E-03        -1.04388     51.6151E-03    -16.0130E-03    -35.6021E-03    -15.4534E-03     31.4664E-03    -16.0130E-03     68.8578E-03     66.2511E+06    -10.6352E+06    -53.2241E+06    -14.6303E+06     66.0687E+06    -49.0466E+06     1.70727E+06         49.0739
             617     13.7761E-03     35.0141E-03         1.22858    -7.48080E-03    -716.671E-03     812.985E-03    -301.078E-03    -7.48080E-03        -1.58543     35.4892E-03    -15.8948E-03    -19.5944E-03    -15.9773E-03     31.8721E-03    -15.8948E-03     27.1895E-03     29.6655E+06    -11.3790E+06    -75.8157E+06    -11.3222E+06     29.6087E+06    -75.8157E+06    -441.655E+03         38.6960
             618     12.7906E-03     34.9864E-03         1.36655    -71.5924E-03    -783.611E-03     957.357E-03    -374.415E-03    -71.5924E-03        -1.67386     33.8459E-03    -16.0321E-03    -17.8138E-03    -15.8607E-03     31.8928E-03    -16.0321E-03     18.4657E-03     5.68171E+06    -26.1276E+06    -53.8657E+06    -7.23336E+06    -14.3279E+06    -52.7504E+06     128.287E+03         31.4607
             619     11.8074E-03     34.9747E-03         1.39537    -156.071E-03    -720.831E-03     997.314E-03    -322.774E-03    -156.071E-03        -1.63953     32.8593E-03    -16.1693E-03    -16.6900E-03    -16.1163E-03     32.2856E-03    -16.1693E-03     10.5277E-03    -1.08762E+06    -36.2858E+06    -63.7235E+06    -1.20774E+06    -63.6034E+06    -36.2858E+06     961.795E+03         27.1955
             620     10.8228E-03     34.9637E-03         1.30986    -222.856E-03    -560.966E-03     951.360E-03    -168.580E-03    -256.738E-03        -1.43824     32.9651E-03    -16.2919E-03    -16.6733E-03    -16.1809E-03     32.4728E-03    -16.2919E-03     9.82961E-03     2.89945E+06    -20.7994E+06    -94.5990E+06     2.86102E+06    -94.5606E+06    -20.7994E+06     1.15850E+06         24.9754
             621     9.83916E-03     34.9530E-03         1.00649    -39.8845E-03    -430.807E-03     844.731E-03     61.2106E-03    -370.148E-03    -704.636E-03     33.1337E-03    -16.3979E-03    -16.7359E-03    -16.2762E-03     32.6740E-03    -16.3979E-03     9.51467E-03     3.89602E+06    -9.23212E+06    -117.413E+06     3.82683E+06    -117.343E+06    -9.23212E+06     2.58166E+06         23.8951
             622     8.85480E-03     34.9432E-03         1.03776     4.01598E-03    -493.906E-03     679.446E-03     362.328E-03    -493.906E-03     593.891E-03     33.2744E-03    -16.4699E-03    -16.8046E-03    -16.4150E-03     32.8848E-03    -16.4699E-03     8.79369E-03     4.86353E+06    -4.70770E+06    -141.690E+06     4.82236E+06    -141.648E+06    -4.70770E+06     1.94979E+06         23.3631
             623     7.87100E-03     34.9340E-03         1.40334    -220.437E-03    -625.983E-03     477.048E-03     705.856E-03    -625.983E-03         1.56589     33.3638E-03    -16.5378E-03    -16.8260E-03    -16.4903E-03     33.0280E-03    -16.5378E-03     8.17084E-03     4.95245E+06     180.600E+03    -162.379E+06     4.78065E+06    -162.364E+06     337.475E+03     372.576E+03         23.0728
             624     6.88703E-03     34.9256E-03         1.81429    -485.867E-03    -763.723E-03     226.939E-03         1.10148    -763.723E-03         2.09977     33.4088E-03    -16.5794E-03    -16.8294E-03    -16.5305E-03     33.1099E-03    -16.5794E-03     7.72577E-03     5.08093E+06     2.69843E+06    -171.049E+06     3.77691E+06    -171.032E+06     3.98532E+06     214.653E+03         22.8887
             625     5.90307E-03     34.9176E-03         2.05490    -582.613E-03    -900.472E-03    -86.2082E-03         1.55850    -900.472E-03         1.94675     33.4174E-03    -16.6015E-03    -16.8159E-03    -16.5639E-03     33.1655E-03    -16.6015E-03     7.07044E-03     5.26095E+06     3.07237E+06    -178.786E+06     3.55593E+06    -178.779E+06     4.76998E+06     584.404E+03         22.7570
             626     4.91935E-03     34.9106E-03         2.43568    -782.770E-03        -1.07343    -425.289E-03         2.03155        -1.02678         2.12230     33.4192E-03    -16.6250E-03    -16.7942E-03    -16.6065E-03     33.2315E-03    -16.6250E-03     6.11517E-03     5.98296E+06     3.79500E+06    -188.652E+06     3.88007E+06    -188.644E+06     5.88934E+06     546.955E+03         22.6570
             627     3.93555E-03     34.9049E-03         2.74080    -962.500E-03        -1.18502    -715.243E-03         2.44690        -1.13838         1.31087     33.3849E-03    -16.6284E-03    -16.7566E-03    -16.6203E-03     33.2487E-03    -16.6284E-03     5.18594E-03     5.09254E+06     3.16297E+06    -194.383E+06     3.54780E+06    -194.365E+06     4.68972E+06    -194.478E+03         22.5806
             628     2.95160E-03     34.8997E-03         3.00946        -1.05577        -1.34411    -982.842E-03         2.82407        -1.23165         1.17499     33.3136E-03    -16.6084E-03    -16.7052E-03    -16.6058E-03     33.2326E-03    -16.6268E-03     3.96273E-03     3.78080E+06     965.971E+03    -197.484E+06     2.08868E+06    -197.460E+06     2.63450E+06    -1.36728E+06         22.5238
             629     1.96784E-03     34.8968E-03         3.99397        -1.30749        -2.07395        -1.16720         3.08723        -1.30749        -1.62126     33.2977E-03    -16.5854E-03    -16.7123E-03    -16.6350E-03     33.2612E-03    -16.6261E-03     2.59533E-03     4.17988E+06    -605.575E+03    -197.383E+06     126.038E+03    -197.371E+06     3.43640E+06    -1.31286E+06         22.4848
             630     983.615E-06     34.8940E-03         8.24960         1.62401        -9.25032        -7.96377         3.30875         5.27832         1.75717     33.2081E-03    -16.4258E-03    -16.7823E-03    -16.6653E-03     33.1976E-03    -16.5323E-03     1.34870E-03     2.94633E+06    -3.23568E+06    -198.154E+06    -930.694E+03    -198.150E+06     637.255E+03    -460.477E+03         22.4618
             631     16.7527E-03     34.5412E-03     411.498E-03     130.277E-03    -31.7582E-03    -8.53844E-03     390.594E-03     127.962E-03     62.3105E-03     314.684E-03    -16.3960E-03    -298.288E-03    -73.4408E-03     89.8368E-03    -16.3960E-03     588.387E-03     156.245E+06     103.876E+06    -11.1973E+06    -11.0223E+06     156.070E+06     103.876E+06    -1.67458E+06         71.1203
             632     15.7423E-03     34.1249E-03     415.201E-03     208.913E-03    -64.9259E-03     310.613E-03     41.9776E-03     206.597E-03    -273.665E-03     139.771E-03    -16.2132E-03    -123.557E-03    -20.9631E-03     37.1763E-03    -16.2132E-03     253.763E-03     115.055E+06     24.0546E+06    -16.1672E+06    -16.1359E+06     115.024E+06     24.0546E+06    -282.586E+03         60.9613
             633     14.7623E-03     34.0096E-03     833.062E-03     217.743E-03    -470.776E-03     618.504E-03    -256.219E-03     217.743E-03    -963.992E-03     51.3771E-03    -16.0179E-03    -35.3592E-03    -17.7709E-03     33.7888E-03    -16.0179E-03     66.0312E-03     69.0499E+06    -10.3010E+06    -50.1733E+06    -15.2615E+06     68.9982E+06    -45.1611E+06     419.212E+03         49.0510
             634     13.7770E-03     33.9809E-03         1.20918     188.277E-03    -809.343E-03     876.260E-03    -476.418E-03     188.277E-03        -1.49540     34.5946E-03    -15.8267E-03    -18.7679E-03    -15.5991E-03     31.4258E-03    -15.8267E-03     25.1032E-03     31.3245E+06    -10.9523E+06    -72.2743E+06    -10.8982E+06     31.2704E+06    -72.2743E+06    -425.534E+03         38.7401
             635     12.7935E-03     33.9544E-03         1.35844     133.396E-03    -898.309E-03         1.03545    -575.319E-03     133.396E-03        -1.57530     33.4290E-03    -15.9489E-03    -17.4801E-03    -15.7903E-03     31.7392E-03    -15.9489E-03     17.3353E-03     5.36556E+06    -26.5669E+06    -54.8052E+06    -6.39409E+06    -15.2074E+06    -54.4050E+06    -1.65993E+06         31.5110
             636     11.8079E-03     33.9417E-03         1.39868     58.5165E-03    -857.635E-03         1.09611    -555.065E-03     58.5165E-03        -1.53255     32.5006E-03    -16.0948E-03    -16.4058E-03    -15.8562E-03     31.9510E-03    -16.0948E-03     10.1943E-03    -2.91248E+06    -37.0463E+06    -65.9218E+06    -3.00800E+06    -64.4501E+06    -38.4225E+06    -543.428E+03         27.2311
             637     10.8243E-03     33.9315E-03         1.32068    -32.3819E-03    -682.884E-03         1.06781    -430.015E-03    -32.3819E-03        -1.31939     32.7702E-03    -16.2380E-03    -16.5321E-03    -16.0594E-03     32.2974E-03    -16.2380E-03     9.58918E-03    -1.22563E+06    -21.6419E+06    -95.9522E+06    -1.28612E+06    -95.8917E+06    -21.6419E+06     1.67595E+06         24.9940
             638     9.83925E-03     33.9205E-03         1.07531    -55.2512E-03    -406.926E-03     979.634E-03    -230.711E-03    -135.786E-03    -601.950E-03     32.9501E-03    -16.3415E-03    -16.6086E-03    -16.1383E-03     32.4799E-03    -16.3415E-03     9.58597E-03     1.40787E+06    -10.6853E+06    -117.191E+06     1.35565E+06    -117.139E+06    -10.6853E+06     1.60312E+06         23.9024
             639     8.85551E-03     33.9104E-03         1.10823    -116.818E-03    -368.455E-03     838.073E-03     34.4679E-03    -249.585E-03     693.429E-03     33.1132E-03    -16.4260E-03    -16.6872E-03    -16.2928E-03     32.7187E-03    -16.4260E-03     8.82243E-03     4.22399E+06    -4.42416E+06    -140.427E+06     4.18944E+06    -140.392E+06    -4.42416E+06     1.27658E+06         23.3646
             640     7.87127E-03     33.9014E-03         1.35152    -246.005E-03    -475.748E-03     630.472E-03     369.500E-03    -370.200E-03         1.63963     33.2456E-03    -16.5029E-03    -16.7427E-03    -16.3959E-03     32.8988E-03    -16.5029E-03     8.28903E-03     4.96750E+06     906.901E+03    -161.894E+06     4.94594E+06    -161.873E+06     906.901E+03     1.49892E+06         23.0719
             641     6.88726E-03     33.8929E-03         1.67794    -413.063E-03    -628.456E-03     375.737E-03     753.071E-03    -492.385E-03         2.16737     33.3252E-03    -16.5490E-03    -16.7762E-03    -16.4686E-03     33.0176E-03    -16.5490E-03     7.82528E-03     6.22578E+06     3.29445E+06    -170.955E+06     5.08489E+06    -170.944E+06     4.42447E+06     841.189E+03         22.8871
             642     5.90338E-03     33.8848E-03         1.78279    -425.056E-03    -714.494E-03     106.980E-03         1.14819    -611.935E-03         1.96120     33.3118E-03    -16.5852E-03    -16.7265E-03    -16.4723E-03     33.0575E-03    -16.5852E-03     7.09210E-03     6.94033E+06     4.27912E+06    -178.982E+06     5.06055E+06    -178.974E+06     6.15159E+06     691.312E+03         22.7552
             643     4.91913E-03     33.8780E-03         2.06608    -547.575E-03    -868.711E-03    -152.025E-03         1.52891    -727.095E-03         2.14044     33.3248E-03    -16.6069E-03    -16.7179E-03    -16.5220E-03     33.1289E-03    -16.6069E-03     6.24360E-03     5.45756E+06     2.73082E+06    -187.923E+06     4.10150E+06    -187.915E+06     4.07943E+06     577.011E+03         22.6553
             644     3.93535E-03     33.8718E-03         2.28343    -637.320E-03    -982.718E-03    -372.936E-03         1.87743    -841.101E-03         1.24072     33.3691E-03    -16.6226E-03    -16.7465E-03    -16.6044E-03     33.2270E-03    -16.6226E-03     5.28496E-03     4.66932E+06     1.90670E+06    -194.193E+06     3.62332E+06    -194.182E+06     2.94091E+06    -115.781E+03         22.5791
             645     2.95148E-03     33.8675E-03         2.54396    -749.467E-03        -1.11524    -621.431E-03         2.25394    -953.248E-03         1.21099     33.3668E-03    -16.6283E-03    -16.7384E-03    -16.6532E-03     33.2815E-03    -16.6283E-03     4.09703E-03     4.58360E+06     2.58892E+06    -197.197E+06     3.65621E+06    -197.171E+06     3.48985E+06     297.282E+03         22.5225
             646     1.96764E-03     33.8633E-03         3.82005        -1.05574        -2.07838    -862.002E-03         2.60367        -1.05574        -1.78081     33.3087E-03    -16.5886E-03    -16.7201E-03    -16.6593E-03     33.2670E-03    -16.6078E-03     2.76367E-03     3.97514E+06     1.19803E+06    -197.186E+06     1.94747E+06    -197.162E+06     3.20148E+06    -218.294E+03         22.4835
             647     984.491E-06     33.8620E-03         8.83642         1.74354        -9.87121        -8.18242         2.91399         5.97718         2.25371     33.1692E-03    -16.4918E-03    -16.6774E-03    -16.5619E-03     33.1570E-03    -16.5951E-03     1.48067E-03     2.52110E+06    -3.33579E+06    -199.401E+06    -1.04321E+06    -199.354E+06     181.845E+03     325.249E+03         22.4604
             648     16.7458E-03     33.5644E-03     455.854E-03     230.297E-03    -82.1638E-03    -69.6140E-03     392.717E-03     280.884E-03     100.797E-03     310.315E-03    -16.6231E-03    -293.692E-03    -69.3452E-03     85.9683E-03    -16.6231E-03     582.444E-03     157.675E+06     108.413E+06    -10.3511E+06    -9.87286E+06     157.197E+06     108.413E+06     871.082E+03         70.9283
             649     15.7450E-03     33.0751E-03     429.499E-03     309.031E-03    -90.0927E-03     247.075E-03     41.7439E-03     359.618E-03    -216.581E-03     146.694E-03    -16.2389E-03    -130.455E-03    -28.8468E-03     45.0857E-03    -16.2389E-03     264.045E-03     115.947E+06     24.9956E+06    -14.0656E+06    -13.7584E+06     115.639E+06     24.9956E+06     2.13799E+06         60.8481
             650     14.7665E-03     32.9823E-03     763.159E-03     381.001E-03    -480.128E-03     563.303E-03    -280.271E-03     381.001E-03    -911.662E-03     48.3634E-03    -15.8765E-03    -32.4869E-03    -17.0953E-03     32.9718E-03    -15.8765E-03     61.4340E-03     70.5158E+06    -10.3817E+06    -46.6229E+06    -11.5465E+06     70.4343E+06    -45.3766E+06    -773.293E+03         49.0571
             651     13.7793E-03     32.9465E-03         1.12797     365.778E-03    -823.726E-03     821.092E-03    -516.845E-03     365.778E-03        -1.41956     34.5848E-03    -15.7253E-03    -18.8595E-03    -15.0325E-03     30.7578E-03    -15.7253E-03     27.1656E-03     31.8900E+06    -7.40557E+06    -70.3819E+06    -7.39052E+06     31.8749E+06    -70.3819E+06    -514.269E+03         38.7963
             652     12.7940E-03     32.9238E-03         1.27822     328.284E-03    -933.192E-03     985.000E-03    -639.969E-03     328.284E-03        -1.49532     33.0857E-03    -15.8741E-03    -17.2117E-03    -15.4430E-03     31.3170E-03    -15.8741E-03     17.9416E-03     4.23944E+06    -24.7021E+06    -54.7483E+06    -5.23816E+06    -15.9132E+06    -54.0596E+06     1.92912E+03         31.5699
             653     11.8093E-03     32.9091E-03         1.34513     272.380E-03    -939.609E-03         1.07787    -672.351E-03     272.380E-03        -1.46851     32.3052E-03    -16.0421E-03    -16.2630E-03    -15.5761E-03     31.6182E-03    -16.0421E-03     11.3149E-03    -4.51020E+06    -37.4614E+06    -67.8509E+06    -4.71205E+06    -66.2729E+06    -38.8376E+06     980.947E+03         27.2737
             654     10.8241E-03     32.8996E-03         1.30523     200.702E-03    -823.249E-03         1.09250    -610.525E-03     200.702E-03        -1.26709     32.6350E-03    -16.1921E-03    -16.4429E-03    -15.9062E-03     32.0984E-03    -16.1921E-03     10.1810E-03    -2.12952E+06    -22.7488E+06    -96.0494E+06    -2.16431E+06    -96.0146E+06    -22.7488E+06     621.736E+03         25.0183
             655     9.84035E-03     32.8879E-03         1.10786     116.936E-03    -536.141E-03         1.03242    -460.700E-03     116.936E-03    -571.789E-03     32.8894E-03    -16.2909E-03    -16.5985E-03    -16.0683E-03     32.3593E-03    -16.2909E-03     10.1603E-03     575.407E+03    -13.8323E+06    -116.824E+06     561.651E+03    -116.810E+06    -13.8323E+06    -121.531E+03         23.9141
             656     8.85558E-03     32.8783E-03         1.13969     24.2315E-03    -467.259E-03     916.750E-03    -244.323E-03     24.2315E-03     728.809E-03     32.9878E-03    -16.3871E-03    -16.6007E-03    -16.1708E-03     32.5579E-03    -16.3871E-03     9.17141E-03     1.91201E+06    -7.46454E+06    -141.450E+06     1.88998E+06    -141.428E+06    -7.46454E+06     1.05665E+06         23.3696
             657     7.87143E-03     32.8687E-03         1.31549    -73.1562E-03    -540.540E-03     734.753E-03     40.1931E-03    -73.1562E-03         1.68381     33.1534E-03    -16.4733E-03    -16.6801E-03    -16.3030E-03     32.7763E-03    -16.4733E-03     8.62907E-03     3.14413E+06    -1.41221E+06    -160.899E+06     3.12626E+06    -160.881E+06    -1.41221E+06     1.39087E+06         23.0739
             658     6.88743E-03     32.8603E-03         1.58861    -169.293E-03    -711.808E-03     508.316E-03     368.491E-03    -169.293E-03         2.25358     33.2745E-03    -16.5162E-03    -16.7583E-03    -16.4290E-03     32.9452E-03    -16.5162E-03     8.07266E-03     4.11273E+06     476.297E+03    -170.274E+06     4.10772E+06    -170.269E+06     476.297E+03     547.922E+03         22.8880
             659     5.90324E-03     32.8522E-03         1.56299    -196.078E-03    -652.305E-03     306.441E-03     670.548E-03    -262.381E-03         2.05346     33.2640E-03    -16.5614E-03    -16.7026E-03    -16.4441E-03     33.0055E-03    -16.5614E-03     7.14949E-03     4.60179E+06     2.75951E+06    -179.467E+06     4.41962E+06    -179.460E+06     2.93438E+06     742.281E+03         22.7557
             660     4.91947E-03     32.8454E-03         1.75790    -287.867E-03    -749.689E-03     115.604E-03     958.914E-03    -354.170E-03         2.24918     33.2508E-03    -16.6005E-03    -16.6502E-03    -16.4461E-03     33.0467E-03    -16.6005E-03     6.36092E-03     5.02640E+06     2.86973E+06    -187.150E+06     4.84369E+06    -187.142E+06     3.04460E+06     1.17442E+06         22.6558
             661     3.93524E-03     32.8392E-03         1.83711    -307.333E-03    -796.605E-03    -68.0777E-03         1.24719    -445.944E-03         1.24659     33.3767E-03    -16.6347E-03    -16.7420E-03    -16.5953E-03     33.2300E-03    -16.6347E-03     5.36244E-03     5.20079E+06     2.82775E+06    -193.683E+06     4.76013E+06    -193.670E+06     3.25581E+06     513.119E+03         22.5795
             662     2.95153E-03     32.8344E-03         2.01847    -397.496E-03    -877.274E-03    -265.626E-03         1.54544    -536.107E-03         1.28040     33.3920E-03    -16.6298E-03    -16.7622E-03    -16.6521E-03     33.3083E-03    -16.6562E-03     4.04617E-03     5.47930E+06     3.53354E+06    -197.028E+06     3.79153E+06    -197.004E+06     5.19744E+06     681.585E+03         22.5229
             663     1.96780E-03     32.8309E-03         3.51293    -623.225E-03        -2.14277    -448.139E-03         1.81830    -623.225E-03        -1.91700     33.3092E-03    -16.6110E-03    -16.6982E-03    -16.5963E-03     33.2684E-03    -16.6720E-03     2.77249E-03     6.16767E+06     2.79757E+06    -196.851E+06     2.80285E+06    -196.826E+06     6.13749E+06     753.948E+03         22.4838
             664     983.099E-06     32.8290E-03         9.38596         1.72618        -10.3683        -8.17041         2.08066         6.83363         2.61678     33.3418E-03    -16.5172E-03    -16.8246E-03    -16.7770E-03     33.3288E-03    -16.5518E-03     1.37001E-03     3.94194E+06    -321.057E+03    -198.750E+06    -221.827E+03    -198.677E+06     3.77009E+06     212.520E+03         22.4608
             665     16.7090E-03     32.4967E-03     530.736E-03     312.008E-03    -148.709E-03    -140.494E-03     424.658E-03     409.872E-03     89.9296E-03     309.743E-03    -17.0111E-03    -292.732E-03    -71.7656E-03     88.7767E-03    -17.0111E-03     580.522E-03     162.003E+06     112.847E+06    -7.23139E+06    -6.38581E+06     161.157E+06     112.847E+06     1.82637E+06         70.6510
             666     15.7571E-03     32.0452E-03     501.074E-03     366.387E-03    -134.155E-03     161.567E-03     81.7335E-03     490.006E-03    -273.286E-03     141.734E-03    -16.3500E-03    -125.384E-03    -33.8935E-03     50.2435E-03    -16.3500E-03     252.908E-03     120.266E+06     35.3703E+06    -12.8512E+06    -9.20720E+06     119.845E+06     32.1470E+06     1.00680E+06         60.7172
             667     14.7638E-03     31.9496E-03     718.217E-03     496.881E-03    -467.476E-03     444.547E-03    -219.561E-03     522.636E-03    -943.837E-03     48.5924E-03    -15.8009E-03    -32.7915E-03    -14.6704E-03     30.4712E-03    -15.8009E-03     64.5379E-03     69.3493E+06    -10.1337E+06    -48.8610E+06    -10.4428E+06     69.2468E+06    -48.4495E+06    -57.3500E+03         49.0815
             668     13.7792E-03     31.9163E-03         1.01391     526.478E-03    -790.898E-03     667.934E-03    -444.924E-03     526.478E-03        -1.41327     35.3316E-03    -15.7501E-03    -19.5815E-03    -15.2233E-03     30.9734E-03    -15.7501E-03     29.4523E-03     30.7348E+06    -10.5310E+06    -70.4478E+06    -10.3625E+06     30.5663E+06    -70.4478E+06     1.04956E+06         38.8555
             669     12.7939E-03     31.8909E-03         1.15134     512.620E-03    -914.239E-03     839.224E-03    -602.118E-03     512.620E-03        -1.46833     33.4143E-03    -15.8969E-03    -17.5175E-03    -15.3990E-03     31.2958E-03    -15.8969E-03     19.4602E-03     4.76215E+06    -27.7250E+06    -54.1455E+06    -6.92849E+06    -16.7231E+06    -53.4569E+06     1.83209E+06         31.6370
             670     11.8088E-03     31.8783E-03         1.22151     483.379E-03    -952.056E-03     951.497E-03    -682.046E-03     483.379E-03        -1.43274     32.5833E-03    -16.0416E-03    -16.5416E-03    -15.7555E-03     31.7972E-03    -16.0416E-03     12.2573E-03    -2.51899E+06    -39.5560E+06    -66.8050E+06    -2.63824E+06    -65.7781E+06    -40.4636E+06     786.971E+03         27.3249
             671     10.8245E-03     31.8666E-03         1.21332     440.469E-03    -897.505E-03         1.00958    -693.760E-03     440.469E-03        -1.22913     32.6909E-03    -16.1917E-03    -16.4992E-03    -15.8742E-03     32.0658E-03    -16.1917E-03     11.0112E-03     580.904E+03    -23.4781E+06    -95.5727E+06     561.104E+03    -95.5529E+06    -23.4781E+06     196.644E+03         25.0501
             672     9.83958E-03     31.8563E-03         1.06519     386.656E-03    -690.614E-03     999.027E-03    -624.456E-03     386.656E-03    -540.675E-03     32.9552E-03    -16.3020E-03    -16.6532E-03    -16.0734E-03     32.3754E-03    -16.3020E-03     10.6545E-03     680.741E+03    -14.1603E+06    -117.873E+06     652.644E+03    -117.845E+06    -14.1603E+06     972.967E+03         23.9318
             673     8.85569E-03     31.8454E-03         1.10748     326.267E-03    -666.236E-03     913.834E-03    -472.594E-03     326.267E-03     739.052E-03     33.0649E-03    -16.3850E-03    -16.6799E-03    -16.2021E-03     32.5871E-03    -16.3850E-03     9.68060E-03     1.04970E+06    -10.2359E+06    -141.648E+06     1.03883E+06    -141.637E+06    -10.2359E+06     1.10433E+06         23.3792
             674     7.87141E-03     31.8369E-03         1.26532     262.619E-03    -757.272E-03     806.733E-03    -298.690E-03     262.619E-03         1.67480     33.1963E-03    -16.4659E-03    -16.7304E-03    -16.3241E-03     32.7900E-03    -16.4659E-03     8.96484E-03     2.37526E+06    -4.40108E+06    -159.719E+06     2.37196E+06    -159.715E+06    -4.40108E+06     560.015E+03         23.0797
             675     6.88713E-03     31.8272E-03         1.52293     196.163E-03    -943.050E-03     693.859E-03    -113.984E-03     196.163E-03         2.28025     33.2479E-03    -16.5182E-03    -16.7297E-03    -16.3799E-03     32.8980E-03    -16.5182E-03     8.31448E-03     2.83833E+06    -1.86441E+06    -170.168E+06     2.83639E+06    -170.166E+06    -1.86441E+06    -72.7500E+03         22.8920
             676     5.90348E-03     31.8199E-03         1.42392     128.811E-03    -770.248E-03     546.780E-03     106.894E-03     128.811E-03         2.09932     33.2936E-03    -16.5719E-03    -16.7217E-03    -16.4476E-03     33.0195E-03    -16.5719E-03     7.36649E-03     4.15585E+06     1.07163E+06    -180.557E+06     4.15110E+06    -180.552E+06     1.07163E+06     298.791E+03         22.7591
             677     4.91904E-03     31.8128E-03         1.57254     65.9875E-03    -850.084E-03     374.690E-03     347.768E-03     65.9875E-03         2.35965     33.3484E-03    -16.6205E-03    -16.7279E-03    -16.5117E-03     33.1322E-03    -16.6205E-03     6.55494E-03     5.44987E+06     3.84099E+06    -186.802E+06     5.05732E+06    -186.790E+06     4.22063E+06     1.44856E+06         22.6587
             678     3.93529E-03     31.8065E-03         1.46830     53.6617E-03    -720.497E-03     222.908E-03     567.159E-03     11.4021E-03         1.32751     33.3541E-03    -16.6035E-03    -16.7507E-03    -16.5380E-03     33.1983E-03    -16.6603E-03     5.53791E-03     5.41639E+06     3.83330E+06    -192.629E+06     4.38644E+06    -192.615E+06     4.84954E+06     1.55907E+06         22.5822
             679     2.95147E-03     31.8013E-03         1.58201     10.7347E-03    -779.392E-03     81.8097E-03     763.065E-03    -31.5250E-03         1.43944     33.4154E-03    -16.6143E-03    -16.8011E-03    -16.6267E-03     33.3242E-03    -16.6975E-03     4.21438E-03     6.22069E+06     3.51446E+06    -197.072E+06     3.79138E+06    -197.067E+06     5.93884E+06     665.694E+03         22.5253
             680     1.96731E-03     31.7985E-03         3.23041    -63.4830E-03        -2.34860    -3.47749E-03     885.288E-03    -63.4830E-03        -1.91389     33.4933E-03    -16.6494E-03    -16.8439E-03    -16.7614E-03     33.4526E-03    -16.6912E-03     2.73534E-03     8.86802E+06     2.78731E+06    -195.738E+06     2.78062E+06    -195.731E+06     8.86802E+06     155.529E+03         22.4862
             681     984.438E-06     31.7954E-03         9.90586         1.65748        -10.7366        -7.93280     982.233E-03         7.77732         3.01053     33.2680E-03    -16.3852E-03    -16.8828E-03    -16.7146E-03     33.2583E-03    -16.5437E-03     1.11509E-03     4.70750E+06    -334.496E+03    -197.512E+06     379.065E+03    -197.476E+06     3.95844E+06    -471.919E+03         22.4633
             682     16.7274E-03     31.4094E-03     608.966E-03     395.311E-03    -224.139E-03    -222.211E-03     485.959E-03     516.389E-03     12.4942E-03     310.557E-03    -16.7629E-03    -293.794E-03    -74.6938E-03     91.4567E-03    -16.7629E-03     579.845E-03     160.838E+06     109.135E+06    -5.53828E+06    -5.06442E+06     160.365E+06     109.135E+06    -291.000E+03         70.4816
             683     15.7508E-03     31.0262E-03     600.751E-03     388.278E-03    -168.924E-03     43.4212E-03     175.933E-03     600.751E-03    -354.136E-03     132.783E-03    -16.2809E-03    -116.502E-03    -25.9042E-03     42.1851E-03    -16.2809E-03     238.474E-03     118.217E+06     33.0021E+06    -14.0862E+06    -10.6985E+06     118.053E+06     29.7789E+06    -711.787E+03         60.6807
             684     14.7619E-03     30.9148E-03     712.624E-03     555.429E-03    -439.305E-03     274.874E-03    -92.9493E-03     646.823E-03    -972.755E-03     50.9386E-03    -15.9125E-03    -35.0261E-03    -15.1185E-03     31.0311E-03    -15.9125E-03     68.4994E-03     69.3229E+06    -8.12679E+06    -50.9671E+06    -13.6069E+06     69.1470E+06    -45.3112E+06     3.07814E+06         49.1171
             685     13.7775E-03     30.8856E-03     893.064E-03     672.402E-03    -740.274E-03     462.065E-03    -309.276E-03     672.402E-03        -1.42642     35.2909E-03    -15.8406E-03    -19.4503E-03    -15.4115E-03     31.2521E-03    -15.8406E-03     28.5787E-03     30.4089E+06    -11.8162E+06    -69.2218E+06    -11.2945E+06     29.8873E+06    -69.2218E+06     1.29860E+06         38.9349
             686     12.7918E-03     30.8585E-03     997.871E-03     685.538E-03    -861.139E-03     629.442E-03    -492.711E-03     685.538E-03        -1.46229     33.8309E-03    -15.9677E-03    -17.8632E-03    -15.5955E-03     31.5632E-03    -15.9677E-03     20.1157E-03     4.70622E+06    -27.5406E+06    -53.5682E+06    -6.32383E+06    -16.5106E+06    -53.5682E+06     414.722E+03         31.7196
             687     11.8084E-03     30.8457E-03         1.05662     687.003E-03    -920.291E-03     768.301E-03    -631.971E-03     687.003E-03        -1.39171     32.8569E-03    -16.0948E-03    -16.7621E-03    -15.9600E-03     32.0549E-03    -16.0948E-03     12.4900E-03    -2.16407E+06    -39.2245E+06    -67.4424E+06    -2.21146E+06    -64.8119E+06    -41.8076E+06     280.427E+03         27.3879
             688     10.8235E-03     30.8350E-03         1.04177     678.581E-03    -895.155E-03     842.033E-03    -695.413E-03     678.581E-03        -1.15470     32.9512E-03    -16.2398E-03    -16.7114E-03    -16.0295E-03     32.2693E-03    -16.2398E-03     11.5562E-03    -317.016E+03    -24.7814E+06    -96.8242E+06    -340.314E+03    -96.8009E+06    -24.7814E+06     981.465E+03         25.0905
             689     9.83960E-03     30.8232E-03     923.920E-03     654.107E-03    -749.182E-03     854.984E-03    -690.443E-03     664.304E-03    -472.942E-03     33.0867E-03    -16.3509E-03    -16.7357E-03    -16.1284E-03     32.4794E-03    -16.3509E-03     10.9219E-03     1.06829E+06    -13.7587E+06    -118.402E+06     1.02715E+06    -118.361E+06    -13.7587E+06     2.18557E+06         23.9555
             690     8.85496E-03     30.8137E-03         1.03235     636.338E-03    -834.053E-03     848.153E-03    -660.052E-03     646.535E-03     767.006E-03     33.2161E-03    -16.4287E-03    -16.7874E-03    -16.2815E-03     32.7102E-03    -16.4287E-03     9.99501E-03     1.66620E+06    -9.94377E+06     -140.77E+06     1.64654E+06    -140.750E+06    -9.94377E+06     1.37193E+06         23.3934
             691     7.87108E-03     30.8035E-03         1.21580     624.638E-03        -1.00326     846.417E-03    -633.877E-03     624.638E-03         1.64565     33.3344E-03    -16.5006E-03    -16.8338E-03    -16.3982E-03     32.8988E-03    -16.5006E-03     9.30266E-03     2.16039E+06    -5.26781E+06    -158.687E+06     2.15887E+06    -158.685E+06    -5.26781E+06     350.239E+03         23.0889
             692     6.88729E-03     30.7954E-03         1.46220     596.659E-03        -1.21687     840.659E-03    -595.337E-03     596.659E-03         2.22479     33.3362E-03    -16.5610E-03    -16.7751E-03    -16.4091E-03     32.9701E-03    -16.5610E-03     8.51153E-03     2.99108E+06    -1.14971E+06    -170.302E+06     2.98862E+06    -170.299E+06    -1.14971E+06     256.030E+03         22.8989
             693     5.90257E-03     30.7868E-03         1.37224     563.466E-03        -1.08666     792.875E-03    -507.292E-03     563.466E-03         2.01864     33.3904E-03    -16.6088E-03    -16.7816E-03    -16.4942E-03     33.1030E-03    -16.6088E-03     7.55874E-03     2.61074E+06     32.6477E+03    -181.289E+06     2.60763E+06    -181.286E+06     32.6477E+03     473.823E+03         22.7648
             694     4.91927E-03     30.7802E-03         1.50110     531.993E-03        -1.17953     688.275E-03    -366.702E-03     531.993E-03         2.32985     33.4878E-03    -16.6508E-03    -16.8370E-03    -16.6156E-03     33.2664E-03    -16.6508E-03     6.63938E-03     4.45753E+06     1.91833E+06    -187.152E+06     2.73651E+06    -187.144E+06     3.63126E+06     773.135E+03         22.6639
             695     3.93525E-03     30.7735E-03         1.34741     509.876E-03    -991.445E-03     585.908E-03    -229.943E-03     509.876E-03         1.32898     33.4123E-03    -16.6309E-03    -16.7814E-03    -16.5748E-03     33.2625E-03    -16.6877E-03     5.42949E-03     6.53055E+06     3.21778E+06    -192.401E+06     3.20557E+06    -192.389E+06     6.53055E+06     1.18711E+06         22.5868
             696     2.95086E-03     30.7692E-03         1.45836     501.468E-03        -1.08133     510.458E-03    -133.424E-03     501.468E-03         1.55788     33.4143E-03    -16.6201E-03    -16.7942E-03    -16.6103E-03     33.3242E-03    -16.7139E-03     4.20730E-03     5.82898E+06     2.36490E+06    -195.338E+06     2.35812E+06    -195.331E+06     5.82898E+06     457.626E+03         22.5296
             697     1.96788E-03     30.7643E-03         3.09400     501.970E-03        -2.72007     502.015E-03    -128.084E-03     501.970E-03        -1.88616     33.4718E-03    -16.5994E-03    -16.8725E-03    -16.7060E-03     33.4258E-03    -16.7198E-03     2.93448E-03     5.35928E+06     1.05971E+06    -195.612E+06     1.30185E+06    -195.607E+06      5.1128E+06    -686.250E+03         22.4901
             698     983.809E-06     30.7637E-03         10.3874         1.64854        -11.1404        -7.61941    -111.756E-03         8.62673         3.46625     33.4072E-03    -16.4937E-03    -16.9135E-03    -16.6738E-03     33.3940E-03    -16.7202E-03     1.34471E-03     3.52790E+06    -675.206E+03    -197.119E+06     1.32611E+06    -197.106E+06     1.51364E+06     556.749E+03         22.4668
             699     16.7619E-03     30.4124E-03     695.890E-03     509.225E-03    -333.052E-03    -332.241E-03     602.586E-03     601.718E-03    -10.2539E-03     311.914E-03    -16.3927E-03    -295.521E-03    -73.6354E-03     90.0281E-03    -16.3927E-03     583.005E-03     155.514E+06     105.417E+06    -10.0118E+06    -9.90690E+06     155.409E+06     105.417E+06    -1.44643E+06         70.4599
             700     15.7451E-03     29.9925E-03     690.218E-03     460.877E-03    -247.147E-03    -136.166E-03     349.896E-03     690.218E-03    -327.894E-03     136.503E-03    -16.1614E-03    -120.342E-03    -20.7279E-03     36.8893E-03    -16.1614E-03     248.221E-03     113.882E+06     24.9825E+06    -16.1013E+06    -15.2539E+06     113.811E+06     24.2060E+06     832.628E+03         60.7333
             701     14.7631E-03     29.8831E-03     758.013E-03     577.338E-03    -431.926E-03     43.9280E-03     106.923E-03     752.574E-03    -945.188E-03     50.7592E-03    -16.0126E-03    -34.7465E-03    -16.1864E-03     32.1990E-03    -16.0126E-03     67.4896E-03     69.7589E+06    -9.44835E+06     -48.687E+06    -14.9309E+06     69.5854E+06    -43.0310E+06     766.014E+03         49.1912
             702     13.7765E-03     29.8535E-03     847.188E-03     735.759E-03    -685.412E-03     224.881E-03    -128.883E-03     801.537E-03        -1.39732     35.1508E-03    -15.9114E-03    -19.2394E-03    -15.1146E-03     31.0260E-03    -15.9114E-03     28.6538E-03     32.6658E+06    -9.91106E+06    -66.9122E+06    -9.19803E+06     31.9528E+06    -66.9122E+06     836.940E+03         39.0479
             703     12.7924E-03     29.8262E-03     915.171E-03     760.941E-03    -785.309E-03     384.517E-03    -336.555E-03     842.841E-03        -1.42415     33.9217E-03    -16.0509E-03    -17.8709E-03    -15.6022E-03     31.6531E-03    -16.0509E-03     20.3868E-03     3.95959E+06    -27.2960E+06    -53.2721E+06    -6.40534E+06    -16.9311E+06    -53.2721E+06     298.611E+03         31.8219
             704     11.8065E-03     29.8136E-03     968.891E-03     770.811E-03    -850.782E-03     521.469E-03    -510.346E-03     877.798E-03        -1.35216     32.9935E-03    -16.1923E-03    -16.8011E-03    -15.9266E-03     32.1190E-03    -16.1923E-03     12.9834E-03    -3.95289E+06    -39.0665E+06    -67.7276E+06    -4.08351E+06    -65.8158E+06    -40.8476E+06     944.755E+03         27.4622
             705     10.8232E-03     29.8020E-03     981.136E-03     757.200E-03    -849.286E-03     607.187E-03    -626.772E-03     908.634E-03        -1.10367     33.2932E-03    -16.3301E-03    -16.9631E-03    -16.2482E-03     32.5783E-03    -16.3301E-03     11.8991E-03    -1.80100E+06    -24.6093E+06    -97.4418E+06    -1.86317E+06    -97.3796E+06    -24.6093E+06     1.54094E+06         25.1374
             706     9.83844E-03     29.7914E-03     952.348E-03     708.821E-03    -770.338E-03     661.470E-03    -709.460E-03     938.821E-03    -427.046E-03     33.3764E-03    -16.4263E-03    -16.9502E-03    -16.2987E-03     32.7249E-03    -16.4263E-03     11.3561E-03     297.228E+03    -13.9300E+06    -118.497E+06     268.267E+03    -118.468E+06    -13.9300E+06     1.68355E+06         23.9835
             707     8.85476E-03     29.7803E-03         1.05908     811.442E-03    -974.856E-03     738.980E-03    -811.662E-03     968.350E-03     791.056E-03     33.4171E-03    -16.5028E-03    -16.9143E-03    -16.3836E-03     32.8864E-03    -16.5028E-03     10.2699E-03     2.24539E+06    -8.17921E+06    -139.282E+06     2.22377E+06     -139.26E+06    -8.17921E+06     1.52170E+06         23.4102
             708     7.87047E-03     29.7717E-03         1.18470     952.419E-03        -1.23899     825.423E-03    -922.133E-03     994.830E-03         1.61448     33.4693E-03    -16.5753E-03    -16.8940E-03    -16.4408E-03     33.0161E-03    -16.5753E-03     9.50172E-03     3.11944E+06    -3.59554E+06    -158.438E+06     3.11674E+06    -158.435E+06    -3.59554E+06     609.175E+03         23.1000
             709     6.88630E-03     29.7619E-03         1.41517         1.00041        -1.51232     902.535E-03        -1.01623         1.01695         2.16066     33.5510E-03    -16.6399E-03    -16.9110E-03    -16.5314E-03     33.1713E-03    -16.6399E-03     8.69992E-03      3.8261E+06     449.755E+03    -171.035E+06     3.03719E+06    -171.031E+06     1.23508E+06     715.194E+03         22.9072
             710     5.90308E-03     29.7549E-03         1.41198         1.01495        -1.51745     977.504E-03        -1.10132         1.03328         1.91945     33.6324E-03    -16.6796E-03    -16.9527E-03    -16.6468E-03     33.3264E-03    -16.6796E-03     7.82884E-03     4.18954E+06     2.92022E+06    -180.866E+06     3.28940E+06    -180.862E+06     3.81700E+06     663.098E+03         22.7718
             711     4.91867E-03     29.7465E-03         1.56963         1.02579        -1.68291         1.01732        -1.14893         1.04413         2.23332     33.6343E-03    -16.6927E-03    -16.9415E-03    -16.7139E-03     33.4067E-03    -16.6927E-03     6.73338E-03     4.79578E+06     2.97457E+06    -187.371E+06     3.34932E+06    -187.369E+06     4.41932E+06     313.570E+03         22.6702
             712     3.93512E-03     29.7415E-03         1.55792         1.05021        -1.68292         1.04906        -1.17407         1.05021         1.19481     33.5862E-03    -16.6967E-03    -16.8895E-03    -16.7407E-03     33.4374E-03    -16.6967E-03     5.43811E-03     5.65720E+06     2.29335E+06    -192.435E+06     2.46286E+06    -192.429E+06     5.48144E+06     329.511E+03         22.5926
             713     2.95194E-03     29.7354E-03         1.73350         1.04932        -1.84392         1.07201        -1.18244         1.04932         1.55702     33.3803E-03    -16.5973E-03    -16.7830E-03    -16.5884E-03     33.2872E-03    -16.6989E-03     4.27333E-03     5.43752E+06     1.38733E+06    -193.496E+06     2.72289E+06    -193.476E+06     4.08155E+06     699.989E+03         22.5347
             714     1.96702E-03     29.7326E-03         3.18742         1.04072        -3.28834         1.06833        -1.16925         1.04072        -1.93828     33.3115E-03    -16.5231E-03    -16.7885E-03    -16.4757E-03     33.2641E-03    -16.7885E-03     2.96465E-03     4.98240E+06    -347.989E+03    -194.979E+06     1.23016E+06    -194.955E+06     3.37995E+06    -246.438E+03         22.4945
             715     983.105E-06     29.7295E-03         10.8580         1.69717        -11.5797        -7.26051        -1.09767         9.33369         3.82337     33.7171E-03    -16.6410E-03    -17.0761E-03    -16.7234E-03     33.7020E-03    -16.9787E-03     1.53464E-03     2.67057E+06    -2.91742E+06    -199.477E+06    -1.52534E+06    -199.462E+06     1.26370E+06    -171.570E+03         22.4707
             716     16.7311E-03     29.4019E-03     804.749E-03     632.155E-03    -476.204E-03    -476.042E-03     771.312E-03     665.429E-03     22.2130E-03     309.081E-03    -16.7032E-03    -292.378E-03    -69.7344E-03     86.4376E-03    -16.7032E-03     579.954E-03     155.838E+06     110.121E+06    -12.1665E+06    -12.0973E+06     155.769E+06     110.121E+06    -823.364E+03         70.4239
             717     15.7490E-03     28.9543E-03     769.375E-03     610.236E-03    -401.398E-03    -350.840E-03     571.460E-03     757.593E-03    -280.181E-03     141.953E-03    -16.3445E-03    -125.608E-03    -26.3809E-03     42.7254E-03    -16.3445E-03     256.852E-03     114.638E+06     27.4226E+06    -16.5147E+06    -14.4035E+06     114.575E+06     25.3748E+06    -358.011E+03         60.7714
             718     14.7615E-03     28.8551E-03     836.574E-03     631.972E-03    -493.812E-03    -212.039E-03     350.199E-03     836.574E-03    -889.261E-03     50.2107E-03    -16.0701E-03    -34.1406E-03    -15.5015E-03     31.5716E-03    -16.0701E-03     67.7154E-03     68.6509E+06    -10.6064E+06    -46.1220E+06    -10.5294E+06     68.5738E+06    -46.1220E+06    -940.641E+03         49.3102
             719     13.7755E-03     28.8193E-03     909.665E-03     725.000E-03    -671.174E-03    -53.5085E-03     107.334E-03     909.665E-03        -1.33893     35.9039E-03    -16.0359E-03    -19.8680E-03    -15.0559E-03     31.0918E-03    -16.0359E-03     30.9977E-03     30.9604E+06    -8.41042E+06    -64.3079E+06    -7.97481E+06     30.5248E+06    -64.3079E+06     1.63109E+06         39.1822
             720     12.7898E-03     28.7956E-03     981.018E-03     707.813E-03    -734.906E-03     88.4976E-03    -115.590E-03     981.018E-03        -1.38670     34.3040E-03    -16.1737E-03    -18.1303E-03    -15.7740E-03     31.9477E-03    -16.1737E-03     21.1037E-03     5.09709E+06    -26.4501E+06    -51.3680E+06    -5.29293E+06    -16.0601E+06    -51.3680E+06     2.47649E+06         31.9365
             721     11.8060E-03     28.7799E-03         1.05304     683.529E-03    -787.086E-03     202.123E-03    -305.679E-03         1.05304        -1.34664     33.3669E-03    -16.3116E-03    -17.0553E-03    -16.0856E-03     32.3971E-03    -16.3116E-03     13.7144E-03    -3.55475E+06    -37.0692E+06    -69.2290E+06    -3.82568E+06    -66.4698E+06    -39.5574E+06     1.53669E+06         27.5429
             722     10.8211E-03     28.7700E-03         1.12709     629.097E-03    -810.055E-03     325.502E-03    -506.459E-03         1.12709        -1.11469     33.5595E-03    -16.4544E-03    -17.1051E-03    -16.3790E-03     32.8334E-03    -16.4544E-03     12.0416E-03    -1.57508E+06    -21.5510E+06    -97.3961E+06    -1.64165E+06    -97.3296E+06    -21.5510E+06     1.54376E+06         25.1871
             723     9.83784E-03     28.7577E-03         1.20270     546.231E-03    -803.078E-03     468.990E-03    -725.837E-03         1.20270    -457.332E-03     33.6921E-03    -16.5340E-03    -17.1581E-03    -16.4856E-03     33.0196E-03    -16.5340E-03     11.5990E-03     662.517E+03    -12.8013E+06    -118.039E+06     633.685E+03    -118.010E+06    -12.8013E+06     570.099E+03         24.0121
             724     8.85358E-03     28.7484E-03         1.27914     764.832E-03        -1.09419     613.757E-03    -943.116E-03         1.27914     743.742E-03     33.7122E-03    -16.5980E-03    -17.1142E-03    -16.5578E-03     33.1559E-03    -16.5980E-03     10.5678E-03     3.11982E+06    -7.68335E+06    -138.891E+06     3.09632E+06    -138.867E+06    -7.68335E+06     622.743E+03         23.4269
             725     7.86993E-03     28.7379E-03         1.35565         1.05075        -1.45399     771.081E-03        -1.17432         1.35565         1.57000     33.7157E-03    -16.6723E-03    -17.0434E-03    -16.5825E-03     33.2549E-03    -16.6723E-03     9.61344E-03     3.84549E+06    -1.64116E+06    -158.977E+06     3.81940E+06    -158.951E+06    -1.64116E+06     1.71626E+06         23.1106
             726     6.88610E-03     28.7301E-03         1.51798         1.27627        -1.83605     938.052E-03        -1.41044         1.43058         2.14843     33.7317E-03    -16.7211E-03    -17.0106E-03    -16.6159E-03     33.3369E-03    -16.7211E-03     8.91346E-03     3.52675E+06     63.0684E+03    -170.483E+06     2.72016E+06    -170.462E+06     848.395E+03     1.51583E+06         22.9149
             727     5.90185E-03     28.7206E-03         1.58936         1.36374        -1.98793         1.10821        -1.64501         1.50196         1.89005     33.8741E-03    -16.7441E-03    -17.1300E-03    -16.8029E-03     33.5470E-03    -16.7441E-03     8.11264E-03     3.44359E+06     317.466E+03    -180.091E+06     2.30518E+06    -180.082E+06     1.44624E+06    -7.28316E+03         22.7782
             728     4.91885E-03     28.7146E-03         1.81467         1.44160        -2.28846         1.29620        -1.89340         1.56502         2.21177     33.8506E-03    -16.7449E-03    -17.1056E-03    -16.8728E-03     33.6177E-03    -16.7449E-03     6.84536E-03     3.22428E+06     2.30181E+06    -187.844E+06     2.86448E+06    -187.828E+06     2.64527E+06     367.968E+03         22.6759
             729     3.93506E-03     28.7071E-03         1.89949         1.60753        -2.52701         1.50744        -2.13496         1.60753         1.09822     33.6729E-03    -16.7323E-03    -16.9406E-03    -16.7834E-03     33.5158E-03    -16.7323E-03     5.59299E-03     4.15092E+06     1.82520E+06    -191.716E+06     3.24820E+06    -191.704E+06     2.71676E+06     679.214E+03         22.5979
             730     2.95092E-03     28.7037E-03         2.14310         1.62003        -2.76892         1.63622        -2.26204         1.62003         1.51898     33.5526E-03    -16.6710E-03    -16.8816E-03    -16.7227E-03     33.4583E-03    -16.7356E-03     4.30135E-03     5.74415E+06     542.333E+03    -193.880E+06     2.73262E+06    -193.860E+06     3.53303E+06     104.342E+03         22.5395
             731     1.96762E-03     28.6990E-03         3.44826         1.60749        -4.04959         1.65557        -2.25690         1.60749        -2.05399     33.4697E-03    -16.6227E-03    -16.8469E-03    -16.6533E-03     33.4241E-03    -16.7707E-03     2.91788E-03     7.15634E+06     392.277E+03    -194.365E+06     1.67684E+06    -194.294E+06     5.80037E+06     1.16454E+06         22.4987
             732     983.852E-06     28.6971E-03         11.3116         1.76031        -12.0380        -6.75637        -2.16135         9.95157         4.10595     33.5457E-03    -16.5516E-03    -16.9941E-03    -16.7213E-03     33.5300E-03    -16.8087E-03     1.67040E-03     699.764E+03    -4.27075E+06    -200.312E+06    -4.34598E+06    -200.237E+06     699.764E+03    -141.362E+03         22.4743
             733     16.7200E-03     28.3435E-03     947.479E-03     708.950E-03    -617.429E-03    -617.174E-03     947.223E-03     708.950E-03     26.9774E-03     307.274E-03    -17.0846E-03    -290.190E-03    -69.0495E-03     86.1340E-03    -17.0846E-03     576.953E-03     161.544E+06     110.942E+06    -4.84497E+06    -4.60047E+06     161.300E+06     110.942E+06     2.37001E+06         70.3791
             734     15.7455E-03     27.9246E-03     869.190E-03     760.970E-03    -581.647E-03    -548.100E-03     790.584E-03     806.028E-03    -288.486E-03     137.138E-03    -16.6499E-03    -120.488E-03    -28.6760E-03     45.3259E-03    -16.6499E-03     246.270E-03     117.933E+06     30.8868E+06    -12.8345E+06    -9.83208E+06     117.835E+06     27.9821E+06    -1.10658E+06         60.8180
             735     14.7583E-03     27.8231E-03     899.934E-03     774.659E-03    -636.065E-03    -454.332E-03     592.927E-03     899.934E-03    -874.312E-03     51.9339E-03    -16.2485E-03    -35.6854E-03    -14.9922E-03     31.2407E-03    -16.2485E-03     71.5733E-03     64.5404E+06    -10.7715E+06    -51.5355E+06    -10.6132E+06     64.3821E+06    -51.5355E+06     208.901E+03         49.4425
             736     13.7722E-03     27.7881E-03     996.630E-03     791.403E-03    -764.990E-03    -364.478E-03     390.891E-03     996.630E-03        -1.31969     37.3861E-03    -16.2221E-03    -21.1640E-03    -15.9860E-03     32.2081E-03    -16.2221E-03     32.8868E-03     28.5460E+06    -9.33462E+06    -68.7443E+06    -8.95430E+06     28.1656E+06    -68.7443E+06     3.38361E+06         39.3186
             737     12.7884E-03     27.7614E-03         1.09989     701.017E-03    -790.879E-03    -264.814E-03     174.952E-03         1.09989        -1.38101     35.0570E-03    -16.3378E-03    -18.7192E-03    -16.3039E-03     32.6417E-03    -16.3378E-03     21.6366E-03      5.4855E+06    -26.7506E+06    -51.5564E+06    -6.92542E+06    -14.3397E+06    -51.5564E+06     3.49687E+06         32.0519
             738     11.8039E-03     27.7481E-03         1.21006     594.850E-03    -802.550E-03    -128.150E-03    -79.5497E-03         1.21006        -1.35249     34.0450E-03    -16.4446E-03    -17.6003E-03    -16.5962E-03     33.0409E-03    -16.4446E-03     14.1338E-03    -3.36139E+06    -36.2472E+06    -68.8029E+06    -3.58033E+06    -65.3285E+06    -39.5027E+06     2.17139E+06         27.6220
             739     10.8207E-03     27.7359E-03         1.32611     465.689E-03    -795.336E-03     41.6247E-03    -371.272E-03         1.32611        -1.13056     33.9342E-03    -16.5646E-03    -17.3696E-03    -16.6572E-03     33.2218E-03    -16.5646E-03     12.0036E-03    -884.261E+03    -21.4168E+06    -96.7516E+06    -926.195E+03    -96.7097E+06    -21.4168E+06     502.768E+03         25.2341
             740     9.83621E-03     27.7255E-03         1.44669     356.642E-03    -810.460E-03     246.674E-03    -700.492E-03         1.44669    -501.891E-03     33.9253E-03    -16.6304E-03    -17.2950E-03    -16.6605E-03     33.2909E-03    -16.6304E-03     11.3158E-03     1.50464E+06    -13.0903E+06    -117.430E+06     1.47154E+06    -117.397E+06    -13.0903E+06    -337.598E+03         24.0377
             741     8.85276E-03     27.7144E-03         1.56944     618.538E-03        -1.19267     485.351E-03        -1.05949         1.56944     665.888E-03     33.9116E-03    -16.6859E-03    -17.2256E-03    -16.7004E-03     33.3864E-03    -16.6859E-03     10.2878E-03     3.04291E+06    -9.47075E+06    -141.022E+06     3.02597E+06    -141.005E+06    -9.47075E+06     245.922E+03         23.4407
             742     7.86897E-03     27.7056E-03         1.69209     969.562E-03        -1.66457     737.171E-03        -1.43218         1.69209         1.47799     33.9077E-03    -16.7494E-03    -17.1583E-03    -16.7175E-03     33.4670E-03    -16.7494E-03     9.43705E-03     4.36260E+06    -3.94221E+06    -159.678E+06     4.32307E+06    -159.638E+06    -3.94221E+06     2.28448E+06         23.1185
             743     6.88521E-03     27.6963E-03         1.81314         1.35716        -2.16609     995.132E-03        -1.80406         1.81314         2.10677     33.9965E-03    -16.7889E-03    -17.2076E-03    -16.8177E-03     33.6066E-03    -16.7889E-03     8.89431E-03     5.61174E+06     356.300E+03    -168.103E+06     5.57451E+06    -168.066E+06     356.300E+03     2.31591E+06         22.9201
             744     5.90181E-03     27.6883E-03         1.93023         1.55708        -2.47500         1.26282        -2.18073         1.93023         1.87682     34.0249E-03    -16.8066E-03    -17.2183E-03    -16.9091E-03     33.7158E-03    -16.8066E-03     7.89775E-03     4.92560E+06     859.983E+03    -179.871E+06     4.65903E+06    -179.836E+06     1.09198E+06     1.16607E+06         22.7821
             745     4.91805E-03     27.6800E-03         2.13424         1.77822        -2.89861         1.54562        -2.56977         2.03800         2.22607     33.9117E-03    -16.8149E-03    -17.0968E-03    -16.8756E-03     33.6905E-03    -16.8149E-03     6.68339E-03     3.53275E+06     640.317E+03    -189.061E+06     2.56611E+06    -189.019E+06     1.56417E+06     677.531E+03         22.6792
             746     3.93456E-03     27.6755E-03         2.23092         2.07191        -3.27479         1.84123        -2.93861         2.12541         1.06721     33.8354E-03    -16.8105E-03    -17.0249E-03    -16.8704E-03     33.6809E-03    -16.8105E-03     5.55546E-03     3.83227E+06     1.21761E+06    -190.924E+06     2.46081E+06    -190.908E+06     2.57387E+06     530.263E+03         22.6008
             747     2.95112E-03     27.6693E-03         2.54248         2.13185        -3.63510         2.05315        -3.19928         2.18536         1.55126     33.7963E-03    -16.8003E-03    -16.9960E-03    -16.9064E-03     33.7067E-03    -16.8003E-03     4.20431E-03     6.22973E+06     1.25895E+06    -193.489E+06     2.10533E+06    -193.480E+06     5.37458E+06     67.2267E+03         22.5422
             748     1.96758E-03     27.6668E-03         3.77143         2.21242        -4.93465         2.20055        -3.36377         2.21242        -2.14371     33.7071E-03    -16.7212E-03    -16.9859E-03    -16.9376E-03     33.6619E-03    -16.7242E-03     2.97969E-03     6.38336E+06     1.33492E+06    -195.791E+06     1.26129E+06    -195.717E+06     6.38336E+06     120.743E+03         22.5012
             749     983.718E-06     27.6635E-03         11.7090         1.87786        -12.5310        -6.06980        -3.37220         10.4979         4.42343     33.2930E-03    -16.4416E-03    -16.8514E-03    -16.8316E-03     33.2761E-03    -16.4446E-03     1.66274E-03     4.31490E+06     693.698E+03    -196.268E+06     2.17571E+06    -196.095E+06     2.65987E+06     1.40158E+06         22.4765
             750     16.7214E-03     27.2798E-03         1.10234     737.087E-03    -729.466E-03    -729.312E-03         1.10219     737.087E-03     4.67439E-03     309.869E-03    -17.0765E-03    -292.793E-03    -69.6154E-03     86.6919E-03    -17.0765E-03     581.259E-03     161.022E+06     109.928E+06    -3.69211E+06    -3.29024E+06     160.620E+06     109.928E+06     906.495E+03         70.4231
             751     15.7435E-03     26.9014E-03         1.02076     837.525E-03    -746.009E-03    -718.271E-03     990.836E-03     839.708E-03    -317.619E-03     133.318E-03    -16.8485E-03    -116.469E-03    -23.2574E-03     40.1060E-03    -16.8485E-03     240.350E-03     116.709E+06     25.8561E+06    -12.3337E+06    -9.84469E+06     115.853E+06     24.2228E+06     1.26049E+06         60.9100
             752     14.7506E-03     26.7890E-03         1.00938     917.484E-03    -833.465E-03    -696.635E-03     842.279E-03     947.755E-03    -900.215E-03     55.0933E-03    -16.5530E-03    -38.5403E-03    -16.8851E-03     33.4381E-03    -16.5530E-03     75.0796E-03     63.8189E+06    -16.6296E+06    -53.0632E+06    -16.0557E+06     63.0967E+06    -52.9149E+06     3.87200E+06         49.5530
             753     13.7694E-03     26.7533E-03         1.08227     936.012E-03    -945.264E-03    -659.774E-03     666.370E-03         1.06643        -1.33190     38.2993E-03    -16.4166E-03    -21.8827E-03    -17.3197E-03     33.7363E-03    -16.4166E-03     31.5487E-03     27.7414E+06    -14.8335E+06    -74.2058E+06    -14.5116E+06     27.4196E+06    -74.2058E+06     2.10933E+06         39.4440
             754     12.7852E-03     26.7288E-03         1.19789     788.697E-03    -930.264E-03    -574.549E-03     432.982E-03         1.19789        -1.37553     35.7641E-03    -16.4590E-03    -19.3051E-03    -17.1015E-03     33.5605E-03    -16.4590E-03     20.7355E-03     5.62808E+06    -25.9073E+06    -56.1168E+06    -6.97442E+06    -13.3048E+06    -56.1168E+06     2.07424E+06         32.1574
             755     11.8025E-03     26.7133E-03         1.34066     583.563E-03    -878.412E-03    -415.025E-03     120.176E-03         1.34066        -1.31717     34.4764E-03    -16.5227E-03    -17.9536E-03    -17.1138E-03     33.6366E-03    -16.5227E-03     12.9829E-03    -1.51428E+06    -38.0126E+06    -69.5050E+06    -1.59505E+06    -63.9351E+06    -43.5017E+06     1.51902E+06         27.6925
             756     10.8190E-03     26.7030E-03         1.49310     338.685E-03    -794.902E-03    -219.561E-03    -236.656E-03         1.49310        -1.07921     34.2072E-03    -16.6167E-03    -17.5904E-03    -16.9811E-03     33.5978E-03    -16.6167E-03     11.1307E-03     1.17883E+06    -25.1828E+06    -96.0354E+06     1.11771E+06    -95.9742E+06    -25.1828E+06     862.433E+03         25.2739
             757     9.83613E-03     26.6915E-03         1.65461     160.726E-03    -784.510E-03     15.3746E-03    -639.158E-03         1.65461    -484.989E-03     34.0906E-03    -16.6734E-03    -17.4173E-03    -16.8647E-03     33.5380E-03    -16.6734E-03     10.5961E-03     1.11179E+06    -15.9075E+06    -117.015E+06     1.06628E+06    -116.969E+06    -15.9075E+06     785.961E+03         24.0575
             758     8.85231E-03     26.6815E-03         1.82187     446.825E-03        -1.23812     322.818E-03        -1.11412         1.82187     628.825E-03     33.9570E-03    -16.7159E-03    -17.2411E-03    -16.7822E-03     33.4981E-03    -16.7159E-03     9.62398E-03     190.953E+03    -14.3979E+06    -143.330E+06     163.455E+03    -143.303E+06    -14.3979E+06     1.49080E+06         23.4495
             759     7.86859E-03     26.6721E-03         1.98902     877.265E-03        -1.83407     683.528E-03        -1.64033         1.98902         1.36356     33.9865E-03    -16.7613E-03    -17.2252E-03    -16.8376E-03     33.5988E-03    -16.7613E-03     8.87112E-03     939.940E+03    -10.2549E+06    -159.537E+06     896.079E+03    -159.494E+06    -10.2549E+06     1.43863E+06         23.1219
             760     6.88495E-03     26.6632E-03         2.15015         1.35681        -2.46776         1.07203        -2.18298         2.15015         1.97053     34.0978E-03    -16.7932E-03    -17.3046E-03    -16.9558E-03     33.7490E-03    -16.7932E-03     8.42587E-03     3.38563E+06    -4.31125E+06    -167.887E+06     3.35930E+06    -167.860E+06    -4.31125E+06     1.16183E+06         22.9209
             761     5.90175E-03     26.6541E-03         2.30009         1.68871        -2.94026         1.45599        -2.70754         2.30009         1.75215     33.9844E-03    -16.8316E-03    -17.1528E-03    -16.8818E-03     33.7134E-03    -16.8316E-03     7.39551E-03     6.37381E+06     1.18253E+06    -179.476E+06     5.39694E+06    -179.438E+06     2.12068E+06     2.48701E+06         22.7816
             762     4.91797E-03     26.6481E-03         2.45133         2.04265        -3.44130         1.77943        -3.16555         2.43880         2.14707     33.8832E-03    -16.8669E-03    -17.0163E-03    -16.8153E-03     33.6822E-03    -16.8669E-03     6.37106E-03     7.43524E+06     3.91883E+06    -187.893E+06     5.44573E+06    -187.855E+06     5.86991E+06     1.56284E+06         22.6780
             763     3.93426E-03     26.6408E-03         2.57925         2.37597        -3.88939         2.08876        -3.58965         2.56672     968.824E-03     33.9490E-03    -16.8794E-03    -17.0696E-03    -16.9263E-03     33.8057E-03    -16.8794E-03     5.35621E-03     7.88922E+06     4.94729E+06    -190.849E+06     4.93519E+06    -190.836E+06     7.88922E+06    -194.305E+03         22.5994
             764     2.95096E-03     26.6371E-03         2.93431         2.53970        -4.39406         2.37675        -3.97557         2.67876         1.60045     33.9323E-03    -16.8415E-03    -17.0908E-03    -17.0056E-03     33.8471E-03    -16.8415E-03     4.11976E-03     8.16376E+06     4.14836E+06    -193.219E+06     4.87621E+06    -193.212E+06     7.42944E+06     289.072E+03         22.5408
             765     1.96721E-03     26.6327E-03         4.09701         2.76413        -5.77232         2.63046        -4.30577         2.76413        -2.18907     33.7841E-03    -16.7368E-03    -17.0473E-03    -17.0021E-03     33.7408E-03    -16.7387E-03     2.89744E-03     7.59492E+06     1.52866E+06    -195.052E+06     2.23633E+06    -195.025E+06     6.86060E+06    -396.506E+03         22.4999
             766     984.703E-06     26.6308E-03         12.0362         2.09282        -13.0223        -5.36143        -4.49076         10.9589         4.81411     33.2842E-03    -16.4734E-03    -16.8108E-03    -16.6813E-03     33.2706E-03    -16.5893E-03     1.19698E-03     3.81263E+06    -2.86458E+06    -197.481E+06    -1.31813E+06    -197.373E+06     2.15759E+06     1.43574E+06         22.4752
             767     16.7432E-03     26.2714E-03         1.25342     754.581E-03    -833.256E-03    -833.000E-03         1.25317     754.581E-03    -12.8772E-03     314.202E-03    -17.1713E-03    -297.030E-03    -67.1087E-03     84.2801E-03    -17.1713E-03     591.169E-03     154.344E+06     102.400E+06    -9.72104E+06    -8.89152E+06     153.514E+06     102.400E+06    -1.10974E+06         70.4708
             768     15.7269E-03     25.8688E-03         1.20039     862.199E-03    -898.193E-03    -875.353E-03         1.17755     862.199E-03    -332.449E-03     138.134E-03    -17.1315E-03    -121.003E-03    -23.3096E-03     40.4411E-03    -17.1315E-03     248.435E-03     113.715E+06     23.9077E+06    -16.7796E+06    -15.4495E+06     112.384E+06     23.9077E+06     4.42930E+06         60.9545
             769     14.7511E-03     25.7508E-03         1.16876     982.378E-03        -1.01315    -908.732E-03         1.06434     982.378E-03    -884.096E-03     55.9224E-03    -16.7951E-03    -39.1273E-03    -20.1091E-03     36.9042E-03    -16.7951E-03     72.0884E-03     65.8033E+06    -12.1551E+06    -50.5526E+06    -15.5436E+06     65.0633E+06    -46.4241E+06     3.74782E+06         49.6247
             770     13.7674E-03     25.7200E-03         1.17568         1.03803        -1.10237    -884.079E-03     877.243E-03         1.11818        -1.29246     38.1925E-03    -16.5009E-03    -21.6916E-03    -18.1537E-03     34.6546E-03    -16.5009E-03     28.0405E-03     29.9840E+06    -9.91821E+06    -71.4535E+06    -9.80625E+06     29.8721E+06    -71.4535E+06     962.255E+03         39.5470
             771     12.7858E-03     25.6924E-03         1.26968     873.846E-03        -1.05347    -785.431E-03     605.811E-03         1.26968        -1.32438     35.9330E-03    -16.4800E-03    -19.4530E-03    -17.7408E-03     34.2208E-03    -16.4800E-03     18.2537E-03     5.41725E+06    -25.1024E+06    -57.3443E+06    -6.00440E+06    -13.6808E+06    -57.3443E+06    -264.958E+03         32.2439
             772     11.8029E-03     25.6804E-03         1.43597     609.827E-03    -969.352E-03    -637.679E-03     278.153E-03         1.43597        -1.25668     34.3852E-03    -16.5190E-03    -17.8662E-03    -17.2922E-03     33.8112E-03    -16.5190E-03     10.8097E-03    -1.33780E+06    -38.5682E+06    -69.6174E+06    -1.51870E+06    -64.4609E+06    -43.5438E+06     1.04357E+06         27.7486
             773     10.8195E-03     25.6684E-03         1.61675     270.698E-03    -821.974E-03    -439.655E-03    -111.622E-03         1.61675        -1.00312     34.0755E-03    -16.6000E-03    -17.4755E-03    -17.0139E-03     33.6139E-03    -16.6000E-03     9.69580E-03     579.697E+03    -25.5944E+06    -95.8698E+06     463.669E+03    -95.7538E+06    -25.5944E+06     2.20024E+06         25.3030
             774     9.83580E-03     25.6584E-03         1.81116     2.02526E-03    -755.921E-03    -184.966E-03    -568.930E-03         1.81116    -436.504E-03     34.0243E-03    -16.6708E-03    -17.3535E-03    -16.9261E-03     33.5969E-03    -16.6708E-03     9.26044E-03     588.691E+03    -12.5601E+06    -118.349E+06     410.957E+03    -118.171E+06    -12.5601E+06     3.44065E+06         24.0693
             775     8.85239E-03     25.6479E-03         2.01623     272.879E-03        -1.23331     145.888E-03        -1.10631         2.01623     618.929E-03     33.8803E-03    -16.7001E-03    -17.1802E-03    -16.8146E-03     33.5147E-03    -16.7001E-03     8.55051E-03    -526.169E+03    -11.2886E+06    -142.770E+06    -702.827E+03    -142.593E+06    -11.2886E+06     3.91895E+06         23.4519
             776     7.86890E-03     25.6390E-03         2.22415     764.012E-03        -1.93217     585.998E-03        -1.75416         2.22415         1.27707     33.9363E-03    -16.7144E-03    -17.2219E-03    -16.8791E-03     33.5934E-03    -16.7144E-03     8.34511E-03    -1.48672E+06    -11.0500E+06    -157.517E+06    -1.52742E+06    -157.477E+06    -11.0500E+06     1.49019E+06         23.1195
             777     6.88575E-03     25.6292E-03         2.42316         1.32688        -2.68645         1.09624        -2.45581         2.42316         1.83681     33.9249E-03    -16.7378E-03    -17.1871E-03    -16.8833E-03     33.6211E-03    -16.7378E-03     7.84396E-03    -720.937E+03    -7.04791E+06    -169.239E+06    -734.399E+03    -169.226E+06    -7.04791E+06     491.186E+03         22.9160
             778     5.90164E-03     25.6216E-03         2.60518         1.76694        -3.29826         1.58195        -3.11327         2.60518         1.56080     33.7953E-03    -16.7743E-03    -17.0211E-03    -16.7900E-03     33.5642E-03    -16.7743E-03     6.80445E-03     1.77773E+06    -2.23584E+06    -179.856E+06     824.681E+03    -179.841E+06    -1.29769E+06     793.946E+03         22.7753
             779     4.91811E-03     25.6140E-03         2.77105         2.21124        -3.90402         1.98457        -3.67735         2.77105         1.98332     33.7656E-03    -16.8082E-03    -16.9574E-03    -16.7825E-03     33.5907E-03    -16.8082E-03     5.93092E-03     5.15561E+06     2.82351E+06    -185.165E+06     3.88064E+06    -185.150E+06     4.08274E+06     282.144E+03         22.6709
             780     3.93457E-03     25.6083E-03         2.92274         2.62617        -4.45609         2.35299        -4.18291         2.92274     789.375E-03     33.7574E-03    -16.8229E-03    -16.9345E-03    -16.8073E-03     33.6302E-03    -16.8229E-03     5.02292E-03     6.57868E+06     3.01961E+06    -191.184E+06     4.98354E+06    -191.174E+06     4.60528E+06    -180.473E+03         22.5919
             781     2.95066E-03     25.6029E-03         3.26991         2.88872        -5.05193         2.68414        -4.63519         3.05775         1.56688     33.7998E-03    -16.8033E-03    -16.9965E-03    -16.9102E-03     33.7244E-03    -16.8142E-03     3.87609E-03     7.16564E+06     1.86098E+06    -193.556E+06     4.07111E+06    -193.551E+06     4.95044E+06     149.786E+03         22.5332
             782     1.96789E-03     25.5997E-03         4.41135         3.16796        -6.46301         2.98065        -5.03231         3.16796        -2.28276     33.6288E-03    -16.7060E-03    -16.9227E-03    -16.7922E-03     33.5918E-03    -16.7996E-03     2.62019E-03     6.98596E+06     1.36108E+06    -194.540E+06     2.35180E+06    -194.534E+06     5.98902E+06     1.02423E+06         22.4925
             783     982.931E-06     25.5979E-03         12.1992         2.43382        -13.4834        -4.73351        -5.28488         11.1680         5.23606     33.5604E-03    -16.6703E-03    -16.8901E-03    -16.6826E-03     33.5495E-03    -16.8668E-03     1.10826E-03     3.38323E+06    -2.02998E+06    -199.365E+06    -476.762E+03    -199.351E+06     1.81542E+06     1.54050E+06         22.4681
             784     16.6994E-03     25.2466E-03         1.39270     763.207E-03    -926.922E-03    -926.682E-03         1.39246     763.207E-03    -9.98859E-03     315.189E-03    -17.5223E-03    -297.667E-03    -65.1780E-03     82.7003E-03    -17.5223E-03     594.518E-03     154.645E+06     107.994E+06    -11.0958E+06    -9.88127E+06     153.431E+06     107.994E+06     1.84927E+06         70.4054
             785     15.7316E-03     24.8227E-03         1.34745     873.717E-03        -1.01623        -1.00007         1.33130     873.717E-03    -297.173E-03     140.010E-03    -17.3257E-03    -122.684E-03    -29.4951E-03     46.8208E-03    -17.3257E-03     247.872E-03     113.857E+06     31.9869E+06    -19.6421E+06    -15.4802E+06     112.750E+06     28.9320E+06     2.12696E+06         60.9041
             786     14.7502E-03     24.7160E-03         1.27801         1.00061        -1.10876        -1.03281         1.20207         1.00061    -791.829E-03     52.9489E-03    -16.7183E-03    -36.2306E-03    -21.3154E-03     38.0337E-03    -16.7183E-03     63.2766E-03     67.6795E+06    -7.80102E+06    -49.6884E+06    -11.3552E+06     67.2536E+06    -45.7082E+06     1.50446E+06         49.6599
             787     13.7697E-03     24.6824E-03         1.23127         1.08822        -1.18422        -1.01733         1.00677         1.14583        -1.18920     37.1646E-03    -16.3847E-03    -20.7799E-03    -18.0236E-03     34.4083E-03    -16.3847E-03     24.4147E-03     31.3128E+06    -7.50234E+06    -68.4358E+06    -7.32803E+06     31.1385E+06    -68.4358E+06     911.106E+03         39.6174
             788     12.7870E-03     24.6588E-03         1.31003     948.593E-03        -1.14948    -944.256E-03     743.368E-03         1.31003        -1.24001     35.1763E-03    -16.3818E-03    -18.7945E-03    -17.5384E-03     33.9202E-03    -16.3818E-03     15.4267E-03     7.22582E+06    -25.0010E+06    -51.5079E+06    -3.95006E+06    -13.8251E+06    -51.5079E+06     1.18222E+06         32.3054
             789     11.8041E-03     24.6450E-03         1.49271     662.965E-03        -1.06284    -803.299E-03     403.421E-03         1.49271        -1.20531     33.8787E-03    -16.4242E-03    -17.4545E-03    -17.0398E-03     33.4640E-03    -16.4242E-03     9.11106E-03    -2.60566E+06    -39.2906E+06    -66.9091E+06    -2.91791E+06    -66.1712E+06    -39.7163E+06     1.53336E+06         27.7868
             790     10.8207E-03     24.6361E-03         1.69315     273.627E-03    -886.779E-03    -602.546E-03    -10.6068E-03         1.69315    -981.163E-03     33.7543E-03    -16.4982E-03    -17.2560E-03    -16.8890E-03     33.3873E-03    -16.4982E-03     8.60096E-03    -1.05439E+06    -23.7192E+06    -96.8581E+06    -1.35861E+06    -96.5539E+06    -23.7192E+06     3.45147E+06         25.3199
             791     9.83744E-03     24.6236E-03         1.91019    -75.6655E-03    -763.535E-03    -331.931E-03    -507.269E-03         1.91019    -435.292E-03     33.7115E-03    -16.5726E-03    -17.1389E-03    -16.7998E-03     33.3724E-03    -16.5726E-03     8.23845E-03    -1.20146E+06    -10.1318E+06    -120.156E+06    -1.56854E+06    -119.789E+06    -10.1318E+06     5.15659E+06         24.0720
             792     8.85388E-03     24.6157E-03         2.13986     163.624E-03        -1.23549     36.3711E-03        -1.10824         2.13986     594.043E-03     33.6702E-03    -16.5935E-03    -17.0767E-03    -16.7852E-03     33.3788E-03    -16.5935E-03     7.65875E-03    -315.504E+03    -7.30259E+06    -139.984E+06    -524.583E+03    -139.775E+06    -7.30259E+06     4.56357E+06         23.4468
             793     7.86994E-03     24.6049E-03         2.37433     674.529E-03        -1.98091     505.892E-03        -1.81228         2.37433         1.22209     33.6350E-03    -16.5972E-03    -17.0377E-03    -16.7454E-03     33.3427E-03    -16.5972E-03     7.66287E-03     554.185E+03    -7.71823E+06    -155.655E+06     480.620E+03    -155.581E+06    -7.71823E+06     2.97409E+06         23.1103
             794     6.88606E-03     24.5966E-03         2.60415         1.25291        -2.78143         1.03522        -2.56375         2.60415         1.78800     33.5814E-03    -16.6196E-03    -16.9618E-03    -16.7104E-03     33.3300E-03    -16.6196E-03     7.08199E-03    -1.13852E+06    -5.72120E+06    -169.161E+06    -1.16007E+06    -169.139E+06    -5.72120E+06     1.65367E+06         22.9044
             795     5.90279E-03     24.5880E-03         2.82051         1.75645        -3.49202         1.58216        -3.31772         2.82051         1.47086     33.5102E-03    -16.6225E-03    -16.8877E-03    -16.6849E-03     33.3075E-03    -16.6225E-03     6.36204E-03    -1.68949E+06    -6.51187E+06    -178.049E+06    -1.70908E+06    -178.029E+06    -6.51187E+06    -440.384E+03         22.7623
             796     4.91899E-03     24.5814E-03         3.01551         2.30808        -4.23343         2.10930        -4.03465         3.01551         1.88593     33.4714E-03    -16.6328E-03    -16.8386E-03    -16.6816E-03     33.3144E-03    -16.6328E-03     5.58087E-03    -479.045E+03    -5.54938E+06    -185.517E+06    -496.428E+03    -185.499E+06    -5.54938E+06    -1.63710E+06         22.6569
             797     3.93494E-03     24.5750E-03         3.18092         2.85322        -4.92996         2.59188        -4.66862         3.18092     632.495E-03     33.4448E-03    -16.6502E-03    -16.7946E-03    -16.6722E-03     33.3342E-03    -16.6619E-03     4.69396E-03     2.23135E+06    -1.65097E+06    -191.926E+06     1.64341E+06    -191.920E+06    -1.06848E+06    -436.695E+03         22.5773
             798     2.95153E-03     24.5700E-03         3.53227         3.16505        -5.57682         2.96347        -5.15693         3.31395         1.51156     33.3411E-03    -16.5917E-03    -16.7494E-03    -16.5670E-03     33.2731E-03    -16.7061E-03     3.60479E-03     5.12000E+06     164.223E+03    -194.119E+06     2.71037E+06    -194.116E+06     2.57157E+06     534.947E+03         22.5183
             799     1.96684E-03     24.5665E-03         4.71473         3.40817        -6.99379         3.26764        -5.54669         3.40817        -2.44457     33.3772E-03    -16.5737E-03    -16.8035E-03    -16.5446E-03     33.3481E-03    -16.8035E-03     2.32496E-03     6.99695E+06     1.48101E+06    -194.930E+06     2.79603E+06    -194.914E+06     5.66678E+06     25.0752E+03         22.4775
             800     983.949E-06     24.5653E-03         12.1183         2.89051        -13.8461        -4.14280        -5.72453         11.0300         5.63949     33.7158E-03    -16.7736E-03    -16.9423E-03    -16.8046E-03     33.7053E-03    -16.9007E-03     1.38616E-03     5.85730E+06     942.644E+03    -198.173E+06     2.48243E+06    -198.145E+06     4.28949E+06     862.858E+03         22.4533
             801     16.7248E-03     24.2245E-03         1.48920     762.343E-03    -981.965E-03    -981.776E-03         1.48901     762.343E-03     24.0823E-03     317.077E-03    -17.3410E-03    -299.736E-03    -69.6337E-03     86.9746E-03    -17.3410E-03     596.430E-03     155.703E+06     108.618E+06    -8.52146E+06    -7.20256E+06     154.384E+06     108.618E+06     2.54605E+06         70.2610
             802     15.7332E-03     23.7761E-03         1.42070     871.381E-03        -1.06025        -1.04952         1.40997     871.381E-03    -215.139E-03     137.234E-03    -16.9876E-03    -120.246E-03    -30.5067E-03     47.4943E-03    -16.9876E-03     242.195E-03     116.902E+06     34.9965E+06    -17.4313E+06    -12.8785E+06     115.404E+06     31.9416E+06     759.319E+03         60.8226
             803     14.7592E-03     23.6808E-03         1.32032     999.015E-03        -1.13586        -1.07947         1.26392     999.015E-03    -690.042E-03     48.4603E-03    -16.3706E-03    -32.0897E-03    -19.5039E-03     35.8745E-03    -16.3706E-03     55.5142E-03     69.2836E+06    -3.75259E+06    -51.0037E+06    -11.8057E+06     68.6143E+06    -42.2813E+06    -399.473E+03         49.6643
             804     13.7738E-03     23.6480E-03         1.24738         1.10987        -1.21461        -1.08263         1.07797         1.14730        -1.08291     35.3087E-03    -16.0862E-03    -19.2225E-03    -16.7892E-03     32.8754E-03    -16.0862E-03     22.3432E-03     29.0860E+06    -7.10769E+06    -69.7560E+06    -6.95306E+06     28.9313E+06    -69.7560E+06     662.970E+03         39.6550
             805     12.7910E-03     23.6239E-03         1.31757         1.00336        -1.20791        -1.04501     840.459E-03         1.31757        -1.15317     33.8511E-03    -16.1538E-03    -17.6972E-03    -16.6066E-03     32.7605E-03    -16.1538E-03     13.8650E-03     5.06736E+06    -23.2877E+06    -51.4275E+06    -3.51377E+06    -15.6056E+06    -50.5284E+06     2.75816E+06         32.3425
             806     11.8065E-03     23.6130E-03         1.50964     717.702E-03        -1.13333    -921.960E-03     506.335E-03         1.50964        -1.14908     33.1782E-03    -16.2365E-03    -16.9416E-03    -16.6182E-03     32.8547E-03    -16.2365E-03     8.01331E-03    -1.66212E+06    -36.9033E+06    -66.1251E+06    -2.16078E+06    -65.5603E+06    -36.9696E+06     4.17699E+06         27.8086
             807     10.8230E-03     23.6012E-03         1.72142     302.456E-03    -943.547E-03    -709.338E-03     68.2479E-03         1.72142    -962.517E-03     33.2153E-03    -16.3189E-03    -16.8965E-03    -16.5915E-03     32.9104E-03    -16.3189E-03     7.78810E-03    -1.51248E+06    -23.2769E+06    -99.5281E+06    -1.96940E+06    -99.0712E+06    -23.2769E+06     4.64353E+06         25.3253
             808     9.83894E-03     23.5921E-03         1.94914    -80.0272E-03    -798.934E-03    -394.945E-03    -484.017E-03         1.94914    -462.267E-03     33.3300E-03    -16.3914E-03    -16.9387E-03    -16.6399E-03     33.0313E-03    -16.3914E-03     7.71119E-03     482.360E+03    -9.13547E+06    -119.416E+06     150.243E+03    -119.084E+06    -9.13547E+06     5.09962E+06         24.0655
             809     8.85512E-03     23.5810E-03         2.18700     140.480E-03        -1.26058     15.6530E-03        -1.13575         2.18700     549.941E-03     33.3898E-03    -16.4168E-03    -16.9730E-03    -16.7204E-03     33.1372E-03    -16.4168E-03     7.09514E-03     1.88038E+06    -4.72700E+06    -138.229E+06     715.719E+03    -138.058E+06    -3.73413E+06     4.30551E+06         23.4335
             810     7.87187E-03     23.5732E-03         2.42980     631.605E-03        -1.99377     475.442E-03        -1.83760         2.42980         1.16826     33.2644E-03    -16.4031E-03    -16.8614E-03    -16.6212E-03     33.0242E-03    -16.4031E-03     6.91263E-03     1.95172E+06    -6.33851E+06    -154.179E+06     863.436E+03    -154.083E+06    -5.34564E+06     3.60420E+06         23.0933
             811     6.88789E-03     23.5629E-03         2.67315         1.19426        -2.79245     977.215E-03        -2.57541         2.67315         1.76325     33.0946E-03    -16.4069E-03    -16.6877E-03    -16.4734E-03     32.8803E-03    -16.4069E-03     6.49820E-03     2.74467E+06    -5.26232E+06    -167.068E+06     2.70262E+06    -167.026E+06    -5.26232E+06     1.93201E+06         22.8853
             812     5.90363E-03     23.5560E-03         2.90883         1.71396        -3.53736         1.53559        -3.35899         2.90883         1.46225     33.0742E-03    -16.4305E-03    -16.6437E-03    -16.4703E-03     32.9007E-03    -16.4305E-03     5.84456E-03     4.24617E+06    -2.78289E+06    -176.265E+06     4.21667E+06    -176.235E+06    -2.78289E+06     323.866E+03         22.7417
             813     4.91959E-03     23.5480E-03         3.12489         2.31015        -4.34309         2.11013        -4.14308         3.12489         1.89544     33.1060E-03    -16.4481E-03    -16.6579E-03    -16.5153E-03     32.9634E-03    -16.4481E-03     5.28337E-03     3.39053E+06    -1.95855E+06    -185.484E+06     3.15053E+06    -185.457E+06    -1.74560E+06    -663.145E+03         22.6355
             814     3.93620E-03     23.5426E-03         3.30537         2.94793        -5.14822         2.67498        -4.87527         3.30537     563.454E-03     33.0365E-03    -16.4593E-03    -16.5771E-03    -16.4660E-03     32.9370E-03    -16.4710E-03     4.41200E-03     2.51780E+06    -460.837E+03    -193.382E+06     1.71709E+06    -193.377E+06     334.590E+03    -707.089E+03         22.5552
             815     2.95160E-03     23.5372E-03         3.69918         3.30064        -5.87770         3.12470        -5.43893         3.43635         1.51578     32.8795E-03    -16.3600E-03    -16.5195E-03    -16.3042E-03     32.8210E-03    -16.5168E-03     3.32231E-03     3.82324E+06     732.927E+03    -194.779E+06     2.64146E+06    -194.763E+06     1.89892E+06    -702.234E+03         22.4957
             816     1.96789E-03     23.5345E-03         4.93215         3.51510        -7.31208         3.40865        -5.78858         3.51510        -2.58403     33.0463E-03    -16.4211E-03    -16.6252E-03    -16.3931E-03     33.0184E-03    -16.6252E-03     2.31643E-03     7.63010E+06     2.06002E+06    -194.527E+06     3.09595E+06    -194.495E+06     6.56255E+06    -903.793E+03         22.4546
             817     983.229E-06     23.5310E-03         11.8386         3.33740        -14.0187        -3.60311        -5.92392         10.6844         5.96932     33.3259E-03    -16.5693E-03    -16.7566E-03    -16.6862E-03     33.3144E-03    -16.6283E-03     1.40284E-03     4.56542E+06    -1.28746E+06    -198.712E+06    -1.30854E+06    -198.691E+06     4.56542E+06     244.079E+03         22.4302
             818     16.7271E-03     23.1964E-03         1.53438     751.589E-03    -994.031E-03    -993.496E-03         1.53385     751.589E-03     68.3805E-03     320.864E-03    -16.7199E-03    -304.144E-03    -77.7788E-03     94.4987E-03    -16.7199E-03     600.226E-03     155.616E+06     110.058E+06    -8.17868E+06    -6.93974E+06     154.377E+06     110.058E+06     2.05127E+06         70.0669
             819     15.7535E-03     22.7414E-03         1.41945     854.802E-03        -1.04186        -1.03391         1.41150     854.802E-03    -152.883E-03     136.377E-03    -16.2780E-03    -120.099E-03    -26.6585E-03     42.9366E-03    -16.2780E-03     245.028E-03     118.283E+06     38.7092E+06    -16.1482E+06    -9.48354E+06     116.799E+06     33.5281E+06     657.822E+03         60.7402
             820     14.7628E-03     22.6460E-03         1.31172     978.709E-03        -1.11392        -1.06860         1.26640     978.709E-03    -612.660E-03     45.8512E-03    -15.8929E-03    -29.9583E-03    -15.5897E-03     31.4826E-03    -15.8929E-03     55.2028E-03     68.2993E+06    -2.63000E+06    -51.4274E+06    -10.6537E+06     67.6005E+06    -42.7049E+06    -876.215E+03         49.6464
             821     13.7800E-03     22.6163E-03         1.23679         1.09028        -1.19404        -1.08410         1.09241         1.12472    -986.656E-03     33.8225E-03    -15.7643E-03    -18.0582E-03    -15.4588E-03     31.2231E-03    -15.7643E-03     22.5707E-03     28.0530E+06    -10.0188E+06    -70.5255E+06    -9.39158E+06     27.4259E+06    -70.5255E+06     1.58671E+06         39.6670
             822     12.7930E-03     22.5914E-03         1.29308     993.655E-03        -1.18539        -1.05105     859.317E-03         1.29308        -1.04744     32.9005E-03    -15.9008E-03    -16.9997E-03    -15.7077E-03     31.6085E-03    -15.9008E-03     14.5066E-03     3.67362E+06    -24.3712E+06    -53.5556E+06    -6.56080E+06    -17.7082E+06    -49.9842E+06     3.29039E+06         32.3631
             823     11.8099E-03     22.5793E-03         1.48390     714.814E-03        -1.11741    -945.259E-03     542.659E-03         1.48390        -1.04579     32.5810E-03    -16.0192E-03    -16.5618E-03    -16.2525E-03     32.2717E-03    -16.0192E-03     7.75649E-03    -3.06190E+06    -34.2857E+06    -66.7174E+06    -3.48263E+06    -66.2966E+06    -34.2857E+06     4.95912E+06         27.8191
             824     10.8252E-03     22.5698E-03         1.69472     286.228E-03    -914.182E-03    -728.557E-03     100.603E-03         1.69472    -860.571E-03     32.7308E-03    -16.1067E-03    -16.6242E-03    -16.3379E-03     32.4446E-03    -16.1067E-03     7.49267E-03     270.119E+03    -19.3004E+06    -98.3692E+06    -114.247E+03    -97.9848E+06    -19.3004E+06     5.29086E+06         25.3212
             825     9.84140E-03     22.5581E-03         1.92012    -93.5586E-03    -769.652E-03    -397.838E-03    -465.373E-03         1.92012    -415.469E-03     32.9008E-03    -16.1649E-03    -16.7360E-03    -16.4640E-03     32.6288E-03    -16.1649E-03     7.31591E-03     1.65034E+06    -7.95481E+06    -118.959E+06     1.45921E+06    -118.768E+06    -7.95481E+06     3.77676E+06         24.0500
             826     8.85777E-03     22.5493E-03         2.15437     133.038E-03        -1.23475     11.2012E-03        -1.11291         2.15437     527.596E-03     32.9407E-03    -16.1922E-03    -16.7485E-03    -16.5196E-03     32.7118E-03    -16.1922E-03     6.72338E-03     4.34669E+06    -2.04670E+06    -137.943E+06     3.17010E+06    -137.759E+06    -1.05383E+06     4.14740E+06         23.4111
             827     7.87359E-03     22.5395E-03         2.39268     617.036E-03        -1.95668     473.044E-03        -1.81269         2.39268         1.09419     32.8549E-03    -16.1822E-03    -16.6727E-03    -16.4540E-03     32.6362E-03    -16.1822E-03     6.55800E-03     5.58223E+06    -902.506E+03    -151.750E+06      4.4846E+06    -151.645E+06     90.3620E+03     3.39944E+06         23.0674
             828     6.88963E-03     22.5317E-03         2.63009         1.18000        -2.74834     975.200E-03        -2.54354         2.63009         1.68579     32.6839E-03    -16.1668E-03    -16.5170E-03    -16.3152E-03     32.4820E-03    -16.1668E-03     6.27741E-03     5.56052E+06    -1.76666E+06    -164.777E+06     5.53364E+06    -164.750E+06    -1.76666E+06     1.14160E+06         22.8576
             829     5.90545E-03     22.5228E-03         2.86015         1.68089        -3.46916         1.50820        -3.29646         2.86015         1.37353     32.5834E-03    -16.1938E-03    -16.3896E-03    -16.2271E-03     32.4209E-03    -16.1938E-03     5.61788E-03     6.84698E+06     1.84929E+06    -176.638E+06     6.83321E+06    -176.624E+06     1.84929E+06     869.070E+03         22.7129
             830     4.92137E-03     22.5165E-03         3.07457         2.25979        -4.25420         2.04874        -4.04315         3.07457         1.86314     32.5780E-03    -16.2246E-03    -16.3534E-03    -16.2239E-03     32.4485E-03    -16.2246E-03     5.01802E-03     7.24465E+06     5.12692E+06    -184.723E+06     6.98886E+06    -184.680E+06     5.33987E+06     1.61019E+06         22.6057
             831     3.93657E-03     22.5096E-03         3.26044         2.88790        -5.05402         2.58805        -4.75416         3.26044     514.115E-03     32.5253E-03    -16.2290E-03    -16.2962E-03    -16.1909E-03     32.4371E-03    -16.2462E-03     4.08526E-03     5.99159E+06     4.10180E+06    -194.070E+06     5.25573E+06    -194.029E+06     4.79620E+06     60.4998E+03         22.5248
             832     2.95284E-03     22.5059E-03         3.68062         3.25419        -5.82504         3.03972        -5.33466         3.40472         1.55117     32.5103E-03    -16.1940E-03    -16.3163E-03    -16.1930E-03     32.4575E-03    -16.2645E-03     3.19410E-03     5.48499E+06     2.06790E+06    -193.911E+06     2.89639E+06    -193.883E+06     4.62821E+06    -1.16085E+06         22.4648
             833     1.96802E-03     22.5014E-03         4.99715         3.50120        -7.36907         3.35702        -5.72895         3.50120        -2.66137     32.5765E-03    -16.2099E-03    -16.3666E-03    -16.2703E-03     32.5461E-03    -16.2758E-03     2.34547E-03     5.86281E+06     652.281E+03    -195.436E+06     613.335E+03    -195.397E+06     5.86281E+06    -840.700E+03         22.4232
             834     984.706E-06     22.4992E-03         11.3727         3.78388        -14.0039        -3.07848        -5.92149         10.1527         6.25790     32.5022E-03    -16.1256E-03    -16.3766E-03    -16.2670E-03     32.4918E-03    -16.2247E-03     1.37700E-03     4.39961E+06    -1.91506E+06    -199.143E+06     299.383E+03    -199.122E+06     2.16454E+06    -420.337E+03         22.3985
             835     16.7558E-03     22.1653E-03         1.52080     731.004E-03    -968.347E-03    -967.219E-03         1.51967     731.004E-03     101.754E-03     317.843E-03    -16.1429E-03    -301.700E-03    -80.0396E-03     96.1825E-03    -16.1429E-03     592.382E-03     152.312E+06     109.119E+06    -10.7432E+06    -9.73114E+06     151.300E+06     109.119E+06    -3.50814E+06         69.8450
             836     15.7602E-03     21.7220E-03         1.36740     825.307E-03    -985.512E-03    -980.286E-03         1.36217     825.307E-03    -83.7382E-03     139.892E-03    -15.7034E-03    -124.189E-03    -22.6775E-03     38.3809E-03    -15.7034E-03     256.036E-03     115.325E+06     34.7614E+06    -15.6157E+06    -9.71324E+06     114.604E+06     29.5803E+06    -1.48445E+06         60.6421
             837     14.7696E-03     21.6133E-03         1.24255     941.133E-03        -1.03377    -999.621E-03         1.20841     941.133E-03    -500.875E-03     47.4919E-03    -15.5538E-03    -31.9381E-03    -13.5111E-03     29.0648E-03    -15.5538E-03     62.5680E-03     66.6238E+06    -5.02618E+06    -51.8645E+06    -9.38206E+06     65.0129E+06    -45.8976E+06     2.89657E+06         49.6074
             838     13.7816E-03     21.5861E-03         1.17148         1.03023        -1.09621        -1.00460         1.03177         1.07832    -865.313E-03     33.4626E-03    -15.5347E-03    -17.9279E-03    -14.8859E-03     30.4207E-03    -15.5347E-03     24.1216E-03     29.0291E+06    -11.3887E+06    -68.4854E+06    -9.65555E+06     27.2959E+06    -68.4854E+06     4.06903E+06         39.6683
             839     12.7976E-03     21.5590E-03         1.23567     904.251E-03        -1.06561    -955.326E-03     793.964E-03         1.23567    -905.571E-03     32.7051E-03    -15.6889E-03    -17.0162E-03    -15.4903E-03     31.1792E-03    -15.6889E-03     15.8365E-03     5.35172E+06    -25.3327E+06    -50.7183E+06    -7.35774E+06    -16.6025E+06    -46.7391E+06     3.16734E+06         32.3773
             840     11.8118E-03     21.5474E-03         1.41238     622.052E-03    -979.549E-03    -832.915E-03     475.418E-03         1.41238    -894.933E-03     32.1324E-03    -15.7944E-03    -16.3380E-03    -15.9833E-03     31.7777E-03    -15.7944E-03     8.16524E-03    -2.49737E+06    -34.1999E+06    -68.2574E+06    -2.67577E+06    -68.0790E+06    -34.1999E+06     2.79388E+06         27.8230
             841     10.8283E-03     21.5368E-03         1.60678     222.290E-03    -788.210E-03    -636.544E-03     70.6233E-03         1.60678    -718.623E-03     32.4517E-03    -15.8777E-03    -16.5740E-03    -16.2667E-03     32.1444E-03    -15.8777E-03     7.71710E-03     1.93531E+06    -17.9454E+06    -97.1758E+06     1.75903E+06    -96.9995E+06    -17.9454E+06     3.64593E+06         25.3090
             842     9.84397E-03     21.5264E-03         1.81669    -125.268E-03    -660.509E-03    -369.148E-03    -416.629E-03         1.81669    -305.594E-03     32.5127E-03    -15.9260E-03    -16.5867E-03    -16.2929E-03     32.2188E-03    -15.9260E-03     7.53834E-03     4.65199E+06    -6.13594E+06    -117.551E+06     4.49605E+06    -117.395E+06    -6.13594E+06     3.68835E+06         24.0252
             843     8.85963E-03     21.5165E-03         2.03843     114.031E-03        -1.12607    -11.7920E-03        -1.00025         2.03843     562.909E-03     32.4545E-03    -15.9453E-03    -16.5091E-03    -16.2767E-03     32.2220E-03    -15.9453E-03     6.72884E-03     5.70783E+06    -1.01092E+06    -138.274E+06     5.59030E+06    -138.157E+06    -1.01092E+06     2.80136E+06         23.3789
             844     7.87558E-03     21.5080E-03         2.26421     596.173E-03        -1.83270     450.306E-03        -1.68683         2.26421         1.03406     32.3961E-03    -15.9507E-03    -16.4454E-03    -16.2305E-03     32.1812E-03    -15.9507E-03     6.46153E-03     7.35679E+06     3.71307E+06    -150.324E+06     7.25278E+06    -150.220E+06     3.71307E+06     2.79148E+06         23.0317
             845     6.89137E-03     21.4991E-03         2.48467         1.15221        -2.60008     963.891E-03        -2.41175         2.48467         1.56987     32.2826E-03    -15.9396E-03    -16.3430E-03    -16.1522E-03     32.0918E-03    -15.9396E-03     6.07103E-03     7.44020E+06     3.49920E+06    -163.170E+06     7.07512E+06    -163.112E+06     3.80643E+06     2.57873E+06         22.8202
             846     5.90705E-03     21.4919E-03         2.69286         1.64080        -3.28486         1.47925        -3.12331         2.69286         1.20979     32.1352E-03    -15.9269E-03    -16.2082E-03    -16.0400E-03     31.9670E-03    -15.9269E-03     5.68881E-03     5.15844E+06     697.226E+03    -176.664E+06     4.81760E+06    -176.631E+06     1.00446E+06     2.02217E+06         22.6746
             847     4.92230E-03     21.4842E-03         2.88388         2.18219        -4.00719         1.96896        -3.79397         2.88388         1.72390     32.0403E-03    -15.9405E-03    -16.0998E-03    -15.9683E-03     31.9088E-03    -15.9405E-03     4.98852E-03     5.87531E+06     2.14675E+06    -184.779E+06     4.89370E+06    -184.738E+06     3.08768E+06     1.46113E+06         22.5667
             848     3.93830E-03     21.4786E-03         3.05470         2.73446        -4.71639         2.40798        -4.38991         3.05470     392.407E-03     32.0023E-03    -15.9630E-03    -16.0393E-03    -15.9390E-03     31.9192E-03    -15.9802E-03     3.95545E-03     9.00508E+06     5.91446E+06    -192.515E+06     6.20093E+06    -192.463E+06     8.66647E+06     704.871E+03         22.4850
             849     2.95313E-03     21.4737E-03         3.48829         3.05980        -5.46160         2.77504        -4.89459         3.20604         1.54626     32.0497E-03    -15.9539E-03    -16.0958E-03    -16.0241E-03     31.9952E-03    -15.9711E-03     3.21172E-03     8.23683E+06     4.79848E+06    -193.872E+06     4.77533E+06    -193.849E+06     8.23683E+06     475.027E+03         22.4243
             850     1.96961E-03     21.4699E-03         4.91736         3.32539        -7.13951         3.13101        -5.35316         3.32539        -2.70486     31.9795E-03    -15.9108E-03    -16.0686E-03    -16.0375E-03     31.9483E-03    -15.9108E-03     2.37111E-03     5.91108E+06     572.578E+03    -195.452E+06     551.973E+03    -195.432E+06     5.91108E+06    -98.3425E+03         22.3822
             851     984.420E-06     21.4674E-03         10.6852         4.20548        -13.7757        -2.62952        -5.63099         9.37550         6.52837     31.6873E-03    -15.7507E-03    -15.9366E-03    -15.8389E-03     31.6761E-03    -15.8372E-03     1.29514E-03     1.95962E+06    -5.93752E+06    -200.806E+06    -3.72335E+06    -200.786E+06    -275.442E+03    -1.00731E+06         22.3571
             852     16.7583E-03     21.1556E-03         1.45553     699.730E-03    -911.236E-03    -907.578E-03         1.45187     699.730E-03     156.369E-03     310.394E-03    -15.9547E-03    -294.439E-03    -74.8454E-03     90.8001E-03    -15.9547E-03     579.861E-03     152.957E+06     103.467E+06    -7.66995E+06    -6.93648E+06     152.224E+06     103.467E+06    -1.62761E+06         69.6214
             853     15.7576E-03     20.6937E-03         1.27325     781.359E-03    -892.192E-03    -887.395E-03         1.26845     781.359E-03     36.9163E-03     147.692E-03    -15.5856E-03    -132.106E-03    -23.3977E-03     38.9833E-03    -15.5856E-03     271.510E-03     110.559E+06     25.8064E+06    -18.5726E+06    -12.1717E+06     110.217E+06     19.7474E+06    -133.279E+03         60.5093
             854     14.7693E-03     20.5859E-03         1.11917     883.910E-03    -900.146E-03    -878.895E-03         1.09792     883.910E-03    -349.935E-03     50.4256E-03    -15.4873E-03    -34.9383E-03    -14.9319E-03     30.4192E-03    -15.4873E-03     68.8452E-03     62.2238E+06    -9.27615E+06    -56.8021E+06    -13.7792E+06       60.76E+06    -50.8352E+06     2.30937E+06         49.5502
             855     13.7841E-03     20.5529E-03         1.06011     926.000E-03    -924.487E-03    -851.882E-03     907.684E-03         1.00582    -703.611E-03     34.5466E-03    -15.4169E-03    -19.1297E-03    -15.3713E-03     30.7881E-03    -15.4169E-03     27.0856E-03     30.8896E+06    -9.04340E+06    -67.8719E+06    -6.80295E+06     28.6492E+06    -67.8719E+06     4.64519E+06         39.6692
             856     12.7987E-03     20.5284E-03         1.14384     760.203E-03    -870.461E-03    -774.576E-03     664.318E-03         1.14384    -765.853E-03     33.1332E-03    -15.5191E-03    -17.6141E-03    -15.9718E-03     31.4909E-03    -15.5191E-03     16.9257E-03     9.03261E+06    -23.7180E+06    -49.0921E+06    -2.05878E+06    -14.6722E+06    -47.0466E+06     3.28849E+06         32.3892
             857     11.8148E-03     20.5148E-03         1.29650     503.422E-03    -784.363E-03    -637.966E-03     357.024E-03         1.29650    -779.011E-03     32.0664E-03    -15.5930E-03    -16.4734E-03    -16.0355E-03     31.6285E-03    -15.5930E-03     9.05010E-03     214.739E+03    -35.4309E+06    -67.5736E+06     97.0589E+03    -67.4559E+06    -35.4309E+06     2.14543E+06         27.8212
             858     10.8300E-03     20.5053E-03         1.46369     173.262E-03    -633.341E-03    -477.103E-03     17.0241E-03         1.46369    -630.424E-03     32.2094E-03    -15.6591E-03    -16.5503E-03    -16.2126E-03     31.8718E-03    -15.6591E-03     8.07049E-03     2.73529E+06    -20.4434E+06    -97.9810E+06     2.67462E+06    -97.9204E+06    -20.4434E+06     1.58095E+06         25.2880
             859     9.84597E-03     20.4940E-03         1.64599    -97.0405E-03    -554.373E-03    -273.350E-03    -378.064E-03         1.64599    -250.389E-03     32.2417E-03    -15.7006E-03    -16.5412E-03    -16.2337E-03     31.9342E-03    -15.7006E-03     7.67134E-03     6.28466E+06    -6.71752E+06    -117.223E+06     6.19678E+06    -117.136E+06    -6.71752E+06     2.58920E+06         23.9901
             860     8.86194E-03     20.4851E-03         1.84125     157.835E-03        -1.00910     16.6349E-03    -867.895E-03         1.84125     597.567E-03     32.1198E-03    -15.7087E-03    -16.4111E-03    -16.1834E-03     31.8921E-03    -15.7087E-03     6.63031E-03     8.57453E+06    -155.590E+03    -136.548E+06     8.49138E+06    -136.465E+06    -155.590E+03     2.71508E+06         23.3359
             861     7.87746E-03     20.4760E-03         2.04266     571.182E-03        -1.62148     406.978E-03        -1.45727         2.04266         1.02511     31.9628E-03    -15.6979E-03    -16.2649E-03    -16.0598E-03     31.7576E-03    -15.6979E-03     6.26870E-03     8.33616E+06     2.26146E+06    -151.496E+06     8.27032E+06    -151.430E+06     2.26146E+06     2.57033E+06         22.9850
             862     6.89302E-03     20.4678E-03         2.23918         1.08174        -2.31818     886.930E-03        -2.12336         2.23918         1.51301     31.8313E-03    -15.6971E-03    -16.1343E-03    -15.9581E-03     31.6551E-03    -15.6971E-03     5.79137E-03     8.37569E+06     5.82260E+06    -163.456E+06     7.93505E+06    -163.322E+06     6.12983E+06     4.55222E+06         22.7719
             863     5.90835E-03     20.4604E-03         2.41978         1.55152        -2.95642         1.38377        -2.78867         2.41978         1.10807     31.7283E-03    -15.6746E-03    -16.0538E-03    -15.9042E-03     31.5788E-03    -15.6746E-03     5.32119E-03     7.40774E+06     4.57561E+06    -175.065E+06     6.64267E+06    -174.943E+06     5.21872E+06     4.38912E+06         22.6253
             864     4.92414E-03     20.4530E-03         2.58064         2.03733        -3.59172         1.81261        -3.36699         2.58064         1.60882     31.5178E-03    -15.6422E-03    -15.8756E-03    -15.7580E-03     31.4002E-03    -15.6422E-03     4.68307E-03     5.57413E+06     234.158E+03    -183.253E+06     4.25152E+06    -183.207E+06     1.51096E+06     1.86913E+06         22.5166
             865     3.93884E-03     20.4476E-03         2.72386         2.54193        -4.22689         2.17556        -3.86052         2.72386     271.482E-03     31.4494E-03    -15.6460E-03    -15.8034E-03    -15.7218E-03     31.3678E-03    -15.6460E-03     3.90039E-03     5.49634E+06     587.641E+03    -191.183E+06     2.60351E+06    -191.157E+06     3.45470E+06     779.663E+03         22.4338
             866     2.95483E-03     20.4423E-03         3.22360         2.77056        -4.94141         2.49333        -4.29049         2.84990         1.49712     31.4004E-03    -15.6259E-03    -15.7745E-03    -15.7169E-03     31.3469E-03    -15.6300E-03     3.14373E-03     4.89782E+06     2.27899E+06    -194.492E+06     2.25839E+06    -194.472E+06     4.89782E+06     1.32043E+06         22.3722
             867     1.96931E-03     20.4389E-03         4.77001         2.95234        -6.64891         2.77373        -4.65263         2.95234        -2.75828     31.2603E-03    -15.5841E-03    -15.6763E-03    -15.6437E-03     31.2319E-03    -15.5882E-03     2.23261E-03     3.96483E+06     741.822E+03    -195.166E+06     723.940E+03    -195.148E+06     3.96483E+06     1.62145E+06         22.3293
             868     985.205E-06     20.4364E-03         9.82930         4.52921        -13.2721        -2.39473        -4.90420         8.38533         6.69909     31.1005E-03    -15.4855E-03    -15.6150E-03    -15.6061E-03     31.0916E-03    -15.4855E-03     1.07113E-03     451.771E+03    -5.05820E+06    -200.410E+06    -4.04181E+06    -200.398E+06    -577.049E+03     647.961E+03         22.3039
             869     16.7465E-03     20.1399E-03         1.35415     655.910E-03    -830.011E-03    -823.079E-03         1.34722     655.910E-03     220.579E-03     304.306E-03    -16.4986E-03    -287.808E-03    -68.4801E-03     84.9787E-03    -16.4986E-03     571.185E-03     153.858E+06     109.576E+06    -8.92794E+06    -8.11819E+06     153.048E+06     109.576E+06     70.5805E+03         69.3611
             870     15.7523E-03     19.6617E-03         1.13151     721.213E-03    -757.072E-03    -750.944E-03         1.12538     721.213E-03     123.607E-03     152.083E-03    -15.9934E-03    -136.089E-03    -30.9485E-03     46.9419E-03    -15.9934E-03     276.029E-03     109.557E+06     28.8395E+06    -20.6245E+06    -14.1901E+06     109.182E+06     22.7804E+06     2.72374E+06         60.3279
             871     14.7683E-03     19.5548E-03     953.862E-03     796.520E-03    -709.647E-03    -695.750E-03     930.893E-03     805.590E-03    -234.348E-03     52.3586E-03    -15.5930E-03    -36.7657E-03    -17.3014E-03     32.8943E-03    -15.5930E-03     70.4381E-03     60.9741E+06    -10.4082E+06    -56.3031E+06    -14.9235E+06     60.8019E+06    -51.6157E+06     564.586E+03         49.4885
             872     13.7832E-03     19.5206E-03     923.324E-03     783.638E-03    -703.099E-03    -640.591E-03     738.037E-03     906.417E-03    -565.202E-03     36.0696E-03    -15.3830E-03    -20.6866E-03    -16.7470E-03     32.1300E-03    -15.3830E-03     28.4536E-03     28.1618E+06    -11.6380E+06     -72.969E+06    -10.4837E+06     27.0074E+06     -72.969E+06     673.527E+03         39.6647
             873     12.8004E-03     19.4956E-03         1.01942     610.268E-03    -650.121E-03    -556.550E-03     516.698E-03         1.01942    -657.583E-03     33.6787E-03    -15.3970E-03    -18.2817E-03    -16.6894E-03     32.0863E-03    -15.3970E-03     16.9323E-03     8.49905E+06    -25.3788E+06    -53.1126E+06    -3.10820E+06    -14.5102E+06    -52.3739E+06     3.21049E+06         32.3930
             874     11.8160E-03     19.4834E-03         1.14372     431.150E-03    -609.341E-03    -438.347E-03     260.155E-03         1.14372    -727.841E-03     32.3876E-03    -15.4303E-03    -16.9573E-03    -16.5167E-03     31.9470E-03    -15.4303E-03     9.15402E-03     1.67297E+06    -35.5519E+06    -66.6051E+06     1.39545E+06    -65.5150E+06    -36.3645E+06     2.59805E+06         27.8089
             875     10.8322E-03     19.4732E-03         1.27872     184.798E-03    -508.507E-03    -285.267E-03    -38.4414E-03         1.27872    -609.703E-03     32.1598E-03    -15.4556E-03    -16.7042E-03    -16.3917E-03     31.8473E-03    -15.4556E-03     7.77492E-03     3.92808E+06    -21.4949E+06    -97.8218E+06     3.85193E+06    -97.7456E+06    -21.4949E+06     1.62858E+06         25.2558
             876     9.84812E-03     19.4624E-03         1.42348     7.13609E-03    -482.481E-03    -95.3133E-03    -380.032E-03         1.42348    -254.648E-03     31.9770E-03    -15.4485E-03    -16.5285E-03    -16.2596E-03     31.7082E-03    -15.4485E-03     7.14868E-03     4.88759E+06    -12.3191E+06    -117.705E+06     4.82991E+06    -117.647E+06    -12.3191E+06     1.41731E+06         23.9434
             877     8.86369E-03     19.4534E-03         1.57694     283.726E-03    -915.633E-03     136.860E-03    -768.767E-03         1.57694     582.036E-03     31.7673E-03    -15.4361E-03    -16.3312E-03    -16.1359E-03     31.5720E-03    -15.4361E-03     6.08630E-03     6.30664E+06    -5.34836E+06    -136.375E+06     6.06496E+06    -136.319E+06    -5.16195E+06     2.31392E+06         23.2811
             878     7.87961E-03     19.4447E-03         1.73588     602.195E-03        -1.38819     429.784E-03        -1.21578         1.73588         1.01629     31.5574E-03    -15.4217E-03    -16.1357E-03    -15.9712E-03     31.3929E-03    -15.4217E-03     5.55893E-03     7.22582E+06     732.188E+03    -152.980E+06     6.91235E+06    -152.853E+06     918.590E+03     4.20980E+06         22.9262
             879     6.89480E-03     19.4372E-03         1.89354         1.02023        -1.95171     788.157E-03        -1.71964         1.89354         1.51690     31.3648E-03    -15.3922E-03    -15.9725E-03    -15.8303E-03     31.2225E-03    -15.3922E-03     5.16466E-03     6.68024E+06     3.69420E+06    -164.258E+06     6.12167E+06    -164.088E+06     4.08317E+06     4.99955E+06         22.7111
             880     5.91051E-03     19.4288E-03         2.04146         1.37967        -2.44622         1.17779        -2.24434         2.04146         1.10980     31.1688E-03    -15.3553E-03    -15.8135E-03    -15.6979E-03     31.0532E-03    -15.3553E-03     4.62437E-03     7.26963E+06     5.22891E+06    -173.397E+06     6.38214E+06    -173.235E+06     5.95376E+06     5.21421E+06         22.5632
             881     4.92529E-03     19.4232E-03         2.21005         1.77277        -2.99600         1.54753        -2.73380         2.17309         1.59588     30.9367E-03    -15.2962E-03    -15.6405E-03    -15.5515E-03     30.8478E-03    -15.2962E-03     4.04581E-03     6.56369E+06     2.18622E+06    -180.868E+06     6.09595E+06    -180.736E+06     2.52210E+06     4.76083E+06         22.4530
             882     3.94078E-03     19.4164E-03         2.36265         2.23790        -3.60465         1.88211        -3.16927         2.28306     236.926E-03     30.7814E-03    -15.2545E-03    -15.5269E-03    -15.4608E-03     30.7153E-03    -15.2545E-03     3.45389E-03     5.02407E+06    -138.097E+03    -189.671E+06     4.34976E+06    -189.593E+06     458.397E+03     3.05473E+06         22.3689
             883     2.95529E-03     19.4124E-03         2.92812         2.35242        -4.27110         2.15578        -3.51211         2.36577         1.46348     30.6334E-03    -15.2268E-03    -15.4066E-03    -15.3623E-03     30.5933E-03    -15.2310E-03     2.67059E-03     4.50911E+06     77.4079E+03    -194.549E+06     1.71183E+06    -194.511E+06     2.83666E+06     2.04880E+06         22.3057
             884     1.97071E-03     19.4082E-03         4.59295         2.42176        -5.98105         2.32986        -3.71796         2.42176        -2.77491     30.4481E-03    -15.1731E-03    -15.2749E-03    -15.2324E-03     30.4286E-03    -15.1962E-03     1.78921E-03     3.97449E+06    -58.1830E+03    -194.190E+06    -81.0995E+03    -194.167E+06     3.97449E+06     2.05549E+06         22.2617
             885     984.952E-06     19.4066E-03         8.84587         4.72396        -12.5223        -2.30809        -3.83882         7.19441         6.70800     30.3236E-03    -15.0915E-03    -15.2320E-03    -15.1586E-03     30.3187E-03    -15.1601E-03     765.282E-06     1.04397E+06    -2.30673E+06    -197.860E+06    -1.29340E+06    -197.845E+06     15.1454E+03     1.67456E+06         22.2354
             886     16.7069E-03     19.0671E-03         1.21034     598.892E-03    -715.854E-03    -707.657E-03         1.20215     598.892E-03     232.284E-03     303.806E-03    -17.1553E-03    -286.650E-03    -66.6234E-03     83.7787E-03    -17.1553E-03     570.804E-03     152.835E+06     112.938E+06    -11.5591E+06    -10.4425E+06     151.719E+06     112.938E+06    -913.102E+03         69.0785
             887     15.7489E-03     18.6284E-03     947.185E-03     645.572E-03    -578.555E-03    -571.921E-03     940.551E-03     645.572E-03     139.834E-03     146.551E-03    -16.5109E-03    -130.040E-03    -36.6961E-03     53.2070E-03    -16.5109E-03     260.425E-03     113.063E+06     37.9391E+06    -17.2784E+06    -14.5315E+06     112.541E+06     35.7145E+06     634.772E+03         60.1212
             888     14.7649E-03     18.5200E-03     781.069E-03     662.896E-03    -477.743E-03    -463.279E-03     720.883E-03     708.619E-03    -183.182E-03     53.5455E-03    -15.7162E-03    -37.8294E-03    -19.7617E-03     35.4779E-03    -15.7162E-03     69.1176E-03     62.5060E+06    -8.43058E+06    -53.1755E+06    -13.0364E+06     62.4244E+06    -48.4880E+06     764.404E+03         49.4075
             889     13.7844E-03     18.4867E-03     784.164E-03     613.583E-03    -462.931E-03    -387.611E-03     538.262E-03     784.164E-03    -502.748E-03     37.0011E-03    -15.3328E-03    -21.6683E-03    -18.3349E-03     33.6677E-03    -15.3328E-03     26.7297E-03     25.4367E+06    -9.75059E+06    -78.1328E+06    -9.57312E+06     25.2592E+06    -78.1328E+06    -427.162E+03         39.6378
             890     12.8008E-03     18.4628E-03     868.221E-03     478.529E-03    -430.254E-03    -315.307E-03     363.583E-03     868.221E-03    -589.740E-03     34.0750E-03    -15.2513E-03    -18.8237E-03    -17.5426E-03     32.7939E-03    -15.2513E-03     15.0966E-03     6.08605E+06    -26.6050E+06    -58.1478E+06    -4.46026E+06    -16.0587E+06    -58.1478E+06     480.429E+03         32.3768
             891     11.8181E-03     18.4508E-03     960.237E-03     373.443E-03    -428.274E-03    -216.349E-03     161.518E-03     960.237E-03    -658.121E-03     32.6113E-03    -15.2225E-03    -17.3887E-03    -17.0827E-03     32.3052E-03    -15.2225E-03     7.57927E-03     1.14309E+06    -39.0350E+06    -66.8763E+06     702.502E+03    -65.4421E+06    -40.0286E+06     2.43637E+06         27.7793
             892     10.8347E-03     18.4411E-03         1.05826     230.338E-03    -389.792E-03    -69.8761E-03    -89.5778E-03         1.05826    -551.532E-03     32.1475E-03    -15.1970E-03    -16.9504E-03    -16.7429E-03     31.9399E-03    -15.1970E-03     6.27297E-03     3.12576E+06    -23.4100E+06    -97.4041E+06     2.93362E+06     -97.212E+06    -23.4100E+06     3.04749E+06         25.2089
             893     9.85069E-03     18.4313E-03         1.15972     149.706E-03    -415.392E-03     105.418E-03    -371.104E-03         1.15972    -227.542E-03     31.6534E-03    -15.1449E-03    -16.5085E-03    -16.3342E-03     31.4791E-03    -15.1449E-03     5.66530E-03     3.63431E+06    -13.9363E+06    -117.116E+06     3.52962E+06    -117.012E+06    -13.9363E+06     2.59898E+06         23.8834
             894     8.86679E-03     18.4218E-03         1.26326     435.705E-03    -806.039E-03     298.963E-03    -669.297E-03         1.26326     555.421E-03     31.2685E-03    -15.0955E-03    -16.1730E-03    -16.0526E-03     31.1481E-03    -15.0955E-03     4.68700E-03     3.29809E+06    -8.83195E+06    -138.308E+06     3.02022E+06    -138.217E+06    -8.64555E+06     2.79137E+06         23.2132
             895     7.88199E-03     18.4144E-03         1.36707     679.039E-03        -1.14517     516.035E-03    -982.168E-03         1.36707     962.024E-03     31.0374E-03    -15.0491E-03    -15.9884E-03    -15.8895E-03     30.9386E-03    -15.0491E-03     4.24645E-03     3.86211E+06    -2.50996E+06    -154.485E+06     3.52687E+06    -154.336E+06    -2.32355E+06     4.62229E+06         22.8540
             896     6.89785E-03     18.4058E-03         1.47043     993.556E-03        -1.54855     723.136E-03        -1.27813         1.47043         1.46966     30.7288E-03    -14.9711E-03    -15.7577E-03    -15.6698E-03     30.6409E-03    -14.9711E-03     3.96686E-03     5.75111E+06    -336.305E+03    -162.812E+06     5.17868E+06    -162.628E+06     52.6657E+03     5.38507E+06         22.6362
             897     5.91251E-03     18.3995E-03         1.57311         1.18218        -1.82745     941.341E-03        -1.58660         1.57311         1.08252     30.4109E-03    -14.9058E-03    -15.5051E-03    -15.4362E-03     30.3420E-03    -14.9058E-03     3.48117E-03     5.79082E+06     1.71441E+06    -173.364E+06     5.23849E+06    -173.219E+06     2.12240E+06     4.93700E+06         22.4860
             898     4.92785E-03     18.3921E-03         1.82259         1.38888        -2.27332         1.21742        -1.94674         1.66746         1.57757     30.1500E-03    -14.8282E-03    -15.3218E-03    -15.2699E-03     30.0981E-03    -14.8282E-03     3.00669E-03     5.57655E+06     2.07592E+06    -179.604E+06     5.37060E+06    -179.417E+06     2.09493E+06     5.77776E+06         22.3736
             899     3.94234E-03     18.3876E-03         2.03407         1.74148        -2.82937         1.48461        -2.27991         1.74148     235.440E-03     29.8923E-03    -14.7559E-03    -15.1364E-03    -15.0988E-03     29.8547E-03    -14.7559E-03     2.53847E-03     6.32822E+06     1.76646E+06    -186.826E+06     5.59189E+06    -186.646E+06     2.32252E+06     5.78043E+06         22.2872
             900     2.95723E-03     18.3819E-03         2.60946         1.78848        -3.44008         1.68292        -2.51354         1.78848         1.43517     29.6360E-03    -14.6980E-03    -14.9380E-03    -14.9159E-03     29.6139E-03    -14.6980E-03     1.90495E-03     6.84960E+06     1.84288E+06    -193.347E+06     4.59524E+06    -193.251E+06     4.00091E+06     4.08090E+06         22.2220
             901     1.97141E-03     18.3795E-03         4.38248         1.80670        -5.20312         1.79574        -2.61638         1.80670        -2.71901     29.3614E-03    -14.6143E-03    -14.7472E-03    -14.6923E-03     29.3515E-03    -14.6592E-03     1.28156E-03     8.37606E+06     255.896E+03    -191.787E+06     1.39309E+06    -191.748E+06     7.19982E+06     2.55324E+06         22.1761
             902     986.061E-06     18.3766E-03         7.78656         4.82071        -11.5966        -2.27755        -2.60609         5.89429         6.61494     29.2138E-03    -14.5502E-03    -14.6636E-03    -14.5464E-03     29.2101E-03    -14.6636E-03     657.312E-06     2.06199E+06    -3.83080E+06    -196.046E+06    -3.85011E+06    -196.026E+06     2.06199E+06     1.78467E+06         22.1487
             903     16.7216E-03     18.0059E-03         1.05116     528.947E-03    -584.958E-03    -574.769E-03         1.04097     528.947E-03     223.429E-03     309.676E-03    -17.2119E-03    -292.464E-03    -70.3285E-03     87.5404E-03    -17.2119E-03     580.876E-03     155.693E+06     112.455E+06    -6.13976E+06    -5.44434E+06     154.997E+06     112.455E+06     3.44099E+06         68.8132
             904     15.7436E-03     17.5893E-03     761.285E-03     554.834E-03    -393.206E-03    -384.203E-03     752.282E-03     554.834E-03     143.168E-03     138.583E-03    -16.5696E-03    -122.014E-03    -35.3544E-03     51.9241E-03    -16.5696E-03     242.986E-03     113.312E+06     36.7007E+06    -16.4062E+06    -13.6620E+06     112.793E+06     34.4762E+06    -521.566E+03         59.9004
             905     14.7666E-03     17.4834E-03     620.377E-03     515.370E-03    -253.935E-03    -231.318E-03     517.417E-03     595.715E-03    -171.180E-03     52.4406E-03    -15.6629E-03    -36.7777E-03    -22.0526E-03     37.7155E-03    -15.6629E-03     62.3701E-03     63.4845E+06    -5.49052E+06    -53.8075E+06    -12.5899E+06     63.3609E+06    -46.5846E+06    -25.0679E+03         49.2709
             906     13.7851E-03     17.4512E-03     644.613E-03     459.376E-03    -245.565E-03    -118.092E-03     331.903E-03     644.613E-03    -473.293E-03     36.6833E-03    -15.1399E-03    -21.5434E-03    -19.2578E-03     34.3978E-03    -15.1399E-03     21.9455E-03     25.2349E+06    -8.89359E+06    -78.7569E+06    -8.67388E+06     25.0152E+06    -78.7569E+06    -507.062E+03         39.5666
             907     12.8048E-03     17.4293E-03     695.933E-03     390.305E-03    -240.607E-03    -20.0819E-03     169.779E-03     695.933E-03    -530.234E-03     33.9961E-03    -14.9808E-03    -19.0153E-03    -18.2722E-03     33.2531E-03    -14.9808E-03     10.9412E-03     4.30171E+06    -27.4259E+06    -59.0122E+06    -5.30665E+06    -17.8175E+06    -59.0122E+06     564.325E+03         32.3255
             908     11.8218E-03     17.4182E-03     748.955E-03     356.578E-03    -265.838E-03     75.1247E-03     15.6149E-03     748.955E-03    -550.819E-03     32.3433E-03    -14.8852E-03    -17.4582E-03    -17.3404E-03     32.2255E-03    -14.8852E-03     4.41063E-03    -2.64527E+06    -41.3198E+06    -68.1731E+06    -3.14419E+06    -67.0817E+06    -41.9123E+06     2.65830E+06         27.7245
             909     10.8385E-03     17.4092E-03     803.737E-03     313.679E-03    -281.605E-03     163.924E-03    -131.850E-03     803.737E-03    -431.282E-03     31.7253E-03    -14.8065E-03    -16.9188E-03    -16.8383E-03     31.6449E-03    -14.8065E-03     3.66497E-03    -472.466E+03    -25.4348E+06    -97.3219E+06    -690.126E+03    -97.1042E+06    -25.4348E+06     3.34104E+06         25.1430
             910     9.85529E-03     17.3997E-03     859.309E-03     291.733E-03    -316.835E-03     276.868E-03    -301.970E-03     859.309E-03    -143.105E-03     31.1547E-03    -14.7073E-03    -16.4475E-03    -16.3806E-03     31.0879E-03    -14.7073E-03     3.30036E-03     1.60179E+06    -15.2147E+06    -116.811E+06     1.46222E+06    -116.671E+06    -15.2147E+06     3.52893E+06         23.8080
             911     8.87049E-03     17.3918E-03     925.531E-03     542.585E-03    -632.493E-03     416.037E-03    -493.632E-03     913.218E-03     561.131E-03     30.6215E-03    -14.6034E-03    -16.0180E-03    -15.9730E-03     30.5764E-03    -14.6034E-03     2.63541E-03     3.38713E+06    -10.7600E+06    -138.814E+06     3.24695E+06    -138.674E+06    -10.7600E+06     4.13428E+06         23.1312
             912     7.88644E-03     17.3834E-03     976.090E-03     702.598E-03    -832.195E-03     548.958E-03    -666.242E-03     963.777E-03     890.392E-03     30.2134E-03    -14.5104E-03    -15.7030E-03    -15.6665E-03     30.1769E-03    -14.5104E-03     2.33471E-03     4.21752E+06    -5.44833E+06    -155.307E+06     4.09038E+06    -155.180E+06    -5.44833E+06     4.26960E+06         22.7674
             913     6.90112E-03     17.3767E-03         1.12571     846.745E-03        -1.10957     667.058E-03    -815.306E-03         1.01112         1.34665     29.8061E-03    -14.3983E-03    -15.4078E-03    -15.3758E-03     29.7741E-03    -14.3983E-03     2.20169E-03     4.93245E+06    -2.13659E+06    -162.184E+06     4.76640E+06    -162.018E+06    -2.13659E+06     5.11439E+06         22.5458
             914     5.91650E-03     17.3692E-03         1.17077     924.979E-03        -1.21963     771.161E-03    -951.237E-03         1.05619     971.232E-03     29.4348E-03    -14.2991E-03    -15.1358E-03    -15.1115E-03     29.4105E-03    -14.2991E-03     1.89682E-03     5.63128E+06     1.84505E+06    -173.027E+06     5.39561E+06    -172.810E+06     1.86406E+06     6.06804E+06         22.3922
             915     4.93071E-03     17.3640E-03         1.42713     972.181E-03        -1.51247     878.339E-03        -1.09022         1.09872         1.45544     29.0096E-03    -14.1860E-03    -14.8236E-03    -14.8056E-03     28.9916E-03    -14.1860E-03     1.61499E-03     4.92760E+06     2.73651E+06    -179.355E+06     4.44677E+06    -179.106E+06     2.96837E+06     6.59802E+06         22.2765
             916     3.94528E-03     17.3578E-03         1.74397         1.13475        -1.98777     998.050E-03        -1.24185         1.13475     176.444E-03     28.6134E-03    -14.0708E-03    -14.5426E-03    -14.5295E-03     28.6003E-03    -14.0708E-03     1.39257E-03     4.68515E+06     1.46248E+06    -184.419E+06     3.69117E+06    -184.194E+06     2.23140E+06     6.41637E+06         22.1870
             917     2.95920E-03     17.3545E-03         2.32219         1.15557        -2.57442         1.11721        -1.36944         1.15557         1.36659     28.2386E-03    -13.9873E-03    -14.2513E-03    -14.2437E-03     28.2309E-03    -13.9873E-03     1.04557E-03     6.49530E+06     2.22835E+06    -189.820E+06     4.24018E+06    -189.684E+06     4.34697E+06     5.09937E+06         22.1190
             918     1.97303E-03     17.3505E-03         4.16744         1.16007        -4.39426         1.15948        -1.38630         1.16007        -2.60570     27.9402E-03    -13.9036E-03    -14.0365E-03    -14.0071E-03     27.9367E-03    -13.9296E-03     648.050E-06     8.45887E+06     1.52616E+06    -190.281E+06     2.93050E+06    -190.180E+06     6.95339E+06     4.31637E+06         22.0710
             919     986.176E-06     17.3497E-03         7.07684         4.44968        -10.5745        -2.32506        -1.36532         4.64241         6.40154     27.7606E-03    -13.8156E-03    -13.9450E-03    -13.8986E-03     27.7591E-03    -13.8606E-03     368.681E-06     4.86920E+06     16.6664E+03    -192.595E+06     738.899E+03    -192.428E+06     3.98021E+06    -164.859E+03         22.0422
             920     16.7270E-03     16.9768E-03     902.135E-03     445.168E-03    -457.018E-03    -444.898E-03     890.014E-03     445.168E-03     215.487E-03     317.194E-03    -16.8788E-03    -300.315E-03    -77.4295E-03     94.3083E-03    -16.8788E-03     593.000E-03     154.760E+06     112.163E+06    -6.49781E+06    -6.26630E+06     153.561E+06     113.131E+06     2.98964E+06         68.4751
             921     15.7478E-03     16.5413E-03     600.256E-03     441.857E-03    -218.630E-03    -207.705E-03     582.652E-03     448.535E-03     145.401E-03     135.062E-03    -16.1697E-03    -118.893E-03    -33.3269E-03     49.4966E-03    -16.1697E-03     236.669E-03     114.328E+06     33.1401E+06    -12.7496E+06    -12.3919E+06     114.075E+06     33.0350E+06     707.576E+03         59.5981
             922     14.7732E-03     16.4478E-03     469.204E-03     387.307E-03    -63.6623E-03    -13.6412E-03     339.578E-03     466.912E-03    -142.954E-03     49.5182E-03    -15.2959E-03    -34.2224E-03    -22.5278E-03     37.8237E-03    -15.2959E-03     53.4086E-03     64.3957E+06    -7.61898E+06    -49.7465E+06    -14.7716E+06     64.3255E+06    -42.5235E+06    -830.345E+03         49.0488
             923     13.7926E-03     16.4155E-03     511.098E-03     372.354E-03    -106.353E-03     151.042E-03     137.303E-03     488.755E-03    -417.251E-03     35.5271E-03    -14.6974E-03    -20.8297E-03    -19.5505E-03     34.2479E-03    -14.6974E-03     16.1036E-03     24.6491E+06    -13.0831E+06    -76.8517E+06    -12.5355E+06     24.1015E+06    -76.8517E+06     262.649E+03         39.4262
             924     12.8107E-03     16.3952E-03     562.578E-03     385.221E-03    -177.175E-03     290.413E-03    -25.4349E-03     505.646E-03    -467.565E-03     32.9289E-03    -14.4831E-03    -18.4457E-03    -18.1130E-03     32.5961E-03    -14.4831E-03     6.14354E-03     1.16115E+06    -29.9421E+06    -59.6973E+06    -9.34145E+06    -19.8141E+06    -59.3227E+06     1.51987E+06         32.2258
             925     11.8284E-03     16.3865E-03     617.749E-03     386.865E-03    -235.399E-03     381.948E-03    -129.846E-03     517.112E-03    -486.630E-03     31.6422E-03    -14.3488E-03    -17.2934E-03    -17.2733E-03     31.6221E-03    -14.3488E-03     759.268E-06    -4.54608E+06    -41.0534E+06    -68.0138E+06    -4.94914E+06    -67.1992E+06    -41.4649E+06     2.17732E+06         27.6367
             926     10.8451E-03     16.3774E-03     635.784E-03     378.762E-03    -244.614E-03     419.891E-03    -175.285E-03     525.325E-03    -353.409E-03     30.8827E-03    -14.2237E-03    -16.6590E-03    -16.6454E-03     30.8691E-03    -14.2237E-03     697.554E-06    -795.052E+03    -25.7413E+06    -96.9014E+06    -926.018E+03    -96.7705E+06    -25.7413E+06     2.46082E+06         25.0550
             927     9.86066E-03     16.3694E-03     604.293E-03     361.674E-03    -194.342E-03     429.876E-03    -191.030E-03     532.779E-03    -80.7183E-03     30.3274E-03    -14.0870E-03    -16.2404E-03    -16.2261E-03     30.3131E-03    -14.0870E-03     429.146E-06     1.79970E+06    -14.8458E+06    -117.965E+06     1.65179E+06    -117.817E+06    -14.8458E+06     3.43206E+06         23.7159
             928     8.87712E-03     16.3614E-03     702.871E-03     462.428E-03    -390.227E-03     450.130E-03    -215.324E-03     540.266E-03     569.609E-03     29.6986E-03    -13.9352E-03    -15.7634E-03    -15.7538E-03     29.6890E-03    -13.9352E-03     145.877E-06     3.88887E+06    -9.58177E+06    -138.858E+06     3.72739E+06    -138.696E+06    -9.58177E+06     4.51632E+06         23.0346
             929     7.89173E-03     16.3547E-03     752.960E-03     510.596E-03    -475.352E-03     502.048E-03    -259.008E-03     545.164E-03     859.737E-03     29.1192E-03    -13.7911E-03    -15.3281E-03    -15.3217E-03     29.1129E-03    -13.7911E-03     126.969E-06     4.94385E+06    -4.15460E+06    -154.605E+06     4.79629E+06    -154.457E+06    -4.15460E+06     4.66129E+06         22.6661
             930     6.90692E-03     16.3473E-03     972.030E-03     508.518E-03    -675.125E-03     569.057E-03    -306.719E-03     543.086E-03         1.26418     28.5578E-03    -13.6386E-03    -14.9193E-03    -14.9122E-03     28.5507E-03    -13.6386E-03     104.064E-06     5.19108E+06    -85.9698E+03    -162.724E+06     5.03776E+06    -162.571E+06    -85.9698E+03     4.88905E+06         22.4399
             931     5.92083E-03     16.3415E-03     949.752E-03     515.557E-03    -645.704E-03     595.201E-03    -308.699E-03     533.103E-03     885.171E-03     28.0130E-03    -13.4987E-03    -14.5143E-03    -14.5090E-03     28.0077E-03    -13.4987E-03     101.806E-06     6.40990E+06     3.53966E+06    -173.154E+06     5.63294E+06    -172.916E+06     4.07934E+06     6.41278E+06         22.2817
             932     4.93531E-03     16.3355E-03         1.15702     503.073E-03    -828.780E-03     564.842E-03    -254.146E-03     520.620E-03         1.31604     27.4977E-03    -13.3517E-03    -14.1460E-03    -14.1428E-03     27.4945E-03    -13.3517E-03     133.639E-06     7.44357E+06     5.78197E+06    -178.540E+06     6.40635E+06    -178.255E+06     6.53449E+06     7.23909E+06         22.1617
             933     3.94859E-03     16.3314E-03         1.62779     512.527E-03        -1.30547     520.216E-03    -197.904E-03     512.527E-03     106.216E-03     26.9470E-03    -13.2096E-03    -13.7373E-03    -13.7345E-03     26.9441E-03    -13.2096E-03     139.865E-06     8.20196E+06     5.43858E+06    -182.340E+06     6.59574E+06    -182.094E+06     6.79836E+06     6.73837E+06         22.0683
             934     2.96187E-03     16.3268E-03         2.20838     508.043E-03        -1.87212     515.066E-03    -178.798E-03     508.043E-03         1.26404     26.5121E-03    -13.1039E-03    -13.4082E-03    -13.4062E-03     26.5101E-03    -13.1039E-03     55.4216E-06     9.70580E+06     5.15944E+06    -186.490E+06     5.96613E+06    -186.325E+06     8.73372E+06     5.49030E+06         21.9972
             935     1.97463E-03     16.3250E-03         4.04702     508.491E-03        -3.67827     494.724E-03    -125.971E-03     508.491E-03        -2.45427     26.1905E-03    -12.9882E-03    -13.2023E-03    -13.2015E-03     26.1897E-03    -12.9882E-03    -32.1589E-06     9.38686E+06     5.59614E+06    -186.689E+06     5.82796E+06    -186.591E+06     9.05762E+06     3.03605E+06         21.9469
             936     987.943E-06     16.3221E-03         6.95776         3.42957        -9.50191        -2.40913    -135.018E-03         3.42957         6.05497     25.8134E-03    -12.8112E-03    -13.0022E-03    -13.0019E-03     25.8130E-03    -12.8112E-03    -142.246E-06     6.38305E+06     3.40694E+06    -188.558E+06     5.03491E+06    -188.244E+06     4.44107E+06     1.07611E+06         21.9167
             937     16.7363E-03     15.9337E-03     758.961E-03     346.669E-03    -327.008E-03    -313.185E-03     745.138E-03     346.669E-03     186.868E-03     318.433E-03    -16.3650E-03    -302.068E-03    -83.2826E-03     99.6476E-03    -16.3650E-03     592.468E-03     151.870E+06     112.328E+06    -10.0579E+06    -9.92188E+06     150.767E+06     113.296E+06    -1.52717E+06         67.9551
             938     15.7648E-03     15.5090E-03     455.758E-03     316.098E-03    -47.5380E-03    -26.4060E-03     424.449E-03     326.276E-03     152.924E-03     133.951E-03    -15.4823E-03    -118.468E-03    -32.6700E-03     48.1523E-03    -15.4823E-03     235.746E-03     113.932E+06     33.2061E+06    -12.2505E+06    -12.0823E+06     113.869E+06     33.1010E+06     426.463E+03         59.1364
             939     14.7806E-03     15.4062E-03     370.674E-03     281.171E-03     51.0160E-03     204.531E-03     177.747E-03     320.582E-03    -86.3818E-03     47.4630E-03    -14.5986E-03    -32.8644E-03    -22.1105E-03     36.7091E-03    -14.5986E-03     47.6271E-03     63.9349E+06    -11.1072E+06    -47.2231E+06    -14.4098E+06     63.6886E+06    -43.6742E+06     2.28714E+06         48.7057
             940     13.8035E-03     15.3827E-03     492.160E-03     286.293E-03    -84.7772E-03     384.735E-03    -6.58611E-03     315.527E-03    -351.433E-03     33.6513E-03    -13.9924E-03    -19.6590E-03    -19.1163E-03     33.1087E-03    -13.9924E-03     10.0107E-03     26.0410E+06    -14.6962E+06    -74.8162E+06    -13.9823E+06     25.3271E+06    -74.8162E+06     1.57339E+06         39.1979
             941     12.8202E-03     15.3625E-03     597.254E-03     301.092E-03    -204.898E-03     526.978E-03    -134.622E-03     301.092E-03    -431.636E-03     31.3143E-03    -13.7533E-03    -17.5610E-03    -17.3758E-03     31.1292E-03    -13.7533E-03     2.51633E-03     3.66233E+06    -31.6545E+06    -59.8845E+06    -8.67553E+06    -19.8887E+06    -59.3125E+06     363.847E+03         32.0684
             942     11.8373E-03     15.3549E-03     687.621E-03     275.810E-03    -266.519E-03     621.142E-03    -200.040E-03     275.810E-03    -477.489E-03     30.4850E-03    -13.6031E-03    -16.8820E-03    -16.8345E-03     30.4376E-03    -13.6031E-03    -2.54423E-03    -3.92284E+06    -42.1279E+06    -68.2559E+06    -4.05608E+06    -68.1227E+06    -42.1279E+06     936.453E+03         27.5128
             943     10.8532E-03     15.3476E-03     690.224E-03     241.338E-03    -229.040E-03     642.083E-03    -180.898E-03     241.338E-03    -357.517E-03     29.8091E-03    -13.4535E-03    -16.3556E-03    -16.3224E-03     29.7759E-03    -13.4535E-03    -2.06008E-03    -1.40383E+06    -24.6378E+06    -96.7711E+06    -1.55466E+06    -96.6203E+06    -24.6378E+06     2.56629E+06         24.9443
             944     9.86976E-03     15.3392E-03     580.133E-03     222.954E-03    -95.1798E-03     576.768E-03    -71.1693E-03     202.309E-03    -89.7999E-03     29.1073E-03    -13.2844E-03    -15.8229E-03    -15.7920E-03     29.0764E-03    -13.2844E-03    -2.09970E-03     50.9646E+03    -12.4895E+06    -118.555E+06    -106.703E+03    -118.397E+06    -12.4895E+06     3.10700E+06         23.6080
             945     8.88419E-03     15.3332E-03     706.979E-03     184.077E-03    -177.636E-03     485.918E-03     64.0702E-03     163.431E-03     550.669E-03     28.4482E-03    -13.0866E-03    -15.3616E-03    -15.3264E-03     28.4130E-03    -13.0866E-03    -2.20786E-03     1.97685E+06    -7.14785E+06    -138.977E+06     1.86514E+06    -138.865E+06    -7.14785E+06     3.34222E+06         22.9248
             946     7.89951E-03     15.3260E-03     777.241E-03     180.994E-03    -231.326E-03     443.935E-03     159.911E-03     123.063E-03     864.964E-03     27.7424E-03    -12.8869E-03    -14.8555E-03    -14.8260E-03     27.7129E-03    -12.8869E-03    -1.95786E-03     5.15327E+06    -1.60615E+06    -154.498E+06     5.04942E+06    -154.394E+06    -1.60615E+06     3.90196E+06         22.5522
             947     6.91345E-03     15.3204E-03         1.01235     134.704E-03    -401.795E-03     408.943E-03     259.546E-03     76.7731E-03         1.26827     26.9736E-03    -12.6901E-03    -14.2835E-03    -14.2592E-03     26.9493E-03    -12.6901E-03    -1.80685E-03     7.43982E+06     3.65278E+06    -163.473E+06     7.17687E+06    -163.321E+06     3.76433E+06     4.86028E+06         22.3208
             948     5.92742E-03     15.3145E-03         1.02098     123.204E-03    -384.031E-03     338.791E-03     397.019E-03     24.3452E-03     901.099E-03     26.2272E-03    -12.5052E-03    -13.7220E-03    -13.7026E-03     26.2078E-03    -12.5052E-03    -1.56718E-03     8.63451E+06     6.23520E+06    -173.434E+06     7.78730E+06    -173.238E+06     6.88643E+06     5.87736E+06         22.1571
             949     4.93998E-03     15.3099E-03         1.25501     66.9890E-03    -548.082E-03     244.264E-03     561.523E-03    -31.8701E-03         1.27325     25.5607E-03    -12.3235E-03    -13.2372E-03    -13.2227E-03     25.5462E-03    -12.3235E-03    -1.29323E-03     9.46931E+06     7.51606E+06    -177.277E+06     8.41306E+06    -177.078E+06     8.37312E+06     6.03047E+06         22.0319
             950     3.95307E-03     15.3053E-03         1.81939    -83.3101E-03    -955.484E-03     89.8408E-03     774.068E-03    -83.3101E-03     114.774E-03     24.9781E-03    -12.1647E-03    -12.8134E-03    -12.8021E-03     24.9668E-03    -12.1647E-03    -1.13195E-03     11.6183E+06      9.0124E+06    -179.718E+06     9.22288E+06    -179.497E+06     11.1868E+06     6.40978E+06         21.9340
             951     2.96502E-03     15.3028E-03         2.39168    -119.295E-03        -1.48397    -44.5587E-03     952.268E-03    -119.295E-03         1.17173     24.4445E-03    -12.0199E-03    -12.4246E-03    -12.4178E-03     24.4377E-03    -12.0199E-03    -880.617E-06     12.3540E+06     9.08642E+06    -182.834E+06     8.92178E+06    -182.670E+06     12.3540E+06     5.35845E+06         21.8594
             952     1.97728E-03     15.2994E-03         4.10593    -139.080E-03        -3.14839    -115.768E-03         1.07331    -139.080E-03        -2.26956     23.9871E-03    -11.8858E-03    -12.1013E-03    -12.0975E-03     23.9833E-03    -11.8858E-03    -656.732E-06     12.7406E+06     7.69454E+06    -182.591E+06     7.64804E+06    -182.545E+06     12.7406E+06     1.69215E+06         21.8067
             953     988.359E-06     15.2995E-03         7.05383         2.22385        -8.44693        -2.51592         1.12282         2.22385         5.64315     23.5853E-03    -11.7262E-03    -11.8590E-03    -11.8506E-03     23.5822E-03    -11.7316E-03    -577.998E-06     8.77982E+06     2.52123E+06    -186.825E+06     3.34195E+06    -186.593E+06     7.72682E+06     4.35952E+06         21.7751
             954     16.7595E-03     14.9139E-03     641.670E-03     232.486E-03    -203.887E-03    -185.879E-03     623.662E-03     232.486E-03     157.957E-03     315.341E-03    -15.6770E-03    -299.664E-03    -87.2625E-03     102.940E-03    -15.6770E-03     584.072E-03     150.335E+06     107.787E+06    -9.07128E+06    -8.92875E+06     150.192E+06     107.787E+06     35.7950E+03         67.2172
             955     15.7691E-03     14.4674E-03     395.966E-03     186.682E-03     45.7552E-03     142.812E-03     297.672E-03     187.919E-03     141.771E-03     135.634E-03    -14.5867E-03    -121.048E-03    -33.8218E-03     48.4085E-03    -14.5867E-03     238.871E-03     111.011E+06     28.0205E+06    -13.5248E+06    -13.5013E+06     110.987E+06     28.0205E+06     792.487E+03         58.4947
             956     14.7990E-03     14.3710E-03     412.295E-03     157.047E-03     44.1928E-03     394.779E-03     60.4710E-03     158.284E-03    -75.6645E-03     43.9271E-03    -13.7013E-03    -30.2258E-03    -21.2675E-03     34.9688E-03    -13.7013E-03     41.7724E-03     63.6965E+06    -7.23296E+06    -48.7743E+06    -11.4464E+06     63.4226E+06    -44.2869E+06     2.91538E+06         48.2305
             957     13.8144E-03     14.3495E-03     605.520E-03     128.445E-03    -122.410E-03     563.618E-03    -80.5080E-03     128.445E-03    -326.190E-03     31.2124E-03    -13.1275E-03    -18.0849E-03    -17.8261E-03     30.9536E-03    -13.1275E-03     6.28116E-03     29.1414E+06    -8.66515E+06    -69.1008E+06    -7.73150E+06     28.2077E+06    -69.1008E+06     3.01802E+06         38.8809
             958     12.8325E-03     14.3323E-03     733.166E-03     86.9749E-03    -203.957E-03     683.832E-03    -154.623E-03     86.9749E-03    -404.621E-03     29.7747E-03    -12.9132E-03    -16.8615E-03    -16.7513E-03     29.6646E-03    -12.9132E-03    -294.734E-06     5.32483E+06    -27.9313E+06    -53.3236E+06    -6.75869E+06    -17.8584E+06    -51.3130E+06     1.28095E+06         31.8542
             959     11.8476E-03     14.3249E-03     810.167E-03     31.8948E-03    -217.017E-03     756.565E-03    -163.414E-03     31.8948E-03    -445.490E-03     28.8916E-03    -12.7316E-03    -16.1601E-03    -16.0460E-03     28.7776E-03    -12.7316E-03    -4.48673E-03    -5.29521E+06    -39.1348E+06    -69.4070E+06    -5.33832E+06    -69.3639E+06    -39.1348E+06     1.05638E+06         27.3566
             960     10.8641E-03     14.3180E-03     797.866E-03     34.6126E-03    -197.280E-03     756.136E-03    -85.1091E-03    -35.8287E-03    -346.297E-03     28.4189E-03    -12.5590E-03    -15.8599E-03    -15.7662E-03     28.3252E-03    -12.5590E-03    -3.97444E-03    -1.80083E+06    -21.6732E+06    -97.9155E+06    -1.90664E+06    -97.8097E+06    -21.6732E+06     1.76653E+06         24.8147
             961     9.87842E-03     14.3117E-03     692.366E-03     114.710E-03    -162.024E-03     688.774E-03     69.8403E-03    -113.563E-03    -89.9967E-03     27.7146E-03    -12.3462E-03    -15.3684E-03    -15.2821E-03     27.6283E-03    -12.3462E-03    -3.75610E-03     1.05733E+06    -9.48664E+06    -117.814E+06     913.317E+03    -117.670E+06    -9.48664E+06     2.69452E+06         23.4881
             962     8.89402E-03     14.3052E-03     823.977E-03     64.0067E-03    -235.187E-03     561.670E-03     288.669E-03    -197.542E-03     530.738E-03     26.9714E-03    -12.0948E-03    -14.8766E-03    -14.7821E-03     26.8769E-03    -12.0948E-03    -3.90098E-03     1.51744E+06    -5.71794E+06    -138.550E+06     1.44480E+06    -138.477E+06    -5.71794E+06     2.19803E+06         22.8060
             963     7.90772E-03     14.3001E-03     942.954E-03     45.2513E-03    -321.582E-03     395.089E-03     555.472E-03    -283.937E-03     847.162E-03     26.0509E-03    -11.8351E-03    -14.2158E-03    -14.1343E-03     25.9694E-03    -11.8351E-03    -3.55256E-03     2.91796E+06    -3.09965E+06    -154.997E+06     2.87937E+06    -154.958E+06    -3.09965E+06     2.11966E+06         22.4301
             964     6.92138E-03     14.2944E-03         1.24805    -104.321E-03    -459.993E-03     225.864E-03     828.745E-03    -370.876E-03         1.25624     25.1312E-03    -11.5906E-03    -13.5405E-03    -13.4683E-03     25.0589E-03    -11.5906E-03    -3.25132E-03     6.28162E+06     1.72559E+06    -164.690E+06     6.08095E+06    -164.601E+06     1.83715E+06     3.48821E+06         22.1934
             965     5.93384E-03     14.2903E-03         1.43448    -186.718E-03    -546.952E-03     51.6848E-03         1.10696    -457.835E-03     948.797E-03     24.2612E-03    -11.3666E-03    -12.8946E-03    -12.8325E-03     24.1991E-03    -11.3666E-03    -2.93895E-03     9.17183E+06     6.43289E+06    -173.226E+06     8.62071E+06    -173.078E+06     6.83574E+06     4.91241E+06         22.0238
             966     4.94645E-03     14.2857E-03         1.74587    -313.527E-03    -714.071E-03    -128.870E-03         1.39070    -543.560E-03         1.27238     23.3809E-03    -11.1562E-03    -12.2247E-03    -12.1774E-03     23.3336E-03    -11.1562E-03    -2.50688E-03     10.6259E+06     9.16249E+06    -175.742E+06     9.65982E+06    -175.575E+06     9.96122E+06     5.55274E+06         21.8931
             967     3.95746E-03     14.2827E-03         2.26559    -624.480E-03    -914.710E-03    -321.837E-03         1.67272    -624.480E-03     178.369E-03     22.6834E-03    -10.9657E-03    -11.7176E-03    -11.6846E-03     22.6504E-03    -10.9657E-03    -2.07644E-03     11.0287E+06     9.43196E+06    -178.428E+06     9.66280E+06    -178.280E+06     10.6495E+06     5.05221E+06         21.7905
             968     2.96910E-03     14.2795E-03         2.80977    -698.435E-03        -1.37523    -489.840E-03         1.92437    -698.435E-03         1.10874     22.0897E-03    -10.8004E-03    -11.2894E-03    -11.2680E-03     22.0683E-03    -10.8004E-03    -1.61044E-03     13.3468E+06     10.9682E+06    -178.601E+06     11.2570E+06    -178.511E+06     12.9675E+06     3.89493E+06         21.7122
             969     1.97922E-03     14.2784E-03         4.34140    -756.673E-03        -2.82267    -667.003E-03         2.18573    -756.673E-03        -2.05670     21.5432E-03    -10.6803E-03    -10.8629E-03    -10.8471E-03     21.5301E-03    -10.6830E-03    -1.24761E-03     16.0433E+06     9.82969E+06    -179.823E+06     9.77848E+06    -179.772E+06     16.0433E+06     3.01273E+06         21.6570
             970     990.132E-06     14.2764E-03         7.12683         1.13507        -7.49344        -2.69459         2.32798         1.13507         5.14807     21.2124E-03    -10.5644E-03    -10.6480E-03    -10.5778E-03     21.2051E-03    -10.6273E-03    -917.537E-06     13.7391E+06     5.89921E+06    -185.648E+06     7.11425E+06    -185.517E+06     12.3937E+06     1.78553E+06         21.6238
             971     16.7637E-03     13.8984E-03     567.700E-03     132.338E-03    -132.348E-03    -85.1416E-03     551.919E-03     100.913E-03     122.628E-03     307.641E-03    -15.1158E-03    -292.525E-03    -89.9264E-03     105.042E-03    -15.1158E-03     567.045E-03     150.438E+06     109.672E+06    -9.85452E+06    -9.24491E+06     149.828E+06     109.672E+06    -473.533E+03         66.2454
             972     15.7953E-03     13.4225E-03     411.789E-03     119.165E-03     5.06245E-03     252.391E-03     248.943E-03     34.6812E-03     82.1534E-03     137.598E-03    -13.6957E-03    -123.902E-03    -37.2716E-03     50.9673E-03    -13.6957E-03     242.516E-03     111.412E+06     28.1231E+06    -11.7920E+06    -11.6512E+06     111.271E+06     28.1231E+06     2.30049E+06         57.6859
             973     14.8103E-03     13.3430E-03     527.921E-03     49.3690E-03    -47.0568E-03     519.525E-03     25.8634E-03    -15.1557E-03    -120.786E-03     40.4607E-03    -12.7599E-03    -27.7008E-03    -19.6335E-03     32.3934E-03    -12.7599E-03     38.4556E-03     62.1075E+06    -9.41417E+06    -48.3926E+06    -12.5191E+06     62.0484E+06    -45.2286E+06     1.29963E+06         47.6444
             974     13.8281E-03     13.3164E-03     735.402E-03    -48.9207E-03    -152.477E-03     701.739E-03    -101.154E-03    -66.5804E-03    -326.806E-03     29.1386E-03    -12.2403E-03    -16.8982E-03    -16.6454E-03     28.8858E-03    -12.2403E-03     5.76172E-03     28.8666E+06    -9.71959E+06    -65.3120E+06    -8.97531E+06     28.1223E+06    -65.3120E+06     3.55446E+06         38.4868
             975     12.8440E-03     13.3042E-03     832.260E-03    -72.5645E-03    -217.123E-03     795.881E-03    -120.905E-03    -132.403E-03    -362.011E-03     28.0251E-03    -12.0442E-03    -15.9809E-03    -15.9109E-03     27.9551E-03    -12.0442E-03    -1.08471E-03     7.44158E+06    -24.1924E+06    -46.8881E+06    -4.58881E+06    -15.0797E+06    -43.9704E+06     3.45369E+06         31.5940
             976     11.8598E-03     13.2964E-03     852.289E-03    -48.1156E-03    -249.621E-03     813.380E-03    -46.3596E-03    -212.468E-03    -359.784E-03     27.4420E-03    -11.8387E-03    -15.6033E-03    -15.4902E-03     27.3289E-03    -11.8387E-03    -4.37647E-03    -1.28847E+06    -33.1930E+06    -67.8415E+06    -1.39916E+06    -67.7308E+06    -33.1930E+06     943.067E+03         27.1753
             977     10.8737E-03     13.2911E-03     810.070E-03     72.6964E-03    -312.225E-03     780.069E-03     96.2701E-03    -305.797E-03    -234.824E-03     26.9839E-03    -11.6335E-03    -15.3504E-03    -15.2334E-03     26.8669E-03    -11.6335E-03    -4.40723E-03     1.36325E+06    -16.9429E+06    -99.1791E+06     1.32331E+06    -99.1392E+06    -16.9429E+06     135.576E+03         24.6729
             978     9.88945E-03     13.2843E-03     708.208E-03     288.456E-03    -411.976E-03     700.518E-03     296.145E-03    -411.976E-03    -8.25258E-03     26.3308E-03    -11.3731E-03    -14.9576E-03    -14.8290E-03     26.2021E-03    -11.3731E-03    -4.58203E-03     3.86682E+06    -5.31211E+06    -118.388E+06     3.80478E+06    -118.326E+06    -5.31211E+06     1.41431E+06         23.3625
             979     8.90282E-03     13.2800E-03     907.198E-03     216.042E-03    -528.725E-03     551.452E-03     571.788E-03    -528.725E-03     536.188E-03     25.4248E-03    -11.0791E-03    -14.3457E-03    -14.1965E-03     25.2755E-03    -11.0791E-03    -4.82693E-03     6.89254E+06     1.21343E+06    -137.259E+06     6.81872E+06    -137.185E+06     1.21343E+06     2.09081E+06         22.6843
             980     7.91677E-03     13.2751E-03         1.18711     71.6150E-03    -650.648E-03     322.927E-03     935.796E-03    -650.648E-03     814.520E-03     24.3957E-03    -10.7710E-03    -13.6247E-03    -13.4756E-03     24.2466E-03    -10.7710E-03    -4.69739E-03     7.51481E+06     3.59741E+06    -155.020E+06     7.48323E+06    -154.988E+06     3.59741E+06     1.83959E+06         22.3065
             981     6.92916E-03     13.2715E-03         1.58995    -194.761E-03    -771.341E-03     51.0516E-03         1.34414    -771.341E-03         1.18015     23.2610E-03    -10.4589E-03    -12.8021E-03    -12.6690E-03     23.1279E-03    -10.4589E-03    -4.33344E-03     7.38928E+06     3.22557E+06    -166.094E+06     6.88744E+06    -166.060E+06     3.69357E+06     2.31467E+06         22.0651
             982     5.94146E-03     13.2673E-03         1.95888    -431.159E-03    -886.150E-03    -226.790E-03         1.75451    -886.150E-03     911.116E-03     22.1979E-03    -10.1833E-03    -12.0146E-03    -11.8957E-03     22.0790E-03    -10.1833E-03    -3.98248E-03     9.21347E+06     6.26453E+06    -172.949E+06     7.87469E+06    -172.888E+06     7.54205E+06     2.93823E+06         21.8900
             983     4.95213E-03     13.2649E-03         2.35582    -664.557E-03        -1.02761    -478.526E-03         2.13587    -993.685E-03         1.21259     21.1660E-03    -9.93482E-03    -11.2312E-03    -11.1362E-03     21.0710E-03    -9.93482E-03    -3.44215E-03     11.5762E+06     10.3788E+06    -175.615E+06     10.4705E+06    -175.509E+06     11.3784E+06     3.94772E+06         21.7539
             984     3.96299E-03     13.2615E-03         2.82507        -1.01311        -1.13486    -702.185E-03         2.47463        -1.09535     236.039E-03     20.2700E-03    -9.72038E-03    -10.5497E-03    -10.4845E-03     20.2048E-03    -9.72038E-03    -2.77248E-03     13.8956E+06     13.0872E+06    -176.477E+06     13.6266E+06    -176.398E+06     13.2773E+06     3.45026E+06         21.6468
             985     2.97226E-03     13.2601E-03         3.34088        -1.15343        -1.50069    -896.616E-03         2.77848        -1.19510         1.04354     19.6083E-03    -9.55243E-03    -10.0559E-03    -10.0121E-03     19.5645E-03    -9.55243E-03    -2.23018E-03     15.6193E+06     14.3468E+06    -176.954E+06     14.7346E+06    -176.921E+06     15.1987E+06     2.42354E+06         21.5651
             986     1.98237E-03     13.2581E-03         4.66011        -1.28094        -2.66669        -1.13893         3.13235        -1.28094        -1.84797     19.0828E-03    -9.43534E-03    -9.64749E-03    -9.61848E-03     19.0565E-03    -9.43807E-03    -1.68868E-03     19.2002E+06     15.5670E+06    -177.201E+06     15.5290E+06    -177.163E+06     19.2002E+06     2.35853E+06         21.5074
             987     990.744E-06     13.2586E-03         7.16006     207.665E-03        -6.65471        -2.84103         3.34638     207.665E-03         4.59993     18.7541E-03    -9.31272E-03    -9.44138E-03    -9.37304E-03     18.7432E-03    -9.37017E-03    -1.04961E-03     18.0653E+06     12.6997E+06    -183.240E+06     13.9857E+06    -183.180E+06     16.7199E+06     48.9630E+03         21.4726
             988     16.7748E-03     12.8463E-03     551.375E-03     64.6536E-03    -143.783E-03    -21.2459E-03     542.412E-03    -48.9208E-03     82.0861E-03     297.234E-03    -14.6703E-03    -282.563E-03    -91.4319E-03     106.102E-03    -14.6703E-03     544.776E-03     151.840E+06     109.780E+06    -9.23290E+06    -8.50998E+06     151.117E+06     109.780E+06    -428.592E+03         65.0869
             989     15.8007E-03     12.3921E-03     433.377E-03     154.118E-03    -133.002E-03     294.843E-03     292.652E-03    -133.002E-03     46.5745E-03     136.320E-03    -12.9901E-03    -123.330E-03    -39.4705E-03     52.4606E-03    -12.9901E-03     240.354E-03     110.788E+06     29.6730E+06    -12.7093E+06    -12.5104E+06     110.589E+06     29.6730E+06     2.44078E+06         56.7458
             990     14.8238E-03     12.3079E-03     577.827E-03     77.4599E-03    -198.613E-03     567.015E-03     88.2726E-03    -198.613E-03    -140.542E-03     39.0878E-03    -11.9862E-03    -27.1016E-03    -18.6043E-03     30.5905E-03    -11.9862E-03     38.9993E-03     60.6248E+06    -11.5554E+06    -47.9389E+06    -14.4507E+06     60.5749E+06    -44.9937E+06     1.79907E+06         46.9671
             991     13.8400E-03     12.2913E-03     797.094E-03    -66.5808E-03    -267.029E-03     766.548E-03    -36.0344E-03    -267.029E-03    -316.645E-03     27.9960E-03    -11.4757E-03    -16.5202E-03    -16.1428E-03     27.6185E-03    -11.4757E-03     7.21801E-03     28.5194E+06    -9.28415E+06    -63.0709E+06    -9.16362E+06     28.3988E+06    -63.0709E+06     1.46268E+06         38.0324
             992     12.8539E-03     12.2746E-03     877.744E-03    -51.1147E-03    -352.574E-03     849.979E-03    -23.3501E-03    -352.574E-03    -307.874E-03     26.5882E-03    -11.2653E-03    -15.3229E-03    -15.2514E-03     26.5167E-03    -11.2653E-03     326.472E-06     9.13714E+06    -20.9921E+06    -45.1746E+06    -1.93122E+06    -13.7577E+06    -41.3406E+06     1.61240E+06         31.2999
             993     11.8686E-03     12.2711E-03     858.722E-03     84.1845E-03    -453.711E-03     831.746E-03     111.161E-03    -453.711E-03    -269.483E-03     26.3836E-03    -11.0413E-03    -15.3423E-03    -15.2792E-03     26.3206E-03    -11.0413E-03    -3.17073E-03     1.81402E+06    -28.6493E+06    -65.7384E+06     1.66787E+06    -65.5922E+06    -28.6493E+06     1.11416E+06         26.9776
             994     10.8844E-03     12.2637E-03     777.242E-03     299.247E-03    -567.844E-03     745.723E-03     330.766E-03    -567.844E-03    -124.270E-03     25.9814E-03    -10.7849E-03    -15.1965E-03    -15.1087E-03     25.8936E-03    -10.7849E-03    -3.73866E-03     2.87925E+06    -12.3235E+06    -98.8566E+06     2.78810E+06    -98.7655E+06    -12.3235E+06    -45.8191E+03         24.5258
             995     9.89803E-03     12.2601E-03     764.471E-03     455.811E-03    -692.484E-03     591.747E-03     628.535E-03    -692.484E-03     93.4732E-03     25.0770E-03    -10.4548E-03    -14.6222E-03    -14.4917E-03     24.9465E-03    -10.4548E-03    -4.50584E-03     5.47832E+06    -2.39051E+06    -118.752E+06     5.43503E+06    -118.709E+06    -2.39051E+06    -1.22246E+06         23.2376
             996     8.91244E-03     12.2551E-03         1.11579     249.734E-03    -824.826E-03     391.557E-03     973.967E-03    -824.826E-03     581.166E-03     24.0488E-03    -10.1021E-03    -13.9467E-03    -13.7746E-03     23.8767E-03    -10.1021E-03    -5.08603E-03     9.15512E+06     4.36149E+06    -138.023E+06     9.11644E+06    -137.985E+06     4.36149E+06    -357.630E+03         22.5666
             997     7.92501E-03     12.2528E-03         1.51728    -1.27326E-03    -962.808E-03     157.019E-03         1.35899    -962.808E-03     817.482E-03     22.8833E-03    -9.75697E-03    -13.1264E-03    -12.9277E-03     22.6847E-03    -9.75697E-03    -5.32056E-03     13.3790E+06     9.91202E+06    -155.920E+06     11.4939E+06    -155.872E+06     11.7490E+06     1.77431E+06         22.1887
             998     6.93741E-03     12.2495E-03         1.97325    -303.485E-03        -1.10160    -143.568E-03         1.81333        -1.10160         1.12163     21.5389E-03    -9.39395E-03    -12.1450E-03    -11.9526E-03     21.3465E-03    -9.39395E-03    -5.05544E-03     15.2564E+06     11.6422E+06    -165.647E+06     12.9105E+06    -165.606E+06     13.9472E+06     1.89840E+06         21.9443
             999     5.94801E-03     12.2476E-03         2.42103    -599.954E-03        -1.23432    -467.650E-03         2.28873        -1.23432     865.254E-03     20.2318E-03    -9.05990E-03    -11.1719E-03    -10.9993E-03     20.0592E-03    -9.05990E-03    -4.62309E-03     15.5103E+06     13.9982E+06    -173.693E+06     14.3526E+06    -173.668E+06     15.1302E+06     1.49269E+06         21.7651
            1000     4.95869E-03     12.2451E-03         2.86950    -897.265E-03        -1.36006    -745.547E-03         2.71779        -1.36006         1.14249     19.0516E-03    -8.75780E-03    -10.2938E-03    -10.1502E-03     18.9080E-03    -8.75780E-03    -4.06809E-03     16.4464E+06     15.0781E+06    -175.510E+06     15.7579E+06    -175.486E+06     15.7422E+06     1.32641E+06         21.6249
            1001     3.96749E-03     12.2441E-03         3.36714        -1.25769        -1.47788        -1.03025         3.13970        -1.47788     271.110E-03     17.9680E-03    -8.50877E-03    -9.45919E-03    -9.35856E-03     17.8673E-03    -8.50877E-03    -3.28413E-03     17.0508E+06     16.1195E+06    -174.885E+06     16.8233E+06    -174.844E+06     16.3053E+06     1.92360E+06         21.5143
            1002     2.97665E-03     12.2419E-03         3.88682        -1.48695        -1.75656        -1.28966         3.51609        -1.58313     978.694E-03     17.1516E-03    -8.33780E-03    -8.81382E-03    -8.74927E-03     17.0871E-03    -8.33780E-03    -2.55973E-03     18.4646E+06     17.6295E+06    -175.549E+06     18.1369E+06    -175.516E+06     17.9237E+06     1.71287E+06         21.4299
            1003     1.98405E-03     12.2420E-03         4.95718        -1.67095        -2.62515        -1.51640         3.84843        -1.67095        -1.62097     16.6853E-03    -8.21996E-03    -8.46530E-03    -8.42769E-03     16.6477E-03    -8.21996E-03    -1.90698E-03     20.1879E+06     18.5598E+06    -176.538E+06     19.0521E+06    -176.530E+06     19.6883E+06     485.378E+03         21.3702
            1004     992.635E-06     12.2408E-03         7.12112    -530.439E-03        -5.93114        -2.88930         4.07928    -530.439E-03         4.09076     16.3463E-03    -8.09105E-03    -8.25529E-03    -8.21914E-03     16.3299E-03    -8.11081E-03    -1.20080E-03     21.0181E+06     17.0074E+06    -180.405E+06     18.7541E+06    -180.400E+06     19.2664E+06     913.741E+03         21.3339
            1005     16.7786E-03     11.7982E-03     599.290E-03     30.1522E-03    -237.694E-03     15.6225E-03     593.215E-03    -217.089E-03     70.2577E-03     287.802E-03    -14.4177E-03    -273.385E-03    -92.2238E-03     106.642E-03    -14.4177E-03     524.579E-03     151.607E+06     110.167E+06    -9.27728E+06    -8.82219E+06     151.151E+06     110.167E+06     1.52888E+06         63.8138
            1006     15.8153E-03     11.3541E-03     472.940E-03     229.509E-03    -316.482E-03     300.054E-03     402.395E-03    -316.482E-03     49.0812E-03     132.429E-03    -12.5249E-03    -119.904E-03    -41.3482E-03     53.8731E-03    -12.5249E-03     231.378E-03     109.413E+06     30.1869E+06    -13.9122E+06    -13.6983E+06     109.199E+06     30.1869E+06     1.91952E+06         55.7185
            1007     14.8297E-03     11.2825E-03     552.057E-03     234.527E-03    -394.353E-03     539.981E-03     246.603E-03    -394.353E-03    -113.861E-03     37.6476E-03    -11.4444E-03    -26.2032E-03    -18.0856E-03     29.5300E-03    -11.4444E-03     38.6690E-03     63.4786E+06    -7.07079E+06    -43.4437E+06    -10.7004E+06     63.3327E+06    -39.6682E+06    -253.011E+03         46.2263
            1008     13.8458E-03     11.2593E-03     742.313E-03     133.216E-03    -473.554E-03     707.778E-03     167.750E-03    -473.554E-03    -271.864E-03     27.3431E-03    -10.9193E-03    -16.4239E-03    -15.8751E-03     26.7944E-03    -10.9193E-03     8.64503E-03     28.2239E+06    -6.37758E+06    -60.1604E+06    -6.26629E+06     28.1126E+06    -60.1604E+06     -794.39E+03         37.5347
            1009     12.8626E-03     11.2520E-03     822.606E-03     161.197E-03    -570.203E-03     791.327E-03     192.475E-03    -570.203E-03    -262.267E-03     26.1227E-03    -10.6689E-03    -15.4538E-03    -15.3944E-03     26.0633E-03    -10.6689E-03     1.94629E-03     5.20671E+06    -19.4051E+06    -43.7734E+06    -3.49143E+06    -13.8898E+06    -40.5905E+06     663.810E+03         30.9808
            1010     11.8766E-03     11.2423E-03     817.880E-03     295.709E-03    -684.086E-03     767.967E-03     345.623E-03    -684.086E-03    -234.164E-03     25.7547E-03    -10.3964E-03    -15.3583E-03    -15.3237E-03     25.7201E-03    -10.3964E-03    -1.40397E-03    -64.6894E+03    -26.0607E+06    -64.2131E+06    -276.428E+03    -64.0013E+06    -26.0607E+06     351.072E+03         26.7704
            1011     10.8916E-03     11.2400E-03     816.462E-03     446.267E-03    -810.739E-03     634.488E-03     628.240E-03    -810.739E-03    -100.608E-03     25.3038E-03    -10.0797E-03    -15.2241E-03    -15.1642E-03     25.2439E-03    -10.0797E-03    -3.08095E-03     4.25544E+06    -8.17366E+06    -97.1508E+06     4.11153E+06    -97.0069E+06    -8.17366E+06    -1.44126E+06         24.3783
            1012     9.90659E-03     11.2346E-03         1.01372     406.015E-03    -945.020E-03     423.373E-03     996.366E-03    -945.020E-03     133.970E-03     24.1951E-03    -9.68099E-03    -14.5141E-03    -14.4067E-03     24.0877E-03    -9.68099E-03    -4.00877E-03     7.01667E+06     1.51133E+06    -118.269E+06     6.93578E+06    -118.188E+06     1.51133E+06    -3.04032E+06         23.1180
            1013     8.91977E-03     11.2334E-03         1.49682     76.5080E-03        -1.08275     164.953E-03         1.40838        -1.08275     624.104E-03     22.9683E-03    -9.25443E-03    -13.7138E-03    -13.5446E-03     22.7991E-03    -9.25443E-03    -4.93483E-03     9.08422E+06     3.98489E+06    -141.324E+06     7.67216E+06    -141.266E+06     5.33827E+06    -2.25661E+06         22.4582
            1014     7.93278E-03     11.2306E-03         1.94080    -214.809E-03        -1.22160    -106.815E-03         1.83281        -1.22160     870.328E-03     21.5298E-03    -8.84151E-03    -12.6883E-03    -12.4748E-03     21.3163E-03    -8.84151E-03    -5.37693E-03     13.6059E+06     9.35349E+06    -155.811E+06     9.91332E+06    -155.691E+06     12.9257E+06    -1.40426E+06         22.0837
            1015     6.94406E-03     11.2305E-03         2.38488    -506.384E-03        -1.36157    -374.712E-03         2.25320        -1.36157         1.16142     19.9738E-03    -8.43016E-03    -11.5436E-03    -11.3221E-03     19.7523E-03    -8.43016E-03    -5.26337E-03     17.3388E+06     14.1874E+06    -165.465E+06     14.4500E+06    -165.347E+06     16.9587E+06    -1.13273E+06         21.8392
            1016     5.95478E-03     11.2287E-03         2.81284    -775.187E-03        -1.50151    -666.301E-03         2.70395        -1.50151     929.915E-03     18.4663E-03    -8.05054E-03    -10.4158E-03    -10.2169E-03     18.2674E-03    -8.05054E-03    -4.77422E-03     18.3497E+06     17.0122E+06    -174.109E+06     17.6300E+06    -174.087E+06     17.7105E+06    -220.332E+03         21.6586
            1017     4.96352E-03     11.2287E-03         3.30243        -1.10167        -1.63624    -984.164E-03         3.18492        -1.63624         1.15567     17.1293E-03    -7.72661E-03    -9.40271E-03    -9.23734E-03     16.9640E-03    -7.72661E-03    -4.17085E-03     20.5606E+06     18.0739E+06    -175.869E+06     18.8029E+06    -175.832E+06     19.7950E+06     364.279E+03         21.5170
            1018     3.97245E-03     11.2275E-03         3.81363        -1.46866        -1.75781        -1.30675         3.65173        -1.75781     352.204E-03     15.9677E-03    -7.45761E-03    -8.51007E-03    -8.38940E-03     15.8470E-03    -7.45761E-03    -3.41082E-03     21.2993E+06     19.0295E+06    -175.519E+06     19.4934E+06    -175.476E+06     20.7929E+06     1.15029E+06         21.4051
            1019     2.97933E-03     11.2278E-03         4.30420        -1.73574        -1.96577        -1.57453         4.03938        -1.86217     957.892E-03     15.0393E-03    -7.25725E-03    -7.78202E-03    -7.70689E-03     14.9641E-03    -7.25725E-03    -2.59437E-03     21.3051E+06     19.6260E+06    -173.808E+06     20.0979E+06    -173.781E+06     20.8055E+06     464.432E+03         21.3195
            1020     1.98693E-03     11.2266E-03         5.20064        -1.94034        -2.64111        -1.81964         4.37916        -1.94034        -1.38206     14.5030E-03    -7.12951E-03    -7.37348E-03    -7.31881E-03     14.4620E-03    -7.14320E-03    -1.85475E-03     23.7784E+06     19.4346E+06    -176.086E+06     19.9311E+06    -176.083E+06     23.2788E+06    -206.498E+03         21.2585
            1021     993.295E-06     11.2274E-03         7.00214        -1.02585        -5.36408        -2.91516         4.55322        -1.02585         3.64548     14.1796E-03    -7.03122E-03    -7.14841E-03    -7.09577E-03     14.1604E-03    -7.06467E-03    -1.24914E-03     24.1289E+06     17.5149E+06    -179.396E+06     19.2575E+06    -179.387E+06     22.3772E+06    -346.147E+03         21.2211
            1022     16.7742E-03     10.7207E-03     693.258E-03     35.2934E-03    -402.308E-03     38.2613E-03     690.290E-03    -402.308E-03     58.2137E-03     279.426E-03    -14.4127E-03    -265.014E-03    -92.8627E-03     107.275E-03    -14.4127E-03     506.217E-03     149.789E+06     114.047E+06    -11.8652E+06    -11.5404E+06     149.464E+06     114.047E+06    -613.154E+03         62.4632
            1023     15.8146E-03     10.3198E-03     574.285E-03     266.323E-03    -514.478E-03     280.327E-03     560.281E-03    -514.478E-03     30.6101E-03     123.974E-03    -12.3281E-03    -111.646E-03    -42.6178E-03     54.9459E-03    -12.3281E-03     212.919E-03     112.281E+06     37.2498E+06    -11.5198E+06    -11.1552E+06     111.942E+06     37.2250E+06    -992.231E+03         54.6204
            1024     14.8379E-03     10.2532E-03     575.697E-03     361.396E-03    -600.934E-03     453.671E-03     483.422E-03    -600.934E-03    -83.9705E-03     37.3429E-03    -11.1121E-03    -26.2308E-03    -17.7812E-03     28.8932E-03    -11.1121E-03     39.9014E-03     63.2045E+06    -5.40449E+06    -41.5642E+06    -8.03701E+06     62.7811E+06    -38.5083E+06    -1.85640E+06         45.4292
            1025     13.8522E-03     10.2341E-03     692.207E-03     341.762E-03    -685.708E-03     545.816E-03     488.153E-03    -685.708E-03    -210.289E-03     27.8726E-03    -10.5582E-03    -17.3144E-03    -16.4380E-03     26.9962E-03    -10.5582E-03     10.5311E-03     26.7408E+06    -6.94682E+06    -60.1515E+06    -6.63947E+06     26.4335E+06    -60.1515E+06     757.166E+03         36.9940
            1026     12.8664E-03     10.2234E-03     787.512E-03     357.521E-03    -784.106E-03     584.051E-03     560.982E-03    -784.106E-03    -217.237E-03     26.1814E-03    -10.2543E-03    -15.9271E-03    -15.8735E-03     26.1278E-03    -10.2543E-03     2.85955E-03     5.57262E+06    -17.7168E+06    -42.7459E+06    -4.41775E+06    -12.6299E+06    -37.8425E+06    -151.503E+03         30.6382
            1027     11.8828E-03     10.2187E-03     867.418E-03     407.198E-03    -898.039E-03     556.660E-03     717.956E-03    -898.039E-03    -202.636E-03     25.5579E-03    -9.91685E-03    -15.6410E-03    -15.6197E-03     25.5365E-03    -9.91685E-03     164.086E-06     582.712E+03    -22.5298E+06    -62.3631E+06     182.066E+03    -61.9625E+06    -22.5298E+06    -2.44433E+06         26.5535
            1028     10.8980E-03     10.2132E-03         1.04088     383.768E-03        -1.02496     431.601E-03     993.052E-03        -1.02496    -68.6245E-03     24.8298E-03    -9.53859E-03    -15.2912E-03    -15.2493E-03     24.7879E-03    -9.53859E-03    -2.36725E-03     5.09847E+06    -5.79125E+06    -95.7980E+06     4.22876E+06    -95.5905E+06    -5.12906E+06    -4.01358E+06         24.2309
            1029     9.91223E-03     10.2128E-03         1.37916     205.380E-03        -1.15939     211.163E-03         1.37338        -1.15939     163.380E-03     23.6196E-03    -9.09116E-03    -14.5285E-03    -14.4373E-03     23.5285E-03    -9.09116E-03    -3.66827E-03     7.53479E+06     4.27567E+06    -119.287E+06     5.88697E+06    -119.123E+06     5.75938E+06    -3.67385E+06         23.0056
            1030     8.92619E-03     10.2102E-03         1.87216    -131.816E-03        -1.29573    -66.3439E-03         1.80668        -1.29573     643.003E-03     22.1174E-03    -8.59530E-03    -13.5221E-03    -13.3638E-03     21.9591E-03    -8.59530E-03    -4.68873E-03     11.5702E+06     6.44036E+06    -141.244E+06     9.07383E+06    -140.922E+06     8.61525E+06    -4.83340E+06         22.3627
            1031     7.93848E-03     10.2117E-03         2.33299    -441.960E-03        -1.43069    -354.783E-03         2.24581        -1.43069     927.891E-03     20.4647E-03    -8.12517E-03    -12.3395E-03    -12.1284E-03     20.2535E-03    -8.12517E-03    -5.23640E-03     16.8947E+06     12.2645E+06    -156.283E+06     13.7541E+06    -155.900E+06     15.0220E+06    -6.02904E+06         21.9967
            1032     6.94963E-03     10.2112E-03         2.78105    -742.388E-03        -1.56460    -623.177E-03         2.66184        -1.56460         1.23172     18.7384E-03    -7.69597E-03    -11.0424E-03    -10.8148E-03     18.5108E-03    -7.69597E-03    -5.18277E-03     21.5631E+06     16.2032E+06    -168.390E+06     16.0476E+06    -168.235E+06     21.5631E+06    -4.13756E+06         21.7569
            1033     5.95910E-03     10.2131E-03         3.18763    -997.433E-03        -1.69792    -899.194E-03         3.08939        -1.69792         1.03674     17.0628E-03    -7.29786E-03    -9.76493E-03    -9.55854E-03     16.8564E-03    -7.29786E-03    -4.68347E-03     24.3656E+06     16.7118E+06    -174.867E+06     16.9063E+06    -174.802E+06     24.1065E+06    -2.39674E+06         21.5796
            1034     4.96807E-03     10.2128E-03         3.65400        -1.30540        -1.82661        -1.20174         3.55034        -1.82661         1.22441     15.5828E-03    -6.95301E-03    -8.62976E-03    -8.46616E-03     15.4192E-03    -6.95301E-03    -3.96377E-03     25.2765E+06     18.1983E+06    -176.914E+06     18.3922E+06    -176.849E+06     25.0173E+06    -1.49778E+06         21.4404
            1035     3.97509E-03     10.2143E-03         4.12741        -1.63753        -1.94254        -1.51315         4.00302        -1.94254     489.161E-03     14.4210E-03    -6.67439E-03    -7.74663E-03    -7.63025E-03     14.3046E-03    -6.67439E-03    -3.18586E-03     26.8085E+06     20.5204E+06    -175.687E+06     20.4616E+06    -175.628E+06     26.8085E+06    -1.32177E+06         21.3304
            1036     2.98258E-03     10.2140E-03         4.57325        -1.90387        -2.10377        -1.77120         4.37787        -2.04106     972.534E-03     13.4918E-03    -6.44390E-03    -7.04793E-03    -6.97851E-03     13.4224E-03    -6.44390E-03    -2.36555E-03     26.1176E+06     21.2707E+06    -173.450E+06     21.2538E+06    -173.433E+06     26.1176E+06    -1.41423E+06         21.2457
            1037     1.98825E-03     10.2150E-03         5.32032        -2.11366        -2.62440        -2.00291         4.69884        -2.11366        -1.15472     12.7961E-03    -6.29312E-03    -6.50299E-03    -6.44617E-03     12.7594E-03    -6.31319E-03    -1.64774E-03     27.8537E+06     20.8371E+06    -176.234E+06     20.8239E+06    -176.221E+06     27.8537E+06    -1.11831E+06         21.1850
            1038     994.300E-06     10.2143E-03         6.83546        -1.38521        -4.87467        -2.89741         4.85820        -1.38521         3.26991     12.4826E-03    -6.22550E-03    -6.25706E-03    -6.22017E-03     12.4668E-03    -6.24659E-03    -1.02390E-03     24.2942E+06     15.9525E+06    -181.988E+06     17.1961E+06    -181.977E+06     23.0400E+06    -1.32782E+06         21.1475
            1039     16.7697E-03     9.62318E-03     837.855E-03     34.8608E-03    -600.636E-03     35.2498E-03     837.466E-03    -600.636E-03     24.4935E-03     271.081E-03    -14.4170E-03    -256.664E-03    -92.3846E-03     106.802E-03    -14.4170E-03     488.643E-03     155.341E+06     123.196E+06    -5.59213E+06    -5.35995E+06     155.109E+06     123.196E+06     70.1006E+03         61.0493
            1040     15.8240E-03     9.29027E-03     784.793E-03     209.760E-03    -722.142E-03     210.202E-03     784.351E-03    -722.142E-03     9.91327E-03     112.265E-03    -12.2769E-03    -99.9884E-03    -39.9797E-03     52.2566E-03    -12.2769E-03     189.826E-03     110.948E+06     35.7630E+06    -11.1242E+06    -10.6718E+06     110.520E+06     35.7382E+06    -2.60229E+06         53.4240
            1041     14.8329E-03     9.22470E-03     798.042E-03     299.830E-03    -812.812E-03     306.004E-03     791.868E-03    -812.812E-03    -65.8091E-03     39.4318E-03    -10.9798E-03    -28.4520E-03    -19.6963E-03     30.6761E-03    -10.9798E-03     40.5209E-03     59.6689E+06    -14.4480E+06    -42.4426E+06    -13.9537E+06     59.1512E+06    -42.4191E+06     939.612E+03         44.5380
            1042     13.8536E-03     9.20364E-03     888.703E-03     310.633E-03    -899.126E-03     330.334E-03     869.002E-03    -899.126E-03    -164.502E-03     28.7252E-03    -10.3242E-03    -18.4010E-03    -17.7172E-03     28.0414E-03    -10.3242E-03     8.69868E-03     28.5329E+06    -12.5589E+06    -59.3372E+06    -12.0302E+06     28.0041E+06    -59.3372E+06    -452.325E+03         36.3953
            1043     12.8717E-03     9.19917E-03         1.02775     280.881E-03    -994.029E-03     297.437E-03         1.01119    -994.029E-03    -128.670E-03     26.0821E-03    -9.93723E-03    -16.1449E-03    -16.0986E-03     26.0358E-03    -9.93723E-03     2.63634E-03     8.16660E+06    -18.5765E+06    -42.9659E+06    -4.97272E+06    -10.9946E+06    -37.4085E+06    -3.07825E+06         30.2623
            1044     11.8863E-03     9.19103E-03         1.20982     219.911E-03        -1.09941     226.574E-03         1.20316        -1.09941    -78.0843E-03     25.3736E-03    -9.57141E-03    -15.8022E-03    -15.7788E-03     25.3502E-03    -9.57141E-03     666.694E-06     895.781E+03    -19.4459E+06    -60.4943E+06     367.139E+03    -59.9656E+06    -19.4459E+06    -4.79950E+06         26.3201
            1045     10.9019E-03     9.19036E-03         1.46488     102.308E-03        -1.21475     110.244E-03         1.45695        -1.21475     64.1941E-03     24.4879E-03    -9.16177E-03    -15.3261E-03    -15.2892E-03     24.4510E-03    -9.16177E-03    -2.14227E-03     5.27657E+06    -4.17849E+06    -96.2648E+06     2.22639E+06    -95.8371E+06    -1.55597E+06    -5.56902E+06         24.0801
            1046     9.91688E-03     9.18819E-03         1.80884    -92.4796E-03        -1.33711    -82.7108E-03         1.79907        -1.33711     270.899E-03     23.0384E-03    -8.68075E-03    -14.3576E-03    -14.2713E-03     22.9521E-03    -8.68075E-03    -3.54401E-03     10.0326E+06     6.18206E+06    -118.890E+06     5.53616E+06    -118.244E+06     10.0326E+06    -7.08003E+06         22.8999
            1047     8.93019E-03     9.19055E-03         2.24359    -378.803E-03        -1.46229    -324.126E-03         2.18892        -1.46229     690.909E-03     21.3399E-03    -8.15856E-03    -13.1813E-03    -13.0435E-03     21.2021E-03    -8.15856E-03    -4.31130E-03     14.5336E+06     9.84798E+06    -139.621E+06     10.8239E+06    -138.724E+06     12.6608E+06    -9.99588E+06         22.2820
            1048     7.94229E-03     9.19130E-03         2.66328    -653.964E-03        -1.58759    -581.634E-03         2.59095        -1.58759     938.347E-03     19.6094E-03    -7.69225E-03    -11.9172E-03    -11.7345E-03     19.4268E-03    -7.69225E-03    -4.76949E-03     21.6417E+06     12.8245E+06    -159.884E+06     14.1053E+06    -159.292E+06     19.7689E+06    -9.16558E+06         21.9317
            1049     6.95306E-03     9.19517E-03         3.11363    -966.613E-03        -1.70988    -867.787E-03         3.01480        -1.70988         1.21714     17.8464E-03    -7.27513E-03    -10.5713E-03    -10.3802E-03     17.6553E-03    -7.27513E-03    -4.62005E-03     29.6755E+06     16.2982E+06    -171.939E+06     15.9965E+06    -171.638E+06     29.6755E+06    -6.74548E+06         21.7036
            1050     5.96253E-03     9.19673E-03         3.51742        -1.23597        -1.82544        -1.15378         3.43523        -1.82544         1.06865     16.1407E-03    -6.87659E-03    -9.26415E-03    -9.09841E-03     15.9750E-03    -6.87659E-03    -4.05313E-03     33.7071E+06     18.5537E+06    -176.772E+06     18.3204E+06    -176.539E+06     33.7071E+06    -5.88022E+06         21.5358
            1051     4.97019E-03     9.19998E-03         3.90735        -1.48946        -1.93486        -1.39657         3.81446        -1.93486         1.24344     14.6494E-03    -6.51806E-03    -8.13132E-03    -8.00627E-03     14.5243E-03    -6.51806E-03    -3.32854E-03     32.9069E+06     20.6979E+06    -177.785E+06     20.4877E+06    -177.574E+06     32.9069E+06    -5.54672E+06         21.4042
            1052     3.97762E-03     9.20083E-03         4.29482        -1.74729        -2.03729        -1.64661         4.19414        -2.03729     565.714E-03     13.4429E-03    -6.22866E-03    -7.21425E-03    -7.13189E-03     13.3605E-03    -6.22866E-03    -2.56223E-03     31.8701E+06     22.1270E+06    -176.862E+06     21.9441E+06    -176.679E+06     31.8701E+06    -5.44499E+06         21.2999
            1053     2.98344E-03     9.20285E-03         4.69294        -1.99296        -2.16881        -1.87615         4.53530        -2.12798     986.358E-03     12.5423E-03    -6.01049E-03    -6.53183E-03    -6.48683E-03     12.4973E-03    -6.01049E-03    -1.79512E-03     31.2974E+06     22.9192E+06    -176.066E+06     22.8032E+06    -175.950E+06     31.2974E+06    -3.47690E+06         21.2193
            1054     1.98973E-03     9.20318E-03         5.31700        -2.20453        -2.56251        -2.06591         4.82040        -2.20453    -942.424E-03     11.9248E-03    -5.83592E-03    -6.08892E-03    -6.06018E-03     11.9025E-03    -5.84232E-03    -1.21264E-03     28.6064E+06     21.2077E+06    -178.815E+06     21.1796E+06    -178.787E+06     28.6064E+06    -1.99577E+06         21.1612
            1055     994.749E-06     9.20454E-03         6.65485        -1.63887        -4.46399        -2.83927         5.03014        -1.63887         2.97106     11.4732E-03    -5.66176E-03    -5.81141E-03    -5.72784E-03     11.4643E-03    -5.73651E-03    -673.381E-06     22.2070E+06     17.2569E+06    -182.294E+06     18.4873E+06    -182.270E+06     20.9528E+06    -963.468E+03         21.1251
            1056     16.7845E-03     8.54664E-03         1.05526    -21.2376E-03    -809.273E-03    -21.1023E-03         1.05512    -809.273E-03     20.6501E-03     268.854E-03    -14.5480E-03    -254.306E-03    -94.3678E-03     108.916E-03    -14.5480E-03     481.181E-03     156.575E+06     123.000E+06    -6.24786E+06    -6.05338E+06     153.490E+06     125.890E+06     557.946E+03         59.4695
            1057     15.8061E-03     8.25754E-03         1.09705     60.4518E-03    -935.608E-03     60.6783E-03         1.09682    -935.608E-03     26.1328E-03     102.004E-03    -12.3020E-03    -89.7020E-03    -41.6273E-03     53.9293E-03    -12.3020E-03     163.016E-03     110.794E+06     41.8891E+06    -15.1868E+06    -14.8653E+06     110.473E+06     41.8891E+06    -711.388E+03         52.0583
            1058     14.8405E-03     8.18708E-03         1.17077     91.4520E-03        -1.02522     93.1097E-03         1.16912        -1.02522    -23.6680E-03     38.2313E-03    -10.8225E-03    -27.4089E-03    -21.3439E-03     32.1664E-03    -10.8225E-03     32.1770E-03     61.7476E+06    -6.22954E+06    -45.7714E+06    -18.0300E+06     61.4559E+06    -33.6792E+06    -502.806E+03         43.5300
            1059     13.8595E-03     8.17793E-03         1.29156     73.9771E-03        -1.10918     77.2511E-03         1.28829        -1.10918    -93.5374E-03     27.6097E-03    -10.0616E-03    -17.5481E-03    -17.4013E-03     27.4629E-03    -10.0616E-03     4.07552E-03     29.9783E+06    -14.1912E+06    -57.9311E+06    -13.8087E+06     29.5958E+06    -57.9311E+06    -2.14387E+06         35.7175
            1060     12.8735E-03     8.17118E-03         1.47361    -2.19133E-03        -1.19848     163.337E-06         1.47126        -1.19848    -12.0237E-03     25.4986E-03    -9.67525E-03    -15.8233E-03    -15.7887E-03     25.4639E-03    -9.67525E-03     1.94365E-03     6.91122E+06    -20.8947E+06    -41.4782E+06    -10.3357E+06    -7.94106E+06    -37.1849E+06    -5.03184E+06         29.8341
            1061     11.8900E-03     8.16746E-03         1.72620    -144.690E-03        -1.29276    -143.273E-03         1.72478        -1.29276     86.7632E-03     24.8710E-03    -9.31883E-03    -15.5521E-03    -15.5144E-03     24.8332E-03    -9.31883E-03     835.408E-06    -3.28036E+06    -18.5816E+06    -61.9361E+06    -6.07552E+06    -59.1410E+06    -18.5816E+06    -7.93213E+06         26.0597
            1062     10.9052E-03     8.16430E-03         2.02120    -321.170E-03        -1.38935    -312.806E-03         2.01284        -1.38935     243.412E-03     23.7841E-03    -8.91900E-03    -14.8651E-03    -14.8300E-03     23.7490E-03    -8.91900E-03    -2.17789E-03     3.37931E+06    -1.30764E+06    -96.7603E+06     207.588E+03    -95.5854E+06     689.233E+03    -9.34728E+06         23.9209
            1063     9.91921E-03     8.16759E-03         2.31857    -493.158E-03        -1.48812    -477.304E-03         2.30272        -1.48812     420.990E-03     22.1457E-03    -8.47495E-03    -13.6707E-03    -13.6051E-03     22.0801E-03    -8.47495E-03    -3.02711E-03     14.7007E+06     7.09290E+06    -117.212E+06     5.55600E+06    -115.675E+06     14.7007E+06    -12.4128E+06         22.7990
            1064     8.93198E-03     8.16883E-03         2.66243    -709.988E-03        -1.58940    -661.511E-03         2.61395        -1.58940     760.528E-03     20.4940E-03    -8.01762E-03    -12.4764E-03    -12.3847E-03     20.4023E-03    -8.01762E-03    -3.39791E-03     18.8278E+06     8.89967E+06    -140.649E+06     7.52043E+06    -139.269E+06     18.8278E+06    -13.6869E+06         22.2169
            1065     7.94366E-03     8.17427E-03         3.01613    -937.959E-03        -1.69096    -878.782E-03         2.95696        -1.69096     933.492E-03     18.8512E-03    -7.59738E-03    -11.2539E-03    -11.1461E-03     18.7435E-03    -7.59738E-03    -3.48046E-03     23.5815E+06     11.5461E+06    -164.132E+06     10.4172E+06    -163.004E+06     23.5815E+06    -13.4916E+06         21.8918
            1066     6.95368E-03     8.17762E-03         3.39074        -1.19560        -1.78926        -1.11567         3.31080        -1.78926         1.16403     17.2876E-03    -7.21826E-03    -10.0694E-03    -9.97500E-03     17.1933E-03    -7.21826E-03    -3.05387E-03     31.8692E+06     16.1223E+06    -176.208E+06     15.2168E+06    -175.303E+06     31.8692E+06    -12.5531E+06         21.6841
            1067     5.96261E-03     8.18307E-03         3.73036        -1.42474        -1.88058        -1.35772         3.66335        -1.88058         1.02101     15.8399E-03    -6.84653E-03    -8.99338E-03    -8.92131E-03     15.7678E-03    -6.84653E-03    -2.49795E-03     35.1855E+06     18.9970E+06    -178.967E+06     18.3459E+06    -178.316E+06     35.1855E+06    -10.7341E+06         21.5335
            1068     4.97080E-03     8.18579E-03         4.05874        -1.64265        -1.96410        -1.56282         3.97892        -1.96410         1.18723     14.4987E-03    -6.50339E-03    -7.99527E-03    -7.94406E-03     14.4475E-03    -6.50339E-03    -1.94416E-03     34.1694E+06     20.2685E+06    -180.385E+06     19.7310E+06    -179.847E+06     34.1694E+06    -9.94632E+06         21.4160
            1069     3.97752E-03     8.18957E-03         4.33188        -1.81137        -2.04366        -1.72789         4.24840        -2.04366     586.500E-03     13.3255E-03    -6.21484E-03    -7.11066E-03    -7.07867E-03     13.2935E-03    -6.21484E-03    -1.43678E-03     31.3770E+06     21.2471E+06    -180.678E+06     20.8162E+06    -180.247E+06     31.3770E+06    -8.71686E+06         21.3224
            1070     2.98390E-03     8.19110E-03         4.63376        -1.99184        -2.14063        -1.86960         4.49678        -2.12589     968.485E-03     12.4465E-03    -6.00532E-03    -6.44120E-03    -6.42466E-03     12.4300E-03    -6.00532E-03    -990.320E-06     29.1800E+06     21.1553E+06    -181.096E+06     20.9246E+06    -180.865E+06     29.1800E+06    -5.93748E+06         21.2493
            1071     1.98910E-03     8.19302E-03         5.20521        -2.19568        -2.48575        -2.06711         4.79339        -2.20251    -782.719E-03     11.9036E-03    -5.84910E-03    -6.05454E-03    -6.04270E-03     11.8973E-03    -5.85458E-03    -596.858E-06     27.3864E+06     19.6266E+06    -181.642E+06     19.5277E+06    -181.543E+06     27.3864E+06    -3.34259E+06         21.1960
            1072     995.164E-06     8.19347E-03         6.38547        -1.70486        -4.15108        -2.76795         5.00234        -1.70486         2.71904     11.5031E-03    -5.67654E-03    -5.82661E-03    -5.74924E-03     11.5010E-03    -5.75171E-03    -323.821E-06     21.9677E+06     17.0798E+06    -182.535E+06     17.0536E+06    -182.509E+06     21.9677E+06    -1.13584E+06         21.1625
            1073     16.7425E-03     7.43915E-03         1.32185    -116.244E-03        -1.02436    -115.129E-03         1.32073        -1.02436     73.3351E-03     261.083E-03    -14.3854E-03    -246.698E-03    -99.2611E-03     113.646E-03    -14.3854E-03     458.549E-03     152.228E+06     118.131E+06    -9.23802E+06    -9.17895E+06     149.280E+06     121.021E+06    -1.69074E+06         57.6324
            1074     15.8324E-03     7.21239E-03         1.47267    -144.036E-03        -1.15205    -142.409E-03         1.47104        -1.15205     96.4606E-03     83.9925E-03    -12.0391E-03    -71.9534E-03    -40.6416E-03     52.6808E-03    -12.0391E-03     123.199E-03     114.229E+06     55.9181E+06    -15.3601E+06    -15.0034E+06     113.872E+06     55.9181E+06    -154.483E+03         50.4763
            1075     14.8458E-03     7.16033E-03         1.60100    -170.645E-03        -1.23655    -169.509E-03         1.59986        -1.23655     66.5605E-03     34.6366E-03    -10.5035E-03    -24.1332E-03    -19.3127E-03     29.8162E-03    -10.5035E-03     27.2310E-03     64.1865E+06    -608.268E+03    -44.7319E+06    -18.2219E+06     63.7542E+06    -26.6860E+06     1.87927E+06         42.3572
            1076     13.8610E-03     7.14796E-03         1.75835    -229.695E-03        -1.31445    -229.220E-03         1.75788        -1.31445     20.3080E-03     25.9461E-03    -9.81599E-03    -16.1302E-03    -16.0238E-03     25.8398E-03    -9.81599E-03     2.81412E-03     32.7150E+06    -19.1469E+06    -56.0939E+06    -18.6142E+06     32.1823E+06    -56.0939E+06    -952.461E+03         34.9143
            1077     12.8779E-03     7.14885E-03         1.98349    -355.792E-03        -1.39370    -354.231E-03         1.98193        -1.39370     89.1239E-03     24.5798E-03    -9.49429E-03    -15.0855E-03    -14.9898E-03     24.4841E-03    -9.49429E-03     2.35469E-03     9.73950E+06    -23.3849E+06    -37.7444E+06    -15.3959E+06    -1.73967E+06    -34.2541E+06    -6.94274E+06         29.3301
            1078     11.8915E-03     7.13995E-03         2.26609    -540.901E-03        -1.47281    -537.979E-03         2.26317        -1.47281     180.346E-03     23.8631E-03    -9.18501E-03    -14.6781E-03    -14.5786E-03     23.7636E-03    -9.18501E-03     1.98158E-03    -5.99742E+06    -18.5482E+06    -62.0778E+06    -10.7021E+06    -57.3731E+06    -18.5482E+06    -12.6715E+06         25.7612
            1079     10.9063E-03     7.14344E-03         2.57777    -756.594E-03        -1.54785    -747.293E-03         2.56847        -1.54785     330.280E-03     22.4812E-03    -8.85669E-03    -13.6245E-03    -13.6097E-03     22.4664E-03    -8.85669E-03    -1.06684E-03     170.985E+03    -2.92218E+06    -97.8703E+06    -4.19759E+06    -94.3941E+06    -2.02974E+06    -16.6751E+06         23.7490
            1080     9.91887E-03     7.14468E-03         2.86707    -948.865E-03        -1.61785    -932.123E-03         2.85032        -1.61785     500.878E-03     20.9632E-03    -8.53928E-03    -12.4239E-03    -12.3995E-03     20.9388E-03    -8.53928E-03    -1.11764E-03     13.9262E+06     4.04741E+06    -118.584E+06     1.44306E+06    -115.979E+06     13.9262E+06    -17.1895E+06         22.7030
            1081     8.93080E-03     7.15095E-03         3.13982        -1.12677        -1.68482        -1.08455         3.09760        -1.68482     808.781E-03     19.6375E-03    -8.21900E-03    -11.4185E-03    -11.3887E-03     19.6077E-03    -8.21900E-03    -1.18382E-03     20.5563E+06     7.73410E+06    -142.084E+06     5.42401E+06    -139.774E+06     20.5563E+06    -18.1256E+06         22.1696
            1082     7.94106E-03     7.15537E-03         3.39059        -1.28536        -1.74989        -1.23386         3.33910        -1.74989     960.229E-03     18.4415E-03    -7.90808E-03    -10.5334E-03    -10.5044E-03     18.4125E-03    -7.90808E-03    -917.777E-06     22.6018E+06     12.4710E+06    -167.706E+06     10.1217E+06    -165.356E+06     22.6018E+06    -20.1151E+06         21.8802
            1083     6.95090E-03     7.16268E-03         3.64368        -1.45230        -1.81261        -1.38214         3.57352        -1.81261         1.15562     17.4335E-03    -7.63519E-03    -9.79827E-03    -9.77498E-03     17.4102E-03    -7.63519E-03    -570.697E-06     30.5222E+06     15.2643E+06    -182.047E+06     13.4909E+06    -180.273E+06     30.5222E+06    -18.2278E+06         21.7019
            1084     5.95980E-03     7.16702E-03         3.85931        -1.58750        -1.87189        -1.52883         3.80065        -1.87189         1.00891     16.3981E-03    -7.32499E-03    -9.07315E-03    -9.05706E-03     16.3820E-03    -7.32499E-03    -346.027E-06     31.8007E+06     15.9727E+06    -183.753E+06     14.7574E+06    -182.538E+06     31.8007E+06    -15.2139E+06         21.5767
            1085     4.96796E-03     7.17307E-03         4.08241        -1.72940        -1.92764        -1.65733         4.01034        -1.92764         1.15328     15.3352E-03    -7.01391E-03    -8.32132E-03    -8.31150E-03     15.3254E-03    -7.01391E-03    -148.879E-06     28.6619E+06     16.5005E+06    -185.242E+06     15.5522E+06    -184.294E+06     28.6619E+06    -13.4194E+06         21.4801
            1086     3.97551E-03     7.17632E-03         4.27043        -1.83917        -1.98165        -1.76770         4.19896        -1.98165     607.177E-03     14.3620E-03    -6.74108E-03    -7.62090E-03    -7.61394E-03     14.3550E-03    -6.74108E-03     41.0252E-06     25.8776E+06     16.2601E+06    -186.147E+06     15.5717E+06    -185.459E+06     25.8776E+06    -11.3534E+06         21.4025
            1087     2.98221E-03     7.18007E-03         4.49226        -1.94642        -2.07110        -1.85977         4.37295        -2.03844     945.670E-03     13.5352E-03    -6.52137E-03    -7.01380E-03    -7.00855E-03     13.5299E-03    -6.52137E-03     96.0819E-06     24.6417E+06     16.5462E+06    -185.876E+06     16.1036E+06    -185.433E+06     24.6417E+06    -8.98152E+06         21.3407
            1088     1.98869E-03     7.18150E-03         4.94075        -2.08598        -2.35494        -1.99560         4.58823        -2.09280    -650.361E-03     12.8754E-03    -6.34153E-03    -6.53389E-03    -6.48867E-03     12.8730E-03    -6.38435E-03     85.1493E-06     24.8081E+06     15.5881E+06    -185.345E+06     15.3923E+06    -185.149E+06     24.8081E+06    -5.69124E+06         21.2946
            1089     993.853E-06     7.18312E-03         5.94718        -1.61330        -3.82385        -2.62126         4.74459        -1.61330         2.48265     12.5858E-03    -6.24638E-03    -6.33946E-03    -6.24558E-03     12.5850E-03    -6.33946E-03     76.1629E-06     18.4396E+06     12.1381E+06    -187.795E+06     12.1812E+06    -187.741E+06     18.3424E+06    -2.80814E+06         21.2650
            1090     16.8150E-03     6.34815E-03         1.57204    -192.522E-03        -1.23844    -190.463E-03         1.56998        -1.23844     119.737E-03     250.852E-03    -13.6466E-03    -237.206E-03    -103.052E-03     116.698E-03    -13.6466E-03     434.028E-03     153.854E+06     116.826E+06    -2.34328E+06    -1.89660E+06     151.989E+06     118.244E+06     3.92943E+06         55.4887
            1091     15.8253E-03     6.18307E-03         1.82807    -324.744E-03        -1.36539    -321.206E-03         1.82453        -1.36539     172.813E-03     69.2261E-03    -11.4772E-03    -57.7489E-03    -29.6919E-03     41.1691E-03    -11.4772E-03     102.886E-03     110.984E+06     51.3687E+06    -15.3632E+06    -14.9321E+06     110.553E+06     51.3687E+06     3.30565E+06         48.6092
            1092     14.8478E-03     6.12910E-03         2.06292    -464.412E-03        -1.44488    -461.302E-03         2.05981        -1.44488     169.512E-03     33.1860E-03    -10.3446E-03    -22.8414E-03    -17.7648E-03     28.1094E-03    -10.3446E-03     26.3341E-03     66.1774E+06    -1.93277E+06    -39.2628E+06    -23.3944E+06     65.8202E+06    -17.4439E+06     3.25237E+06         40.9273
            1093     13.8649E-03     6.12479E-03         2.30440    -616.302E-03        -1.51259    -614.838E-03         2.30294        -1.51259     127.086E-03     24.4205E-03    -9.70527E-03    -14.7153E-03    -14.6156E-03     24.3208E-03    -9.70527E-03     2.96011E-03     40.1188E+06    -19.5734E+06    -52.7934E+06    -18.9291E+06     39.4745E+06    -52.7934E+06    -2.66395E+06         33.9465
            1094     12.8769E-03     6.12247E-03         2.57138    -798.133E-03        -1.57493    -796.065E-03         2.56932        -1.57493     161.486E-03     23.4049E-03    -9.43070E-03    -13.9742E-03    -13.7470E-03     23.1777E-03    -9.43070E-03     4.79937E-03     13.8712E+06    -22.8853E+06    -42.3566E+06    -14.2255E+06     3.44898E+06    -40.5941E+06    -9.06939E+06         28.7350
            1095     11.8917E-03     6.11837E-03         2.83750    -986.380E-03        -1.63204    -983.566E-03         2.83469        -1.63204     205.615E-03     22.3842E-03    -9.24906E-03    -13.1351E-03    -12.9521E-03     22.2012E-03    -9.24906E-03     3.92437E-03     -4.3958E+06    -24.1900E+06    -58.8713E+06    -11.7153E+06    -51.5518E+06    -24.1900E+06    -15.9369E+06         25.4212
            1096     10.9032E-03     6.12045E-03         3.09973        -1.17554        -1.68211        -1.16844         3.09264        -1.68211     329.376E-03     20.7743E-03    -9.07996E-03    -11.6944E-03    -11.6281E-03     20.7081E-03    -9.07996E-03     1.72936E-03    -2.22114E+06    -13.7425E+06    -98.7565E+06    -8.74547E+06    -93.0880E+06    -12.8866E+06    -22.1651E+06         23.5669
            1097     9.91466E-03     6.12635E-03         3.36554        -1.37428        -1.72302        -1.36083         3.35209        -1.72302     500.708E-03     19.9628E-03    -8.95983E-03    -11.0030E-03    -10.9032E-03     19.8630E-03    -8.95983E-03     2.59392E-03     7.12628E+06    -2.96048E+06    -123.601E+06    -2.69920E+06    -118.413E+06     1.67736E+06    -24.4860E+06         22.6165
            1098     8.92454E-03     6.13094E-03         3.59560        -1.54033        -1.75831        -1.50890         3.56017        -1.75430     812.266E-03     19.3471E-03    -8.85750E-03    -10.4896E-03    -10.3982E-03     19.2557E-03    -8.85750E-03     2.49234E-03     17.2534E+06     6.97261E+06    -145.332E+06     4.72760E+06    -141.074E+06     15.2409E+06    -24.8749E+06         22.1448
            1099     7.93463E-03     6.13919E-03         3.74324        -1.62674        -1.78935        -1.59083         3.69741        -1.77943     979.934E-03     18.9415E-03    -8.73828E-03    -10.2032E-03    -10.1094E-03     18.8476E-03    -8.73828E-03     2.66006E-03     21.2720E+06     10.7221E+06    -171.589E+06     7.44337E+06    -168.310E+06     21.2720E+06    -24.0200E+06         21.9008
            1100     6.94401E-03     6.14453E-03         3.86659        -1.68970        -1.82289        -1.64462         3.80106        -1.80244         1.17154     18.5810E-03    -8.57744E-03    -10.0035E-03    -9.91482E-03     18.4923E-03    -8.57744E-03     2.68798E-03     23.7321E+06     9.78037E+06    -189.103E+06     7.21575E+06    -186.538E+06     23.7321E+06    -22.1357E+06         21.7600
            1101     5.95360E-03     6.15213E-03         3.94949        -1.73102        -1.83974        -1.68945         3.89338        -1.82521         1.04265     18.0187E-03    -8.36302E-03    -9.65573E-03    -9.58480E-03     17.9478E-03    -8.36302E-03     2.41036E-03     24.7703E+06     10.6553E+06    -190.822E+06     8.73241E+06    -188.899E+06     24.7703E+06    -19.2694E+06         21.6667
            1102     4.96242E-03     6.15705E-03         4.04486        -1.77700        -1.86397        -1.72218         3.97571        -1.84964         1.15570     17.3458E-03    -8.11933E-03    -9.22646E-03    -9.17299E-03     17.2923E-03    -8.11933E-03     2.07837E-03     22.5604E+06     11.5865E+06    -191.206E+06     10.2246E+06    -189.844E+06     22.5604E+06    -16.2993E+06         21.5971
            1103     3.97092E-03     6.16291E-03         4.15352        -1.82739        -1.89709        -1.78652         4.08934        -1.87377     633.698E-03     16.6073E-03    -7.87812E-03    -8.72914E-03    -8.69139E-03     16.5695E-03    -7.87812E-03     1.76932E-03     20.2659E+06     11.9846E+06    -191.832E+06     11.0116E+06    -190.859E+06     20.2659E+06    -13.7826E+06         21.5408
            1104     2.97889E-03     6.16594E-03         4.30218        -1.86479        -1.98517        -1.84867         4.19340        -1.89251     940.879E-03     15.8478E-03    -7.66797E-03    -8.17981E-03    -8.15444E-03     15.8224E-03    -7.66797E-03     1.44456E-03     19.3451E+06     11.4573E+06    -191.936E+06     10.7515E+06    -191.230E+06     19.3451E+06    -11.7031E+06         21.4948
            1105     1.98618E-03     6.16944E-03         4.58467        -1.90655        -2.19859        -1.88155         4.26764        -1.90655    -528.795E-03     15.2102E-03    -7.46563E-03    -7.74459E-03    -7.69287E-03     15.1958E-03    -7.50298E-03     1.03525E-03     17.6137E+06     9.83544E+06    -192.702E+06     9.46393E+06    -192.331E+06     17.6137E+06    -8.04296E+06         21.4594
            1106     993.475E-06     6.17045E-03         5.40165        -1.40095        -3.50894        -2.42535         4.31806        -1.40095         2.28440     14.7916E-03    -7.31155E-03    -7.48008E-03    -7.37855E-03     14.7834E-03    -7.40481E-03     766.224E-06     9.97261E+06     6.02141E+06    -194.473E+06     6.03240E+06    -194.387E+06     9.87539E+06    -3.71437E+06         21.4362
            1107     16.7985E-03     5.31248E-03         1.78932    -243.323E-03        -1.44492    -241.487E-03         1.78748        -1.44492     121.320E-03     239.884E-03    -13.6118E-03    -226.272E-03    -101.439E-03     115.050E-03    -13.6118E-03     411.395E-03     147.292E+06     116.454E+06    -10.9997E+06    -9.42174E+06     144.295E+06     117.873E+06     3.93985E+06         52.8319
            1108     15.8313E-03     5.14684E-03         2.13949    -472.321E-03        -1.56641    -468.966E-03         2.13614        -1.56641     182.322E-03     67.2400E-03    -11.3886E-03    -55.8514E-03    -29.2893E-03     40.6779E-03    -11.3886E-03     98.3171E-03     110.467E+06     55.8948E+06    -15.4622E+06    -14.7273E+06     109.732E+06     55.8948E+06     8.23289E+06         46.3337
            1109     14.8497E-03     5.10049E-03         2.51165    -753.399E-03        -1.64102    -749.923E-03         2.50817        -1.64102     204.287E-03     30.5831E-03    -10.3378E-03    -20.2452E-03    -16.3532E-03     26.6910E-03    -10.3378E-03     21.7910E-03     71.6543E+06     5.15375E+06    -33.5946E+06    -19.2708E+06     71.3071E+06    -8.82292E+06    -436.410E+03         39.2280
            1110     13.8617E-03     5.10247E-03         2.87012        -1.03277        -1.69649        -1.03076         2.86812        -1.69649     174.818E-03     22.6829E-03    -9.76854E-03    -12.9144E-03    -12.6850E-03     22.4535E-03    -9.76854E-03     4.39923E-03     45.2715E+06    -16.1773E+06    -54.3333E+06    -15.7156E+06     44.8098E+06    -54.3333E+06    -4.70832E+06         32.8219
            1111     12.8748E-03     5.09888E-03         3.16600        -1.26077        -1.73896        -1.25815         3.16338        -1.73896     212.423E-03     21.9686E-03    -9.61526E-03    -12.3533E-03    -11.8841E-03     21.4994E-03    -9.61526E-03     7.76432E-03     17.2939E+06    -20.6753E+06    -51.4109E+06    -13.4925E+06     8.65291E+06    -49.9527E+06    -9.33394E+06         28.0634
            1112     11.8863E-03     5.09612E-03         3.41163        -1.44997        -1.77104        -1.44655         3.40822        -1.77104     256.697E-03     20.5124E-03    -9.31248E-03    -11.1999E-03    -10.5149E-03     20.1506E-03    -9.63567E-03     6.25116E-03    -3.21014E+06    -28.5841E+06    -58.6122E+06    -12.1362E+06    -44.5881E+06    -33.6821E+06    -16.7034E+06         25.0575
            1113     10.8958E-03     5.10286E-03         3.62498        -1.59815        -1.81176        -1.61077         3.61831        -1.79248     361.800E-03     19.5565E-03    -9.20431E-03    -10.3522E-03    -9.47504E-03     19.1765E-03    -9.70148E-03     5.98318E-03    -2.65496E+06    -26.2635E+06    -96.2722E+06    -9.78373E+06    -89.1435E+06    -26.2635E+06    -24.6936E+06         23.3925
            1114     9.90432E-03     5.10577E-03         3.80956        -1.70349        -1.86411        -1.75330         3.79806        -1.80280     504.662E-03     19.7775E-03    -9.43478E-03    -10.3427E-03    -9.51556E-03     19.3356E-03    -9.82003E-03     6.84291E-03     1.60939E+06    -15.2845E+06    -127.997E+06    -6.25683E+06    -120.131E+06    -15.2845E+06    -30.7675E+06         22.5551
            1115     8.91414E-03     5.11379E-03         3.96710        -1.77412        -1.92207        -1.86695         3.93919        -1.80132     774.562E-03     20.0614E-03    -9.68028E-03    -10.3811E-03    -9.72845E-03     19.6825E-03    -9.95405E-03     6.47856E-03     6.47963E+06    -3.36572E+06    -152.642E+06    -2.99624E+06    -146.549E+06     17.1597E+03    -29.8133E+06         22.1552
            1116     7.92331E-03     5.11933E-03         4.04496        -1.78961        -1.95300        -1.91630         4.00826        -1.78961     927.165E-03     20.4992E-03    -9.98256E-03    -10.5166E-03    -10.0891E-03     20.1342E-03    -10.0451E-03     6.47345E-03     12.3357E+06     3.27602E+06    -177.763E+06    -152.935E+03    -173.614E+06     11.6156E+06    -26.8243E+06         21.9630
            1117     6.93364E-03     5.12728E-03         4.04950        -1.77359        -1.94267        -1.88832         3.99514        -1.77359         1.10050     20.7184E-03    -10.0332E-03    -10.6853E-03    -10.3860E-03     20.4192E-03    -10.0332E-03     5.97506E-03     14.0504E+06     5.68215E+06    -195.446E+06     2.40412E+06    -192.168E+06     14.0504E+06    -25.3373E+06         21.8644
            1118     5.94343E-03     5.13293E-03         4.00676        -1.75705        -1.88889        -1.83967         3.95949        -1.75901     983.169E-03     20.6660E-03    -9.94475E-03    -10.7212E-03    -10.4823E-03     20.4270E-03    -9.94475E-03     5.34309E-03     13.8231E+06     6.35765E+06    -199.256E+06     3.68236E+06    -196.581E+06     13.8231E+06    -23.0843E+06         21.8075
            1119     4.95384E-03     5.14029E-03         4.00190        -1.74510        -1.86829        -1.80477         3.94033        -1.74706         1.09506     20.4544E-03    -9.81477E-03    -10.6396E-03    -10.4623E-03     20.2771E-03    -9.81477E-03     4.58879E-03     14.7227E+06     6.73128E+06    -198.180E+06     4.82173E+06    -196.270E+06     14.7227E+06    -19.4527E+06         21.7690
            1120     3.96376E-03     5.14496E-03         3.99675        -1.73447        -1.85036        -1.79455         3.94093        -1.73447     619.484E-03     19.9962E-03    -9.64864E-03    -10.3476E-03    -10.2284E-03     19.8770E-03    -9.64864E-03     3.71695E-03     13.7210E+06     6.52384E+06    -198.141E+06     5.27481E+06    -196.892E+06     13.7210E+06    -15.7423E+06         21.7389
            1121     2.97339E-03     5.15047E-03         4.01925        -1.72069        -1.86189        -1.76272         3.92007        -1.72069     891.845E-03     19.4018E-03    -9.47308E-03    -9.92874E-03    -9.85669E-03     19.3298E-03    -9.47308E-03     2.84984E-03     9.52009E+06     3.98092E+06    -199.887E+06     3.21638E+06    -199.122E+06     9.52009E+06    -12.0927E+06         21.7134
            1122     1.98250E-03     5.15301E-03         4.19532        -1.70244        -2.03102        -1.74998         3.91429        -1.70244    -437.751E-03     18.8866E-03    -9.31757E-03    -9.56905E-03    -9.53061E-03     18.8482E-03    -9.31757E-03     2.04206E-03     5.58986E+06     535.283E+03    -202.180E+06     102.851E+03    -201.748E+06     5.58986E+06    -8.86923E+06         21.6927
            1123     991.369E-06     5.15570E-03         4.83446        -1.10917        -3.24972        -2.27297         3.85771        -1.10917         2.09180     18.4532E-03    -9.15077E-03    -9.30241E-03    -9.27485E-03     18.4336E-03    -9.15878E-03     1.45477E-03     1.57314E+06    -2.76998E+06    -201.262E+06    -1.77285E+06    -201.120E+06     434.228E+03    -3.96227E+06         21.6787
            1124     16.7695E-03     4.21859E-03         2.00548    -312.907E-03        -1.63330    -311.845E-03         2.00442        -1.63330     95.4247E-03     221.137E-03    -14.1582E-03    -206.979E-03    -98.1355E-03     112.294E-03    -14.1582E-03     365.403E-03     143.863E+06     113.835E+06    -13.0375E+06    -11.0563E+06     141.882E+06     113.835E+06     4.98916E+06         49.6426
            1125     15.8304E-03     4.11068E-03         2.46106    -651.373E-03        -1.74432    -649.741E-03         2.45943        -1.74432     134.686E-03     61.3340E-03    -11.7252E-03    -49.6088E-03    -35.4758E-03     47.2011E-03    -11.7252E-03     71.6635E-03     112.639E+06     66.7965E+06    -13.1995E+06    -12.5826E+06     112.023E+06     66.7965E+06     7.40329E+06         43.6948
            1126     14.8473E-03     4.07752E-03         2.91168        -1.01332        -1.81108        -1.01158         2.90995        -1.81108     154.689E-03     27.8216E-03    -10.1973E-03    -17.6243E-03    -14.0277E-03     24.5338E-03    -10.5061E-03     19.2432E-03     78.6856E+06     9.32181E+06    -23.9090E+06    -9.98077E+06     78.1893E+06    -4.11005E+06     2.31090E+06         37.3478
            1127     13.8579E-03     4.08093E-03         3.32567        -1.35646        -1.85675        -1.35495         3.32416        -1.85675     165.338E-03     21.2170E-03    -9.80499E-03    -11.4121E-03    -10.1082E-03     20.2220E-03    -10.1138E-03     7.96688E-03     49.0727E+06    -16.4542E+06    -56.5892E+06    -15.7384E+06     48.3569E+06    -56.5892E+06    -3.16947E+06         31.6153
            1128     12.8681E-03     4.07606E-03         3.67193        -1.64488        -1.88767        -1.64548         3.66883        -1.88398     251.223E-03     20.8491E-03    -9.67084E-03    -11.1782E-03    -9.38508E-03     19.5052E-03    -10.1201E-03     11.8232E-03     19.9774E+06    -21.5127E+06    -65.4751E+06    -15.3958E+06     13.8605E+06    -65.4751E+06    -8.51142E+06         27.3791
            1129     11.8759E-03     4.07919E-03         3.93834        -1.81438        -1.95714        -1.87283         3.93361        -1.89396     331.361E-03     19.4429E-03    -8.93356E-03    -10.5094E-03    -8.23051E-03     18.5988E-03    -10.3683E-03     9.36076E-03    -1.66049E+06    -35.4053E+06    -65.0379E+06    -11.8022E+06    -37.6368E+06    -52.6647E+06    -16.2379E+06         24.7221
            1130     10.8828E-03     4.08331E-03         4.13413        -1.87007        -2.07080        -2.04610         4.12657        -1.88721     426.237E-03     19.7499E-03    -9.05481E-03    -10.6951E-03    -8.09339E-03     18.7885E-03    -10.6951E-03     10.0964E-03    -1.22859E+06    -42.4615E+06    -91.6925E+06    -9.25998E+06    -83.6611E+06    -42.4615E+06    -25.5443E+06         23.2679
            1131     9.89134E-03     4.08797E-03         4.25240        -1.86506        -2.16676        -2.15585         4.24149        -1.86506     527.768E-03     20.6328E-03    -9.59791E-03    -11.0349E-03    -8.76407E-03     19.7990E-03    -11.0349E-03     9.83050E-03    -586.848E+03    -33.2226E+06    -129.104E+06    -8.50175E+06    -121.189E+06    -33.2226E+06    -30.7285E+06         22.5532
            1132     8.89944E-03     4.09330E-03         4.30256        -1.82951        -2.22306        -2.20246         4.28197        -1.82951     709.208E-03     21.5178E-03    -10.1460E-03    -11.3718E-03    -9.43787E-03     20.8097E-03    -11.3718E-03     9.32192E-03    -551.257E+03    -20.1914E+06    -159.605E+06    -7.29840E+06    -152.858E+06    -20.1914E+06    -31.8265E+06         22.2288
            1133     7.90955E-03     4.09993E-03         4.28447        -1.78294        -2.21941        -2.19467         4.25973        -1.78294     788.660E-03     22.6213E-03    -10.9368E-03    -11.6845E-03    -10.3326E-03     21.9919E-03    -11.6593E-03     9.07609E-03     3.15108E+06    -9.42889E+06    -185.300E+06    -3.94646E+06    -180.009E+06    -7.62178E+06    -30.7832E+06         22.0899
            1134     6.91973E-03     4.10543E-03         4.19756        -1.72966        -2.15246        -2.11703         4.16213        -1.72966     909.881E-03     23.3856E-03    -11.4133E-03    -11.9723E-03    -11.0297E-03     22.8821E-03    -11.8524E-03     8.29712E-03     6.03344E+06    -2.98096E+06    -202.052E+06     -857.79E+03    -198.040E+06    -101.602E+03    -28.2724E+06         22.0342
            1135     5.93110E-03     4.11292E-03         4.05270        -1.67535        -2.03025        -1.99953         4.02198        -1.67535     800.145E-03     23.9195E-03    -11.7348E-03    -12.1847E-03    -11.5749E-03     23.5195E-03    -11.9446E-03     7.51393E-03     5.25533E+06     411.785E+03    -207.153E+06     926.789E+03    -204.126E+06     1.71308E+06    -24.9647E+06         22.0149
            1136     4.94230E-03     4.11805E-03         3.91679        -1.62416        -1.91726        -1.87208         3.87161        -1.62416     914.329E-03     24.1873E-03    -11.8968E-03    -12.2905E-03    -11.9239E-03     23.8948E-03    -11.9709E-03     6.46040E-03     5.14074E+06     312.916E+03    -206.686E+06     785.427E+03    -204.574E+06     2.55629E+06    -20.7396E+06         22.0099
            1137     3.95422E-03     4.12486E-03         3.77665        -1.57797        -1.79742        -1.75549         3.73472        -1.57797     522.664E-03     24.2157E-03    -11.9270E-03    -12.2887E-03    -12.0713E-03     24.0228E-03    -11.9515E-03     5.26185E-03     4.18346E+06    -1.19203E+06    -206.900E+06    -1.51908E+06    -205.647E+06     3.25802E+06    -15.7533E+06         22.0088
            1138     2.96584E-03     4.12909E-03         3.68370        -1.54081        -1.71965        -1.63550         3.59955        -1.54081     780.048E-03     24.0550E-03    -11.8796E-03    -12.1754E-03    -12.0600E-03     23.9396E-03    -11.8796E-03     4.02852E-03     1.04287E+06    -3.90579E+06    -207.978E+06    -4.56743E+06    -207.316E+06     1.04287E+06    -11.2250E+06         22.0073
            1139     1.97757E-03     4.13370E-03         3.76732        -1.51215        -1.80474        -1.56645         3.52903        -1.51215    -373.979E-03     23.7537E-03    -11.7823E-03    -11.9714E-03    -11.9146E-03     23.6969E-03    -11.7823E-03     2.79597E-03    -1.04440E+06    -7.21855E+06    -208.874E+06    -7.55903E+06    -208.534E+06    -1.04440E+06    -7.91136E+06         22.0045
            1140     988.802E-06     4.13513E-03         4.27353    -827.543E-03        -2.98213        -2.17057         3.46198    -827.543E-03         1.82308     23.4090E-03    -11.6154E-03    -11.7936E-03    -11.7031E-03     23.3858E-03    -11.6827E-03     1.71822E-03    -7.05529E+06    -12.6940E+06    -211.188E+06    -11.7428E+06    -211.000E+06    -8.19421E+06    -5.11808E+06         22.0018
            1141     16.7785E-03     3.11431E-03         2.21510    -403.493E-03        -1.79038    -402.984E-03         2.21460        -1.79038     67.9164E-03     200.517E-03    -14.2464E-03    -186.270E-03    -97.7178E-03     111.964E-03    -14.2464E-03     313.882E-03     145.536E+06     111.191E+06    -5.51930E+06    -4.62963E+06     144.646E+06     111.191E+06     5.19752E+06         46.2855
            1142     15.8231E-03     3.07577E-03         2.76668    -837.127E-03        -1.88905    -836.402E-03         2.76595        -1.88905     100.840E-03     46.2425E-03    -11.8859E-03    -34.3566E-03    -29.9662E-03     41.8521E-03    -11.8859E-03     34.3740E-03     109.998E+06     61.4972E+06    -10.6564E+06    -10.4917E+06     109.833E+06     61.4972E+06     796.406E+03         41.0342
            1143     14.8401E-03     3.05383E-03         3.24176        -1.22688        -1.94798        -1.22617         3.24106        -1.94798     110.982E-03     24.2578E-03    -9.48322E-03    -14.7746E-03    -11.1164E-03     22.1097E-03    -10.9933E-03     13.9100E-03     81.0965E+06     12.0810E+06    -18.3238E+06    -9.92370E+06     80.7816E+06     3.99579E+06     4.73077E+06         35.5050
            1144     13.8477E-03     3.06407E-03         3.65879        -1.57971        -1.98708        -1.57860         3.65768        -1.98708     149.905E-03     20.2926E-03    -9.21802E-03    -11.0745E-03    -7.51403E-03     18.3377E-03    -10.8236E-03     12.9682E-03     55.1024E+06    -10.5875E+06    -47.8871E+06    -9.94116E+06     54.4561E+06    -47.8871E+06     2.69101E+06         30.4994
            1145     12.8532E-03     3.05469E-03         4.05369        -1.88185        -2.05291        -1.92739         4.05110        -2.00477     242.677E-03     20.2057E-03    -8.97814E-03    -11.2276E-03    -7.58301E-03     18.5597E-03    -10.9767E-03     13.0578E-03     23.3840E+06    -14.4362E+06    -72.6747E+06    -11.0109E+06     19.9587E+06    -72.6747E+06    -5.41611E+06         26.8102
            1146     11.8613E-03     3.06283E-03         4.37333        -1.99814        -2.22790        -2.22386         4.36930        -1.99814     321.500E-03     19.5383E-03    -8.18251E-03    -11.3558E-03    -7.03243E-03     18.3882E-03    -11.3558E-03     10.9535E-03     1.44488E+06    -39.8591E+06    -76.6754E+06    -10.2341E+06    -30.1720E+06    -74.6835E+06    -15.1755E+06         24.5129
            1147     10.8679E-03     3.06372E-03         4.57461        -1.96754        -2.43080        -2.42471         4.56852        -1.96754     402.466E-03     20.9657E-03    -9.11744E-03    -11.8482E-03    -7.89237E-03     19.7406E-03    -11.8482E-03     11.7711E-03    -672.672E+03    -60.3878E+06    -92.2238E+06    -7.52482E+06    -79.5713E+06    -66.1881E+06    -22.8053E+06         23.2700
            1148     9.87606E-03     3.06802E-03         4.66348        -1.91532        -2.54383        -2.53577         4.65542        -1.91532     473.795E-03     21.9097E-03    -9.55094E-03    -12.3587E-03    -8.64557E-03     21.0043E-03    -12.3587E-03     10.4985E-03    -132.899E+03    -54.5245E+06    -127.870E+06    -6.39679E+06    -121.606E+06    -54.5245E+06    -27.3679E+06         22.6745
            1149     8.88499E-03     3.07277E-03         4.62910        -1.84552        -2.54953        -2.53633         4.61590        -1.84552     595.821E-03     23.2460E-03    -10.3984E-03    -12.8476E-03    -9.60536E-03     22.4530E-03    -12.8476E-03     10.1680E-03     970.754E+03    -44.8580E+06    -162.522E+06    -5.03402E+06    -156.517E+06    -44.8580E+06    -30.6157E+06         22.4212
            1150     7.89451E-03     3.07678E-03         4.49367        -1.76417        -2.46257        -2.44786         4.47896        -1.76417     628.483E-03     24.6033E-03    -11.2855E-03    -13.3178E-03    -10.6433E-03     23.9611E-03    -13.3178E-03     9.47074E-03     1.64459E+06    -32.9417E+06    -190.865E+06    -3.65093E+06    -185.570E+06    -32.9417E+06    -31.3072E+06         22.3312
            1151     6.90555E-03     3.08281E-03         4.31380        -1.67566        -2.33599        -2.31581         4.29362        -1.67566     701.816E-03     25.9036E-03    -12.1541E-03    -13.7495E-03    -11.6350E-03     25.3845E-03    -13.7495E-03     8.78090E-03     1.22287E+06    -19.0470E+06    -210.160E+06    -2.89792E+06    -206.039E+06    -19.0470E+06    -29.0653E+06         22.3149
            1152     5.91715E-03     3.08751E-03         4.08261        -1.58324        -2.16307        -2.14582         4.06536        -1.58324     607.714E-03     27.0542E-03    -12.9721E-03    -14.0822E-03    -12.5646E-03     26.6468E-03    -14.0822E-03     7.98166E-03    -468.638E+03    -10.8647E+06    -215.442E+06    -3.27613E+06    -212.634E+06    -10.8647E+06    -24.1988E+06         22.3307
            1153     4.93023E-03     3.09381E-03         3.79915        -1.49534        -1.93765        -1.90967         3.77118        -1.49534     699.504E-03     27.9161E-03    -13.5972E-03    -14.3189E-03    -13.2994E-03     27.6183E-03    -14.3189E-03     6.94490E-03    -3.10884E+06    -9.24867E+06    -215.417E+06    -4.81662E+06    -213.709E+06    -9.24867E+06    -18.6739E+06         22.3582
            1154     3.94326E-03     3.09854E-03         3.52464        -1.42199        -1.70900        -1.68221         3.49785        -1.42199     393.992E-03     28.6101E-03    -14.0686E-03    -14.5416E-03    -13.9156E-03     28.4113E-03    -14.4957E-03     5.75673E-03    -5.78821E+06    -9.46930E+06    -215.917E+06    -7.74993E+06    -214.969E+06    -8.45524E+06    -13.6887E+06         22.3863
            1155     2.95742E-03     3.10399E-03         3.34140        -1.36911        -1.55763        -1.49533         3.27910        -1.36911     627.485E-03     29.0973E-03    -14.4131E-03    -14.6842E-03    -14.3778E-03     28.9784E-03    -14.6006E-03     4.47010E-03    -6.94199E+06    -10.9095E+06    -215.031E+06    -11.0528E+06    -214.537E+06    -7.29196E+06    -9.75423E+06         22.4095
            1156     1.97150E-03     3.10729E-03         3.34276        -1.33671        -1.56520        -1.38463         3.16219        -1.33671    -314.844E-03     29.2774E-03    -14.5790E-03    -14.6984E-03    -14.6021E-03     29.2203E-03    -14.6182E-03     3.06778E-03    -7.62529E+06    -15.0559E+06    -215.533E+06    -15.3147E+06    -215.274E+06    -7.62529E+06    -6.76832E+06         22.4259
            1157     986.052E-06     3.11046E-03         3.70772    -560.544E-03        -2.68962        -2.08982         3.10792    -560.544E-03         1.48540     29.1486E-03    -14.5100E-03    -14.6386E-03    -14.5491E-03     29.1284E-03    -14.5793E-03     1.76757E-03    -13.9357E+06    -21.1316E+06    -220.274E+06    -19.7388E+06    -220.136E+06    -15.4659E+06    -4.16622E+06         22.4356
            1158     16.7985E-03     2.06984E-03         2.37515    -463.644E-03        -1.90849    -463.073E-03         2.37458        -1.90849     75.0352E-03     169.854E-03    -14.0094E-03    -155.844E-03    -94.2525E-03     108.262E-03    -14.0094E-03     246.454E-03     138.666E+06     101.037E+06    -8.42462E+06    -7.67775E+06     137.919E+06     101.037E+06    -2.19293E+06         43.3303
            1159     15.8197E-03     2.02548E-03         2.97276    -943.699E-03        -1.99621    -943.004E-03         2.97206        -1.99621     103.226E-03     29.9728E-03    -9.41932E-03    -20.5535E-03    -17.1101E-03     29.0391E-03    -11.9290E-03     11.7839E-03     107.779E+06     53.4271E+06    -6.77028E+06    -6.17280E+06     107.181E+06     53.4271E+06     4.43393E+06         38.8819
            1160     14.8315E-03     2.05116E-03         3.49089        -1.38170        -2.05186        -1.38101         3.49020        -2.05186     115.586E-03     20.5050E-03    -7.92005E-03    -12.5849E-03    -7.34286E-03     18.9738E-03    -11.6310E-03     10.2069E-03     80.1299E+06     8.34564E+06    -14.0592E+06    -9.83799E+06     79.7350E+06     4.51933E+06     5.69669E+06         34.0831
            1161     13.8311E-03     2.03529E-03         3.95654        -1.79194        -2.08496        -1.79113         3.95573        -2.08496     134.289E-03     20.6540E-03    -8.77108E-03    -11.8830E-03    -6.91891E-03     18.6302E-03    -11.7113E-03     14.2180E-03     59.2403E+06    -9.22715E+06    -38.0957E+06    -10.0056E+06     58.9591E+06    -37.0360E+06     3.88832E+06         29.7436
            1162     12.8438E-03     2.04113E-03         4.35674        -2.03906        -2.21318        -2.15794         4.35550        -2.09305     168.512E-03     19.6629E-03    -7.73349E-03    -11.9295E-03    -6.76731E-03     18.6968E-03    -11.9295E-03     9.87113E-03     29.9830E+06    -7.54794E+06    -70.7466E+06    -5.85222E+06     28.2873E+06    -70.7466E+06    -1.51625E+06         26.5534
            1163     11.8457E-03     2.04208E-03         4.68542        -2.07352        -2.47833        -2.47665         4.68374        -2.07352     200.138E-03     20.3361E-03    -7.98874E-03    -12.3474E-03    -7.06039E-03     19.4078E-03    -12.3474E-03     9.86524E-03     6.55297E+06    -31.4402E+06    -87.6188E+06    -2.94233E+06    -21.9449E+06    -87.6188E+06    -10.4056E+06         24.5748
            1164     10.8551E-03     2.04353E-03         4.90028        -2.02524        -2.71196        -2.70950         4.89783        -2.02524     248.674E-03     21.7947E-03    -8.88344E-03    -12.9113E-03    -8.07450E-03     20.9858E-03    -12.9113E-03     9.51686E-03     2.00147E+06    -69.4555E+06    -97.8767E+06    -2.33280E+06    -76.5799E+06    -86.4180E+06    -17.9035E+06         23.5138
            1165     9.86252E-03     2.04702E-03         4.95796        -1.95065        -2.81441        -2.81097         4.95453        -1.95065     306.631E-03     23.0604E-03    -9.53482E-03    -13.5256E-03    -8.90966E-03     22.4353E-03    -13.5256E-03     8.77612E-03     2.90237E+06    -76.0162E+06    -125.341E+06    -1.17964E+06    -121.259E+06    -76.0162E+06    -22.0818E+06         23.0183
            1166     8.87170E-03     2.04914E-03         4.87378        -1.85528        -2.79480        -2.78818         4.86716        -1.85528     422.681E-03     24.6295E-03    -10.4902E-03    -14.1393E-03    -9.95857E-03     24.0979E-03    -14.1393E-03     8.35150E-03     2.47832E+06    -66.4375E+06    -161.815E+06    -1.46860E+06    -157.868E+06    -66.4375E+06    -24.7299E+06         22.8232
            1167     7.88206E-03     2.05318E-03         4.67984        -1.74516        -2.67824        -2.67026         4.67186        -1.74516     473.307E-03     26.1582E-03    -11.3917E-03    -14.7664E-03    -10.9689E-03     25.7354E-03    -14.7664E-03     7.76022E-03     367.857E+03    -54.1543E+06    -193.553E+06    -3.23320E+06    -189.952E+06    -54.1543E+06    -25.6655E+06         22.7726
            1168     6.89289E-03     2.05620E-03         4.40195        -1.62663        -2.48263        -2.47158         4.39090        -1.62663     529.650E-03     27.8304E-03    -12.4407E-03    -15.3897E-03    -12.1013E-03     27.4910E-03    -15.3897E-03     7.20261E-03    -3.81521E+06    -39.6668E+06    -216.916E+06    -6.61187E+06    -214.120E+06    -39.6668E+06    -23.6753E+06         22.7879
            1169     5.90554E-03     2.06065E-03         4.06877        -1.50628        -2.23349        -2.22394         4.05922        -1.50628     459.579E-03     29.4238E-03    -13.4848E-03    -15.9389E-03    -13.2220E-03     29.1610E-03    -15.9389E-03     6.54005E-03    -8.35709E+06    -30.4106E+06    -223.703E+06    -10.2507E+06    -221.810E+06    -30.4106E+06    -19.6653E+06         22.8326
            1170     4.91863E-03     2.06441E-03         3.70411        -1.39203        -1.95203        -1.93634         3.68842        -1.39203     520.876E-03     30.9742E-03    -14.5501E-03    -16.4241E-03    -14.3541E-03     30.7782E-03    -16.4241E-03     5.81967E-03    -11.4896E+06    -24.0177E+06    -224.015E+06    -12.6040E+06    -222.900E+06    -24.0177E+06    -14.9318E+06         22.8876
            1171     3.93367E-03     2.06908E-03         3.34385        -1.29357        -1.66201        -1.64715         3.32899        -1.29357     291.764E-03     32.4052E-03    -15.5676E-03    -16.8377E-03    -15.4320E-03     32.2697E-03    -16.8377E-03     4.95606E-03    -13.3790E+06    -19.3098E+06    -222.559E+06    -13.9351E+06    -222.003E+06    -19.3098E+06    -10.1676E+06         22.9415
            1172     2.94906E-03     2.07247E-03         3.05088        -1.22327        -1.41771        -1.38181         3.01498        -1.22327     444.293E-03     33.5829E-03    -16.4200E-03    -17.1630E-03    -16.3381E-03     33.5011E-03    -17.1630E-03     3.92561E-03    -14.7646E+06    -17.7397E+06    -220.745E+06    -15.9924E+06    -220.433E+06    -16.8236E+06    -7.44399E+06         22.9872
            1173     1.96586E-03     2.07620E-03         2.97311        -1.17752        -1.36129        -1.25638         2.86819        -1.17752    -231.518E-03     34.4629E-03    -17.0746E-03    -17.3882E-03    -17.0340E-03     34.4222E-03    -17.3882E-03     2.77607E-03    -15.8850E+06    -20.2368E+06    -222.680E+06    -20.1912E+06    -222.499E+06    -16.1116E+06    -5.36919E+06         23.0214
            1174     982.727E-06     2.07826E-03         3.12158    -269.082E-03        -2.40126        -2.04720         2.76752    -269.082E-03         1.06894     34.9209E-03    -17.3878E-03    -17.5331E-03    -17.3904E-03     34.9068E-03    -17.5164E-03     1.55478E-03    -19.1632E+06    -25.6452E+06    -226.164E+06    -24.1818E+06    -226.097E+06    -20.6933E+06    -2.36004E+06         23.0425
            1175     16.8018E-03     1.00661E-03         2.44507    -452.571E-03        -1.98346    -451.987E-03         2.44449        -1.98346     76.9941E-03     131.017E-03    -11.6956E-03    -119.322E-03    -88.0560E-03     102.164E-03    -14.1076E-03     149.771E-03     136.988E+06     91.4376E+06    -3.06624E+06    -2.06934E+06     135.991E+06     91.4376E+06     19.2669E+03         41.5601
            1176     15.8179E-03     1.02517E-03         3.07500    -974.552E-03        -2.06456    -974.096E-03         3.07455        -2.06456     81.8103E-03     21.0443E-03    -6.96083E-03    -14.0834E-03    -8.35284E-03     20.6031E-03    -12.2503E-03     6.69346E-03     104.517E+06     50.4039E+06    -8.41134E+06    -7.74998E+06     103.856E+06     50.4039E+06     4.51391E+06         37.8121
            1177     14.8099E-03     1.02243E-03         3.66749        -1.49264        -2.11975        -1.49215         3.66701        -2.11975     92.0516E-03     20.6133E-03    -8.16228E-03    -12.4510E-03    -7.28861E-03     19.5680E-03    -12.2794E-03     8.89514E-03     81.4269E+06     7.92957E+06    -11.0648E+06    -9.41597E+06     81.0920E+06     6.61570E+06     5.20673E+06         33.5278
            1178     13.8293E-03     1.01922E-03         4.19370        -1.94736        -2.17228        -1.97218         4.19333        -2.14710     84.9291E-03     20.6382E-03    -8.05213E-03    -12.5860E-03    -7.23804E-03     19.6524E-03    -12.4144E-03     8.85766E-03     62.1720E+06    -5.86030E+06    -32.3158E+06    -6.82962E+06     62.0817E+06    -31.2562E+06     2.19026E+06         29.6694
            1179     12.8270E-03     1.02090E-03         4.60204        -2.14096        -2.36467        -2.36028         4.60176        -2.14507     77.4044E-03     19.7750E-03    -7.13673E-03    -12.6383E-03    -6.72883E-03     19.3671E-03    -12.6383E-03     5.80463E-03     34.1536E+06    -2.23311E+06    -72.1928E+06    -2.11171E+06     34.0322E+06    -72.1928E+06    -501.429E+03         26.8339
            1180     11.8398E-03     1.02134E-03         4.88902        -2.11423        -2.65049        -2.65025         4.88878        -2.11423     67.9286E-03     21.1535E-03    -8.09202E-03    -13.0614E-03    -7.68503E-03     20.7465E-03    -13.0614E-03     5.94415E-03     10.3618E+06    -24.1469E+06    -95.6052E+06     1.42000E+06    -15.2051E+06    -95.6052E+06    -4.53233E+06         25.0757
            1181     10.8447E-03     1.02282E-03         5.06269        -2.05531        -2.85218        -2.85181         5.06231        -2.05531     80.4463E-03     22.2310E-03    -8.58546E-03    -13.6456E-03    -8.31187E-03     21.9574E-03    -13.6456E-03     5.28079E-03     5.00857E+06    -71.3948E+06    -101.929E+06     3.45188E+06    -73.1429E+06    -98.6241E+06    -9.47668E+06         24.1387
            1182     9.85386E-03     1.02329E-03         5.10500        -1.96964        -2.94940        -2.94867         5.10427        -1.96964     129.810E-03     23.7388E-03    -9.43623E-03    -14.3026E-03    -9.20517E-03     23.5077E-03    -14.3026E-03     4.84485E-03     4.51667E+06    -91.8723E+06    -123.942E+06     2.79343E+06    -120.570E+06    -93.5209E+06    -13.2959E+06         23.7101
            1183     8.86323E-03     1.02536E-03         5.00992        -1.86068        -2.93169        -2.92969         5.00792        -1.86068     215.907E-03     25.3410E-03    -10.3303E-03    -15.0106E-03    -10.1511E-03     25.1618E-03    -15.0106E-03     4.54770E-03     2.11948E+06    -82.3622E+06    -160.686E+06     549.961E+03    -159.117E+06    -82.3622E+06    -14.4172E+06         23.5536
            1184     7.87306E-03     1.02668E-03         4.78851        -1.73395        -2.80368        -2.80084         4.78566        -1.73395     263.123E-03     27.1200E-03    -11.3734E-03    -15.7466E-03    -11.2201E-03     26.9667E-03    -15.7466E-03     4.34197E-03    -2.50970E+06    -70.2066E+06    -195.405E+06    -3.81314E+06    -194.101E+06    -70.2066E+06    -13.7134E+06         23.5289
            1185     6.88486E-03     1.02886E-03         4.45057        -1.59783        -2.56575        -2.56121         4.44603        -1.59783     316.626E-03     28.9957E-03    -12.5156E-03    -16.4801E-03    -12.3924E-03     28.8725E-03    -16.4801E-03     4.04821E-03    -7.59196E+06    -58.6556E+06    -220.042E+06    -8.56597E+06    -219.068E+06    -58.6556E+06    -12.8920E+06         23.5653
            1186     5.89700E-03     1.03072E-03         4.05245        -1.46180        -2.26617        -2.26219         4.04848        -1.46180     278.905E-03     30.9251E-03    -13.7283E-03    -17.1968E-03    -13.6337E-03     30.8305E-03    -17.1968E-03     3.67951E-03    -11.9474E+06    -46.3783E+06    -228.724E+06    -12.6680E+06    -228.003E+06    -46.3783E+06    -11.4074E+06         23.6295
            1187     4.91123E-03     1.03321E-03         3.64413        -1.33318        -1.95465        -1.94863         3.63810        -1.33318     300.219E-03     32.9348E-03    -15.0501E-03    -17.8848E-03    -14.9789E-03     32.8637E-03    -17.8848E-03     3.28290E-03    -16.3105E+06    -35.0286E+06    -230.636E+06    -16.7613E+06    -230.185E+06    -35.0286E+06    -8.55163E+06         23.7036
            1188     3.92623E-03     1.03517E-03         3.25881        -1.21736        -1.65529        -1.64977         3.25330        -1.21736     171.355E-03     34.8926E-03    -16.3981E-03    -18.4945E-03    -16.3479E-03     34.8424E-03    -18.4945E-03     2.85911E-03    -19.4021E+06    -29.1128E+06    -227.497E+06    -19.6433E+06    -227.255E+06    -29.1128E+06    -5.93654E+06         23.7761
            1189     2.94335E-03     1.03766E-03         2.90341        -1.12358        -1.37386        -1.36149         2.89104        -1.12358     243.544E-03     36.6829E-03    -17.6572E-03    -19.0257E-03    -17.6255E-03     36.6511E-03    -19.0257E-03     2.31187E-03    -21.2434E+06    -25.2957E+06    -224.144E+06    -21.4071E+06    -223.981E+06    -25.2957E+06    -4.31598E+06         23.8387
            1190     1.96096E-03     1.03941E-03         2.70219        -1.05105        -1.22020        -1.18284         2.66482        -1.05105    -123.067E-03     38.2254E-03    -18.7601E-03    -19.4653E-03    -18.7439E-03     38.2092E-03    -19.4653E-03     1.63545E-03    -21.3884E+06    -24.6141E+06    -226.418E+06    -24.3464E+06    -226.286E+06    -21.7885E+06    -3.32078E+06         23.8862
            1191     980.337E-06     1.04098E-03         2.60759    -36.5247E-03        -2.12535        -1.99979         2.48202    -36.5247E-03     535.528E-03     39.2949E-03    -19.4820E-03    -19.8130E-03    -19.5488E-03     39.2895E-03    -19.7407E-03     770.923E-06    -25.7534E+06    -30.9163E+06    -231.857E+06    -30.3745E+06    -231.805E+06    -26.3479E+06    -2.24805E+06         23.9160
            1192     983.445E-06     57.6147E-03         8.16322        -3.02771        -5.68100     812.546E-03         4.03993        -5.39796        -5.57866     33.7066E-03    -16.7828E-03    -16.9239E-03    -16.8246E-03     33.6939E-03    -16.8693E-03     1.35386E-03     6.56919E+06     3.12712E+06    -198.856E+06     4.39898E+06    -198.850E+06     5.29077E+06    -158.986E+03         22.4701
            1193     1.96748E-03     57.6174E-03         4.38552        -2.25874        -2.67368        -2.12598         3.83782        -2.25874     577.768E-03     33.7438E-03    -16.8214E-03    -16.9223E-03    -16.8370E-03     33.7054E-03    -16.8684E-03     2.72931E-03     9.17265E+06     6.26329E+06    -199.621E+06     6.24677E+06    -199.604E+06     9.17265E+06    -157.187E+03         22.4930
            1194     2.95090E-03     57.6206E-03         4.09817        -2.18340        -2.46845        -1.93609         3.56581        -2.18340     376.841E-03     33.7946E-03    -16.8529E-03    -16.9417E-03    -16.8608E-03     33.7144E-03    -16.8536E-03     3.96903E-03     6.75937E+06     4.33758E+06    -201.306E+06     5.57047E+06    -201.287E+06     5.50738E+06    -80.7923E+03         22.5308
            1195     3.93454E-03     57.6261E-03         3.53671        -1.85523        -2.23631        -1.62071         3.14903        -2.08316         2.67302     33.8099E-03    -16.8350E-03    -16.9749E-03    -16.8417E-03     33.6766E-03    -16.8350E-03     5.17104E-03     5.36127E+06     2.33578E+06    -199.258E+06     5.24789E+06    -199.244E+06     2.43530E+06     489.505E+03         22.5853
            1196     4.91814E-03     57.6318E-03         3.09058        -1.68684        -1.95560        -1.27202         2.67576        -1.95560         2.45423     33.8016E-03    -16.8256E-03    -16.9760E-03    -16.7856E-03     33.6112E-03    -16.8256E-03     6.18373E-03     6.15359E+06     3.55179E+06    -194.963E+06     6.12176E+06    -194.932E+06     3.55179E+06     359.671E+03         22.6585
            1197     5.90209E-03     57.6391E-03         2.75599        -1.49419        -1.80997    -900.558E-03         2.16236        -1.80997         2.94061     33.7421E-03    -16.7870E-03    -16.9551E-03    -16.7073E-03     33.4943E-03    -16.7870E-03     7.06047E-03     6.86459E+06     2.46166E+06    -183.985E+06     6.82292E+06    -183.943E+06     2.46166E+06    -203.571E+03         22.7537
            1198     6.88585E-03     57.6464E-03         2.38841        -1.27586        -1.65242    -530.609E-03         1.64316        -1.65242         2.87108     33.7038E-03    -16.7407E-03    -16.9630E-03    -16.6575E-03     33.3982E-03    -16.7407E-03     7.83357E-03     4.88275E+06    -464.402E+03    -173.420E+06     4.85879E+06    -173.396E+06    -464.402E+03     590.044E+03         22.8767
            1199     7.86947E-03     57.6557E-03         1.97679        -1.01990        -1.48998    -201.909E-03         1.15879        -1.48998         2.64786     33.6798E-03    -16.7123E-03    -16.9675E-03    -16.6259E-03     33.3382E-03    -16.7123E-03     8.29078E-03     2.52046E+06    -284.809E+03    -161.547E+06     2.47291E+06    -161.499E+06    -284.809E+03     2.31253E+06         23.0396
            1200     8.85343E-03     57.6641E-03         1.14532    -343.746E-03        -1.32892     85.0112E-03     716.567E-03        -1.32892         1.28190     33.6752E-03    -16.6629E-03    -17.0123E-03    -16.5989E-03     33.2618E-03    -16.6629E-03     9.08582E-03     974.997E+03    -2.41721E+06    -141.730E+06     886.292E+03    -141.641E+06    -2.41721E+06     3.22860E+06         23.2734
            1201     9.83701E-03     57.6756E-03     791.821E-03    -142.371E-03        -1.17223     345.089E-03     304.361E-03        -1.17223    -207.756E-03     33.6501E-03    -16.5979E-03    -17.0523E-03    -16.5220E-03     33.1199E-03    -16.5979E-03     10.3024E-03    -522.960E+03    -7.44177E+06    -120.389E+06    -625.809E+03    -120.286E+06    -7.44177E+06     3.20774E+06         23.6644
            1202     10.8212E-03     57.6857E-03     900.948E-03    -400.512E-03        -1.02261     546.855E-03    -46.4193E-03        -1.02261        -1.11911     33.4249E-03    -16.5010E-03    -16.9239E-03    -16.3654E-03     32.8664E-03    -16.5010E-03     10.5441E-03    -1.02775E+06    -17.8112E+06    -98.9030E+06    -1.18769E+06    -98.7431E+06    -17.8112E+06     1.45844E+06         24.4426
            1203     11.8052E-03     57.6979E-03     986.458E-03    -589.144E-03    -923.043E-03     666.006E-03    -307.515E-03    -884.219E-03        -1.26326     33.3032E-03    -16.3673E-03    -16.9358E-03    -16.3006E-03     32.6680E-03    -16.3673E-03     11.1869E-03    -867.670E+03    -31.3290E+06    -66.2835E+06    -994.923E+03    -65.0337E+06    -32.4514E+06     67.0289E+03         26.1428
            1204     12.7890E-03     57.7087E-03         1.02794    -656.414E-03    -903.041E-03     718.983E-03    -490.967E-03    -759.536E-03        -1.34565     33.8628E-03    -16.2378E-03    -17.6249E-03    -15.8872E-03     32.1251E-03    -16.2378E-03     17.7164E-03     8.68260E+06    -20.6103E+06    -44.9633E+06    -2.45248E+06    -11.7929E+06    -42.6456E+06     714.913E+03         29.7751
            1205     13.7740E-03     57.7352E-03         1.00734    -631.520E-03    -917.578E-03     729.755E-03    -622.999E-03    -648.519E-03        -1.32199     35.8140E-03    -16.1138E-03    -19.7003E-03    -16.0948E-03     32.2086E-03    -16.1138E-03     27.1912E-03     34.7587E+06    -5.72216E+06    -60.2795E+06    -5.66119E+06     34.6977E+06    -60.2795E+06     1.35457E+06         36.7006
            1206     14.7581E-03     57.7651E-03     838.870E-03    -547.741E-03    -845.283E-03     701.515E-03    -707.929E-03    -547.741E-03    -822.189E-03     49.6552E-03    -16.2118E-03    -33.4434E-03    -15.9458E-03     32.1576E-03    -16.2118E-03     63.9141E-03     72.0604E+06    -7.11627E+06    -45.2640E+06    -9.77904E+06     71.8722E+06    -42.4130E+06    -628.862E+03         47.7440
            1207     15.7467E-03     57.8685E-03     650.396E-03    -441.347E-03    -779.789E-03     625.157E-03    -754.549E-03    -441.347E-03    -14.5086E-03     129.527E-03    -16.7468E-03    -112.780E-03    -29.6115E-03     46.3582E-03    -16.7468E-03     229.347E-03     119.245E+06     27.2967E+06    -13.5031E+06    -11.6056E+06     119.000E+06     25.6445E+06    -361.842E+03         61.5312
            1208     16.7164E-03     58.2697E-03     542.831E-03    -295.305E-03    -831.596E-03     521.461E-03    -810.226E-03    -295.305E-03     338.948E-03     314.591E-03    -17.3012E-03    -297.290E-03    -74.4589E-03     91.7602E-03    -17.3012E-03     588.717E-03     165.271E+06     108.005E+06    -6.82906E+06    -6.59709E+06     165.039E+06     108.005E+06     2.59467E+06         73.9988
            1209     983.574E-06     58.6481E-03         8.19579        -3.19653        -5.57129         1.14734         3.47511        -5.19449        -5.95664     33.9043E-03    -16.8926E-03    -17.0117E-03    -16.9548E-03     33.8937E-03    -16.9389E-03     1.26799E-03     6.77207E+06     3.59327E+06    -198.501E+06     3.75077E+06    -198.492E+06     6.60569E+06    -1.06855E+06         22.4660
            1210     1.96703E-03     58.6504E-03         3.96975        -1.98365        -2.55767        -1.82584         3.23791        -1.98365     519.449E-03     33.8359E-03    -16.8522E-03    -16.9837E-03    -16.8495E-03     33.7978E-03    -16.9483E-03     2.66830E-03     9.43586E+06     5.20129E+06    -200.211E+06     6.03281E+06    -200.206E+06     8.59937E+06    -65.2363E+03         22.4888
            1211     2.95065E-03     58.6543E-03         3.62440        -1.89764        -2.30202        -1.62532         2.94769        -1.89764     169.439E-03     33.8220E-03    -16.8502E-03    -16.9717E-03    -16.8375E-03     33.7375E-03    -16.9001E-03     4.07287E-03     6.76629E+06     3.88119E+06    -201.455E+06     5.95910E+06    -201.444E+06     4.67780E+06     410.515E+03         22.5265
            1212     3.93437E-03     58.6588E-03         3.04756        -1.61650        -2.00735        -1.39619         2.62009        -1.80020         2.55929     33.8080E-03    -16.8640E-03    -16.9440E-03    -16.8054E-03     33.6694E-03    -16.8640E-03     5.27017E-03     5.04947E+06     1.97218E+06    -199.710E+06     4.94218E+06    -199.689E+06     2.05857E+06    -9.38241E+03         22.5807
            1213     4.91819E-03     58.6652E-03         2.66189        -1.50296        -1.72898        -1.09740         2.21609        -1.68873         2.31248     33.7714E-03    -16.8377E-03    -16.9337E-03    -16.7410E-03     33.5787E-03    -16.8377E-03     6.22311E-03     4.58769E+06     2.35308E+06    -194.875E+06     4.55742E+06    -194.845E+06     2.35308E+06    -467.164E+03         22.6538
            1214     5.90180E-03     58.6717E-03         2.36380        -1.33207        -1.59718    -709.261E-03         1.70074        -1.55693         2.84434     33.7771E-03    -16.8050E-03    -16.9721E-03    -16.7209E-03     33.5260E-03    -16.8050E-03     7.10481E-03     3.81505E+06     2.22825E+06    -184.096E+06     3.47416E+06    -184.074E+06     2.54715E+06     324.639E+03         22.7488
            1215     6.88550E-03     58.6801E-03         2.04322        -1.15242        -1.44890    -319.524E-03         1.16789        -1.40647         2.78993     33.7638E-03    -16.7667E-03    -16.9972E-03    -16.6871E-03     33.4538E-03    -16.7667E-03     7.89902E-03     2.30568E+06    -179.089E+03    -175.084E+06     1.95599E+06    -175.053E+06     139.812E+03     1.99303E+06         22.8712
            1216     7.86949E-03     58.6881E-03         1.69700    -960.129E-03        -1.28885     35.0742E-03     659.357E-03        -1.24641         2.58982     33.7600E-03    -16.7199E-03    -17.0402E-03    -16.6701E-03     33.3899E-03    -16.7199E-03     8.62569E-03     1.03473E+06    -3.40665E+06    -163.178E+06     960.591E+03    -163.104E+06    -3.40665E+06     3.21660E+06         23.0329
            1217     8.85288E-03     58.6981E-03     942.578E-03    -404.658E-03        -1.08523     330.288E-03     207.632E-03        -1.08523         1.21336     33.7004E-03    -16.6649E-03    -17.0355E-03    -16.5927E-03     33.2576E-03    -16.6649E-03     9.42023E-03     832.467E+03    -5.76542E+06    -142.085E+06     751.401E+03    -142.004E+06    -5.76542E+06     3.31564E+06         23.2640
            1218     9.83727E-03     58.7074E-03     743.568E-03    -355.017E-03    -931.444E-03     541.857E-03    -154.423E-03    -930.327E-03    -258.740E-03     33.6062E-03    -16.5950E-03    -17.0112E-03    -16.4518E-03     33.0468E-03    -16.5950E-03     10.5542E-03     1.48937E+06    -9.38511E+06    -119.177E+06     1.39260E+06    -119.080E+06    -9.38511E+06     2.04576E+06         23.6491
            1219     10.8209E-03     58.7201E-03     936.418E-03    -593.152E-03    -884.861E-03     693.444E-03    -448.323E-03    -786.715E-03        -1.14029     33.4477E-03    -16.5021E-03    -16.9456E-03    -16.3759E-03     32.8780E-03    -16.5021E-03     10.6328E-03     1.32077E+06    -17.4701E+06    -96.1304E+06     1.18343E+06    -95.9930E+06    -17.4701E+06     185.356E+03         24.4148
            1220     11.8053E-03     58.7290E-03         1.03669    -611.705E-03    -967.340E-03     813.487E-03    -700.349E-03    -655.497E-03        -1.22888     33.3194E-03    -16.3692E-03    -16.9502E-03    -16.2869E-03     32.6561E-03    -16.3692E-03     11.3836E-03    -304.997E+03    -31.7363E+06    -65.7282E+06    -559.064E+03    -64.3517E+06    -32.8588E+06    -1.41890E+06         26.0930
            1221     12.7892E-03     58.7442E-03         1.08509    -536.543E-03        -1.09463     874.538E-03    -884.087E-03    -536.543E-03        -1.27661     34.1678E-03    -16.2579E-03    -17.9099E-03    -16.3152E-03     32.5730E-03    -16.2579E-03     17.3823E-03     6.75496E+06    -22.7989E+06    -45.0918E+06    -2.90172E+06    -14.6099E+06    -43.6242E+06    -7.88939E+03         29.6955
            1222     13.7744E-03     58.7642E-03         1.05647    -430.788E-03        -1.17857     863.311E-03    -985.414E-03    -430.788E-03        -1.24696     36.2088E-03    -16.1743E-03    -20.0345E-03    -16.4204E-03     32.5947E-03    -16.1743E-03     27.1758E-03     35.7173E+06    -7.88622E+06    -57.9132E+06    -7.74492E+06     35.5760E+06    -57.9132E+06     1.89358E+06         36.6015
            1223     14.7574E-03     58.8041E-03     880.372E-03    -336.923E-03        -1.10491     786.458E-03        -1.01099    -336.923E-03    -744.948E-03     50.3914E-03    -16.3709E-03    -34.0205E-03    -18.8596E-03     35.2305E-03    -16.3709E-03     62.5357E-03     75.2792E+06    -8.64398E+06    -43.3950E+06    -11.3554E+06      75.216E+06    -40.6204E+06     920.122E+03         47.6488
            1224     15.7383E-03     58.8957E-03     686.029E-03    -238.706E-03        -1.01826     664.255E-03    -996.487E-03    -238.706E-03     64.8781E-03     136.981E-03    -16.9168E-03    -120.064E-03    -30.0300E-03     46.9468E-03    -16.9168E-03     242.425E-03     116.116E+06     23.4695E+06    -16.4159E+06    -14.5814E+06     115.933E+06     21.8172E+06     1.68054E+06         61.5521
            1225     16.7087E-03     59.3360E-03     557.814E-03    -104.767E-03        -1.02842     534.350E-03        -1.00496    -104.767E-03     378.106E-03     310.102E-03    -17.2832E-03    -292.819E-03    -66.9248E-03     84.2080E-03    -17.2832E-03     583.285E-03     163.029E+06     101.156E+06    -8.59185E+06    -8.27706E+06     162.714E+06     101.156E+06     2.98352E+06         74.1455
            1226     983.472E-06     59.6820E-03         8.22054        -3.40424        -5.40677         1.52611         2.79467        -4.91125        -6.39158     33.8484E-03    -16.8978E-03    -16.9506E-03    -16.9310E-03     33.8365E-03    -16.9055E-03     1.48231E-03     5.81875E+06     3.69080E+06    -199.417E+06     3.84679E+06    -199.407E+06     5.65237E+06    -660.524E+03         22.4577
            1227     1.96687E-03     59.6837E-03         3.54536        -1.64865        -2.48874        -1.47536         2.53198        -1.64865     433.450E-03     33.8079E-03    -16.8707E-03    -16.9372E-03    -16.8426E-03     33.7631E-03    -16.9205E-03     2.85532E-03     7.62808E+06     2.92944E+06    -200.822E+06     3.75531E+06    -200.811E+06     6.79159E+06     116.369E+03         22.4807
            1228     2.95092E-03     59.6872E-03         3.14655        -1.55988        -2.18348        -1.29503         2.25810        -1.55988    -96.3543E-03     33.7653E-03    -16.8398E-03    -16.9255E-03    -16.7783E-03     33.6689E-03    -16.8906E-03     4.37486E-03     7.49016E+06     4.12199E+06    -201.678E+06     4.94468E+06    -201.664E+06     6.65367E+06     799.285E+03         22.5188
            1229     3.93441E-03     59.6924E-03         2.41037        -1.26316        -1.74200        -1.05468         1.92286        -1.46298         2.37865     33.7997E-03    -16.8553E-03    -16.9444E-03    -16.7942E-03     33.6504E-03    -16.8562E-03     5.47010E-03     5.66433E+06     4.83591E+06    -199.567E+06     5.12398E+06    -199.547E+06     5.35668E+06     148.068E+03         22.5735
            1230     4.91812E-03     59.6979E-03         2.06448        -1.15280        -1.50094    -780.418E-03         1.54377        -1.35262         2.11990     33.7821E-03    -16.8232E-03    -16.9589E-03    -16.7533E-03     33.5765E-03    -16.8232E-03     6.42874E-03     4.31662E+06     3.29236E+06    -194.330E+06     4.29746E+06    -194.311E+06     3.29236E+06     119.550E+03         22.6466
            1231     5.90197E-03     59.7053E-03         1.90901        -1.11572        -1.37726    -460.868E-03         1.10583        -1.22893         2.73151     33.7319E-03    -16.7854E-03    -16.9465E-03    -16.6752E-03     33.4606E-03    -16.7854E-03     7.37726E-03     3.21405E+06     1.11758E+06    -186.362E+06     2.85521E+06    -186.323E+06     1.43648E+06     1.71575E+06         22.7414
            1232     6.88578E-03     59.7127E-03         1.69367    -978.928E-03        -1.28996    -110.818E-03     627.735E-03        -1.09214         2.68962     33.7201E-03    -16.7408E-03    -16.9793E-03    -16.6379E-03     33.3786E-03    -16.7408E-03     8.27852E-03     1.88387E+06    -1.21628E+06    -176.211E+06     1.50458E+06    -176.150E+06    -897.380E+03     2.81669E+06         22.8633
            1233     7.86938E-03     59.7216E-03         1.47929    -861.830E-03        -1.18801     222.570E-03     153.046E-03    -946.165E-03         2.52784     33.7556E-03    -16.6839E-03    -17.0717E-03    -16.6586E-03     33.3424E-03    -16.6839E-03     9.11283E-03     1.47675E+06    -5.56180E+06    -163.599E+06     1.43721E+06    -163.559E+06    -5.56180E+06     2.34182E+06         23.0237
            1234     8.85362E-03     59.7306E-03     875.817E-03    -574.769E-03    -866.838E-03     483.781E-03    -250.604E-03    -798.966E-03         1.15433     33.7567E-03    -16.6313E-03    -17.1253E-03    -16.6535E-03     33.2849E-03    -16.6313E-03     9.75008E-03     1.90260E+06    -7.70888E+06    -141.187E+06     1.87196E+06    -141.156E+06    -7.70888E+06     1.61512E+06         23.2521
            1235     9.83686E-03     59.7411E-03     809.540E-03    -517.752E-03    -852.760E-03     685.106E-03    -588.463E-03    -657.613E-03    -311.917E-03     33.6598E-03    -16.5773E-03    -17.0826E-03    -16.5166E-03     33.0938E-03    -16.5773E-03     10.6302E-03     1.58166E+06    -9.84652E+06    -117.421E+06     1.54188E+06    -117.381E+06    -9.84652E+06     550.806E+03         23.6314
            1236     10.8215E-03     59.7521E-03         1.01602    -525.855E-03        -1.04838     830.450E-03    -862.813E-03    -525.855E-03        -1.16998     33.5200E-03    -16.4943E-03    -17.0257E-03    -16.4361E-03     32.9304E-03    -16.4943E-03     10.8327E-03    -120.809E+03    -18.0349E+06    -95.0881E+06    -166.117E+03    -95.0428E+06    -18.0349E+06     550.015E+03         24.3845
            1237     11.8046E-03     59.7635E-03         1.09380    -406.079E-03        -1.24450     918.290E-03        -1.06899    -406.079E-03        -1.22614     33.4063E-03    -16.3808E-03    -17.0255E-03    -16.3800E-03     32.7608E-03    -16.3808E-03     11.2757E-03    -4.79577E+06    -32.5146E+06    -64.9426E+06    -5.32639E+06    -64.4120E+06    -32.5146E+06     880.193E+03         26.0378
            1238     12.7896E-03     59.7749E-03         1.12234    -299.157E-03        -1.38084     949.340E-03        -1.20785    -299.157E-03        -1.26831     34.8477E-03    -16.2894E-03    -18.5584E-03    -16.7891E-03     33.0785E-03    -16.2894E-03     18.2297E-03     3.55732E+06    -28.2048E+06    -47.4194E+06    -11.6451E+06    -15.2573E+06    -45.1644E+06     702.181E+03         29.6021
            1239     13.7703E-03     59.8024E-03         1.07917    -205.758E-03        -1.43278     913.382E-03        -1.26699    -205.758E-03        -1.24610     36.7285E-03    -16.2274E-03    -20.5011E-03    -16.9405E-03     33.1679E-03    -16.2274E-03     27.3757E-03     35.5111E+06    -13.2897E+06    -60.9678E+06    -13.1272E+06     35.3486E+06    -60.9678E+06     741.851E+03         36.4706
            1240     14.7565E-03     59.8319E-03     897.160E-03    -124.024E-03        -1.33688     814.498E-03        -1.25422    -124.024E-03    -746.188E-03     54.2715E-03    -16.4832E-03    -37.7882E-03    -19.8872E-03     36.3705E-03    -16.4832E-03     69.5835E-03     74.5414E+06    -8.14844E+06    -45.8976E+06    -14.9702E+06     74.3325E+06    -38.8669E+06     1.72300E+06         47.5152
            1241     15.7303E-03     59.9500E-03     710.094E-03    -38.3073E-03        -1.23720     692.781E-03        -1.21988    -38.3073E-03     54.2159E-03     135.976E-03    -16.8070E-03    -119.169E-03    -22.7872E-03     39.5942E-03    -16.8070E-03     243.887E-03     116.939E+06     20.9792E+06    -14.8324E+06    -14.3605E+06     116.467E+06     20.9792E+06     1.29594E+06         61.5237
            1242     16.7469E-03     60.3458E-03     567.158E-03     80.9113E-03        -1.21595     549.545E-03        -1.19834     80.9113E-03     346.127E-03     309.457E-03    -16.9195E-03    -292.537E-03    -67.5465E-03     84.4661E-03    -16.9195E-03     581.012E-03     160.677E+06     95.6157E+06    -9.10987E+06    -8.78174E+06     160.348E+06     95.6157E+06    -1.47150E+06         74.1810
            1243     983.827E-06     60.7153E-03         8.31578        -3.67638        -5.25809         1.97727         1.88883        -4.48480        -6.78423     33.3756E-03    -16.6450E-03    -16.7306E-03    -16.7049E-03     33.3577E-03    -16.6528E-03     1.68626E-03     4.11124E+06     496.090E+03    -201.386E+06      442.37E+03    -201.332E+06     4.11124E+06     1.29199E+06         22.4453
            1244     1.96770E-03     60.7168E-03         3.16277        -1.22124        -2.56076        -1.09697         1.69897        -1.22124     538.340E-03     33.6599E-03    -16.7508E-03    -16.9091E-03    -16.8604E-03     33.6111E-03    -16.7508E-03     3.07001E-03     8.33588E+06     2.15006E+06    -201.308E+06     2.09038E+06    -201.248E+06     8.33588E+06     1.65182E+06         22.4692
            1245     2.95090E-03     60.7205E-03         2.71319        -1.15184        -2.17998    -931.672E-03         1.46488        -1.15184    -191.051E-03     33.7217E-03    -16.7918E-03    -16.9299E-03    -16.8307E-03     33.6235E-03    -16.7927E-03     4.38816E-03     6.89998E+06     3.30387E+06    -201.659E+06     3.28964E+06    -201.645E+06     6.89998E+06     780.170E+03         22.5083
            1246     3.93497E-03     60.7252E-03         1.77977    -871.502E-03        -1.52480    -661.927E-03         1.10828        -1.06289         2.36928     33.6494E-03    -16.7762E-03    -16.8731E-03    -16.7161E-03     33.4932E-03    -16.7772E-03     5.58951E-03     4.72046E+06     3.39843E+06    -198.615E+06     3.79210E+06    -198.600E+06     4.31127E+06     359.631E+03         22.5636
            1247     4.91854E-03     60.7314E-03         1.44360    -763.895E-03        -1.28833    -405.447E-03     752.104E-03    -955.282E-03         1.99426     33.6479E-03    -16.7449E-03    -16.9030E-03    -16.6825E-03     33.4274E-03    -16.7449E-03     6.63398E-03     3.27394E+06     1.81736E+06    -195.221E+06     3.24726E+06    -195.195E+06     1.81736E+06     749.087E+03         22.6371
            1248     5.90227E-03     60.7378E-03         1.48517    -816.963E-03        -1.27004    -144.253E-03     381.968E-03    -839.546E-03         2.61583     33.6201E-03    -16.7083E-03    -16.9118E-03    -16.6202E-03     33.3285E-03    -16.7083E-03     7.64067E-03     2.53739E+06    -458.766E+03    -189.336E+06     2.48455E+06    -189.283E+06    -458.766E+03     2.24580E+06         22.7320
            1249     6.88629E-03     60.7460E-03         1.37940    -696.415E-03        -1.27643     114.326E-03     11.2240E-03    -718.998E-03         2.56882     33.6296E-03    -16.6673E-03    -16.9623E-03    -16.5962E-03     33.2636E-03    -16.6673E-03     8.56089E-03     2.56937E+06    -1.17698E+06    -175.723E+06     2.51550E+06    -175.669E+06    -1.17698E+06     2.72503E+06         22.8537
            1250     7.87033E-03     60.7543E-03         1.30604    -596.700E-03        -1.29745     355.967E-03    -347.380E-03    -596.700E-03         2.44054     33.7134E-03    -16.6151E-03    -17.0983E-03    -16.6551E-03     33.2702E-03    -16.6151E-03     9.44079E-03     2.64383E+06    -5.38354E+06    -161.373E+06     2.60600E+06    -161.335E+06    -5.38354E+06     660.771E+03         23.0131
            1251     8.85356E-03     60.7642E-03     843.038E-03    -475.485E-03    -950.796E-03     576.452E-03    -684.210E-03    -475.485E-03         1.07237     33.6802E-03    -16.5549E-03    -17.1252E-03    -16.6088E-03     33.1637E-03    -16.5549E-03     10.1794E-03     3.04674E+06    -10.3574E+06    -141.215E+06     3.02622E+06    -141.194E+06    -10.3574E+06    -435.864E+03         23.2391
            1252     9.83776E-03     60.7739E-03     875.015E-03    -357.039E-03        -1.09533     778.396E-03    -998.710E-03    -357.039E-03    -368.949E-03     33.6897E-03    -16.5105E-03    -17.1792E-03    -16.5381E-03     33.0486E-03    -16.5105E-03     11.2980E-03     2.36097E+06    -11.4636E+06    -117.490E+06     2.34900E+06    -117.478E+06    -11.4636E+06     793.544E+03         23.6127
            1253     10.8209E-03     60.7854E-03         1.07178    -244.425E-03        -1.40038     913.933E-03        -1.24254    -244.425E-03        -1.20561     33.5655E-03    -16.4417E-03    -17.1237E-03    -16.4383E-03     32.8801E-03    -16.4417E-03     11.6798E-03    -646.890E+03    -18.9186E+06    -97.0377E+06    -805.163E+03    -96.8794E+06    -18.9186E+06     2.46716E+06         24.3521
            1254     11.8057E-03     60.7960E-03         1.11747    -142.769E-03        -1.54394     958.896E-03        -1.38537    -142.769E-03        -1.25878     33.6103E-03    -16.3358E-03    -17.2745E-03    -16.4653E-03     32.8011E-03    -16.3358E-03     12.5756E-03    -4.51064E+06    -32.4866E+06    -64.9876E+06    -5.07739E+06    -64.4209E+06    -32.4866E+06     4.26095E+06         25.9773
            1255     12.7880E-03     60.8092E-03         1.10524    -54.7692E-03        -1.61645     938.748E-03        -1.44996    -54.7692E-03        -1.30408     35.0166E-03    -16.2178E-03    -18.7987E-03    -16.4789E-03     32.6967E-03    -16.2178E-03     20.7883E-03     5.48830E+06    -24.1068E+06    -48.7067E+06    -8.13171E+06    -12.1914E+06    -47.0022E+06     1.77456E+06         29.4973
            1256     13.7739E-03     60.8363E-03         1.03995     19.6109E-03        -1.62443     877.838E-03        -1.46232     19.6109E-03        -1.27350     37.4897E-03    -16.1330E-03    -21.3567E-03    -16.8753E-03     33.0083E-03    -16.1330E-03     31.0236E-03     35.0814E+06    -11.9745E+06    -66.0681E+06    -11.9116E+06     35.0185E+06    -66.0681E+06    -636.218E+03         36.3205
            1257     14.7541E-03     60.8673E-03     877.020E-03     84.3189E-03        -1.52284     793.896E-03        -1.43972     84.3189E-03    -782.219E-03     55.4959E-03    -16.2576E-03    -39.2383E-03    -16.4159E-03     32.6735E-03    -16.2576E-03     76.4074E-03     71.4607E+06    -9.95283E+06    -50.9582E+06    -14.0200E+06     71.2718E+06    -46.7022E+06     1.78777E+06         47.3847
            1258     15.7454E-03     60.9882E-03     701.186E-03     154.421E-03        -1.41661     685.775E-03        -1.40120     154.421E-03     17.7196E-03     131.716E-03    -16.5709E-03    -115.145E-03    -23.3020E-03     39.8729E-03    -16.5709E-03     237.143E-03     120.443E+06     29.1721E+06    -14.5770E+06    -8.67095E+06     120.088E+06     23.6209E+06    -1.80192E+06         61.4183
            1259     16.7295E-03     61.3429E-03     549.891E-03     257.667E-03        -1.36221     533.339E-03        -1.34566     257.667E-03     352.732E-03     306.256E-03    -16.9120E-03    -289.344E-03    -70.9910E-03     87.9030E-03    -16.9120E-03     572.812E-03     167.451E+06     104.266E+06    -4.00379E+06    -3.62148E+06     167.068E+06     104.266E+06    -630.330E+03         74.1160
            1260     984.331E-06     61.7467E-03         8.46828        -3.68818        -5.41344         2.50325     734.520E-03        -3.87110        -7.14306     32.9887E-03    -16.4174E-03    -16.5713E-03    -16.5535E-03     32.9710E-03    -16.4174E-03     1.62988E-03     1.28986E+06    -2.23815E+06    -203.680E+06    -2.09215E+06    -203.629E+06     1.09280E+06     1.59715E+06         22.4303
            1261     1.96785E-03     61.7507E-03         2.82527    -669.414E-03        -2.79749    -615.305E-03     643.087E-03    -669.414E-03     759.624E-03     33.3680E-03    -16.5690E-03    -16.7990E-03    -16.7479E-03     33.3169E-03    -16.5690E-03     3.12854E-03     6.25388E+06     1.85437E+06    -201.851E+06     1.80398E+06    -201.800E+06     6.25388E+06     1.55940E+06         22.4553
            1262     2.95156E-03     61.7531E-03         2.31109    -630.701E-03        -2.32277    -492.291E-03     480.615E-03    -630.701E-03    -183.013E-03     33.5477E-03    -16.6395E-03    -16.9082E-03    -16.8085E-03     33.4481E-03    -16.6395E-03     4.41830E-03     5.38921E+06     3.15580E+06    -200.572E+06     3.83296E+06    -200.565E+06     4.70508E+06     492.967E+03         22.4955
            1263     3.93497E-03     61.7585E-03         1.27554    -494.429E-03        -1.42032    -301.986E-03     234.187E-03    -571.408E-03         2.43077     33.4508E-03    -16.6493E-03    -16.8015E-03    -16.6308E-03     33.2924E-03    -16.6616E-03     5.60657E-03     5.60170E+06     2.88124E+06    -198.528E+06     3.89968E+06    -198.495E+06     4.54971E+06     1.04960E+06         22.5518
            1264     4.91922E-03     61.7637E-03     972.322E-03    -416.572E-03        -1.18592    -80.6440E-03    -55.9749E-03    -493.551E-03         1.92213     33.3699E-03    -16.6258E-03    -16.7440E-03    -16.4986E-03     33.1367E-03    -16.6381E-03     6.78452E-03     4.73837E+06     1.84786E+06    -196.693E+06     2.93240E+06    -196.648E+06     3.60879E+06     1.36811E+06         22.6260
            1265     5.90321E-03     61.7711E-03         1.21432    -402.640E-03        -1.43388     155.053E-03    -374.614E-03    -402.640E-03         2.51294     33.4733E-03    -16.5947E-03    -16.8786E-03    -16.5655E-03     33.1602E-03    -16.5947E-03     7.90506E-03     3.78035E+06     116.371E+03    -190.306E+06     3.18625E+06    -190.283E+06     687.275E+03     1.48473E+06         22.7215
            1266     6.88692E-03     61.7782E-03         1.17139    -307.098E-03        -1.47735     333.146E-03    -639.106E-03    -307.098E-03         2.42172     33.5461E-03    -16.5524E-03    -16.9937E-03    -16.5925E-03     33.1449E-03    -16.5524E-03     8.94195E-03     4.49715E+06    -1.60181E+06    -174.788E+06     4.46470E+06    -174.756E+06    -1.60181E+06     843.516E+03         22.8433
            1267     7.87061E-03     61.7878E-03         1.19343    -213.950E-03        -1.58638     489.433E-03    -882.387E-03    -213.950E-03         2.32452     33.5372E-03    -16.5154E-03    -17.0218E-03    -16.5336E-03     33.0490E-03    -16.5154E-03     9.87310E-03     4.73031E+06    -3.48023E+06    -159.176E+06     4.67640E+06    -159.122E+06    -3.48023E+06      -81.38E+03         23.0024
            1268     8.85493E-03     61.7967E-03     840.656E-03    -122.780E-03        -1.31835     664.832E-03        -1.14253    -122.780E-03     971.901E-03     33.4435E-03    -16.4545E-03    -16.9889E-03    -16.4275E-03     32.8820E-03    -16.4545E-03     10.5737E-03     2.67639E+06    -9.03845E+06    -141.712E+06     2.63478E+06    -141.671E+06    -9.03845E+06    -674.620E+03         23.2267
            1269     9.83889E-03     61.8069E-03     905.141E-03    -33.0044E-03        -1.46530     818.366E-03        -1.37852    -33.0044E-03    -439.718E-03     33.4263E-03    -16.3977E-03    -17.0286E-03    -16.3191E-03     32.7168E-03    -16.3977E-03     11.8465E-03     358.448E+03    -11.8277E+06    -119.852E+06     248.886E+03    -119.742E+06    -11.8277E+06     1.30394E+06         23.5949
            1270     10.8234E-03     61.8185E-03         1.06092     51.8465E-03        -1.69885     908.531E-03        -1.54646     51.8465E-03        -1.25992     33.3102E-03    -16.3326E-03    -16.9776E-03    -16.2095E-03     32.5421E-03    -16.3326E-03     12.3263E-03    -1.12536E+06    -16.1870E+06    -98.9414E+06    -1.36843E+06    -98.6983E+06    -16.1870E+06     3.64127E+06         24.3204
            1271     11.8067E-03     61.8285E-03         1.07981     127.417E-03        -1.78640     929.654E-03        -1.63625     127.417E-03        -1.27665     33.3315E-03    -16.2075E-03    -17.1240E-03    -16.1049E-03     32.3124E-03    -16.2075E-03     14.0363E-03    -571.121E+03    -28.4933E+06    -64.2070E+06    -829.732E+03    -63.9484E+06    -28.4933E+06     3.28989E+06         25.9164
            1272     12.7922E-03     61.8432E-03         1.03633     191.203E-03        -1.80068     878.124E-03        -1.64247     191.203E-03        -1.30069     34.3844E-03    -16.0602E-03    -18.3242E-03    -15.8184E-03     31.8786E-03    -16.0602E-03     21.7831E-03     11.1505E+06    -20.3849E+06    -43.5726E+06    -2.59404E+06    -8.62658E+06    -41.5864E+06     2.04521E+06         29.3914
            1273     13.7761E-03     61.8672E-03     958.888E-03     243.244E-03        -1.76868     804.411E-03        -1.61420     243.244E-03        -1.26013     36.7988E-03    -15.9088E-03    -20.8900E-03    -15.4815E-03     31.3903E-03    -15.9088E-03     33.2038E-03     36.2796E+06    -7.72242E+06    -62.3453E+06    -7.56157E+06     36.1187E+06    -62.3453E+06     573.341E+03         36.1770
            1274     14.7621E-03     61.9055E-03     811.770E-03     288.184E-03        -1.65975     734.434E-03        -1.58241     288.184E-03    -754.075E-03     51.1436E-03    -15.8984E-03    -35.2452E-03    -13.7776E-03     29.6760E-03    -15.8984E-03     71.5333E-03     71.6012E+06    -8.68881E+06    -47.8060E+06    -8.50828E+06     71.4206E+06    -47.8060E+06    -2.35930E+06         47.2581
            1275     15.7582E-03     62.0003E-03     646.354E-03     342.010E-03        -1.53894     628.477E-03        -1.52106     342.010E-03     74.0054E-03     137.644E-03    -16.3533E-03    -121.290E-03    -31.1353E-03     47.4886E-03    -16.3533E-03     246.384E-03     121.155E+06     31.4906E+06    -14.4638E+06    -8.47127E+06     120.859E+06     25.7947E+06    -1.18001E+06         61.3361
            1276     16.7124E-03     62.4300E-03     544.878E-03     387.508E-03        -1.45808     480.954E-03        -1.43531     428.665E-03     417.889E-03     303.274E-03    -16.9607E-03    -286.313E-03    -69.7997E-03     86.7604E-03    -16.9607E-03     568.311E-03     167.825E+06     102.813E+06    -5.60376E+06    -5.22355E+06     167.445E+06     102.813E+06     2.82424E+06         74.1522
            1277     983.848E-06     62.7811E-03         8.65085        -3.23213        -6.09287         3.10478    -546.797E-03        -3.23213        -7.55811     32.9365E-03    -16.3963E-03    -16.5402E-03    -16.4793E-03     32.9173E-03    -16.4380E-03     1.85945E-03    -158.911E+03    -2.47586E+06    -204.336E+06    -2.30206E+06    -204.313E+06    -355.970E+03     386.157E+03         22.4152
            1278     1.96804E-03     62.7818E-03         2.65077    -53.3334E-03        -3.26982    -17.6640E-03    -601.381E-03    -53.3334E-03     808.707E-03     32.9889E-03    -16.4270E-03    -16.5618E-03    -16.4649E-03     32.9337E-03    -16.4688E-03     3.14553E-03     1.99835E+06    -211.503E+03    -202.359E+06     506.549E+03    -202.350E+06     1.27095E+06    -344.289E+03         22.4409
            1279     2.95205E-03     62.7871E-03         2.08215    -38.1024E-03        -2.71551    -13.6239E-03    -619.736E-03    -38.1024E-03    -317.356E-03     33.1044E-03    -16.4756E-03    -16.6289E-03    -16.5228E-03     33.0007E-03    -16.4779E-03     4.52090E-03     3.02294E+06    -543.617E+03    -200.380E+06     866.184E+03    -200.379E+06     1.61142E+06     176.655E+03         22.4821
            1280     3.93593E-03     62.7905E-03         1.07051    -19.0177E-03        -1.71505     80.1170E-03    -724.652E-03    -19.0177E-03         2.36664     33.1810E-03    -16.4892E-03    -16.6918E-03    -16.5178E-03     33.0217E-03    -16.5038E-03     5.58326E-03      5.4223E+06     1.55242E+06    -199.772E+06     2.21156E+06    -199.747E+06     4.73817E+06     689.771E+03         22.5394
            1281     4.91990E-03     62.7966E-03     807.723E-03     16.8167E-03        -1.47779     221.147E-03    -891.213E-03     16.8167E-03         1.78263     33.2142E-03    -16.4941E-03    -16.7201E-03    -16.4699E-03     32.9763E-03    -16.5064E-03     6.85155E-03     6.31202E+06     3.62440E+06    -196.264E+06     3.59140E+06    -196.231E+06     6.31202E+06     1.33918E+06         22.6147
            1282     5.90399E-03     62.8032E-03         1.09429     66.6950E-03        -1.80448     380.030E-03        -1.09022     66.6950E-03         2.39581     33.2644E-03    -16.4803E-03    -16.7841E-03    -16.4722E-03     32.9525E-03    -16.4803E-03     7.86380E-03     6.32211E+06     3.31405E+06    -188.800E+06     5.03520E+06    -188.771E+06     4.57249E+06     64.8711E+03         22.7111
            1283     6.88806E-03     62.8116E-03         1.10167     125.283E-03        -1.85966     531.121E-03        -1.28911     125.283E-03         2.28773     33.2953E-03    -16.4378E-03    -16.8576E-03    -16.4498E-03     32.8876E-03    -16.4378E-03     8.97887E-03     6.27955E+06     1.56998E+06    -174.504E+06     6.24633E+06    -174.471E+06     1.56998E+06    -816.492E+03         22.8338
            1284     7.87217E-03     62.8199E-03         1.17147     187.379E-03        -1.98535     660.040E-03        -1.47392     187.379E-03         2.21653     33.2848E-03    -16.4057E-03    -16.8791E-03    -16.3886E-03     32.7943E-03    -16.4057E-03     9.86418E-03     5.83826E+06     657.501E+03    -159.579E+06     5.81451E+06    -159.555E+06     657.501E+03     123.294E+03         22.9933
            1285     8.85617E-03     62.8295E-03     858.863E-03     248.146E-03        -1.72540     746.411E-03        -1.61295     248.146E-03     864.168E-03     33.2189E-03    -16.3599E-03    -16.8590E-03    -16.3089E-03     32.6688E-03    -16.3599E-03     10.4300E-03     3.48200E+06    -2.05756E+06    -141.824E+06     3.39095E+06    -141.733E+06    -2.05756E+06     1.38267E+06         23.2167
            1286     9.84022E-03     62.8392E-03     894.881E-03     304.631E-03        -1.80814     810.553E-03        -1.72382     304.631E-03    -523.125E-03     33.0835E-03    -16.2859E-03    -16.7976E-03    -16.1231E-03     32.4090E-03    -16.2859E-03     11.4952E-03     997.928E+03    -8.34730E+06    -121.996E+06     805.904E+03    -121.804E+06    -8.34730E+06     1.70608E+06         23.5802
            1287     10.8246E-03     62.8506E-03         1.00386     355.723E-03        -1.95869     849.030E-03        -1.80386     355.723E-03        -1.31815     32.8661E-03    -16.1911E-03    -16.6750E-03    -15.9534E-03     32.1445E-03    -16.1911E-03     11.8596E-03     1.08042E+06    -15.6496E+06    -99.1766E+06     927.303E+03    -99.0235E+06    -15.6496E+06     1.87792E+06         24.2921
            1288     11.8099E-03     62.8611E-03     992.520E-03     399.882E-03        -1.98098     844.565E-03        -1.83302     399.882E-03        -1.29311     32.6992E-03    -16.0541E-03    -16.6451E-03    -15.7402E-03     31.7943E-03    -16.0541E-03     13.0928E-03    -221.517E+03    -27.5820E+06    -62.9963E+06    -297.402E+03    -62.9204E+06    -27.5820E+06     1.36745E+06         25.8599
            1289     12.7941E-03     62.8746E-03     949.878E-03     436.310E-03        -1.96501     800.691E-03        -1.81582     436.310E-03        -1.28421     33.6272E-03    -15.9064E-03    -17.7209E-03    -15.4343E-03     31.3407E-03    -15.9064E-03     20.4514E-03     10.6282E+06    -18.3984E+06    -39.8371E+06    -1.56362E+06    -8.36674E+06    -37.6770E+06     1.95303E+06         29.2927
            1290     13.7797E-03     62.9002E-03     877.796E-03     465.400E-03        -1.91082     735.816E-03        -1.76883     465.400E-03        -1.22521     34.8183E-03    -15.7215E-03    -19.0968E-03    -14.3815E-03     30.1030E-03    -15.7215E-03     29.9999E-03     39.6660E+06    -4.03356E+06    -55.8277E+06    -3.78444E+06     39.4168E+06    -55.8277E+06     530.910E+03         36.0463
            1291     14.7685E-03     62.9322E-03     731.853E-03     478.471E-03        -1.76445     651.139E-03        -1.69539     490.123E-03    -702.498E-03     49.2239E-03    -15.7671E-03    -33.4568E-03    -15.6695E-03     31.4366E-03    -15.7671E-03     65.9092E-03     74.9145E+06    -8.19724E+06    -43.0557E+06    -10.1986E+06     74.7175E+06    -40.8574E+06    -2.23334E+06         47.1273
            1292     15.7475E-03     63.0331E-03     612.508E-03     470.294E-03        -1.61554     538.636E-03        -1.59740     526.021E-03     125.671E-03     144.206E-03    -16.1088E-03    -128.098E-03    -29.1749E-03     45.2838E-03    -16.1088E-03     259.975E-03     115.792E+06     19.6436E+06    -15.9341E+06    -15.5005E+06     115.503E+06     19.4990E+06     1.52599E+06         61.3552
            1293     16.7398E-03     63.4971E-03     615.602E-03     415.137E-03        -1.52960     412.480E-03        -1.50580     594.466E-03     426.989E-03     303.218E-03    -16.5531E-03    -286.664E-03    -67.5827E-03     84.1357E-03    -16.5531E-03     569.235E-03     162.587E+06     95.6847E+06    -9.39173E+06    -9.22477E+06     162.420E+06     95.6847E+06     1.57211E+06         74.3674
            1294     984.000E-06     63.8119E-03         8.91930        -2.63454        -6.99132         3.65339        -1.72541        -2.63454        -8.01137     32.8099E-03    -16.3121E-03    -16.4978E-03    -16.3470E-03     32.7847E-03    -16.4376E-03     1.88889E-03     2.09329E+06    -3.87062E+06    -203.083E+06    -2.49705E+06    -203.061E+06     697.648E+03     51.5560E+03         22.4026
            1295     1.96811E-03     63.8152E-03         2.72398     518.824E-03        -3.94215     547.913E-03        -1.76607     518.824E-03     732.134E-03     32.8052E-03    -16.3443E-03    -16.4609E-03    -16.3360E-03     32.7501E-03    -16.4140E-03     3.19964E-03     6.39168E+06    -147.208E+03    -202.192E+06     571.250E+03    -202.183E+06     5.66429E+06    -517.452E+03         22.4284
            1296     2.95234E-03     63.8183E-03         2.11580     527.125E-03        -3.34243     521.704E-03        -1.74834     527.125E-03    -583.643E-03     32.7024E-03    -16.3134E-03    -16.3890E-03    -16.2289E-03     32.6068E-03    -16.3780E-03     4.27828E-03     6.44428E+06     1.38174E+06    -200.931E+06     2.40709E+06    -200.929E+06     5.41743E+06     350.689E+03         22.4700
            1297     3.93676E-03     63.8235E-03         1.21670     519.202E-03        -2.42535     543.472E-03        -1.76322     530.310E-03         2.19923     32.8547E-03    -16.3134E-03    -16.5412E-03    -16.3499E-03     32.6998E-03    -16.3500E-03     5.48224E-03     3.91672E+06     1.35323E+06    -200.777E+06     1.64906E+06    -200.773E+06     3.61727E+06     203.130E+03         22.5282
            1298     4.92062E-03     63.8287E-03     967.387E-03     526.060E-03        -2.17186     559.851E-03        -1.77543     537.168E-03         1.60425     33.1133E-03    -16.3586E-03    -16.7546E-03    -16.5255E-03     32.8842E-03    -16.3586E-03     6.72169E-03     3.64990E+06     2.30965E+06    -195.339E+06     2.44077E+06    -195.325E+06     3.50466E+06     325.017E+03         22.6045
            1299     5.90446E-03     63.8361E-03         1.11863     549.129E-03        -2.33378     625.733E-03        -1.84089     549.129E-03         2.28197     33.0924E-03    -16.3685E-03    -16.7239E-03    -16.4262E-03     32.7948E-03    -16.3685E-03     7.66676E-03     4.20259E+06     2.28712E+06    -186.643E+06     2.71117E+06    -186.616E+06     3.75128E+06    -547.181E+03         22.7022
            1300     6.88866E-03     63.8433E-03         1.13753     569.956E-03        -2.36325     722.704E-03        -1.94842     569.956E-03         2.18366     33.0356E-03    -16.3315E-03    -16.7041E-03    -16.3258E-03     32.6573E-03    -16.3315E-03     8.62352E-03     3.23721E+06    -1.20529E+06    -174.481E+06     2.42323E+06    -174.443E+06    -428.671E+03    -1.37976E+06         22.8263
            1301     7.87290E-03     63.8527E-03         1.18344     596.735E-03        -2.42785     792.716E-03        -2.03713     596.735E-03         2.13026     33.0459E-03    -16.2865E-03    -16.7593E-03    -16.3164E-03     32.6029E-03    -16.2865E-03     9.34953E-03     2.46309E+06    -4.41525E+06    -160.830E+06     2.43776E+06    -160.805E+06    -4.41525E+06    -334.394E+03         22.9869
            1302     8.85697E-03     63.8616E-03     881.960E-03     622.670E-03        -2.14290     805.641E-03        -2.06658     622.670E-03     767.084E-03     32.9595E-03    -16.2487E-03    -16.7108E-03    -16.2177E-03     32.4664E-03    -16.2487E-03     9.83738E-03     3.08484E+06    -5.23921E+06    -143.044E+06     3.01136E+06    -142.970E+06    -5.23921E+06     1.50478E+06         23.2101
            1303     9.84144E-03     63.8717E-03     875.080E-03     643.529E-03        -2.14482     788.978E-03        -2.05872     643.529E-03    -609.601E-03     32.8795E-03    -16.1805E-03    -16.6990E-03    -16.0994E-03     32.2799E-03    -16.1805E-03     10.8085E-03     3.66153E+06    -9.48338E+06    -121.052E+06     3.56137E+06    -120.952E+06    -9.48338E+06     1.09569E+06         23.5695
            1304     10.8258E-03     63.8824E-03     923.046E-03     658.675E-03        -2.19514     759.596E-03        -2.03169     658.675E-03        -1.38969     32.7684E-03    -16.0881E-03    -16.6803E-03    -16.0527E-03     32.1407E-03    -16.0881E-03     11.0554E-03     2.40961E+06    -18.9785E+06    -98.9680E+06     2.31843E+06    -98.8768E+06    -18.9785E+06     165.494E+03         24.2690
            1305     11.8097E-03     63.8934E-03     892.301E-03     669.051E-03        -2.16127     733.974E-03        -2.00294     669.051E-03        -1.35380     32.4244E-03    -15.9697E-03    -16.4547E-03    -15.7464E-03     31.7161E-03    -15.9697E-03     11.6250E-03     827.978E+03    -29.7214E+06    -63.4778E+06     658.523E+03    -63.3083E+06    -29.7214E+06     1.15626E+06         25.8108
            1306     12.7951E-03     63.9061E-03     866.602E-03     676.705E-03        -2.12878     709.305E-03        -1.97148     676.705E-03        -1.33589     33.1526E-03    -15.8278E-03    -17.3248E-03    -15.3029E-03     31.1307E-03    -15.8278E-03     18.8669E-03     11.5012E+06    -20.0688E+06    -41.7351E+06    -2.56966E+06    -8.36242E+06    -39.3707E+06     1.30736E+06         29.2069
            1307     13.7803E-03     63.9317E-03     817.799E-03     662.096E-03        -2.04951     648.698E-03        -1.90013     681.810E-03        -1.26841     34.0621E-03    -15.6606E-03    -18.4015E-03    -14.7531E-03     30.4136E-03    -15.6606E-03     26.6241E-03     40.9900E+06    -7.80915E+06    -57.5709E+06    -7.51710E+06     40.6979E+06    -57.5709E+06     1.54402E+06         35.9343
            1308     14.7651E-03     63.9609E-03     736.526E-03     573.443E-03        -1.85755     548.120E-03        -1.78091     685.207E-03    -757.547E-03     51.1895E-03    -15.7250E-03    -35.4645E-03    -16.0563E-03     31.7813E-03    -15.7250E-03     68.5706E-03     73.8873E+06    -11.5114E+06    -46.4141E+06    -13.4196E+06     73.5973E+06    -44.2158E+06     3.31677E+06         47.0486
            1309     15.7496E-03     64.0764E-03     700.570E-03     462.225E-03        -1.68385     445.501E-03        -1.66713     700.570E-03     63.0970E-03     141.314E-03    -15.8696E-03    -125.445E-03    -22.2268E-03     38.0965E-03    -15.8696E-03     257.932E-03     115.222E+06     16.2374E+06    -15.4788E+06    -13.0554E+06     115.043E+06     13.9928E+06     1.12142E+06         61.4447
            1310     16.7571E-03     64.4981E-03     750.329E-03     378.008E-03        -1.61292     360.246E-03        -1.59515     750.329E-03     369.634E-03     307.683E-03    -16.1930E-03    -291.490E-03    -71.9534E-03     88.1464E-03    -16.1930E-03     575.640E-03     161.308E+06     94.6528E+06    -9.59999E+06    -9.26403E+06     160.972E+06     94.6528E+06    -4.42069E+06         74.6294
            1311     984.455E-06     64.8446E-03         9.17629        -2.03931        -7.86054         4.11551        -2.79975        -2.03931        -8.26935     32.6578E-03    -16.2294E-03    -16.4283E-03    -16.2737E-03     32.6375E-03    -16.3638E-03     1.56838E-03     3.83499E+06    -2.64929E+06    -202.378E+06    -1.29404E+06    -202.338E+06     2.43935E+06    -565.059E+03         22.3937
            1312     1.96829E-03     64.8472E-03         2.91067         1.04060        -4.67887         1.04492        -2.81311         1.04060     776.723E-03     32.6217E-03    -16.2393E-03    -16.3824E-03    -16.2270E-03     32.5737E-03    -16.3466E-03     3.02649E-03     8.40396E+06     139.980E+03    -202.461E+06     127.450E+03    -202.449E+06     8.40396E+06     618.834E+03         22.4196
            1313     2.95250E-03     64.8505E-03         2.30841         1.04484        -4.08058         1.05296        -2.82513         1.04484    -690.390E-03     32.6044E-03    -16.2137E-03    -16.3908E-03    -16.2118E-03     32.5165E-03    -16.3047E-03     4.07931E-03     6.65200E+06     2.28744E+06    -200.646E+06     2.57674E+06    -200.636E+06     6.35255E+06     835.813E+03         22.4613
            1314     3.93698E-03     64.8550E-03         1.54212         1.01695        -3.27535         1.02463        -2.78681         1.04589         2.13544     32.7355E-03    -16.2451E-03    -16.4904E-03    -16.3130E-03     32.5923E-03    -16.2793E-03     5.27592E-03     4.28053E+06     2.32984E+06    -199.925E+06     3.36248E+06    -199.910E+06     3.23318E+06     754.942E+03         22.5199
            1315     4.92106E-03     64.8616E-03         1.28383         1.00994        -2.99794     966.843E-03        -2.70990         1.03888         1.50591     32.8227E-03    -16.2703E-03    -16.5524E-03    -16.3433E-03     32.6136E-03    -16.2703E-03     6.37797E-03     3.20252E+06     569.419E+03    -195.359E+06     2.92477E+06    -195.349E+06     837.738E+03    -289.938E+03         22.5970
            1316     5.90511E-03     64.8679E-03         1.31107     998.005E-03        -3.00158     932.792E-03        -2.65232         1.02703         2.20101     32.9457E-03    -16.2683E-03    -16.6774E-03    -16.3895E-03     32.6578E-03    -16.2683E-03     7.52162E-03     3.42016E+06    -275.679E+03    -185.494E+06     2.63794E+06    -185.488E+06     500.940E+03    -330.949E+03         22.6961
            1317     6.88913E-03     64.8759E-03         1.24676     985.370E-03        -2.91306     899.040E-03        -2.59436         1.01440         2.08508     33.0564E-03    -16.2528E-03    -16.8036E-03    -16.4415E-03     32.6943E-03    -16.2528E-03     8.45378E-03     964.024E+03    -4.42810E+06    -174.010E+06     157.163E+03    -173.980E+06    -3.65149E+06    -408.022E+03         22.8217
            1318     7.87308E-03     64.8846E-03         1.23371     946.499E-03        -2.85285     867.314E-03        -2.54125         1.00130         2.03349     32.9651E-03    -16.2166E-03    -16.7485E-03    -16.3391E-03     32.5557E-03    -16.2166E-03     8.98128E-03    -1.72276E+06    -10.1963E+06    -160.718E+06    -1.80166E+06    -160.639E+06    -10.1963E+06    -1.22920E+06         22.9834
            1319     8.85743E-03     64.8941E-03         1.02984     844.699E-03        -2.53572     831.859E-03        -2.48069     987.648E-03     676.160E-03     32.8576E-03    -16.1860E-03    -16.6716E-03    -16.2325E-03     32.4185E-03    -16.1860E-03     9.28002E-03    -553.725E+03    -11.3736E+06    -143.775E+06    -614.219E+03    -143.715E+06    -11.3736E+06    -1.74786E+06         23.2063
            1320     9.84161E-03     64.9034E-03     999.644E-03     818.338E-03        -2.46493     757.418E-03        -2.37591     971.549E-03    -685.052E-03     32.8778E-03    -16.1489E-03    -16.7289E-03    -16.2109E-03     32.3598E-03    -16.1489E-03     10.0640E-03     1.05275E+06    -11.2288E+06    -120.723E+06     1.02513E+06    -120.695E+06    -11.2288E+06    -538.156E+03         23.5620
            1321     10.8257E-03     64.9152E-03     986.816E-03     810.616E-03        -2.42895     672.043E-03        -2.25484     951.276E-03        -1.46942     32.8225E-03    -16.0769E-03    -16.7456E-03    -16.2020E-03     32.2789E-03    -16.0769E-03     10.3135E-03     317.265E+03    -19.6061E+06    -98.6128E+06     262.105E+03    -98.5576E+06    -19.6061E+06     227.989E+03         24.2504
            1322     11.8102E-03     64.9253E-03     949.755E-03     773.753E-03        -2.33829     618.813E-03        -2.16216     928.558E-03        -1.44254     32.4707E-03    -15.9694E-03    -16.5014E-03    -15.9236E-03     31.8930E-03    -15.9694E-03     10.5217E-03    -2.15115E+06    -32.0916E+06    -65.2084E+06    -2.29729E+06    -65.0622E+06    -32.0916E+06     862.343E+03         25.7698
            1323     12.7947E-03     64.9375E-03     920.308E-03     742.107E-03        -2.25923     571.504E-03        -2.07448     906.168E-03        -1.44344     33.1045E-03    -15.8496E-03    -17.2549E-03    -15.4090E-03     31.2586E-03    -15.8496E-03     17.7725E-03     11.4331E+06    -22.7624E+06    -42.2138E+06    -5.78667E+06    -8.39404E+06    -39.3623E+06     2.49411E+06         29.1368
            1324     13.7796E-03     64.9637E-03     887.899E-03     688.673E-03        -2.15148     509.692E-03        -1.96907     884.469E-03        -1.39061     34.1803E-03    -15.6928E-03    -18.4876E-03    -15.0647E-03     30.7574E-03    -15.6928E-03     25.9266E-03     40.0313E+06    -10.6027E+06    -58.5881E+06    -9.98372E+06     39.4123E+06    -58.5881E+06     3.58984E+06         35.8534
            1325     14.7656E-03     64.9924E-03     865.111E-03     538.532E-03        -1.95257     440.754E-03        -1.85479     865.111E-03    -878.676E-03     49.8790E-03    -15.6971E-03    -34.1819E-03    -14.4255E-03     30.1226E-03    -15.6971E-03     66.8911E-03     73.2446E+06    -10.1191E+06    -46.9598E+06    -9.84494E+06     72.9705E+06    -46.9598E+06     2.84439E+06         47.0350
            1326     15.7590E-03     65.1029E-03     860.865E-03     397.488E-03        -1.77641     381.279E-03        -1.76020     860.865E-03    -48.5137E-03     134.325E-03    -15.9054E-03    -118.419E-03    -22.4661E-03     38.3715E-03    -15.9054E-03     244.402E-03     121.214E+06     25.1566E+06    -11.6812E+06    -6.00847E+06     120.996E+06     19.7013E+06    -2.14486E+06         61.5471
            1327     16.7432E-03     65.5132E-03     894.005E-03     346.767E-03        -1.72544     335.402E-03        -1.71408     894.005E-03     301.625E-03     312.520E-03    -16.3858E-03    -296.134E-03    -77.0970E-03     93.4829E-03    -16.3858E-03     583.094E-03     165.230E+06     104.261E+06    -7.61534E+06    -7.07689E+06     164.691E+06     104.261E+06    -3.77525E+06         74.8888
            1328     983.696E-06     65.8766E-03         9.35320        -1.42463        -8.69145         4.63302        -3.97128        -1.42463        -8.21418     32.5823E-03    -16.2246E-03    -16.3576E-03    -16.2919E-03     32.5671E-03    -16.2752E-03     1.61194E-03     1.55815E+06    -2.11408E+06    -204.386E+06    -2.25184E+06    -204.248E+06     1.55815E+06     1.76537E+06         22.3889
            1329     1.96848E-03     65.8791E-03         3.11964         1.59251        -5.47360         1.54124        -3.89519         1.59251     962.022E-03     32.5576E-03    -16.2176E-03    -16.3399E-03    -16.2211E-03     32.5181E-03    -16.2970E-03     2.72180E-03     4.55220E+06    -52.7653E+03    -202.501E+06    -66.3558E+03    -202.488E+06     4.55220E+06     936.578E+03         22.4151
            1330     2.95300E-03     65.8822E-03         2.50999         1.56735        -4.83683         1.48149        -3.80834         1.56735    -578.213E-03     32.6865E-03    -16.2596E-03    -16.4270E-03    -16.3191E-03     32.6075E-03    -16.2884E-03     3.87850E-03     4.25351E+06     1.33003E+06    -199.323E+06     1.31359E+06    -199.306E+06     4.25351E+06     298.392E+03         22.4569
            1331     3.93646E-03     65.8877E-03         1.91128         1.48081        -4.13743         1.43273        -3.71988         1.54180         2.20874     32.7169E-03    -16.2923E-03    -16.4247E-03    -16.2923E-03     32.5846E-03    -16.2923E-03     5.05969E-03     4.97813E+06     2.60767E+06    -198.786E+06     3.56428E+06    -198.768E+06     4.00366E+06    -399.399E+03         22.5156
            1332     4.92092E-03     65.8929E-03         1.63620         1.45376        -3.82373         1.35328        -3.60180         1.51475         1.48896     32.6818E-03    -16.2652E-03    -16.4166E-03    -16.2235E-03     32.4887E-03    -16.2652E-03     6.12201E-03     4.94273E+06     1.69862E+06    -194.265E+06     4.93273E+06    -194.255E+06     1.69862E+06    -851.688E+03         22.5932
            1333     5.90555E-03     65.9003E-03         1.60120         1.35915        -3.68202         1.21699        -3.41841         1.47975         2.13167     32.8939E-03    -16.2578E-03    -16.6362E-03    -16.3755E-03     32.6333E-03    -16.2578E-03     7.14478E-03     5.41240E+06     584.705E+03    -186.793E+06     4.14032E+06    -186.777E+06     1.84042E+06     94.7788E+03         22.6931
            1334     6.88935E-03     65.9083E-03         1.47744         1.27289        -3.46139         1.06631        -3.21214         1.43477         1.97370     33.0873E-03    -16.2671E-03    -16.8202E-03    -16.4982E-03     32.7653E-03    -16.2671E-03     7.97607E-03      5.0144E+06     1.39064E+06     -173.78E+06     3.73799E+06    -173.759E+06     2.64635E+06     778.917E+03         22.8196
            1335     7.87323E-03     65.9171E-03         1.42669         1.14598        -3.27482     941.377E-03        -3.02755         1.38402         1.91952     33.0863E-03    -16.2467E-03    -16.8395E-03    -16.4749E-03     32.7216E-03    -16.2467E-03     8.49452E-03     2.65524E+06    -2.29204E+06    -157.815E+06     2.59304E+06    -157.753E+06    -2.29204E+06    -530.567E+03         22.9818
            1336     8.85718E-03     65.9260E-03         1.33163     870.301E-03        -2.89013     830.345E-03        -2.85017         1.33163     581.314E-03     33.0288E-03    -16.2166E-03    -16.8122E-03    -16.4124E-03     32.6290E-03    -16.2166E-03     8.88579E-03    -362.509E+03    -8.68647E+06    -143.457E+06    -436.406E+03    -143.383E+06    -8.68647E+06    -2.10894E+06         23.2039
            1337     9.84109E-03     65.9363E-03         1.27900     811.029E-03        -2.76208     722.608E-03        -2.67366         1.27900    -751.986E-03     33.0555E-03    -16.1808E-03    -16.8747E-03    -16.3909E-03     32.5716E-03    -16.1808E-03     9.76008E-03    -2.90985E+06    -13.3521E+06    -122.285E+06    -2.93660E+06    -122.258E+06    -13.3521E+06    -1.55581E+06         23.5556
            1338     10.8252E-03     65.9471E-03         1.22624     790.730E-03        -2.67154     613.392E-03        -2.49420         1.22624        -1.52586     32.9468E-03    -16.1220E-03    -16.8248E-03    -16.3353E-03     32.4573E-03    -16.1220E-03     9.80335E-03    -3.67982E+06    -21.2050E+06    -98.5958E+06    -3.72344E+06    -98.5522E+06    -21.2050E+06    -368.389E+03         24.2337
            1339     11.8092E-03     65.9581E-03         1.17296     688.399E-03        -2.49595     499.110E-03        -2.30666         1.17296        -1.50352     32.6678E-03    -16.0280E-03    -16.6398E-03    -16.1566E-03     32.1846E-03    -16.0280E-03     9.69496E-03    -4.85247E+06    -33.4488E+06    -66.3655E+06    -4.95874E+06    -66.2592E+06    -33.4488E+06     628.349E+03         25.7338
            1340     12.7934E-03     65.9691E-03         1.12037     612.703E-03        -2.34735     403.466E-03        -2.13812         1.12037        -1.51574     33.2033E-03    -15.9155E-03    -17.2878E-03    -15.6586E-03     31.5741E-03    -15.9155E-03     16.6509E-03     9.29208E+06    -23.8290E+06    -44.1391E+06    -6.36198E+06    -10.5242E+06    -41.7898E+06     2.06466E+06         29.0772
            1341     13.7791E-03     65.9952E-03         1.07139     563.205E-03        -2.22336     355.100E-03        -2.01526         1.07139        -1.46463     34.2574E-03    -15.7839E-03    -18.4735E-03    -15.3708E-03     31.1547E-03    -15.7839E-03     24.7497E-03     40.7252E+06    -6.65701E+06    -56.8800E+06    -6.18765E+06     40.2558E+06    -56.8800E+06     1.75825E+06         35.7914
            1342     14.7643E-03     66.0236E-03         1.03022     450.821E-03        -2.04010     339.006E-03        -1.92829         1.03022    -944.030E-03     48.1555E-03    -15.8784E-03    -32.2771E-03    -15.7991E-03     31.6775E-03    -15.8784E-03     60.9769E-03     77.9431E+06    -2.90785E+06    -42.2208E+06    -6.65399E+06     77.8492E+06    -38.3807E+06    -1.68719E+06         47.0252
            1343     15.7492E-03     66.1272E-03         1.00897     343.160E-03        -1.87984     326.989E-03        -1.86367         1.00897    -116.939E-03     133.493E-03    -16.2920E-03    -117.201E-03    -26.7566E-03     43.0486E-03    -16.2920E-03     239.483E-03     123.633E+06     30.4919E+06    -11.6378E+06    -8.10073E+06     123.307E+06     27.2812E+06    -746.347E+03         61.6436
            1344     16.7283E-03     66.5519E-03         1.02771     321.800E-03        -1.85220     313.231E-03        -1.84363         1.02771     270.863E-03     314.374E-03    -16.7731E-03    -297.601E-03    -75.3523E-03     92.1254E-03    -16.7731E-03     588.288E-03     166.700E+06     101.331E+06    -6.12542E+06    -5.70091E+06     166.276E+06     101.331E+06     2.94461E+06         75.1719
            1345     984.750E-06     66.9093E-03         9.44437    -815.450E-03        -9.43131         5.19081        -5.17775    -815.450E-03        -8.06937     32.6599E-03    -16.2443E-03    -16.4156E-03    -16.3773E-03     32.6498E-03    -16.2725E-03     1.20894E-03    -130.981E+03    -3.53274E+06    -205.855E+06    -2.60596E+06    -205.676E+06    -1.23597E+06    -302.054E+03         22.3884
            1346     1.96834E-03     66.9106E-03         3.32580         2.15488        -6.27707         2.01917        -4.97045         2.15488         1.01980     32.7296E-03    -16.3209E-03    -16.4087E-03    -16.3420E-03     32.6911E-03    -16.3491E-03     2.59045E-03     4.29920E+06     1.92337E+06    -201.352E+06     1.95511E+06    -201.341E+06     4.25668E+06     156.773E+03         22.4146
            1347     2.95192E-03     66.9151E-03         2.71130         2.08568        -5.59181         1.86300        -4.74351         2.08568    -509.211E-03     32.7359E-03    -16.3251E-03    -16.4109E-03    -16.3159E-03     32.6576E-03    -16.3417E-03     3.88003E-03     3.60072E+06     2.33051E+06    -198.655E+06     2.45242E+06    -198.644E+06     3.46801E+06     292.296E+03         22.4564
            1348     3.93681E-03     66.9191E-03         2.24362         1.87510        -4.89750         1.74513        -4.54071         2.01680         2.20457     32.7131E-03    -16.3152E-03    -16.3979E-03    -16.2569E-03     32.5887E-03    -16.3318E-03     4.89962E-03     4.09948E+06     1.85496E+06    -197.638E+06     2.16344E+06    -197.629E+06     3.78274E+06    -859.821E+03         22.5151
            1349     4.92097E-03     66.9253E-03         1.98266         1.76786        -4.51821         1.61660        -4.33609         1.95179         1.44470     32.8679E-03    -16.3182E-03    -16.5497E-03    -16.3629E-03     32.6812E-03    -16.3182E-03     6.03437E-03     3.47765E+06     311.492E+03    -194.197E+06     1.32645E+06    -194.188E+06     2.45309E+06    -723.941E+03         22.5928
            1350     5.90454E-03     66.9323E-03         1.91495         1.62264        -4.29449         1.44112        -4.08211         1.88408         2.05460     33.0153E-03    -16.3193E-03    -16.6960E-03    -16.4462E-03     32.7655E-03    -16.3193E-03     7.01743E-03     3.62999E+06    -601.054E+03    -187.391E+06     1.37636E+06    -187.368E+06     1.62944E+06    -203.688E+03         22.6925
            1351     6.88881E-03     66.9408E-03         1.80954         1.44258        -3.99855         1.24273        -3.79870         1.80954         1.88295     33.0732E-03    -16.3101E-03    -16.7631E-03    -16.4614E-03     32.7715E-03    -16.3101E-03     7.72470E-03     4.16300E+06    -568.527E+03    -172.746E+06     2.88143E+06    -172.720E+06     687.185E+03    -770.001E+03         22.8187
            1352     7.87288E-03     66.9494E-03         1.72845         1.23330        -3.69795         1.03327        -3.49792         1.72845         1.82801     33.1518E-03    -16.2930E-03    -16.8588E-03    -16.5191E-03     32.8121E-03    -16.2930E-03     8.21347E-03     4.43364E+06    -1.58597E+06    -156.709E+06     4.41670E+06    -156.692E+06    -1.58597E+06    -681.831E+03         22.9805
            1353     8.85656E-03     66.9590E-03         1.64374     881.763E-03        -3.24672     851.134E-03        -3.21609         1.64374     504.195E-03     33.2201E-03    -16.2807E-03    -16.9395E-03    -16.5585E-03     32.8392E-03    -16.2807E-03     8.70395E-03     3.00690E+06    -5.21290E+06    -143.386E+06     2.93447E+06    -143.313E+06    -5.21290E+06     769.403E+03         23.2011
            1354     9.84063E-03     66.9682E-03         1.55982     794.174E-03        -3.05548     706.881E-03        -2.96819         1.55982    -808.794E-03     33.2965E-03    -16.2400E-03    -17.0564E-03    -16.5779E-03     32.8180E-03    -16.2400E-03     9.74359E-03    -813.561E+03    -12.9761E+06    -121.676E+06    -882.982E+03    -121.607E+06    -12.9761E+06     280.327E+03         23.5483
            1355     10.8241E-03     66.9806E-03         1.47805     735.323E-03        -2.89504     558.847E-03        -2.71856         1.47805        -1.56020     33.1882E-03    -16.1829E-03    -17.0053E-03    -16.5288E-03     32.7117E-03    -16.1829E-03     9.70772E-03    -4.30937E+06    -23.6409E+06    -98.6883E+06    -4.33586E+06    -98.6618E+06    -23.6409E+06    -798.870E+03         24.2161
            1356     11.8081E-03     66.9899E-03         1.39723     594.879E-03        -2.65313     402.691E-03        -2.46094         1.39723        -1.52928     33.0394E-03    -16.1011E-03    -16.9383E-03    -16.4590E-03     32.5601E-03    -16.1011E-03     9.71059E-03    -5.71010E+06    -36.2623E+06    -67.5539E+06    -5.96499E+06    -66.9927E+06    -36.5686E+06    -874.772E+03         25.6974
            1357     12.7922E-03     67.0026E-03         1.31901     501.727E-03        -2.45860     289.195E-03        -2.24607         1.31901        -1.52712     33.7977E-03    -16.0102E-03    -17.7875E-03    -16.3832E-03     32.3934E-03    -16.0102E-03     15.9307E-03     8.50632E+06    -24.4508E+06    -47.0859E+06    -5.73192E+06    -10.9836E+06    -46.3148E+06    -1.17104E+06         29.0158
            1358     13.7763E-03     67.0258E-03         1.24732     446.794E-03        -2.30609     236.925E-03        -2.09623         1.24732        -1.46097     35.2523E-03    -15.9519E-03    -19.3004E-03    -16.4838E-03     32.4357E-03    -15.9519E-03     24.0250E-03     41.7722E+06    -6.53424E+06    -58.0429E+06    -6.42786E+06     41.6658E+06    -58.0429E+06    -1.86180E+06         35.7184
            1359     14.7597E-03     67.0588E-03         1.18703     354.566E-03        -2.12277     240.082E-03        -2.00829         1.18703    -956.191E-03     49.8791E-03    -16.2050E-03    -33.6741E-03    -18.8681E-03     35.0731E-03    -16.2050E-03     60.4938E-03     80.1816E+06    -4.53354E+06    -40.1763E+06    -10.0231E+06     79.9793E+06    -34.4844E+06    -1.18929E+06         46.9787
            1360     15.7417E-03     67.1602E-03         1.14997     276.938E-03        -1.98004     258.874E-03        -1.96198         1.14997    -123.383E-03     134.997E-03    -16.6904E-03    -118.306E-03    -27.0515E-03     43.7419E-03    -16.6904E-03     240.455E-03     120.384E+06     26.0478E+06    -14.4066E+06    -14.0688E+06     120.047E+06     26.0478E+06     1.93454E+06         61.7257
            1361     16.7258E-03     67.5895E-03         1.15575     296.211E-03        -1.99061     287.453E-03        -1.98186         1.15575     280.912E-03     314.103E-03    -17.0089E-03    -297.095E-03    -70.7844E-03     87.7933E-03    -17.0089E-03     589.812E-03     163.531E+06     97.2372E+06    -9.45306E+06    -9.19334E+06     163.272E+06     97.2372E+06     2.18168E+06         75.4220
            1362     983.298E-06     67.9405E-03         9.36926    -368.697E-03        -9.83519         5.62803        -6.09395    -368.697E-03        -7.91441     32.9163E-03    -16.3697E-03    -16.5466E-03    -16.4868E-03     32.9062E-03    -16.4194E-03     1.00915E-03     2.44967E+06    -2.86529E+06    -202.719E+06    -1.84316E+06    -202.636E+06     1.34468E+06    -2.95880E+06         22.3912
            1363     1.96800E-03     67.9436E-03         3.48969         2.59105        -6.91577         2.43439        -5.86047         2.59105     833.017E-03     32.7906E-03    -16.3305E-03    -16.4601E-03    -16.3064E-03     32.7497E-03    -16.4434E-03     2.67972E-03     3.31554E+06     416.805E+03    -202.837E+06     447.847E+03    -202.826E+06     3.27302E+06    -594.732E+03         22.4169
            1364     2.95260E-03     67.9466E-03         2.93935         2.51029        -6.28340         2.25325        -5.59730         2.51029    -595.179E-03     32.7476E-03    -16.3052E-03    -16.4424E-03    -16.2839E-03     32.6688E-03    -16.3849E-03     3.89959E-03     2.64375E+06     1.57909E+06    -198.251E+06     2.00846E+06    -198.246E+06     2.20993E+06     247.471E+03         22.4584
            1365     3.93627E-03     67.9515E-03         2.52682         2.19940        -5.54540         2.02893        -5.26831         2.42018         2.05533     32.9099E-03    -16.3622E-03    -16.5478E-03    -16.4047E-03     32.7835E-03    -16.3788E-03     4.95238E-03     3.69786E+06     887.070E+03    -196.897E+06     1.26576E+06    -196.885E+06     3.30657E+06     339.502E+03         22.5168
            1366     4.92024E-03     67.9573E-03         2.32365         1.97608        -5.10746         1.82727        -4.95865         2.32365         1.36949     33.0827E-03    -16.3937E-03    -16.6890E-03    -16.4996E-03     32.8934E-03    -16.3937E-03     6.09914E-03     3.72963E+06    -165.124E+03    -194.446E+06     322.051E+03    -194.432E+06     3.22916E+06     614.269E+03         22.5940
            1367     5.90451E-03     67.9650E-03         2.22683         1.80843        -4.83133         1.63353        -4.65644         2.22683         1.98646     33.1129E-03    -16.3708E-03    -16.7421E-03    -16.4835E-03     32.8543E-03    -16.3708E-03     7.14355E-03     1.24233E+06    -3.38676E+06    -185.510E+06     256.740E+03    -185.499E+06    -2.41197E+06    -624.408E+03         22.6929
            1368     6.88823E-03     67.9728E-03         2.12820         1.57826        -4.49234         1.40612        -4.32020         2.12820         1.85220     33.1389E-03    -16.3364E-03    -16.8025E-03    -16.4759E-03     32.8124E-03    -16.3364E-03     8.03787E-03    -202.596E+03    -7.47658E+06    -170.704E+06    -239.609E+03    -170.667E+06    -7.47658E+06    -2.33838E+06         22.8181
            1369     7.87207E-03     67.9823E-03         2.02434         1.32168        -4.12138         1.14931        -3.94902         2.02434         1.79284     33.1807E-03    -16.3259E-03    -16.8548E-03    -16.4936E-03     32.8195E-03    -16.3259E-03     8.46736E-03    -820.263E+03    -8.76277E+06    -158.667E+06    -850.072E+03    -158.637E+06    -8.76277E+06    -1.81799E+06         22.9786
            1370     8.85630E-03     67.9911E-03         1.91660     945.063E-03        -3.61822     918.448E-03        -3.59161         1.91660     475.241E-03     33.3397E-03    -16.3202E-03    -17.0195E-03    -16.6107E-03     32.9309E-03    -16.3202E-03     9.01876E-03     34.8367E+03    -9.28036E+06    -144.078E+06    -35.5975E+03    -144.008E+06    -9.28036E+06     205.821E+03         23.1969
            1371     9.83965E-03     68.0019E-03         1.80827     788.583E-03        -3.33282     702.247E-03        -3.24648         1.80827    -845.691E-03     33.5037E-03    -16.2923E-03    -17.2114E-03    -16.7095E-03     33.0018E-03    -16.2923E-03     10.0220E-03     893.017E+03    -13.3550E+06    -120.482E+06     806.693E+03    -120.395E+06    -13.3550E+06     846.897E+03         23.5390
            1372     10.8236E-03     68.0127E-03         1.70124     686.426E-03        -3.10160     511.796E-03        -2.92697         1.70124        -1.58737     33.4421E-03    -16.2522E-03    -17.1899E-03    -16.6990E-03     32.9511E-03    -16.2522E-03     9.90435E-03    -999.368E+03    -21.9335E+06    -98.4005E+06    -1.02981E+06    -98.3701E+06    -21.9335E+06     958.937E+03         24.1957
            1373     11.8072E-03     68.0235E-03         1.59794     551.643E-03        -2.84096     364.659E-03        -2.65398         1.59794        -1.54551     33.4794E-03    -16.1686E-03    -17.3108E-03    -16.7921E-03     32.9607E-03    -16.1686E-03     10.1744E-03    -5.06778E+06    -34.0742E+06    -68.5384E+06    -5.29673E+06    -64.4035E+06    -37.9802E+06    -1.15831E+06         25.6554
            1374     12.7904E-03     68.0354E-03         1.50116     457.956E-03        -2.62885     251.800E-03        -2.42269         1.50116        -1.53893     34.8036E-03    -16.0999E-03    -18.7038E-03    -17.1688E-03     33.2687E-03    -16.0999E-03     16.9790E-03     7.38270E+06    -25.5735E+06    -51.6639E+06    -8.58035E+06    -9.61048E+06    -51.6639E+06    -4.03189E+06         28.9413
            1375     13.7728E-03     68.0609E-03         1.41303     391.767E-03        -2.44874     183.656E-03        -2.24063         1.41303        -1.48022     36.7587E-03    -16.1078E-03    -20.6509E-03    -17.5606E-03     33.6685E-03    -16.1078E-03     25.7670E-03     40.6146E+06    -12.2955E+06    -63.2942E+06    -11.8267E+06     40.1458E+06    -63.2942E+06    -2.70673E+06         35.6155
            1376     14.7558E-03     68.0922E-03         1.33764     290.118E-03        -2.24360     174.004E-03        -2.12748         1.33764    -981.576E-03     53.3173E-03    -16.4167E-03    -36.9006E-03    -19.9538E-03     36.3705E-03    -16.4167E-03     66.7291E-03     76.9108E+06    -10.8757E+06    -44.8865E+06    -15.9205E+06     76.7591E+06    -39.6900E+06     891.247E+03         46.8929
            1377     15.7322E-03     68.2046E-03         1.28653     225.541E-03        -2.10398     205.843E-03        -2.08429         1.28653    -130.080E-03     133.586E-03    -16.8602E-03    -116.726E-03    -24.9439E-03     41.8041E-03    -16.8602E-03     238.469E-03     118.132E+06     20.7082E+06    -15.2501E+06    -15.1478E+06     118.030E+06     20.7082E+06     1.69137E+06         61.7408
            1378     16.7305E-03     68.5989E-03         1.28102     294.463E-03        -2.16629     287.083E-03        -2.15891         1.28102     265.859E-03     312.593E-03    -17.0907E-03    -295.502E-03    -69.2877E-03     86.3785E-03    -17.0907E-03     587.188E-03     163.613E+06     96.7146E+06    -9.06290E+06    -8.86295E+06     163.413E+06     96.7146E+06    -925.582E+03         75.5419
            1379     984.551E-06     68.9741E-03         9.07345    -149.668E-03        -9.79660         5.88897        -6.61211    -149.668E-03        -7.51030     32.8622E-03    -16.3600E-03    -16.5021E-03    -16.4418E-03     32.8499E-03    -16.4081E-03     1.24930E-03     3.36507E+06    -4.20016E+06    -201.802E+06    -2.28650E+06    -201.791E+06     1.44078E+06    -445.869E+03         22.3948
            1380     1.96792E-03     68.9750E-03         3.57552         2.84631        -7.29784         2.75201        -6.47434         2.84631     594.829E-03     32.9033E-03    -16.3652E-03    -16.5381E-03    -16.4139E-03     32.8637E-03    -16.4498E-03     2.70659E-03     4.20596E+06    -243.722E+03    -202.108E+06    -259.396E+03    -202.093E+06     4.20596E+06    -671.749E+03         22.4200
            1381     2.95197E-03     68.9792E-03         3.14605         2.79107        -6.81897         2.59681        -6.26973         2.79107    -598.893E-03     32.8547E-03    -16.3588E-03    -16.4959E-03    -16.3533E-03     32.7751E-03    -16.4219E-03     3.90810E-03     3.13146E+06     1.75464E+06    -198.632E+06     2.32710E+06    -198.621E+06     2.54800E+06    -717.730E+03         22.4609
            1382     3.93635E-03     68.9836E-03         2.77712         2.49323        -6.13597         2.34168        -5.92064         2.71335         1.96505     33.0478E-03    -16.4189E-03    -16.6288E-03    -16.4866E-03     32.9055E-03    -16.4189E-03     5.25532E-03     3.81444E+06     1.49181E+06    -197.584E+06     2.54991E+06    -197.572E+06     2.74449E+06     949.150E+03         22.5187
            1383     4.92010E-03     68.9903E-03         2.61465         2.20276        -5.67179         2.07737        -5.54640         2.61465         1.37365     33.2086E-03    -16.4337E-03    -16.7749E-03    -16.5688E-03     33.0025E-03    -16.4337E-03     6.39214E-03     4.62044E+06     1.79518E+06    -192.705E+06     3.34647E+06    -192.683E+06     3.04786E+06     125.308E+03         22.5951
            1384     5.90381E-03     68.9970E-03         2.50425         1.95457        -5.30079         1.80317        -5.14938         2.50425         1.96150     33.2003E-03    -16.4230E-03    -16.7773E-03    -16.5028E-03     32.9258E-03    -16.4230E-03     7.35820E-03     5.14604E+06     1.14226E+06    -182.676E+06     5.12271E+06    -182.653E+06     1.14226E+06    -1.72312E+06         22.6932
            1385     6.88807E-03     69.0058E-03         2.38764         1.70313        -4.92078         1.54670        -4.76435         2.38764         1.86621     33.2035E-03    -16.3888E-03    -16.8147E-03    -16.4630E-03     32.8518E-03    -16.3888E-03     8.34655E-03     4.61066E+06    -2.95144E+06    -170.104E+06     4.57362E+06    -170.067E+06    -2.95144E+06    -1.39495E+06         22.8175
            1386     7.87211E-03     69.0144E-03         2.26772         1.43445        -4.51962         1.27898        -4.36415         2.26772         1.79356     33.2604E-03    -16.3633E-03    -16.8971E-03    -16.5018E-03     32.8652E-03    -16.3633E-03     8.86615E-03     1.64074E+06    -6.89919E+06    -159.729E+06     1.60944E+06    -159.698E+06    -6.89919E+06    -984.677E+03         22.9765
            1387     8.85568E-03     69.0242E-03         2.14417         1.02262        -3.96443     997.202E-03        -3.93902         2.14417     479.666E-03     33.3954E-03    -16.3368E-03    -17.0585E-03    -16.5797E-03     32.9165E-03    -16.3368E-03     9.74733E-03    -688.695E+03    -10.8637E+06    -143.746E+06    -713.861E+03    -143.721E+06    -10.8637E+06    -1.54507E+06         23.1920
            1388     9.83967E-03     69.0346E-03         2.01793     807.994E-03        -3.59962     727.281E-03        -3.51890         2.01793    -849.814E-03     33.5661E-03    -16.3022E-03    -17.2639E-03    -16.6794E-03     32.9816E-03    -16.3022E-03     10.8198E-03    -1.31061E+06    -15.9316E+06    -121.338E+06    -1.35943E+06    -121.289E+06    -15.9316E+06    -1.01759E+06         23.5284
            1389     10.8230E-03     69.0461E-03         1.89298     685.019E-03        -3.32867     520.340E-03        -3.16399         1.89298        -1.58901     33.6363E-03    -16.2666E-03    -17.3697E-03    -16.7757E-03     33.0423E-03    -16.2666E-03     10.9050E-03    -433.875E+03    -22.6193E+06    -98.6700E+06    -478.287E+03    -98.6256E+06    -22.6193E+06     148.526E+03         24.1726
            1390     11.8064E-03     69.0567E-03         1.77403     547.649E-03        -3.04994     370.622E-03        -2.87291         1.77403        -1.55327     33.7682E-03    -16.1900E-03    -17.5782E-03    -16.8906E-03     33.0806E-03    -16.1900E-03     11.7039E-03    -1.06168E+06    -31.1754E+06    -65.0131E+06    -1.12395E+06    -60.3053E+06    -35.8209E+06    -376.190E+03         25.6067
            1391     12.7899E-03     69.0697E-03         1.66392     456.205E-03        -2.82766     258.653E-03        -2.63010         1.66392        -1.55869     35.2190E-03    -16.1199E-03    -19.0991E-03    -17.0650E-03     33.1849E-03    -16.1199E-03     19.5706E-03     8.77458E+06    -23.3215E+06    -50.3245E+06    -6.71996E+06    -7.82699E+06    -50.3245E+06    -2.15978E+06         28.8510
            1392     13.7728E-03     69.0960E-03         1.56450     399.641E-03        -2.64837     194.820E-03        -2.44354         1.56450        -1.52523     37.8492E-03    -16.1074E-03    -21.7418E-03    -17.6501E-03     33.7575E-03    -16.1074E-03     29.9254E-03     37.8027E+06    -13.7440E+06    -67.0260E+06    -13.3352E+06     37.3938E+06    -67.0260E+06    -1.33494E+06         35.4833
            1393     14.7545E-03     69.1280E-03         1.47881     288.353E-03        -2.42715     171.670E-03        -2.31047         1.47881        -1.02558     54.6794E-03    -16.3345E-03    -38.3449E-03    -18.1263E-03     34.4608E-03    -16.3345E-03     72.6728E-03     74.1440E+06    -12.5597E+06    -49.2515E+06    -15.8656E+06     74.1051E+06    -45.9069E+06     799.863E+03         46.7792
            1394     15.7423E-03     69.2426E-03         1.41803     230.736E-03        -2.29206     211.790E-03        -2.27312         1.41803    -178.353E-03     133.483E-03    -16.8136E-03    -116.669E-03    -27.1489E-03     43.9625E-03    -16.8136E-03     238.626E-03     120.407E+06     23.5952E+06    -14.4663E+06    -11.6951E+06     120.059E+06     21.1726E+06    -2.01465E+06         61.6751
            1395     16.7216E-03     69.6220E-03         1.40473     328.155E-03        -2.38194     323.063E-03        -2.37684         1.40473     230.213E-03     308.222E-03    -17.1935E-03    -291.029E-03    -68.9406E-03     86.1342E-03    -17.1935E-03     578.524E-03     168.351E+06     100.117E+06    -5.69045E+06    -4.85159E+06     167.512E+06     100.117E+06    -827.894E+03         75.5507
            1396     983.965E-06     70.0056E-03         8.60387    -13.4948E-03        -9.52124         6.08519        -7.00256    -13.4948E-03        -6.76620     32.7131E-03    -16.2489E-03    -16.4642E-03    -16.4212E-03     32.7024E-03    -16.2813E-03     1.23991E-03     1.53309E+06    -5.24406E+06    -202.014E+06    -3.33315E+06    -202.001E+06    -391.197E+03    -32.1214E+03         22.3973
            1397     1.96826E-03     70.0083E-03         3.53739         3.01797        -7.48780         2.94601        -6.89642         3.01797     473.678E-03     32.9310E-03    -16.3974E-03    -16.5336E-03    -16.4898E-03     32.8930E-03    -16.4032E-03     2.64073E-03     3.26268E+06    -600.585E+03    -200.080E+06    -616.760E+03    -200.064E+06     3.26268E+06    -530.874E+03         22.4222
            1398     2.95212E-03     70.0109E-03         3.26530         2.97783        -7.18246         2.84152        -6.75868         2.97783    -348.300E-03     33.0089E-03    -16.4313E-03    -16.5776E-03    -16.4933E-03     32.9246E-03    -16.4313E-03     4.02502E-03     1.37774E+06    -328.947E+03    -199.127E+06     1.44902E+03    -199.111E+06     1.03120E+06    -917.944E+03         22.4625
            1399     3.93604E-03     70.0164E-03         2.97622         2.72307        -6.61818         2.59884        -6.43399         2.91626         2.03274     33.0492E-03    -16.4357E-03    -16.6135E-03    -16.4615E-03     32.8972E-03    -16.4357E-03     5.43810E-03     2.46986E+06     389.594E+03    -197.886E+06     2.45020E+06    -197.866E+06     389.594E+03    -906.226E+03         22.5195
            1400     4.92010E-03     70.0226E-03         2.82479         2.40722        -6.13807         2.29644        -6.02729         2.82479         1.48503     33.1603E-03    -16.4301E-03    -16.7302E-03    -16.5094E-03     32.9395E-03    -16.4301E-03     6.60840E-03     4.75240E+06     1.03616E+06    -189.885E+06     4.71761E+06    -189.850E+06     1.03616E+06    -2.05289E+06         22.5954
            1401     5.90412E-03     70.0299E-03         2.71089         2.09996        -5.70171         1.96357        -5.56532         2.71089         1.95769     33.2604E-03    -16.4306E-03    -16.8298E-03    -16.5422E-03     32.9727E-03    -16.4306E-03     7.55167E-03     5.43745E+06     1.67214E+06    -180.703E+06     5.36410E+06    -180.630E+06     1.67214E+06    -3.49182E+06         22.6932
            1402     6.88796E-03     70.0378E-03         2.58494         1.81856        -5.28098         1.67489        -5.13731         2.58494         1.87532     33.2056E-03    -16.4111E-03    -16.7945E-03    -16.4328E-03     32.8440E-03    -16.4111E-03     8.46013E-03     6.27597E+06    -107.387E+03    -171.493E+06     6.21302E+06    -171.430E+06    -107.387E+03    -2.08623E+06         22.8169
            1403     7.87197E-03     70.0474E-03         2.45439         1.52478        -4.84203         1.38328        -4.70054         2.45439         1.78531     33.2084E-03    -16.3793E-03    -16.8291E-03    -16.4041E-03     32.7834E-03    -16.3793E-03     9.17726E-03     6.26804E+06    -2.04945E+06    -159.749E+06     6.24158E+06    -159.722E+06    -2.04945E+06     11.7487E+03         22.9748
            1404     8.85621E-03     70.0565E-03         2.32062         1.11735        -4.27909         1.09179        -4.25354         2.32062     499.729E-03     33.3230E-03    -16.3427E-03    -16.9804E-03    -16.4603E-03     32.8030E-03    -16.3427E-03     10.1537E-03     4.98153E+06    -4.56020E+06    -142.315E+06     4.95774E+06    -142.291E+06    -4.56020E+06    -678.015E+03         23.1877
            1405     9.84000E-03     70.0677E-03         2.18595     895.493E-03        -3.89749     827.066E-03        -3.82906         2.18595    -820.870E-03     33.4086E-03    -16.2866E-03    -17.1220E-03    -16.4697E-03     32.7562E-03    -16.2866E-03     11.3925E-03     3.14429E+06    -11.3303E+06    -121.486E+06     3.11659E+06    -121.458E+06    -11.3303E+06    -1.67080E+06         23.5183
            1406     10.8240E-03     70.0790E-03         2.05354     743.635E-03        -3.58950     600.150E-03        -3.44602         2.05354        -1.54480     33.4430E-03    -16.2159E-03    -17.2271E-03    -16.5212E-03     32.7371E-03    -16.2159E-03     11.8751E-03     1.37310E+06    -21.5249E+06    -98.1288E+06     1.28584E+06    -98.0415E+06    -21.5249E+06    -2.39698E+06         24.1490
            1407     11.8078E-03     70.0902E-03         1.92647     579.089E-03        -3.27649     423.215E-03        -3.12062         1.92647        -1.51319     33.5452E-03    -16.1246E-03    -17.4206E-03    -16.5478E-03     32.6724E-03    -16.1246E-03     13.1466E-03     133.248E+03    -32.1068E+06    -62.2345E+06      36.156E+03    -60.4462E+06    -33.7980E+06    -920.598E+03         25.5543
            1408     12.7913E-03     70.1031E-03         1.80839     484.231E-03        -3.04421     311.226E-03        -2.87120         1.80839        -1.51667     34.7939E-03    -16.0360E-03    -18.7579E-03    -16.4005E-03     32.4366E-03    -16.0360E-03     21.0823E-03     10.9504E+06    -20.9604E+06    -44.2335E+06    -2.97419E+06    -7.03582E+06    -44.2335E+06     1.08915E+06         28.7503
            1409     13.7762E-03     70.1294E-03         1.70194     424.450E-03        -2.85791     243.047E-03        -2.67651         1.70194        -1.49620     37.4800E-03    -15.9547E-03    -21.5253E-03    -16.4704E-03     32.4252E-03    -15.9547E-03     32.7369E-03     38.1957E+06    -7.98482E+06    -61.9301E+06    -7.94991E+06     38.1608E+06    -61.9301E+06    -75.4866E+03         35.3349
            1410     14.7594E-03     70.1650E-03         1.61007     334.811E-03        -2.65560     231.070E-03        -2.55186         1.61007        -1.01209     52.6538E-03    -16.0526E-03    -36.6012E-03    -15.8886E-03     31.9412E-03    -16.0526E-03     72.2583E-03     74.4335E+06    -9.94435E+06    -46.0954E+06    -9.82186E+06     74.3110E+06    -46.0954E+06    -1.74766E+06         46.6415
            1411     15.7476E-03     70.2670E-03         1.54555     304.182E-03        -2.54953     287.295E-03        -2.53264         1.54555    -174.414E-03     140.408E-03    -16.5446E-03    -123.863E-03    -31.0534E-03     47.5980E-03    -16.5446E-03     251.833E-03     122.911E+06     28.5105E+06    -13.9268E+06    -9.45124E+06     122.223E+06     24.7228E+06    -1.41257E+06         61.6156
            1412     16.7135E-03     70.6909E-03         1.52891     389.648E-03        -2.61927     384.407E-03        -2.61403         1.52891     248.355E-03     304.509E-03    -17.0572E-03    -287.451E-03    -67.7540E-03     84.8112E-03    -17.0572E-03     571.931E-03     168.973E+06     99.0635E+06    -6.67945E+06    -5.46166E+06     167.755E+06     99.0635E+06     410.248E+03         75.6056
            1413     984.192E-06     71.0383E-03         8.11052     99.5644E-03        -9.20457         6.35122        -7.44527     99.5644E-03        -5.79205     32.7380E-03    -16.1921E-03    -16.5459E-03    -16.3390E-03     32.7265E-03    -16.3875E-03     1.31588E-03     261.072E+03    -6.95474E+06    -200.341E+06    -5.38698E+06    -200.327E+06    -1.32101E+06     639.865E+03         22.3993
            1414     1.96816E-03     71.0400E-03         3.41446         3.19055        -7.60099         3.04927        -7.23580         3.19055     337.249E-03     32.9038E-03    -16.4023E-03    -16.5015E-03    -16.4585E-03     32.8666E-03    -16.4082E-03     2.62628E-03     1.97268E+06    -2.90846E+06    -199.773E+06    -2.51446E+06    -199.768E+06     1.57317E+06    -660.225E+03         22.4237
            1415     2.95213E-03     71.0440E-03         3.26336         3.10019        -7.36360         2.93904        -7.06387         3.12478    -49.2364E-03     33.0301E-03    -16.4314E-03    -16.5988E-03    -16.5162E-03     32.9475E-03    -16.4314E-03     3.98257E-03     493.700E+03    -1.19014E+06    -197.943E+06    -716.387E+03    -197.931E+06     7.49602E+03    -1.28127E+06         22.4633
            1416     3.93591E-03     71.0484E-03         3.07636         2.82180        -6.87544         2.69236        -6.71932         3.04968         2.06313     33.0514E-03    -16.4303E-03    -16.6211E-03    -16.4667E-03     32.8971E-03    -16.4303E-03     5.47262E-03    -748.642E+03    -3.00892E+06    -195.781E+06    -789.813E+03    -195.740E+06    -3.00892E+06    -2.70139E+06         22.5198
            1417     4.92015E-03     71.0551E-03         2.95199         2.51442        -6.42897         2.41638        -6.33093         2.95199         1.58523     33.0470E-03    -16.4042E-03    -16.6428E-03    -16.4116E-03     32.8158E-03    -16.4042E-03     6.74455E-03    -370.521E+03    -5.36715E+06    -187.331E+06    -495.036E+03    -187.207E+06    -5.36715E+06    -4.33731E+06         22.5953
            1418     5.90405E-03     71.0623E-03         2.83836         2.23131        -6.01384         2.11023        -5.89276         2.83836         1.92248     33.1476E-03    -16.4024E-03    -16.7452E-03    -16.4509E-03     32.8533E-03    -16.4024E-03     7.62910E-03     440.606E+03    -3.29738E+06    -179.998E+06     192.742E+03    -179.849E+06    -3.19885E+06    -4.79250E+06         22.6930
            1419     6.88793E-03     71.0706E-03         2.71303         1.93003        -5.57279         1.79799        -5.44075         2.71303         1.87505     33.1564E-03    -16.3933E-03    -16.7631E-03    -16.3986E-03     32.7918E-03    -16.3933E-03     8.48523E-03     723.094E+03    -2.89765E+06    -172.633E+06     542.066E+03    -172.551E+06    -2.79912E+06    -3.60062E+06         22.8167
            1420     7.87235E-03     71.0792E-03         2.58042         1.62071        -5.11438         1.49145        -4.98512         2.58042         1.77519     33.1369E-03    -16.3570E-03    -16.7799E-03    -16.3386E-03     32.6957E-03    -16.3570E-03     9.33666E-03     2.58232E+06    -4.31562E+06    -159.720E+06     2.47424E+06    -159.612E+06    -4.31562E+06    -2.55819E+06         22.9739
            1421     8.85627E-03     71.0896E-03         2.44596         1.26111        -4.59564         1.23410        -4.56863         2.44596     541.824E-03     33.1648E-03    -16.3238E-03    -16.8410E-03    -16.3278E-03     32.6516E-03    -16.3238E-03     10.0723E-03     5.69239E+06    -3.21639E+06    -141.821E+06     5.60189E+06    -141.731E+06    -3.21639E+06    -1.83596E+06         23.1848
            1422     9.84056E-03     71.0996E-03         2.31340         1.04326        -4.21988     987.272E-03        -4.16390         2.31340    -776.107E-03     33.1330E-03    -16.2658E-03    -16.8672E-03    -16.2394E-03     32.5052E-03    -16.2658E-03     11.1085E-03     6.53608E+06    -6.24992E+06    -119.932E+06     6.50746E+06    -119.903E+06    -6.24992E+06    -1.67026E+06         23.5101
            1423     10.8249E-03     71.1119E-03         2.18345     874.073E-03        -3.89685     756.865E-03        -3.77964         2.18345        -1.46862     32.9958E-03    -16.1710E-03    -16.8248E-03    -16.1530E-03     32.3239E-03    -16.1710E-03     11.4812E-03     4.35946E+06    -16.8313E+06    -97.4416E+06     4.27109E+06    -97.3532E+06    -16.8313E+06    -1.87423E+06         24.1270
            1424     11.8092E-03     71.1224E-03         2.05769     688.425E-03        -3.56466     564.294E-03        -3.44053         2.05769        -1.42411     32.8673E-03    -16.0502E-03    -16.8171E-03    -15.9975E-03     32.0477E-03    -16.0502E-03     12.5564E-03     360.536E+03    -29.4706E+06    -63.6335E+06     229.462E+03    -62.8570E+06    -30.1159E+06    -953.554E+03         25.5019
            1425     12.7941E-03     71.1362E-03         1.93899     557.531E-03        -3.29794     422.015E-03        -3.16243         1.93899        -1.41109     34.0129E-03    -15.9274E-03    -18.0855E-03    -15.8169E-03     31.7443E-03    -15.9274E-03     20.3938E-03     11.1630E+06    -19.6877E+06    -41.7174E+06    -2.87378E+06    -7.67602E+06    -39.6924E+06     1.17777E+06         28.6470
            1426     13.7781E-03     71.1616E-03         1.83051     485.789E-03        -3.09935     344.220E-03        -2.95778         1.83051        -1.38819     35.7089E-03    -15.7840E-03    -19.9249E-03    -15.0237E-03     30.8077E-03    -15.7840E-03     31.2034E-03     41.8676E+06    -5.80886E+06    -55.6849E+06    -5.59503E+06     41.6538E+06    -55.6849E+06     59.1326E+03         35.1828
            1427     14.7658E-03     71.1969E-03         1.73706     425.580E-03        -2.92712     346.782E-03        -2.84832         1.73706    -922.545E-03     50.3408E-03    -15.8186E-03    -34.5223E-03    -15.3417E-03     31.1602E-03    -15.8186E-03     68.7025E-03     76.8729E+06    -9.16052E+06    -43.2590E+06    -9.01141E+06     76.7238E+06    -43.2590E+06    -2.59905E+06         46.4894
            1428     15.7527E-03     71.2964E-03         1.67216     412.783E-03        -2.83575     399.457E-03        -2.82242         1.67216    -100.596E-03     145.253E-03    -16.0675E-03    -129.185E-03    -27.1869E-03     43.2544E-03    -16.0675E-03     263.665E-03     118.168E+06     18.4696E+06    -16.2651E+06    -12.2557E+06     117.740E+06     14.8878E+06     301.056E+03         61.6274
            1429     16.7424E-03     71.7595E-03         1.65345     467.377E-03        -2.87027     461.481E-03        -2.86438         1.65345     278.058E-03     306.291E-03    -16.4695E-03    -289.821E-03    -69.3250E-03     85.7945E-03    -16.4695E-03     574.562E-03     165.190E+06     91.9824E+06    -8.39168E+06    -7.69258E+06     164.491E+06     91.9824E+06     463.987E+03         75.7939
            1430     984.167E-06     72.0705E-03         7.64898     65.6244E-03        -8.79838         6.57496        -7.77091     112.166E-03        -4.72159     32.8931E-03    -16.2866E-03    -16.6066E-03    -16.3433E-03     32.8825E-03    -16.5392E-03     1.22713E-03    -507.662E+03    -6.62963E+06    -200.590E+06    -3.77416E+06    -200.565E+06    -3.38761E+06     468.377E+03         22.4017
            1431     1.96794E-03     72.0727E-03         3.32523         3.22844        -7.62117         3.08097        -7.44023         3.29176    -34.0428E-03     32.9107E-03    -16.3926E-03    -16.5181E-03    -16.4166E-03     32.8725E-03    -16.4558E-03     2.64557E-03     828.069E+03    -3.55046E+06    -197.998E+06    -3.15999E+06    -197.989E+06     428.560E+03    -107.633E+03         22.4254
            1432     2.95199E-03     72.0761E-03         3.21378         3.07651        -7.36020         2.90337        -7.16441         3.19113     70.0672E-03     32.9629E-03    -16.4335E-03    -16.5295E-03    -16.4448E-03     32.8783E-03    -16.4335E-03     4.03785E-03    -2.20465E+06    -3.87938E+06    -195.557E+06    -2.96632E+06    -195.533E+06    -3.14237E+06    -1.95547E+06         22.4646
            1433     3.93619E-03     72.0811E-03         3.09132         2.79529        -6.92762         2.67689        -6.80922         3.09132         1.91325     33.0502E-03    -16.4329E-03    -16.6173E-03    -16.4683E-03     32.9012E-03    -16.4329E-03     5.38793E-03    -1.81883E+06    -3.56331E+06    -192.802E+06    -2.16101E+06    -192.739E+06    -3.28338E+06    -3.30867E+06         22.5206
            1434     4.91993E-03     72.0871E-03         2.98912         2.57056        -6.58205         2.48585        -6.49734         2.98912         1.60197     33.0258E-03    -16.4083E-03    -16.6175E-03    -16.3902E-03     32.7985E-03    -16.4083E-03     6.67262E-03    -2.60633E+06    -5.94176E+06    -184.352E+06    -3.02736E+06    -184.211E+06    -5.66182E+06    -4.74072E+06         22.5959
            1435     5.90419E-03     72.0949E-03         2.88386         2.33200        -6.21987         2.22477        -6.11264         2.88386         1.87639     32.9637E-03    -16.3872E-03    -16.5766E-03    -16.2827E-03     32.6699E-03    -16.3872E-03     7.59876E-03    -4.15607E+06    -6.68701E+06    -179.915E+06    -4.70556E+06    -179.768E+06    -6.28522E+06    -4.78340E+06         22.6935
            1436     6.88852E-03     72.1027E-03         2.76973         2.06637        -5.82250         1.93923        -5.69536         2.76973         1.91994     33.0594E-03    -16.3588E-03    -16.7007E-03    -16.3361E-03     32.6948E-03    -16.3588E-03     8.47009E-03    -3.59021E+06    -7.04585E+06    -171.534E+06    -4.18267E+06    -171.343E+06    -6.64407E+06    -5.10537E+06         22.8171
            1437     7.87212E-03     72.1120E-03         2.64868         1.77807        -5.39421         1.65639        -5.27254         2.64868         1.79565     33.1820E-03    -16.3160E-03    -16.8661E-03    -16.4215E-03     32.7375E-03    -16.3160E-03     9.38415E-03    -1.81530E+06    -10.3873E+06    -158.578E+06    -2.09556E+06    -158.298E+06    -10.3873E+06    -6.34151E+06         22.9739
            1438     8.85643E-03     72.1216E-03         2.52520         1.43940        -4.90699         1.41013        -4.87772         2.52520     600.446E-03     33.1191E-03    -16.2858E-03    -16.8333E-03    -16.3399E-03     32.6258E-03    -16.2858E-03     9.87716E-03    -234.261E+03    -11.5325E+06    -142.918E+06    -473.809E+03    -142.678E+06    -11.5325E+06    -5.22552E+06         23.1833
            1439     9.84054E-03     72.1324E-03         2.40286         1.22662        -4.54419         1.18188        -4.49944         2.40286    -721.161E-03     32.9792E-03    -16.2371E-03    -16.7421E-03    -16.1647E-03     32.4018E-03    -16.2371E-03     10.6315E-03     1.26117E+06    -12.0445E+06    -119.292E+06     1.09536E+06    -119.126E+06    -12.0445E+06    -3.78580E+06         23.5037
            1440     10.8248E-03     72.1437E-03         2.28326         1.07193        -4.24649     977.071E-03        -4.15163         2.28326        -1.40218     32.7719E-03    -16.1410E-03    -16.6309E-03    -16.0336E-03     32.1746E-03    -16.1410E-03     10.7877E-03     2.60805E+06    -20.8974E+06    -98.1558E+06     2.51094E+06    -98.0587E+06    -20.8974E+06    -2.35964E+06         24.1070
            1441     11.8094E-03     72.1549E-03         2.16716     880.810E-03        -3.91976     782.145E-03        -3.82109         2.16716        -1.35728     32.3980E-03    -16.0126E-03    -16.3855E-03    -15.7188E-03     31.7314E-03    -16.0126E-03     11.2679E-03     1.81520E+06    -32.0006E+06    -64.6367E+06     1.73051E+06    -64.5520E+06    -32.0006E+06    -661.000E+03         25.4519
            1442     12.7941E-03     72.1674E-03         2.05570     723.229E-03        -3.63462     617.556E-03        -3.52894         2.05570        -1.33191     33.3324E-03    -15.8709E-03    -17.4615E-03    -15.3690E-03     31.2399E-03    -15.8709E-03     19.1178E-03     12.8979E+06    -18.3421E+06    -42.2375E+06    -236.168E+03    -8.02973E+06    -39.4158E+06    -227.525E+03         28.5492
            1443     13.7797E-03     72.1946E-03         1.95224     641.999E-03        -3.43193     532.165E-03        -3.32210         1.95224        -1.31499     34.2152E-03    -15.6925E-03    -18.5227E-03    -14.4824E-03     30.1749E-03    -15.6925E-03     27.8793E-03     43.2540E+06    -3.90766E+06    -55.9201E+06    -3.32806E+06     42.6744E+06    -55.9201E+06     708.836E+03         35.0425
            1444     14.7663E-03     72.2237E-03         1.86197     564.498E-03        -3.24553     504.974E-03        -3.18601         1.86197    -858.855E-03     50.0557E-03    -15.7162E-03    -34.3395E-03    -14.9356E-03     30.6518E-03    -15.7162E-03     67.8231E-03     78.0762E+06    -8.27076E+06    -43.3844E+06    -9.96138E+06     77.8086E+06    -41.4262E+06     1.49226E+06         46.3679
            1445     15.7494E-03     72.3346E-03         1.79647     518.439E-03        -3.11783     508.523E-03        -3.10792         1.79647    -75.6196E-03     139.771E-03    -15.7653E-03    -124.006E-03    -20.9630E-03     36.7284E-03    -15.7653E-03     255.729E-03     117.774E+06     10.3197E+06    -12.7890E+06    -10.4818E+06     117.683E+06     8.10303E+06    -1.68481E+06         61.6639
            1446     16.7619E-03     72.7613E-03         1.77394     543.263E-03        -3.12402     538.353E-03        -3.11911         1.77394     264.877E-03     310.653E-03    -16.0848E-03    -294.569E-03    -74.7677E-03     90.8525E-03    -16.0848E-03     580.007E-03     162.493E+06     83.9301E+06    -7.71511E+06    -7.21256E+06     161.991E+06     83.9301E+06    -3.97712E+06         76.0217
            1447     983.457E-06     73.1026E-03         7.19261    -225.305E-03        -8.11389         6.61852        -7.65729    -107.810E-03        -3.56193     32.9931E-03    -16.3845E-03    -16.6086E-03    -16.5331E-03     32.9807E-03    -16.4477E-03     1.26982E-03    -3.74566E+06    -8.43054E+06    -201.734E+06    -7.14995E+06    -201.717E+06    -5.04353E+06    -547.241E+03         22.4050
            1448     1.96809E-03     73.1051E-03         3.20319         3.06216        -7.40199         2.99808        -7.33791         3.20319    -542.848E-03     32.9614E-03    -16.4153E-03    -16.5461E-03    -16.4315E-03     32.9228E-03    -16.4913E-03     2.70513E-03    -2.05017E+06    -4.40683E+06    -196.016E+06    -4.41727E+06    -196.006E+06    -2.05017E+06    -229.040E+03         22.4287
            1449     2.95202E-03     73.1085E-03         3.10975         2.96738        -7.21459         2.86055        -7.10776         3.10975     146.484E-03     33.0236E-03    -16.4688E-03    -16.5548E-03    -16.4618E-03     32.9434E-03    -16.4815E-03     3.92789E-03     299.260E+03    -2.70817E+06    -191.638E+06    -2.23260E+06    -191.598E+06    -216.449E+03    -2.52451E+06         22.4675
            1450     3.93584E-03     73.1135E-03         3.02510         2.76836        -6.90020         2.68530        -6.81713         3.02510         1.70808     33.0951E-03    -16.4793E-03    -16.6157E-03    -16.4745E-03     32.9539E-03    -16.4793E-03     5.24945E-03     675.970E+03    -1.45890E+06    -190.129E+06    -1.04606E+06    -190.026E+06     160.261E+03    -4.30070E+06         22.5231
            1451     4.91998E-03     73.1198E-03         2.94226         2.62383        -6.65410         2.54443        -6.57470         2.94226         1.64333     33.0625E-03    -16.4569E-03    -16.6056E-03    -16.4012E-03     32.8581E-03    -16.4569E-03     6.33651E-03    -178.198E+03    -1.22613E+06    -182.977E+06    -618.236E+03    -182.882E+06    -881.192E+03    -4.00575E+06         22.5978
            1452     5.90409E-03     73.1268E-03         2.85781         2.42956        -6.35355         2.32750        -6.25149         2.85781         1.87669     33.0035E-03    -16.4240E-03    -16.5795E-03    -16.3187E-03     32.7427E-03    -16.4240E-03     7.15469E-03    -242.300E+03    -3.03435E+06    -178.002E+06    -693.897E+03    -177.884E+06    -2.70003E+06    -4.32297E+06         22.6948
            1453     6.88819E-03     73.1352E-03         2.76548         2.22488        -6.03933         2.09630        -5.91075         2.76548         2.01055     33.0550E-03    -16.3756E-03    -16.6794E-03    -16.3456E-03     32.7212E-03    -16.3756E-03     8.09615E-03     106.336E+03    -6.42567E+06    -168.273E+06    -494.563E+03    -167.976E+06    -6.12241E+06    -6.84443E+06         22.8180
            1454     7.87264E-03     73.1443E-03         2.66625         1.96280        -5.65715         1.84570        -5.54005         2.66625         1.83287     33.1885E-03    -16.3324E-03    -16.8561E-03    -16.4517E-03     32.7840E-03    -16.3324E-03     8.94469E-03    -1.06694E+06    -11.1934E+06    -157.585E+06    -1.42396E+06    -157.228E+06    -11.1934E+06    -7.42050E+06         22.9743
            1455     8.85608E-03     73.1544E-03         2.56247         1.64861        -5.21161         1.61642        -5.17941         2.56247     657.251E-03     33.1237E-03    -16.2921E-03    -16.8316E-03    -16.3809E-03     32.6730E-03    -16.2921E-03     9.43717E-03    -2.30831E+06    -15.7286E+06    -143.058E+06    -2.67880E+06    -142.687E+06    -15.7286E+06    -7.13298E+06         23.1823
            1456     9.84021E-03     73.1643E-03         2.45781         1.44493        -4.87564         1.40984        -4.84054         2.45781    -670.816E-03     32.9972E-03    -16.2395E-03    -16.7577E-03    -16.2102E-03     32.4496E-03    -16.2395E-03     10.3551E-03    -1.91364E+06    -17.9169E+06    -119.799E+06    -2.31763E+06    -119.395E+06    -17.9169E+06    -6.78520E+06         23.4979
            1457     10.8246E-03     73.1763E-03         2.35402         1.29142        -4.59468         1.21251        -4.51576         2.35402        -1.34565     32.7555E-03    -16.1478E-03    -16.6077E-03    -16.0495E-03     32.1973E-03    -16.1478E-03     10.4216E-03    -1.40856E+06    -26.6113E+06    -99.3485E+06    -1.72106E+06    -99.0360E+06    -26.6113E+06    -5.31091E+06         24.0887
            1458     11.8087E-03     73.1867E-03         2.25195         1.11528        -4.29727         1.03150        -4.21349         2.25195        -1.33358     32.3815E-03    -16.0074E-03    -16.3741E-03    -15.7794E-03     31.7868E-03    -16.0074E-03     10.6590E-03    -598.400E+03    -37.8902E+06    -68.3378E+06    -942.984E+03    -65.9939E+06    -39.8895E+06    -3.22180E+06         25.4069
            1459     12.7939E-03     73.1991E-03         2.15387     984.728E-03        -4.05275     894.812E-03        -3.96283         2.15387        -1.32804     32.9785E-03    -15.8781E-03    -17.1004E-03    -15.1914E-03     31.0694E-03    -15.8781E-03     18.0670E-03     12.6488E+06    -21.5340E+06    -43.7613E+06    -1.23184E+06    -8.45006E+06    -42.9646E+06    -1.56700E+06         28.4646
            1460     13.7792E-03     73.2256E-03         2.06183     878.005E-03        -3.83709     781.716E-03        -3.74080         2.06183        -1.33162     33.8451E-03    -15.7110E-03    -18.1341E-03    -14.6508E-03     30.3618E-03    -15.7110E-03     25.9516E-03     40.4989E+06    -4.44160E+06    -57.5684E+06    -4.03027E+06     40.0876E+06    -57.5684E+06     878.775E+03         34.9311
            1461     14.7655E-03     73.2538E-03         1.97799     741.951E-03        -3.59661     688.592E-03        -3.54325         1.97799    -882.441E-03     48.7201E-03    -15.6891E-03    -33.0310E-03    -13.8186E-03     29.5077E-03    -15.6891E-03     65.1123E-03     78.0760E+06    -3.24094E+06    -45.9055E+06    -4.96378E+06     77.8406E+06    -43.9473E+06     2.45770E+06         46.3093
            1462     15.7593E-03     73.3634E-03         1.91289     643.046E-03        -3.42130     633.820E-03        -3.41207         1.91289    -110.342E-03     134.118E-03    -15.8926E-03    -118.226E-03    -23.1299E-03     39.0225E-03    -15.8926E-03     243.685E-03     125.001E+06     24.3424E+06    -11.4618E+06    -4.06250E+06     124.612E+06     17.3316E+06    -3.69005E+06         61.7154
            1463     16.7386E-03     73.7703E-03         1.88625     629.083E-03        -3.38944     625.294E-03        -3.38565         1.88625     245.037E-03     315.719E-03    -16.3950E-03    -299.324E-03    -79.5344E-03     95.9293E-03    -16.3950E-03     588.290E-03     164.515E+06     91.2279E+06    -9.48018E+06    -8.63464E+06     163.670E+06     91.2279E+06    -5.73122E+06         76.2642
            1464     984.661E-06     74.1357E-03         6.79270    -668.804E-03        -7.32692         6.55549        -7.18861    -569.892E-03        -2.17116     32.9385E-03    -16.3751E-03    -16.5634E-03    -16.5515E-03     32.9266E-03    -16.3751E-03     1.42414E-03    -4.23254E+06    -11.5266E+06    -201.609E+06    -10.3092E+06    -201.549E+06    -5.50996E+06     91.6714E+03         22.4095
            1465     1.96759E-03     74.1373E-03         2.98613         2.85536        -7.04968         2.83987        -7.00908         2.96102    -919.242E-03     33.1535E-03    -16.4973E-03    -16.6562E-03    -16.6038E-03     33.1138E-03    -16.5101E-03     2.69143E-03    -1.38663E+06    -6.08061E+06    -192.639E+06    -5.66166E+06    -192.614E+06    -1.83128E+06    -1.74776E+06         22.4335
            1466     2.95169E-03     74.1413E-03         2.94205         2.85746        -7.00602         2.83922        -6.96268         2.91694     419.340E-03     33.1610E-03    -16.5219E-03    -16.6391E-03    -16.5463E-03     33.0810E-03    -16.5346E-03     3.95106E-03    -1.70896E+06    -4.01236E+06    -188.861E+06    -3.52123E+06    -188.803E+06    -2.25764E+06    -2.92491E+06         22.4721
            1467     3.93564E-03     74.1460E-03         2.88940         2.78211        -6.84711         2.71793        -6.77605         2.88253         1.62227     33.1952E-03    -16.5382E-03    -16.6570E-03    -16.5245E-03     33.0627E-03    -16.5382E-03     5.09285E-03    -1.76905E+06    -3.45539E+06    -187.541E+06    -3.47547E+06    -187.417E+06    -1.87308E+06    -4.70859E+06         22.5270
            1468     4.91961E-03     74.1522E-03         2.84299         2.66701        -6.66541         2.58616        -6.57768         2.83611         1.78665     33.1570E-03    -16.5098E-03    -16.6472E-03    -16.4608E-03     32.9706E-03    -16.5098E-03     6.07028E-03    -1.39604E+06    -4.26965E+06    -182.081E+06    -1.89586E+06    -181.889E+06    -3.96156E+06    -5.40336E+06         22.6007
            1469     5.90346E-03     74.1594E-03         2.77899         2.50519        -6.41809         2.40281        -6.31571         2.77899         1.89740     33.1742E-03    -16.4757E-03    -16.6985E-03    -16.4516E-03     32.9273E-03    -16.4757E-03     6.97829E-03     712.750E+03    -5.46090E+06    -174.853E+06     417.484E+03    -174.588E+06    -5.42984E+06    -6.34940E+06         22.6967
            1470     6.88758E-03     74.1674E-03         2.71197         2.35163        -6.17855         2.22222        -6.04914         2.71197         2.07311     33.2629E-03    -16.4483E-03    -16.8146E-03    -16.4957E-03     32.9439E-03    -16.4483E-03     7.95553E-03     1.33334E+06    -6.59614E+06    -165.269E+06     1.01412E+06    -164.950E+06    -6.59614E+06    -7.24476E+06         22.8189
            1471     7.87117E-03     74.1771E-03         2.63857         2.14221        -5.87410         2.03267        -5.76456         2.63857         1.83102     33.2062E-03    -16.4137E-03    -16.7926E-03    -16.4242E-03     32.8379E-03    -16.4137E-03     8.54846E-03     551.261E+03    -10.1761E+06    -156.712E+06     203.031E+03    -156.364E+06    -10.1761E+06    -7.38977E+06         22.9741
            1472     8.85570E-03     74.1867E-03         2.56132         1.89254        -5.51917         1.85818        -5.48481         2.56132     700.453E-03     33.0887E-03    -16.3531E-03    -16.7356E-03    -16.3247E-03     32.6778E-03    -16.3531E-03     9.00619E-03    -100.799E+03    -15.3187E+06    -140.744E+06    -594.679E+03    -140.250E+06    -15.3187E+06    -8.13077E+06         23.1803
            1473     9.83984E-03     74.1969E-03         2.48116         1.68764        -5.20576         1.66002        -5.17815         2.48116    -627.748E-03     33.0542E-03    -16.2907E-03    -16.7635E-03    -16.2574E-03     32.5481E-03    -16.2907E-03     9.96247E-03    -529.323E+03    -18.9105E+06    -120.264E+06    -1.13121E+06    -119.662E+06    -18.9105E+06    -8.42916E+06         23.4916
            1474     10.8238E-03     74.2087E-03         2.39781         1.52755        -4.93884         1.46302        -4.87432         2.39781        -1.27662     32.8201E-03    -16.1999E-03    -16.6202E-03    -16.1154E-03     32.3153E-03    -16.1999E-03     9.91109E-03    -1.50308E+06    -27.7302E+06    -99.6140E+06    -2.09221E+06    -99.0248E+06    -27.7302E+06    -7.49057E+06         24.0718
            1475     11.8086E-03     74.2186E-03         2.31359         1.37272        -4.68124         1.30184        -4.61036         2.31359        -1.29823     32.5318E-03    -16.0497E-03    -16.4821E-03    -15.9456E-03     31.9954E-03    -16.0497E-03     10.1439E-03    -2.52934E+06    -41.0666E+06    -70.8519E+06    -3.30310E+06    -66.5869E+06    -44.5578E+06    -6.71383E+06         25.3689
            1476     12.7924E-03     74.2315E-03         2.23164         1.25348        -4.46423         1.17406        -4.38481         2.23164        -1.32976     32.9977E-03    -15.9168E-03    -17.0809E-03    -15.4466E-03     31.3634E-03    -15.9168E-03     16.8382E-03     10.3189E+06    -25.6800E+06    -51.3323E+06    -4.07918E+06    -11.2820E+06    -51.3323E+06    -3.90178E+06         28.3966
            1477     13.7787E-03     74.2555E-03         2.15290         1.12805        -4.24211         1.04066        -4.15472         2.15290        -1.35643     34.1898E-03    -15.7899E-03    -18.3999E-03    -15.1940E-03     30.9839E-03    -15.7899E-03     25.0631E-03     39.4671E+06    -4.94819E+06    -61.5584E+06     -4.7049E+06     39.2238E+06    -61.5584E+06    -1.48407E+06         34.8491
            1478     14.7632E-03     74.2870E-03         2.07814     956.085E-03        -3.97752     907.034E-03        -3.92847         2.07814    -909.882E-03     46.8725E-03    -15.8646E-03    -31.0078E-03    -15.2727E-03     31.1373E-03    -15.8646E-03     58.8627E-03     79.7251E+06    -151.158E+03    -45.2711E+06    -3.58421E+06     79.4983E+06    -41.6112E+06    -2.66495E+06         46.2753
            1479     15.7511E-03     74.3823E-03         2.01714     816.371E-03        -3.76687     807.364E-03        -3.75786         2.01714    -130.110E-03     134.903E-03    -16.3001E-03    -118.603E-03    -28.1381E-03     44.4382E-03    -16.3001E-03     241.588E-03     128.972E+06     32.2844E+06    -12.8354E+06    -4.28777E+06     127.435E+06     25.2736E+06     483.901E+03         61.8032
            1480     16.7266E-03     74.8254E-03         1.98708     747.560E-03        -3.68061     744.549E-03        -3.67760         1.98708     228.356E-03     317.475E-03    -16.8186E-03    -300.656E-03    -76.8718E-03     93.6904E-03    -16.8186E-03     593.908E-03     170.580E+06     95.2643E+06    -5.80977E+06    -4.31954E+06     169.090E+06     95.2643E+06     5.05507E+06         76.5678
            1481     983.574E-06     75.1682E-03         6.76188        -1.08540        -6.96333         6.51517        -6.74457        -1.05744    -572.434E-03     33.0940E-03    -16.4103E-03    -16.6837E-03    -16.6255E-03     33.0823E-03    -16.4568E-03     1.45871E-03    -6.09072E+06    -10.8562E+06    -198.623E+06    -9.19835E+06    -198.553E+06    -7.81883E+06    -158.900E+03         22.4145
            1482     1.96807E-03     75.1703E-03         2.85711         2.68970        -6.82929         2.67620        -6.67634         2.71766        -1.20801     33.2167E-03    -16.5140E-03    -16.7028E-03    -16.6183E-03     33.1787E-03    -16.5604E-03     2.63060E-03    -5.13998E+06    -8.98088E+06    -189.869E+06    -8.15915E+06    -189.796E+06    -6.03532E+06    -2.61912E+06         22.4386
            1483     2.95148E-03     75.1739E-03         2.78734         2.69252        -6.75735         2.74345        -6.73279         2.71186     808.698E-03     33.3193E-03    -16.5726E-03    -16.7467E-03    -16.6673E-03     33.2399E-03    -16.5726E-03     3.93996E-03    -6.79731E+06    -9.25099E+06    -186.219E+06    -7.23873E+06    -186.092E+06    -8.93646E+06    -4.39829E+06         22.4769
            1484     3.93529E-03     75.1788E-03         2.76068         2.69068        -6.69734         2.66022        -6.61623         2.71002         1.59987     33.3213E-03    -16.5849E-03    -16.7364E-03    -16.6059E-03     33.1908E-03    -16.5849E-03     5.07015E-03    -5.01620E+06    -8.57991E+06    -184.410E+06    -5.44645E+06    -184.223E+06    -8.33683E+06    -5.62206E+06         22.5309
            1485     4.91896E-03     75.1850E-03         2.74133         2.62281        -6.58683         2.56940        -6.48276         2.69068         1.91910     33.2883E-03    -16.5671E-03    -16.7212E-03    -16.5355E-03     33.1026E-03    -16.5671E-03     6.06882E-03    -3.64111E+06    -8.84747E+06    -178.878E+06    -4.19880E+06    -178.564E+06    -8.60439E+06    -7.21260E+06         22.6035
            1486     5.90321E-03     75.1917E-03         2.65814         2.52530        -6.38590         2.42581        -6.28641         2.65814         1.84813     33.3765E-03    -16.5394E-03    -16.8371E-03    -16.5809E-03     33.1203E-03    -16.5394E-03     7.12834E-03    -3.04391E+06    -10.2791E+06    -171.665E+06    -3.55204E+06    -171.157E+06    -10.2791E+06    -9.05013E+06         22.6981
            1487     6.88677E-03     75.2006E-03         2.61667         2.44864        -6.24885         2.32127        -6.12148         2.61667         2.08802     33.4701E-03    -16.5296E-03    -16.9406E-03    -16.6167E-03     33.1462E-03    -16.5296E-03     8.04842E-03    -1.85397E+06    -10.0933E+06    -164.460E+06    -2.39605E+06    -163.918E+06    -10.0933E+06    -9.20069E+06         22.8189
            1488     7.87083E-03     75.2095E-03         2.57268         2.31913        -6.05398         2.22011        -5.95497         2.57268         1.79165     33.3318E-03    -16.5014E-03    -16.8303E-03    -16.4695E-03     32.9709E-03    -16.5014E-03     8.47413E-03    -357.828E+03    -11.4621E+06    -154.768E+06    -882.421E+03    -154.244E+06    -11.4621E+06    -8.82778E+06         22.9727
            1489     8.85469E-03     75.2191E-03         2.52637         2.13556        -5.79674         2.10044        -5.76162         2.52637     721.576E-03     33.1962E-03    -16.4353E-03    -16.7610E-03    -16.3508E-03     32.7861E-03    -16.4353E-03     9.00458E-03      860.96E+03    -15.7265E+06    -138.097E+06     119.168E+03    -137.355E+06    -15.7265E+06    -9.91849E+06         23.1768
            1490     9.83863E-03     75.2297E-03         2.47517         1.95314        -5.53557         1.93145        -5.51388         2.47517    -591.298E-03     33.1718E-03    -16.3674E-03    -16.8044E-03    -16.3217E-03     32.6891E-03    -16.3674E-03     9.76573E-03     1.15342E+06    -19.9673E+06    -120.258E+06     269.021E+03    -119.373E+06    -19.9673E+06    -10.2411E+06         23.4844
            1491     10.8232E-03     75.2407E-03         2.41789         1.80997        -5.31260         1.75717        -5.25980         2.41789        -1.21122     33.0081E-03    -16.2799E-03    -16.7282E-03    -16.2589E-03     32.5388E-03    -16.2799E-03     9.60274E-03     1.05058E+06    -27.9822E+06    -99.3672E+06     137.426E+03    -98.4541E+06    -27.9822E+06    -9.41901E+06         24.0564
            1492     11.8066E-03     75.2516E-03         2.35616         1.64848        -5.07105         1.58992        -5.01249         2.35616        -1.24593     32.8246E-03    -16.1418E-03    -16.6828E-03    -16.1883E-03     32.3302E-03    -16.1418E-03     9.81345E-03     338.416E+03    -41.0241E+06    -70.6091E+06    -891.581E+03    -66.3593E+06    -44.0439E+06    -8.67135E+06         25.3367
            1493     12.7919E-03     75.2631E-03         2.29168         1.49394        -4.83694         1.42783        -4.77082         2.29168        -1.27685     33.5942E-03    -16.0203E-03    -17.5739E-03    -16.1473E-03     32.1676E-03    -16.0203E-03     16.0154E-03     9.72236E+06    -26.7740E+06    -55.1463E+06    -3.05267E+06    -13.9990E+06    -55.1463E+06    -7.01174E+06         28.3385
            1494     13.7753E-03     75.2879E-03         2.22616         1.35647        -4.61575         1.28309        -4.54237         2.22616        -1.31091     35.0850E-03    -15.9530E-03    -19.1320E-03    -16.2151E-03     32.1681E-03    -15.9530E-03     24.3227E-03     40.4370E+06    -5.27591E+06    -63.3388E+06    -4.25617E+06     39.4172E+06    -63.3388E+06    -5.17936E+06         34.7751
            1495     14.7604E-03     75.3195E-03         2.16188         1.17949        -4.35709         1.13893        -4.31652         2.16188    -875.828E-03     49.0754E-03    -16.1948E-03    -32.8806E-03    -18.9674E-03     35.1622E-03    -16.1948E-03     58.7354E-03     80.2295E+06    -5.07958E+06    -44.2163E+06    -8.29021E+06     79.7803E+06    -40.5564E+06    -3.17495E+06         46.2199
            1496     15.7386E-03     75.4185E-03         2.10650         1.00590        -4.11929     998.608E-03        -4.11199         2.10650    -134.662E-03     136.914E-03    -16.7373E-03    -120.177E-03    -29.4448E-03     46.1822E-03    -16.7373E-03     242.849E-03     124.033E+06     21.7655E+06    -15.3737E+06    -11.2926E+06     122.719E+06     18.9990E+06     3.75194E+06         61.8698
            1497     16.7258E-03     75.8592E-03         2.07221     876.600E-03        -3.97447     874.191E-03        -3.97206         2.07221     213.350E-03     313.495E-03    -17.0922E-03    -296.402E-03    -69.3873E-03     86.4795E-03    -17.0922E-03     589.466E-03     168.609E+06     87.4976E+06    -7.14561E+06    -6.08065E+06     167.544E+06     87.4976E+06     5.64971E+06         76.8261
            1498     983.817E-06     76.2004E-03         7.34213        -1.47489        -7.22456         6.55942        -6.44185        -1.47489     978.293E-03     33.3847E-03    -16.5344E-03    -16.8503E-03    -16.7396E-03     33.3720E-03    -16.6324E-03     1.49958E-03    -6.15934E+06    -10.1708E+06    -196.056E+06    -9.77315E+06    -196.003E+06    -6.61003E+06    -2.68405E+03         22.4173
            1499     1.96733E-03     76.2033E-03         2.92514         2.52924        -6.80235         2.48172        -6.35894         2.52924        -1.66778     33.3568E-03    -16.5946E-03    -16.7622E-03    -16.6517E-03     33.3198E-03    -16.6681E-03     2.64612E-03    -5.89144E+06    -10.2958E+06    -185.625E+06    -8.13019E+06    -185.547E+06    -8.13510E+06    -2.82552E+06         22.4415
            1500     2.95130E-03     76.2068E-03         2.62923         2.48385        -6.46113         2.53466        -6.40194         2.51923         1.06855     33.3573E-03    -16.6124E-03    -16.7449E-03    -16.6388E-03     33.2783E-03    -16.6395E-03     3.91723E-03    -7.85394E+06    -11.7865E+06    -181.630E+06    -8.34406E+06    -181.454E+06    -11.4720E+06    -5.37505E+06         22.4797
            1501     3.93486E-03     76.2118E-03         2.62042         2.48140        -6.41504         2.48444        -6.31443         2.51678         1.43043     33.3978E-03    -16.6265E-03    -16.7713E-03    -16.6358E-03     33.2623E-03    -16.6265E-03     5.17316E-03    -8.13245E+06    -12.5827E+06    -180.453E+06    -8.50427E+06    -180.081E+06    -12.5827E+06    -7.66727E+06         22.5333
            1502     4.91902E-03     76.2175E-03         2.62385         2.48498        -6.40173         2.48068        -6.28231         2.50872         1.94159     33.4758E-03    -16.6229E-03    -16.8529E-03    -16.6606E-03     33.2835E-03    -16.6229E-03     6.19584E-03    -6.27349E+06    -11.0537E+06    -175.590E+06    -6.86243E+06    -175.001E+06    -11.0537E+06    -9.73175E+06         22.6049
            1503     5.90234E-03     76.2249E-03         2.57534         2.46775        -6.31434         2.45005        -6.22173         2.50042         1.73293     33.5740E-03    -16.6141E-03    -16.9599E-03    -16.6896E-03     33.3037E-03    -16.6141E-03     7.33638E-03    -3.89998E+06    -10.4933E+06    -167.798E+06    -4.69232E+06    -167.005E+06    -10.4933E+06    -11.1591E+06         22.6982
            1504     6.88622E-03     76.2334E-03         2.59335         2.46101        -6.30921         2.43846        -6.18455         2.49123         2.08339     33.5427E-03    -16.5982E-03    -16.9445E-03    -16.6086E-03     33.2068E-03    -16.5982E-03     8.20381E-03    -2.04775E+06    -11.4710E+06    -163.002E+06    -3.01537E+06    -162.035E+06    -11.4710E+06    -12.2899E+06         22.8174
            1505     7.86991E-03     76.2424E-03         2.54057         2.41788        -6.19290         2.38588        -6.10086         2.48053         1.76884     33.4728E-03    -16.5565E-03    -16.9163E-03    -16.5343E-03     33.0908E-03    -16.5565E-03     8.72326E-03    -195.537E+03    -14.2016E+06    -153.660E+06    -1.24002E+06    -152.615E+06    -14.2016E+06    -12.3947E+06         22.9696
            1506     8.85390E-03     76.2519E-03         2.48646         2.32439        -6.01943         2.30797        -5.98164         2.46509     744.969E-03     33.4179E-03    -16.4973E-03    -16.9206E-03    -16.4818E-03     32.9791E-03    -16.4973E-03     9.34665E-03     1.27149E+06    -17.2782E+06    -135.908E+06     100.159E+03    -134.737E+06    -17.2782E+06    -12.5065E+06         23.1719
            1507     9.83815E-03     76.2622E-03         2.44382         2.22241        -5.84841         2.20427        -5.83027         2.44382    -587.498E-03     33.3627E-03    -16.4383E-03    -16.9244E-03    -16.4113E-03     32.8496E-03    -16.4383E-03     10.0882E-03     1.23330E+06    -21.1253E+06    -119.825E+06     22.3884E+03    -118.614E+06    -21.1253E+06    -12.0071E+06         23.4766
            1508     10.8215E-03     76.2738E-03         2.41563         2.11244        -5.68928         2.06542        -5.64227         2.41563        -1.19677     33.2455E-03    -16.3515E-03    -16.8941E-03    -16.3875E-03     32.7390E-03    -16.3515E-03     10.0064E-03     326.851E+03    -29.8347E+06    -99.1827E+06    -994.159E+03    -97.8617E+06    -29.8347E+06    -11.2405E+06         24.0417
            1509     11.8063E-03     76.2838E-03         2.37924         1.93955        -5.46298         1.88780        -5.41122         2.37924        -1.23066     33.3019E-03    -16.2469E-03    -17.0550E-03    -16.5107E-03     32.7576E-03    -16.2469E-03     10.3645E-03    -1.29820E+06    -40.7280E+06    -69.5203E+06    -2.98832E+06    -66.3023E+06    -42.2558E+06    -10.1273E+06         25.3053
            1510     12.7890E-03     76.2968E-03         2.33476         1.75519        -5.21869         1.69953        -5.16303         2.33476        -1.23151     34.5735E-03    -16.1615E-03    -18.4121E-03    -16.8736E-03     33.0350E-03    -16.1615E-03     16.9782E-03     8.97305E+06    -27.7436E+06    -53.4238E+06    -5.10191E+06    -14.2465E+06     -52.846E+06    -8.96565E+06         28.2772
            1511     13.7728E-03     76.3214E-03         2.28379         1.57256        -4.96905         1.51065        -4.90714         2.28379        -1.26541     36.5107E-03    -16.1427E-03    -20.3680E-03    -17.2578E-03     33.4005E-03    -16.1427E-03     25.7122E-03     38.1460E+06    -10.5396E+06    -63.5657E+06    -8.88541E+06     36.4918E+06    -63.5657E+06    -6.36321E+06         34.6820
            1512     14.7547E-03     76.3538E-03         2.22926         1.36980        -4.69359         1.33546        -4.65925         2.22926    -851.571E-03     53.2005E-03    -16.4217E-03    -36.7787E-03    -20.3817E-03     36.8035E-03    -16.4217E-03     66.0645E-03     75.6786E+06    -13.2764E+06    -45.7032E+06    -13.2460E+06     75.4394E+06    -45.4944E+06    -720.726E+03         46.1327
            1513     15.7327E-03     76.4644E-03         2.17799         1.17313        -4.44087         1.16654        -4.43428         2.17799    -136.989E-03     137.790E-03    -16.9173E-03    -120.873E-03    -27.6547E-03     44.5720E-03    -16.9173E-03     245.426E-03     117.828E+06     12.9284E+06    -20.2039E+06    -17.0883E+06     117.479E+06     10.1620E+06     2.57016E+06         61.8878
            1514     16.7173E-03     76.8742E-03         2.13856     993.418E-03        -4.24475     991.070E-03        -4.24241         2.13856     221.040E-03     312.104E-03    -17.1769E-03    -294.928E-03    -66.8783E-03     84.0552E-03    -17.1769E-03     587.639E-03     167.343E+06     86.4313E+06    -10.1786E+06    -9.88275E+06     167.047E+06     86.4313E+06     1.99477E+06         76.9716
            1515     983.820E-06     77.2346E-03         8.44110        -1.94943        -7.93438         6.61813        -6.11141        -1.94943         2.43511     33.5065E-03    -16.6471E-03    -16.8594E-03    -16.6866E-03     33.4920E-03    -16.8054E-03     1.52610E-03    -5.24394E+06    -11.8642E+06    -193.928E+06    -9.43710E+06    -193.881E+06    -7.71719E+06     292.055E+03         22.4156
            1516     1.96718E-03     77.2359E-03         3.16017         2.31412        -6.89621         2.23288        -5.96892         2.31412        -2.30615     33.4674E-03    -16.6556E-03    -16.8117E-03    -16.6918E-03     33.4244E-03    -16.7326E-03     2.86315E-03    -4.20122E+06    -9.34099E+06    -180.844E+06    -7.61125E+06    -180.781E+06    -5.99419E+06    -3.11764E+06         22.4404
            1517     2.95098E-03     77.2399E-03         2.46617         2.25890        -6.14322         2.28446        -5.99429         2.29168         1.18913     33.3984E-03    -16.6659E-03    -16.7325E-03    -16.6178E-03     33.3108E-03    -16.6930E-03     4.13233E-03    -5.91433E+06    -8.81945E+06    -176.732E+06    -6.61683E+06    -176.538E+06    -8.31139E+06    -5.53807E+06         22.4792
            1518     3.93508E-03     77.2444E-03         2.46621         2.25703        -6.10675         2.29417        -5.96749         2.28982         1.15533     33.4892E-03    -16.6711E-03    -16.8180E-03    -16.6736E-03     33.3447E-03    -16.6711E-03     5.35421E-03    -6.62284E+06    -9.04554E+06    -174.727E+06    -7.10290E+06    -174.247E+06    -9.04554E+06    -8.76136E+06         22.5329
            1519     4.91831E-03     77.2509E-03         2.54855         2.29982        -6.20945         2.40791        -6.06881         2.29982         1.92636     33.6278E-03    -16.6528E-03    -16.9750E-03    -16.7644E-03     33.4172E-03    -16.6528E-03     6.48711E-03    -6.24463E+06    -12.4684E+06    -170.879E+06    -7.20995E+06    -169.913E+06    -12.4684E+06    -12.3311E+06         22.6041
            1520     5.90224E-03     77.2578E-03         2.58865         2.32382        -6.25497         2.49850        -6.16482         2.32382         1.61981     33.5976E-03    -16.6342E-03    -16.9634E-03    -16.6732E-03     33.3074E-03    -16.6342E-03     7.61290E-03    -4.28820E+06    -14.6460E+06    -164.692E+06    -5.59064E+06    -163.390E+06    -14.6460E+06    -14.2574E+06         22.6964
            1521     6.88593E-03     77.2664E-03         2.67616         2.35140        -6.35395         2.55126        -6.22905         2.35140         2.09099     33.5064E-03    -16.6097E-03    -16.8967E-03    -16.5322E-03     33.1419E-03    -16.6097E-03     8.53186E-03    -2.62158E+06    -14.9301E+06    -159.859E+06    -4.11496E+06    -158.365E+06    -14.9301E+06    -15.1472E+06         22.8143
            1522     7.87003E-03     77.2751E-03         2.60982         2.37386        -6.29157         2.52204        -6.20378         2.37386         1.75801     33.5246E-03    -16.5579E-03    -16.9667E-03    -16.5359E-03     33.0938E-03    -16.5579E-03     9.27848E-03    -1.16348E+06    -18.4354E+06    -151.837E+06    -3.00884E+06    -149.991E+06    -18.4354E+06    -16.3694E+06         22.9652
            1523     8.85380E-03     77.2850E-03         2.53389         2.37178        -6.18966         2.47656        -6.14775         2.38719     764.551E-03     33.5280E-03    -16.5083E-03    -17.0197E-03    -16.5284E-03     33.0367E-03    -16.5083E-03     9.90486E-03    -150.427E+03    -20.2736E+06    -135.528E+06    -1.91096E+06    -133.768E+06    -20.2736E+06    -15.1996E+06         23.1664
            1524     9.83722E-03     77.2951E-03         2.47224         2.35735        -6.08947         2.41919        -6.07185         2.39277    -626.539E-03     33.4658E-03    -16.4555E-03    -17.0102E-03    -16.4270E-03     32.8825E-03    -16.4555E-03     10.7603E-03     94.4944E+03    -22.8559E+06    -118.674E+06    -1.62316E+06    -116.956E+06    -22.8559E+06    -13.9355E+06         23.4687
            1525     10.8220E-03     77.3065E-03         2.44976         2.31705        -6.00642         2.32942        -5.95984         2.39081        -1.23356     33.4457E-03    -16.3637E-03    -17.0821E-03    -16.4758E-03     32.8394E-03    -16.3637E-03     10.9756E-03    -55.5811E+03    -33.1231E+06    -99.4822E+06    -1.82409E+06    -97.7137E+06    -33.1231E+06    -12.9412E+06         24.0263
            1526     11.8048E-03     77.3172E-03         2.40181         2.20488        -5.83096         2.17667        -5.78026         2.37932        -1.27123     33.6329E-03    -16.2627E-03    -17.3702E-03    -16.6724E-03     32.9351E-03    -16.2627E-03     11.7653E-03    -1.12553E+06    -42.6953E+06    -71.6637E+06    -3.32070E+06    -66.1264E+06    -46.0375E+06    -11.2325E+06         25.2693
            1527     12.7892E-03     77.3304E-03         2.35610         2.02333        -5.59013         1.97031        -5.53711         2.35610        -1.25768     35.0921E-03    -16.1756E-03    -18.9165E-03    -16.9363E-03     33.1119E-03    -16.1756E-03     19.3773E-03     7.89448E+06    -29.3616E+06    -59.0853E+06    -7.27169E+06    -14.7733E+06    -58.5074E+06    -9.56044E+06         28.2009
            1528     13.7713E-03     77.3566E-03         2.32089         1.79628        -5.31200         1.73659        -5.25232         2.32089        -1.29692     37.4899E-03    -16.1629E-03    -21.3270E-03    -17.3386E-03     33.5015E-03    -16.1629E-03     29.3650E-03     32.9264E+06    -13.1306E+06    -69.3780E+06    -11.7591E+06     31.5549E+06    -69.3780E+06    -5.74515E+06         34.5571
            1529     14.7547E-03     77.3889E-03         2.27648         1.55088        -5.00889         1.51716        -4.97516         2.27648    -885.131E-03     55.1975E-03    -16.3777E-03    -38.8198E-03    -18.4872E-03     34.8649E-03    -16.3777E-03     73.5298E-03     70.1291E+06    -16.3031E+06    -50.1852E+06    -16.1648E+06     69.7820E+06    -49.9765E+06     636.183E+03         46.0149
            1530     15.7386E-03     77.5054E-03         2.22908         1.32111        -4.72755         1.31387        -4.72032         2.22908    -141.171E-03     136.878E-03    -16.7155E-03    -120.162E-03    -25.3533E-03     42.0687E-03    -16.7155E-03     246.467E-03     118.720E+06     7.62392E+06    -17.4240E+06    -13.4809E+06     118.007E+06     4.39428E+06     1.90367E+06         61.8600
            1531     16.7341E-03     77.9007E-03         2.18401         1.10064        -4.48891         1.09833        -4.48660         2.18401     225.100E-03     310.513E-03    -16.9830E-03    -293.530E-03    -68.7743E-03     85.7572E-03    -16.9830E-03     583.529E-03     169.050E+06     81.4151E+06    -6.34732E+06    -5.85656E+06     168.559E+06     81.4151E+06    -990.481E+03         77.0350
            1532     983.331E-06     78.2662E-03         9.77979        -2.50363        -8.77287         6.57765        -5.57073        -2.50363         3.90368     33.3868E-03    -16.6140E-03    -16.7728E-03    -16.6485E-03     33.3692E-03    -16.7207E-03     1.67546E-03    -8.55512E+06    -14.2208E+06    -192.149E+06    -11.4237E+06    -192.137E+06    -11.3651E+06    -1.07341E+06         22.4098
            1533     1.96770E-03     78.2699E-03         3.54292         2.02460        -7.05437         1.97776        -5.48921         2.02460        -2.88812     33.3332E-03    -16.6152E-03    -16.7180E-03    -16.6204E-03     33.2855E-03    -16.6651E-03     3.03911E-03    -8.53993E+06    -10.7437E+06    -175.943E+06    -10.5278E+06    -175.823E+06    -8.87662E+06    -3.82445E+06         22.4355
            1534     2.95119E-03     78.2723E-03         2.42103         2.01529        -5.91869         2.10316        -5.61043         2.02491         1.37528     33.4532E-03    -16.6558E-03    -16.7974E-03    -16.7026E-03     33.3584E-03    -16.6558E-03     4.30283E-03    -7.33624E+06    -9.77532E+06    -171.156E+06    -8.55869E+06    -170.808E+06    -8.90085E+06    -7.22534E+06         22.4752
            1535     3.93469E-03     78.2780E-03         2.41122         2.04433        -5.90799         2.19124        -5.69762         2.05395     988.005E-03     33.5071E-03    -16.6483E-03    -16.8588E-03    -16.6982E-03     33.3465E-03    -16.6483E-03     5.64246E-03    -5.74897E+06    -10.7369E+06    -168.264E+06    -6.45029E+06    -167.563E+06    -10.7369E+06    -10.3036E+06         22.5296
            1536     4.91871E-03     78.2837E-03         2.55079         2.09742        -6.07912         2.37254        -5.90087         2.09742         1.97522     33.5271E-03    -16.6280E-03    -16.8991E-03    -16.6605E-03     33.2885E-03    -16.6280E-03     6.88989E-03    -4.27585E+06    -12.9418E+06    -163.663E+06    -5.55292E+06    -162.386E+06    -12.9418E+06    -13.9585E+06         22.6010
            1537     5.90207E-03     78.2913E-03         2.60016         2.15325        -6.16623         2.50743        -6.07350         2.15325         1.51798     33.5205E-03    -16.6008E-03    -16.9197E-03    -16.6005E-03     33.2013E-03    -16.6008E-03     7.98107E-03    -3.93952E+06    -15.7692E+06    -161.234E+06    -5.76017E+06    -159.413E+06    -15.7692E+06    -16.7568E+06         22.6932
            1538     6.88620E-03     78.2988E-03         2.72545         2.20941        -6.33288         2.59876        -6.20619         2.20941         2.08153     33.4751E-03    -16.5726E-03    -16.9025E-03    -16.5067E-03     33.0793E-03    -16.5726E-03     8.88088E-03    -3.32761E+06    -16.4452E+06    -156.410E+06    -5.46441E+06    -154.273E+06    -16.4452E+06    -17.8677E+06         22.8108
            1539     7.87003E-03     78.3083E-03         2.70029         2.25872        -6.33992         2.62031        -6.25993         2.25872         1.69083     33.4466E-03    -16.5264E-03    -16.9202E-03    -16.4446E-03     32.9710E-03    -16.5264E-03     9.72597E-03    -2.43879E+06    -18.5551E+06    -148.268E+06    -4.97092E+06    -145.736E+06    -18.5551E+06    -18.9602E+06         22.9612
            1540     8.85389E-03     78.3177E-03         2.65813         2.29797        -6.31487         2.61531        -6.27205         2.29797     727.300E-03     33.4000E-03    -16.4644E-03    -16.9356E-03    -16.3838E-03     32.8482E-03    -16.4644E-03     10.4702E-03    -948.962E+03    -22.2840E+06    -136.619E+06    -3.75714E+06    -133.811E+06    -22.2840E+06    -19.0321E+06         23.1619
            1541     9.83847E-03     78.3280E-03         2.59757         2.32740        -6.26142         2.57954        -6.24339         2.32740    -685.232E-03     33.4366E-03    -16.3989E-03    -17.0377E-03    -16.3719E-03     32.7709E-03    -16.3989E-03     11.4914E-03     1.25000E+06    -24.8929E+06    -117.836E+06    -1.47183E+06    -115.114E+06    -24.8929E+06    -17.5131E+06         23.4618
            1542     10.8216E-03     78.3393E-03         2.56806         2.34727        -6.23380         2.52102        -6.18675         2.34727        -1.26987     33.4170E-03    -16.3117E-03    -17.1053E-03    -16.3808E-03     32.6925E-03    -16.3117E-03     12.0022E-03     2.57650E+06    -33.6446E+06    -100.441E+06    -142.760E+03    -97.7217E+06    -33.6446E+06    -16.1973E+06         24.0099
            1543     11.8064E-03     78.3506E-03         2.47287         2.32987        -6.10626         2.39540        -6.05524         2.35633        -1.31249     33.5296E-03    -16.1935E-03    -17.3361E-03    -16.4305E-03     32.6240E-03    -16.1935E-03     13.3443E-03     2.29956E+06    -43.4631E+06    -74.5783E+06    -374.569E+03    -67.7166E+06    -47.6506E+06    -13.0221E+06         25.2273
            1544     12.7893E-03     78.3637E-03         2.37427         2.22233        -5.88875         2.19200        -5.83564         2.35148        -1.29997     34.7829E-03    -16.0863E-03    -18.6966E-03    -16.3118E-03     32.3981E-03    -16.0863E-03     21.2226E-03     8.09919E+06    -27.3399E+06    -57.5250E+06    -3.26427E+06    -15.9765E+06    -57.5250E+06    -8.84333E+06         28.1090
            1545     13.7747E-03     78.3905E-03         2.33181         2.01785        -5.62968         1.95749        -5.56932         2.33181        -1.35313     37.2557E-03    -16.0115E-03    -21.2442E-03    -16.3148E-03     32.3263E-03    -16.0115E-03     32.2447E-03     27.9507E+06    -10.7279E+06    -71.0334E+06    -9.16918E+06     26.3919E+06    -71.0334E+06    -4.47796E+06         34.4061
            1546     14.7579E-03     78.4238E-03         2.29917         1.74386        -5.31173         1.70943        -5.27730         2.29917    -932.830E-03     53.5908E-03    -16.0645E-03    -37.5263E-03    -15.6940E-03     31.7585E-03    -16.0645E-03     74.3453E-03     65.9771E+06    -11.9302E+06    -59.0134E+06    -11.4396E+06     65.4865E+06    -59.0134E+06     4.76938E+03         45.8678
            1547     15.7479E-03     78.5344E-03         2.25667         1.45846        -4.98466         1.45114        -4.97735         2.25667    -180.998E-03     137.686E-03    -16.4240E-03    -121.262E-03    -28.1981E-03     44.6220E-03    -16.4240E-03     247.919E-03     122.046E+06     15.4466E+06    -19.4619E+06    -6.06038E+06     121.420E+06     2.67128E+06    -1.92586E+06         61.7681
            1548     16.7231E-03     78.9381E-03         2.20578         1.19534        -4.69995         1.19347        -4.69808         2.20578     207.502E-03     305.413E-03    -16.8969E-03    -288.516E-03    -69.0518E-03     85.9487E-03    -16.8969E-03     573.135E-03     173.227E+06     80.8156E+06    -2.05766E+06    -1.66623E+06     172.836E+06     80.8156E+06     -697.54E+03         77.0467
            1549     984.252E-06     79.3007E-03         11.2992        -3.04922        -9.79239         6.53368        -5.02688        -3.04922         5.44218     33.2242E-03    -16.5531E-03    -16.6712E-03    -16.6576E-03     33.2107E-03    -16.5531E-03     1.54789E-03    -12.1145E+06    -16.4993E+06    -188.523E+06    -14.4087E+06    -188.415E+06    -14.3132E+06    -2.59277E+06         22.4023
            1550     1.96743E-03     79.3014E-03         4.07310         1.74927        -7.36315         1.78280        -5.07285         1.74927        -3.30787     33.2223E-03    -16.5775E-03    -16.6448E-03    -16.5978E-03     33.1752E-03    -16.5775E-03     2.90295E-03    -11.3376E+06    -14.9007E+06    -169.465E+06    -12.2881E+06    -169.204E+06    -14.2113E+06    -5.89415E+06         22.4286
            1551     2.95146E-03     79.3064E-03         2.53730         1.79151        -5.87497         1.99907        -5.33673         1.79151         1.69361     33.3187E-03    -16.5754E-03    -16.7433E-03    -16.6438E-03     33.2192E-03    -16.5754E-03     4.41939E-03    -10.6453E+06    -15.4301E+06    -164.366E+06    -11.6402E+06    -163.738E+06    -15.0637E+06    -9.39639E+06         22.4692
            1552     3.93506E-03     79.3103E-03         2.43448         1.85942        -5.81029         2.13255        -5.50836         1.85942     895.439E-03     33.3634E-03    -16.5761E-03    -16.7874E-03    -16.6240E-03     33.2001E-03    -16.5761E-03     5.67408E-03    -8.70375E+06    -15.2661E+06    -161.680E+06    -9.93194E+06    -160.451E+06    -15.2661E+06    -13.4066E+06         22.5245
            1553     4.91876E-03     79.3171E-03         2.52454         1.92937        -5.95242         2.29654        -5.72442         1.92937         2.03089     33.2689E-03    -16.5565E-03    -16.7124E-03    -16.4660E-03     33.0225E-03    -16.5565E-03     6.96997E-03    -6.65032E+06    -14.8231E+06    -157.350E+06    -8.46523E+06    -155.535E+06    -14.8231E+06    -16.2671E+06         22.5970
            1554     5.90314E-03     79.3237E-03         2.52110         2.00042        -6.00183         2.42446        -5.90519         2.00042         1.37678     33.3734E-03    -16.5391E-03    -16.8343E-03    -16.5060E-03     33.0451E-03    -16.5391E-03     8.07958E-03    -5.46264E+06    -13.6742E+06    -156.379E+06    -7.73674E+06    -154.105E+06    -13.6742E+06    -18.2945E+06         22.6903
            1555     6.88664E-03     79.3322E-03         2.68719         2.06996        -6.22378         2.56401        -6.10060         2.06996         1.98712     33.4037E-03    -16.5060E-03    -16.8977E-03    -16.4976E-03     33.0037E-03    -16.5060E-03     8.92435E-03    -4.06265E+06    -15.9440E+06    -151.581E+06    -6.99911E+06    -148.645E+06    -15.9440E+06    -20.4112E+06         22.8087
            1556     7.87066E-03     79.3406E-03         2.73660         2.13744        -6.32367         2.67008        -6.25715         2.13744         1.53883     33.2840E-03    -16.4589E-03    -16.8250E-03    -16.3400E-03     32.7989E-03    -16.4589E-03     9.79598E-03    -1.45021E+06    -18.8222E+06    -145.486E+06    -4.96209E+06    -141.974E+06    -18.8222E+06    -22.0772E+06         22.9598
            1557     8.85510E-03     79.3505E-03         2.77376         2.19934        -6.40389         2.73263        -6.36276         2.19934     642.760E-03     33.2085E-03    -16.3905E-03    -16.8180E-03    -16.2644E-03     32.6549E-03    -16.3905E-03     10.4617E-03     383.481E+03    -23.0814E+06    -135.303E+06    -3.55092E+06    -131.369E+06    -23.0814E+06    -22.6592E+06         23.1603
            1558     9.83876E-03     79.3604E-03         2.74189         2.25165        -6.40365         2.72318        -6.38493         2.25165    -747.826E-03     33.2082E-03    -16.3163E-03    -16.8919E-03    -16.2188E-03     32.5350E-03    -16.3163E-03     11.5023E-03     1.76331E+06    -26.8846E+06    -118.511E+06    -2.54909E+06    -114.199E+06    -26.8846E+06    -22.1163E+06         23.4571
            1559     10.8237E-03     79.3724E-03         2.69546         2.29074        -6.37996         2.64805        -6.33255         2.29074        -1.29161     33.0995E-03    -16.2338E-03    -16.8658E-03    -16.1406E-03     32.3743E-03    -16.2338E-03     11.9364E-03     2.29749E+06    -33.0820E+06    -101.540E+06    -1.77737E+06    -97.4651E+06    -33.0820E+06    -19.9325E+06         23.9941
            1560     11.8074E-03     79.3824E-03         2.56938         2.31488        -6.26622         2.51911        -6.21594         2.31488        -1.32130     33.0037E-03    -16.0991E-03    -16.9046E-03    -15.9806E-03     32.0797E-03    -16.0991E-03     13.3179E-03     2.72149E+06    -45.9500E+06    -75.1654E+06    -1.39458E+06    -70.2039E+06    -46.7954E+06    -16.6661E+06         25.1830
            1561     12.7928E-03     79.3974E-03         2.42571         2.29958        -6.09742         2.35054        -6.04647         2.32379        -1.30033     33.9032E-03    -15.9684E-03    -17.9348E-03    -15.6283E-03     31.5967E-03    -15.9684E-03     20.6907E-03     7.99824E+06    -28.9753E+06    -54.4052E+06    -923.905E+03    -20.5456E+06    -53.9128E+06    -10.5509E+06         28.0113
            1562     13.7773E-03     79.4211E-03         2.33747         2.17049        -5.87218         2.13147        -5.81317         2.31747        -1.37380     35.8452E-03    -15.8281E-03    -20.0170E-03    -15.0034E-03     30.8316E-03    -15.8281E-03     31.5501E-03     25.5232E+06    -3.70406E+06    -66.0029E+06    -1.62649E+06     23.4456E+06    -66.0029E+06    -4.81880E+06         34.2480
            1563     14.7640E-03     79.4582E-03         2.29562         1.90073        -5.55345         1.86650        -5.51922         2.29562    -962.772E-03     50.5654E-03    -15.7730E-03    -34.7924E-03    -14.4472E-03     30.2202E-03    -15.7730E-03     70.1325E-03     65.2649E+06    -2.87343E+06    -60.4959E+06    -2.19792E+06     64.5894E+06    -60.4959E+06    -4.38780E+06         45.7033
            1564     15.7534E-03     79.5571E-03         2.25761         1.57859        -5.19984         1.57105        -5.19230         2.25761    -217.235E-03     144.855E-03    -16.1104E-03    -128.745E-03    -30.9175E-03     47.0279E-03    -16.1104E-03     261.658E-03     120.762E+06     18.1399E+06    -25.4782E+06    -5.87568E+06     120.575E+06    -1.27584E+06    -1.78598E+06         61.7174
            1565     16.7218E-03     80.0128E-03         2.20123         1.28392        -4.87880         1.28234        -4.87722         2.20123     196.153E-03     304.876E-03    -16.6543E-03    -288.222E-03    -68.7988E-03     85.4530E-03    -16.6543E-03     572.559E-03     172.388E+06     75.3136E+06    -4.73768E+06    -4.57093E+06     172.221E+06     75.3136E+06     1.75331E+06         77.1730
            1566     983.449E-06     80.3326E-03         12.9582        -3.47699        -11.0944         6.63228        -4.76851        -3.47699         6.98582     33.2379E-03    -16.5473E-03    -16.6906E-03    -16.6388E-03     33.2257E-03    -16.5869E-03     1.46453E-03    -13.5109E+06    -16.6875E+06    -179.108E+06    -14.6052E+06    -178.844E+06    -15.8576E+06    -5.07209E+06         22.3957
            1567     1.96763E-03     80.3353E-03         4.65666         1.59121        -7.85329         1.64604        -4.84267         1.59121        -3.72107     33.1542E-03    -16.5255E-03    -16.6288E-03    -16.5435E-03     33.1085E-03    -16.5650E-03     2.85092E-03    -12.4621E+06    -17.3595E+06    -162.288E+06    -13.4703E+06    -161.603E+06    -17.0366E+06    -9.54323E+06         22.4225
            1568     2.95134E-03     80.3383E-03         2.68806         1.64278        -5.93432         1.87219        -5.11846         1.64278         1.92854     33.1284E-03    -16.5090E-03    -16.6194E-03    -16.4932E-03     33.0268E-03    -16.5336E-03     4.44021E-03    -10.1521E+06    -16.6498E+06    -157.350E+06    -11.1828E+06    -156.319E+06    -16.6498E+06    -11.8700E+06         22.4636
            1569     3.93521E-03     80.3442E-03         2.41672         1.71638        -5.71074         2.00375        -5.29776         1.71638     690.009E-03     33.1279E-03    -16.4943E-03    -16.6336E-03    -16.4492E-03     32.9680E-03    -16.5188E-03     5.60541E-03    -9.47590E+06    -13.9640E+06    -154.568E+06    -11.1320E+06    -152.912E+06    -13.9640E+06    -15.1409E+06         22.5200
            1570     4.91930E-03     80.3489E-03         2.43770         1.78899        -5.78499         2.16339        -5.51067         1.78899         1.97745     33.2000E-03    -16.4980E-03    -16.7020E-03    -16.4646E-03     32.9626E-03    -16.4980E-03     6.83066E-03    -8.58753E+06    -13.5950E+06    -151.333E+06    -10.9554E+06    -148.965E+06    -13.5950E+06    -18.1731E+06         22.5941
            1571     5.90303E-03     80.3570E-03         2.40212         1.86212        -5.80632         2.30151        -5.70571         1.86212         1.16705     33.2249E-03    -16.4793E-03    -16.7456E-03    -16.4321E-03     32.9114E-03    -16.4793E-03     7.88345E-03    -6.38804E+06    -14.0966E+06    -150.910E+06    -9.56142E+06    -147.736E+06    -14.0966E+06    -20.8712E+06         22.6889
            1572     6.88712E-03     80.3647E-03         2.61182         1.93754        -6.07855         2.49472        -5.96146         1.93754         1.85233     33.2043E-03    -16.4381E-03    -16.7662E-03    -16.3897E-03     32.8278E-03    -16.4381E-03     8.63246E-03    -3.20303E+06    -16.7688E+06    -146.143E+06    -7.34063E+06    -142.005E+06    -16.7688E+06    -23.7322E+06         22.8090
            1573     7.87119E-03     80.3733E-03         2.73025         2.01745        -6.26203         2.67542        -6.20720         2.01745         1.37966     33.2301E-03    -16.3940E-03    -16.8361E-03    -16.3871E-03     32.7811E-03    -16.3940E-03     9.43150E-03    -1.45752E+06    -20.7456E+06    -142.431E+06    -6.14542E+06    -137.743E+06    -20.7456E+06    -25.2081E+06         22.9614
            1574     8.85499E-03     80.3829E-03         2.84140         2.09670        -6.43457         2.80072        -6.39389         2.09670     546.010E-03     33.1412E-03    -16.3456E-03    -16.7956E-03    -16.2931E-03     32.6387E-03    -16.3456E-03     9.96307E-03    -273.320E+03    -23.6137E+06    -132.347E+06    -5.50547E+06    -127.115E+06    -23.6137E+06    -25.5834E+06         23.1614
            1575     9.83965E-03     80.3930E-03         2.83653         2.16730        -6.48368         2.81560        -6.46275         2.16730    -832.884E-03     33.0100E-03    -16.2745E-03    -16.7355E-03    -16.1398E-03     32.4142E-03    -16.2745E-03     10.7893E-03     684.978E+03    -28.4360E+06    -118.442E+06    -5.11066E+06    -112.647E+06    -28.4360E+06    -25.5316E+06         23.4541
            1576     10.8235E-03     80.4043E-03         2.78036         2.22200        -6.46819         2.73080        -6.41864         2.22200        -1.33094     32.8475E-03    -16.1816E-03    -16.6659E-03    -16.0425E-03     32.2241E-03    -16.1816E-03     11.0248E-03     1.36286E+06    -36.4119E+06    -103.269E+06    -4.50172E+06    -97.4046E+06    -36.4119E+06    -23.8329E+06         23.9788
            1577     11.8084E-03     80.4153E-03         2.64717         2.25841        -6.36278         2.59513        -6.31074         2.25841        -1.35516     32.5128E-03    -16.0425E-03    -16.4702E-03    -15.7319E-03     31.7744E-03    -16.0425E-03     11.8271E-03     1.83717E+06    -49.6930E+06    -78.2853E+06    -4.24508E+06    -72.2031E+06    -49.6930E+06    -20.7697E+06         25.1389
            1578     12.7929E-03     80.4280E-03         2.48895         2.27774        -6.21827         2.43791        -6.16723         2.27774        -1.31779     33.2494E-03    -15.8912E-03    -17.3582E-03    -15.3498E-03     31.2410E-03    -15.8912E-03     18.9484E-03     7.51928E+06    -35.6419E+06    -60.5470E+06    -3.67447E+06    -26.2426E+06    -58.7526E+06    -15.8821E+06         27.9166
            1579     13.7786E-03     80.4540E-03         2.34579         2.21964        -6.01235         2.22618        -5.95390         2.28080        -1.38730     34.1484E-03    -15.7224E-03    -18.4260E-03    -14.3158E-03     30.0382E-03    -15.7224E-03     27.8963E-03     25.6675E+06    -7.70819E+06    -69.6113E+06    -1.80170E+06     19.7610E+06    -69.6113E+06    -10.1774E+06         34.1002
            1580     14.7663E-03     80.4851E-03         2.26650         1.99133        -5.70422         1.95741        -5.67030         2.26650    -978.091E-03     49.1880E-03    -15.6987E-03    -33.4893E-03    -15.0746E-03     30.7733E-03    -15.6987E-03     66.1837E-03     65.3642E+06    -5.20885E+06    -59.1070E+06    -4.37559E+06     64.5309E+06    -59.1070E+06    -5.36363E+06         45.5505
            1581     15.7516E-03     80.5905E-03         2.23141         1.67011        -5.35601         1.66233        -5.34824         2.23141    -236.390E-03     145.858E-03    -15.7534E-03    -130.105E-03    -23.7822E-03     39.5356E-03    -15.7534E-03     266.462E-03     115.541E+06     1.93922E+06    -24.4044E+06    -9.22017E+06     115.463E+06    -13.1664E+06    -348.760E+03         61.7736
            1582     16.7545E-03     81.0592E-03         2.16850         1.36487        -5.03551         1.36386        -5.03450         2.16850     153.129E-03     311.367E-03    -16.1055E-03    -295.262E-03    -72.6021E-03     88.7075E-03    -16.1055E-03     582.539E-03     166.324E+06     69.5904E+06    -9.76800E+06     -9.6824E+06     166.239E+06     69.5904E+06    -1.41988E+06         77.4683
            1583     983.842E-06     81.3660E-03         14.5890        -3.76018        -12.5020         6.81198        -4.72496        -3.76018         8.32109     33.2216E-03    -16.5270E-03    -16.6946E-03    -16.6408E-03     33.2073E-03    -16.5665E-03     1.45245E-03    -10.6169E+06    -12.9100E+06    -168.823E+06    -12.7398E+06    -168.508E+06    -11.1015E+06    -6.12715E+06         22.3920
            1584     1.96750E-03     81.3676E-03         5.21766         1.52322        -8.40284         1.51464        -4.69982         1.52322        -4.24286     33.1047E-03    -16.5081E-03    -16.5966E-03    -16.5043E-03     33.0572E-03    -16.5529E-03     2.98588E-03    -11.6933E+06    -15.1351E+06    -151.536E+06    -13.2110E+06    -150.687E+06    -14.4668E+06    -10.5853E+06         22.4195
            1585     2.95133E-03     81.3718E-03         2.80786         1.54346        -6.00477         1.67958        -4.87649         1.54346         1.96985     32.9889E-03    -16.4614E-03    -16.5275E-03    -16.3898E-03     32.8931E-03    -16.5033E-03     4.29886E-03    -13.3622E+06    -17.3942E+06    -150.072E+06    -14.7810E+06    -148.675E+06    -17.3728E+06    -13.5108E+06         22.4610
            1586     3.93567E-03     81.3758E-03         2.37897         1.59412        -5.60172         1.82217        -5.04491         1.59412     344.836E-03     33.0137E-03    -16.4344E-03    -16.5793E-03    -16.3854E-03     32.8565E-03    -16.4711E-03     5.53437E-03    -10.9911E+06    -15.6141E+06    -147.537E+06    -13.2403E+06    -145.309E+06    -15.5928E+06    -16.9493E+06         22.5181
            1587     4.91941E-03     81.3826E-03         2.35747         1.65981        -5.62772         2.03901        -5.30926         1.65981         1.85221     33.1874E-03    -16.4555E-03    -16.7319E-03    -16.5076E-03     32.9631E-03    -16.4555E-03     6.65711E-03    -7.76606E+06    -14.8385E+06    -144.667E+06    -10.9716E+06    -141.462E+06    -14.8385E+06    -20.5161E+06         22.5934
            1588     5.90311E-03     81.3892E-03         2.34518         1.73819        -5.68029         2.23348        -5.56858         1.73819     963.518E-03     33.1656E-03    -16.4376E-03    -16.7280E-03    -16.4357E-03     32.8733E-03    -16.4376E-03     7.59724E-03    -5.06038E+06    -16.8496E+06    -143.942E+06    -9.40229E+06    -139.600E+06    -16.8496E+06    -23.9108E+06         22.6899
            1589     6.88740E-03     81.3973E-03         2.55651         1.82283        -5.96563         2.44145        -5.85057         1.82283         1.75723     33.1662E-03    -16.4101E-03    -16.7561E-03    -16.4047E-03     32.8149E-03    -16.4101E-03     8.33804E-03    -3.46805E+06    -18.8726E+06    -140.998E+06    -8.75365E+06    -135.712E+06    -18.8726E+06    -26.3812E+06         22.8114
            1590     7.87118E-03     81.4061E-03         2.67495         1.91097        -6.15831         2.62767        -6.11103         1.91097         1.24946     33.2309E-03    -16.3814E-03    -16.8495E-03    -16.4447E-03     32.8261E-03    -16.3814E-03     8.95562E-03    -2.46261E+06    -21.9453E+06    -138.374E+06    -8.42398E+06    -132.413E+06    -21.9453E+06    -27.7081E+06         22.9640
            1591     8.85521E-03     81.4155E-03         2.80652         1.99752        -6.36180         2.76481        -6.32008         1.99752     455.617E-03     33.1578E-03    -16.3320E-03    -16.8258E-03    -16.3661E-03     32.6981E-03    -16.3320E-03     9.53543E-03    -505.745E+03    -26.9106E+06    -129.431E+06    -7.49969E+06    -122.438E+06    -26.9106E+06    -29.0826E+06         23.1624
            1592     9.83889E-03     81.4253E-03         2.82774         2.07557        -6.44643         2.80251        -6.42120         2.07557    -933.020E-03     33.0633E-03    -16.2688E-03    -16.7946E-03    -16.2551E-03     32.5239E-03    -16.2688E-03     10.3013E-03     1.85352E+06    -32.3099E+06    -117.910E+06    -5.68934E+06    -110.367E+06    -32.3099E+06    -28.9906E+06         23.4499
            1593     10.8234E-03     81.4368E-03         2.81318         2.13906        -6.48635         2.75718        -6.43036         2.13906        -1.41723     32.8592E-03    -16.1769E-03    -16.6823E-03    -16.1193E-03     32.2962E-03    -16.1769E-03     10.4977E-03     2.60027E+06    -41.9545E+06    -104.477E+06    -4.99102E+06    -96.8855E+06    -41.9545E+06    -27.3867E+06         23.9621
            1594     11.8075E-03     81.4472E-03         2.69869         2.18519        -6.41313         2.63968        -6.35412         2.18519        -1.44933     32.4384E-03    -16.0460E-03    -16.3924E-03    -15.7911E-03     31.8371E-03    -16.0460E-03     10.7403E-03     2.73980E+06    -55.1014E+06    -81.8031E+06    -5.55245E+06    -73.5109E+06    -55.1014E+06    -24.7565E+06         25.0952
            1595     12.7927E-03     81.4596E-03         2.52076         2.21267        -6.26152         2.46421        -6.20496         2.21267        -1.39282     33.1549E-03    -15.8939E-03    -17.2610E-03    -15.3656E-03     31.2595E-03    -15.8939E-03     18.0558E-03     9.77659E+06    -42.5811E+06    -67.1561E+06    -5.66195E+06    -29.2172E+06    -65.0815E+06    -21.2376E+06         27.8280
            1596     13.7775E-03     81.4855E-03         2.32973         2.20461        -6.06302         2.24966        -6.00006         2.22171        -1.44526     33.9490E-03    -15.7427E-03    -18.2063E-03    -14.9202E-03     30.6629E-03    -15.7427E-03     25.2805E-03     22.6850E+06    -17.7489E+06    -78.8679E+06    -7.87431E+06     12.8104E+06    -78.8679E+06    -14.4666E+06         33.9689
            1597     14.7641E-03     81.5130E-03         2.21397         2.02624        -5.77228         1.99164        -5.73584         2.21212        -1.02477     49.8883E-03    -15.7533E-03    -34.1350E-03    -15.3948E-03     31.1481E-03    -15.7533E-03     65.6964E-03     59.3309E+06    -11.4835E+06    -66.9291E+06    -10.2595E+06     58.1069E+06    -66.9291E+06    -5.33704E+06         45.4422
            1598     15.7479E-03     81.6280E-03         2.17862         1.71228        -5.44187         1.70378        -5.43338         2.17862    -300.307E-03     135.664E-03    -15.7630E-03    -119.900E-03    -18.4234E-03     34.1864E-03    -15.7630E-03     248.122E-03     116.540E+06     1.05033E+06    -24.4956E+06    -7.39714E+06     116.269E+06    -15.7767E+06    -3.13305E+06         61.8120
            1599     16.7649E-03     82.0395E-03         2.10877         1.41804        -5.14357         1.41765        -5.14318         2.10877     91.8418E-03     316.953E-03    -16.0658E-03    -300.887E-03    -78.2609E-03     94.3267E-03    -16.0658E-03     590.195E-03     169.209E+06     69.6661E+06    -7.03790E+06    -6.71608E+06     168.887E+06     69.6661E+06    -2.22140E+06         77.7270
            1600     983.851E-06     82.3984E-03         16.1111        -4.00705        -13.8386         6.94167        -4.66920        -4.00705         9.52921     33.0338E-03    -16.4393E-03    -16.5944E-03    -16.5460E-03     33.0180E-03    -16.4720E-03     1.38961E-03    -7.95634E+06    -11.4056E+06    -158.538E+06    -10.5409E+06    -158.252E+06    -9.10699E+06    -5.81207E+06         22.3928
            1601     1.96764E-03     82.4011E-03         5.77244         1.45097        -8.93487         1.38707        -4.54950         1.45097        -4.74758     33.0811E-03    -16.5034E-03    -16.5776E-03    -16.5265E-03     33.0351E-03    -16.5086E-03     2.96488E-03    -6.90041E+06    -10.7913E+06    -142.501E+06    -10.6679E+06    -141.888E+06    -7.63659E+06    -8.43181E+06         22.4211
            1602     2.95162E-03     82.4039E-03         2.97460         1.44683        -6.11988         1.51989        -4.66517         1.44683         2.00545     33.0929E-03    -16.4815E-03    -16.6115E-03    -16.5073E-03     33.0061E-03    -16.4988E-03     4.09420E-03    -7.79465E+06    -12.5099E+06    -139.594E+06    -10.8349E+06    -138.064E+06    -10.9992E+06    -13.7265E+06         22.4632
            1603     3.93526E-03     82.4089E-03         2.41237         1.48474        -5.56866         1.69431        -4.85061         1.48474     54.4572E-03     33.1383E-03    -16.4578E-03    -16.6805E-03    -16.5196E-03     32.9895E-03    -16.4699E-03     5.39356E-03    -7.43703E+06    -16.2553E+06    -138.524E+06    -10.4318E+06    -135.550E+06    -16.2340E+06    -19.2529E+06         22.5204
            1604     4.91914E-03     82.4152E-03         2.33950         1.55219        -5.54709         1.97024        -5.17782         1.55219         1.77777     33.1169E-03    -16.4488E-03    -16.6681E-03    -16.4608E-03     32.9097E-03    -16.4488E-03     6.39986E-03    -6.37113E+06    -19.0973E+06    -137.761E+06    -10.6109E+06    -133.521E+06    -19.0973E+06    -23.1312E+06         22.5961
            1605     5.90329E-03     82.4220E-03         2.32617         1.63993        -5.61055         2.19804        -5.48241         1.63993     807.971E-03     33.2179E-03    -16.4415E-03    -16.7764E-03    -16.5082E-03     32.9497E-03    -16.4415E-03     7.28619E-03    -5.29215E+06    -19.1002E+06    -136.553E+06    -10.7252E+06    -131.120E+06    -19.1002E+06    -25.9855E+06         22.6931
            1606     6.88675E-03     82.4301E-03         2.49824         1.73223        -5.86698         2.38208        -5.75081         1.73223         1.67384     33.3141E-03    -16.4362E-03    -16.8778E-03    -16.5516E-03     32.9879E-03    -16.4362E-03     8.06169E-03    -3.46002E+06    -20.0887E+06    -135.633E+06    -9.95629E+06    -129.137E+06    -20.0887E+06    -28.4778E+06         22.8146
            1607     7.87066E-03     82.4388E-03         2.56027         1.82162        -6.00585         2.51993        -5.96551         1.82162         1.10017     33.2299E-03    -16.4055E-03    -16.8243E-03    -16.4515E-03     32.8571E-03    -16.4055E-03     8.60114E-03    -250.932E+03    -24.2875E+06    -133.415E+06    -8.28146E+06    -125.384E+06    -24.2875E+06    -31.4412E+06         22.9659
            1608     8.85466E-03     82.4481E-03         2.67658         1.90498        -6.19420         2.63369        -6.15131         1.90498     348.868E-03     33.1719E-03    -16.3523E-03    -16.8196E-03    -16.3852E-03     32.7375E-03    -16.3523E-03     9.27192E-03     2.99930E+06    -29.5399E+06    -126.532E+06    -6.44521E+06    -117.088E+06    -29.5399E+06    -33.5198E+06         23.1615
            1609     9.83882E-03     82.4582E-03         2.72870         1.98047        -6.31032         2.69848        -6.28010         1.98047        -1.02414     33.1485E-03    -16.2928E-03    -16.8558E-03    -16.3389E-03     32.6317E-03    -16.2928E-03     10.1023E-03     4.67741E+06    -35.3935E+06    -118.049E+06    -5.04915E+06    -108.322E+06    -35.3935E+06    -33.1046E+06         23.4435
            1610     10.8226E-03     82.4689E-03         2.75724         2.04492        -6.39807         2.69467        -6.33550         2.04492        -1.48495     32.9395E-03    -16.2040E-03    -16.7355E-03    -16.1886E-03     32.3926E-03    -16.2040E-03     10.3652E-03     5.37566E+06    -45.1883E+06    -105.550E+06    -4.26324E+06    -95.9108E+06    -45.1883E+06    -31.1519E+06         23.9442
            1611     11.8070E-03     82.4799E-03         2.67263         2.09475        -6.36443         2.60646        -6.29825         2.09475        -1.52755     32.6291E-03    -16.0813E-03    -16.5478E-03    -15.9745E-03     32.0558E-03    -16.0813E-03     10.5476E-03     6.55906E+06    -57.8063E+06    -83.8667E+06    -4.10122E+06    -73.2064E+06    -57.8063E+06    -28.7728E+06         25.0539
            1612     12.7913E-03     82.4908E-03         2.50516         2.12684        -6.23154         2.44266        -6.16904         2.12684        -1.46100     33.3346E-03    -15.9358E-03    -17.3988E-03    -15.5999E-03     31.5357E-03    -15.9358E-03     17.6069E-03     10.9701E+06    -46.8087E+06    -72.4597E+06    -5.97288E+06    -32.2388E+06    -70.0866E+06    -24.6911E+06         27.7480
            1613     13.7770E-03     82.5175E-03         2.28825         2.13971        -6.03302         2.21943        -5.96420         2.13971        -1.50561     34.9310E-03    -15.8235E-03    -19.1075E-03    -15.8074E-03     31.6309E-03    -15.8235E-03     25.8206E-03     17.1590E+06    -21.5835E+06    -84.5442E+06    -8.45575E+06     4.03124E+06    -84.5442E+06    -16.5421E+06         33.8567
            1614     14.7593E-03     82.5460E-03         2.14152         2.00152        -5.75803         1.96997        -5.71780         2.13284        -1.07934     49.0862E-03    -15.8547E-03    -33.2315E-03    -15.0886E-03     30.9434E-03    -15.8547E-03     63.6037E-03     54.0210E+06    -12.5358E+06    -71.1469E+06    -9.67949E+06     51.1646E+06    -71.1469E+06    -8.93635E+06         45.3787
            1615     15.7536E-03     82.6521E-03         2.10031         1.71368        -5.45949         1.70388        -5.44969         2.10031    -353.690E-03     131.469E-03    -16.1874E-03    -115.282E-03    -26.6607E-03     42.8481E-03    -16.1874E-03     235.676E-03     118.204E+06     3.62555E+06    -26.2429E+06    -6.72175E+06     117.611E+06    -15.3026E+06    -6.01704E+06         61.8033
            1616     16.7189E-03     83.0526E-03         2.02727         1.44895        -5.18744         1.44857        -5.18706         2.02727     90.0256E-03     316.562E-03    -16.7432E-03    -299.819E-03    -77.5026E-03     94.2458E-03    -16.7432E-03     590.925E-03     170.024E+06     63.6725E+06    -6.48761E+06    -6.19079E+06     169.727E+06     63.6725E+06    -1.97356E+06         77.9069
            1617     984.089E-06     83.4314E-03         17.5208        -4.28481        -14.9867         7.02518        -4.49116        -4.28481         10.7077     32.9604E-03    -16.4033E-03    -16.5571E-03    -16.5091E-03     32.9450E-03    -16.4359E-03     1.49876E-03    -8.24929E+06    -13.4170E+06    -149.605E+06    -12.5294E+06    -149.342E+06    -9.39994E+06    -4.17427E+06         22.3990
            1618     1.96786E-03     83.4337E-03         6.34054         1.36016        -9.44556         1.32375        -4.42877         1.36016        -5.09363     33.0941E-03    -16.4867E-03    -16.6074E-03    -16.5684E-03     33.0551E-03    -16.4867E-03     2.73022E-03    -4.80754E+06    -12.2656E+06    -133.342E+06    -9.86856E+06    -132.553E+06    -7.99387E+06    -8.93572E+06         22.4276
            1619     2.95145E-03     83.4371E-03         3.23662         1.36957        -6.33675         1.48192        -4.58205         1.36957         2.17111     33.2226E-03    -16.4974E-03    -16.7252E-03    -16.6408E-03     33.1382E-03    -16.4974E-03     4.01758E-03    -4.67729E+06    -13.7134E+06    -128.000E+06    -8.07764E+06    -126.089E+06    -12.2241E+06    -14.7868E+06         22.4697
            1620     3.93502E-03     83.4421E-03         2.50984         1.41800        -5.63784         1.65720        -4.78520         1.41800    -115.059E-03     33.2631E-03    -16.5047E-03    -16.7585E-03    -16.6149E-03     33.1195E-03    -16.5047E-03     5.32981E-03    -6.48201E+06    -16.0563E+06    -127.055E+06    -9.82092E+06    -123.716E+06    -16.0563E+06    -19.5559E+06         22.5269
            1621     4.91891E-03     83.4477E-03         2.32572         1.48910        -5.51024         1.90333        -5.08785         1.48910         1.75888     33.2740E-03    -16.5054E-03    -16.7686E-03    -16.5713E-03     33.0767E-03    -16.5054E-03     6.25633E-03    -5.81452E+06    -18.3596E+06    -129.439E+06    -11.0329E+06    -124.220E+06    -18.3596E+06    -24.6232E+06         22.6021
            1622     5.90259E-03     83.4551E-03         2.22997         1.57315        -5.48897         2.08850        -5.34750         1.57315     644.903E-03     33.3285E-03    -16.4987E-03    -16.8298E-03    -16.5702E-03     33.0689E-03    -16.4987E-03     7.18215E-03    -3.57209E+06    -19.5628E+06    -129.841E+06    -10.3844E+06    -123.029E+06    -19.5628E+06    -28.3706E+06         22.6979
            1623     6.88639E-03     83.4632E-03         2.36751         1.65824        -5.70677         2.25500        -5.59425         1.65824         1.50819     33.3459E-03    -16.4853E-03    -16.8606E-03    -16.5387E-03     33.0240E-03    -16.4853E-03     8.00680E-03    -571.059E+03    -20.9019E+06    -129.476E+06    -8.94331E+06    -121.104E+06    -20.9019E+06    -31.5814E+06         22.8178
            1624     7.87017E-03     83.4716E-03         2.41667         1.74049        -5.82766         2.38444        -5.79542         1.74049     895.616E-03     33.3252E-03    -16.4456E-03    -16.8796E-03    -16.5039E-03     32.9495E-03    -16.4456E-03     8.64833E-03     3.37461E+06    -25.5480E+06    -127.283E+06    -7.23337E+06    -116.675E+06    -25.5480E+06    -35.4507E+06         22.9673
            1625     8.85405E-03     83.4809E-03         2.53325         1.81735        -6.01088         2.48972        -5.96735         1.81735     216.688E-03     33.2130E-03    -16.4024E-03    -16.8107E-03    -16.3813E-03     32.7837E-03    -16.4024E-03     9.22350E-03     5.59215E+06    -29.5906E+06    -123.856E+06    -6.41814E+06    -111.846E+06    -29.5906E+06    -37.5040E+06         23.1604
            1626     9.83803E-03     83.4908E-03         2.59243         1.88736        -6.13367         2.55742        -6.09866         1.88736        -1.09571     33.1645E-03    -16.3393E-03    -16.8252E-03    -16.3042E-03     32.6435E-03    -16.3393E-03     10.1317E-03     6.17673E+06    -35.7875E+06    -117.641E+06    -6.26037E+06    -105.204E+06    -35.7875E+06    -37.0712E+06         23.4381
            1627     10.8223E-03     83.5018E-03         2.61864         1.94749        -6.21765         2.55387        -6.15288         1.94749        -1.48342     32.9602E-03    -16.2441E-03    -16.7161E-03    -16.1835E-03     32.4276E-03    -16.2441E-03     10.2093E-03     8.19812E+06    -45.7729E+06    -106.807E+06    -4.87514E+06    -93.7333E+06    -45.7729E+06    -36.3681E+06         23.9300
            1628     11.8066E-03     83.5118E-03         2.54500         1.99416        -6.19521         2.47737        -6.12758         1.99416        -1.51606     32.8190E-03    -16.1352E-03    -16.6837E-03    -16.0927E-03     32.2279E-03    -16.1352E-03     10.6908E-03     9.64040E+06    -56.5125E+06    -87.5277E+06    -3.81655E+06    -74.0707E+06    -56.5125E+06    -33.3720E+06         25.0207
            1629     12.7908E-03     83.5240E-03         2.40797         2.02509        -6.09650         2.34541        -6.03395         2.02509        -1.44176     33.6961E-03    -16.0112E-03    -17.6849E-03    -15.9986E-03     32.0098E-03    -16.0112E-03     17.4470E-03     12.3220E+06    -48.6903E+06    -73.1400E+06    -4.64869E+06    -36.5462E+06    -68.3135E+06    -27.2364E+06         27.6814
            1630     13.7750E-03     83.5481E-03         2.21456         2.03880        -5.92697         2.14663        -5.85905         2.03880        -1.47852     35.4987E-03    -15.9120E-03    -19.5867E-03    -16.0084E-03     31.9204E-03    -15.9120E-03     26.9508E-03     16.7407E+06    -26.3498E+06    -83.8634E+06    -6.66243E+06    -2.94673E+06    -83.8634E+06    -20.2818E+06         33.7628
            1631     14.7608E-03     83.5818E-03         2.05764         1.92831        -5.67630         1.91354        -5.63759         2.03369        -1.04891     48.6695E-03    -15.9981E-03    -32.6714E-03    -17.4750E-03     33.4731E-03    -15.9981E-03     60.5251E-03     52.2013E+06    -12.5405E+06    -75.0183E+06    -6.80108E+06     46.4619E+06    -75.0183E+06    -13.4500E+06         45.3092
            1632     15.7434E-03     83.6741E-03         2.00219         1.68879        -5.41349         1.67909        -5.40379         2.00219    -313.682E-03     139.840E-03    -16.6148E-03    -123.225E-03    -36.0157E-03     52.6305E-03    -16.6148E-03     246.148E-03     113.051E+06     1.77824E+06    -35.2382E+06    -10.0177E+06     112.418E+06    -22.8092E+06    -6.08781E+06         61.8226
            1633     16.7061E-03     84.1335E-03         1.92986         1.46492        -5.17930         1.46419        -5.17856         1.92986     133.789E-03     310.107E-03    -17.2051E-03    -292.902E-03    -67.7327E-03     84.9378E-03    -17.2051E-03     582.945E-03     167.386E+06     47.6494E+06    -5.49613E+06    -5.31840E+06     167.209E+06     47.6494E+06     1.16227E+06         78.1340
            1634     983.664E-06     84.4644E-03         18.7969        -4.52848        -16.0366         7.13505        -4.37477        -4.52848         11.8010     33.2532E-03    -16.5515E-03    -16.7018E-03    -16.6896E-03     33.2411E-03    -16.5515E-03     1.46606E-03    -7.16482E+06    -12.1283E+06    -140.725E+06    -10.5244E+06    -140.487E+06    -9.00664E+06    -3.08982E+06         22.4093
            1635     1.96744E-03     84.4666E-03         6.87664         1.31082        -9.95199         1.34412        -4.41947         1.31082        -5.36500     33.2706E-03    -16.5778E-03    -16.6928E-03    -16.6458E-03     33.2367E-03    -16.5908E-03     2.53376E-03    -4.40263E+06    -12.3968E+06    -120.319E+06    -7.58056E+06    -118.927E+06    -10.6115E+06    -11.4124E+06         22.4376
            1636     2.95117E-03     84.4704E-03         3.52717         1.34686        -6.62904         1.51305        -4.61492         1.34686         2.32871     33.2885E-03    -16.5782E-03    -16.7104E-03    -16.6218E-03     33.2130E-03    -16.5912E-03     3.81202E-03    -4.39711E+06    -11.4652E+06    -117.742E+06    -7.04808E+06    -115.091E+06    -11.4652E+06    -16.9704E+06         22.4795
            1637     3.93501E-03     84.4750E-03         2.60183         1.40332        -5.74469         1.63312        -4.77598         1.40332    -297.455E-03     33.3674E-03    -16.6024E-03    -16.7649E-03    -16.6328E-03     33.2352E-03    -16.6024E-03     5.10279E-03    -2.63308E+06    -9.17309E+06    -117.367E+06    -6.43129E+06    -113.569E+06    -9.17309E+06    -20.3150E+06         22.5361
            1638     4.91843E-03     84.4812E-03         2.25292         1.46320        -5.44197         1.77528        -4.96433         1.46320         1.66376     33.4772E-03    -16.6011E-03    -16.8761E-03    -16.6773E-03     33.2785E-03    -16.6011E-03     6.28563E-03    -668.154E+03    -10.3448E+06    -118.168E+06    -6.45269E+06    -112.383E+06    -10.3448E+06    -25.2690E+06         22.6097
            1639     5.90190E-03     84.4881E-03         2.06348         1.52557        -5.31088         1.90220        -5.14960         1.52557     414.904E-03     33.4695E-03    -16.5836E-03    -16.8858E-03    -16.6227E-03     33.2063E-03    -16.5836E-03     7.24944E-03     1.67348E+06    -14.8451E+06    -122.229E+06    -6.65443E+06    -113.901E+06    -14.8451E+06    -30.7404E+06         22.7034
            1640     6.88597E-03     84.4960E-03         2.17996         1.59088        -5.48719         2.07176        -5.37899         1.59088         1.30355     33.3901E-03    -16.5562E-03    -16.8340E-03    -16.5151E-03     33.0712E-03    -16.5562E-03     7.97040E-03     5.60698E+06    -16.8892E+06    -121.771E+06    -5.11043E+06    -111.053E+06    -16.8892E+06    -35.1859E+06         22.8212
            1641     7.86981E-03     84.5048E-03         2.27586         1.66142        -5.64625         2.25008        -5.62047         1.66142     677.312E-03     33.3846E-03    -16.5165E-03    -16.8681E-03    -16.4975E-03     33.0140E-03    -16.5165E-03     8.59491E-03     7.53565E+06    -20.6463E+06    -121.318E+06    -4.85924E+06    -108.923E+06    -20.6463E+06    -37.9582E+06         22.9693
            1642     8.85358E-03     84.5138E-03         2.41849         1.73319        -5.85611         2.37528        -5.81290         1.73319     97.5670E-03     33.3147E-03    -16.4766E-03    -16.8381E-03    -16.4259E-03     32.9025E-03    -16.4766E-03     9.05045E-03     6.90267E+06    -24.7737E+06    -119.846E+06    -6.48233E+06    -106.461E+06    -24.7737E+06    -38.9345E+06         23.1613
            1643     9.83779E-03     84.5232E-03         2.44388         1.79837        -5.94092         2.40446        -5.90150         1.79837        -1.14501     33.1993E-03    -16.4072E-03    -16.7920E-03    -16.2780E-03     32.6853E-03    -16.4072E-03     10.0473E-03     8.61252E+06    -31.6484E+06    -114.806E+06    -6.97539E+06    -99.2178E+06    -31.6484E+06    -40.7972E+06         23.4370
            1644     10.8217E-03     84.5348E-03         2.43679         1.85136        -5.98838         2.37028        -5.92187         1.85136        -1.46642     33.0377E-03    -16.2985E-03    -16.7392E-03    -16.2307E-03     32.5292E-03    -16.2985E-03     9.97179E-03     10.8498E+06    -44.6410E+06    -107.347E+06    -6.30927E+06    -90.1880E+06    -44.6410E+06    -41.5509E+06         23.9229
            1645     11.8060E-03     84.5437E-03         2.35947         1.89063        -5.95689         2.29173        -5.88914         1.89063        -1.47542     32.9484E-03    -16.2000E-03    -16.7484E-03    -16.1748E-03     32.3749E-03    -16.2000E-03     10.5142E-03     10.8083E+06    -55.6999E+06    -93.2421E+06    -5.92531E+06    -76.5085E+06    -55.6999E+06    -38.1285E+06         24.9975
            1646     12.7902E-03     84.5572E-03         2.23820         1.91588        -5.87074         2.17907        -5.81162         1.91588        -1.36953     34.0703E-03    -16.0852E-03    -17.9851E-03    -16.3520E-03     32.4373E-03    -16.0852E-03     17.4378E-03     14.9673E+06    -50.3539E+06    -78.4485E+06    -5.13765E+06    -40.6168E+06    -68.0806E+06    -32.0742E+06         27.6258
            1647     13.7744E-03     84.5805E-03         2.09306         1.92713        -5.75153         2.03161        -5.69007         1.92713        -1.37837     35.7498E-03    -15.9968E-03    -19.7530E-03    -16.3483E-03     32.3450E-03    -15.9968E-03     26.4037E-03     21.2556E+06    -32.3597E+06    -84.3699E+06    -4.02344E+06    -7.08070E+06    -84.3699E+06    -25.7882E+06         33.6706
            1648     14.7584E-03     84.6141E-03         1.95672         1.83745        -5.54729         1.83903        -5.51469         1.92255    -944.562E-03     52.3355E-03    -16.1296E-03    -36.2059E-03    -20.1993E-03     36.3289E-03    -16.1296E-03     65.5515E-03     49.4474E+06    -17.1044E+06    -84.2291E+06    -5.47664E+06     37.8196E+06    -84.2291E+06    -17.3294E+06         45.2055
            1649     15.7328E-03     84.7203E-03         1.89198         1.63729        -5.31564         1.62927        -5.30762         1.89198    -240.439E-03     148.379E-03    -16.5713E-03    -131.808E-03    -32.4581E-03     49.0294E-03    -16.5713E-03     264.723E-03     103.101E+06    -3.43575E+06    -50.5513E+06    -11.3136E+06     101.968E+06    -41.5403E+06    -4.11671E+06         61.8978
            1650     16.7166E-03     85.1814E-03         1.82082         1.45158        -5.11872         1.45067        -5.11781         1.82082     153.748E-03     306.678E-03    -16.8824E-03    -289.796E-03    -61.7478E-03     78.6302E-03    -16.8824E-03     579.138E-03     162.419E+06     39.9462E+06    -11.3816E+06    -5.39577E+06     161.696E+06     34.6830E+06     400.241E+03         78.4279
            1651     983.596E-06     85.4977E-03         19.8668        -4.60808        -17.0578         7.25023        -4.44123        -4.60808         12.7580     33.6897E-03    -16.7075E-03    -16.9822E-03    -16.7567E-03     33.6778E-03    -16.9211E-03     1.42869E-03    -3.01822E+06    -7.47282E+06    -128.358E+06    -3.90003E+06    -127.768E+06    -7.18112E+06    -6.97694E+06         22.4208
            1652     1.96689E-03     85.5003E-03         7.29134         1.33106        -10.3993         1.36670        -4.47467         1.33106        -5.66644     33.5137E-03    -16.7006E-03    -16.8131E-03    -16.6961E-03     33.4764E-03    -16.7803E-03     2.65457E-03    -2.51935E+06    -5.87041E+06    -106.409E+06    -4.41884E+06    -104.699E+06    -5.68041E+06    -12.4170E+06         22.4489
            1653     2.95057E-03     85.5034E-03         3.74055         1.36185        -6.87595         1.49256        -4.62796         1.36185         2.32429     33.5063E-03    -16.7413E-03    -16.7650E-03    -16.6772E-03     33.4315E-03    -16.7544E-03     3.82883E-03    -439.184E+03    -3.75572E+06    -106.674E+06    -3.93961E+06    -103.174E+06    -3.75572E+06    -18.6056E+06         22.4902
            1654     3.93415E-03     85.5085E-03         2.64764         1.40226        -5.81015         1.55121        -4.71372         1.40226    -578.602E-03     33.4986E-03    -16.7260E-03    -16.7726E-03    -16.6422E-03     33.3683E-03    -16.7261E-03     5.06220E-03     3.10223E+06    -4.37594E+06    -109.816E+06    -1.91476E+06    -104.799E+06    -4.37594E+06    -22.9688E+06         22.5453
            1655     4.91808E-03     85.5144E-03         2.16292         1.44033        -5.35420         1.63613        -4.82741         1.44033         1.48484     33.5258E-03    -16.6999E-03    -16.8260E-03    -16.6313E-03     33.3313E-03    -16.7000E-03     6.22457E-03     5.95772E+06    -3.73361E+06    -107.533E+06    -187.808E+03    -101.388E+06    -3.73361E+06    -25.6334E+06         22.6167
            1656     5.90198E-03     85.5216E-03         1.94188         1.48213        -5.16964         1.75197        -4.97974         1.48213     178.274E-03     33.5695E-03    -16.6736E-03    -16.8958E-03    -16.6429E-03     33.3165E-03    -16.6736E-03     7.11059E-03     8.70355E+06    -5.87455E+06    -110.119E+06    -575.954E+03    -100.840E+06    -5.87455E+06    -31.5256E+06         22.7081
            1657     6.88521E-03     85.5291E-03         2.02932         1.53214        -5.30730         1.92248        -5.20046         1.53214         1.15844     33.5143E-03    -16.6282E-03    -16.8861E-03    -16.5701E-03     33.1983E-03    -16.6282E-03     7.94387E-03     10.3574E+06    -12.2543E+06    -113.503E+06    -2.23287E+06    -100.912E+06    -12.2543E+06    -37.3680E+06         22.8240
            1658     7.86919E-03     85.5378E-03         2.12573         1.59145        -5.45820         2.10187        -5.43434         1.59145     530.572E-03     33.4524E-03    -16.5914E-03    -16.8610E-03    -16.4932E-03     33.0847E-03    -16.5914E-03     8.56887E-03     9.41479E+06    -16.5181E+06    -116.476E+06    -3.77194E+06    -103.289E+06    -16.5181E+06    -38.4927E+06         22.9709
            1659     8.85316E-03     85.5468E-03         2.26350         1.65412        -5.65748         2.21861        -5.61258         1.65412     20.3296E-03     33.3937E-03    -16.5406E-03    -16.8531E-03    -16.4529E-03     32.9935E-03    -16.5406E-03     8.93095E-03     10.1842E+06    -21.0570E+06    -113.951E+06    -4.46273E+06    -99.3040E+06    -21.0570E+06    -39.8783E+06         23.1626
            1660     9.83675E-03     85.5563E-03         2.26971         1.71042        -5.71891         2.22473        -5.67393         1.71042        -1.19355     33.3035E-03    -16.4637E-03    -16.8398E-03    -16.3451E-03     32.8088E-03    -16.4637E-03     9.87734E-03     13.7004E+06    -28.7414E+06    -108.980E+06    -4.67602E+06    -90.6038E+06    -28.7414E+06    -43.5845E+06         23.4376
            1661     10.8212E-03     85.5670E-03         2.23656         1.75383        -5.73070         2.16354        -5.65767         1.75383        -1.49129     33.2033E-03    -16.3554E-03    -16.8480E-03    -16.3398E-03     32.6952E-03    -16.3554E-03     10.0117E-03     13.9827E+06    -44.3631E+06    -106.856E+06    -5.85231E+06    -87.0212E+06    -44.3631E+06    -44.7496E+06         23.9185
            1662     11.8049E-03     85.5773E-03         2.16061         1.78401        -5.69270         2.08726        -5.61935         1.78401        -1.48639     33.1637E-03    -16.2613E-03    -16.9025E-03    -16.3510E-03     32.6123E-03    -16.2613E-03     10.3948E-03     13.6683E+06    -57.2369E+06    -97.1865E+06    -6.48992E+06    -77.0283E+06    -57.2369E+06    -42.5696E+06         24.9754
            1663     12.7893E-03     85.5887E-03         2.06042         1.80260        -5.62190         2.00091        -5.56240         1.80260        -1.33866     34.4136E-03    -16.1430E-03    -18.2706E-03    -16.4639E-03     32.6069E-03    -16.1430E-03     18.1157E-03     20.6843E+06    -54.9109E+06    -84.7726E+06    -5.42442E+06    -42.1346E+06    -71.4402E+06    -39.2488E+06         27.5654
            1664     13.7720E-03     85.6161E-03         1.93887         1.81001        -5.52563         1.88027        -5.46703         1.81001        -1.31071     36.0658E-03    -16.0500E-03    -20.0159E-03    -16.4979E-03     32.5479E-03    -16.0500E-03     27.0787E-03     23.0263E+06    -42.1017E+06    -90.8328E+06    -4.87623E+06    -14.1992E+06    -90.8328E+06    -32.0802E+06         33.5572
            1665     14.7565E-03     85.6448E-03         1.82655         1.73331        -5.36123         1.72692        -5.33210         1.80382    -869.960E-03     55.3210E-03    -16.0956E-03    -39.2254E-03    -18.3703E-03     34.4660E-03    -16.0956E-03     74.1038E-03     40.8540E+06    -23.4252E+06    -95.0605E+06    -7.99056E+06     25.4193E+06    -95.0605E+06    -18.7227E+06         45.0891
            1666     15.7396E-03     85.7696E-03         1.77386         1.56943        -5.18366         1.56262        -5.17685         1.77386    -203.966E-03     144.803E-03    -16.0424E-03    -128.761E-03    -20.5311E-03     36.5736E-03    -16.0424E-03     264.792E-03     91.6524E+06    -9.18697E+06    -64.1892E+06    -7.54689E+06     90.0123E+06    -64.1892E+06    -6.64633E+06         61.9884
            1667     16.7555E-03     86.1898E-03         1.70322         1.42414        -5.02078         1.42332        -5.01995         1.70322     141.336E-03     312.088E-03    -16.1695E-03    -295.919E-03    -68.4542E-03     84.6237E-03    -16.1695E-03     585.798E-03     158.298E+06     45.5445E+06    -21.1338E+06    -4.41455E+06     157.148E+06     29.9756E+06    -4.50310E+06         78.7069
            1668     982.958E-06     86.5318E-03         20.6938        -4.56963        -17.9322         7.34277        -4.58109        -4.56963         13.4590     33.9003E-03    -16.7807E-03    -17.1196E-03    -16.8880E-03     33.8860E-03    -16.9980E-03     1.59393E-03     5.77835E+06     1.92360E+06    -114.085E+06     3.43240E+06    -113.273E+06     3.45728E+06    -9.00413E+06         22.4304
            1669     1.96699E-03     86.5335E-03         7.58959         1.37695        -10.7597         1.33571        -4.50586         1.37695        -5.96868     33.6900E-03    -16.8059E-03    -16.8840E-03    -16.7639E-03     33.6460E-03    -16.8821E-03     2.88725E-03     4.88304E+06     2.11750E+06    -93.8604E+06     2.40065E+06    -92.0300E+06     2.76949E+06    -13.0187E+06         22.4583
            1670     2.95034E-03     86.5375E-03         3.85829         1.36963        -7.01161         1.38749        -4.54080         1.36963         2.27197     33.7074E-03    -16.8290E-03    -16.8784E-03    -16.7884E-03     33.6232E-03    -16.8348E-03     4.09655E-03     5.23321E+06     701.147E+03    -93.9900E+06     1.65301E+06    -90.4098E+06     701.147E+03    -18.2217E+06         22.4984
            1671     3.93391E-03     86.5416E-03         2.66989         1.38124        -5.82495         1.45124        -4.60629         1.38124    -840.987E-03     33.7446E-03    -16.8142E-03    -16.9305E-03    -16.7938E-03     33.6081E-03    -16.8143E-03     5.21434E-03     6.37998E+06    -2.03045E+06    -99.4381E+06     331.115E+03    -93.3892E+06    -2.03045E+06    -24.2207E+06         22.5517
            1672     4.91751E-03     86.5481E-03         2.13253         1.40684        -5.30343         1.57738        -4.74828         1.40684         1.35958     33.6610E-03    -16.7755E-03    -16.8856E-03    -16.6966E-03     33.4722E-03    -16.7756E-03     6.15750E-03     9.44408E+06    -5.28747E+06    -99.3317E+06     1.18795E+06    -91.0756E+06    -5.28747E+06    -28.5574E+06         22.6210
            1673     5.90096E-03     86.5549E-03         1.90231         1.44438        -5.10896         1.69290        -4.89955         1.44438     36.7315E-03     33.5458E-03    -16.7207E-03    -16.8251E-03    -16.5626E-03     33.3062E-03    -16.7436E-03     6.91439E-03     13.2519E+06    -4.26568E+06    -99.2431E+06     3.04431E+06    -89.0354E+06    -4.26568E+06    -32.1715E+06         22.7102
            1674     6.88524E-03     86.5626E-03         1.92719         1.48853        -5.18048         1.82007        -5.07335         1.48853         1.06453     33.5190E-03    -16.6729E-03    -16.8462E-03    -16.5174E-03     33.2131E-03    -16.6958E-03     7.81052E-03     12.4773E+06    -7.93574E+06    -103.307E+06     378.521E+03    -91.2080E+06    -7.93574E+06    -35.3790E+06         22.8240
            1675     7.86875E-03     86.5708E-03         1.94320         1.53579        -5.24381         1.91851        -5.21913         1.53579     431.860E-03     33.5001E-03    -16.6276E-03    -16.8724E-03    -16.4990E-03     33.1267E-03    -16.6276E-03     8.63013E-03     12.2072E+06    -17.0438E+06    -109.986E+06    -2.34977E+06    -95.4286E+06    -17.0438E+06    -39.3656E+06         22.9693
            1676     8.85250E-03     86.5801E-03         2.02226         1.58096        -5.37113         1.97280        -5.32166         1.58096    -44.9490E-03     33.3949E-03    -16.5531E-03    -16.8418E-03    -16.4205E-03     32.9736E-03    -16.5531E-03     9.15864E-03     16.2087E+06    -23.9747E+06    -108.334E+06    -1.35819E+06    -90.7672E+06    -23.9747E+06    -43.1248E+06         23.1599
            1677     9.83676E-03     86.5891E-03         2.03657         1.62017        -5.42684         1.98413        -5.37439         1.62017        -1.24448     33.3627E-03    -16.4777E-03    -16.8850E-03    -16.3608E-03     32.8385E-03    -16.4777E-03     10.1722E-03     19.8326E+06    -29.9535E+06    -102.838E+06    -843.392E+03    -82.1617E+06    -29.9535E+06    -45.8530E+06         23.4334
            1678     10.8202E-03     86.6003E-03         2.02907         1.65087        -5.45238         1.94755        -5.37086         1.65087        -1.52517     33.3432E-03    -16.3820E-03    -16.9612E-03    -16.3909E-03     32.7729E-03    -16.3820E-03     10.6329E-03     19.7903E+06    -44.0165E+06    -104.576E+06    -1.78816E+06    -82.9974E+06    -44.0165E+06    -47.0618E+06         23.9076
            1679     11.8045E-03     86.6099E-03         1.96731         1.67213        -5.41911         1.88611        -5.33791         1.67213        -1.51369     33.3033E-03    -16.2697E-03    -17.0336E-03    -16.3886E-03     32.6582E-03    -16.2697E-03     11.2459E-03     19.7008E+06    -60.8724E+06    -97.7625E+06    -3.41302E+06    -74.6487E+06    -60.8724E+06    -46.4201E+06         24.9427
            1680     12.7878E-03     86.6224E-03         1.87773         1.68429        -5.35221         1.81430        -5.28877         1.68429        -1.34108     34.3812E-03    -16.1459E-03    -18.2353E-03    -16.1175E-03     32.2634E-03    -16.1459E-03     19.4762E-03     24.7218E+06    -62.3739E+06    -85.2070E+06    -5.88768E+06    -42.1679E+06    -74.8034E+06    -44.1942E+06         27.4857
            1681     13.7735E-03     86.6482E-03         1.77251         1.68369        -5.26469         1.70819        -5.20386         1.68718        -1.29361     35.8917E-03    -16.0335E-03    -19.8582E-03    -15.8254E-03     31.8589E-03    -16.0335E-03     28.8070E-03     19.5240E+06    -53.8636E+06    -94.6665E+06    -9.75343E+06    -24.5862E+06    -94.6665E+06    -35.3530E+06         33.4170
            1682     14.7577E-03     86.6786E-03         1.68417         1.61144        -5.13144         1.58763        -5.10196         1.67850    -852.195E-03     53.4338E-03    -15.9163E-03    -37.5175E-03    -14.4052E-03     30.3214E-03    -15.9163E-03     74.4180E-03     35.0023E+06    -32.5963E+06    -101.234E+06    -11.1170E+06     13.5231E+06    -101.234E+06    -22.7869E+06         44.9697
            1683     15.7508E-03     86.7967E-03         1.64944         1.49486        -5.01856         1.48790        -5.01160         1.64944    -206.806E-03     133.259E-03    -15.7279E-03    -117.532E-03    -17.3251E-03     33.0530E-03    -15.7279E-03     244.537E-03     88.4689E+06    -6.74670E+06     -71.722E+06    -3.03058E+06     84.7528E+06     -71.722E+06    -16.6091E+06         61.9808
            1684     16.7532E-03     87.1828E-03         1.58025         1.40090        -4.89447         1.40014        -4.89371         1.58025     134.440E-03     315.634E-03    -15.9934E-03    -299.641E-03    -77.1474E-03     93.1408E-03    -15.9934E-03     588.711E-03     154.049E+06     45.6836E+06    -27.6521E+06    -1.77611E+06     152.884E+06     20.9728E+06    -8.54099E+06         78.8525
            1685     983.862E-06     87.5654E-03         21.2314        -4.51174        -18.5322         7.34855        -4.64928        -4.51174         13.9708     33.7657E-03    -16.7382E-03    -17.0275E-03    -17.0077E-03     33.7495E-03    -16.7419E-03     1.57901E-03     12.7505E+06     10.4635E+06    -100.121E+06     9.93516E+06    -99.5930E+06     12.7505E+06    -6.54422E+06         22.4350
            1686     1.96668E-03     87.5677E-03         7.80482         1.39385        -11.0043         1.30139        -4.50088         1.39385        -6.11472     33.8234E-03    -16.8465E-03    -16.9769E-03    -16.9220E-03     33.7780E-03    -16.8559E-03     2.98134E-03     13.5019E+06     9.86223E+06    -80.6414E+06     11.0055E+06    -78.6494E+06     10.3667E+06    -12.9030E+06         22.4628
            1687     2.95046E-03     87.5709E-03         3.95097         1.36258        -7.10168         1.31377        -4.46447         1.36258         2.32518     33.8489E-03    -16.8554E-03    -16.9936E-03    -16.8998E-03     33.7609E-03    -16.8611E-03     4.17732E-03     14.5949E+06     7.51953E+06    -82.0114E+06     10.9944E+06    -78.4108E+06     7.51953E+06    -18.2266E+06         22.5017
            1688     3.93375E-03     87.5760E-03         2.69851         1.35951        -5.83970         1.40039        -4.54158         1.35951    -934.984E-03     33.9583E-03    -16.8674E-03    -17.0909E-03    -16.9460E-03     33.8135E-03    -16.8674E-03     5.39763E-03     16.2458E+06     6.34736E+06    -85.4974E+06     10.1187E+06    -79.3703E+06     6.34736E+06    -23.7974E+06         22.5533
            1689     4.91680E-03     87.5816E-03         2.14048         1.38179        -5.29177         1.55418        -4.70547         1.38179         1.32637     33.8143E-03    -16.8351E-03    -16.9792E-03    -16.7786E-03     33.6138E-03    -16.8351E-03     6.35502E-03     18.3405E+06     805.906E+03    -88.3417E+06     8.54204E+06    -78.5433E+06     805.906E+03    -30.7129E+06         22.6207
            1690     5.90085E-03     87.5883E-03         1.86695         1.41791        -5.05701         1.64586        -4.83592         1.41791    -60.7782E-03     33.6087E-03    -16.7612E-03    -16.8475E-03    -16.5599E-03     33.3441E-03    -16.7841E-03     7.25960E-03     18.6829E+06    -3.28549E+06    -92.7534E+06     7.27922E+06    -81.3498E+06    -3.28549E+06    -33.7697E+06         22.7079
            1691     6.88436E-03     87.5958E-03         1.79438         1.45333        -5.02214         1.68606        -4.91383         1.45333     947.653E-03     33.5970E-03    -16.7220E-03    -16.8750E-03    -16.5290E-03     33.2738E-03    -16.7449E-03     8.03756E-03     20.0450E+06    -2.14369E+06    -94.0111E+06     8.05653E+06    -82.0226E+06    -2.14369E+06    -34.9528E+06         22.8197
            1692     7.86853E-03     87.6044E-03         1.72858         1.48337        -4.99043         1.70390        -4.96575         1.48337     282.774E-03     33.4776E-03    -16.6518E-03    -16.8258E-03    -16.4362E-03     33.1074E-03    -16.6711E-03     8.58695E-03     22.9185E+06    -8.65107E+06    -98.4189E+06     7.78939E+06    -83.2898E+06    -8.65107E+06    -39.9212E+06         22.9627
            1693     8.85258E-03     87.6129E-03         1.76838         1.50813        -5.06311         1.71568        -5.01041         1.50813    -143.435E-03     33.2977E-03    -16.5466E-03    -16.7511E-03    -16.2893E-03     32.8552E-03    -16.5659E-03     9.34888E-03     26.2759E+06    -19.6617E+06    -100.953E+06     5.96443E+06    -80.6419E+06    -19.6617E+06    -46.3697E+06         23.1509
            1694     9.83639E-03     87.6224E-03         1.78353         1.52865        -5.10223         1.72389        -5.04260         1.52865        -1.27293     33.2851E-03    -16.4786E-03    -16.8065E-03    -16.2449E-03     32.7235E-03    -16.4786E-03     10.5208E-03     27.6363E+06    -26.5376E+06    -99.0150E+06     5.13441E+06    -76.5131E+06    -26.5376E+06    -48.3168E+06         23.4211
            1695     10.8210E-03     87.6328E-03         1.80467         1.54538        -5.14495         1.71994        -5.06022         1.54538        -1.49980     33.2184E-03    -16.3868E-03    -16.8316E-03    -16.2047E-03     32.5915E-03    -16.3868E-03     11.1301E-03     24.9447E+06    -37.5678E+06    -100.068E+06     2.54798E+06    -77.6712E+06    -37.5678E+06    -47.8705E+06         23.8861
            1696     11.8047E-03     87.6433E-03         1.76245         1.55725        -5.12050         1.67892        -5.03697         1.55725        -1.48038     33.1300E-03    -16.2463E-03    -16.8837E-03    -16.1471E-03     32.3934E-03    -16.2463E-03     12.0065E-03     24.3793E+06    -57.2187E+06    -95.2721E+06    -1.19973E+06    -69.6931E+06    -57.2187E+06    -48.7761E+06         24.8967
            1697     12.7898E-03     87.6544E-03         1.66726         1.56214        -5.03960         1.60271        -4.97504         1.56214        -1.30232     33.9017E-03    -16.1122E-03    -17.7895E-03    -15.6570E-03     31.7693E-03    -16.1122E-03     19.5254E-03     25.3814E+06    -65.1830E+06    -80.8889E+06    -5.06674E+06    -44.6987E+06    -70.9251E+06    -45.3748E+06         27.3896
            1698     13.7742E-03     87.6803E-03         1.59671         1.54607        -4.97005         1.52157        -4.90830         1.55945        -1.25688     35.4912E-03    -15.9839E-03    -19.5073E-03    -15.3513E-03     31.3352E-03    -15.9839E-03     28.9743E-03     19.2003E+06    -60.1296E+06    -89.4064E+06    -8.44444E+06    -32.4848E+06    -89.4064E+06    -37.3024E+06         33.2618
            1699     14.7608E-03     87.7100E-03         1.54870         1.48228        -4.88504         1.45267        -4.85542         1.54870    -830.092E-03     49.2895E-03    -15.8253E-03    -33.4642E-03    -13.9051E-03     29.7304E-03    -15.8253E-03     66.2804E-03     38.5128E+06    -39.2624E+06    -100.283E+06    -8.59362E+06     7.84398E+06    -100.283E+06    -31.2261E+06         44.8268
            1700     15.7540E-03     87.8143E-03         1.52077         1.40846        -4.81247         1.40150        -4.80550         1.52077    -214.009E-03     131.029E-03    -15.9803E-03    -115.048E-03    -26.9497E-03     42.9300E-03    -15.9803E-03     235.269E-03     88.5566E+06    -16.9721E+06    -71.3165E+06    -8.19981E+06     79.7843E+06    -71.3165E+06    -26.8391E+06         61.8684
            1701     16.7199E-03     88.2210E-03         1.45490         1.35924        -4.72591         1.35846        -4.72513         1.45490     137.350E-03     313.232E-03    -16.5078E-03    -296.724E-03    -75.3292E-03     91.8370E-03    -16.5078E-03     586.047E-03     141.152E+06     21.1076E+06    -30.3572E+06    -10.7182E+06     138.372E+06     4.24874E+06    -15.9031E+06         78.9046
            1702     983.566E-06     88.5994E-03         21.4238        -4.41103        -18.8231         7.20674        -4.60604        -4.41103         14.3414     33.7929E-03    -16.7599E-03    -17.0330E-03    -16.9097E-03     33.7786E-03    -16.8689E-03     1.51576E-03     24.0438E+06     20.6250E+06    -86.2779E+06     22.3880E+06    -85.5654E+06     21.5683E+06    -6.92984E+06         22.4331
            1703     1.96723E-03     88.6017E-03         7.92455         1.38250        -11.1060         1.32340        -4.50483         1.38250        -6.08687     33.8815E-03    -16.8486E-03    -17.0329E-03    -16.9629E-03     33.8415E-03    -16.8786E-03     2.72659E-03     24.3695E+06     21.6869E+06    -66.9763E+06     22.3661E+06    -65.0154E+06     21.7293E+06    -12.8270E+06         22.4608
            1704     2.95020E-03     88.6049E-03         4.04439         1.36373        -7.19531         1.33962        -4.49055         1.36373         2.40418     33.9472E-03    -16.8926E-03    -17.0545E-03    -16.9652E-03     33.8578E-03    -16.8926E-03     4.20308E-03     24.7451E+06     17.8467E+06    -69.5252E+06     20.9166E+06    -65.6967E+06     17.8467E+06    -18.3286E+06         22.4987
            1705     3.93363E-03     88.6099E-03         2.71659         1.36359        -5.86087         1.39403        -4.53832         1.36359    -963.929E-03     33.8590E-03    -16.8394E-03    -17.0195E-03    -16.8328E-03     33.7073E-03    -16.8746E-03     5.51093E-03     28.0079E+06     14.8272E+06    -72.2093E+06     20.9672E+06    -65.1686E+06     14.8272E+06    -25.2348E+06         22.5486
            1706     4.91747E-03     88.6157E-03         2.07900         1.37588        -5.22814         1.46020        -4.60934         1.37588         1.27615     33.7227E-03    -16.8023E-03    -16.9204E-03    -16.6770E-03     33.5144E-03    -16.8374E-03     6.46927E-03     29.7835E+06     13.1146E+06    -76.1844E+06     20.3963E+06    -66.7972E+06     13.1146E+06    -29.9143E+06         22.6146
            1707     5.90084E-03     88.6215E-03         1.73232         1.39291        -4.89698         1.49743        -4.66209         1.39291    -194.861E-03     33.6903E-03    -16.7778E-03    -16.9125E-03    -16.6178E-03     33.3957E-03    -16.7778E-03     7.65497E-03     29.9409E+06     7.53930E+06    -83.1639E+06     18.2008E+06    -71.4238E+06     7.53930E+06    -34.2072E+06         22.7003
            1708     6.88487E-03     88.6296E-03         1.60599         1.40769        -4.79245         1.49731        -4.68377         1.40769     780.537E-03     33.6493E-03    -16.7205E-03    -16.9288E-03    -16.5488E-03     33.2694E-03    -16.7205E-03     8.72283E-03      31.753E+06     3.36743E+06    -87.3447E+06     17.6870E+06    -73.2787E+06     3.36743E+06    -38.3871E+06         22.8102
            1709     7.86822E-03     88.6374E-03         1.53034         1.41896        -4.73173         1.50497        -4.70635         1.41896     98.3776E-03     33.4886E-03    -16.6479E-03    -16.8407E-03    -16.4054E-03     33.0726E-03    -16.6672E-03     9.09544E-03     34.1133E+06     1.74190E+06    -88.3636E+06     18.2477E+06    -72.4980E+06     1.74190E+06    -40.9986E+06         22.9508
            1710     8.85253E-03     88.6458E-03         1.57758         1.42900        -4.79869         1.52454        -4.74565         1.42900    -249.445E-03     33.2473E-03    -16.5509E-03    -16.6964E-03    -16.1951E-03     32.7653E-03    -16.5702E-03     9.73813E-03     35.7798E+06    -6.28112E+06    -88.2936E+06     15.8919E+06    -68.4057E+06    -6.28112E+06    -45.2875E+06         23.1361
            1711     9.83711E-03     88.6551E-03         1.58419         1.43761        -4.82140         1.51936        -4.75657         1.43761        -1.27787     33.1795E-03    -16.4724E-03    -16.7071E-03    -16.0997E-03     32.5720E-03    -16.4724E-03     10.9183E-03     32.6078E+06    -16.8654E+06    -94.1062E+06     10.2215E+06    -71.7199E+06    -16.8654E+06    -48.2192E+06         23.4017
            1712     10.8209E-03     88.6657E-03         1.56964         1.44264        -4.81668         1.48391        -4.73095         1.44264        -1.44358     33.0002E-03    -16.3617E-03    -16.6385E-03    -15.9936E-03     32.3553E-03    -16.3617E-03     11.2321E-03     29.6382E+06    -29.1834E+06    -95.3476E+06     6.74423E+06    -72.4536E+06    -29.1834E+06    -48.2903E+06         23.8568
            1713     11.8062E-03     88.6753E-03         1.53201         1.43193        -4.77488         1.43719        -4.69131         1.44317        -1.41209     32.8757E-03    -16.2186E-03    -16.6571E-03    -15.8982E-03     32.1168E-03    -16.2186E-03     12.1004E-03     28.8066E+06    -46.3127E+06    -89.6732E+06     3.21484E+06    -64.0814E+06    -46.3127E+06    -48.5788E+06         24.8438
            1714     12.7897E-03     88.6876E-03         1.46698         1.42232        -4.70764         1.38676        -4.64432         1.43922        -1.23523     33.8085E-03    -16.0828E-03    -17.7257E-03    -15.8543E-03     31.9370E-03    -16.0828E-03     18.5769E-03     27.4867E+06    -61.4911E+06    -78.0007E+06    -1.20061E+06    -47.4469E+06    -63.3576E+06    -46.1251E+06         27.2896
            1715     13.7765E-03     88.7100E-03         1.43623         1.39640        -4.66689         1.34106        -4.60647         1.43115        -1.19480     35.5007E-03    -15.9756E-03    -19.5251E-03    -15.7172E-03     31.6928E-03    -15.9756E-03     27.6861E-03     25.3131E+06    -64.0404E+06    -82.0611E+06    -3.64353E+06    -35.0838E+06    -82.0611E+06    -41.7469E+06         33.1047
            1716     14.7596E-03     88.7446E-03         1.41860         1.34708        -4.62157         1.31863        -4.59312         1.41860    -785.724E-03     49.1408E-03    -15.9393E-03    -33.2015E-03    -17.6283E-03     33.5676E-03    -15.9393E-03     61.9808E-03     40.9152E+06    -42.8122E+06    -97.6112E+06    -6.21365E+06     4.31666E+06    -97.6112E+06    -36.4069E+06         44.6424
            1717     15.7421E-03     88.8379E-03         1.39120         1.30619        -4.57720         1.29959        -4.57060         1.39120    -200.978E-03     139.659E-03    -16.2964E-03    -123.363E-03    -33.1026E-03     49.3990E-03    -16.2964E-03     247.784E-03     81.5244E+06    -24.7585E+06    -78.5084E+06    -14.3271E+06     71.0930E+06    -78.5084E+06    -27.1765E+06         61.7687
            1718     16.7089E-03     89.2944E-03         1.34170         1.28050        -4.52905         1.29139        -4.52825         1.33000     135.677E-03     309.213E-03    -16.8048E-03    -292.409E-03    -66.2750E-03     83.0797E-03    -16.8048E-03     582.593E-03     128.146E+06     16.1323E+06    -26.4368E+06    -8.84873E+06     125.663E+06     1.02727E+06    -14.7849E+06         79.0221
            1719     983.171E-06     89.6339E-03         21.2766        -4.28386        -18.8177         7.00244        -4.54357        -4.28386         14.4183     34.0942E-03    -16.9240E-03    -17.1702E-03    -16.9610E-03     34.0802E-03    -17.1193E-03     1.50370E-03     37.9822E+06     33.3224E+06    -71.1943E+06     35.4450E+06    -70.1851E+06     34.8504E+06    -8.76583E+06         22.4251
            1720     1.96657E-03     89.6353E-03         7.90195         1.36380        -11.0641         1.37739        -4.53958         1.36380        -6.04305     33.8570E-03    -16.8502E-03    -17.0067E-03    -16.8400E-03     33.8133E-03    -16.9734E-03     2.82091E-03     36.8760E+06     33.6505E+06    -54.9581E+06     34.8795E+06    -52.9616E+06     33.6505E+06    -13.3562E+06         22.4516
            1721     2.95036E-03     89.6395E-03         4.06194         1.36832        -7.21264         1.37519        -4.52590         1.36832         2.34486     33.8388E-03    -16.8591E-03    -16.9797E-03    -16.8333E-03     33.7464E-03    -16.9131E-03     4.28296E-03     39.4732E+06     32.3964E+06    -54.8178E+06     35.2245E+06    -50.5692E+06     32.3964E+06    -18.9266E+06         22.4881
            1722     3.93377E-03     89.6436E-03         2.67471         1.36865        -5.82046         1.36233        -4.50807         1.36865        -1.08152     33.6417E-03    -16.7582E-03    -16.8835E-03    -16.6391E-03     33.4894E-03    -16.8503E-03     5.49525E-03     42.1680E+06     28.9579E+06    -59.1491E+06     34.6160E+06    -51.5972E+06     28.9579E+06    -26.3550E+06         22.5365
            1723     4.91767E-03     89.6490E-03         1.94174         1.36348        -5.07401         1.32072        -4.45299         1.36348         1.13805     33.5610E-03    -16.7383E-03    -16.8227E-03    -16.5605E-03     33.3437E-03    -16.7833E-03     6.58221E-03     43.4235E+06     25.8267E+06    -66.0196E+06     33.9566E+06    -56.5527E+06     25.8267E+06    -30.4942E+06         22.6015
            1724     5.90172E-03     89.6554E-03         1.53287         1.35309        -4.65663         1.28290        -4.40666         1.35309    -321.262E-03     33.5870E-03    -16.7260E-03    -16.8610E-03    -16.5598E-03     33.2858E-03    -16.7260E-03     7.73792E-03     45.7317E+06     23.4447E+06    -70.4978E+06     34.0737E+06    -58.8398E+06     23.4447E+06    -34.6037E+06         22.6863
            1725     6.88532E-03     89.6626E-03         1.41336         1.34402        -4.53049         1.30524        -4.42237         1.34402     643.026E-03     33.4430E-03    -16.6359E-03    -16.8071E-03    -16.3932E-03     33.0519E-03    -16.6587E-03     8.81790E-03     45.7292E+06     17.3757E+06    -77.7285E+06     32.0445E+06    -64.0437E+06     17.3757E+06    -38.6288E+06         22.7942
            1726     7.86991E-03     89.6709E-03         1.38685         1.34177        -4.50574         1.35949        -4.47838         1.34177    -10.6039E-03     33.3136E-03    -16.5501E-03    -16.7635E-03    -16.2800E-03     32.8529E-03    -16.5729E-03     9.55264E-03     45.5988E+06     10.3830E+06    -79.9315E+06     29.0673E+06    -63.3999E+06     10.3830E+06    -42.2300E+06         22.9326
            1727     8.85357E-03     89.6787E-03         1.43060         1.34398        -4.56130         1.37600        -4.50669         1.34398    -307.065E-03     33.2200E-03    -16.4943E-03    -16.7257E-03    -16.2028E-03     32.6971E-03    -16.4943E-03     10.1622E-03     43.8506E+06     4.95300E+06    -78.3077E+06     26.0201E+06    -60.4773E+06     4.95300E+06    -43.0531E+06         23.1154
            1728     9.83774E-03     89.6878E-03         1.41704         1.33450        -4.54677         1.33641        -4.47618         1.34454        -1.28330     33.1061E-03    -16.4037E-03    -16.7023E-03    -16.0339E-03     32.4376E-03    -16.4037E-03     11.4137E-03     39.8185E+06    -5.18862E+06    -82.9499E+06     20.6227E+06    -63.7540E+06    -5.18862E+06    -44.3916E+06         23.3769
            1729     10.8225E-03     89.6983E-03         1.37055         1.31847        -4.49066         1.25655        -4.39758         1.33940        -1.43278     32.9860E-03    -16.2668E-03    -16.7193E-03    -16.0181E-03     32.2848E-03    -16.2668E-03     11.6969E-03     37.4989E+06    -24.3295E+06    -87.9865E+06     14.5220E+06    -65.0096E+06    -24.3295E+06    -48.4693E+06         23.8233
            1730     11.8063E-03     89.7074E-03         1.34184         1.27366        -4.42431         1.19541        -4.33316         1.32895        -1.39990     32.8815E-03    -16.1547E-03    -16.7268E-03    -15.9502E-03     32.1048E-03    -16.1547E-03     12.2443E-03     34.5327E+06    -38.9534E+06    -85.9359E+06     10.5667E+06    -61.9698E+06    -38.9534E+06    -48.0251E+06         24.7888
            1731     12.7921E-03     89.7198E-03         1.31668         1.25402        -4.38643         1.18700        -4.31941         1.31668        -1.21514     34.3121E-03    -16.0439E-03    -18.2682E-03    -16.2803E-03     32.3242E-03    -16.0439E-03     19.3316E-03     34.1908E+06    -53.8292E+06    -74.4122E+06     6.12190E+06    -44.8771E+06    -55.2954E+06    -46.5456E+06         27.1895
            1732     13.7730E-03     89.7439E-03         1.30478         1.25121        -4.38484         1.18952        -4.32315         1.30478        -1.16005     36.2279E-03    -15.9582E-03    -20.2697E-03    -16.4832E-03     32.4413E-03    -15.9582E-03     28.0713E-03     29.6942E+06    -65.6285E+06    -80.8782E+06     877.806E+03    -37.1792E+06    -80.5111E+06    -43.7774E+06         32.9435
            1733     14.7602E-03     89.7746E-03         1.29107         1.21336        -4.35372         1.18512        -4.32548         1.29107    -757.270E-03     53.7108E-03    -16.0016E-03    -37.7092E-03    -19.7356E-03     35.7373E-03    -16.0016E-03     69.6232E-03     39.1544E+06    -47.2610E+06    -98.8753E+06    -6.65869E+06    -1.44788E+06    -98.8753E+06    -36.4640E+06         44.4431
            1734     15.7336E-03     89.8877E-03         1.26456         1.20128        -4.33982         1.19438        -4.33292         1.26456    -184.027E-03     144.912E-03    -16.1000E-03    -128.812E-03    -27.1085E-03     43.2085E-03    -16.1000E-03     261.323E-03     73.9496E+06    -19.1198E+06    -91.7071E+06    -7.91651E+06     62.7463E+06    -91.7071E+06    -26.3812E+06         61.7356
            1735     16.7365E-03     90.3219E-03         1.25382         1.18777        -4.34114         1.23219        -4.34039         1.20864     119.794E-03     309.550E-03    -16.3674E-03    -293.182E-03    -64.3138E-03     80.6812E-03    -16.3674E-03     584.062E-03     112.646E+06     31.2915E+06    -38.1199E+06     300.764E+03     108.614E+06    -3.09795E+06    -16.5309E+06         79.2072
            1736     983.085E-06     90.6671E-03         20.7791        -4.06603        -18.5405         6.73123        -4.49263        -4.06603         14.1855     33.9747E-03    -16.8257E-03    -17.1490E-03    -17.0448E-03     33.9568E-03    -16.9119E-03     1.57846E-03     50.4559E+06     46.5015E+06    -54.7166E+06     47.6382E+06    -53.8499E+06     48.4525E+06    -8.89272E+06         22.4083
            1737     1.96704E-03     90.6699E-03         7.71115         1.33827        -10.8576         1.36361        -4.51003         1.33827        -5.97249     33.7903E-03    -16.7728E-03    -17.0175E-03    -16.8156E-03     33.7378E-03    -16.9222E-03     3.20360E-03     50.8766E+06     46.2688E+06    -41.8372E+06     48.1589E+06    -39.5424E+06     46.6917E+06    -13.5781E+06         22.4329
            1738     2.95032E-03     90.6730E-03         3.96673         1.34254        -7.08219         1.33102        -4.44648         1.34254         2.18950     33.4997E-03    -16.6779E-03    -16.8218E-03    -16.5759E-03     33.3977E-03    -16.8218E-03     4.45745E-03     53.9305E+06     42.9993E+06    -40.7345E+06     48.5568E+06    -35.3607E+06     42.9993E+06    -21.4355E+06         22.4678
            1739     3.93458E-03     90.6774E-03         2.57663         1.33339        -5.67965         1.27749        -4.38051         1.33339        -1.19376     33.3873E-03    -16.6479E-03    -16.7394E-03    -16.4847E-03     33.2241E-03    -16.7394E-03     5.67881E-03     56.0658E+06     42.2933E+06    -46.4335E+06     48.7007E+06    -39.0685E+06     42.2933E+06    -26.4443E+06         22.5153
            1740     4.91838E-03     90.6824E-03         1.81484         1.31533        -4.88983         1.20811        -4.28311         1.31533         1.00645     33.3778E-03    -16.6569E-03    -16.7209E-03    -16.4664E-03     33.1341E-03    -16.6677E-03     6.92714E-03     57.6839E+06     39.0598E+06    -53.7867E+06     47.6222E+06    -43.7250E+06     39.0598E+06    -31.6301E+06         22.5792
            1741     5.90215E-03     90.6888E-03         1.41507         1.29288        -4.46929         1.15726        -4.21148         1.29288    -370.262E-03     33.3163E-03    -16.6010E-03    -16.7153E-03    -16.3848E-03     32.9858E-03    -16.6010E-03     8.08333E-03     58.7151E+06     34.4459E+06    -60.6635E+06     46.5396E+06    -48.4880E+06     34.4459E+06    -36.0691E+06         22.6625
            1742     6.88646E-03     90.6959E-03         1.29496         1.25380        -4.31051         1.16754        -4.20282         1.27352     600.927E-03     33.2058E-03    -16.5186E-03    -16.6871E-03    -16.2596E-03     32.8010E-03    -16.5414E-03     8.93126E-03     59.2840E+06     31.4277E+06    -67.1628E+06     46.2921E+06    -54.1709E+06     31.4277E+06    -38.3149E+06         22.7687
            1743     7.87056E-03     90.7032E-03         1.27574         1.22553        -4.26446         1.21083        -4.23621         1.26219    -29.9277E-03     33.0141E-03    -16.4182E-03    -16.5959E-03    -16.0954E-03     32.5365E-03    -16.4410E-03     9.67635E-03     60.0708E+06     23.0802E+06    -69.2272E+06     44.6026E+06    -53.7591E+06     23.0802E+06    -41.8248E+06         22.9051
            1744     8.85533E-03     90.7122E-03         1.28422         1.22413        -4.28036         1.19484        -4.22180         1.25496    -326.257E-03     32.9406E-03    -16.3583E-03    -16.5823E-03    -16.0312E-03     32.3896E-03    -16.3583E-03     10.3809E-03     56.7997E+06     16.3505E+06    -73.1191E+06     41.2563E+06    -57.5757E+06     16.3505E+06    -42.0243E+06         23.0861
            1745     9.83961E-03     90.7198E-03         1.26210         1.18297        -4.22514         1.12200        -4.14669         1.24462        -1.29013     32.9664E-03    -16.2714E-03    -16.6951E-03    -15.9789E-03     32.2502E-03    -16.2714E-03     11.7915E-03     54.8496E+06     9.59845E+06    -71.0105E+06     38.5678E+06    -54.7287E+06     9.59845E+06    -42.0740E+06         23.3450
            1746     10.8240E-03     90.7310E-03         1.22903         1.14813        -4.16597         1.04393        -4.06176         1.22903        -1.44448     32.9229E-03    -16.1395E-03    -16.7834E-03    -15.9809E-03     32.1204E-03    -16.1395E-03     12.5090E-03     51.7939E+06    -9.71804E+06    -75.6974E+06     32.8965E+06    -56.8000E+06    -9.71804E+06    -44.8501E+06         23.7846
            1747     11.8084E-03     90.7401E-03         1.21102         1.11262        -4.11897         1.00930        -4.01566         1.21102        -1.42772     33.0368E-03    -16.0186E-03    -17.0182E-03    -16.1009E-03     32.1195E-03    -16.0186E-03     13.3397E-03     44.1465E+06    -31.7521E+06    -80.4320E+06     23.3499E+06    -59.6355E+06    -31.7521E+06    -45.9280E+06         24.7296
            1748     12.7917E-03     90.7518E-03         1.19433         1.09966        -4.09626         1.02433        -4.02094         1.19433        -1.23756     34.4414E-03    -15.9205E-03    -18.5209E-03    -16.0384E-03     31.9589E-03    -15.9205E-03     21.4052E-03     40.8704E+06    -46.9457E+06    -66.2289E+06     15.7920E+06    -41.1506E+06    -46.9457E+06    -44.8444E+06         27.0839
            1749     13.7784E-03     90.7784E-03         1.18044         1.11879        -4.11408         1.05274        -4.04803         1.18044        -1.15264     36.8518E-03    -15.8341E-03    -21.0177E-03    -16.3992E-03     32.2333E-03    -15.8341E-03     31.2337E-03     31.7202E+06    -63.7226E+06    -74.6261E+06     7.63985E+06    -40.3738E+06    -73.8946E+06    -41.2280E+06         32.7712
            1750     14.7588E-03     90.8068E-03         1.16664         1.10054        -4.10171         1.07094        -4.07211         1.16664    -751.132E-03     55.5517E-03    -15.7247E-03    -39.8269E-03    -16.5729E-03     32.2977E-03    -15.7247E-03     77.5089E-03     40.4464E+06    -46.2202E+06    -100.832E+06     499.643E+03    -6.27345E+06    -100.832E+06    -35.3266E+06         44.2696
            1751     15.7498E-03     90.9286E-03         1.15701         1.10643        -4.12504         1.11340        -4.11775         1.14275    -205.613E-03     140.160E-03    -15.6045E-03    -124.556E-03    -22.4199E-03     38.0244E-03    -15.6045E-03     256.350E-03     74.8009E+06    -17.0995E+06    -97.1243E+06    -658.773E+03     58.3602E+06    -97.1243E+06    -34.7406E+06         61.6890
            1752     16.7537E-03     91.3235E-03         1.19860         1.09050        -4.17062         1.19569        -4.17018         1.09297     81.4790E-03     309.266E-03    -15.9830E-03    -293.283E-03    -69.8113E-03     85.7942E-03    -15.9830E-03     580.963E-03     98.5371E+06     31.7839E+06    -48.2633E+06    -3.89567E+06     89.7549E+06    -3.80155E+06    -26.4305E+06         79.3242
            1753     984.456E-06     91.7021E-03         19.8576        -3.71742        -17.9529         6.34574        -4.44104        -3.71742         13.6704     33.3938E-03    -16.5400E-03    -16.8538E-03    -16.8337E-03     33.3737E-03    -16.5400E-03     1.86529E-03     69.0146E+06     61.4359E+06    -38.7002E+06     64.0157E+06    -37.7862E+06     65.5206E+06    -7.88392E+06         22.3767
            1754     1.96696E-03     91.7037E-03         7.36295         1.30275        -10.4648         1.26597        -4.36785         1.30275        -5.73016     33.3754E-03    -16.5886E-03    -16.7868E-03    -16.6717E-03     33.3166E-03    -16.6449E-03     3.28142E-03     69.0944E+06     60.6633E+06    -26.3718E+06     65.7805E+06    -23.4809E+06     61.0863E+06    -15.3508E+06         22.4004
            1755     2.95147E-03     91.7064E-03         3.77130         1.28039        -6.81357         1.20261        -4.24488         1.28039         2.09001     33.1647E-03    -16.4994E-03    -16.6652E-03    -16.4620E-03     33.0513E-03    -16.5893E-03     4.69653E-03     69.9445E+06     56.5934E+06    -25.6466E+06     64.3357E+06    -20.0378E+06     56.5934E+06    -22.3131E+06         22.4348
            1756     3.93529E-03     91.7106E-03         2.44570         1.25723        -5.45620         1.17835        -4.18885         1.25723        -1.16340     33.0487E-03    -16.4819E-03    -16.5667E-03    -16.3394E-03     32.8720E-03    -16.5326E-03     5.86628E-03     71.2657E+06     55.1365E+06    -34.5351E+06     63.2340E+06    -26.5035E+06     55.1365E+06    -27.9451E+06         22.4813
            1757     4.91948E-03     91.7157E-03         1.72714         1.23731        -4.70949         1.14116        -4.12351         1.23731     975.410E-03     32.9606E-03    -16.4475E-03    -16.5131E-03    -16.2239E-03     32.6885E-03    -16.4646E-03     7.27010E-03     72.8474E+06     52.5124E+06    -41.4873E+06     62.7541E+06    -31.3940E+06     52.5124E+06    -32.2576E+06         22.5433
            1758     5.90387E-03     91.7219E-03         1.36533         1.21893        -4.32628         1.11961        -4.08056         1.21893    -344.472E-03     32.9233E-03    -16.3935E-03    -16.5298E-03    -16.1602E-03     32.5537E-03    -16.3935E-03     8.50484E-03     71.6476E+06     47.1783E+06    -50.4192E+06     60.0835E+06    -38.8552E+06     47.1783E+06    -35.6255E+06         22.6245
            1759     6.88808E-03     91.7285E-03         1.23150         1.14297        -4.11721         1.06807        -4.01148         1.20067     569.091E-03     32.8679E-03    -16.3128E-03    -16.5552E-03    -16.0880E-03     32.4008E-03    -16.3128E-03     9.53769E-03     72.5577E+06     39.9740E+06    -57.5209E+06     58.0231E+06    -42.9863E+06     39.9740E+06    -40.8035E+06         22.7291
            1760     7.87238E-03     91.7364E-03         1.18051         1.04706        -3.96932         1.01893        -3.94118         1.18051    -65.7436E-03     32.7198E-03    -16.2311E-03    -16.4887E-03    -15.9424E-03     32.1735E-03    -16.2311E-03     10.2981E-03     72.1459E+06     33.1976E+06    -62.0549E+06     57.0907E+06    -46.9997E+06     33.1976E+06    -42.1487E+06         22.8643
            1761     8.85696E-03     91.7434E-03         1.15910         1.03000        -3.93842     968.898E-03        -3.87732         1.15910    -353.424E-03     32.6273E-03    -16.1560E-03    -16.4713E-03    -15.8319E-03     31.9879E-03    -16.1560E-03     11.0979E-03     70.2400E+06     27.7387E+06    -66.9396E+06     55.5450E+06    -52.2446E+06     27.7387E+06    -42.2545E+06         23.0442
            1762     9.84186E-03     91.7532E-03         1.13634     995.831E-03        -3.89099     911.125E-03        -3.80629         1.13634        -1.27109     32.6664E-03    -16.0679E-03    -16.5985E-03    -15.8079E-03     31.8758E-03    -16.0679E-03     12.3510E-03     70.9953E+06     21.9019E+06    -64.2398E+06     54.9345E+06    -48.1790E+06     21.9019E+06    -43.6289E+06         23.3021
            1763     10.8266E-03     91.7623E-03         1.11304     981.095E-03        -3.86116     871.982E-03        -3.75204         1.11304        -1.41428     32.5639E-03    -15.9707E-03    -16.5932E-03    -15.7074E-03     31.6780E-03    -15.9707E-03     13.0748E-03     66.0389E+06     9.63171E+06    -68.4795E+06     51.9070E+06    -54.3476E+06     9.63171E+06    -41.0224E+06         23.7367
            1764     11.8115E-03     91.7728E-03         1.09185     981.389E-03        -3.84793     874.577E-03        -3.74112         1.09185        -1.39417     32.7348E-03    -15.8408E-03    -16.8940E-03    -15.7809E-03     31.6217E-03    -15.8408E-03     14.6302E-03     57.8460E+06    -10.7799E+06    -68.3234E+06     43.4380E+06    -53.9154E+06    -10.7799E+06    -39.4595E+06         24.6633
            1765     12.7965E-03     91.7842E-03         1.07420     972.425E-03        -3.82698     894.454E-03        -3.74901         1.07420        -1.21012     33.9133E-03    -15.7106E-03    -18.2028E-03    -15.5207E-03     31.2313E-03    -15.7106E-03     22.2448E-03     52.2476E+06    -30.1241E+06    -57.1902E+06     32.8143E+06    -37.7569E+06    -30.1241E+06    -40.8669E+06         26.9720
            1766     13.7809E-03     91.8084E-03         1.05964     989.400E-03        -3.84110     920.964E-03        -3.77266         1.05964        -1.12691     36.2565E-03    -15.5731E-03    -20.6833E-03    -15.2254E-03     30.7985E-03    -15.5731E-03     33.2497E-03     42.5739E+06    -54.4595E+06    -65.7241E+06     24.5340E+06    -42.6313E+06    -59.5124E+06    -38.2646E+06         32.5954
            1767     14.7685E-03     91.8426E-03         1.04754         1.00151        -3.86178     971.576E-03        -3.83089         1.04659    -742.139E-03     51.2854E-03    -15.3135E-03    -35.9718E-03    -13.1953E-03     28.5089E-03    -15.3135E-03     73.1893E-03     48.7678E+06    -40.4646E+06    -91.4148E+06     16.7117E+06    -8.40846E+06    -91.4148E+06    -34.4214E+06         44.1138
            1768     15.7635E-03     91.9434E-03         1.07759         1.01539        -3.92934         1.05919        -3.92190         1.02635    -239.268E-03     140.160E-03    -15.3132E-03    -124.847E-03    -29.2232E-03     44.5364E-03    -15.3132E-03     254.250E-03     80.8071E+06    -10.3897E+06    -90.1587E+06     7.43354E+06     62.9839E+06    -90.1587E+06    -34.0523E+06         61.6134
            1769     16.7259E-03     92.3717E-03         1.16634     984.317E-03        -3.99860         1.16621        -3.99847     984.317E-03     50.1711E-03     306.966E-03    -16.0367E-03    -290.929E-03    -71.5251E-03     87.5618E-03    -16.0367E-03     576.049E-03     90.4944E+06     29.6941E+06    -40.8699E+06     24.2812E+03     80.4332E+06    -1.13887E+06    -22.1228E+06         79.4306
            1770     983.428E-06     92.7358E-03         18.5252        -3.35058        -16.9997         5.86701        -4.34154        -3.35058         12.8932     32.5815E-03    -16.1316E-03    -16.4499E-03    -16.2360E-03     32.5582E-03    -16.3222E-03     2.06740E-03     82.6381E+06     71.6997E+06    -23.6473E+06     77.8413E+06    -22.5370E+06     75.3862E+06    -6.54078E+06         22.3250
            1771     1.96890E-03     92.7365E-03         6.87027         1.24350        -9.89669         1.18154        -4.20797         1.24350        -5.31765     32.5552E-03    -16.2195E-03    -16.3357E-03    -16.2680E-03     32.4929E-03    -16.2249E-03     3.34332E-03     79.5544E+06     70.3618E+06    -9.05805E+06     75.7107E+06    -5.23910E+06     70.3866E+06    -17.4314E+06         22.3493
            1772     2.95233E-03     92.7401E-03         3.48779         1.20446        -6.43740         1.06447        -4.01408         1.20446         2.03480     32.5856E-03    -16.2058E-03    -16.3798E-03    -16.2532E-03     32.4590E-03    -16.2058E-03     4.90472E-03     80.6502E+06     65.7998E+06    -11.8554E+06     74.3078E+06    -5.51305E+06     65.7998E+06    -23.2047E+06         22.3836
            1773     3.93652E-03     92.7434E-03         2.26703         1.16984        -5.16797         1.08207        -3.98300         1.16984        -1.02057     32.4817E-03    -16.1672E-03    -16.3145E-03    -16.0926E-03     32.2759E-03    -16.1833E-03     6.26460E-03     82.8418E+06     63.5963E+06    -20.6982E+06     73.3185E+06    -11.1749E+06     63.5963E+06    -29.6317E+06         22.4288
            1774     4.92113E-03     92.7483E-03         1.62450         1.15058        -4.49416         1.07178        -3.94145         1.15058     965.252E-03     32.3883E-03    -16.1215E-03    -16.2668E-03    -15.9405E-03     32.0781E-03    -16.1376E-03     7.69943E-03     84.3339E+06     60.9170E+06    -33.0051E+06     73.2275E+06    -21.8987E+06     60.9170E+06    -34.1683E+06         22.4887
            1775     5.90568E-03     92.7543E-03         1.25810         1.12269        -4.09692         1.02501        -3.87430         1.13316    -330.951E-03     32.3632E-03    -16.0788E-03    -16.2844E-03    -15.8644E-03     31.9432E-03    -16.0788E-03     8.97065E-03     86.2571E+06     58.9015E+06    -39.5823E+06     74.0439E+06    -27.3691E+06     58.9015E+06    -37.0408E+06         22.5679
            1776     6.89033E-03     92.7611E-03         1.12828         1.01696        -3.85866     934.083E-03        -3.75838         1.11087     470.405E-03     32.2616E-03    -16.0022E-03    -16.2593E-03    -15.7380E-03     31.7402E-03    -16.0022E-03     9.98428E-03     87.2439E+06     53.2954E+06    -46.1106E+06     72.6484E+06    -31.5151E+06     53.2954E+06    -41.3329E+06         22.6709
            1777     7.87538E-03     92.7680E-03         1.08280     875.910E-03        -3.67230     847.836E-03        -3.64422         1.08280    -150.174E-03     32.2002E-03    -15.9225E-03    -16.2776E-03    -15.6477E-03     31.5702E-03    -15.9225E-03     10.9586E-03     83.5854E+06     44.6351E+06    -57.1185E+06     69.1812E+06    -42.7142E+06     44.6351E+06    -42.3691E+06         22.8052
            1778     8.86009E-03     92.7760E-03         1.05243     846.473E-03        -3.62010     785.668E-03        -3.55929         1.05243    -404.253E-03     32.2804E-03    -15.8396E-03    -16.4408E-03    -15.6697E-03     31.5092E-03    -15.8396E-03     12.1304E-03     81.3234E+06     36.9262E+06    -58.8163E+06     66.3115E+06    -43.8045E+06     36.9262E+06    -43.1701E+06         22.9852
            1779     9.84475E-03     92.7843E-03         1.02371     851.961E-03        -3.60818     765.136E-03        -3.52135         1.02371        -1.22601     32.3132E-03    -15.7749E-03    -16.5383E-03    -15.6085E-03     31.3834E-03    -15.7749E-03     13.3231E-03     76.4637E+06     30.2222E+06    -60.2763E+06     61.0909E+06    -44.9035E+06     30.2222E+06    -43.1181E+06         23.2434
            1780     10.8299E-03     92.7945E-03     998.869E-03     864.286E-03        -3.60416     759.525E-03        -3.49940     998.869E-03        -1.33257     32.2200E-03    -15.7073E-03    -16.5127E-03    -15.5348E-03     31.2421E-03    -15.7073E-03     13.6536E-03     69.3435E+06     19.9806E+06    -67.4219E+06     56.3133E+06    -54.3917E+06     19.9806E+06    -40.0638E+06         23.6754
            1781     11.8151E-03     92.8032E-03     977.752E-03     860.466E-03        -3.58583     758.757E-03        -3.48412     977.752E-03        -1.30547     32.2283E-03    -15.6033E-03    -16.6250E-03    -15.4428E-03     31.0461E-03    -15.6033E-03     14.9406E-03     67.1069E+06     7.05078E+06    -62.2545E+06     54.9964E+06    -50.1440E+06     7.05078E+06    -37.6039E+06         24.5881
            1782     12.8004E-03     92.8166E-03     959.918E-03     848.879E-03        -3.56170     773.799E-03        -3.48662     959.918E-03        -1.13764     33.2752E-03    -15.5051E-03    -17.7701E-03    -15.3025E-03     30.8076E-03    -15.5051E-03     21.3914E-03     65.5642E+06    -3.66409E+06    -47.0277E+06     51.5363E+06    -32.9999E+06    -3.66409E+06    -36.8887E+06         26.8590
            1783     13.7870E-03     92.8381E-03     945.510E-03     877.748E-03        -3.58716     810.991E-03        -3.52040     945.510E-03        -1.07012     34.8948E-03    -15.3455E-03    -19.5493E-03    -14.5493E-03     29.8948E-03    -15.3455E-03     31.0299E-03     55.1905E+06    -34.9947E+06    -59.2823E+06     42.6715E+06    -44.7485E+06    -37.0094E+06    -34.6325E+06         32.4328
            1784     14.7734E-03     92.8719E-03     950.279E-03     905.658E-03        -3.64032     890.943E-03        -3.60965     934.322E-03    -716.388E-03     48.1353E-03    -15.0991E-03    -33.0362E-03    -14.8107E-03     29.9098E-03    -15.0991E-03     65.5409E-03     60.9228E+06    -27.2463E+06    -82.5478E+06     33.6603E+06    -6.07252E+06    -76.4592E+06    -32.3710E+06         43.9555
            1785     15.7613E-03     92.9647E-03         1.01881     918.305E-03        -3.74064         1.01129        -3.73313     918.305E-03    -241.347E-03     148.060E-03    -15.1598E-03    -132.900E-03    -32.1644E-03     47.3242E-03    -15.1598E-03     268.046E-03     72.9183E+06     6.07560E+06    -80.7031E+06     19.5712E+06     59.4227E+06    -80.7031E+06    -22.8829E+06         61.6417
            1786     16.7343E-03     93.4558E-03         1.12621     884.227E-03        -3.82139         1.12614        -3.82132     884.227E-03     33.8359E-03     308.521E-03    -15.8942E-03    -292.626E-03    -68.9472E-03     84.8414E-03    -15.8942E-03     580.704E-03     86.0136E+06     41.2863E+06    -32.9114E+06     9.39490E+06     71.0853E+06     13.9083E+06    -5.20892E+06         79.7581
            1787     985.400E-06     93.7669E-03         16.9519        -3.01567        -15.7275         5.30879        -4.08440        -3.01567         11.9072     31.6524E-03    -15.6838E-03    -15.9686E-03    -15.7513E-03     31.6256E-03    -15.8743E-03     2.08614E-03     91.9835E+06     84.0836E+06    -7.23755E+06     89.5168E+06    -5.70628E+06     85.0191E+06    -9.67837E+06         22.2505
            1788     1.96887E-03     93.7699E-03         6.28137         1.13948        -9.18437         1.10794        -4.01093         1.13948        -4.86195     31.6233E-03    -15.7512E-03    -15.8721E-03    -15.7842E-03     31.5562E-03    -15.7719E-03     3.51203E-03     91.2441E+06     84.6202E+06     8.68971E+06     87.1806E+06     12.7284E+06     84.6450E+06    -17.2226E+06         22.2747
            1789     2.95400E-03     93.7718E-03         3.18811         1.11187        -6.01351     995.349E-03        -3.82076         1.11187         1.89443     31.5779E-03    -15.7168E-03    -15.8611E-03    -15.7061E-03     31.4383E-03    -15.7322E-03     5.04283E-03     93.5935E+06     78.1846E+06     2.26810E+06     85.9878E+06     9.87379E+06     78.1846E+06    -25.1570E+06         22.3081
            1790     3.93889E-03     93.7760E-03         2.04750         1.07928        -4.82794     976.807E-03        -3.75725         1.07928    -924.770E-03     31.5811E-03    -15.6838E-03    -15.8972E-03    -15.6551E-03     31.3389E-03    -15.6838E-03     6.71953E-03     94.4099E+06     71.6627E+06    -7.06990E+06     84.1097E+06     3.23029E+06     71.6627E+06    -30.5466E+06         22.3519
            1791     4.92334E-03     93.7801E-03         1.43604         1.05314        -4.17622     924.567E-03        -3.66475         1.05314     874.451E-03     31.6538E-03    -15.6599E-03    -15.9939E-03    -15.6244E-03     31.2843E-03    -15.6599E-03     8.30327E-03     94.3766E+06     68.1086E+06    -21.6690E+06     81.8137E+06    -9.10606E+06     68.1086E+06    -35.9115E+06         22.4102
            1792     5.90833E-03     93.7862E-03         1.09543     986.066E-03        -3.76310     849.310E-03        -3.55591         1.02499    -341.483E-03     31.5634E-03    -15.6007E-03    -15.9627E-03    -15.4497E-03     31.0504E-03    -15.6007E-03     9.78210E-03     95.5423E+06     61.5229E+06    -31.1904E+06     80.8119E+06    -16.4600E+06     61.5229E+06    -40.5035E+06         22.4872
            1793     6.89346E-03     93.7926E-03     993.781E-03     866.877E-03        -3.53768     773.097E-03        -3.44390     993.781E-03     372.264E-03     31.4727E-03    -15.5432E-03    -15.9295E-03    -15.3106E-03     30.8538E-03    -15.5432E-03     10.7322E-03     93.7045E+06     57.7836E+06    -38.3816E+06     79.4076E+06    -24.0847E+06     57.7836E+06    -40.8496E+06         22.5887
            1794     7.87861E-03     93.7993E-03     963.202E-03     768.244E-03        -3.41018     740.443E-03        -3.38238     963.202E-03    -199.809E-03     31.5247E-03    -15.4811E-03    -16.0436E-03    -15.2983E-03     30.7795E-03    -15.4811E-03     11.7723E-03     89.7283E+06     51.0729E+06    -49.5374E+06     75.9571E+06    -35.7661E+06     51.0729E+06    -41.5038E+06         22.7228
            1795     8.86409E-03     93.8072E-03     935.959E-03     771.244E-03        -3.39599     713.255E-03        -3.33800     935.959E-03    -427.482E-03     31.6384E-03    -15.4071E-03    -16.2313E-03    -15.3328E-03     30.7399E-03    -15.4071E-03     12.9734E-03     82.8710E+06     41.2089E+06    -52.6107E+06     69.3659E+06    -39.1057E+06     41.2089E+06    -40.5375E+06         22.9037
            1796     9.84930E-03     93.8159E-03     911.461E-03     773.994E-03        -3.38619     688.511E-03        -3.30070     911.461E-03        -1.17432     31.8184E-03    -15.3751E-03    -16.4433E-03    -15.3813E-03     30.7564E-03    -15.3751E-03     14.1391E-03     73.5586E+06     36.0592E+06    -55.0248E+06     61.0749E+06    -42.5411E+06     36.0592E+06    -38.0061E+06         23.1635
            1797     10.8343E-03     93.8253E-03     888.956E-03     765.972E-03        -3.36610     661.161E-03        -3.26129     888.956E-03        -1.27715     32.0594E-03    -15.3190E-03    -16.7404E-03    -15.5980E-03     30.9170E-03    -15.3190E-03     14.7378E-03     67.9312E+06     22.2233E+06    -62.6092E+06     54.7573E+06    -49.4353E+06     22.2233E+06    -39.2365E+06         23.5959
            1798     11.8188E-03     93.8350E-03     868.498E-03     756.523E-03        -3.34075     651.814E-03        -3.23604     868.498E-03        -1.27113     32.2174E-03    -15.2570E-03    -16.9604E-03    -15.7030E-03     30.9600E-03    -15.2570E-03     15.4828E-03     64.7773E+06     6.35644E+06    -62.9040E+06     50.7048E+06    -48.8315E+06     6.35644E+06    -39.8661E+06         24.4999
            1799     12.8042E-03     93.8466E-03     851.386E-03     758.585E-03        -3.33076     679.734E-03        -3.25191     851.386E-03        -1.12075     33.3153E-03    -15.2501E-03    -18.0651E-03    -15.6227E-03     30.8728E-03    -15.2501E-03     21.3655E-03     62.0954E+06     3.49152E+06    -45.9991E+06     47.7829E+06    -31.6866E+06     3.49152E+06    -36.4365E+06         26.7442
            1800     13.7882E-03     93.8702E-03     850.478E-03     804.527E-03        -3.38848     747.325E-03        -3.32008     839.280E-03        -1.04746     34.6084E-03    -15.1865E-03    -19.4219E-03    -15.3039E-03     30.4904E-03    -15.1865E-03     28.5172E-03     53.8788E+06    -23.4279E+06    -58.7099E+06     43.5170E+06    -48.3481E+06    -23.4279E+06    -30.9032E+06         32.2862
            1801     14.7760E-03     93.8980E-03     889.424E-03     821.312E-03        -3.46406     847.128E-03        -3.43243     831.982E-03    -713.762E-03     50.7910E-03    -15.0487E-03    -35.7423E-03    -17.7899E-03     32.8386E-03    -15.0487E-03     67.4518E-03     67.5419E+06    -21.1294E+06    -80.7534E+06     33.0546E+06    -1.52035E+06    -65.8751E+06    -28.3035E+06         43.8173
            1802     15.7531E-03     94.0070E-03     971.257E-03     821.140E-03        -3.56782     962.790E-03        -3.55935     821.140E-03    -267.679E-03     147.786E-03    -14.9709E-03    -132.815E-03    -23.4754E-03     38.4464E-03    -14.9709E-03     270.628E-03     59.3747E+06     1.85948E+06    -70.0430E+06     19.3738E+06     41.8603E+06    -70.0430E+06    -13.1362E+06         61.7723
            1803     16.7691E-03     94.4718E-03         1.08120     793.463E-03        -3.65723         1.08115        -3.65718     793.463E-03    -344.219E-06     315.140E-03    -15.4638E-03    -299.676E-03    -71.4287E-03     86.8924E-03    -15.4638E-03     591.514E-03     84.5908E+06     47.7386E+06    -29.7586E+06     8.00391E+06     55.7938E+06     38.7731E+06     5.32285E+06         80.2350
            1804     984.473E-06     94.7992E-03         15.1858        -2.68317        -14.2296         4.65705        -3.70086        -2.68317         10.7433     30.5775E-03    -15.1169E-03    -15.4606E-03    -15.3911E-03     30.5479E-03    -15.1568E-03     2.17745E-03     103.716E+06     99.0575E+06     10.1896E+06     99.3980E+06     11.8665E+06     101.699E+06    -10.7055E+06         22.1484
            1805     1.97067E-03     94.8007E-03         5.61156     987.091E-03        -8.31138     994.273E-03        -3.69410     987.091E-03        -4.41242     30.3568E-03    -15.1296E-03    -15.2272E-03    -15.0895E-03     30.2743E-03    -15.1848E-03     3.77024E-03     105.349E+06     95.2095E+06     27.0914E+06     100.485E+06     31.9549E+06     95.2095E+06    -17.8424E+06         22.1718
            1806     2.95568E-03     94.8035E-03         2.85827     978.047E-03        -5.50659     915.523E-03        -3.56385     978.047E-03         1.63376     30.2775E-03    -15.0931E-03    -15.1844E-03    -15.0017E-03     30.1102E-03    -15.1085E-03     5.42532E-03     106.236E+06     89.5767E+06     18.9979E+06     98.0553E+06     27.1789E+06     89.5767E+06    -25.2382E+06         22.2038
            1807     3.94105E-03     94.8066E-03         1.81663     955.906E-03        -4.43277     866.382E-03        -3.48253     955.906E-03    -905.324E-03     30.3269E-03    -15.0367E-03    -15.2902E-03    -14.9869E-03     30.0236E-03    -15.0367E-03     7.30678E-03     104.492E+06     79.7942E+06     4.37040E+06     93.8426E+06     15.0196E+06     79.7942E+06    -30.6148E+06         22.2459
            1808     4.92677E-03     94.8117E-03         1.20488     926.543E-03        -3.77987     751.409E-03        -3.32640     926.543E-03     747.807E-03     30.4269E-03    -14.9782E-03    -15.4488E-03    -14.9745E-03     29.9527E-03    -14.9782E-03     9.20649E-03     104.234E+06     71.3126E+06    -7.37987E+06     90.5896E+06     6.26447E+06     71.3126E+06    -36.3971E+06         22.3019
            1809     5.91195E-03     94.8166E-03     926.152E-03     848.792E-03        -3.41420     691.174E-03        -3.22198     891.558E-03    -298.747E-03     30.4615E-03    -14.9346E-03    -15.5269E-03    -14.8780E-03     29.8126E-03    -14.9346E-03     10.7895E-03     100.763E+06     63.8411E+06    -21.8869E+06     85.9536E+06    -7.07799E+06     63.8411E+06    -39.9536E+06         22.3769
            1810     6.89783E-03     94.8231E-03     859.606E-03     743.540E-03        -3.23887     658.026E-03        -3.15335     859.606E-03     361.643E-03     30.5105E-03    -14.8809E-03    -15.6296E-03    -14.8044E-03     29.6853E-03    -14.8809E-03     12.1654E-03     94.1561E+06     55.3217E+06    -32.8212E+06     79.7636E+06    -18.4288E+06     55.3217E+06    -40.2347E+06         22.4774
            1811     7.88338E-03     94.8299E-03     834.507E-03     701.001E-03        -3.17282     677.712E-03        -3.14953     834.507E-03    -165.462E-03     30.7640E-03    -14.8575E-03    -15.9065E-03    -14.9169E-03     29.7744E-03    -14.8575E-03     13.3812E-03     86.3028E+06     50.2503E+06    -43.1640E+06     73.3743E+06    -30.2356E+06     50.2503E+06    -38.6998E+06         22.6123
            1812     8.86872E-03     94.8376E-03     816.238E-03     733.737E-03        -3.19926     680.646E-03        -3.14617     816.238E-03    -405.763E-03     31.0005E-03    -14.8192E-03    -16.1813E-03    -15.0154E-03     29.8347E-03    -14.8192E-03     14.5752E-03     77.0637E+06     39.6653E+06    -49.2343E+06     66.1772E+06    -38.3478E+06     39.6653E+06    -35.3771E+06         22.7954
            1813     9.85423E-03     94.8463E-03     798.695E-03     702.753E-03        -3.16605     618.384E-03        -3.08168     798.695E-03        -1.12779     31.3251E-03    -14.8042E-03    -16.5209E-03    -15.1813E-03     29.9855E-03    -14.8042E-03     15.7190E-03     68.9733E+06     32.3142E+06    -49.8246E+06     59.1431E+06    -39.9945E+06     32.3142E+06    -32.7113E+06         23.0588
            1814     10.8396E-03     94.8561E-03     778.416E-03     670.226E-03        -3.12213     554.036E-03        -3.00594     778.416E-03        -1.28197     31.8921E-03    -14.7973E-03    -17.0948E-03    -15.6455E-03     30.4428E-03    -14.7973E-03     16.5561E-03     59.1123E+06     19.3404E+06    -53.4389E+06     48.6402E+06    -42.9668E+06     19.3404E+06    -32.5655E+06         23.4950
            1815     11.8242E-03     94.8665E-03     759.092E-03     687.480E-03        -3.12580     567.167E-03        -3.00548     759.092E-03        -1.31251     32.4506E-03    -14.8008E-03    -17.6498E-03    -16.1288E-03     30.9296E-03    -14.8008E-03     17.1535E-03     50.4622E+06     773.125E+03    -57.5310E+06     36.2249E+06    -43.2937E+06     773.125E+03    -35.9830E+06         24.3972
            1816     12.8078E-03     94.8777E-03     775.033E-03     704.274E-03        -3.16481     642.476E-03        -3.07363     745.655E-03        -1.17592     33.8859E-03    -14.8730E-03    -19.0129E-03    -16.2022E-03     31.0752E-03    -14.8730E-03     23.1386E-03     44.3267E+06    -5.67237E+06    -50.2999E+06     27.8394E+06    -33.8126E+06    -5.67237E+06    -35.6684E+06         26.6258
            1817     13.7931E-03     94.9019E-03     817.211E-03     735.146E-03        -3.25241     736.775E-03        -3.17628     739.458E-03        -1.08452     36.1219E-03    -14.9383E-03    -21.1836E-03    -16.8313E-03     31.7696E-03    -14.9383E-03     30.3464E-03     32.9426E+06    -29.5737E+06    -64.9500E+06     22.0298E+06    -54.0372E+06    -29.5737E+06    -28.7450E+06         32.1454
            1818     14.7749E-03     94.9290E-03     861.625E-03     737.965E-03        -3.32494     825.157E-03        -3.28847     737.965E-03    -757.653E-03     53.0393E-03    -14.8775E-03    -38.1618E-03    -17.5268E-03     32.4043E-03    -14.8775E-03     72.1166E-03     55.9544E+06    -25.1447E+06    -83.0003E+06     14.0482E+06     -48.614E+03    -66.1903E+06    -23.1117E+06         43.7246
            1819     15.7630E-03     95.0458E-03     933.031E-03     732.698E-03        -3.41739     922.095E-03        -3.40646     732.698E-03    -336.802E-03     137.240E-03    -14.8624E-03    -122.378E-03    -20.5117E-03     35.3740E-03    -14.8624E-03     251.515E-03     47.4298E+06    -20.1985E+06    -69.9401E+06     7.28455E+06     19.9467E+06    -69.9401E+06    -12.8253E+06         61.8467
            1820     16.7709E-03     95.4472E-03         1.05688     711.236E-03        -3.53284         1.05657        -3.53253     711.236E-03    -62.8314E-03     320.002E-03    -15.5220E-03    -304.480E-03    -78.3246E-03     93.8467E-03    -15.5220E-03     597.610E-03     89.9040E+06     42.1125E+06    -38.3910E+06    -4.81903E+06     42.8389E+06     55.6057E+06     2.89849E+06         80.5665
            1821     986.422E-06     95.8294E-03         13.2077        -2.34989        -12.5271         3.95850        -3.27788        -2.34989         9.42816     28.8159E-03    -14.1937E-03    -14.6222E-03    -14.3927E-03     28.7775E-03    -14.3848E-03     2.38583E-03     109.902E+06     103.386E+06     28.5452E+06     106.337E+06     30.3796E+06     105.116E+06    -8.69796E+06         22.0115
            1822     1.97165E-03     95.8306E-03         4.84971     809.714E-03        -7.30354     832.381E-03        -3.28621     809.714E-03        -3.88344     28.5946E-03    -14.2384E-03    -14.3562E-03    -14.2031E-03     28.4813E-03    -14.2782E-03     4.25660E-03     109.523E+06     95.7035E+06     45.0708E+06     103.395E+06     51.1990E+06     95.7035E+06    -18.1740E+06         22.0357
            1823     2.95838E-03     95.8331E-03         2.44377     803.781E-03        -4.86345     736.896E-03        -3.15657     803.781E-03         1.37522     28.5922E-03    -14.2108E-03    -14.3815E-03    -14.1549E-03     28.3657E-03    -14.2108E-03     6.13101E-03     109.639E+06     89.2931E+06     33.6429E+06     100.289E+06     42.9927E+06     89.2931E+06    -24.7933E+06         22.0670
            1824     3.94461E-03     95.8363E-03         1.57329     786.089E-03        -3.96692     738.772E-03        -3.13240     786.089E-03    -817.355E-03     28.6618E-03    -14.1570E-03    -14.5048E-03    -14.1090E-03     28.2660E-03    -14.1570E-03     8.13016E-03     109.183E+06     81.7949E+06     17.0327E+06     96.9730E+06     29.2431E+06     81.7949E+06    -31.0131E+06         22.1065
            1825     4.93084E-03     95.8407E-03         1.03998     768.348E-03        -3.40852     657.731E-03        -3.02627     768.348E-03     683.612E-03     28.6977E-03    -14.0761E-03    -14.6216E-03    -14.0066E-03     28.0826E-03    -14.0761E-03     10.1773E-03     106.235E+06     69.7351E+06     4.15768E+06     92.0274E+06     18.3654E+06     69.7351E+06    -35.2947E+06         22.1597
            1826     5.91756E-03     95.8463E-03     789.094E-03     730.907E-03        -3.11093     610.187E-03        -2.94633     745.221E-03    -192.326E-03     28.8650E-03    -14.0318E-03    -14.8331E-03    -13.9900E-03     28.0219E-03    -14.0318E-03     11.9543E-03     98.6768E+06      61.727E+06    -12.9297E+06     84.9521E+06     794.911E+03      61.727E+06    -36.6273E+06         22.2333
            1827     6.90367E-03     95.8519E-03     728.302E-03     672.089E-03        -2.98593     598.833E-03        -2.90855     724.181E-03     378.512E-03     29.1760E-03    -13.9928E-03    -15.1832E-03    -14.0639E-03     28.0567E-03    -13.9928E-03     13.8271E-03     89.0314E+06     52.4586E+06    -25.6318E+06     76.4467E+06    -13.0470E+06     52.4586E+06    -35.7696E+06         22.3343
            1828     7.89009E-03     95.8595E-03     708.706E-03     635.480E-03        -2.93398     618.369E-03        -2.91687     708.706E-03    -133.122E-03     29.6097E-03    -13.9787E-03    -15.6310E-03    -14.2365E-03     28.2152E-03    -13.9787E-03     15.5506E-03     77.4045E+06     42.8734E+06    -38.9985E+06     66.9898E+06    -28.5838E+06     42.8734E+06    -33.0743E+06         22.4718
            1829     8.87602E-03     95.8669E-03     696.488E-03     644.948E-03        -2.94338     595.215E-03        -2.89365     696.488E-03    -396.435E-03     30.2305E-03    -13.9802E-03    -16.2503E-03    -14.5777E-03     28.5579E-03    -13.9802E-03     17.2110E-03     66.3362E+06     32.4353E+06    -46.2929E+06     57.8041E+06    -37.7608E+06     32.4353E+06    -29.7901E+06         22.6607
            1830     9.86169E-03     95.8761E-03     682.216E-03     614.556E-03        -2.91594     530.398E-03        -2.83178     682.216E-03        -1.07627     30.9815E-03    -14.0234E-03    -16.9581E-03    -15.0278E-03     29.0512E-03    -14.0234E-03     18.7557E-03     55.5151E+06     25.0969E+06    -46.3229E+06     48.2357E+06    -39.0435E+06     25.0969E+06    -26.1827E+06         22.9327
            1831     10.8466E-03     95.8863E-03     675.152E-03     599.795E-03        -2.90453     488.433E-03        -2.78345     665.433E-03        -1.26079     31.8196E-03    -14.1040E-03    -17.7156E-03    -15.6183E-03     29.7223E-03    -14.1040E-03     19.8363E-03     44.1290E+06     16.7355E+06    -47.4953E+06     37.9921E+06    -41.3584E+06     16.7355E+06    -22.7225E+06         23.3794
            1832     11.8311E-03     95.8978E-03     679.330E-03     630.353E-03        -2.94590     530.375E-03        -2.81777     651.180E-03        -1.31891     32.7330E-03    -14.1938E-03    -18.5391E-03    -16.3666E-03     30.5605E-03    -14.1938E-03     20.5508E-03     32.7905E+06     2.65267E+06    -43.5536E+06     24.0228E+06    -34.7859E+06     2.65267E+06    -23.1441E+06         24.2910
            1833     12.8150E-03     95.9095E-03     745.809E-03     637.793E-03        -3.02978     640.130E-03        -2.93086     644.549E-03        -1.20470     34.6197E-03    -14.3507E-03    -20.2690E-03    -16.8973E-03     31.2480E-03    -14.3507E-03     25.9515E-03     23.3992E+06    -8.38283E+06    -46.0540E+06     8.50118E+06    -31.1560E+06    -8.38283E+06    -28.1049E+06         26.5163
            1834     13.7982E-03     95.9329E-03     820.783E-03     645.628E-03        -3.13286     739.063E-03        -3.05114     645.628E-03        -1.10996     38.1867E-03    -14.5239E-03    -23.6629E-03    -18.2535E-03     32.7774E-03    -14.5239E-03     34.8583E-03     9.16237E+06    -38.3593E+06    -72.7855E+06    -2.02129E+06    -61.6018E+06    -38.3593E+06    -24.7840E+06         32.0187
            1835     14.7800E-03     95.9662E-03     846.503E-03     650.105E-03        -3.19409     805.166E-03        -3.15275     650.105E-03    -796.600E-03     51.9325E-03    -14.6458E-03    -37.2867E-03    -18.0840E-03     32.7298E-03    -14.6458E-03     69.8773E-03     48.8076E+06    -36.1123E+06    -76.2641E+06    -8.92933E+06     2.89605E+06    -57.5355E+06    -20.8356E+06         43.6466
            1836     15.7705E-03     96.0643E-03     916.046E-03     650.242E-03        -3.29534     902.133E-03        -3.28143     650.242E-03    -411.282E-03     134.564E-03    -15.0948E-03    -119.469E-03    -32.0517E-03     47.1464E-03    -15.0948E-03     240.185E-03     43.9992E+06    -43.7668E+06    -77.9375E+06    -12.4929E+06     1.07311E+06    -66.2853E+06    -16.2394E+06         61.8019
            1837     16.7294E-03     96.4812E-03         1.05641     637.056E-03        -3.45166         1.05516        -3.45041     637.056E-03    -137.367E-03     316.177E-03    -16.1308E-03    -300.046E-03    -76.4294E-03     92.5602E-03    -16.1308E-03     591.694E-03     89.4055E+06     37.9331E+06    -52.0117E+06    -9.32646E+06     30.1244E+06     54.5290E+06     4.57620E+06         80.7043
            1838     986.818E-06     96.8570E-03         11.1857        -2.00841        -10.7558         3.30246        -2.87257        -2.00841         8.10210     26.3031E-03    -12.9721E-03    -13.3310E-03    -13.1193E-03     26.2427E-03    -13.1234E-03     2.87845E-03     113.048E+06     107.635E+06     46.8047E+06     110.552E+06     49.3004E+06     107.635E+06    -9.08942E+06         21.8359
            1839     1.97487E-03     96.8588E-03         4.05302     641.191E-03        -6.27050     617.734E-03        -2.83521     641.191E-03        -3.25837     26.3916E-03    -13.0762E-03    -13.3154E-03    -13.1682E-03     26.2444E-03    -13.0762E-03     4.72636E-03     113.883E+06     102.211E+06     62.0157E+06     106.659E+06     69.2399E+06     102.211E+06    -17.7105E+06         21.8621
            1840     2.96153E-03     96.8607E-03         2.00865     620.083E-03        -4.17178     530.971E-03        -2.69410     620.083E-03         1.21555     26.4619E-03    -13.0619E-03    -13.4000E-03    -13.1000E-03     26.1619E-03    -13.0619E-03     6.77136E-03     114.497E+06     92.8658E+06     46.8370E+06     103.457E+06     57.8768E+06     92.8658E+06    -24.9218E+06         21.8933
            1841     3.94888E-03     96.8641E-03         1.29683     601.904E-03        -3.44240     579.793E-03        -2.72536     601.904E-03    -635.479E-03     26.5244E-03    -13.0126E-03    -13.5118E-03    -12.9840E-03     25.9966E-03    -13.0126E-03     9.00978E-03     111.496E+06     82.1525E+06     30.3126E+06     98.6634E+06     43.1455E+06     82.1525E+06    -29.5599E+06         21.9312
            1842     4.93633E-03     96.8681E-03     910.292E-03     597.730E-03        -3.04523     590.739E-03        -2.72568     597.730E-03     658.266E-03     26.6297E-03    -12.9417E-03    -13.6880E-03    -12.8743E-03     25.8159E-03    -12.9417E-03     11.2286E-03     102.101E+06     68.5734E+06     13.9099E+06     89.4191E+06     26.5921E+06     68.5734E+06    -30.9102E+06         21.9833
            1843     5.92382E-03     96.8732E-03     703.140E-03     594.633E-03        -2.82939     575.456E-03        -2.70170     594.633E-03    -102.233E-03     26.8443E-03    -12.8694E-03    -13.9749E-03    -12.8448E-03     25.7142E-03    -12.8694E-03     13.2960E-03     89.0489E+06     52.8571E+06    -4.60690E+06     77.7293E+06     6.71269E+06     52.8571E+06    -30.4460E+06         22.0576
            1844     6.91157E-03     96.8795E-03     618.650E-03     581.009E-03        -2.72543     542.566E-03        -2.65720     588.869E-03     321.787E-03     27.2862E-03    -12.8221E-03    -14.4641E-03    -12.9455E-03     25.7676E-03    -12.8221E-03     15.5154E-03     74.6030E+06     39.1957E+06    -20.0871E+06     65.4672E+06    -10.9514E+06     39.1957E+06    -27.8345E+06         22.1621
            1845     7.89868E-03     96.8864E-03     581.450E-03     545.368E-03        -2.65879     530.807E-03        -2.64423     581.450E-03    -179.822E-03     28.0095E-03    -12.8235E-03    -15.1860E-03    -13.2538E-03     26.0774E-03    -12.8235E-03     17.7645E-03     60.3098E+06     29.0685E+06    -34.1247E+06     53.1330E+06    -26.9478E+06     29.0685E+06    -24.9571E+06         22.3071
            1846     8.88592E-03     96.8949E-03     590.677E-03     536.849E-03        -2.67396     507.694E-03        -2.62770     573.568E-03    -428.492E-03     29.0250E-03    -12.8804E-03    -16.1447E-03    -13.8242E-03     26.7046E-03    -12.8804E-03     19.8552E-03     45.7630E+06     20.9879E+06    -45.1342E+06     40.4580E+06    -39.8292E+06     20.9879E+06    -20.7787E+06         22.5082
            1847     9.87181E-03     96.9047E-03     596.053E-03     538.687E-03        -2.69837     490.212E-03        -2.61886     565.023E-03        -1.00528     30.2701E-03    -12.9815E-03    -17.2886E-03    -14.5748E-03     27.5563E-03    -12.9815E-03     21.9731E-03     33.2295E+06     14.7895E+06    -42.4592E+06     28.6064E+06    -37.8361E+06     14.7895E+06    -17.3511E+06         22.7978
            1848     10.8573E-03     96.9158E-03     622.519E-03     539.537E-03        -2.74011     497.250E-03        -2.63268     557.376E-03        -1.16220     31.5971E-03    -13.1540E-03    -18.4430E-03    -15.4884E-03     28.6424E-03    -13.1540E-03     23.5213E-03     23.1149E+06     9.34272E+06    -47.6836E+06     19.4668E+06    -44.0354E+06     9.34272E+06    -14.3481E+06         23.2683
            1849     11.8417E-03     96.9282E-03     664.634E-03     553.272E-03        -2.80534     548.227E-03        -2.68893     553.272E-03        -1.23823     33.0722E-03    -13.3576E-03    -19.7146E-03    -16.6638E-03     30.0215E-03    -13.3576E-03     24.5775E-03     17.6656E+06     3.53803E+06    -36.4256E+06     11.5071E+06    -30.2671E+06     3.53803E+06    -11.7950E+06         24.2078
            1850     12.8247E-03     96.9417E-03     726.721E-03     554.629E-03        -2.88450     630.490E-03        -2.78827     554.629E-03        -1.16277     35.7975E-03    -13.6684E-03    -22.1291E-03    -18.1290E-03     31.7974E-03    -13.6684E-03     29.2197E-03     14.5548E+06    -2.38855E+06    -33.1775E+06     1.47827E+06    -22.8581E+06     368.627E+03    -14.9360E+06         26.4478
            1851     13.8069E-03     96.9654E-03     789.215E-03     560.875E-03        -2.98034     709.403E-03        -2.90053     560.875E-03        -1.07085     40.1689E-03    -13.9911E-03    -26.1779E-03    -19.9770E-03     33.9681E-03    -13.9911E-03     38.5103E-03    -2.33834E+06    -38.7139E+06    -73.9502E+06    -11.7250E+06    -67.3208E+06    -35.9567E+06    -15.9624E+06         31.9391
            1852     14.7869E-03     97.0029E-03     828.012E-03     569.678E-03        -3.06587     785.895E-03        -3.02376     569.678E-03    -793.260E-03     53.6774E-03    -14.4173E-03    -39.2602E-03    -22.7224E-03     37.1397E-03    -14.4173E-03     69.4932E-03     53.7697E+06    -40.9346E+06    -60.4934E+06    -20.0317E+06     13.3080E+06    -40.9346E+06    -18.7050E+06         43.5530
            1853     15.7620E-03     97.0951E-03     921.106E-03     575.552E-03        -3.20681     904.967E-03        -3.19067     575.552E-03    -459.266E-03     147.053E-03    -15.2718E-03    -131.781E-03    -42.1316E-03     57.4033E-03    -15.2718E-03     258.400E-03      49.679E+06    -50.7570E+06    -87.1439E+06    -23.0873E+06    -14.3776E+06    -50.7570E+06    -16.2230E+06         61.7554
            1854     16.7193E-03     97.5641E-03         1.06629     573.189E-03        -3.39405         1.06418        -3.39194     573.189E-03    -179.510E-03     309.057E-03    -16.3441E-03    -292.713E-03    -67.6319E-03     83.9760E-03    -16.3441E-03     581.690E-03     80.5865E+06     33.5180E+06    -76.4463E+06    -13.6423E+06     4.16993E+06     47.1306E+06    -1.91998E+06         80.8216
            1855     989.406E-06     97.8828E-03         9.21772        -1.67047        -9.04400         2.65641        -2.48269        -1.67047         6.80980     23.4018E-03    -11.5773E-03    -11.8245E-03    -11.7493E-03     23.3265E-03    -11.5773E-03     3.12519E-03     113.698E+06     109.045E+06     61.9693E+06     109.678E+06     65.0798E+06     109.954E+06    -8.92084E+06         21.6225
            1856     1.97692E-03     97.8840E-03         3.29276     478.443E-03        -5.26276     422.837E-03        -2.39284     478.443E-03        -2.65573     23.5697E-03    -11.6236E-03    -11.9461E-03    -11.7495E-03     23.3731E-03    -11.6236E-03     5.10313E-03     116.288E+06     102.699E+06     77.6375E+06     106.750E+06     87.1753E+06     102.699E+06    -15.7354E+06         21.6496
            1857     2.96585E-03     97.8863E-03         1.60503     447.715E-03        -3.51422     348.856E-03        -2.25804     447.715E-03         1.04724     23.7184E-03    -11.6185E-03    -12.0999E-03    -11.7048E-03     23.3234E-03    -11.6185E-03     7.34752E-03     110.681E+06     88.6556E+06     58.7871E+06     98.0539E+06     71.4142E+06     88.6556E+06    -21.4423E+06         21.6819
            1858     3.95446E-03     97.8889E-03         1.02134     429.879E-03        -2.91253     422.811E-03        -2.31400     429.879E-03    -503.355E-03     23.7960E-03    -11.5569E-03    -12.2391E-03    -11.5474E-03     23.1043E-03    -11.5569E-03     9.76332E-03     97.9998E+06     69.7774E+06     40.0107E+06     86.1840E+06     51.8265E+06     69.7774E+06    -23.1418E+06         21.7218
            1859     4.94336E-03     97.8930E-03     729.156E-03     431.828E-03        -2.62103     466.446E-03        -2.35832     431.828E-03     586.691E-03     24.0126E-03    -11.4702E-03    -12.5423E-03    -11.4536E-03     22.9238E-03    -11.4702E-03     12.3085E-03     82.8995E+06     49.7648E+06     21.9101E+06     72.4745E+06     32.3351E+06     49.7648E+06    -22.6105E+06         21.7773
            1860     5.93209E-03     97.8980E-03     594.220E-03     439.458E-03        -2.48771     498.850E-03        -2.39234     439.458E-03    -61.5430E-03     24.4286E-03    -11.4078E-03    -13.0208E-03    -11.4846E-03     22.8923E-03    -11.4078E-03     14.7369E-03     64.5898E+06     31.3748E+06     944.802E+03     57.3433E+06     8.19127E+06     31.3748E+06    -19.9727E+06         21.8574
            1861     6.92076E-03     97.9038E-03     524.265E-03     444.187E-03        -2.42417     467.165E-03        -2.36794     445.058E-03     226.685E-03     25.0883E-03    -11.3819E-03    -13.7064E-03    -11.6589E-03     23.0408E-03    -11.3819E-03     17.2375E-03     46.4947E+06     16.7896E+06    -15.1480E+06     41.5097E+06    -10.1630E+06     16.7896E+06    -16.7627E+06         21.9715
            1862     7.90969E-03     97.9115E-03     489.101E-03     435.128E-03        -2.38716     463.837E-03        -2.37341     446.638E-03    -237.148E-03     26.1790E-03    -11.4405E-03    -14.7385E-03    -12.1581E-03     23.5986E-03    -11.4405E-03     19.8025E-03     29.5287E+06     10.0538E+06    -30.6504E+06     26.0140E+06    -27.1357E+06     10.0538E+06    -13.5717E+06         22.1311
            1863     8.89698E-03     97.9206E-03     550.881E-03     438.734E-03        -2.46863     500.335E-03        -2.42872     449.373E-03    -454.143E-03     27.5444E-03    -11.5694E-03    -15.9750E-03    -12.9032E-03     24.4726E-03    -11.5694E-03     22.2107E-03     17.6718E+06     6.76700E+06    -43.5772E+06     14.8042E+06    -40.8723E+06     6.92965E+06    -11.6961E+06         22.3535
            1864     9.88442E-03     97.9313E-03     601.104E-03     454.842E-03        -2.55709     531.832E-03        -2.48782     454.842E-03    -921.831E-03     29.2439E-03    -11.7504E-03    -17.4935E-03    -13.9279E-03     25.6783E-03    -11.7504E-03     24.7493E-03     12.8897E+06     3.65200E+06    -41.9895E+06     7.61562E+06    -39.1442E+06     6.08077E+06    -8.88595E+06         22.6738
            1865     10.8700E-03     97.9443E-03     645.421E-03     461.649E-03        -2.62360     553.264E-03        -2.53144     461.649E-03        -1.06601     31.2295E-03    -12.0418E-03    -19.1877E-03    -15.4301E-03     27.4719E-03    -12.0418E-03     26.4342E-03     11.6315E+06     2.04191E+06    -46.2938E+06     1.92776E+06    -43.2359E+06     8.68775E+06    -8.31248E+06         23.1864
            1866     11.8543E-03     97.9577E-03     688.323E-03     469.396E-03        -2.69048     584.122E-03        -2.58627     469.396E-03        -1.16193     33.5354E-03    -12.3858E-03    -21.1496E-03    -17.3399E-03     29.7257E-03    -12.3858E-03     27.8251E-03     12.6236E+06     832.080E+03    -35.8675E+06     256.418E+03    -30.2759E+06     7.60772E+06    -8.30334E+06         24.1751
            1867     12.8365E-03     97.9749E-03     712.699E-03     478.276E-03        -2.74620     620.725E-03        -2.65423     478.276E-03        -1.11221     37.3899E-03    -12.8999E-03    -24.4901E-03    -19.8948E-03     32.7946E-03    -12.8999E-03     32.4201E-03     17.8949E+06    -2.57288E+06    -23.9835E+06    -2.68276E+06    -19.4906E+06     13.5119E+06    -4.64169E+06         26.4507
            1868     13.8153E-03     98.0004E-03     755.072E-03     488.692E-03        -2.83286     679.415E-03        -2.75721     488.692E-03        -1.01459     42.3828E-03    -13.4333E-03    -28.9495E-03    -22.5443E-03     35.9776E-03    -13.4333E-03     40.6957E-03     8.67970E+06    -33.8173E+06    -65.0578E+06    -6.80026E+06    -63.2666E+06    -20.1285E+06    -8.39903E+06         31.9293
            1869     14.7929E-03     98.0404E-03     820.320E-03     501.541E-03        -2.95834     781.291E-03        -2.91931     501.541E-03    -752.163E-03     58.8609E-03    -14.1524E-03    -44.7085E-03    -27.1358E-03     41.2882E-03    -14.1524E-03     76.1506E-03     68.4619E+06    -15.8753E+06    -56.4411E+06    -10.4188E+06     22.4396E+06    -15.8753E+06    -14.4785E+06         43.4627
            1870     15.7642E-03     98.1464E-03     933.734E-03     514.349E-03        -3.13781     918.341E-03        -3.12241     514.349E-03    -448.230E-03     153.219E-03    -14.9821E-03    -138.236E-03    -37.5693E-03     52.5515E-03    -14.9821E-03     272.920E-03     64.0010E+06    -23.8078E+06    -101.817E+06    -14.0480E+06    -23.7678E+06    -23.8078E+06    -12.9474E+06         61.7430
            1871     16.7548E-03     98.6188E-03         1.07499     523.736E-03        -3.34044         1.07287        -3.33831     523.736E-03    -177.612E-03     305.131E-03    -15.8207E-03    -289.310E-03    -66.0567E-03     81.8774E-03    -15.8207E-03     575.004E-03     92.7453E+06     41.7499E+06    -97.2642E+06    -10.1888E+06    -13.0458E+06     60.4655E+06    -7.00412E+06         80.9077
            1872     989.530E-06     98.9045E-03         7.36704        -1.44456        -7.34122         2.01328        -1.98746        -1.44456         5.51286     20.1978E-03    -10.0376E-03    -10.1601E-03    -10.0090E-03     20.1016E-03    -10.0926E-03     3.22081E-03     107.744E+06     95.9005E+06     72.6602E+06     99.7509E+06     80.2886E+06     96.2648E+06    -8.05382E+06         21.3768
            1873     1.98091E-03     98.9065E-03         2.59231     283.392E-03        -4.26863     279.967E-03        -1.95629     283.392E-03        -2.16586     20.0977E-03    -9.92655E-03    -10.1712E-03    -9.89733E-03     19.8428E-03    -9.94544E-03     5.37143E-03     108.517E+06     88.3231E+06     80.4570E+06     92.7416E+06     98.6849E+06     85.8702E+06    -10.1726E+06         21.4053
            1874     2.97073E-03     98.9083E-03         1.23889     270.933E-03        -2.88019     203.694E-03        -1.84499     270.933E-03     773.331E-03     20.3264E-03    -9.89236E-03    -10.4340E-03    -9.92422E-03     19.8166E-03    -9.89236E-03     7.73592E-03     95.7946E+06     74.6913E+06     63.1057E+06        81.2E+06     80.4272E+06     71.9643E+06    -12.7904E+06         21.4411
            1875     3.96100E-03     98.9109E-03     789.825E-03     263.064E-03        -2.41520     293.475E-03        -1.91885     263.064E-03    -466.691E-03     20.6213E-03    -9.83686E-03    -10.7845E-03    -9.89401E-03     19.7309E-03    -9.83686E-03     10.2710E-03     74.1105E+06     55.1284E+06     43.3555E+06     65.6766E+06     55.5939E+06     51.3239E+06    -11.9490E+06         21.4874
            1876     4.95134E-03     98.9145E-03     531.297E-03     271.824E-03        -2.16811     327.361E-03        -1.96417     271.824E-03     470.838E-03     20.9742E-03    -9.76007E-03    -11.2142E-03    -9.81524E-03     19.5753E-03    -9.76007E-03     13.0034E-03     52.6284E+06     33.1599E+06     22.5385E+06     47.2140E+06     33.7636E+06     27.3494E+06    -9.04474E+06         21.5525
            1877     5.94191E-03     98.9195E-03     442.135E-03     283.461E-03        -2.09079     365.629E-03        -2.01429     283.461E-03    -19.5549E-03     21.6755E-03    -9.73862E-03    -11.9369E-03    -9.95619E-03     19.6948E-03    -9.73862E-03     15.7323E-03     31.2603E+06     12.9612E+06     1.60083E+06     28.3972E+06     7.28824E+06     10.1368E+06    -6.33458E+06         21.6456
            1878     6.93210E-03     98.9256E-03     452.526E-03     297.135E-03        -2.11841     406.060E-03        -2.07194     297.135E-03     196.547E-03     22.8343E-03    -9.78187E-03    -13.0524E-03    -10.4212E-03     20.2031E-03    -9.78187E-03     18.6220E-03     13.7950E+06    -612.438E+03    -12.8870E+06     11.7846E+06    -10.8765E+06    -612.438E+03    -3.45542E+06         21.7765
            1879     7.92112E-03     98.9338E-03     487.473E-03     314.014E-03        -2.18463     477.279E-03        -2.17443     314.014E-03    -215.643E-03     24.2781E-03    -9.91701E-03    -14.3611E-03    -11.0550E-03     20.9720E-03    -9.91701E-03     21.5379E-03     3.84499E+06    -5.66859E+06    -28.8418E+06     199.161E+03    -27.3783E+06    -3.48633E+06    -2.81727E+06         21.9584
            1880     8.91036E-03     98.9440E-03     580.878E-03     334.891E-03        -2.31722     548.235E-03        -2.28457     334.891E-03    -429.462E-03     26.0702E-03    -10.1406E-03    -15.9297E-03    -11.9992E-03     22.1398E-03    -10.1406E-03     24.3979E-03     2.03056E+06    -7.77646E+06    -39.8934E+06    -7.63133E+06    -38.5983E+06     590.368E+03    -4.25188E+06         22.2127
            1881     9.89756E-03     98.9559E-03     649.369E-03     357.112E-03        -2.43188     589.445E-03        -2.37196     357.112E-03    -849.384E-03     28.4631E-03    -10.4430E-03    -18.0201E-03    -13.5244E-03     23.9674E-03    -10.4430E-03     27.4276E-03     6.23664E+06    -9.10498E+06    -43.9373E+06    -11.3722E+06    -41.6701E+06     6.23664E+06    -4.57037E+06         22.5780
            1882     10.8837E-03     98.9714E-03     689.418E-03     377.594E-03        -2.51442     601.643E-03        -2.42665     377.594E-03        -1.02813     31.2201E-03    -10.8653E-03    -20.3548E-03    -15.6998E-03     26.5651E-03    -10.8653E-03     29.4939E-03     15.8408E+06    -5.97262E+06    -39.5954E+06    -9.24573E+06    -36.3223E+06     15.8408E+06    -7.21927E+06         23.1498
            1883     11.8669E-03     98.9877E-03     721.002E-03     395.609E-03        -2.58561     616.649E-03        -2.48126     395.609E-03        -1.15171     34.4932E-03    -11.4028E-03    -23.0904E-03    -18.5300E-03     29.9327E-03    -11.4028E-03     31.0650E-03     18.7416E+06    -3.95202E+06    -36.4702E+06    -6.44422E+06    -33.9780E+06     18.7416E+06    -7.17615E+06         24.2051
            1884     12.8475E-03     99.0081E-03     747.012E-03     412.606E-03        -2.65858     655.615E-03        -2.56718     412.606E-03        -1.10014     39.3947E-03    -12.1172E-03    -27.2774E-03    -21.9102E-03     34.0275E-03    -12.1172E-03     36.2451E-03     25.5315E+06    -2.46516E+06    -26.4866E+06    -4.84807E+06    -24.1037E+06     25.5315E+06    -530.144E+03         26.5306
            1885     13.8243E-03     99.0397E-03     792.374E-03     430.505E-03        -2.76435     722.266E-03        -2.69424     430.505E-03    -969.496E-03     45.2882E-03    -12.8645E-03    -32.4236E-03    -25.7488E-03     38.6134E-03    -12.8645E-03     43.5190E-03     16.1230E+06    -24.9226E+06    -52.8725E+06    -5.52587E+06    -49.1830E+06    -6.96326E+06    -5.64241E+06         31.9845
            1886     14.7985E-03     99.0791E-03     848.803E-03     450.399E-03        -2.89569     815.106E-03        -2.86200     450.399E-03    -693.457E-03     61.9533E-03    -13.8195E-03    -48.1337E-03    -28.7054E-03     42.5250E-03    -13.8195E-03     81.0772E-03     69.4206E+06     3.86533E+06    -48.5833E+06    -4.97293E+06     25.8103E+06     3.86533E+06    -13.8530E+06         43.3977
            1887     15.7705E-03     99.1999E-03     943.215E-03     470.942E-03        -3.07228     930.481E-03        -3.05955     470.942E-03    -408.304E-03     143.190E-03    -14.5961E-03    -128.594E-03    -31.1129E-03     45.7089E-03    -14.5961E-03     256.983E-03     68.5418E+06    -8.13639E+06    -101.878E+06    -4.34878E+06    -28.9871E+06    -8.13639E+06    -10.5657E+06         61.6098
            1888     16.7755E-03     99.6137E-03         1.07332     490.873E-03        -3.27749         1.07132        -3.27550     490.873E-03    -173.749E-03     303.511E-03    -15.3808E-03    -288.130E-03    -71.1738E-03     86.5545E-03    -15.3808E-03     569.348E-03     97.2793E+06     47.2490E+06    -101.259E+06    -4.35151E+06    -15.4490E+06     63.0701E+06    -2.94917E+06         80.7598
            1889     992.317E-06     99.9236E-03         5.77090        -1.32911        -5.74386         1.41321        -1.38617        -1.32911         4.34890     16.5341E-03    -8.17413E-03    -8.35994E-03    -8.17485E-03     16.4040E-03    -8.22913E-03     3.38791E-03     101.645E+06     78.5883E+06     69.5694E+06     78.9691E+06     92.7893E+06     78.0440E+06    -6.67833E+06         21.1130
            1890     1.98357E-03     99.9246E-03         1.98804     56.8113E-03        -3.33667     116.524E-03        -1.46515     56.8113E-03        -1.75072     16.4474E-03    -8.08543E-03    -8.36199E-03    -8.03314E-03     16.1375E-03    -8.10432E-03     5.38871E-03     103.183E+06     70.7721E+06     65.5990E+06     72.3495E+06     101.438E+06     65.7662E+06    -4.02922E+06         21.1450
            1891     2.97639E-03     99.9269E-03     947.212E-03     78.0893E-03        -2.28185     118.505E-03        -1.45315     78.0893E-03     521.050E-03     16.5763E-03    -8.01743E-03    -8.55882E-03    -7.94873E-03     15.9662E-03    -8.01743E-03     7.60248E-03     85.1905E+06     54.6346E+06     48.3617E+06     57.6174E+06     82.2076E+06     48.3617E+06    -1.95825E+03         21.1875
            1892     3.96849E-03     99.9291E-03     598.739E-03     95.8382E-03        -1.94768     187.543E-03        -1.53649     95.8382E-03    -422.804E-03     17.0900E-03    -7.97945E-03    -9.11059E-03    -8.03534E-03     16.0148E-03    -7.97945E-03     10.2842E-03     58.5319E+06     36.4365E+06     30.5024E+06     40.1914E+06     53.6404E+06     31.6391E+06     3.32369E+06         21.2446
            1893     4.96047E-03     99.9328E-03     375.510E-03     116.959E-03        -1.74705     219.210E-03        -1.59075     116.959E-03     384.360E-03     17.8248E-03    -7.96966E-03    -9.85510E-03    -8.18709E-03     16.1568E-03    -7.96966E-03     13.0839E-03     36.9098E+06     20.0795E+06     9.15577E+06     21.8048E+06     30.0714E+06     14.2690E+06     7.88492E+06         21.3246
            1894     5.95228E-03     99.9374E-03     344.618E-03     138.427E-03        -1.74445     282.097E-03        -1.68193     138.427E-03     51.9213E-03     18.9576E-03    -8.02755E-03    -10.9300E-03    -8.54546E-03     16.5730E-03    -8.02755E-03     16.1179E-03     17.0776E+06     4.28491E+06    -11.3427E+06     2.80427E+06     5.75498E+06     1.46057E+06     10.6134E+06         21.4362
            1895     6.94348E-03     99.9447E-03     427.866E-03     165.388E-03        -1.86389     387.661E-03        -1.82368     165.388E-03     217.026E-03     20.4664E-03    -8.14809E-03    -12.3184E-03    -9.15144E-03     17.2995E-03    -8.14809E-03     19.3038E-03     451.530E+03    -6.36771E+06    -22.4022E+06    -11.2696E+06    -10.6810E+06    -6.36771E+06     8.77638E+06         21.5892
            1896     7.93430E-03     99.9536E-03     522.181E-03     200.025E-03        -2.01061     516.460E-03        -2.00489     200.025E-03    -165.403E-03     22.2692E-03    -8.35514E-03    -13.9141E-03    -9.94551E-03     18.3006E-03    -8.35514E-03     22.5613E-03    -5.46760E+06    -12.9296E+06    -32.5342E+06    -19.0121E+06    -25.0593E+06    -6.86005E+06     5.37248E+06         21.8001
            1897     8.92365E-03     99.9647E-03     618.060E-03     238.270E-03        -2.16709     591.240E-03        -2.14027     238.270E-03    -392.320E-03     24.7192E-03    -8.67138E-03    -16.0479E-03    -11.2661E-03     19.9375E-03    -8.67138E-03     26.1937E-03     1.25205E+06    -18.8435E+06    -38.6379E+06    -22.4123E+06    -35.0692E+06     1.25205E+06     1.62600E+06         22.0950
            1898     9.91208E-03     99.9794E-03     664.589E-03     273.473E-03        -2.27576     611.224E-03        -2.22240     273.473E-03    -784.839E-03     27.9383E-03    -9.09733E-03    -18.8409E-03    -13.3995E-03     22.4968E-03    -9.09733E-03     29.9624E-03     11.1156E+06    -18.8913E+06    -39.8970E+06    -20.9123E+06    -37.8760E+06     11.1156E+06    -4.03509E+06         22.5158
            1899     10.8973E-03     99.9972E-03     707.689E-03     303.447E-03        -2.37665     623.096E-03        -2.29206     303.447E-03    -991.763E-03     31.5538E-03    -9.65736E-03    -21.8964E-03    -16.2626E-03     25.9200E-03    -9.65736E-03     32.7765E-03     19.7031E+06    -13.5480E+06    -35.8547E+06    -18.1087E+06    -31.2940E+06     19.7031E+06    -7.57564E+06         23.1579
            1900     11.8800E-03     100.018E-03     774.990E-03     330.695E-03        -2.50017     673.180E-03        -2.39836     330.695E-03        -1.13229     35.8604E-03    -10.3860E-03    -25.4745E-03    -19.9326E-03     30.3186E-03    -10.3860E-03     35.1097E-03     21.9952E+06    -11.1358E+06    -40.7402E+06    -14.9434E+06    -36.9326E+06     21.9952E+06    -7.03590E+06         24.2912
            1901     12.8580E-03     100.043E-03     841.990E-03     358.649E-03        -2.63346     757.884E-03        -2.54936     358.649E-03        -1.06553     41.7613E-03    -11.2940E-03    -30.4673E-03    -24.1314E-03     35.4254E-03    -11.2940E-03     40.8402E-03     24.3944E+06    -6.94104E+06    -35.0931E+06    -9.73578E+06    -32.2984E+06     24.3944E+06    -2.04228E+06         26.6727
            1902     13.8334E-03     100.080E-03     889.439E-03     388.029E-03        -2.75928     831.303E-03        -2.70115     388.029E-03    -891.024E-03     49.2079E-03    -12.2828E-03    -36.9251E-03    -29.4255E-03     41.7083E-03    -12.2828E-03     48.5484E-03     11.9545E+06    -19.3257E+06    -37.7594E+06    -7.29006E+06    -33.9895E+06    -3.85108E+06    -3.96442E+06         32.0894
            1903     14.8009E-03     100.127E-03     905.866E-03     417.169E-03        -2.86651     878.815E-03        -2.83946     417.169E-03    -625.433E-03     62.7604E-03    -13.5440E-03    -49.2164E-03    -32.1226E-03     45.6666E-03    -13.5440E-03     77.7834E-03     62.7620E+06     10.7909E+06    -34.8253E+06    -7.58733E+06     35.5240E+06     10.7909E+06    -15.4016E+06         43.3312
            1904     15.7807E-03     100.235E-03     961.626E-03     445.063E-03        -3.01705     950.832E-03        -3.00626     445.063E-03    -378.797E-03     132.221E-03    -14.7452E-03    -117.476E-03    -37.8968E-03     52.6420E-03    -14.7452E-03     228.564E-03     62.4865E+06    -14.6652E+06    -109.600E+06    -6.65095E+06    -40.4621E+06    -14.6652E+06    -10.1280E+06         61.2467
            1905     16.7461E-03     100.632E-03         1.07044     474.203E-03        -3.21028         1.06833        -3.20816     474.203E-03    -183.098E-03     296.026E-03    -15.8327E-03    -280.193E-03    -69.4939E-03     85.3266E-03    -15.8327E-03     554.168E-03     92.9346E+06     37.8696E+06    -106.292E+06     -4.9963E+06    -22.4404E+06     51.9485E+06    -433.811E+03         80.2758
            1906     993.732E-06     100.938E-03         4.44546        -1.19377        -4.42559     894.618E-03    -874.746E-03        -1.19377         3.45444     12.6005E-03    -6.18624E-03    -6.41429E-03    -6.26363E-03     12.4679E-03    -6.20426E-03     2.93230E-03     100.310E+06     56.7265E+06     50.5317E+06     52.6553E+06     99.6253E+06     55.2881E+06    -1.45104E+06         20.8543
            1907     1.98801E-03     100.940E-03         1.50184    -130.955E-03        -2.53346    -55.5264E-03    -976.095E-03    -130.955E-03        -1.32072     12.6905E-03    -6.17556E-03    -6.51497E-03    -6.13606E-03     12.3296E-03    -6.19357E-03     5.09029E-03     95.7537E+06     46.7516E+06     39.9989E+06     44.2594E+06     94.0461E+06     44.1987E+06     4.90449E+06         20.8903
            1908     2.98141E-03     100.941E-03     711.897E-03    -94.9714E-03        -1.74777     9.32017E-03        -1.04519    -94.9714E-03     405.301E-03     13.0178E-03    -6.14661E-03    -6.87121E-03    -6.15015E-03     12.2968E-03    -6.14661E-03     7.30829E-03     78.9591E+06     31.0771E+06     20.6459E+06     30.2042E+06     72.9466E+06     27.5312E+06     15.5347E+06         20.9417
            1909     3.97564E-03     100.944E-03     437.139E-03    -58.4039E-03        -1.50578     98.1187E-03        -1.16676    -58.4039E-03    -328.157E-03     13.6316E-03    -6.15646E-03    -7.47512E-03    -6.26852E-03     12.4250E-03    -6.15646E-03     9.71226E-03     57.1240E+06     14.2532E+06    -608.045E+03     11.2379E+06     46.2711E+06     13.2602E+06     21.9772E+06         21.0125
            1910     4.96936E-03     100.947E-03     276.556E-03    -21.5981E-03        -1.38947     155.991E-03        -1.26890    -21.5981E-03     352.330E-03     14.7587E-03    -6.23118E-03    -8.52754E-03    -6.64998E-03     12.8812E-03    -6.23118E-03     12.5968E-03     37.7542E+06     3.47090E+06    -20.5158E+06    -5.84344E+06     23.0819E+06     3.47090E+06     25.1396E+06         21.1098
            1911     5.96242E-03     100.953E-03     308.204E-03     16.3881E-03        -1.46647     267.214E-03        -1.42548     16.3881E-03     101.749E-03     16.3612E-03    -6.37654E-03    -9.98470E-03    -7.29035E-03     13.6669E-03    -6.37654E-03     15.9116E-03     21.0905E+06    -2.53599E+06    -33.4838E+06    -16.7105E+06     4.31719E+06    -2.53599E+06     25.1171E+06         21.2407
            1912     6.95476E-03     100.961E-03     423.051E-03     60.1105E-03        -1.64247     391.038E-03        -1.61046     60.1105E-03     158.047E-03     18.0620E-03    -6.57609E-03    -11.4859E-03    -7.90963E-03     14.4857E-03    -6.57609E-03     19.2255E-03     5.71664E+06    -5.62832E+06    -37.4458E+06    -24.4923E+06    -7.23685E+06    -5.62832E+06     19.6433E+06         21.4175
            1913     7.94640E-03     100.970E-03     531.401E-03     108.816E-03        -1.81941     525.258E-03        -1.81327     108.816E-03    -196.601E-03     20.3091E-03    -6.84953E-03    -13.4596E-03    -8.90273E-03     15.7523E-03    -6.84953E-03     23.0336E-03    -1.72808E+06    -14.7139E+06    -38.7073E+06    -30.0283E+06    -20.5107E+06    -4.61025E+06     12.1937E+06         21.6614
            1914     8.93715E-03     100.984E-03     636.461E-03     158.896E-03        -1.99949     612.593E-03        -1.97563     158.896E-03    -398.244E-03     23.5205E-03    -7.23734E-03    -16.2831E-03    -10.6822E-03     17.9195E-03    -7.23734E-03     27.6474E-03     3.46101E+06    -21.6252E+06    -35.1625E+06    -29.4619E+06    -27.3258E+06     3.46101E+06     3.47869E+06         22.0014
            1915     9.92510E-03     101.001E-03     686.295E-03     204.535E-03        -2.12824     640.089E-03        -2.08203     204.535E-03    -714.655E-03     27.5446E-03    -7.77241E-03    -19.7721E-03    -13.3026E-03     21.0750E-03    -7.77241E-03     32.4682E-03     13.5740E+06    -19.9732E+06    -36.3840E+06    -25.7767E+06    -30.5805E+06     13.5740E+06    -4.11143E+06         22.4816
            1916     10.9107E-03     101.023E-03     750.832E-03     244.650E-03        -2.26544     679.657E-03        -2.19426     244.650E-03    -901.591E-03     32.0795E-03    -8.46522E-03    -23.6142E-03    -16.7774E-03     25.2426E-03    -8.46522E-03     36.4773E-03     19.6409E+06    -17.6216E+06    -35.3672E+06    -22.5843E+06    -30.4044E+06     19.6409E+06    -6.07900E+06         23.1990
            1917     11.8919E-03     101.049E-03     859.342E-03     283.515E-03        -2.45091     776.054E-03        -2.36762     283.515E-03        -1.02726     37.5117E-03    -9.35247E-03    -28.1592E-03    -21.2639E-03     30.6164E-03    -9.35247E-03     40.1791E-03     20.1226E+06    -14.2448E+06    -40.0069E+06    -19.7017E+06    -34.5500E+06     20.1226E+06    -7.96803E+06         24.4193
            1918     12.8694E-03     101.080E-03     939.793E-03     323.756E-03        -2.61778     873.882E-03        -2.55187     323.756E-03    -954.804E-03     44.7975E-03    -10.4664E-03    -34.3311E-03    -26.7495E-03     37.2159E-03    -10.4664E-03     46.5592E-03     17.2851E+06    -10.0886E+06    -43.4185E+06    -13.6253E+06    -39.8818E+06     17.2851E+06    -7.20287E+06         26.8630
            1919     13.8402E-03     101.123E-03     969.493E-03     363.470E-03        -2.74210     925.467E-03        -2.69807     363.470E-03    -783.018E-03     54.7798E-03    -11.7706E-03    -43.0091E-03    -34.3397E-03     46.1104E-03    -11.7706E-03     55.5512E-03     15.7448E+06    -14.3223E+06    -33.3836E+06    -5.95718E+06    -23.3858E+06    -2.61825E+06    -7.42451E+06         32.2239
            1920     14.8060E-03     101.180E-03     968.099E-03     400.194E-03        -2.84317     947.500E-03        -2.82257     400.194E-03    -551.457E-03     67.9516E-03    -13.5689E-03    -54.3827E-03    -41.3689E-03     54.9378E-03    -13.5689E-03     74.5649E-03     62.2149E+06     22.0307E+06    -18.3752E+06    -3.01952E+06     46.8593E+06     22.0307E+06    -13.2826E+06         43.1860
            1921     15.7592E-03     101.281E-03         1.01008     434.866E-03        -2.98921         1.00059        -2.97971     434.866E-03    -367.406E-03     133.703E-03    -15.3833E-03    -118.320E-03    -48.7327E-03     64.1160E-03    -15.3833E-03     217.805E-03     49.6430E+06    -16.5987E+06    -112.239E+06    -6.69807E+06    -55.8981E+06    -16.5987E+06    -8.14422E+06         60.6704
            1922     16.7138E-03     101.682E-03         1.08573     471.962E-03        -3.15371         1.08294        -3.15092     471.962E-03    -209.728E-03     284.835E-03    -16.5707E-03    -268.264E-03    -58.7936E-03     75.3643E-03    -16.5707E-03     535.130E-03     89.0645E+06     32.8782E+06    -109.627E+06    -5.32491E+06    -27.0031E+06     44.6440E+06     389.854E+03         79.4878
            1923     995.561E-06     101.950E-03         3.33272        -1.00402        -3.35728     524.813E-03    -549.372E-03        -1.00402         2.73870     8.98778E-03    -4.41929E-03    -4.56849E-03    -4.40051E-03     8.87854E-03    -4.47804E-03     2.28194E-03     93.1822E+06     30.0801E+06     23.4821E+06     26.6237E+06     91.4790E+06     28.6417E+06     7.62475E+06         20.6242
            1924     1.99122E-03     101.950E-03         1.09655    -229.840E-03        -1.87319    -190.614E-03    -586.028E-03    -229.840E-03    -928.230E-03     9.10023E-03    -4.42311E-03    -4.67712E-03    -4.31555E-03     8.75668E-03    -4.44113E-03     4.15977E-03     84.0038E+06     22.6106E+06     7.35784E+06     13.9535E+06     77.4081E+06     22.6106E+06     19.5628E+06         20.6631
            1925     2.98737E-03     101.952E-03     503.498E-03    -211.492E-03        -1.28457    -159.378E-03    -621.690E-03    -211.492E-03     319.487E-03     9.69782E-03    -4.45676E-03    -5.24106E-03    -4.49551E-03     8.95227E-03    -4.45676E-03     6.42904E-03     68.8919E+06     13.4456E+06    -14.6723E+06     1.45086E+06     52.7687E+06     13.4456E+06     31.9446E+06         20.7233
            1926     3.98208E-03     101.955E-03     303.803E-03    -180.426E-03        -1.10927     925.524E-06    -806.389E-03    -180.426E-03    -242.575E-03     10.6798E-03    -4.53366E-03    -6.14614E-03    -4.83310E-03     9.36676E-03    -4.53366E-03     8.95448E-03     58.1945E+06     5.10193E+06    -35.3694E+06    -11.2113E+06     34.0363E+06     5.10193E+06     40.7665E+06         20.8074
            1927     4.97723E-03     101.959E-03     216.936E-03    -132.928E-03        -1.08094     120.081E-03    -984.080E-03    -132.928E-03     288.785E-03     12.2094E-03    -4.69371E-03    -7.51567E-03    -5.43792E-03     10.1316E-03    -4.69371E-03     12.0544E-03     43.0757E+06     1.21759E+06    -46.2066E+06    -21.2244E+06     18.0935E+06     1.21759E+06     39.9617E+06         20.9199
            1928     5.97129E-03     101.965E-03     273.277E-03    -80.7373E-03        -1.20390     249.628E-03        -1.18026    -80.7373E-03     62.2232E-03     13.8895E-03    -4.90145E-03    -8.98804E-03    -6.07089E-03     10.9723E-03    -4.90145E-03     15.2162E-03     26.0094E+06    -2.77785E+06    -48.6863E+06    -26.7250E+06     4.04817E+06    -2.77785E+06     33.9781E+06         21.0677
            1929     6.96485E-03     101.974E-03     410.191E-03    -24.6329E-03        -1.41312     386.333E-03        -1.38926    -24.6329E-03     24.1215E-03     15.8162E-03    -5.14752E-03    -10.6687E-03    -6.75023E-03     11.8977E-03    -5.14752E-03     18.7591E-03     14.3033E+06    -3.50241E+06    -47.0072E+06    -29.1931E+06    -3.51071E+06    -3.50241E+06     27.8103E+06         21.2672
            1930     7.95784E-03     101.985E-03     541.210E-03     34.6490E-03        -1.63048     528.739E-03        -1.61801     34.6490E-03    -302.488E-03     18.6453E-03    -5.47816E-03    -13.1671E-03    -8.01748E-03     13.4956E-03    -5.47816E-03     23.4027E-03     6.31569E+06    -5.87014E+06    -41.2713E+06    -30.4564E+06    -11.3625E+06     993.150E+03     17.6576E+06         21.5435
            1931     8.94874E-03     102.000E-03     670.992E-03     95.0841E-03        -1.85099     647.865E-03        -1.82786     95.0841E-03    -438.285E-03     22.4857E-03    -5.92586E-03    -16.5598E-03    -10.0790E-03     16.0049E-03    -5.92586E-03     29.0209E-03     6.72397E+06    -14.2415E+06    -34.4994E+06    -31.4805E+06    -17.2604E+06     6.72397E+06     5.74895E+06         21.9276
            1932     9.93781E-03     102.021E-03     774.813E-03     153.703E-03        -2.05025     737.244E-03        -2.01268     153.703E-03    -644.226E-03     27.2025E-03    -6.52854E-03    -20.6739E-03    -12.9897E-03     19.5183E-03    -6.52854E-03     35.1033E-03     12.1757E+06    -19.4789E+06    -34.0681E+06    -30.5326E+06    -23.0144E+06     12.1757E+06    -2.96037E+06         22.4657
            1933     10.9231E-03     102.048E-03     869.543E-03     209.287E-03        -2.24262     816.612E-03        -2.18969     209.287E-03    -792.443E-03     32.6418E-03    -7.31539E-03    -25.3264E-03    -16.9347E-03     24.2501E-03    -7.31539E-03     40.7153E-03     15.8474E+06    -18.1497E+06    -36.6099E+06    -25.5072E+06    -29.2524E+06     15.8474E+06    -7.50838E+06         23.2606
            1934     11.9047E-03     102.079E-03     954.227E-03     262.042E-03        -2.42540     890.574E-03        -2.36175     262.042E-03    -914.478E-03     39.5311E-03    -8.34379E-03    -31.1873E-03    -22.3974E-03     30.7412E-03    -8.34379E-03     46.5519E-03     19.8005E+06    -11.2806E+06    -35.5681E+06    -17.9708E+06    -28.8779E+06     19.8005E+06    -10.3317E+06         24.5765
            1935     12.8791E-03     102.118E-03     994.737E-03     311.530E-03        -2.56826     942.571E-03        -2.51609     311.530E-03    -854.223E-03     48.9580E-03    -9.68249E-03    -39.2755E-03    -29.8326E-03     39.5151E-03    -9.68249E-03     54.4754E-03     16.4880E+06    -3.76128E+06    -47.6555E+06    -10.4284E+06    -40.9884E+06     16.4880E+06    -13.4227E+06         27.0876
            1936     13.8477E-03     102.170E-03         1.00897     356.840E-03        -2.68898     974.123E-03        -2.65413     356.840E-03    -699.683E-03     62.5286E-03    -11.3507E-03    -51.1778E-03    -40.1155E-03     51.4663E-03    -11.3507E-03     67.2757E-03     16.9126E+06    -2.03024E+06    -36.3944E+06    -4.79626E+06    -19.0298E+06     2.31406E+06    -13.1303E+06         32.3560
            1937     14.7996E-03     102.246E-03         1.02577     398.265E-03        -2.81561         1.00877        -2.79860     398.265E-03    -503.635E-03     78.9557E-03    -13.6648E-03    -65.2909E-03    -51.1266E-03     64.7915E-03    -13.6648E-03     85.7213E-03     50.1184E+06     30.1422E+06    -7.55382E+06    -2.51745E+06     46.3507E+06     28.8736E+06    -10.1717E+06         42.9071
            1938     15.7488E-03     102.350E-03         1.07163     438.388E-03        -2.97090         1.06169        -2.96095     438.388E-03    -394.423E-03     134.153E-03    -15.7335E-03    -118.419E-03    -49.1340E-03     64.8675E-03    -15.7335E-03     213.240E-03     35.6486E+06    -17.9159E+06    -105.897E+06    -4.29890E+06    -65.9491E+06    -17.9159E+06    -2.95267E+06         59.8803
            1939     16.7261E-03     102.720E-03         1.09846     480.577E-03        -3.09226         1.09394        -3.08773     480.577E-03    -250.532E-03     271.836E-03    -16.6981E-03    -255.138E-03    -49.6873E-03     66.3855E-03    -16.6981E-03     513.151E-03     83.7773E+06     29.0339E+06    -109.533E+06    -8.03576E+06    -25.5453E+06     36.8591E+06    -1.07906E+06         78.3625
            1940     997.038E-06     102.957E-03         2.49525    -849.213E-03        -2.49376     296.962E-03    -295.466E-03    -849.213E-03         2.11039     6.01005E-03    -2.93473E-03    -3.07532E-03    -2.94406E-03     5.91952E-03    -2.97546E-03     1.61233E-03     71.6220E+06     10.1562E+06    -8.40570E+06     -47.659E+03     63.2640E+06     10.1562E+06     21.0524E+06         20.4382
            1941     1.99417E-03     102.958E-03     802.135E-03    -281.901E-03        -1.36562    -305.089E-03    -258.401E-03    -281.901E-03    -678.299E-03     6.31784E-03    -3.01847E-03    -3.29937E-03    -3.00978E-03     6.02825E-03    -3.01847E-03     3.18781E-03     70.0753E+06     3.82535E+06    -29.1361E+06    -9.96408E+06     50.9033E+06     3.82535E+06     37.8636E+06         20.4789
            1942     2.99064E-03     102.960E-03     396.319E-03    -285.818E-03    -938.566E-03    -273.843E-03    -268.405E-03    -285.818E-03     161.869E-03     6.89058E-03    -3.09203E-03    -3.79855E-03    -3.09519E-03     6.18722E-03    -3.09203E-03     5.19897E-03     58.8071E+06    -27.4041E+03    -48.7419E+06    -19.0741E+06     29.1393E+06    -27.4041E+03     47.2768E+06         20.5453
            1943     3.98822E-03     102.962E-03     213.300E-03    -264.558E-03    -781.731E-03    -108.499E-03    -459.933E-03    -264.558E-03    -270.525E-03     8.30471E-03    -3.24350E-03    -5.06121E-03    -3.68936E-03     6.93286E-03    -3.24350E-03     8.06228E-03     54.6780E+06     5.75994E+06    -57.4085E+06    -21.3314E+06     18.6009E+06     5.75994E+06     52.2084E+06         20.6386
            1944     4.98354E-03     102.968E-03     151.463E-03    -216.618E-03    -777.152E-03     71.9368E-03    -697.625E-03    -216.618E-03     158.814E-03     10.0383E-03    -3.45496E-03    -6.58332E-03    -4.44052E-03     7.89547E-03    -3.45496E-03     11.1102E-03     49.7638E+06     7.46356E+06    -56.8588E+06    -21.5020E+06     14.4070E+06     7.46356E+06     50.0758E+06         20.7608
            1945     5.97870E-03     102.975E-03     255.291E-03    -155.553E-03    -956.685E-03     237.638E-03    -939.032E-03    -155.553E-03    -3.45361E-03     11.6485E-03    -3.68533E-03    -7.96320E-03    -4.91840E-03     8.60373E-03    -3.68533E-03     14.1654E-03     35.1998E+06     2.75416E+06    -55.8167E+06    -25.6175E+06     5.00064E+06     2.75416E+06     42.7129E+06         20.9217
            1946     6.97365E-03     102.984E-03     405.922E-03    -89.5018E-03        -1.19711     385.670E-03        -1.17686    -89.5018E-03    -73.3759E-03     13.9075E-03    -3.94274E-03    -9.96474E-03    -5.71639E-03     9.65913E-03    -3.94274E-03     18.2293E-03     23.0758E+06     819.053E+03    -51.4619E+06    -29.2515E+06     865.478E+03     819.053E+03     33.8909E+06         21.1412
            1947     7.96716E-03     102.997E-03     575.466E-03    -20.2577E-03        -1.46790     557.134E-03        -1.44957    -20.2577E-03    -371.768E-03     17.2051E-03    -4.29156E-03    -12.9136E-03    -7.17850E-03     11.4701E-03    -4.29156E-03     23.6217E-03     12.6634E+06     3.64698E+06    -41.8294E+06    -29.6871E+06    -125.879E+03     4.29398E+06     22.1678E+06         21.4457
            1948     8.95929E-03     103.015E-03     754.314E-03     52.7102E-03        -1.75821     732.583E-03        -1.73648     52.7102E-03    -454.165E-03     21.5508E-03    -4.77633E-03    -16.7744E-03    -9.33790E-03     14.1142E-03    -4.77633E-03     30.2786E-03     9.49210E+06    -2.96925E+06    -33.6914E+06    -29.1768E+06    -7.12973E+06     9.13805E+06     10.0477E+06         21.8677
            1949     9.94848E-03     103.040E-03     905.642E-03     126.994E-03        -2.03004     874.887E-03        -1.99928     126.994E-03    -595.986E-03     26.8809E-03    -5.41576E-03    -21.4652E-03    -12.3465E-03     17.7622E-03    -5.41576E-03     37.7715E-03     13.2420E+06    -12.0799E+06    -30.9070E+06    -29.0042E+06    -13.9827E+06     13.2420E+06    -119.893E+03         22.4591
            1950     10.9349E-03     103.071E-03     998.603E-03     197.962E-03        -2.24173     953.597E-03        -2.19672     197.962E-03    -748.403E-03     33.3166E-03    -6.25429E-03    -27.0624E-03    -16.6717E-03     22.9260E-03    -6.25429E-03     45.4775E-03     15.4213E+06    -12.9375E+06    -36.4303E+06    -27.0072E+06    -22.3606E+06     15.4213E+06    -9.34723E+06         23.3312
            1951     11.9158E-03     103.109E-03         1.03925     261.583E-03        -2.39756     979.767E-03        -2.33808     261.583E-03    -896.068E-03     41.9064E-03    -7.37855E-03    -34.5278E-03    -23.1175E-03     30.4960E-03    -7.37855E-03     54.3378E-03     19.6908E+06    -3.90135E+06    -38.3215E+06    -19.7489E+06    -22.4739E+06     19.6908E+06    -16.6468E+06         24.7436
            1952     12.8906E-03     103.159E-03         1.04467     317.028E-03        -2.51866     994.390E-03        -2.46838     317.028E-03    -837.198E-03     53.9647E-03    -8.90333E-03    -45.0614E-03    -32.4175E-03     41.3208E-03    -8.90333E-03     65.8997E-03     18.0667E+06     3.22218E+06    -51.2940E+06    -10.5184E+06    -37.5534E+06     18.0667E+06    -20.0154E+06         27.3104
            1953     13.8522E-03     103.223E-03         1.05223     366.153E-03        -2.64081         1.02100        -2.60958     366.153E-03    -663.348E-03     70.5442E-03    -10.8430E-03    -59.7012E-03    -44.2024E-03     55.0454E-03    -10.8430E-03     84.1768E-03     16.6818E+06     1.30862E+06    -40.2436E+06    -4.86461E+06    -23.1782E+06     5.78960E+06    -15.9548E+06         32.4289
            1954     14.8079E-03     103.317E-03         1.07285     411.156E-03        -2.77820         1.05725        -2.76260     411.156E-03    -483.428E-03     88.9122E-03    -13.4329E-03    -75.4793E-03    -56.3725E-03     69.8054E-03    -13.4329E-03     105.229E-03     43.0793E+06     31.0643E+06    -11.2553E+06    -4.54625E+06     37.6389E+06     29.7957E+06    -5.06056E+06         42.4478
            1955     15.7462E-03     103.432E-03         1.09056     453.901E-03        -2.91076         1.08032        -2.90052     453.901E-03    -403.451E-03     121.376E-03    -15.6151E-03    -105.761E-03    -46.4446E-03     62.0597E-03    -15.6151E-03     188.447E-03     24.7827E+06    -22.1306E+06    -105.440E+06    -11.3851E+06    -69.2718E+06    -22.1306E+06     1.70760E+06         58.7301
            1956     16.7337E-03     103.711E-03         1.06717     497.313E-03        -2.99161         1.06209        -2.98653     497.313E-03    -255.014E-03     256.774E-03    -16.5594E-03    -240.214E-03    -48.2083E-03     64.7677E-03    -16.5594E-03     483.532E-03     78.6732E+06     26.7371E+06    -103.564E+06    -11.0605E+06    -21.2444E+06     34.1513E+06    -848.493E+03         76.7208
            1957     998.520E-06     103.962E-03         1.95882    -763.610E-03        -1.84488     83.7926E-03     30.1519E-03    -763.610E-03         1.67412     3.81981E-03    -1.81883E-03    -2.00098E-03    -1.92025E-03     3.73908E-03    -1.81883E-03     1.13748E-03     42.7830E+06    -3.69999E+06    -49.3221E+06    -16.9972E+06     10.4582E+06    -3.69999E+06     39.7778E+06         20.3018
            1958     1.99597E-03     103.963E-03     667.873E-03    -345.604E-03    -981.260E-03    -367.816E-03     54.4286E-03    -345.604E-03    -528.449E-03     4.21797E-03    -1.95877E-03    -2.25920E-03    -2.00215E-03     3.96091E-03    -1.95877E-03     2.47164E-03     56.3658E+06    -2.63326E+06    -60.2761E+06    -20.5532E+06     16.6429E+06    -2.63326E+06     54.0338E+06         20.3427
            1959     2.99435E-03     103.964E-03     408.479E-03    -346.241E-03    -715.670E-03    -315.955E-03     8.76419E-03    -346.241E-03    -13.9124E-03     5.21207E-03    -2.10975E-03    -3.10232E-03    -2.34691E-03     4.45666E-03    -2.10975E-03     4.67698E-03     52.6728E+06     1.82332E+06    -67.6752E+06    -21.9491E+06     6.94671E+06     1.82332E+06     57.6759E+06         20.4112
            1960     3.99115E-03     103.969E-03     196.346E-03    -299.084E-03    -556.019E-03    -154.926E-03    -183.134E-03    -320.696E-03    -377.508E-03     6.78568E-03    -2.32819E-03    -4.45749E-03    -2.98260E-03     5.31079E-03    -2.32819E-03     7.56033E-03     51.3198E+06     9.05207E+06    -70.3095E+06    -21.8999E+06     2.91014E+06     9.05207E+06     59.0986E+06         20.5069
            1961     4.98815E-03     103.975E-03     94.7683E-03    -246.995E-03    -516.815E-03     47.8446E-03    -448.278E-03    -268.608E-03     43.4236E-03     8.08803E-03    -2.53668E-03    -5.55135E-03    -3.38105E-03     5.91773E-03    -2.53668E-03     9.93554E-03     52.2895E+06     9.93525E+06    -65.6763E+06    -21.9158E+06     8.52904E+06     9.93525E+06     56.9660E+06         20.6326
            1962     5.98458E-03     103.982E-03     260.286E-03    -199.889E-03    -743.985E-03     248.594E-03    -732.293E-03    -199.889E-03    -12.9888E-03     9.79061E-03    -2.74753E-03    -7.04308E-03    -3.87574E-03     6.62328E-03    -2.74753E-03     13.1187E-03     44.8935E+06     8.86939E+06    -59.7586E+06    -21.1779E+06     6.31283E+06     8.86939E+06     50.4766E+06         20.8022
            1963     6.98022E-03     103.993E-03     441.714E-03    -123.604E-03        -1.03125     425.613E-03        -1.01515    -123.604E-03    -106.517E-03     12.4598E-03    -3.00948E-03    -9.45032E-03    -4.86006E-03     7.86955E-03    -3.00948E-03     17.8059E-03     35.0451E+06     10.4789E+06    -49.7945E+06    -21.7264E+06     6.97698E+06     10.4789E+06     39.6803E+06         21.0372
            1964     7.97484E-03     104.008E-03     645.531E-03    -42.8102E-03        -1.35838     626.996E-03        -1.33985    -42.8102E-03    -373.430E-03     16.0348E-03    -3.35695E-03    -12.6778E-03    -6.32924E-03     9.68619E-03    -3.35695E-03     23.8044E-03     25.9422E+06     12.6253E+06    -38.6003E+06    -23.0739E+06     10.4158E+06     12.6253E+06     27.1729E+06         21.3629
            1965     8.96753E-03     104.028E-03     844.333E-03     42.2458E-03        -1.69279     823.860E-03        -1.67232     42.2458E-03    -449.458E-03     20.7052E-03    -3.82783E-03    -16.8774E-03    -8.39121E-03     12.2190E-03    -3.82783E-03     31.3892E-03     17.4020E+06     6.43975E+06    -31.1610E+06    -24.4817E+06     3.50471E+06     13.6577E+06     15.0046E+06         21.8140
            1966     9.95830E-03     104.056E-03     986.546E-03     127.037E-03        -1.97414     957.687E-03        -1.94528     127.037E-03    -581.626E-03     26.5814E-03    -4.45500E-03    -22.1264E-03    -11.3229E-03     15.7779E-03    -4.45500E-03     40.4157E-03     17.7731E+06     490.317E+03    -25.5374E+06    -23.1171E+06    -1.92996E+06     17.7731E+06     2.26215E+06         22.4508
            1967     10.9454E-03     104.092E-03         1.06382     205.400E-03        -2.18324         1.01862        -2.13803     205.400E-03    -751.292E-03     34.1714E-03    -5.30118E-03    -28.8703E-03    -15.9646E-03     21.2657E-03    -5.30118E-03     50.7714E-03     22.0680E+06    -1.81176E+06    -28.6925E+06    -18.9078E+06    -11.5964E+06     22.0680E+06    -9.43518E+06         23.3927
            1968     11.9275E-03     104.139E-03         1.11137     274.630E-03        -2.35681         1.05079        -2.29623     274.630E-03    -908.543E-03     44.5878E-03    -6.46163E-03    -38.1262E-03    -23.2035E-03     29.6651E-03    -6.46163E-03     63.4496E-03     23.7855E+06     2.35792E+06    -35.1726E+06    -18.3921E+06    -14.4226E+06     23.7855E+06    -16.7925E+06         24.8846
            1969     12.9003E-03     104.199E-03         1.12621     335.649E-03        -2.49656         1.07664        -2.44699     335.649E-03    -835.261E-03     58.6906E-03    -8.06108E-03    -50.6295E-03    -33.3548E-03     41.4159E-03    -8.06108E-03     79.5367E-03     17.3274E+06     3.67421E+06    -55.2460E+06    -19.5591E+06    -32.0127E+06     17.3274E+06    -23.1258E+06         27.4654
            1970     13.8652E-03     104.280E-03         1.12579     390.223E-03        -2.62156         1.09775        -2.59351     390.223E-03    -631.308E-03     76.9820E-03    -10.0961E-03    -66.8859E-03    -45.5697E-03     55.6657E-03    -10.0961E-03     102.012E-03     4.76216E+06    -6.73299E+06     -50.911E+06    -17.6480E+06    -34.5586E+06    -675.301E+03    -18.6852E+06         32.3511
            1971     14.8136E-03     104.388E-03         1.10658     439.050E-03        -2.72745         1.09393        -2.71480     439.050E-03    -428.371E-03     95.6892E-03    -12.7082E-03    -82.9810E-03    -56.6050E-03     69.3132E-03    -12.7082E-03     126.303E-03     29.7465E+06     20.2181E+06    -23.8381E+06    -17.0226E+06     22.9136E+06     20.2354E+06    -2.65369E+06         41.7292
            1972     15.7582E-03     104.521E-03         1.05418     481.737E-03        -2.79574         1.04679        -2.78836     481.737E-03    -333.206E-03     113.177E-03    -15.1341E-03    -98.0431E-03    -52.7824E-03     67.9165E-03    -15.1341E-03     168.566E-03     29.6967E+06    -23.7438E+06    -106.757E+06    -9.32044E+06    -67.7397E+06    -23.7438E+06     1.38903E+06         57.0983
            1973     16.7224E-03     104.708E-03         1.00101     523.089E-03        -2.85121     997.045E-03        -2.84724     523.089E-03    -227.514E-03     242.512E-03    -16.5076E-03    -226.004E-03    -51.6944E-03     68.2020E-03    -16.5076E-03     447.768E-03     83.4823E+06     27.8186E+06    -96.1745E+06     84.2288E+03    -19.0732E+06     34.1154E+06    -1.97728E+06         74.4550
            1974     998.709E-06     104.965E-03         1.61834    -725.326E-03        -1.33497    -113.981E-03     397.356E-03    -725.326E-03         1.35934     2.31594E-03    -1.10324E-03    -1.21269E-03    -1.14480E-03     2.26397E-03    -1.11917E-03     770.039E-06    -18.8587E+06    -62.1180E+06    -97.0997E+06    -57.1771E+06    -55.4800E+06    -65.4193E+06     37.0265E+06         20.2180
            1975     1.99810E-03     104.966E-03     656.556E-03    -409.143E-03    -692.383E-03    -366.846E-03     331.019E-03    -409.143E-03    -383.556E-03     2.64798E-03    -1.21464E-03    -1.43334E-03    -1.25078E-03     2.46833E-03    -1.21755E-03     1.62090E-03     23.9612E+06    -32.0873E+06    -82.1594E+06    -39.1617E+06    -19.0365E+06    -32.0873E+06     51.9364E+06         20.2549
            1976     2.99638E-03     104.968E-03     469.745E-03    -384.278E-03    -546.498E-03    -298.221E-03     221.469E-03    -384.278E-03    -105.307E-03     4.12781E-03    -1.44724E-03    -2.68058E-03    -1.88603E-03     3.33327E-03    -1.44724E-03     4.25717E-03     39.8079E+06    -5.26214E+06    -79.6837E+06    -23.3511E+06    -16.5247E+06    -5.26214E+06     58.4123E+06         20.3178
            1977     3.99394E-03     104.974E-03     229.474E-03    -266.632E-03    -427.541E-03    -112.130E-03    -11.2550E-03    -341.314E-03    -400.830E-03     5.65513E-03    -1.68322E-03    -3.97191E-03    -2.42788E-03     4.11110E-03    -1.68322E-03     7.04403E-03     48.7400E+06     3.38342E+06    -80.6923E+06    -16.0591E+06    -15.8932E+06     3.38342E+06     63.7748E+06         20.4071
            1978     4.99111E-03     104.980E-03     97.4710E-03    -202.898E-03    -369.245E-03     73.0034E-03    -270.095E-03    -277.580E-03    -21.3082E-03     6.68673E-03    -1.88170E-03    -4.80503E-03    -2.55906E-03     4.44077E-03    -1.88170E-03     9.08448E-03     57.6235E+06     9.64590E+06    -71.6654E+06    -15.9718E+06     1.92993E+06     9.64590E+06     63.6641E+06         20.5299
            1979     5.98867E-03     104.988E-03     291.078E-03    -202.071E-03    -582.329E-03     282.243E-03    -573.494E-03    -202.071E-03    -31.5960E-03     8.54332E-03    -2.07647E-03    -6.46686E-03    -3.10027E-03     5.17673E-03    -2.07647E-03     12.5039E-03     51.7012E+06     12.6216E+06    -62.3142E+06    -17.3822E+06     6.76917E+06     12.6216E+06     55.6005E+06         20.7026
            1980     6.98519E-03     105.000E-03     521.354E-03    -116.950E-03    -932.884E-03     507.085E-03    -918.615E-03    -116.950E-03    -149.471E-03     11.3618E-03    -2.33263E-03    -9.02921E-03    -4.12170E-03     6.45433E-03    -2.33263E-03     17.4164E-03     45.7840E+06     18.3825E+06    -46.5861E+06    -15.5932E+06     14.7911E+06     18.3825E+06     43.3836E+06         20.9456
            1981     7.98042E-03     105.017E-03     736.877E-03    -25.7307E-03        -1.29562     714.854E-03        -1.27360    -25.7307E-03    -414.385E-03     15.0608E-03    -2.66920E-03    -12.3917E-03    -5.46741E-03     8.13660E-03    -2.66920E-03     23.8234E-03     38.4938E+06     22.6303E+06    -32.8750E+06    -13.2519E+06     18.8707E+06     22.6303E+06     31.5620E+06         21.2832
            1982     8.97434E-03     105.039E-03     897.753E-03     66.0141E-03        -1.61064     873.949E-03        -1.58684     66.0141E-03    -483.321E-03     19.9519E-03    -3.10537E-03    -16.8465E-03    -7.34044E-03     10.4458E-03    -3.10537E-03     32.1881E-03     30.1198E+06     20.6892E+06    -22.8278E+06    -11.7341E+06     14.9336E+06     24.7817E+06     19.8106E+06         21.7532
            1983     9.96605E-03     105.070E-03         1.00428     152.832E-03        -1.86625     976.146E-03        -1.83812     152.832E-03    -564.938E-03     26.2577E-03    -3.68278E-03    -22.5749E-03    -10.1262E-03     13.8090E-03    -3.68278E-03     42.5258E-03     27.7462E+06     14.6721E+06    -15.8789E+06    -12.6578E+06     11.4510E+06     27.7462E+06     6.24008E+06         22.4231
            1984     10.9550E-03     105.112E-03         1.08775     232.020E-03        -2.08778         1.04726        -2.04729     232.020E-03    -704.756E-03     34.8454E-03    -4.47611E-03    -30.3693E-03    -14.7034E-03     19.1795E-03    -4.47611E-03     55.6279E-03     28.8201E+06     7.60756E+06    -22.9559E+06    -15.7497E+06     401.312E+03     28.8201E+06    -6.11867E+06         23.4141
            1985     11.9378E-03     105.167E-03         1.16867     304.163E-03        -2.30029         1.11529        -2.24691     304.163E-03    -852.273E-03     46.9377E-03    -5.58582E-03    -41.3519E-03    -22.1002E-03     27.6860E-03    -5.58582E-03     72.7315E-03     26.9732E+06     1.59890E+06    -29.4934E+06    -17.5395E+06    -10.3551E+06     26.9732E+06    -11.1872E+06         24.9456
            1986     12.9134E-03     105.240E-03         1.20520     370.349E-03        -2.47011         1.16401        -2.42893     370.349E-03    -760.466E-03     62.7102E-03    -7.13240E-03    -55.5778E-03    -32.4379E-03     39.5703E-03    -7.13240E-03     93.5833E-03     18.5153E+06    -4.49064E+06    -43.7107E+06    -24.8903E+06    -23.3110E+06     18.5153E+06    -12.7384E+06         27.4730
            1987     13.8759E-03     105.334E-03         1.18352     429.786E-03        -2.58350         1.16186        -2.56184     429.786E-03    -558.385E-03     81.6022E-03    -9.08082E-03    -72.5214E-03    -43.4609E-03     52.5417E-03    -9.08082E-03     120.183E-03     1.26892E+06    -13.7156E+06    -59.8490E+06    -32.6761E+06    -35.7837E+06    -3.83587E+06    -19.5861E+06         32.0471
            1988     14.8334E-03     105.459E-03         1.10301     480.154E-03        -2.63219         1.09394        -2.62312     480.154E-03    -349.085E-03     99.6059E-03    -11.4522E-03    -88.1537E-03    -52.3579E-03     63.8101E-03    -11.4522E-03     147.099E-03     17.6709E+06     8.01558E+06    -42.0146E+06    -25.8671E+06     1.50614E+06     8.03286E+06    -9.82374E+06         40.7116
            1989     15.7845E-03     105.596E-03         1.01617     520.756E-03        -2.66753         1.01005        -2.66141     520.756E-03    -289.723E-03     121.408E-03    -13.9828E-03    -107.425E-03    -62.5353E-03     76.5181E-03    -13.9828E-03     181.565E-03     17.6563E+06    -34.4361E+06    -102.897E+06    -16.9509E+06    -68.2900E+06    -34.4361E+06    -5.24221E+06         55.0465
            1990     16.7134E-03     105.784E-03     953.015E-03     558.357E-03        -2.70299     948.312E-03        -2.69829     558.357E-03    -229.406E-03     226.655E-03    -15.9937E-03    -210.661E-03    -55.9902E-03     71.9839E-03    -15.9937E-03     407.503E-03     71.6394E+06     18.5278E+06    -88.8706E+06    -5.52146E+06    -17.2621E+06     24.0802E+06    -10.1688E+06         71.5791
            1991     998.932E-06     105.966E-03         1.42482    -698.918E-03    -926.826E-03    -160.146E-03     658.136E-03    -698.918E-03         1.10884     1.67657E-03    -816.815E-06    -859.753E-06    -826.741E-06     1.65948E-03    -832.740E-06     376.868E-06    -83.0907E+06    -162.274E+06    -174.610E+06    -157.853E+06    -94.3603E+06    -167.762E+06     9.11004E+06         20.1960
            1992     1.99770E-03     105.968E-03     672.397E-03    -394.425E-03    -505.901E-03    -320.684E-03     500.412E-03    -407.657E-03    -207.854E-03     1.93658E-03    -870.698E-06    -1.06588E-03    -969.291E-06     1.84290E-03    -873.608E-06     961.761E-06    -33.5791E+06    -128.398E+06    -147.269E+06    -125.243E+06    -50.9048E+06    -133.098E+06     21.4168E+06         20.2234
            1993     2.99670E-03     105.971E-03     507.686E-03    -346.440E-03    -399.718E-03    -203.733E-03     324.933E-03    -359.672E-03    -87.6639E-03     3.05782E-03    -1.07183E-03    -1.98599E-03    -1.40890E-03     2.48073E-03    -1.07183E-03     3.08158E-03    -9.51160E+06    -85.8589E+06    -125.723E+06    -86.9640E+06    -40.8115E+06    -93.3176E+06     35.3601E+06         20.2712
            1994     3.99510E-03     105.977E-03     261.971E-03    -188.933E-03    -326.040E-03    -57.9052E-03     107.593E-03    -302.689E-03    -350.184E-03     4.04488E-03    -1.26030E-03    -2.78458E-03    -1.66537E-03     2.92567E-03    -1.26030E-03     5.03996E-03     6.37502E+06    -53.0705E+06    -102.862E+06    -50.5342E+06    -36.3040E+06    -62.7196E+06     44.8373E+06         20.3434
            1995     4.99363E-03     105.984E-03     147.179E-03    -122.880E-03    -288.723E-03     113.224E-03    -141.012E-03    -236.636E-03    -60.2724E-03     5.14970E-03    -1.45125E-03    -3.69845E-03    -1.87366E-03     3.32491E-03    -1.45125E-03     7.13428E-03     38.9417E+06    -19.8972E+06    -72.9954E+06    -18.7344E+06    -10.6149E+06    -24.6016E+06     52.3124E+06         20.4524
            1996     5.99116E-03     105.993E-03     351.740E-03    -159.370E-03    -479.176E-03     341.057E-03    -468.493E-03    -159.370E-03    -114.693E-03     7.37932E-03    -1.67904E-03    -5.70028E-03    -2.52341E-03     4.20245E-03    -1.67904E-03     11.2093E-03     56.7896E+06     7.60008E+06    -51.8812E+06     246.215E+03     4.66221E+06     7.60008E+06     53.5970E+06         20.6166
            1997     6.98804E-03     106.006E-03     605.132E-03    -70.2397E-03    -867.510E-03     583.109E-03    -845.487E-03    -70.2397E-03    -284.449E-03     10.3153E-03    -1.93133E-03    -8.38402E-03    -3.47475E-03     5.40607E-03    -1.93133E-03     16.4499E-03     61.0782E+06     23.7987E+06      -41.04E+06     1.77611E+06     18.2621E+06     23.7987E+06     49.1814E+06         20.8551
            1998     7.98411E-03     106.024E-03     819.849E-03     24.8280E-03        -1.24222     783.164E-03        -1.20553     24.8280E-03    -536.022E-03     14.0793E-03    -2.24095E-03    -11.8383E-03    -4.70090E-03     6.94185E-03    -2.24095E-03     23.1489E-03     54.6997E+06     30.1142E+06    -32.6910E+06    -5.22884E+06     27.2376E+06     30.1142E+06     39.1938E+06         21.1919
            1999     8.97896E-03     106.049E-03     946.422E-03     117.900E-03        -1.53360     915.789E-03        -1.50297     117.900E-03    -544.769E-03     19.0319E-03    -2.63883E-03    -16.3931E-03    -6.36784E-03     9.00667E-03    -2.63883E-03     31.9055E-03     42.5634E+06     32.3128E+06    -20.2222E+06    -8.12504E+06     28.5195E+06     34.2594E+06     22.9122E+06         21.6672
            2000     9.97209E-03     106.083E-03         1.03544     204.315E-03        -1.77934         1.00928        -1.75317     204.315E-03    -538.085E-03     25.6484E-03    -3.15437E-03    -22.4940E-03    -8.85613E-03     12.0105E-03    -3.15437E-03     43.3617E-03     37.7028E+06     26.4688E+06    -10.0953E+06    -5.44479E+06     21.8182E+06     37.7028E+06     10.2670E+06         22.3510
            2001     10.9618E-03     106.129E-03         1.12582     283.942E-03        -2.01284         1.09463        -1.98165     283.942E-03    -617.476E-03     35.0199E-03    -3.85037E-03    -31.1695E-03    -13.0166E-03     16.8670E-03    -3.85037E-03     59.0060E-03     37.4063E+06     14.6674E+06    -12.9063E+06    -7.70485E+06     9.46597E+06     37.4063E+06     4.53864E+06         23.3574
            2002     11.9479E-03     106.192E-03         1.20666     357.904E-03        -2.23076         1.16582        -2.18992     357.904E-03    -742.715E-03     48.3317E-03    -4.83152E-03    -43.5002E-03    -19.9100E-03     24.7415E-03    -4.83152E-03     80.1208E-03     32.2360E+06     3.91952E+06    -23.6162E+06    -15.4264E+06    -4.27029E+06     32.2360E+06    -3.09836E+06         24.8713
            2003     12.9253E-03     106.276E-03         1.22000     425.326E-03        -2.38358         1.18845        -2.35203     425.326E-03    -659.475E-03     64.7787E-03    -6.19013E-03    -58.5886E-03    -28.8559E-03     35.0460E-03    -6.19013E-03     105.255E-03     25.4417E+06    -1.84738E+06    -37.1538E+06    -15.5393E+06    -23.4619E+06     25.4417E+06    -4.71833E+06         27.2731
            2004     13.8955E-03     106.386E-03         1.15242     483.112E-03        -2.45081         1.13529        -2.43368     483.112E-03    -493.145E-03     82.9278E-03    -7.83699E-03    -75.0908E-03    -37.1519E-03     44.9889E-03    -7.83699E-03     134.587E-03     24.5767E+06     3.71441E+06    -46.3019E+06    -17.5879E+06    -16.5614E+06     16.1386E+06    -9.56515E+06         31.5095
            2005     14.8591E-03     106.515E-03         1.05770     529.394E-03        -2.48233         1.04928        -2.47391     529.394E-03    -325.334E-03     102.883E-03    -9.82424E-03    -93.0585E-03    -47.6783E-03     57.5026E-03    -9.82424E-03     164.982E-03     20.7441E+06     10.2593E+06    -53.9581E+06    -18.2603E+06    -14.9536E+06     10.2593E+06    -18.0398E+06         39.4582
            2006     15.8159E-03     106.672E-03     999.378E-03     566.490E-03        -2.53785     990.846E-03        -2.52931     566.490E-03    -325.943E-03     131.543E-03    -12.0857E-03    -119.457E-03    -61.2060E-03     73.2917E-03    -12.0857E-03     210.978E-03     7.10248E+06    -34.0239E+06    -88.3367E+06    -10.3442E+06    -70.8900E+06    -34.0239E+06    -16.4964E+06         52.7638
            2007     16.7511E-03     106.902E-03     910.955E-03     599.663E-03        -2.53273     903.898E-03        -2.52567     599.663E-03    -230.531E-03     215.470E-03    -14.4858E-03    -200.984E-03    -65.4713E-03     79.9571E-03    -14.4858E-03     383.912E-03     69.8955E+06     14.6684E+06    -62.2422E+06    -7.59738E+06    -896.731E+03     30.8158E+06    -11.5051E+06         68.2845
            2008     998.113E-06     106.968E-03         1.27926    -539.517E-03    -693.653E-03    -89.2368E-03     674.846E-03    -539.517E-03         1.00559     2.74972E-03    -1.27892E-03    -1.47080E-03    -1.37683E-03     2.74672E-03    -1.36989E-03     67.6492E-06    -92.6514E+06    -186.555E+06    -202.366E+06    -192.694E+06    -93.8609E+06    -195.017E+06    -9.05873E+06         20.2485
            2009     1.99635E-03     106.970E-03     640.710E-03    -279.986E-03    -342.143E-03    -210.061E-03     521.859E-03    -293.218E-03    -92.0728E-03     2.99349E-03    -1.39095E-03    -1.60254E-03    -1.55762E-03     2.94856E-03    -1.39095E-03     601.546E-06    -63.0026E+06    -180.587E+06    -188.160E+06    -181.496E+06    -64.9663E+06    -185.287E+06    -9.67884E+06         20.2656
            2010     2.99409E-03     106.973E-03     510.898E-03    -235.964E-03    -274.581E-03    -113.434E-03     362.982E-03    -249.196E-03    -50.1277E-03     3.21746E-03    -1.41543E-03    -1.80203E-03    -1.51757E-03     2.98429E-03    -1.46672E-03     1.81323E-03    -51.8432E+06    -159.472E+06    -168.667E+06    -156.636E+06    -55.6268E+06    -167.720E+06    -2.28194E+06         20.2948
            2011     3.99244E-03     106.979E-03     292.433E-03    -93.8286E-03    -216.971E-03    -8.31671E-03     191.584E-03    -201.634E-03    -322.868E-03     3.22347E-03    -1.33576E-03    -1.88770E-03    -1.30095E-03     2.77037E-03    -1.46942E-03     2.69961E-03    -39.5974E+06    -129.359E+06    -146.356E+06    -121.282E+06    -47.6741E+06    -146.356E+06     2.30909E+06         20.3437
            2012     4.99132E-03     106.986E-03     211.088E-03    -37.5699E-03    -213.082E-03     166.535E-03    -60.7230E-03    -145.375E-03    -122.850E-03     3.80246E-03    -1.37133E-03    -2.43113E-03    -1.35231E-03     2.80602E-03    -1.45371E-03     4.40091E-03    -6.94143E+06    -90.6184E+06    -123.161E+06    -78.4634E+06    -26.0188E+06    -116.239E+06     9.48112E+06         20.4274
            2013     5.99040E-03     106.996E-03     422.832E-03    -73.2900E-03    -420.984E-03     403.687E-03    -401.839E-03    -73.2900E-03    -222.917E-03     5.67007E-03    -1.55904E-03    -4.11102E-03    -1.91308E-03     3.47212E-03    -1.55904E-03     8.12481E-03     21.2978E+06    -42.0600E+06    -93.3420E+06    -33.4168E+06    -7.93527E+06    -72.7521E+06     23.0032E+06         20.5651
            2014     6.98846E-03     107.011E-03     672.102E-03     12.5540E-03    -808.430E-03     637.326E-03    -773.653E-03     12.5540E-03    -425.795E-03     8.48256E-03    -1.82145E-03    -6.66111E-03    -2.76366E-03     4.58511E-03    -1.82145E-03     13.2219E-03     45.3473E+06    -1.91378E+06    -50.8196E+06     3.27389E+06     8.65459E+06    -19.3146E+06     36.8969E+06         20.7767
            2015     7.98522E-03     107.030E-03     884.418E-03     104.621E-03        -1.18305     834.087E-03        -1.13272     104.621E-03    -629.497E-03     12.4492E-03    -2.17601E-03    -10.2732E-03    -3.95658E-03     6.13259E-03    -2.17601E-03     20.3510E-03     71.6522E+06     28.8613E+06    -22.9031E+06     20.9758E+06     28.8396E+06     27.7950E+06     43.5089E+06         21.0894
            2016     8.98024E-03     107.057E-03         1.00923     195.830E-03        -1.47717     974.595E-03        -1.44254     195.830E-03    -577.394E-03     17.5882E-03    -2.55822E-03    -15.0300E-03    -5.52034E-03     8.07856E-03    -2.55822E-03     29.6455E-03     73.0612E+06     48.6138E+06    -16.7729E+06     13.7946E+06     41.7583E+06     49.3493E+06     37.0177E+06         21.5463
            2017     9.97398E-03     107.093E-03         1.10437     282.081E-03        -1.73374         1.07990        -1.70927     282.081E-03    -521.926E-03     24.4151E-03    -2.99559E-03    -21.4195E-03    -7.76181E-03     10.7574E-03    -2.99559E-03     41.9259E-03     53.1463E+06     39.4210E+06    -17.4865E+06    -5.37659E+06     33.0937E+06     47.3637E+06     22.2995E+06         22.2150
            2018     10.9664E-03     107.143E-03         1.18323     362.266E-03        -1.96392         1.15679        -1.93749     362.266E-03    -572.398E-03     34.0396E-03    -3.57343E-03    -30.4662E-03    -11.2216E-03     14.7951E-03    -3.57343E-03     59.0089E-03     43.3176E+06     22.7798E+06    -16.7778E+06    -10.3945E+06     16.3964E+06     43.3176E+06     9.56956E+06         23.1935
            2019     11.9536E-03     107.212E-03         1.21246     434.816E-03        -2.13784         1.17669        -2.10207     434.816E-03    -687.655E-03     48.1465E-03    -4.37885E-03    -43.7677E-03    -16.7816E-03     21.1605E-03    -4.37885E-03     83.6235E-03     44.4343E+06     14.9816E+06    -14.9628E+06    -3.82398E+06     3.84275E+06     44.4343E+06     3.05376E+06         24.6274
            2020     12.9357E-03     107.308E-03         1.15189     496.401E-03        -2.21447         1.12241        -2.18498     496.401E-03    -617.826E-03     63.4973E-03    -5.41283E-03    -58.0845E-03    -22.6813E-03     28.0941E-03    -5.41283E-03     110.252E-03     36.9403E+06     2.42154E+06    -30.5708E+06    -5.06326E+06    -23.0860E+06     36.9403E+06    -1.04025E+06         26.8551
            2021     13.9145E-03     107.422E-03         1.05654     545.324E-03        -2.24840         1.04024        -2.23210     545.324E-03    -460.718E-03     81.0384E-03    -6.62504E-03    -74.4134E-03    -29.4562E-03     36.0812E-03    -6.62504E-03     140.751E-03     39.0909E+06     9.12024E+06    -25.3473E+06    -5.58954E+06    -7.30423E+06     35.7576E+06    -2.39852E+06         30.7756
            2022     14.8909E-03     107.565E-03         1.00282     584.525E-03        -2.31200     994.524E-03        -2.30370     584.525E-03    -314.216E-03     106.025E-03    -8.26469E-03    -97.7605E-03    -44.2157E-03     52.4804E-03    -8.26469E-03     178.998E-03     36.5275E+06     17.7620E+06    -29.8932E+06    -6.38761E+06    -1.60224E+06     32.3862E+06    -14.0077E+06         38.0686
            2023     15.8422E-03     107.750E-03     946.110E-03     616.959E-03        -2.35289     937.896E-03        -2.34468     616.959E-03    -311.085E-03     127.669E-03    -10.3171E-03    -117.352E-03    -57.6417E-03     67.9587E-03    -10.3171E-03     209.555E-03     12.4369E+06    -29.8629E+06    -85.6554E+06    -9.69781E+06    -69.9042E+06    -23.4794E+06    -23.6182E+06         50.3376
            2024     16.8234E-03     107.962E-03     817.671E-03     628.457E-03        -2.28784     795.890E-03        -2.28120     643.598E-03    -178.615E-03     203.642E-03    -13.0417E-03    -190.600E-03    -77.0810E-03     90.1227E-03    -13.0417E-03     355.116E-03     65.8231E+06     9.49934E+06    -70.4299E+06    -15.2380E+06    -10.5842E+06     30.7148E+06    -15.7176E+06         64.8360
            2025     997.403E-06     107.972E-03         1.05667    -270.882E-03    -488.556E-03     60.0928E-03     508.018E-03    -270.882E-03     836.483E-03     5.31513E-03    -2.53776E-03    -2.77737E-03    -2.66976E-03     5.31333E-03    -2.64356E-03    -49.2340E-06    -73.8410E+06    -137.545E+06    -153.549E+06    -145.123E+06    -75.9918E+06    -143.820E+06    -11.4742E+06         20.3788
            2026     1.99369E-03     107.974E-03     552.753E-03    -95.2480E-03    -166.457E-03    -56.7817E-03     443.077E-03    -95.2480E-03    -90.1952E-03     5.49533E-03    -2.66078E-03    -2.83455E-03    -2.81005E-03     5.48566E-03    -2.67562E-03     356.830E-06    -52.6871E+06    -142.895E+06    -149.798E+06    -145.730E+06    -56.7549E+06    -142.895E+06    -18.2710E+06         20.3903
            2027     2.99060E-03     107.978E-03     494.722E-03    -76.6293E-03    -157.099E-03    -27.0200E-03     364.643E-03    -76.6293E-03    -83.6450E-03     5.26447E-03    -2.50250E-03    -2.76197E-03    -2.53988E-03     5.21682E-03    -2.67694E-03     790.795E-06    -48.4707E+06    -144.181E+06    -150.162E+06    -143.689E+06    -54.1540E+06    -144.971E+06    -22.3134E+06         20.4085
            2028     3.98808E-03     107.983E-03     337.237E-03    -2.92769E-03    -99.7625E-03     88.9301E-03     195.663E-03    -50.0455E-03    -332.498E-03     4.71756E-03    -2.16093E-03    -2.55663E-03    -2.05921E-03     4.61584E-03    -2.55663E-03     1.12434E-03    -35.4886E+06    -138.153E+06    -151.508E+06    -136.631E+06    -43.0175E+06    -145.501E+06    -26.5069E+06         20.4412
            2029     4.98604E-03     107.989E-03     297.801E-03     42.3358E-03    -139.961E-03     261.636E-03    -56.6786E-03    -4.78199E-03    -191.500E-03     4.73676E-03    -2.13047E-03    -2.60629E-03    -1.98499E-03     4.39775E-03    -2.41276E-03     2.29549E-03    -22.8719E+06    -121.905E+06    -153.077E+06    -123.882E+06    -31.1513E+06    -142.821E+06    -27.5286E+06         20.5010
            2030     5.98372E-03     108.000E-03     512.680E-03     59.1907E-03    -415.601E-03     486.342E-03    -389.264E-03     59.1907E-03    -287.369E-03     5.42916E-03    -2.29168E-03    -3.13748E-03    -2.13395E-03     4.48667E-03    -2.35271E-03     4.77559E-03    -14.4833E+06    -98.6613E+06    -140.216E+06    -101.767E+06    -22.2399E+06    -129.353E+06    -20.0849E+06         20.6033
            2031     6.98177E-03     108.015E-03     739.479E-03     137.558E-03    -778.610E-03     703.446E-03    -742.577E-03     137.558E-03    -451.924E-03     7.05357E-03    -2.42936E-03    -4.62421E-03    -2.48577E-03     4.91513E-03    -2.42936E-03     8.73783E-03     6.21768E+06    -72.9866E+06    -97.7354E+06    -63.6482E+06    -8.33067E+06    -92.5255E+06    -6.84620E+06         20.7684
            2032     7.97972E-03     108.036E-03     920.788E-03     221.764E-03        -1.11619     873.686E-03        -1.06909     221.764E-03    -603.765E-03     10.1054E-03    -2.59204E-03    -7.51335E-03    -3.27400E-03     5.86604E-03    -2.59204E-03     14.9455E-03     40.1768E+06    -27.1014E+06    -61.9655E+06    -15.2843E+06     12.4454E+06    -46.0512E+06     12.6777E+06         21.0266
            2033     8.97684E-03     108.065E-03         1.04505     305.599E-03        -1.40282         1.01313        -1.37089     305.599E-03    -549.700E-03     14.8711E-03    -2.93798E-03    -11.9331E-03    -4.61369E-03     7.55167E-03    -2.93798E-03     23.8410E-03     73.4174E+06     31.0085E+06    -30.3426E+06     24.0305E+06     34.7898E+06     15.2631E+06     34.3958E+06         21.4256
            2034     9.97162E-03     108.103E-03         1.14672     386.385E-03        -1.66754         1.12301        -1.64383     386.385E-03    -512.762E-03     22.0139E-03    -3.42817E-03    -18.5857E-03    -6.72950E-03     10.1577E-03    -3.42817E-03     36.9013E-03     88.7085E+06     63.9459E+06    -7.91809E+06     35.4866E+06     42.6834E+06     66.5663E+06     40.6673E+06         22.0313
            2035     10.9625E-03     108.156E-03         1.19610     461.062E-03        -1.87409         1.16782        -1.84582     461.062E-03    -582.534E-03     31.9655E-03    -3.91382E-03    -28.0517E-03    -9.75677E-03     13.6706E-03    -3.91382E-03     55.2508E-03     76.9454E+06     56.8252E+06    -13.2373E+06     17.8278E+06     31.1895E+06     71.5160E+06     26.6629E+06         22.9249
            2036     11.9537E-03     108.229E-03         1.16390     525.148E-03        -1.98866         1.12497        -1.94973     525.148E-03    -694.495E-03     45.4854E-03    -4.48267E-03    -41.0027E-03    -13.3727E-03     17.8554E-03    -4.48267E-03     80.6121E-03     55.7288E+06     25.8444E+06    -25.6780E+06    -7.47560E+06     7.64204E+06     55.7288E+06     15.4116E+06         24.2221
            2037     12.9413E-03     108.333E-03         1.06425     575.744E-03        -2.02380         1.03381        -1.99336     575.744E-03    -597.141E-03     58.3326E-03    -5.15983E-03    -53.1728E-03    -16.5637E-03     21.7235E-03    -5.15983E-03     104.688E-03     46.0074E+06     1.46601E+06    -28.6774E+06    -17.0919E+06    -10.1195E+06     46.0074E+06     5.85594E+06         26.2556
            2038     13.9292E-03     108.446E-03     988.124E-03     615.198E-03        -2.06971     973.441E-03        -2.05502     615.198E-03    -419.571E-03     77.0406E-03    -6.02272E-03    -71.0178E-03    -24.3761E-03     30.3989E-03    -6.02272E-03     137.487E-03     45.6948E+06     1.67967E+06    -18.5487E+06    -10.3454E+06    -6.52370E+06     45.6948E+06    -7.50436E+06         29.8743
            2039     14.9039E-03     108.610E-03     932.452E-03     647.998E-03        -2.11683     925.885E-03        -2.11027     647.998E-03    -256.180E-03     105.689E-03    -7.45838E-03    -98.2310E-03    -42.3595E-03     49.8178E-03    -7.45838E-03     181.481E-03     49.8265E+06     21.2819E+06    -8.75593E+06    -1.42288E+06     13.9489E+06     49.8265E+06    -11.0216E+06         36.5361
            2040     15.8677E-03     108.820E-03     831.871E-03     654.589E-03        -2.08530     808.170E-03        -2.08027     673.261E-03    -220.899E-03     128.339E-03    -9.73861E-03    -118.601E-03    -66.5785E-03     76.3171E-03    -9.73861E-03     199.886E-03     26.0669E+06    -20.3333E+06    -81.3338E+06    -5.03749E+06    -61.4863E+06    -9.07645E+06    -14.6585E+06         47.7102
            2041     16.7742E-03     109.029E-03     734.087E-03     597.067E-03        -1.98140     636.563E-03        -1.97694     690.130E-03    -112.908E-03     197.367E-03    -12.9098E-03    -184.457E-03    -82.9969E-03     95.9068E-03    -12.9098E-03     331.873E-03     66.8229E+06     7.28571E+06    -79.5685E+06    -4.44352E+06    -32.6960E+06     31.6796E+06    -13.2610E+06         61.1268
            2042     995.120E-06     108.978E-03     904.158E-03    -57.0691E-03    -262.535E-03     310.594E-03     331.029E-03    -57.0691E-03     648.959E-03     8.37417E-03    -4.05858E-03    -4.31559E-03    -4.20223E-03     8.37224E-03    -4.17001E-03    -16.8233E-06    -57.5647E+06    -95.3741E+06    -109.076E+06    -102.783E+06    -59.3602E+06    -99.8726E+06    -8.56154E+06         20.5767
            2043     1.99143E-03     108.982E-03     461.150E-03     127.637E-03    -22.7519E-03     128.907E-03     309.491E-03     127.637E-03    -73.8291E-03     8.43618E-03    -4.12128E-03    -4.31491E-03    -4.24749E-03     8.43191E-03    -4.18443E-03    -5.22684E-06    -36.0994E+06    -101.249E+06    -108.908E+06    -104.999E+06    -40.0085E+06    -101.249E+06    -15.5062E+06         20.5893
            2044     2.98655E-03     108.984E-03     457.132E-03     133.202E-03    -46.2268E-03     159.994E-03     250.911E-03     133.202E-03    -93.5207E-03     8.22076E-03    -3.99167E-03    -4.22909E-03    -4.02576E-03     8.21004E-03    -4.18428E-03    -416.997E-06    -30.6306E+06    -102.155E+06    -114.008E+06    -105.047E+06    -39.5917E+06    -102.155E+06    -24.9494E+06         20.6091
            2045     3.98261E-03     108.989E-03     403.045E-03     152.163E-03    -49.4190E-03     259.256E-03     94.3703E-03     152.163E-03    -310.570E-03     7.96649E-03    -3.83226E-03    -4.13423E-03    -3.84074E-03     7.95618E-03    -4.11544E-03    -296.863E-06    -17.8653E+06    -102.813E+06    -116.646E+06    -104.868E+06    -29.6428E+06    -102.813E+06    -31.4810E+06         20.6420
            2046     4.97846E-03     108.995E-03     440.769E-03     190.255E-03    -173.980E-03     420.896E-03    -154.107E-03     190.255E-03    -201.862E-03     8.02288E-03    -3.88762E-03    -4.13526E-03    -3.89824E-03     7.98577E-03    -4.08753E-03     507.954E-06    -13.2383E+06    -100.400E+06    -120.370E+06    -107.526E+06    -26.0825E+06    -100.400E+06    -34.5451E+06         20.6956
            2047     5.97427E-03     109.006E-03     636.427E-03     246.462E-03    -482.316E-03     615.983E-03    -461.872E-03     246.462E-03    -277.236E-03     8.24213E-03    -4.02785E-03    -4.21428E-03    -3.95399E-03     8.04287E-03    -4.08888E-03     2.11955E-03    -9.28394E+06    -97.8715E+06    -122.408E+06    -109.106E+06    -22.5857E+06    -97.8715E+06    -36.2108E+06         20.7785
            2048     6.97021E-03     109.020E-03     809.719E-03     313.971E-03    -785.977E-03     783.064E-03    -759.321E-03     313.971E-03    -396.839E-03     8.80413E-03    -4.08325E-03    -4.72088E-03    -3.99928E-03     8.08253E-03    -4.08325E-03     4.94152E-03     299.184E+03    -94.0306E+06    -120.494E+06    -104.873E+06    -13.1835E+06    -96.1687E+06    -37.0403E+06         20.9056
            2049     7.96604E-03     109.042E-03     942.211E-03     384.311E-03        -1.05994     906.899E-03        -1.02463     384.311E-03    -521.637E-03     10.1260E-03    -4.09948E-03    -6.02656E-03    -4.19644E-03     8.29592E-03    -4.09948E-03     9.20110E-03     3.63369E+06    -72.0460E+06    -116.176E+06    -87.6798E+06    -6.97942E+06    -89.9296E+06    -29.1832E+06         21.1036
            2050     8.96209E-03     109.071E-03         1.03228     452.926E-03        -1.29880         1.00636        -1.27288     452.926E-03    -485.581E-03     12.9502E-03    -4.26480E-03    -8.68542E-03    -4.69830E-03     8.96310E-03    -4.26480E-03     16.1205E-03     25.6739E+06    -36.9014E+06    -85.9020E+06    -51.8818E+06     7.39926E+06    -52.6469E+06    -7.56163E+06         21.4158
            2051     9.95801E-03     109.113E-03         1.09957     517.929E-03        -1.52072         1.07745        -1.49861     517.929E-03    -479.134E-03     18.4052E-03    -4.58411E-03    -13.8211E-03    -6.01715E-03     10.6013E-03    -4.58411E-03     27.3077E-03     65.8743E+06     7.55937E+06    -38.9886E+06    -3.34053E+06     30.2262E+06     7.55937E+06     17.9937E+06         21.9035
            2052     10.9539E-03     109.168E-03         1.11226     576.326E-03        -1.68763         1.08413        -1.65950     576.326E-03    -555.473E-03     27.4095E-03    -5.05125E-03    -22.3583E-03    -8.51239E-03     13.5636E-03    -5.05125E-03     44.4463E-03     87.3977E+06     55.4576E+06    -18.8742E+06     30.0896E+06     32.3316E+06     61.5599E+06     37.8825E+06         22.6394
            2053     11.9427E-03     109.245E-03         1.06701     624.753E-03        -1.78721         1.03039        -1.75059     624.753E-03    -641.701E-03     39.3531E-03    -5.57839E-03    -33.7747E-03    -10.8389E-03     16.4173E-03    -5.57839E-03     67.7340E-03     90.0558E+06     72.6359E+06    -22.9622E+06     34.0840E+06     15.5897E+06     90.0558E+06     39.9058E+06         23.7397
            2054     12.9334E-03     109.346E-03     997.970E-03     663.021E-03        -1.85007     971.129E-03        -1.82323     663.021E-03    -534.907E-03     51.1510E-03    -6.02603E-03    -45.1250E-03    -13.6109E-03     19.6370E-03    -6.02603E-03     90.3024E-03     86.2324E+06     51.0636E+06    -15.0333E+06     24.7309E+06     11.2995E+06     86.2324E+06     21.1045E+06         25.5496
            2055     13.9206E-03     109.467E-03     933.606E-03     693.966E-03        -1.89718     920.174E-03        -1.88374     693.966E-03    -387.511E-03     72.0993E-03    -6.67618E-03    -65.4231E-03    -23.1161E-03     29.7922E-03    -6.67618E-03     126.821E-03     69.0936E+06     28.6881E+06    -2.66483E+06     15.3926E+06     10.6307E+06     69.0936E+06    -2.56164E+06         28.8234
            2056     14.8987E-03     109.648E-03     847.037E-03     693.119E-03        -1.87675     815.365E-03        -1.87035     718.390E-03    -225.988E-03     104.320E-03    -8.01943E-03    -96.3006E-03    -42.0753E-03     50.0947E-03    -8.01943E-03     177.877E-03     57.7280E+06     28.5650E+06    -8.87520E+06     9.89073E+06     9.79912E+06     57.7280E+06    -8.10753E+06         34.7519
            2057     15.8480E-03     109.885E-03     764.185E-03     622.506E-03        -1.78260     649.705E-03        -1.77885     733.241E-03    -167.114E-03     136.909E-03    -10.2562E-03    -126.653E-03    -67.6005E-03     77.8566E-03    -10.2562E-03     218.172E-03     33.1995E+06    -2.33814E+06    -67.7890E+06    -392.471E+03    -46.8056E+06     10.2704E+06    -8.26648E+06         44.6164
            2058     16.7833E-03     110.158E-03     738.379E-03     482.899E-03        -1.65952     479.259E-03        -1.65588     738.379E-03    -93.7585E-03     194.300E-03    -13.1582E-03    -181.142E-03    -78.9301E-03     92.0883E-03    -13.1582E-03     329.603E-03     54.1168E+06     3.39452E+06    -75.0246E+06    -17.0991E+06    -31.6019E+06     31.1877E+06    -14.9690E+06         56.5266
            2059     994.897E-06     109.990E-03     917.046E-03     203.273E-03    -244.622E-03     547.436E-03     124.988E-03     203.273E-03     654.188E-03     11.9789E-03    -5.80773E-03    -6.17113E-03    -6.01207E-03     11.9736E-03    -5.96150E-03    -265.503E-06    -37.2180E+06    -65.1909E+06    -74.5703E+06    -66.9501E+06    -44.9197E+06    -65.1096E+06    -4.13204E+06         20.8244
            2060     1.98747E-03     109.991E-03     532.959E-03     382.936E-03    -55.2282E-03     410.237E-03     67.4932E-03     382.936E-03     26.1129E-03     11.8168E-03    -5.79638E-03    -6.02038E-03    -5.86637E-03     11.8011E-03    -5.93470E-03    -875.696E-06    -18.1589E+06    -65.6317E+06    -72.6348E+06    -66.6054E+06    -23.3856E+06    -66.4344E+06    -14.5059E+06         20.8432
            2061     2.98219E-03     109.995E-03     547.714E-03     399.482E-03    -104.260E-03     451.774E-03    -8.31985E-03     399.482E-03     35.9591E-03     11.8499E-03    -5.82794E-03    -6.02192E-03    -5.88734E-03     11.8176E-03    -5.93022E-03    -1.48378E-03    -12.1449E+06    -64.8680E+06    -77.7900E+06    -67.8070E+06    -22.1280E+06    -64.8680E+06    -22.4887E+06         20.8758
            2062     3.97585E-03     109.998E-03     543.439E-03     419.789E-03    -167.350E-03     500.554E-03    -124.464E-03     419.789E-03    -193.766E-03     12.1873E-03    -5.93046E-03    -6.25683E-03    -6.19874E-03     12.1503E-03    -5.95159E-03    -1.58058E-03    -8.06904E+06    -68.5486E+06    -83.5995E+06    -71.9308E+06    -19.7378E+06    -68.5486E+06    -26.7517E+06         20.9262
            2063     4.96935E-03     110.006E-03     625.509E-03     448.802E-03    -339.180E-03     616.026E-03    -329.697E-03     448.802E-03    -161.102E-03     12.6313E-03    -6.04029E-03    -6.59106E-03    -6.56623E-03     12.6065E-03    -6.04029E-03    -1.20650E-03    -4.16253E+06    -71.3617E+06    -89.0491E+06    -77.3037E+06    -15.9079E+06    -71.3617E+06    -28.7135E+06         20.9974
            2064     5.96254E-03     110.016E-03     766.956E-03     490.515E-03    -589.353E-03     754.317E-03    -576.715E-03     490.515E-03    -251.454E-03     13.2213E-03    -6.20946E-03    -7.01181E-03    -6.98583E-03     13.1953E-03    -6.20946E-03    -389.460E-06     1.46670E+06    -66.5178E+06    -94.6254E+06    -80.0459E+06    -13.1128E+06    -66.5178E+06    -33.7280E+06         21.0927
            2065     6.95504E-03     110.031E-03     879.486E-03     539.282E-03    -819.982E-03     859.213E-03    -799.709E-03     539.282E-03    -355.347E-03     13.8455E-03    -6.42223E-03    -7.42330E-03    -7.32968E-03     13.7519E-03    -6.42223E-03     1.33407E-03     6.78149E+06    -57.9599E+06    -98.6376E+06    -83.3872E+06    -8.46894E+06    -57.9599E+06    -35.7752E+06         21.2202
            2066     7.94740E-03     110.052E-03     966.337E-03     588.967E-03        -1.02869     938.202E-03        -1.00055     588.967E-03    -467.439E-03     14.6734E-03    -6.65053E-03    -8.02290E-03    -7.64306E-03     14.2936E-03    -6.65053E-03     4.17248E-03     2.23179E+06    -52.5998E+06    -105.254E+06    -91.9189E+06    -11.1032E+06    -52.5998E+06    -34.7599E+06         21.3957
            2067     8.93941E-03     110.082E-03         1.00008     636.110E-03        -1.19360     979.449E-03        -1.17298     636.110E-03    -420.821E-03     16.1271E-03    -6.85198E-03    -9.27515E-03    -8.02677E-03     14.8787E-03    -6.85198E-03     8.69460E-03     3.19789E+06    -51.7727E+06    -106.446E+06    -95.8049E+06    -7.44288E+06    -51.7727E+06    -32.0542E+06         21.6455
            2068     9.93170E-03     110.122E-03     995.020E-03     677.840E-03        -1.32829     978.437E-03        -1.31171     677.840E-03    -389.072E-03     18.7869E-03    -7.08036E-03    -11.7065E-03    -8.58365E-03     15.6640E-03    -7.08036E-03     16.2776E-03     14.6253E+06    -41.7573E+06    -90.6470E+06    -83.2460E+06     7.22425E+06    -41.7573E+06    -21.3267E+06         22.0110
            2069     10.9216E-03     110.180E-03     966.691E-03     712.637E-03        -1.44370     947.770E-03        -1.42478     712.637E-03    -419.515E-03     23.9416E-03    -7.50133E-03    -16.4403E-03    -9.49304E-03     16.9944E-03    -7.50133E-03     28.9452E-03     31.3814E+06     2.40731E+06    -69.4973E+06    -45.0689E+06     6.86926E+06     2.49108E+06     598.060E+03         22.5540
            2070     11.9154E-03     110.258E-03     931.447E-03     740.620E-03        -1.54716     905.931E-03        -1.52164     740.620E-03    -495.911E-03     31.3963E-03    -7.93153E-03    -23.4648E-03    -10.2219E-03     18.1534E-03    -7.93153E-03     45.9655E-03     60.7843E+06     48.5996E+06    -42.3446E+06     6.05594E+06     10.0998E+06     50.8837E+06     21.0640E+06         23.4074
            2071     12.9060E-03     110.360E-03     897.697E-03     750.554E-03        -1.62314     862.633E-03        -1.60033     762.808E-03    -469.251E-03     42.4915E-03    -8.39839E-03    -34.0931E-03    -12.9259E-03     21.3243E-03    -8.39839E-03     68.0598E-03     98.0829E+06     63.1098E+06    -8.20107E+06     36.6031E+06     24.3844E+06     92.0042E+06     27.0351E+06         24.9135
            2072     13.8912E-03     110.488E-03     860.200E-03     721.815E-03        -1.64201     786.132E-03        -1.62575     779.632E-03    -393.634E-03     66.0497E-03    -9.10327E-03    -56.9464E-03    -22.6942E-03     31.7975E-03    -9.10327E-03     110.125E-03     106.999E+06     59.4755E+06     6.30363E+06     33.0128E+06     32.7663E+06     106.999E+06     18.9877E+06         27.6851
            2073     14.8623E-03     110.683E-03     815.587E-03     643.332E-03        -1.58764     659.834E-03        -1.57847     789.914E-03    -257.971E-03     100.393E-03    -10.2497E-03    -90.1437E-03    -38.8106E-03     49.0603E-03    -10.2497E-03     168.994E-03     78.2104E+06     31.7724E+06    -15.5340E+06     5.06797E+06     11.1704E+06     78.2104E+06     11.4748E+06         32.5883
            2074     15.8302E-03     110.943E-03     791.882E-03     515.060E-03        -1.48780     510.399E-03        -1.48314     791.882E-03    -178.782E-03     130.266E-03    -12.0005E-03    -118.266E-03    -55.0975E-03     67.0980E-03    -12.0005E-03     216.329E-03     43.3131E+06     5.22113E+06    -47.3305E+06    -18.4873E+06    -23.5218E+06     43.2128E+06     3.05947E+06         40.5000
            2075     16.7899E-03     111.233E-03     784.673E-03     336.601E-03        -1.33953     333.066E-03        -1.33600     784.673E-03    -99.9890E-03     171.750E-03    -13.8310E-03    -157.919E-03    -59.7007E-03     73.5317E-03    -13.8310E-03     299.360E-03     34.5775E+06     5.80999E+06    -60.0564E+06    -27.6726E+06    -21.3770E+06     29.3807E+06    -17.6209E+06         50.0234
            2076     990.677E-06     111.003E-03         1.07637     535.307E-03    -452.498E-03     866.252E-03    -242.382E-03     535.307E-03     624.717E-03     16.2894E-03    -7.76266E-03    -8.52677E-03    -7.86488E-03     16.2677E-03    -8.40282E-03    -1.20785E-03    -3.45710E+06    -37.5284E+06    -44.2751E+06    -24.2758E+06    -28.0363E+06    -32.9486E+06    -7.38833E+06         21.0904
            2077     1.98447E-03     111.006E-03     829.340E-03     718.829E-03    -369.762E-03     787.013E-03    -327.435E-03     718.829E-03     154.414E-03     15.7341E-03    -7.73803E-03    -7.99608E-03    -7.70785E-03     15.7039E-03    -7.99608E-03    -1.67559E-03    -1.02368E+06    -31.2373E+06    -36.7188E+06    -27.2994E+06    -9.64045E+06    -32.0399E+06    -13.8715E+06         21.1188
            2078     2.97612E-03     111.008E-03     824.925E-03     744.685E-03    -418.329E-03     789.153E-03    -382.558E-03     744.685E-03     198.243E-03     16.1671E-03    -7.88127E-03    -8.28585E-03    -8.17437E-03     16.1293E-03    -7.95493E-03    -1.88441E-03    -1.59506E+06    -35.1373E+06    -42.6926E+06    -33.2185E+06    -11.0692E+06    -35.1373E+06    -16.9066E+06         21.1719
            2079     3.96772E-03     111.014E-03     799.648E-03     751.113E-03    -444.175E-03     788.602E-03    -440.038E-03     758.022E-03    -49.4114E-03     17.2229E-03    -8.13057E-03    -9.09234E-03    -9.03843E-03     17.1690E-03    -8.13057E-03    -2.34463E-03    -1.59392E+06    -35.1454E+06    -50.4800E+06    -41.1598E+06    -10.9142E+06    -35.1454E+06    -18.9950E+06         21.2527
            2080     4.95833E-03     111.020E-03     831.443E-03     748.890E-03    -541.493E-03     805.925E-03    -535.581E-03     768.496E-03    -101.859E-03     18.3503E-03    -8.42002E-03    -9.93029E-03    -9.87192E-03     18.2919E-03    -8.42002E-03    -2.55916E-03     2.44278E+06    -34.9985E+06    -56.3443E+06    -46.0494E+06    -7.85208E+06    -34.9985E+06    -21.8346E+06         21.3605
            2081     5.94779E-03     111.033E-03     890.621E-03     770.514E-03    -699.679E-03     869.137E-03    -690.891E-03     783.210E-03    -227.993E-03     19.6095E-03    -8.77755E-03    -10.8319E-03    -10.7882E-03     19.5658E-03    -8.77755E-03    -2.26741E-03     9.26641E+06    -34.0485E+06    -64.0297E+06    -52.7257E+06    -2.03753E+06    -34.0485E+06    -24.5317E+06         21.4972
            2082     6.93648E-03     111.048E-03     955.904E-03     804.940E-03    -874.999E-03     941.540E-03    -860.635E-03     804.940E-03    -307.751E-03     21.1799E-03    -9.23519E-03    -11.9447E-03    -11.9120E-03     21.1472E-03    -9.23519E-03    -1.72934E-03     3.18814E+06    -30.1689E+06    -73.2333E+06    -63.0667E+06    -6.97844E+06    -30.1689E+06    -23.7080E+06         21.6675
            2083     7.92413E-03     111.071E-03     985.974E-03     828.403E-03        -1.00773     966.024E-03    -988.625E-03     829.243E-03    -380.011E-03     22.9839E-03    -9.76157E-03    -13.2223E-03    -13.1769E-03     22.9385E-03    -9.76157E-03    -655.225E-06     1.75428E+06    -23.0475E+06    -77.0583E+06    -69.0715E+06    -6.23251E+06    -23.0475E+06    -22.3889E+06         21.8763
            2084     8.91019E-03     111.100E-03     975.086E-03     837.443E-03        -1.09581     948.589E-03        -1.08247     850.602E-03    -323.282E-03     24.9833E-03    -10.3482E-03    -14.6352E-03    -14.5136E-03     24.8618E-03    -10.3482E-03     1.59316E-03     7.17428E+06    -18.2438E+06    -80.3047E+06    -71.4247E+06    -4.82312E+06    -15.1263E+06    -24.6990E+06         22.1304
            2085     9.89377E-03     111.142E-03     954.376E-03     823.829E-03        -1.16805     903.038E-03        -1.15970     866.809E-03    -247.917E-03     27.1000E-03    -10.9669E-03    -16.1331E-03    -15.5762E-03     26.5432E-03    -10.9669E-03     6.05448E-03     11.1132E+06    -12.0110E+06    -83.9477E+06    -75.4432E+06    -508.818E+03    -8.89351E+06    -24.5626E+06         22.4461
            2086     10.8791E-03     111.198E-03     927.883E-03     778.639E-03        -1.21537     822.679E-03        -1.20843     876.910E-03    -220.829E-03     29.2358E-03    -11.5742E-03    -17.6616E-03    -15.8224E-03     27.3966E-03    -11.5742E-03     13.4268E-03     6.81485E+06    -15.0495E+06    -88.1971E+06    -80.6004E+06    -8.58492E+06    -7.24648E+06    -22.7269E+06         22.8688
            2087     11.8606E-03     111.276E-03     904.385E-03     718.403E-03        -1.25239     728.280E-03        -1.23830     880.418E-03    -319.580E-03     31.4147E-03    -12.0894E-03    -19.3254E-03    -15.1884E-03     27.2778E-03    -12.0894E-03     22.9412E-03     6.89338E+06    -11.4880E+06    -80.3514E+06    -73.8657E+06    -7.39541E+06    -3.68497E+06    -17.0666E+06         23.5223
            2088     12.8467E-03     111.373E-03     884.275E-03     652.746E-03        -1.27957     637.761E-03        -1.25857     878.263E-03    -398.870E-03     38.7607E-03    -12.7757E-03    -25.9851E-03    -17.2615E-03     30.0371E-03    -12.7757E-03     39.7253E-03     47.5496E+06     16.1846E+06    -56.4967E+06    -45.3561E+06     11.8004E+06     40.7931E+06    -3.70861E+06         24.6661
            2089     13.8304E-03     111.511E-03     872.143E-03     570.674E-03        -1.28293     550.340E-03        -1.26260     872.143E-03    -382.805E-03     56.1487E-03    -13.7063E-03    -42.4424E-03    -23.3557E-03     37.0620E-03    -13.7063E-03     74.5706E-03     87.5583E+06     44.6698E+06    -30.7623E+06    -13.9436E+06     27.8511E+06     87.5583E+06     16.7892E+06         26.7017
            2090     14.8073E-03     111.713E-03     863.074E-03     470.098E-03        -1.24999     458.691E-03        -1.23858     863.074E-03    -262.239E-03     83.2454E-03    -14.8432E-03    -68.4022E-03    -31.3161E-03     46.1593E-03    -14.8432E-03     129.234E-03     105.682E+06     50.5989E+06    -32.0804E+06     2.31992E+06     16.1986E+06     105.682E+06     30.7771E+06         30.1502
            2091     15.7709E-03     111.978E-03     849.836E-03     341.475E-03        -1.16507     337.430E-03        -1.16103     849.836E-03    -152.494E-03     111.402E-03    -16.2207E-03    -95.1810E-03    -42.1143E-03     58.3349E-03    -16.2207E-03     180.436E-03     119.278E+06     49.1492E+06    -24.4341E+06     18.9518E+06     5.76334E+06     119.278E+06     13.5509E+06         35.3773
            2092     16.7208E-03     112.283E-03     829.222E-03     179.235E-03        -1.01057     176.560E-03        -1.00789     829.222E-03    -47.6073E-03     133.233E-03    -16.8973E-03    -116.336E-03    -33.0683E-03     49.9656E-03    -16.8973E-03     231.441E-03     84.5613E+06     33.7446E+06    -27.7438E+06     25.6836E+06    -2.19145E+06     67.0699E+06     1.42191E+06         41.4162
            2093     990.375E-06     112.023E-03         1.39443     821.690E-03    -747.650E-03         1.32157    -674.788E-03     821.690E-03     296.894E-03     20.4632E-03    -9.72739E-03    -10.7359E-03    -10.1311E-03     20.4415E-03    -10.3104E-03    -1.51905E-03     29.9042E+06    -2.67161E+06    -16.5520E+06     16.4639E+06    -9.83842E+06     4.05506E+06    -11.9996E+06         21.3104
            2094     1.97932E-03     112.022E-03         1.25001         1.10249    -871.232E-03         1.22252    -843.742E-03         1.10249     97.7813E-03     20.2819E-03    -9.94575E-03    -10.3362E-03    -10.1469E-03     20.2607E-03    -10.1138E-03    -1.46360E-03     11.7535E+06    -6.46977E+06    -11.7877E+06     1.89676E+06    -2.32860E+06    -6.07211E+06    -9.11413E+06         21.3503
            2095     2.97010E-03     112.027E-03         1.20817         1.13230    -856.616E-03         1.17997    -836.898E-03         1.14079     263.859E-03     21.2700E-03    -10.2250E-03    -11.0449E-03    -10.9810E-03     21.2468E-03    -10.2659E-03    -1.66329E-03     8.27035E+06    -8.20442E+06    -16.0402E+06    -7.73789E+06    -3.66082E+06    -4.57553E+06    -9.15930E+06         21.4244
            2096     3.95839E-03     112.033E-03         1.14877         1.08699    -792.303E-03         1.09126    -791.381E-03         1.14357     43.0865E-03     22.9091E-03    -10.6441E-03    -12.2649E-03    -12.2290E-03     22.8731E-03    -10.6441E-03    -2.14401E-03     10.2453E+06    -7.10275E+06    -22.8108E+06    -14.0653E+06    -5.04375E+06    -559.294E+03    -10.8842E+06         21.5351
            2097     4.94514E-03     112.043E-03         1.13136         1.04015    -803.157E-03         1.03654    -799.550E-03         1.13136    -49.8558E-03     24.9804E-03    -11.1713E-03    -13.8091E-03    -13.7593E-03     24.9306E-03    -11.1713E-03    -2.66398E-03     12.7730E+06    -4.67250E+06    -27.0482E+06    -19.9840E+06    -2.26668E+06     3.30294E+06    -12.5665E+06         21.6826
            2098     5.93109E-03     112.055E-03         1.12698         1.03721    -880.401E-03         1.03958    -875.984E-03         1.12020    -122.034E-03     27.4388E-03    -11.8092E-03    -15.6296E-03    -15.5739E-03     27.3831E-03    -11.8092E-03    -3.05930E-03     17.5936E+06    -8.48490E+06    -31.8730E+06    -26.9523E+06     781.127E+03     3.40693E+06    -11.1152E+06         21.8695
            2099     6.91464E-03     112.074E-03         1.13886         1.01429    -953.361E-03         1.03358    -948.002E-03         1.11420    -104.037E-03     30.6061E-03    -12.6180E-03    -17.9880E-03    -17.9228E-03     30.5408E-03    -12.6180E-03    -3.55631E-03     16.7970E+06    -7.03408E+06    -37.1996E+06    -32.8478E+06    -3.00006E+06     8.41125E+06    -10.8454E+06         22.0987
            2100     7.89506E-03     112.097E-03         1.12619     967.518E-03    -983.984E-03     979.141E-03    -977.741E-03         1.10832    -140.501E-03     34.1994E-03    -13.5698E-03    -20.6296E-03    -20.5553E-03     34.1251E-03    -13.5698E-03    -4.01397E-03     19.7070E+06    -3.37830E+06    -41.1336E+06    -35.6767E+06    -3.92975E+06     14.8016E+06    -12.2988E+06         22.3684
            2101     8.87288E-03     112.132E-03         1.09893     909.002E-03        -1.00062     904.811E-03    -996.432E-03         1.09893    -113.922E-03     37.9872E-03    -14.6302E-03    -23.3569E-03    -23.2755E-03     37.9057E-03    -14.6302E-03    -4.05991E-03     23.7129E+06     1.76839E+06    -44.7624E+06    -39.3327E+06     1.19100E+06     18.8606E+06    -12.6290E+06         22.6729
            2102     9.84903E-03     112.174E-03         1.08614     827.151E-03        -1.01969     824.843E-03        -1.01738         1.08614    -60.8292E-03     41.7154E-03    -15.7937E-03    -25.9218E-03    -25.8198E-03     41.6135E-03    -15.7937E-03    -3.50636E-03     25.8889E+06    -324.330E+03    -51.3476E+06    -44.6156E+06    -1.47694E+06     20.3094E+06    -11.2848E+06         23.0153
            2103     10.8193E-03     112.233E-03         1.06908     703.853E-03    -998.276E-03     702.506E-03    -996.929E-03         1.06908    -26.8190E-03     44.5709E-03    -17.0153E-03    -27.5557E-03    -27.3536E-03     44.3689E-03    -17.0153E-03    -2.03983E-03     31.1797E+06    -3.27378E+06    -53.2306E+06    -46.9938E+06    -3.93113E+06     25.6003E+06    -10.9976E+06         23.4385
            2104     11.7928E-03     112.306E-03         1.04568     543.584E-03    -939.242E-03     538.474E-03    -934.131E-03         1.04568    -119.604E-03     48.6338E-03    -18.3002E-03    -30.3336E-03    -29.6976E-03     47.9978E-03    -18.3002E-03    -738.102E-06     31.8729E+06    -511.147E+03    -58.4319E+06    -48.4776E+06    -9.78776E+06     31.1953E+06    -15.3681E+06         24.0344
            2105     12.7621E-03     112.404E-03         1.01621     380.887E-03    -879.284E-03     370.682E-03    -869.079E-03         1.01621    -196.039E-03     55.1638E-03    -19.7641E-03    -35.3997E-03    -33.6385E-03     53.4026E-03    -19.7641E-03     3.02779E-03     36.6976E+06     8.64564E+06    -61.8861E+06    -52.2414E+06    -321.346E+03     36.0199E+06    -17.4994E+06         24.9054
            2106     13.7195E-03     112.545E-03     983.677E-03     260.457E-03    -853.478E-03     248.907E-03    -841.929E-03     983.677E-03    -203.896E-03     60.6536E-03    -21.4274E-03    -39.2261E-03    -34.5804E-03     56.0078E-03    -21.4274E-03     15.8130E-03     44.6639E+06     12.9134E+06    -54.9639E+06    -43.4561E+06     1.40556E+06     44.6639E+06    -5.55066E+06         26.1936
            2107     14.6811E-03     112.731E-03     950.829E-03     162.979E-03    -828.775E-03     156.409E-03    -822.205E-03     950.829E-03    -143.707E-03     68.4415E-03    -23.2391E-03    -45.2024E-03    -32.5186E-03     55.7577E-03    -23.2391E-03     45.3480E-03     89.3259E+06     39.8012E+06    -45.9703E+06    -8.61030E+06     2.44124E+06     89.3259E+06     8.18238E+06         28.0789
            2108     15.6540E-03     112.998E-03     916.788E-03     64.5857E-03    -765.931E-03     61.5314E-03    -762.877E-03     916.788E-03    -83.0191E-03     72.6901E-03    -15.6342E-03    -57.0559E-03    -24.0606E-03     48.6773E-03    -24.6167E-03     83.3662E-03     115.615E+06     65.1083E+06    -27.5999E+06     13.5264E+06     23.9820E+06     115.615E+06     4.75942E+06         30.5885
            2109     16.6292E-03     113.316E-03     878.168E-03    -35.2666E-03    -654.025E-03    -38.0108E-03    -651.281E-03     878.168E-03    -20.5060E-03     65.9877E-03    -4.99501E-03    -60.9926E-03    -4.36910E-03     28.9411E-03    -24.5720E-03     99.2591E-03     67.0646E+06     29.9069E+06    -54.0976E+06     15.4325E+06     5.93738E+06     21.5039E+06     12.7500E+06         33.2217


