********************************************************************************
Field Output Report, written Tue May  6 10:54:43 2025

Source 1
---------

   ODB: D:/AISI_1020/Vel_40/aisi_1020_2a_32_red_1000_cal_0_vel_40_fric_025.odb
   Step: Step-1
   Frame: Increment   2029417: Step Time =   0.2605

Loc 1 : Nodal values from source 1

Output sorted by column "Node Label".

Field Output reported at nodes for region: DIE_2A_32_D0_36-1.Region_1
   Computation algorithm: EXTRAPOLATE_COMPUTE_AVERAGE
   Averaged at nodes
   Averaging regions: ODB_REGIONS

      Node Label     COORD.COOR1     COORD.COOR2
                          @Loc 1          @Loc 1
-------------------------------------------------
               1     20.6653E-03     137.937E-03


Field Output reported at nodes for region: DIE_2A_32_D0_36-1.Region_2
   Computation algorithm: EXTRAPOLATE_COMPUTE_AVERAGE
   Averaged at nodes
   Averaging regions: ODB_REGIONS

      Node Label     COORD.COOR1     COORD.COOR2
                          @Loc 1          @Loc 1
-------------------------------------------------
               1     20.6653E-03     137.937E-03


Field Output reported at nodes for part: WIRE_1-1
   Computation algorithm: EXTRAPOLATE_COMPUTE_AVERAGE
   Averaged at nodes
   Averaging regions: ODB_REGIONS

      Node Label     COORD.COOR1     COORD.COOR2    ER.Max. Prin    ER.Mid. Prin    ER.Min. Prin         ER.ER11         ER.ER22         ER.ER33         ER.ER12    PE.Max. Prin    PE.Mid. Prin    PE.Min. Prin         PE.PE11         PE.PE22         PE.PE33         PE.PE12     S.Max. Prin     S.Mid. Prin     S.Min. Prin           S.S11           S.S22           S.S33           S.S12            TEMP
                          @Loc 1          @Loc 1          @Loc 1          @Loc 1          @Loc 1          @Loc 1          @Loc 1          @Loc 1          @Loc 1          @Loc 1          @Loc 1          @Loc 1          @Loc 1          @Loc 1          @Loc 1          @Loc 1          @Loc 1          @Loc 1          @Loc 1          @Loc 1          @Loc 1          @Loc 1          @Loc 1          @Loc 1
-----------------------------------------------------------------------------------------------------------------------------------------------------------------------------------------------------------------------------------------------------------------------------------------------------------------------------------------------------------------------------------------------------------------
               1     16.0123E-03     70.3403E-03         11.4066        -2.92063        -4.36949        -2.90679         11.3928        -4.36949     889.623E-03     234.939E-03    -116.472E-03    -118.468E-03    -117.018E-03     234.691E-03    -117.672E-03     18.6984E-03     134.335E+06     99.4371E+06    -2.19435E+06    -2.17582E+06     134.316E+06     99.4371E+06    -498.421E+03         60.9535
               2     2.15852E-06     69.4368E-03         16.5305        -5.74711        -6.41016        -3.31719         14.1006        -6.41016        -13.8623     235.539E-03    -116.791E-03    -118.748E-03    -118.745E-03     235.536E-03    -116.791E-03    -2.17194E-03    -102.397E+06    -109.089E+06    -224.199E+06    -107.527E+06    -223.956E+06    -104.203E+06    -2.06449E+06         39.7661
               3     3.00738E-06     152.656E-18         15.0961         3.05497        -24.2452         2.66607        -23.8563         15.0961         6.47025     459.177E-03    -228.673E-03    -230.504E-03    -230.486E-03     459.159E-03    -228.673E-03     7.04346E-03    -65.9114E+06    -71.8889E+06    -202.400E+06    -65.9755E+06    -202.336E+06    -71.8889E+06    -2.95640E+06         52.6823
               4     15.4592E-03     152.656E-18         6.86691         5.98989        -22.1936         5.93541        -22.1391         6.86691        -2.47596     435.372E-03    -143.742E-03    -291.630E-03    -262.087E-03     405.830E-03    -143.742E-03     287.087E-03     122.523E+06     102.138E+06     8.83640E+06     9.81866E+06     101.156E+06     122.523E+06     9.52272E+06         59.5686
               5     15.8535E-03     141.011E-03         1.50776     566.967E-03        -3.18249     586.683E-03         1.48805        -3.18249    -269.520E-03     64.3329E-03     54.2270E-03    -118.560E-03     64.0155E-03     54.5444E-03    -118.560E-03     3.52552E-03     74.8051E+06    -41.5563E+06    -96.7203E+06     66.2280E+06    -32.9793E+06    -96.7203E+06     30.4051E+06         41.9985
               6     3.32198E-06     136.378E-03         4.46557        -5.18730        -5.34530        -5.18685         4.46513        -5.34530     131.371E-03     113.474E-03    -55.4014E-03    -58.0721E-03    -57.9952E-03     113.397E-03    -55.4014E-03    -7.26258E-03     88.9361E+06      81.543E+06     15.6569E+06     79.5790E+06     17.6208E+06     88.9361E+06    -11.2045E+06         27.5392
               7     15.1274E-03     70.3139E-03         11.5960        -3.05789        -4.39203        -3.01113         11.5493        -4.39203    -644.742E-03     245.850E-03    -117.085E-03    -128.765E-03    -116.530E-03     234.215E-03    -117.686E-03     101.985E-03     126.741E+06     95.6047E+06    -6.04199E+06    -6.01488E+06     126.714E+06     95.6047E+06    -990.631E+03         60.1231
               8     14.2347E-03     70.0885E-03         11.8929        -3.25462        -4.42560        -3.21140         11.8496        -4.42560    -768.444E-03     247.628E-03    -117.766E-03    -129.861E-03    -114.898E-03     232.664E-03    -117.766E-03     141.919E-03     116.473E+06     93.7023E+06    -12.4967E+06    -12.4700E+06     116.446E+06     93.7023E+06    -113.542E+03         58.3704
               9     13.3404E-03     69.9722E-03         12.1175        -3.40374        -4.44854        -3.39431         12.1081        -4.44854    -113.107E-03     241.930E-03    -117.817E-03    -124.113E-03    -115.031E-03     232.848E-03    -117.817E-03     113.062E-03     114.189E+06     92.4292E+06    -20.5827E+06    -20.4485E+06     114.055E+06     92.4292E+06     3.15766E+06         56.5274
              10     12.4557E-03     69.8233E-03         12.3153        -3.55526        -4.46797        -3.54851         12.3085        -4.46797    -584.479E-03     241.862E-03    -117.735E-03    -124.127E-03    -115.040E-03     232.775E-03    -117.735E-03     113.111E-03     117.164E+06     80.8370E+06    -27.3036E+06    -27.1532E+06     117.014E+06     80.8370E+06     3.85415E+06         54.6902
              11     11.5634E-03     69.7005E-03         12.4890        -3.69117        -4.48590        -3.68483         12.4827        -4.48590    -578.974E-03     237.229E-03    -117.608E-03    -119.621E-03    -114.141E-03     231.748E-03    -117.608E-03     86.9947E-03     114.613E+06     56.7301E+06    -33.6968E+06    -33.6500E+06     114.566E+06     56.7301E+06     1.27686E+06         52.8363
              12     10.6757E-03     69.6222E-03         12.6794        -3.84037        -4.50945        -3.80714         12.6462        -4.50945        -1.38596     234.975E-03    -116.930E-03    -118.045E-03    -114.221E-03     231.747E-03    -117.526E-03     66.5983E-03     105.941E+06     32.6989E+06    -41.9488E+06    -41.9043E+06     105.896E+06     32.6989E+06    -1.34367E+06         50.9465
              13     9.78460E-03     69.5539E-03         12.8412        -3.94986        -4.53821        -3.92015         12.8115        -4.53821        -1.22292     233.525E-03    -115.970E-03    -117.554E-03    -114.137E-03     231.678E-03    -117.541E-03     50.0376E-03     64.6433E+06     10.2787E+06    -48.2919E+06    -48.0446E+06     64.3959E+06     10.2787E+06    -3.76896E+06         49.0675
              14     8.89368E-03     69.5100E-03         13.0483        -4.10532        -4.57072        -4.04412         12.9871        -4.57072        -1.69373     233.354E-03    -115.694E-03    -117.660E-03    -114.673E-03     232.333E-03    -117.660E-03     37.3427E-03     7.13533E+06    -19.8340E+06    -54.5190E+06    -54.1062E+06    -4.89115E+06    -8.22027E+06    -2.78023E+06         47.2871
              15     8.00226E-03     69.4780E-03         13.2106        -4.22716        -4.60545        -4.15591         13.1394        -4.60545    -777.077E-03     233.894E-03    -116.048E-03    -117.846E-03    -115.464E-03     233.310E-03    -117.846E-03     28.2255E-03    -13.3881E+06    -49.3951E+06    -81.0129E+06    -60.1205E+06    -70.2875E+06    -13.3881E+06    -191.017E+03         45.6830
              16     7.11191E-03     69.4524E-03         13.3222        -4.30562        -4.64160        -4.27008         13.2866        -4.64160    -258.632E-03     234.846E-03    -116.870E-03    -117.977E-03    -116.584E-03     234.560E-03    -117.977E-03     19.5049E-03    -17.5866E+06    -66.5394E+06    -125.876E+06    -66.6224E+06    -125.793E+06    -17.5866E+06    -98.3760E+03         44.2957
              17     6.22438E-03     69.4410E-03         13.4502        -4.40503        -4.67828        -4.37858         13.4237        -4.67828        -1.24134     235.487E-03    -117.506E-03    -117.981E-03    -117.382E-03     235.363E-03    -117.981E-03     13.0460E-03    -25.8998E+06    -73.5582E+06    -161.403E+06    -73.5829E+06    -161.378E+06    -25.8998E+06     84.1877E+03         43.1298
              18     5.33449E-03     69.4299E-03         13.5592        -4.47156        -4.71542        -4.46765         13.5553        -4.71542    -501.234E-03     235.531E-03    -117.453E-03    -118.077E-03    -117.574E-03     235.473E-03    -117.899E-03     8.75760E-03    -37.7259E+06    -79.2947E+06    -181.971E+06    -79.3189E+06    -181.947E+06    -37.7259E+06     396.953E+03         42.1710
              19     4.44649E-03     69.4266E-03         13.7690        -4.62028        -4.75315        -4.55923         13.7079        -4.75315        -1.66131     235.441E-03    -117.475E-03    -117.966E-03    -117.665E-03     235.422E-03    -117.757E-03     4.82760E-03    -55.3990E+06    -84.6818E+06    -192.954E+06    -84.6910E+06    -192.944E+06    -55.3990E+06    -253.888E+03         41.3986
              20     3.55776E-03     69.4283E-03         13.9141        -4.71312        -4.78982        -4.65053         13.8515        -4.78982        -1.20278     235.159E-03    -117.418E-03    -117.741E-03    -117.519E-03     235.154E-03    -117.635E-03     2.56868E-03    -72.9522E+06    -91.6233E+06    -208.026E+06    -91.6556E+06    -207.994E+06    -72.9522E+06     829.495E+03         40.7925
              21     2.66854E-03     69.4285E-03         14.0402        -4.77174        -4.85637        -4.72770         13.9643        -4.82448        -1.37576     234.791E-03    -117.094E-03    -117.697E-03    -117.168E-03     234.789E-03    -117.621E-03     755.335E-06    -84.8503E+06    -95.9362E+06    -220.240E+06    -95.9673E+06    -220.208E+06    -84.8503E+06     1.49745E+06         40.3372
              22     1.77708E-03     69.4358E-03         14.5716        -4.85277        -5.31783        -4.81069         14.0645        -4.85277         2.47285     235.061E-03    -117.047E-03    -118.014E-03    -117.331E-03     235.060E-03    -117.729E-03    -419.097E-06    -90.2214E+06    -98.2368E+06    -227.812E+06    -98.2517E+06    -227.797E+06    -90.2214E+06     528.440E+03         40.0206
              23     888.415E-06     69.4335E-03         15.7576        -5.30563        -6.07033        -4.09027         14.1091        -5.63716        -2.79351     235.508E-03    -116.942E-03    -118.566E-03    -118.203E-03     235.505E-03    -117.302E-03    -1.28816E-03    -96.4539E+06    -104.588E+06    -228.927E+06    -103.814E+06    -228.798E+06    -97.3565E+06    -819.899E+03         39.8309
              24    -163.164E-09     68.1732E-03         15.3336        -5.05955        -5.75762        -2.74137         13.0155        -5.75762        -12.9351     234.542E-03    -116.415E-03    -118.126E-03    -117.557E-03     234.538E-03    -116.981E-03    -648.557E-06    -104.617E+06    -108.716E+06    -226.205E+06    -104.884E+06    -225.938E+06    -108.716E+06    -1.58883E+06         39.7989
              25    -881.890E-09     66.9088E-03         13.1980        -3.74749        -4.69634        -2.42396         11.8744        -4.69634        -8.87769     236.076E-03    -117.437E-03    -118.639E-03    -118.067E-03     236.070E-03    -118.003E-03    -1.11140E-03    -104.145E+06    -109.075E+06    -231.131E+06    -106.870E+06    -231.043E+06    -106.439E+06     639.530E+03         39.8271
              26     2.01515E-06     65.6423E-03         10.8289        -2.55600        -3.29531        -2.41588         10.4824        -3.08893        -2.45439     236.448E-03    -117.865E-03    -118.583E-03    -118.494E-03     236.441E-03    -117.947E-03    -810.547E-06    -105.099E+06    -111.868E+06    -232.820E+06    -107.762E+06    -232.792E+06    -109.232E+06    -1.00784E+06         39.8477
              27    -2.22731E-06     64.3745E-03         9.66433        -1.13652        -3.44061        -2.92554         9.14926        -1.13652         4.21719     236.039E-03    -117.312E-03    -118.727E-03    -117.310E-03     236.037E-03    -118.727E-03     1.21726E-03    -102.970E+06    -109.178E+06    -227.557E+06    -105.130E+06    -227.472E+06    -107.103E+06     2.55224E+06         39.8615
              28    -132.286E-09     63.1089E-03         9.82411     825.074E-03        -5.40395        -3.69291         8.11307     825.074E-03         9.43753     236.244E-03    -116.440E-03    -119.804E-03    -118.470E-03     236.243E-03    -117.773E-03     267.291E-06    -99.6182E+06    -101.905E+06    -224.865E+06    -102.001E+06    -224.768E+06    -99.6182E+06     1.36543E+06         39.8727
              29     3.72906E-06     61.8430E-03         9.92975         2.83727        -7.40871        -4.64559         7.16662         2.83727         12.6798     235.876E-03    -116.095E-03    -119.780E-03    -119.780E-03     235.875E-03    -116.095E-03    -275.315E-06    -97.3728E+06    -101.190E+06    -225.964E+06    -101.207E+06    -225.947E+06    -97.3728E+06    -414.789E+03         39.8853
              30    -765.234E-09     60.5839E-03         9.09673         4.76209        -8.45697        -5.76619         6.40595         4.76209         12.6174     235.725E-03    -116.459E-03    -119.267E-03    -118.112E-03     235.724E-03    -117.612E-03    -1.06986E-03    -99.5365E+06    -107.079E+06    -230.099E+06    -103.173E+06    -230.069E+06    -103.472E+06    -827.939E+03         39.8999
              31    -1.35307E-06     59.3142E-03         7.60205         6.19083        -8.28727        -6.64898         5.96376         6.19083         9.49545     236.459E-03    -117.377E-03    -119.082E-03    -117.376E-03     236.457E-03    -119.082E-03    -22.4190E-06    -103.099E+06    -108.123E+06    -230.708E+06    -103.138E+06    -230.669E+06    -108.123E+06    -424.180E+03         39.9111
              32     344.730E-09     58.0441E-03         7.07748         6.30679        -7.91085        -7.35125         5.80092         7.02375         5.00106     237.568E-03    -117.937E-03    -119.632E-03    -119.079E-03     237.567E-03    -118.487E-03     1.44433E-03    -94.5852E+06    -99.8886E+06    -223.914E+06    -98.8233E+06    -223.890E+06    -95.6741E+06     1.71566E+06         39.9132
              33     1.71664E-06     56.7806E-03         7.18903         5.98422        -7.71063        -7.63316         5.90675         7.18903     603.347E-03     237.295E-03    -117.774E-03    -119.522E-03    -119.521E-03     237.294E-03    -117.774E-03     365.734E-06    -97.6720E+06    -104.778E+06    -227.030E+06    -101.933E+06    -226.984E+06    -100.563E+06    -660.870E+03         39.9073
              34    -696.338E-09     55.5121E-03         6.80862         6.17601        -7.53922        -7.44211         6.22365         6.66387        -2.17036     234.644E-03    -116.274E-03    -118.370E-03    -118.365E-03     234.639E-03    -116.274E-03    -2.12403E-03    -100.643E+06    -105.580E+06    -232.694E+06    -102.743E+06    -232.639E+06    -103.534E+06    -335.154E+03         39.8983
              35     3.34722E-06     54.2556E-03         6.92744         5.56966        -7.05961        -6.93544         6.80326         5.56966        -2.59512     233.313E-03    -115.376E-03    -117.937E-03    -116.859E-03     233.304E-03    -116.445E-03     42.4519E-06    -99.2346E+06    -102.342E+06    -232.794E+06    -101.308E+06    -232.767E+06    -100.296E+06     453.805E+03         39.8930
              36    -5.28350E-06     52.9878E-03         7.56430         3.94965        -6.14333        -6.09201         7.51298         3.94965    -657.713E-03     235.006E-03    -116.745E-03    -118.261E-03    -117.182E-03     234.997E-03    -117.814E-03    -4.63461E-06    -99.5899E+06    -101.895E+06    -232.315E+06    -99.6494E+06    -232.256E+06    -101.895E+06     1.16586E+06         39.8956
              37     6.03115E-06     51.7245E-03         8.79016         1.84594        -5.35320        -4.99135         8.42831         1.84594         3.60968     236.268E-03    -117.462E-03    -118.805E-03    -118.796E-03     236.258E-03    -117.462E-03     136.224E-06    -103.566E+06    -107.153E+06    -235.215E+06    -106.031E+06    -235.093E+06    -104.810E+06    -204.975E+03         39.9025
              38    -4.43541E-06     50.4576E-03         10.8393    -603.383E-03        -5.04734        -3.63317         9.42510    -603.383E-03         8.76931     236.315E-03    -117.347E-03    -118.968E-03    -118.234E-03     236.305E-03    -118.071E-03     181.880E-06    -100.038E+06    -102.685E+06    -233.135E+06    -102.866E+06    -232.954E+06    -100.038E+06     684.454E+03         39.9093
              39     3.12250E-06     49.1935E-03         13.1550        -3.28747        -4.86056        -2.01290         10.3074        -3.28747         13.0528     234.977E-03    -116.380E-03    -118.596E-03    -117.867E-03     234.971E-03    -117.105E-03    -2.50488E-03    -100.106E+06    -100.463E+06    -231.308E+06    -100.745E+06    -231.025E+06    -100.106E+06    -501.465E+03         39.9166
              40    -488.697E-09     47.9313E-03         15.3228        -4.25759        -6.17980    -85.8211E-03         11.1508        -6.17955         15.9906     233.726E-03    -115.901E-03    -117.825E-03    -117.391E-03     233.725E-03    -116.333E-03    -1.06238E-03    -105.657E+06    -109.015E+06    -237.138E+06    -105.903E+06    -236.945E+06    -108.962E+06    -2.02323E+06         39.9279
              41    -340.077E-09     46.6692E-03         16.4031        -2.63094        -9.17060         1.93085         11.8413        -9.17060         16.2501     235.939E-03    -117.689E-03    -118.249E-03    -117.689E-03     235.938E-03    -118.249E-03    -483.322E-06    -99.3540E+06    -103.529E+06    -236.854E+06    -100.252E+06    -236.825E+06    -102.659E+06     1.90252E+06         39.9423
              42     104.197E-09     45.4001E-03         16.1621     391.218E-03        -12.1926         3.97112         12.5822        -12.1926         13.1962     236.992E-03    -118.376E-03    -118.615E-03    -118.374E-03     236.989E-03    -118.615E-03    -1.53870E-03    -94.0790E+06    -95.6236E+06    -234.105E+06    -94.9841E+06    -234.070E+06    -94.7538E+06    -769.233E+03         39.9541
              43    -337.145E-09     44.1334E-03         15.1786         4.17673        -15.2214         5.94838         13.4070        -15.2214         7.87712     235.368E-03    -116.397E-03    -118.971E-03    -118.857E-03     235.365E-03    -116.508E-03    -896.880E-06    -98.3793E+06    -99.0614E+06    -239.796E+06    -98.5644E+06    -239.618E+06    -99.0542E+06     1.78813E+06         39.9593
              44     4.69539E-06     42.8697E-03         14.7957         7.35085        -18.2857         7.81825         14.3283        -18.2857         1.28228     235.352E-03    -115.881E-03    -119.470E-03    -118.342E-03     235.350E-03    -117.008E-03     1.40350E-03    -98.2730E+06    -98.8284E+06    -240.029E+06    -98.4320E+06    -239.878E+06    -98.8212E+06     2.78957E+06         39.9614
              45    -6.73128E-06     41.6068E-03         16.2133         8.36456        -21.0609         9.49332         15.0846        -21.0609        -4.95832     235.035E-03    -116.582E-03    -118.453E-03    -116.572E-03     235.025E-03    -118.453E-03    -1.48934E-03    -98.3081E+06    -99.8595E+06    -238.976E+06    -98.3357E+06    -238.948E+06    -99.8595E+06    -1.74205E+06         39.9675
              46     5.34608E-06     40.3422E-03         18.6336         7.95077        -23.3124         10.9416         15.6428        -23.3124        -9.51679     233.873E-03    -116.330E-03    -117.543E-03    -116.789E-03     233.864E-03    -117.075E-03    -1.57635E-03    -101.046E+06    -102.352E+06    -236.320E+06    -101.074E+06    -236.291E+06    -102.352E+06    -825.683E+03         39.9814
              47    -4.54316E-06     39.0809E-03         20.1215         8.10127        -25.1719         12.2009         16.0218        -25.1719        -11.3883     235.174E-03    -117.257E-03    -117.917E-03    -117.914E-03     235.171E-03    -117.257E-03    -308.618E-06    -99.8608E+06    -100.578E+06    -235.643E+06    -99.8765E+06    -235.627E+06    -100.578E+06    -436.364E+03         40.0004
              48     4.84711E-06     37.8160E-03         19.4535         9.62509        -26.3441         12.8840         16.1946        -26.3441        -9.22727     236.725E-03    -117.816E-03    -118.910E-03    -118.907E-03     236.722E-03    -117.816E-03    -2.06180E-03    -100.190E+06    -101.825E+06    -241.423E+06    -101.454E+06    -241.379E+06    -100.605E+06     576.087E+03         40.0168
              49    -3.25841E-06     36.5469E-03         17.2163         11.5724        -26.4395         12.7039         16.0848        -26.4395        -3.79870     236.495E-03    -117.302E-03    -119.192E-03    -118.203E-03     236.493E-03    -118.290E-03    -104.450E-06    -99.5754E+06    -102.582E+06    -245.832E+06    -100.829E+06    -245.798E+06    -101.362E+06     1.11020E+06         40.0265
              50     1.45783E-06     35.2818E-03         16.5121         10.8560        -25.3355         11.8287         15.5395        -25.3355         3.04874     236.319E-03    -117.136E-03    -119.184E-03    -118.193E-03     236.316E-03    -118.123E-03    -443.598E-06    -101.501E+06    -103.723E+06    -248.434E+06    -101.504E+06    -248.431E+06    -103.723E+06    -583.443E+03         40.0315
              51     395.725E-09     34.0149E-03         18.0456         7.01176        -23.2340         10.2800         14.7774        -23.2340         10.0383     235.438E-03    -116.720E-03    -118.718E-03    -117.778E-03     235.436E-03    -117.658E-03    -763.741E-06    -100.603E+06    -102.821E+06    -243.211E+06    -102.496E+06    -243.100E+06    -101.039E+06     2.54234E+06         40.0343
              52    -2.06065E-06     32.7570E-03         19.1732         2.55963        -20.3126         7.91206         13.8208        -20.3126         15.5274     234.969E-03    -116.669E-03    -118.299E-03    -117.353E-03     234.960E-03    -117.607E-03    -1.91980E-03    -99.7357E+06    -105.694E+06    -235.447E+06    -101.711E+06    -235.254E+06    -103.912E+06     401.640E+03         40.0360
              53     3.19930E-06     31.4852E-03         18.4663    -733.032E-03        -16.5984         5.26883         12.4645        -16.5984         17.7957     235.069E-03    -116.114E-03    -118.955E-03    -118.944E-03     235.058E-03    -116.114E-03    -915.210E-06    -97.4138E+06    -108.098E+06    -237.530E+06    -104.075E+06    -237.377E+06    -101.590E+06    -148.236E+03         40.0378
              54     671.526E-09     30.2253E-03         15.7494        -2.53463        -12.3004         2.53491         10.6798        -12.3004         16.3297     235.547E-03    -116.290E-03    -119.257E-03    -118.435E-03     235.544E-03    -117.109E-03     1.45190E-03    -98.3664E+06    -105.830E+06    -244.791E+06    -104.995E+06    -244.670E+06    -99.3229E+06     289.807E+03         40.0424
              55    -2.16310E-06     28.9582E-03         11.4914        -3.12886        -7.85032    -288.998E-03         8.65153        -7.85032         11.3158     235.618E-03    -116.413E-03    -119.205E-03    -118.383E-03     235.615E-03    -117.232E-03    -1.50752E-03    -100.599E+06    -101.954E+06    -246.353E+06    -100.652E+06    -246.300E+06    -101.954E+06    -2.35907E+06         40.0500
              56     5.63332E-06     27.6937E-03         7.29991        -2.27412        -4.82648        -2.82078         6.57102        -3.55093         3.79396     234.992E-03    -116.038E-03    -118.954E-03    -117.996E-03     234.977E-03    -116.981E-03     1.36329E-03    -100.663E+06    -104.041E+06    -245.408E+06    -100.668E+06    -245.404E+06    -104.041E+06    -138.332E+03         40.0529
              57    -7.39378E-06     26.4303E-03         5.33197     331.016E-03        -5.70336        -5.01267         4.64128     331.016E-03        -4.07695     235.871E-03    -117.295E-03    -118.576E-03    -117.609E-03     235.846E-03    -118.238E-03    -186.792E-06    -92.2168E+06    -96.9767E+06    -237.943E+06    -94.0154E+06    -237.925E+06    -95.1958E+06     1.40902E+06         40.0424
              58     7.95220E-06     25.1655E-03         5.17651         3.47677        -9.06987        -6.64548         2.75211         3.47677        -10.5045     235.358E-03    -116.462E-03    -118.896E-03    -118.882E-03     235.344E-03    -116.462E-03    -2.33814E-03    -101.103E+06    -103.519E+06    -243.375E+06    -103.598E+06    -243.296E+06    -101.103E+06    -964.059E+03         40.0140
              59    -4.25016E-06     23.9017E-03         6.19844         4.46004        -11.4011        -7.56716     815.484E-03         6.00905        -13.6642     233.737E-03    -114.608E-03    -119.129E-03    -116.702E-03     233.736E-03    -117.034E-03    -39.8933E-06    -108.089E+06    -109.307E+06    -248.671E+06    -108.786E+06    -248.608E+06    -108.672E+06    -2.09083E+06         39.9620
              60    -108.881E-09     22.6414E-03         7.90684         2.70779        -11.6624        -7.84750        -1.10711         7.90684        -12.6897     233.964E-03    -114.740E-03    -119.224E-03    -116.794E-03     233.960E-03    -117.166E-03    -2.36940E-03    -99.9972E+06    -102.431E+06    -249.374E+06    -99.9972E+06    -249.374E+06    -102.431E+06    -41.2375E+03         39.8761
              61     3.70717E-06     21.3752E-03         9.07307    -657.577E-03        -9.84982        -7.40543        -3.10197         9.07307        -8.12012     232.955E-03    -115.216E-03    -117.739E-03    -117.734E-03     232.951E-03    -115.216E-03    -914.780E-06    -99.8794E+06    -105.808E+06    -253.187E+06    -103.989E+06    -253.156E+06    -101.729E+06     1.49451E+06         39.7412
              62    -2.86729E-06     20.1168E-03         9.75290        -3.51763        -7.99393        -6.42763        -5.08393         9.75290    -934.742E-03     229.999E-03    -114.551E-03    -115.448E-03    -115.009E-03     229.993E-03    -114.984E-03    -1.14877E-03    -91.3629E+06    -99.9064E+06    -245.450E+06    -95.5284E+06    -245.363E+06    -95.8276E+06    -581.093E+03         39.5337
              63     1.99217E-06     18.8620E-03         10.0240        -2.19847        -9.86750        -5.04447        -7.02151         10.0240         7.36790     228.005E-03    -113.459E-03    -114.546E-03    -114.106E-03     227.999E-03    -113.892E-03    -2.67446E-03    -94.8753E+06    -100.721E+06    -246.955E+06    -96.4966E+06    -246.716E+06    -99.3401E+06     1.59339E+06         39.2210
              64    -845.902E-09     17.6091E-03         9.94538         1.64958        -13.9636        -3.35281        -8.96118         9.94538         14.5558     225.977E-03    -112.618E-03    -113.359E-03    -113.355E-03     225.973E-03    -112.618E-03    -2.17994E-03    -100.758E+06    -102.864E+06    -245.800E+06    -103.066E+06    -245.598E+06    -100.758E+06     2.55689E+06         38.7675
              65     971.581E-09     16.3519E-03         9.61900         4.33403        -16.7091        -1.65405        -10.7210         9.61900         18.9710     219.434E-03    -109.183E-03    -110.251E-03    -110.244E-03     219.427E-03    -109.183E-03    -2.96401E-03    -99.8803E+06    -101.953E+06    -244.091E+06    -102.014E+06    -244.030E+06    -99.8803E+06    -2.88239E+06         38.1506
              66     770.872E-09     15.1180E-03         9.10457         5.78452        -18.0342     102.049E-03        -12.3517         9.10457         20.2405     208.833E-03    -103.554E-03    -105.280E-03    -105.262E-03     208.816E-03    -103.554E-03    -4.45181E-03    -104.486E+06    -108.749E+06    -247.633E+06    -105.887E+06    -247.580E+06    -107.401E+06    -950.411E+03         37.3775
              67     473.171E-09     13.8961E-03         8.53014         6.37434        -18.3598         1.95011        -13.9355         8.53014         18.8463     196.224E-03    -97.5146E-03    -98.7094E-03    -98.6720E-03     196.187E-03    -97.5146E-03    -6.55695E-03    -108.286E+06    -113.640E+06    -244.378E+06    -110.779E+06    -244.324E+06    -111.201E+06     2.50295E+06         36.4991
              68     305.286E-09     12.6826E-03         8.15797         6.37275        -18.3423         3.45144        -15.4210         8.15797         15.7989     179.694E-03    -89.5510E-03    -90.1434E-03    -89.9491E-03     179.643E-03    -89.6938E-03    -7.44231E-03    -109.295E+06    -112.459E+06    -241.717E+06    -111.808E+06    -241.643E+06    -110.020E+06     273.379E+03         35.6252
              69    -657.050E-09     11.5055E-03         7.93855         6.34075        -18.4945         4.68681        -16.8405         7.93855         12.1845     162.048E-03    -80.7616E-03    -81.2866E-03    -81.0678E-03     161.972E-03    -80.9043E-03    -8.48064E-03    -114.809E+06    -116.289E+06    -238.046E+06    -114.876E+06    -237.980E+06    -116.289E+06     21.7016E+03         34.9237
              70     1.22590E-06     10.3355E-03         7.69819         6.73870        -18.9517         5.87656        -18.0896         7.69819         9.11582     146.175E-03    -72.3952E-03    -73.7800E-03    -73.7201E-03     146.115E-03    -72.3952E-03    -6.90630E-03    -106.562E+06    -108.047E+06    -226.553E+06    -106.625E+06    -226.490E+06    -108.047E+06     2.73723E+06         34.5966
              71     598.385E-09     9.18463E-03         7.72231         7.14433        -19.7628         6.65531        -19.2738         7.72231         7.13091     132.661E-03    -65.7935E-03    -66.8679E-03    -66.7729E-03     132.638E-03    -65.8654E-03    -4.28245E-03    -92.1933E+06    -93.5524E+06    -211.791E+06    -92.9108E+06    -211.703E+06    -92.9235E+06     3.16839E+06         34.8485
              72    -782.361E-09     8.05801E-03         7.86826         7.54273        -20.6986         7.17717        -20.3331         7.86826         6.38113     131.270E-03    -65.5635E-03    -65.7061E-03    -65.5514E-03     131.258E-03    -65.7061E-03    -2.39738E-03    -85.9442E+06    -86.9941E+06    -207.691E+06    -86.6555E+06    -207.609E+06    -86.3652E+06     702.900E+03         35.8444
              73     648.002E-09     6.91474E-03         8.10750         7.86667        -21.4732         7.62103        -21.0237         7.90364         7.19554     154.965E-03    -76.8718E-03    -78.0932E-03    -77.9904E-03     154.933E-03    -76.9425E-03     3.81731E-03    -78.6776E+06    -79.8461E+06    -202.287E+06    -78.9439E+06    -202.021E+06    -79.8461E+06     2.64106E+06         37.6816
              74     1.50219E-06     5.72526E-03         8.52047         8.25652        -22.4657         7.63478        -21.6401         8.31661         9.83738     204.581E-03    -101.388E-03    -103.192E-03    -102.429E-03     204.471E-03    -102.042E-03     11.5009E-03    -73.8420E+06    -77.9483E+06    -200.753E+06      -77.58E+06    -200.373E+06    -74.5895E+06     871.912E+03         40.3667
              75    -2.56229E-06     4.46356E-03         9.54002         8.43476        -23.8793         6.91821        -22.3627         9.54002         13.5445     276.597E-03    -137.846E-03    -138.751E-03    -137.664E-03     276.415E-03    -138.751E-03     17.3830E-03    -72.1167E+06    -82.9902E+06    -212.375E+06    -75.6333E+06    -212.217E+06    -79.6314E+06    -1.61546E+06         43.7601
              76     2.18420E-06     3.09126E-03         11.6707         7.37899        -24.9758         5.51545        -23.1123         11.6707         15.0754     361.649E-03    -180.586E-03    -181.064E-03    -180.637E-03     361.474E-03    -180.836E-03     19.2812E-03    -68.9937E+06    -84.3596E+06    -215.256E+06    -76.9344E+06    -215.166E+06    -76.5083E+06     3.39303E+06         47.5101
              77    -1.71155E-06     1.58632E-03         14.0330         4.76592        -24.7782         3.67269        -23.6850         14.0330         10.5775     432.107E-03    -215.483E-03    -216.625E-03    -216.545E-03     432.027E-03    -215.483E-03     12.8293E-03    -65.6159E+06    -76.4560E+06    -207.534E+06    -73.5649E+06    -207.436E+06    -68.6047E+06     598.740E+03         51.0486
              78     788.691E-06     152.656E-18         11.9008         5.72964        -23.7102         5.50746        -23.4880         11.9008         1.91298     455.124E-03    -226.096E-03    -229.028E-03    -226.946E-03     455.059E-03    -228.113E-03     12.2368E-03    -65.3740E+06    -71.5235E+06    -202.199E+06    -68.5699E+06    -202.164E+06    -68.3627E+06    -1.03085E+06         52.5661
              79     1.58327E-03     152.656E-18         8.66805         8.50989        -23.3299         8.48011        -23.2926         8.66044    -534.639E-03     443.178E-03    -217.592E-03    -225.585E-03    -217.414E-03     442.999E-03    -225.585E-03     21.2791E-03    -61.4627E+06    -67.6572E+06    -200.012E+06    -67.6611E+06    -200.008E+06    -61.4627E+06     679.163E+03         52.2391
              80     2.38859E-03     152.656E-18         8.59122         8.39904        -23.2103         8.39479        -23.1984         8.58361     417.933E-03     424.803E-03    -203.978E-03    -220.825E-03    -203.677E-03     424.502E-03    -220.825E-03     27.3345E-03    -59.6031E+06    -66.3165E+06    -204.899E+06    -66.3592E+06    -204.856E+06    -59.6031E+06     1.96413E+06         51.7320
              81     3.20906E-03     152.656E-18         8.50739         8.16286        -22.8978         8.15919        -22.8942         8.50739    -67.4026E-03     403.076E-03    -188.370E-03    -214.706E-03    -187.926E-03     402.632E-03    -214.706E-03     32.1852E-03    -61.0340E+06    -66.5467E+06    -205.535E+06    -66.6143E+06    -205.468E+06    -61.0340E+06     416.394E+03         51.0706
              82     4.04098E-03     152.656E-18         8.41900         7.99438        -22.6399         7.99288        -22.6384         8.41900     261.576E-03     379.447E-03    -171.731E-03    -207.716E-03    -171.148E-03     378.864E-03    -207.716E-03     35.7564E-03    -61.4538E+06    -65.6595E+06    -201.613E+06    -63.3576E+06    -201.543E+06    -63.8263E+06    -3.10256E+06         50.2988
              83     4.88950E-03     152.656E-18         8.32624         7.76617        -22.3056         7.76596        -22.3054         8.32624     65.4600E-03     354.124E-03    -154.027E-03    -200.098E-03    -153.369E-03     353.466E-03    -200.098E-03     36.5191E-03    -60.6706E+06    -71.2620E+06    -203.708E+06    -60.8613E+06    -203.517E+06    -71.2620E+06    -5.02330E+06         49.4762
              84     5.75678E-03     152.656E-18         8.22362         7.50751        -21.9940         7.50729        -21.9938         8.22362     146.913E-03     329.755E-03    -137.677E-03    -192.078E-03    -136.932E-03     329.010E-03    -192.078E-03     37.2305E-03    -54.1955E+06    -81.6021E+06    -191.660E+06    -54.9818E+06    -190.874E+06    -81.6021E+06    -9.67829E+06         48.6736
              85     6.63254E-03     152.656E-18         8.10791         7.17579        -21.6282         7.17565        -21.6280         8.10791     120.462E-03     308.245E-03    -124.197E-03    -184.048E-03    -123.358E-03     307.406E-03    -184.048E-03     38.0247E-03    -42.2198E+06    -92.2408E+06    -153.046E+06    -44.1070E+06    -151.158E+06    -92.2408E+06    -13.8617E+06         47.9712
              86     7.52487E-03     152.656E-18         7.98069         6.87633        -21.3003         6.87611        -21.3001         7.98069     157.733E-03     289.092E-03    -112.740E-03    -176.352E-03    -111.873E-03     288.225E-03    -176.352E-03     37.2750E-03    -30.0106E+06    -74.9756E+06    -108.079E+06    -33.9692E+06    -85.5968E+06    -93.4995E+06    -12.9851E+06         47.4570
              87     8.42204E-03     152.656E-18         7.84768         6.58358        -20.9630         6.58317        -20.9626         7.84768     206.943E-03     272.293E-03    -103.092E-03    -169.201E-03    -102.140E-03     271.342E-03    -169.201E-03     37.6773E-03     2.58687E+06    -37.1973E+06    -71.2928E+06    -25.3310E+06    -9.27939E+06    -71.2928E+06    -8.91997E+06         47.2314
              88     9.32923E-03     152.656E-18         7.71101         6.29093        -20.6113         6.29052        -20.6109         7.71101     204.061E-03     258.414E-03    -95.7008E-03    -162.713E-03    -94.6859E-03     257.399E-03    -162.713E-03     37.8592E-03     44.8716E+06    -12.7924E+06    -35.3181E+06    -19.2987E+06     44.4239E+06    -28.3641E+06    -3.57264E+06         47.4130
              89     10.2432E-03     152.656E-18         7.57161         5.99212        -20.2821         5.99171        -20.2817         7.57161     200.178E-03     248.098E-03    -91.2010E-03    -156.897E-03    -90.0874E-03     246.984E-03    -156.897E-03     38.7366E-03     68.5187E+06     16.1157E+06    -17.3524E+06    -17.3099E+06     68.4762E+06     16.1157E+06     1.17259E+06         48.1323
              90     11.1550E-03     152.656E-18         7.42910         5.66780        -19.9955         5.66727        -19.9949         7.42910     232.887E-03     240.748E-03    -89.0261E-03    -151.722E-03    -87.6577E-03     239.380E-03    -151.722E-03     42.3328E-03     78.1677E+06     49.8212E+06    -13.9495E+06    -13.9081E+06     78.1263E+06     49.8212E+06     1.29670E+06         49.4958
              91     12.0706E-03     152.656E-18         7.28436         5.36322        -19.8105         5.36273        -19.8100         7.28436     223.119E-03     238.990E-03    -91.6879E-03    -147.302E-03    -90.1784E-03     237.480E-03    -147.302E-03     44.5819E-03     79.9717E+06     62.5872E+06    -8.97929E+06    -8.97865E+06     70.5416E+06     72.0167E+06     28.9529E+03         51.5097
              92     12.9903E-03     152.656E-18         7.14184         5.12568        -19.7888         5.12530        -19.7884         7.14184     193.259E-03     247.644E-03    -103.733E-03    -143.911E-03    -100.948E-03     244.859E-03    -143.911E-03     60.8737E-03     86.6371E+06     70.9825E+06    -2.23882E+06    -2.23536E+06      70.979E+06     86.6371E+06    -220.463E+03         53.9906
              93     13.8506E-03     152.656E-18         7.00836         5.01835        -20.0308         5.01815        -20.0306         7.00836     139.940E-03     263.063E-03    -121.267E-03    -141.797E-03    -116.526E-03     258.322E-03    -141.797E-03     84.7337E-03     96.6510E+06     85.9784E+06     1.10772E+06     1.58848E+06     85.4977E+06     96.6510E+06     4.31836E+06         56.5563
              94     14.7573E-03     152.656E-18         6.90589         5.50311        -21.2173         5.47579        -21.1900         6.90589        -1.17614     353.314E-03    -136.959E-03    -216.355E-03    -193.418E-03     335.829E-03    -142.411E-03     189.904E-03     111.608E+06     96.9677E+06     4.35771E+06     5.32659E+06     95.9988E+06     111.608E+06     9.42272E+06         58.6852
              95     15.6620E-03     1.70693E-03         6.89385         5.60143        -20.6658         5.50986        -20.5742         6.89385        -3.00323     374.161E-03    -140.243E-03    -233.918E-03    -197.752E-03     337.995E-03    -140.243E-03     281.746E-03     111.001E+06     98.3381E+06    -2.70882E+06    -1.82371E+06     99.9236E+06     108.531E+06     9.47823E+06         59.4963
              96     15.7762E-03     2.87663E-03         6.91257         4.92972        -18.4587         4.83237        -18.3613         6.91257        -2.98059     291.190E-03    -133.302E-03    -157.889E-03    -124.948E-03     258.250E-03    -133.302E-03     232.601E-03     105.812E+06     96.7422E+06    -7.87098E+06    -7.02394E+06     104.965E+06     96.7422E+06     9.77021E+06         59.6438
              97     15.8747E-03     4.13956E-03         6.84832         4.41723        -17.2602         4.36656        -17.2095         6.84832        -2.07391     279.464E-03    -126.686E-03    -152.778E-03    -136.948E-03     263.635E-03    -126.686E-03     156.282E-03     109.177E+06     97.3849E+06    -2.18281E+06    -1.49729E+06     108.492E+06     97.3849E+06     8.60650E+06         60.0575
              98     15.9381E-03     5.49354E-03         6.70442         4.08994        -16.3819         4.06274        -16.3547         6.70442        -1.47690     291.669E-03    -121.743E-03    -169.926E-03    -162.739E-03     284.482E-03    -121.743E-03     113.667E-03     108.051E+06     95.2804E+06    -1.76199E+06    -1.49315E+06     107.783E+06     95.2804E+06     4.97071E+06         60.3384
              99     15.9755E-03     6.82315E-03         6.49300         3.87366        -15.6586         3.85705        -15.6420         6.49300        -1.13618     291.934E-03    -119.028E-03    -172.907E-03    -168.222E-03     287.250E-03    -119.028E-03     92.2007E-03     106.940E+06     95.1895E+06    -2.29450E+06    -2.25770E+06     106.903E+06     95.1895E+06     1.26743E+06         60.4448
             100     15.9970E-03     8.16830E-03         6.21473         3.66565        -14.9077         3.65297        -14.8950         6.21473    -969.479E-03     287.336E-03    -117.702E-03    -169.635E-03    -166.241E-03     283.943E-03    -117.702E-03     78.4471E-03     104.415E+06     99.3378E+06    -3.41503E+06    -3.37556E+06     104.376E+06     99.3378E+06     1.29951E+06         60.4473
             101     16.0040E-03     9.49850E-03         5.87609         3.46199        -14.0764         3.45169        -14.0661         5.87609    -849.506E-03     279.759E-03    -117.244E-03    -162.515E-03    -159.662E-03     276.906E-03    -117.244E-03     70.7085E-03     105.551E+06     103.674E+06    -2.50815E+06    -2.39597E+06     105.439E+06     103.674E+06     -539.85E+03         60.3891
             102     16.0091E-03     10.8055E-03         5.48220         3.24481        -13.1428         3.23741        -13.1354         5.48220    -692.218E-03     270.763E-03    -117.185E-03    -153.578E-03    -151.206E-03     268.391E-03    -117.185E-03     63.2642E-03     105.452E+06     104.139E+06    -941.941E+03    -843.431E+03     105.353E+06     104.139E+06    -838.835E+03         60.2936
             103     16.0097E-03     12.1113E-03         5.03690         3.00484        -12.1090         3.00049        -12.1047         5.03690    -509.574E-03     263.436E-03    -117.285E-03    -146.151E-03    -144.048E-03     261.333E-03    -117.285E-03     58.5182E-03     105.220E+06     101.618E+06    -3.21898E+06    -3.19348E+06     105.195E+06     101.618E+06     1.23433E+06         60.1820
             104     16.0088E-03     13.4067E-03         4.54407         2.72157        -10.9599         2.71950        -10.9579         4.54407    -325.566E-03     254.484E-03    -117.479E-03    -137.005E-03    -135.315E-03     252.794E-03    -117.479E-03     51.2342E-03     103.553E+06     98.2077E+06    -4.30671E+06    -4.25411E+06     103.501E+06     98.2077E+06     1.72867E+06         60.0789
             105     16.0120E-03     14.6726E-03         4.00948         2.43086        -9.73974         2.43033        -9.73921         4.00948    -145.747E-03     245.229E-03    -117.665E-03    -127.565E-03    -126.441E-03     244.106E-03    -117.665E-03     40.5264E-03     102.776E+06     96.8001E+06    -4.61238E+06    -4.52090E+06     102.685E+06     96.8001E+06     170.516E+03         60.0114
             106     16.0098E-03     15.9489E-03         3.43822         2.13294        -8.48273         2.13286        -8.48266         3.43822    -16.2471E-03     239.079E-03    -117.771E-03    -121.308E-03    -120.641E-03     238.411E-03    -117.771E-03     30.8274E-03     102.895E+06     96.9964E+06    -2.41709E+06    -2.37159E+06     102.849E+06     96.9964E+06    -2.04163E+06         59.9948
             107     16.0143E-03     17.2015E-03         2.83620         1.82921        -7.17528         1.82859        -7.17467         2.83620     118.107E-03     235.681E-03    -117.477E-03    -118.204E-03    -117.427E-03     235.210E-03    -117.783E-03     25.7498E-03     102.510E+06     96.4245E+06    -3.06081E+06    -3.03318E+06     102.483E+06     96.4245E+06     520.822E+03         60.0272
             108     16.0124E-03     18.4794E-03         2.20855         1.52310        -5.84954         1.52112        -5.84756         2.20855     233.455E-03     236.717E-03    -117.457E-03    -119.260E-03    -118.493E-03     236.256E-03    -117.763E-03     25.5657E-03     104.102E+06     98.2566E+06    -3.18401E+06    -3.16254E+06     104.081E+06     98.2566E+06     1.21906E+06         60.0903
             109     16.0117E-03     19.7433E-03         1.56161         1.22054        -4.51637         1.21588        -4.51171         1.56161     313.947E-03     236.739E-03    -117.449E-03    -119.290E-03    -118.590E-03     236.382E-03    -117.793E-03     22.0315E-03     106.585E+06     100.896E+06    -978.706E+03    -977.869E+03     106.584E+06     100.896E+06     299.397E+03         60.1581
             110     16.0135E-03     21.0059E-03         1.01287     825.267E-03        -3.19886     922.250E-03        -3.18843     905.453E-03     397.734E-03     234.042E-03    -116.174E-03    -117.867E-03    -115.899E-03     233.766E-03    -117.867E-03     19.4958E-03     102.952E+06     98.8227E+06    -3.07402E+06    -3.07349E+06     102.952E+06     98.8227E+06     200.618E+03         60.2128
             111     16.0107E-03     22.2799E-03     674.081E-03     250.171E-03        -1.93667     650.421E-03        -1.91301     250.171E-03     464.921E-03     231.978E-03    -114.059E-03    -117.919E-03    -113.754E-03     231.673E-03    -117.919E-03     20.5149E-03     98.8824E+06     97.1984E+06    -2.62481E+06    -2.62349E+06     98.8811E+06     97.1984E+06    -228.137E+03         60.2504
             112     16.0149E-03     23.5243E-03     506.168E-03    -157.386E-03        -1.01576     401.325E-03    -673.506E-03    -394.799E-03     548.960E-03     231.644E-03    -113.816E-03    -117.828E-03    -113.574E-03     231.403E-03    -117.828E-03     18.2377E-03     101.882E+06     98.7763E+06    -2.71878E+06    -2.71643E+06     101.880E+06     98.7763E+06    -495.028E+03         60.2774
             113     16.0154E-03     24.7959E-03     844.111E-03    -153.957E-03        -1.02398     155.466E-03     534.688E-03        -1.02398     651.270E-03     234.585E-03    -116.197E-03    -118.388E-03    -116.622E-03     234.321E-03    -117.699E-03     19.1980E-03     105.746E+06     99.4671E+06    -3.21037E+06    -3.19602E+06     105.732E+06     99.4671E+06     629.694E+03         60.2996
             114     16.0128E-03     26.0745E-03         1.77103    -157.757E-03        -1.63417    -77.7117E-03         1.69099        -1.63417     731.723E-03     235.436E-03    -116.977E-03    -118.460E-03    -117.315E-03     235.085E-03    -117.770E-03     22.2279E-03     107.634E+06     99.0255E+06    -4.07423E+06    -4.05440E+06     107.614E+06     99.0255E+06     1.46585E+06         60.3170
             115     16.0117E-03     27.3304E-03         2.82519    -353.053E-03        -2.21806    -301.622E-03         2.77375        -2.21806     790.173E-03     232.184E-03    -114.310E-03    -117.874E-03    -114.010E-03     231.884E-03    -117.874E-03     20.1583E-03     105.556E+06     97.9513E+06    -3.78510E+06    -3.76656E+06     105.537E+06     97.9513E+06     1.40576E+06         60.3335
             116     16.0158E-03     28.5862E-03         3.81466    -535.263E-03        -2.76776    -493.623E-03         3.77302        -2.76776     843.315E-03     232.202E-03    -114.386E-03    -117.816E-03    -114.126E-03     231.942E-03    -117.816E-03     18.9201E-03     109.227E+06     100.832E+06    -782.327E+03    -768.825E+03     109.214E+06     100.832E+06     516.406E+03         60.3518
             117     16.0124E-03     29.8610E-03         4.74108    -707.852E-03        -3.27434    -667.620E-03         4.70085        -3.27434     932.335E-03     234.977E-03    -117.089E-03    -117.888E-03    -116.883E-03     234.631E-03    -117.748E-03     22.0348E-03     109.933E+06     100.878E+06    -2.30490E+06    -2.29327E+06     109.921E+06     100.878E+06     466.571E+03         60.3679
             118     16.0145E-03     31.1283E-03         5.63875    -912.319E-03        -3.72679    -874.526E-03         5.60096        -3.72679     988.275E-03     234.349E-03    -116.438E-03    -117.911E-03    -116.262E-03     234.033E-03    -117.771E-03     20.9331E-03     107.506E+06     97.1335E+06    -5.12436E+06    -5.11036E+06     107.492E+06     97.1335E+06     1.22065E+06         60.3818
             119     16.0126E-03     32.3834E-03         6.47058        -1.10644        -4.11587        -1.07192         6.43606        -4.11587         1.02011     233.542E-03    -115.762E-03    -117.780E-03    -115.517E-03     233.296E-03    -117.780E-03     18.5140E-03     111.120E+06     97.9372E+06    -3.32602E+06    -3.30826E+06     111.103E+06     97.9372E+06     1.36357E+06         60.3971
             120     16.0148E-03     33.6556E-03         7.22544        -1.28808        -4.43436        -1.25671         7.19408        -4.43436         1.02812     233.596E-03    -115.821E-03    -117.775E-03    -115.596E-03     233.371E-03    -117.775E-03     17.7054E-03     112.910E+06     99.4541E+06    -1.86799E+06    -1.85406E+06     112.896E+06     99.4541E+06     889.172E+03         60.4136
             121     16.0126E-03     34.9167E-03         7.90329        -1.45720        -4.67953        -1.43110         7.87720        -4.67953     985.513E-03     232.754E-03    -114.960E-03    -117.794E-03    -114.770E-03     232.564E-03    -117.794E-03     16.2412E-03     114.564E+06     98.6711E+06    -1.22196E+06    -1.18869E+06     114.530E+06     98.6711E+06    -1.40668E+06         60.4297
             122     16.0146E-03     36.1755E-03         8.51493        -1.63451        -4.84973        -1.60912         8.48954        -4.84973         1.01398     232.524E-03    -114.742E-03    -117.782E-03    -114.609E-03     232.391E-03    -117.782E-03     13.4594E-03     111.131E+06     96.4874E+06    -2.28510E+06    -2.24163E+06     111.088E+06     96.4874E+06    -2.14474E+06         60.4467
             123     16.0136E-03     37.4423E-03         9.11356        -1.85173        -4.94162        -1.82508         9.08691        -4.94162         1.07974     233.487E-03    -115.751E-03    -117.737E-03    -115.578E-03     233.315E-03    -117.737E-03     15.0986E-03     110.858E+06     96.5482E+06    -2.19043E+06    -2.17385E+06     110.841E+06     96.5482E+06    -1.35689E+06         60.4656
             124     16.0148E-03     38.7104E-03         9.64135        -2.05973        -4.95533        -2.03271         9.61433        -4.95533         1.12331     234.205E-03    -116.553E-03    -117.653E-03    -116.271E-03     233.924E-03    -117.653E-03     19.8411E-03     111.047E+06     92.9687E+06    -4.25848E+06    -4.25167E+06     111.040E+06     92.9687E+06    -766.864E+03         60.4871
             125     16.0165E-03     39.9789E-03         10.0888        -2.25833        -4.89311        -2.22892         10.0593        -4.89311         1.20345     234.494E-03    -116.805E-03    -117.689E-03    -116.480E-03     234.169E-03    -117.689E-03     21.3539E-03     110.894E+06     94.2332E+06    -3.09186E+06    -3.08418E+06     110.886E+06     94.2332E+06     487.480E+03         60.5075
             126     16.0097E-03     41.2504E-03         10.4990        -2.45552        -4.75939        -2.42082         10.4643        -4.75939         1.33833     234.270E-03    -116.443E-03    -117.827E-03    -116.135E-03     233.962E-03    -117.827E-03     20.7626E-03     112.570E+06     94.8796E+06    -2.65492E+06    -2.64471E+06     112.560E+06     94.8796E+06     228.711E+03         60.5222
             127     16.0136E-03     42.4997E-03         10.8242        -2.65935        -4.56337        -2.61912         10.7839        -4.56337         1.47041     232.597E-03    -114.791E-03    -117.806E-03    -114.587E-03     232.393E-03    -117.806E-03     16.5634E-03     109.413E+06     91.8047E+06    -3.74655E+06    -3.70603E+06     109.373E+06     91.8047E+06    -1.85279E+06         60.5359
             128     16.0160E-03     43.7647E-03         11.0832        -2.86858        -4.31213        -2.82126         11.0359        -4.31213         1.62085     233.384E-03    -115.721E-03    -117.662E-03    -115.537E-03     233.199E-03    -117.662E-03     15.8898E-03     110.103E+06     96.8408E+06    -633.831E+03      -557.3E+03     110.026E+06     96.8408E+06    -2.91007E+06         60.5536
             129     16.0158E-03     45.0395E-03         11.2986        -3.05555        -4.01288        -3.00444         11.2475        -4.01288         1.70982     235.205E-03    -117.566E-03    -117.638E-03    -117.284E-03     234.922E-03    -117.638E-03     19.9076E-03     115.073E+06     99.9621E+06    -697.907E+03    -629.812E+03     115.005E+06     99.9621E+06    -149.313E+03         60.5719
             130     16.0127E-03     46.3106E-03         11.4730        -3.23954        -3.68070        -3.18744         11.4209        -3.68070         1.74782     233.845E-03    -116.083E-03    -117.762E-03    -115.727E-03     233.489E-03    -117.762E-03     22.2848E-03     113.226E+06     94.6088E+06    -4.41816E+06    -4.38078E+06     113.189E+06     94.6088E+06     2.01197E+06         60.5894
             131     16.0131E-03     47.5665E-03         11.6032        -3.24321        -3.51118        -3.36940         11.5486        -3.33037         1.80871     231.324E-03    -113.549E-03    -117.775E-03    -113.236E-03     231.010E-03    -117.775E-03     20.6587E-03     109.188E+06     91.2625E+06    -3.86716E+06    -3.85632E+06     109.177E+06     91.2625E+06     310.101E+03         60.6129
             132     16.0183E-03     48.8199E-03         11.7179        -2.97122        -3.60694        -3.55158         11.6626        -2.97122         1.83880     234.143E-03    -115.081E-03    -119.063E-03    -116.216E-03     233.900E-03    -117.684E-03     18.4635E-03     114.716E+06     97.3512E+06    -1.94541E+06    -1.93995E+06     114.711E+06     97.3512E+06     40.0964E+03         60.6431
             133     16.0090E-03     50.1079E-03         11.8273        -2.61642        -3.76323        -3.70964         11.7737        -2.61642         1.82463     237.443E-03    -117.733E-03    -119.711E-03    -119.421E-03     237.153E-03    -117.733E-03     20.2798E-03     115.645E+06     97.5534E+06    -4.79587E+06    -4.73264E+06     115.582E+06     97.5534E+06     2.30996E+06         60.6683
             134     16.0139E-03     51.3657E-03         11.8904        -2.28548        -3.90145        -3.85152         11.8405        -2.28548         1.77276     233.505E-03    -115.068E-03    -118.436E-03    -115.370E-03     233.207E-03    -117.837E-03     20.3374E-03     117.338E+06     96.1076E+06    -3.03892E+06    -2.97444E+06     117.274E+06     96.1076E+06     1.38918E+06         60.6858
             135     16.0134E-03     52.6248E-03         11.9696        -1.99612        -4.03416        -3.99084         11.9263        -1.99612         1.66007     232.083E-03    -114.238E-03    -117.845E-03    -114.023E-03     231.868E-03    -117.845E-03     17.1682E-03     119.655E+06     95.9159E+06    -2.71035E+06    -2.70431E+06     119.649E+06     95.9159E+06    -843.883E+03         60.7013
             136     16.0111E-03     53.8933E-03         12.0542        -1.76387        -4.13527        -4.09832         12.0173        -1.76387         1.54455     233.955E-03    -116.137E-03    -117.818E-03    -115.901E-03     233.718E-03    -117.818E-03     18.0128E-03     119.641E+06     93.7585E+06    -3.11632E+06    -3.09199E+06     119.617E+06     93.7585E+06     831.507E+03         60.7157
             137     16.0139E-03     55.1567E-03         12.0912        -1.60123        -4.19875        -4.16597         12.0585        -1.60123         1.45880     233.311E-03    -115.504E-03    -117.807E-03    -115.225E-03     233.031E-03    -117.807E-03     19.7157E-03     123.802E+06     96.4485E+06    -2.52260E+06    -2.49155E+06     123.771E+06     96.4485E+06     425.657E+03         60.7287
             138     16.0129E-03     56.4248E-03         12.1379        -1.51440        -4.25189        -4.22300         12.1090        -1.51440         1.37464     233.723E-03    -115.929E-03    -117.794E-03    -115.634E-03     233.428E-03    -117.794E-03     20.2701E-03     126.063E+06     97.6672E+06    -2.82670E+06    -2.80794E+06     126.044E+06     97.6672E+06     57.2752E+03         60.7427
             139     16.0123E-03     57.6867E-03         12.1820        -1.50441        -4.29021        -4.26350         12.1553        -1.50441         1.32530     233.686E-03    -115.896E-03    -117.790E-03    -115.656E-03     233.446E-03    -117.790E-03     17.9674E-03     127.267E+06     96.0877E+06    -2.33697E+06    -2.30644E+06     127.236E+06     96.0877E+06    -351.118E+03         60.7583
             140     16.0140E-03     58.9503E-03         12.2055        -1.56916        -4.26817        -4.24368         12.1810        -1.56916         1.26890     232.769E-03    -114.976E-03    -117.793E-03    -114.731E-03     232.524E-03    -117.793E-03     18.0579E-03     128.155E+06     94.8549E+06    -3.97037E+06    -3.90946E+06     128.094E+06     94.8549E+06     485.061E+03         60.7750
             141     16.0124E-03     60.2183E-03         12.2099        -1.70656        -4.20915        -4.18716         12.1880        -1.70656         1.20029     232.819E-03    -115.014E-03    -117.804E-03    -114.732E-03     232.537E-03    -117.804E-03     19.6926E-03     129.666E+06     97.0283E+06    -2.73525E+06    -2.69314E+06     129.623E+06     97.0283E+06     1.31564E+06         60.7925
             142     16.0136E-03     61.4795E-03         12.1816        -1.91317        -4.11753        -4.09605         12.1601        -1.91317         1.18234     232.230E-03    -114.436E-03    -117.794E-03    -114.204E-03     231.998E-03    -117.794E-03     17.9566E-03     130.213E+06     96.2977E+06    -2.40429E+06    -2.39033E+06     130.199E+06     96.2977E+06    -1.23368E+06         60.8099
             143     16.0141E-03     62.7373E-03         12.1517        -2.18061        -4.01245        -3.99039         12.1296        -2.18061         1.19329     233.024E-03    -115.331E-03    -117.693E-03    -115.129E-03     232.822E-03    -117.693E-03     16.6754E-03     131.218E+06     95.1883E+06    -2.62900E+06    -2.55690E+06     131.146E+06     95.1883E+06    -2.90897E+06         60.8293
             144     16.0162E-03     64.0064E-03         12.1090        -2.49751        -3.89506        -3.87432         12.0883        -2.49751         1.15108     234.675E-03    -117.060E-03    -117.615E-03    -116.873E-03     234.487E-03    -117.615E-03     16.2078E-03     134.489E+06     100.283E+06    -1.37997E+06    -1.28187E+06     134.391E+06     100.283E+06    -377.463E+03         60.8515
             145     16.0145E-03     65.2767E-03         12.0462        -2.85171        -3.73197        -3.71277         12.0270        -2.85171         1.10014     235.349E-03    -117.588E-03    -117.761E-03    -117.451E-03     235.125E-03    -117.674E-03     17.7616E-03     135.058E+06     99.8679E+06    -2.42071E+06    -2.38213E+06     135.020E+06     99.8679E+06     1.75254E+06         60.8735
             146     16.0110E-03     66.5469E-03         11.9478        -3.23183        -3.54751        -3.52951         11.9298        -3.23183         1.05539     233.699E-03    -115.843E-03    -117.855E-03    -115.691E-03     233.460E-03    -117.769E-03     18.2557E-03     130.039E+06     95.6192E+06    -3.63362E+06    -3.63292E+06     130.038E+06     95.6192E+06    -45.7518E+03         60.8924
             147     16.0162E-03     67.7978E-03         11.7935        -3.34374        -3.63743        -3.33998         11.7763        -3.62393         1.02212     231.457E-03    -113.713E-03    -117.744E-03    -113.535E-03     231.279E-03    -117.744E-03     15.3775E-03     130.415E+06     97.6045E+06    -3.42421E+06    -3.40506E+06     130.396E+06     97.6045E+06    -1.30869E+06         60.9111
             148     16.0153E-03     69.0651E-03         11.6171        -3.14950        -4.00852        -3.13329         11.6009        -4.00852     977.606E-03     234.016E-03    -115.557E-03    -118.458E-03    -116.174E-03     233.837E-03    -117.663E-03     15.5280E-03     132.542E+06     98.2510E+06    -3.50744E+06    -3.48489E+06     132.519E+06     98.2510E+06    -624.289E+03         60.9320
             149     16.0172E-03     71.5987E-03         11.1585        -2.70620        -4.69353        -2.69441         11.1467        -4.69353     807.867E-03     233.083E-03    -115.428E-03    -117.654E-03    -115.123E-03     232.778E-03    -117.654E-03     20.5294E-03     134.587E+06     100.234E+06    -2.18467E+06    -2.16961E+06     134.572E+06     100.234E+06    -1.16996E+06         60.9809
             150     16.0151E-03     72.8671E-03         10.9439        -2.52695        -4.96496        -2.51643         10.9334        -4.96496     752.691E-03     234.416E-03    -116.608E-03    -117.808E-03    -116.501E-03     234.134E-03    -117.633E-03     19.7011E-03     134.947E+06     101.514E+06    -1.98617E+06    -1.97194E+06     134.933E+06     101.514E+06     818.775E+03         61.0175
             151     16.0137E-03     74.1365E-03         10.7291        -2.36550        -5.17064        -2.35645         10.7201        -5.17064     687.201E-03     233.737E-03    -115.827E-03    -117.910E-03    -115.776E-03     233.511E-03    -117.735E-03     17.7706E-03     130.737E+06     99.3997E+06    -3.93957E+06    -3.91315E+06     130.711E+06     99.3997E+06     1.88606E+06         61.0500
             152     16.0135E-03     75.3925E-03         10.5029        -2.22920        -5.29889        -2.22135         10.4950        -5.29889     631.967E-03     232.452E-03    -114.660E-03    -117.792E-03    -114.444E-03     232.236E-03    -117.792E-03     17.2536E-03     127.794E+06     97.4666E+06    -3.87745E+06    -3.86484E+06     127.781E+06     97.4666E+06     861.757E+03         61.0705
             153     16.0137E-03     76.6578E-03         10.3014        -2.13352        -5.33895        -2.12584         10.2937        -5.33895     617.919E-03     233.447E-03    -115.700E-03    -117.747E-03    -115.513E-03     233.259E-03    -117.747E-03     16.1596E-03     132.021E+06     99.2327E+06    -2.79840E+06    -2.79828E+06     132.021E+06     99.2327E+06    -120.050E+03         61.0855
             154     16.0144E-03     77.9247E-03         10.1277        -2.07930        -5.28731        -2.07231         10.1207        -5.28731     583.515E-03     233.779E-03    -116.047E-03    -117.732E-03    -115.828E-03     233.560E-03    -117.732E-03     17.4431E-03     131.743E+06     97.3809E+06    -3.10830E+06    -3.10807E+06     131.743E+06     97.3809E+06     21.6448E+03         61.1013
             155     16.0126E-03     79.1933E-03         9.98750        -2.07122        -5.14830        -2.06575         9.98204        -5.14830     511.841E-03     233.582E-03    -115.844E-03    -117.739E-03    -115.570E-03     233.308E-03    -117.739E-03     19.5370E-03     130.742E+06     95.6698E+06    -3.14722E+06    -3.14706E+06     130.742E+06     95.6698E+06     135.502E+03         61.1197
             156     16.0151E-03     80.4527E-03         9.84096        -2.10048        -4.92960        -2.09650         9.83698        -4.92960     434.579E-03     232.226E-03    -114.526E-03    -117.700E-03    -114.307E-03     232.007E-03    -117.700E-03     17.1359E-03     130.359E+06     96.8121E+06    -3.38170E+06    -3.33492E+06     130.312E+06     96.8121E+06    -1.72336E+06         61.1431
             157     16.0170E-03     81.7127E-03         9.69979        -2.15892        -4.63775        -2.15623         9.69710        -4.63775     354.229E-03     232.436E-03    -114.783E-03    -117.653E-03    -114.569E-03     232.222E-03    -117.653E-03     16.9460E-03     130.652E+06     99.8192E+06    -1.53862E+06    -1.46469E+06     130.578E+06     99.8192E+06    -423.627E+03         61.1756
             158     16.0140E-03     82.9887E-03         9.57393        -2.23910        -4.27912        -2.23744         9.57227        -4.27912     278.442E-03     234.127E-03    -116.486E-03    -117.641E-03    -116.176E-03     233.817E-03    -117.641E-03     20.8446E-03     128.648E+06     96.6951E+06    -2.76622E+06    -2.73762E+06     128.620E+06     96.6951E+06     1.64248E+06         61.2100
             159     16.0154E-03     84.2481E-03         9.44052        -2.34019        -3.86324        -2.33910         9.43943        -3.86324     225.369E-03     233.460E-03    -115.798E-03    -117.661E-03    -115.532E-03     233.194E-03    -117.661E-03     19.1255E-03     126.116E+06     93.8349E+06    -4.08753E+06    -4.08560E+06     126.114E+06     93.8349E+06     487.405E+03         61.2379
             160     16.0150E-03     85.5087E-03         9.31909        -2.46309        -3.40174        -2.46218         9.31818        -3.40174     206.457E-03     232.766E-03    -115.109E-03    -117.657E-03    -114.907E-03     232.564E-03    -117.657E-03     16.7608E-03     127.029E+06     97.7603E+06    -3.49863E+06    -3.48929E+06     127.020E+06     97.7603E+06    -580.172E+03         61.2660
             161     16.0169E-03     86.7757E-03         9.19939        -2.58992        -2.90852        -2.58909         9.19856        -2.90852     197.364E-03     233.707E-03    -116.074E-03    -117.633E-03    -115.879E-03     233.512E-03    -117.633E-03     16.4925E-03     129.594E+06     101.160E+06    -2.82047E+06    -2.79673E+06     129.570E+06     101.160E+06    -1.75836E+06         61.2933
             162     16.0141E-03     88.0413E-03         9.08818        -2.39819        -2.72868        -2.72601         9.08744        -2.40012     187.413E-03     234.765E-03    -117.137E-03    -117.628E-03    -116.888E-03     234.516E-03    -117.628E-03     18.5606E-03     129.283E+06     101.905E+06    -2.02938E+06    -1.94507E+06     129.199E+06     101.905E+06     1.12360E+06         61.3140
             163     16.0165E-03     89.3120E-03         8.99731        -1.89510        -2.87244        -2.87188         8.99675        -1.89510     161.630E-03     233.573E-03    -115.926E-03    -117.647E-03    -115.669E-03     233.316E-03    -117.647E-03     18.8470E-03     129.429E+06     101.521E+06    -3.59870E+06    -3.52446E+06     129.355E+06     101.521E+06     2.69498E+06         61.3348
             164     16.0155E-03     90.5708E-03         8.94260        -1.41330        -3.02233        -3.02201         8.94227        -1.41330     124.923E-03     232.215E-03    -114.526E-03    -117.689E-03    -114.303E-03     231.992E-03    -117.689E-03     17.5849E-03     130.531E+06     102.004E+06    -3.26460E+06    -3.25973E+06     130.526E+06     102.004E+06     547.779E+03         61.3645
             165     16.0149E-03     91.8356E-03         8.92023    -973.519E-03        -3.16889        -3.16864         8.91997    -973.519E-03     111.445E-03     233.400E-03    -115.715E-03    -117.684E-03    -115.466E-03     233.150E-03    -117.684E-03     18.6442E-03     129.773E+06     102.288E+06    -2.18554E+06    -2.18321E+06     129.771E+06     102.288E+06    -420.124E+03         61.3991
             166     16.0155E-03     93.1017E-03         8.88897    -594.116E-03        -3.28779        -3.28767         8.88884    -594.116E-03     67.4398E-03     233.392E-03    -115.713E-03    -117.679E-03    -115.499E-03     233.178E-03    -117.679E-03     17.2225E-03     127.778E+06     100.656E+06    -3.37627E+06    -3.37061E+06     127.772E+06     100.656E+06     72.8773E+03         61.4277
             167     16.0150E-03     94.3645E-03         8.87072    -290.913E-03        -3.39387        -3.39385         8.87070    -290.913E-03    -2.68544E-03     232.838E-03    -115.127E-03    -117.711E-03    -114.917E-03     232.628E-03    -117.711E-03     17.0386E-03     127.278E+06     102.033E+06    -2.45422E+06    -2.44642E+06     127.270E+06     102.033E+06    -72.6026E+03         61.4522
             168     16.0148E-03     95.6277E-03         8.86240    -74.4530E-03        -3.46649        -3.46639         8.86230    -74.4530E-03    -63.5120E-03     233.270E-03    -115.582E-03    -117.688E-03    -115.348E-03     233.035E-03    -117.688E-03     18.0857E-03     125.767E+06     101.798E+06    -2.31058E+06    -2.30607E+06     125.762E+06     101.798E+06    -478.392E+03         61.4787
             169     16.0165E-03     96.8963E-03         8.86030     47.3824E-03        -3.50134        -3.50096         8.85992     47.3824E-03    -131.643E-03     232.845E-03    -115.170E-03    -117.675E-03    -114.925E-03     232.600E-03    -117.675E-03     18.4368E-03     123.048E+06     102.593E+06    -2.85787E+06    -2.85519E+06     123.045E+06     102.593E+06     465.079E+03         61.5112
             170     16.0155E-03     98.1564E-03         8.89771     70.1832E-03        -3.52963        -3.52900         8.89708     70.1832E-03    -176.095E-03     233.745E-03    -116.070E-03    -117.676E-03    -115.807E-03     233.483E-03    -117.676E-03     19.1475E-03     124.244E+06     107.225E+06    -2.83689E+06    -2.82665E+06     124.234E+06     107.225E+06     1.10577E+06         61.5468
             171     16.0156E-03     99.4252E-03         8.93437    -5.92953E-03        -3.51081        -3.50991         8.93347    -5.92953E-03    -209.880E-03     233.942E-03    -116.282E-03    -117.660E-03    -116.052E-03     233.712E-03    -117.660E-03     17.9320E-03     128.266E+06     108.387E+06    -2.77726E+06    -2.75184E+06     128.241E+06     108.387E+06     1.78988E+06         61.5749
             172     16.0170E-03     100.688E-03         8.98596    -176.060E-03        -3.47123        -3.47002         8.98475    -176.060E-03    -245.415E-03     232.535E-03    -114.869E-03    -117.666E-03    -114.670E-03     232.336E-03    -117.666E-03     16.6333E-03     130.179E+06     109.858E+06    -2.39416E+06    -2.37585E+06     130.161E+06     109.858E+06     1.27359E+06         61.6032
             173     16.0164E-03     101.947E-03         9.10154    -429.108E-03        -3.43688        -3.43591         9.10057    -429.108E-03    -217.831E-03     233.830E-03    -116.086E-03    -117.744E-03    -115.987E-03     233.598E-03    -117.611E-03     17.9843E-03     132.655E+06     110.999E+06    -3.85536E+06    -3.84861E+06     132.648E+06     110.999E+06     848.160E+03         61.6404
             174     16.0175E-03     103.224E-03         9.24931    -751.149E-03        -3.38021        -3.37959         9.24869    -751.149E-03    -177.002E-03     234.126E-03    -116.441E-03    -117.685E-03    -116.243E-03     233.794E-03    -117.552E-03     21.4437E-03     136.029E+06     110.043E+06    -6.02356E+06    -6.01555E+06     136.021E+06     110.043E+06     1.02050E+06         61.6754
             175     16.0188E-03     104.486E-03         9.44185        -1.12970        -3.32054        -3.32005         9.44136        -1.12970    -158.134E-03     232.086E-03    -114.484E-03    -117.603E-03    -114.143E-03     231.745E-03    -117.603E-03     21.6658E-03     136.688E+06     114.497E+06    -1.99471E+06    -1.97474E+06     136.668E+06     114.497E+06     1.46273E+06         61.7079
             176     16.0168E-03     105.746E-03         9.66131        -1.55366        -3.25689        -3.25667         9.66109        -1.55366    -91.0946E-03     231.188E-03    -113.544E-03    -117.645E-03    -113.288E-03     230.932E-03    -117.645E-03     18.7469E-03     136.003E+06     115.396E+06    -2.76907E+06    -2.72160E+06     135.955E+06     115.396E+06     2.55269E+06         61.7432
             177     16.0188E-03     107.004E-03         9.88305        -2.01098        -3.18501        -3.18499         9.88304        -2.01098    -14.9761E-03     231.863E-03    -114.277E-03    -117.585E-03    -114.088E-03     231.673E-03    -117.585E-03     16.1204E-03     140.044E+06     116.180E+06    -4.40531E+06    -4.32762E+06     139.967E+06     116.180E+06    -432.739E+03         61.7671
             178     16.0190E-03     108.265E-03         10.0884        -2.48781        -3.10593        -3.10593         10.0884        -2.48781     15.9126E-03     232.518E-03    -115.058E-03    -117.461E-03    -114.890E-03     232.351E-03    -117.461E-03     15.2525E-03     140.649E+06     119.247E+06    -1.22891E+06    -1.16959E+06     140.590E+06     119.247E+06    -1.01217E+06         61.7688
             179     16.0235E-03     109.534E-03         10.2668        -2.84312        -3.13234        -3.00983         10.2668        -2.96557     48.9371E-03     230.219E-03    -112.879E-03    -117.340E-03    -112.658E-03     229.998E-03    -117.340E-03     17.3204E-03     140.355E+06     118.467E+06    -3.66816E+06    -3.65336E+06     140.340E+06     118.467E+06     1.40754E+06         61.7642
             180     16.0257E-03     110.792E-03         10.4645        -2.92099        -3.42501        -2.92093         10.4645        -3.42501     51.5150E-03     230.126E-03    -112.879E-03    -117.247E-03    -112.588E-03     229.834E-03    -117.247E-03     19.9664E-03     145.802E+06     124.328E+06    -2.75893E+06    -2.75490E+06     145.798E+06     124.328E+06     643.483E+03         61.7583
             181     16.0240E-03     112.056E-03         10.6789        -2.86561        -3.85185        -2.86551         10.6789        -3.85185     63.6138E-03     231.102E-03    -113.991E-03    -117.111E-03    -113.711E-03     230.822E-03    -117.111E-03     19.5932E-03     148.286E+06     127.843E+06    -2.75185E+06    -2.74038E+06     148.274E+06     127.843E+06     1.04043E+06         61.7168
             182     16.0326E-03     113.313E-03         10.8481        -2.80319        -4.23025        -2.80298         10.8479        -4.23025     106.353E-03     226.798E-03    -109.927E-03    -116.871E-03    -109.645E-03     226.516E-03    -116.871E-03     19.4022E-03     144.035E+06     125.951E+06    -3.53018E+06    -3.51885E+06     144.024E+06     125.951E+06     951.650E+03         61.6167
             183     16.0392E-03     114.565E-03         11.0076        -2.74591        -4.54628        -2.74555         11.0072        -4.54628     138.366E-03     224.047E-03    -107.602E-03    -116.444E-03    -107.225E-03     223.670E-03    -116.444E-03     22.3028E-03     141.781E+06     126.936E+06    -4.14123E+06    -4.14034E+06     141.780E+06     126.936E+06     273.824E+03         61.4738
             184     16.0489E-03     115.820E-03         11.1817        -2.71756        -4.79261        -2.71610         11.1803        -4.79261     265.656E-03     222.117E-03    -106.314E-03    -115.804E-03    -105.818E-03     221.622E-03    -115.804E-03     25.4231E-03     143.673E+06     131.721E+06    -2.48864E+06    -2.34897E+06     143.533E+06     131.721E+06     3.37785E+06         61.2909
             185     16.0665E-03     117.064E-03         11.3396        -2.70750        -4.96626        -2.70419         11.3362        -4.96626     427.739E-03     216.759E-03    -101.885E-03    -114.874E-03    -101.229E-03     216.103E-03    -114.874E-03     28.8000E-03     145.076E+06     134.322E+06    -5.65820E+06    -5.51324E+06     144.931E+06     134.322E+06     3.82402E+06         61.0508
             186     16.0885E-03     118.301E-03         11.4525        -2.71907        -5.07100        -2.71316         11.4466        -5.07100     572.632E-03     211.048E-03    -97.6564E-03    -113.392E-03    -96.7499E-03     210.142E-03    -113.392E-03     33.2556E-03     143.289E+06     132.701E+06    -2.64670E+06    -2.38558E+06     143.027E+06     132.701E+06     4.78100E+06         60.8238
             187     16.1264E-03     119.526E-03         11.4193        -2.70214        -5.11242        -2.69323         11.4103        -5.11242     707.046E-03     208.496E-03    -97.3966E-03    -111.099E-03    -96.2171E-03     207.316E-03    -111.099E-03     37.8765E-03     140.002E+06     119.472E+06    -5.80225E+06    -5.53832E+06     139.738E+06     119.472E+06     3.22458E+06         60.8001
             188     16.1685E-03     120.753E-03         11.2803        -2.67516        -5.09190        -2.66622         11.2713        -5.09190     704.618E-03     213.115E-03    -102.870E-03    -110.245E-03    -103.935E-03     212.195E-03    -108.260E-03     33.2737E-03     133.808E+06     95.8940E+06    -4.32629E+06    -4.21582E+06     133.697E+06     95.8940E+06    -3.26847E+06         61.2345
             189     16.2033E-03     121.998E-03         11.1558        -2.66450        -5.00861        -2.65878         11.1500        -5.00861     554.010E-03     229.169E-03    -105.819E-03    -123.351E-03    -122.937E-03     228.756E-03    -105.819E-03     23.6826E-03     120.001E+06     93.5753E+06    -4.22576E+06    -3.58732E+06     119.363E+06     93.5753E+06    -8.36971E+06         62.2599
             190     16.2131E-03     123.278E-03         11.0895        -2.67123        -4.86324        -2.66767         11.0859        -4.86324     442.180E-03     254.698E-03    -104.256E-03    -150.442E-03    -150.231E-03     254.487E-03    -104.256E-03     18.0890E-03     115.039E+06     94.4464E+06     1.54440E+06     2.11972E+06     99.5051E+06     109.405E+06    -7.05919E+06         63.6827
             191     16.2179E-03     124.596E-03         11.0340        -2.71942        -4.66269        -2.71620         11.0308        -4.66269     420.495E-03     277.078E-03    -103.397E-03    -173.681E-03    -173.490E-03     276.887E-03    -103.397E-03     18.4478E-03     104.806E+06     68.2779E+06    -14.4396E+06    -11.4461E+06     65.2843E+06     104.806E+06    -12.9840E+06         65.1599
             192     16.2176E-03     125.933E-03         10.8899        -2.76160        -4.41792        -2.75861         10.8869        -4.41792     404.452E-03     293.897E-03    -102.864E-03    -191.033E-03    -190.626E-03     293.489E-03    -102.864E-03     27.6055E-03     107.279E+06     53.3459E+06    -16.5978E+06     5.59443E+06     31.1536E+06     107.279E+06    -11.2372E+06         66.5071
             193     16.2222E-03     127.296E-03         10.6471        -2.77641        -4.13843        -2.77419         10.6448        -4.13843     341.178E-03     310.340E-03    -102.370E-03    -207.970E-03    -207.435E-03     309.805E-03    -102.370E-03     33.2512E-03     96.1264E+06     26.3602E+06    -29.3990E+06    -7.82434E+06     4.78561E+06     96.1264E+06    -8.29705E+06         67.7479
             194     16.2179E-03     128.672E-03         10.3297        -2.76517        -3.83530        -2.76371         10.3283        -3.83530     276.445E-03     323.475E-03    -102.023E-03    -221.452E-03    -220.846E-03     322.869E-03    -102.023E-03     36.2142E-03     91.5668E+06     42.2684E+06    -51.8835E+06     7.00174E+06    -16.6168E+06     91.5668E+06    -1.03736E+06         68.9148
             195     16.2221E-03     130.072E-03         9.95159        -2.72955        -3.52159        -2.72803         9.95008        -3.52159     276.792E-03     340.897E-03    -101.647E-03    -239.251E-03    -237.752E-03     339.399E-03    -101.647E-03     56.9900E-03     84.4863E+06     22.1620E+06    -77.6895E+06    -13.1727E+06    -42.3547E+06     84.4863E+06    -8.61737E+06         69.8891
             196     16.2177E-03     131.514E-03         9.42155        -2.62011        -3.21991        -2.61859         9.42002        -3.21991     271.269E-03     358.891E-03    -101.147E-03    -257.744E-03    -255.610E-03     356.757E-03    -101.147E-03     72.3472E-03     96.1415E+06     36.9695E+06    -99.5315E+06     9.30126E+06    -63.1195E+06     87.3976E+06    -1.68553E+06         70.5688
             197     16.2278E-03     132.962E-03         8.69403        -2.41015        -2.96285        -2.40828         8.69216        -2.96285     285.118E-03     366.768E-03    -100.886E-03    -265.882E-03    -263.206E-03     364.092E-03    -100.886E-03     81.4459E-03     88.2546E+06     28.0275E+06    -115.928E+06    -9.63979E+06    -69.5171E+06     79.5108E+06    -659.055E+03         70.8916
             198     16.2174E-03     134.417E-03         7.79597        -2.11701        -2.78325        -2.11570         7.79466        -2.78325     209.648E-03     367.752E-03    -100.620E-03    -267.132E-03    -263.727E-03     364.346E-03    -100.620E-03     92.7483E-03     92.3679E+06    -4.85413E+06    -127.320E+06    -4.42164E+06    -82.0132E+06     46.6291E+06    -4.24819E+06         70.7042
             199     16.2339E-03     135.852E-03         6.66979        -1.70096        -2.70624        -1.70081         6.66964        -2.70624     47.8739E-03     369.875E-03    -100.331E-03    -269.544E-03    -264.298E-03     364.629E-03    -100.331E-03     113.669E-03     81.6737E+06    -12.8084E+06    -139.016E+06    -1.58546E+06    -104.500E+06     35.9350E+06    -14.5920E+06         69.6300
             200     16.2273E-03     137.338E-03         5.27995        -1.13434        -2.73850        -1.13299         5.27860        -2.73850    -125.684E-03     368.610E-03    -100.338E-03    -268.272E-03    -258.401E-03     358.739E-03    -100.338E-03     155.461E-03     97.9613E+06     9.56772E+06    -125.251E+06     5.13030E+06    -81.1633E+06     58.3111E+06     8.45554E+06         66.3801
             201     16.2390E-03     138.830E-03         3.64089    -416.006E-03        -2.86809    -408.315E-03         3.63320        -2.86809    -307.596E-03     311.275E-03    -102.288E-03    -208.986E-03    -187.342E-03     289.630E-03    -102.288E-03     196.508E-03     117.937E+06     57.6229E+06    -113.011E+06    -1.51608E+06    -14.2222E+06     78.2869E+06     24.5702E+06         58.6267
             202     16.2160E-03     140.070E-03         2.13768     272.288E-03        -3.06860     288.485E-03         2.12148        -3.06860    -322.411E-03     161.464E-03    -24.9774E-03    -136.487E-03    -29.9005E-03     141.271E-03    -111.371E-03     109.932E-03     66.7513E+06    -12.0935E+06    -128.889E+06    -46.3428E+06    -8.87665E+06    -19.0114E+06     5.48345E+06         47.6461
             203     14.8304E-03     140.657E-03         1.66595     440.166E-03        -3.25956     477.526E-03         1.62859        -3.25956    -417.730E-03     96.2691E-03     24.9229E-03    -121.192E-03     32.1280E-03     89.0640E-03    -121.192E-03    -22.5562E-03     123.803E+06     51.6517E+06    -64.3145E+06     24.3751E+06     48.7248E+06     38.0401E+06    -8.99808E+06         42.3270
             204     13.9176E-03     140.234E-03         1.85851     194.460E-03        -3.39201     269.492E-03         1.78348        -3.39201    -687.597E-03     141.701E-03    -18.1097E-03    -123.592E-03    -14.0007E-03     137.592E-03    -123.592E-03    -50.0037E-03     113.383E+06     64.1984E+06    -104.810E+06    -25.2049E+06    -15.4070E+06     113.383E+06      214.42E+03         42.3293
             205     13.0539E-03     139.737E-03         1.92451    -60.3493E-03        -3.49594     69.3201E-03         1.79484        -3.49594    -976.115E-03     141.564E-03    -18.6556E-03    -122.908E-03    -14.6972E-03     137.606E-03    -122.908E-03    -49.3005E-03     98.8197E+06     50.0973E+06    -100.933E+06    -19.2240E+06    -18.1032E+06     85.3111E+06    -1.95101E+06         41.0642
             206     12.1660E-03     139.256E-03         2.00845    -297.969E-03        -3.59489    -112.890E-03         1.82337        -3.59489        -1.25279     136.418E-03    -14.2222E-03    -122.196E-03    -7.67288E-03     129.869E-03    -122.196E-03    -60.9869E-03     98.9159E+06     40.5024E+06    -67.0541E+06    -22.4097E+06      9.3666E+06     85.4073E+06    -18.3363E+06         39.6101
             207     11.2786E-03     138.811E-03         2.11378    -511.705E-03        -3.69385    -300.218E-03         1.90229        -3.69385        -1.42875     159.480E-03    -39.1513E-03    -120.329E-03    -25.6976E-03     146.027E-03    -120.329E-03    -99.2576E-03     70.0342E+06     22.4628E+06    -72.7877E+06    -30.5810E+06    -19.7440E+06     70.0342E+06    -10.7441E+06         38.9882
             208     10.4495E-03     138.359E-03         2.25451    -744.834E-03        -3.79343    -526.571E-03         2.03625        -3.79343        -1.55727     183.510E-03    -67.4220E-03    -116.088E-03    -46.7825E-03     162.871E-03    -116.088E-03    -137.860E-03     75.1335E+06     25.6826E+06    -49.7322E+06    -25.8683E+06     1.81868E+06     75.1335E+06      -21.15E+06         38.7074
             209     9.63382E-03     137.974E-03         2.43030    -996.536E-03        -3.90225    -794.609E-03         2.22838        -3.90225        -1.60877     200.038E-03    -89.8860E-03    -110.152E-03    -66.4205E-03     176.573E-03    -110.152E-03    -158.095E-03     76.3788E+06     8.74278E+06    -46.8736E+06    -22.1152E+06    -16.0156E+06     76.3788E+06    -17.7828E+06         38.1982
             210     8.82728E-03     137.620E-03         2.59949        -1.27974        -4.02398        -1.11997         2.43972        -4.02398        -1.53207     209.187E-03    -99.9095E-03    -109.278E-03    -83.4101E-03     186.616E-03    -103.206E-03    -162.389E-03     77.9397E+06     15.2631E+06    -39.4376E+06    -15.2774E+06    -8.89704E+06     77.9397E+06    -15.9032E+06         37.3981
             211     8.00790E-03     137.325E-03         2.78848        -1.62275        -4.15789        -1.51080         2.67653        -4.15789        -1.37365     211.347E-03    -95.6341E-03    -115.712E-03    -95.9798E-03     191.614E-03    -95.6341E-03    -155.549E-03     70.4569E+06     9.00555E+06    -34.3748E+06    -14.2278E+06    -11.1415E+06     70.4569E+06    -9.84354E+06         36.3343
             212     7.19018E-03     137.076E-03         3.01478        -2.04777        -4.30345        -1.97564         2.94265        -4.30345        -1.18577     205.004E-03    -87.8616E-03    -117.142E-03    -102.096E-03     189.957E-03    -87.8616E-03    -135.369E-03     60.1195E+06     12.2463E+06    -27.7755E+06    -13.4484E+06    -2.08088E+06     60.1195E+06    -14.4618E+06         35.0339
             213     6.35280E-03     136.876E-03         3.26173        -2.53327        -4.45881        -2.48875         3.21720        -4.45881    -999.443E-03     190.938E-03    -80.5411E-03    -110.397E-03    -100.544E-03     181.085E-03    -80.5411E-03    -106.724E-03     55.3335E+06     12.2710E+06    -26.1581E+06    -8.73383E+06    -5.15324E+06     55.3335E+06    -16.3888E+06         33.6008
             214     5.49155E-03     136.723E-03         3.49541        -3.04984        -4.61920        -3.02402         3.46959        -4.61920    -807.039E-03     174.526E-03    -73.9631E-03    -100.563E-03    -94.4779E-03     168.441E-03    -73.9631E-03    -80.4097E-03     54.3765E+06     21.3974E+06    -26.1684E+06     1.07955E+06    -5.85055E+06     54.3765E+06    -17.3139E+06         32.1702
             215     4.61201E-03     136.602E-03         3.72020        -3.58420        -4.77759        -3.57165         3.70765        -4.77759    -585.758E-03     156.788E-03    -68.2441E-03    -88.5443E-03    -85.0610E-03     153.305E-03    -68.2441E-03    -57.6913E-03     48.6871E+06     18.5251E+06    -15.2385E+06     12.2831E+06    -8.99662E+06     48.6871E+06    -11.6758E+06         30.8424
             216     3.71249E-03     136.517E-03         3.94721        -4.09050        -4.92744        -4.08560         3.94231        -4.92744    -384.278E-03     140.565E-03    -63.5798E-03    -76.9857E-03    -75.0317E-03     138.611E-03    -63.5798E-03    -40.7654E-03     46.0183E+06     32.1342E+06    -5.17235E+06     28.6340E+06     213.208E+03     44.1329E+06    -10.6243E+06         29.6891
             217     2.79453E-03     136.453E-03         4.14761        -4.55369        -5.05807        -4.55218         4.14610        -5.05807    -203.306E-03     127.351E-03    -60.1583E-03    -67.1927E-03    -66.0716E-03     126.230E-03    -60.1583E-03    -29.3164E-03     44.3997E+06     40.2556E+06    -6.73309E+06     39.5734E+06    -4.16553E+06     42.5143E+06    -10.6535E+06         28.7603
             218     1.86463E-03     136.409E-03         4.30976        -4.90922        -5.16127        -4.90904         4.30958        -5.16127    -76.2019E-03     118.551E-03    -58.0148E-03    -60.5365E-03    -59.8712E-03     117.886E-03    -58.0148E-03    -21.6170E-03     51.7490E+06     43.4831E+06    -5.04620E+06     47.0057E+06    -2.56162E+06     45.7418E+06    -10.9144E+06         28.0862
             219     934.795E-06     136.385E-03         4.42222        -5.11323        -5.27562        -5.11298         4.42196        -5.27562     41.4226E-03     114.591E-03    -56.3223E-03    -58.2686E-03    -57.9893E-03     114.312E-03    -56.3223E-03    -12.7795E-03     71.5927E+06     61.8890E+06     1.68507E+06     66.0642E+06     3.51701E+06     65.5855E+06    -10.8514E+06         27.6776
             220    -791.238E-09     135.259E-03         4.40019        -4.76782        -4.85080        -4.76383         4.39221        -4.84682     432.364E-03     92.6501E-03    -45.6506E-03    -46.9994E-03    -46.8895E-03     92.5536E-03    -45.6641E-03    -7.16560E-03     50.9682E+06     37.9828E+06    -25.5157E+06     45.5236E+06    -23.7676E+06     41.6794E+06    -11.0737E+06         26.7125
             221     576.270E-09     134.184E-03         4.44395        -4.09753        -4.11612        -4.08921         4.43166        -4.11214     642.806E-03     56.6646E-03    -28.2240E-03    -28.4405E-03    -28.1551E-03     56.5956E-03    -28.4405E-03    -4.69688E-03    -13.5132E+06    -29.7726E+06    -67.7062E+06    -26.5780E+06    -61.6121E+06    -22.8020E+06    -8.77646E+06         24.8992
             222    -837.696E-09     133.145E-03         4.88736        -3.73088        -3.80310        -3.77374         4.87261        -3.74549     703.083E-03     33.0689E-03    -16.2343E-03    -16.8346E-03    -16.2222E-03     33.0568E-03    -16.8346E-03    -1.46223E-03    -64.3258E+06    -95.0946E+06    -107.851E+06    -90.4869E+06    -88.6607E+06    -88.1240E+06    -17.8753E+06         23.1988
             223    -89.8132E-09     132.119E-03         5.75317        -3.65445        -3.73823        -3.69006         5.73118        -3.68063     911.406E-03     19.8297E-03    -9.67337E-03    -10.1563E-03    -9.75337E-03     19.8239E-03    -10.0706E-03     153.011E-06    -118.472E+06    -178.652E+06    -184.202E+06    -168.317E+06    -134.185E+06    -178.823E+06    -10.7835E+06         22.1191
             224     240.713E-09     131.105E-03         6.78330        -3.73329        -3.80066        -3.71105         6.76106        -3.80066     964.754E-03     13.9602E-03    -6.90301E-03    -7.05721E-03    -6.92297E-03     13.8944E-03    -6.97145E-03     1.98465E-03    -151.007E+06    -222.906E+06    -225.472E+06    -224.830E+06    -151.477E+06    -223.078E+06     5.43531E+06         21.7225
             225    -471.994E-09     130.092E-03         7.79328        -3.83604        -4.00184        -3.94188         7.77451        -3.87723     935.044E-03     16.4831E-03    -8.08340E-03    -8.39973E-03    -8.20527E-03     16.3571E-03    -8.15183E-03     3.51040E-03    -146.128E+06    -231.665E+06    -235.627E+06    -233.924E+06    -146.264E+06    -233.233E+06     3.43976E+06         21.9847
             226     815.723E-09     129.075E-03         8.83203        -4.03981        -4.20673        -4.19337         8.81868        -4.03981     825.077E-03     28.9711E-03    -14.3547E-03    -14.6164E-03    -14.4767E-03     28.8452E-03    -14.3685E-03     4.61100E-03    -123.501E+06    -181.774E+06    -184.158E+06    -179.676E+06    -126.415E+06    -183.341E+06     6.00217E+06         22.8691
             227    -966.396E-09     128.037E-03         9.84465        -4.29079        -4.40032        -4.32241         9.83396        -4.35801     778.088E-03     50.1454E-03    -25.0337E-03    -25.1117E-03    -24.8651E-03     49.9768E-03    -25.1117E-03     7.11299E-03    -81.6915E+06    -102.215E+06    -113.192E+06    -97.4534E+06    -97.4297E+06    -102.215E+06     15.2999E+06         24.3031
             228     613.811E-09     126.968E-03         10.8604        -4.47371        -4.81092        -4.73531         10.8521        -4.54093     707.937E-03     76.3826E-03    -37.7239E-03    -38.6587E-03    -38.3171E-03     76.1051E-03    -37.7880E-03     11.2809E-03    -39.1507E+06    -59.3589E+06    -79.1408E+06    -56.6448E+06    -69.5862E+06    -51.4195E+06     11.4486E+06         26.1766
             229     824.301E-09     125.873E-03         11.9209        -4.64546        -5.29649        -5.29318         11.9176        -4.64546     443.927E-03     104.643E-03    -51.3154E-03    -53.3272E-03    -53.0331E-03     104.349E-03    -51.3154E-03     13.4708E-03    -18.4149E+06    -30.1678E+06    -61.5951E+06    -26.4270E+06    -61.5225E+06    -22.2283E+06    -870.203E+03         28.3364
             230     1.04761E-06     124.749E-03         13.0256        -4.80630        -5.79366        -5.79272         13.0246        -4.80630     23.1684E-03     131.567E-03    -65.1737E-03    -66.3929E-03    -66.1471E-03     131.399E-03    -65.2518E-03     11.0142E-03    -6.08494E+06    -14.3972E+06    -74.0408E+06    -10.9253E+06    -73.6992E+06    -9.89835E+06    -4.48661E+06         30.5913
             231    -1.20439E-06     123.597E-03         14.0542        -4.70246        -6.57065        -6.56964         14.0532        -4.70246    -287.362E-03     156.630E-03    -77.4263E-03    -79.2034E-03    -77.3390E-03     156.542E-03    -79.2034E-03     9.03597E-03    -1.61529E+06    -11.4946E+06    -98.9537E+06    -6.45959E+06    -98.6082E+06    -6.99583E+06    -5.11828E+06         32.7682
             232    -2.04382E-06     122.413E-03         14.9042        -4.24643        -7.65477        -7.65201         14.9015        -4.24643    -482.618E-03     181.912E-03    -89.1548E-03    -92.7567E-03    -90.9965E-03     181.850E-03    -90.8538E-03     7.89939E-03    -3.23678E+06    -11.4288E+06    -108.780E+06    -6.11188E+06    -108.716E+06    -8.61732E+06    -2.01638E+06         34.7272
             233     5.50035E-06     121.196E-03         15.5729        -3.56628        -8.77674        -8.77457         15.5707        -3.56628    -365.769E-03     202.690E-03    -99.5117E-03    -103.178E-03    -103.135E-03     202.647E-03    -99.5117E-03     7.26011E-03    -4.47104E+06    -7.58852E+06    -113.578E+06    -7.91803E+06    -113.248E+06    -4.47104E+06    -4.52056E+06         36.3298
             234    -2.36805E-06     119.963E-03         15.8795        -2.46594        -10.0144        -10.0139         15.8790        -2.46594     97.2314E-03     214.656E-03    -105.330E-03    -109.326E-03    -107.066E-03     214.628E-03    -107.562E-03     5.17734E-03    -24.7309E+06    -28.1541E+06    -134.794E+06    -25.8793E+06    -133.952E+06    -27.8482E+06      -9.482E+06         37.4987
             235    -1.67206E-06     118.722E-03         15.9213        -1.02620        -11.3778        -11.3579         15.9014        -1.02620         1.19049     222.996E-03    -109.971E-03    -113.025E-03    -110.790E-03     222.994E-03    -112.204E-03     1.45470E-03    -45.0254E+06     -48.313E+06    -157.297E+06    -45.5462E+06    -156.776E+06     -48.313E+06    -5.78242E+06         38.2786
             236     3.13103E-06     117.465E-03         15.7770     406.673E-03        -12.4863        -12.4028         15.6935     406.673E-03         2.95118     229.450E-03    -113.713E-03    -115.738E-03    -115.735E-03     229.448E-03    -113.713E-03     1.62031E-03    -55.7060E+06    -57.3718E+06    -181.087E+06    -57.2658E+06    -181.022E+06    -55.8764E+06    -2.56183E+06         38.7634
             237    -975.764E-09     116.205E-03         15.3633         1.93923        -13.4852        -13.3028         15.1809         1.93923         4.52322     231.042E-03    -114.560E-03    -116.481E-03    -116.479E-03     231.039E-03    -114.560E-03     657.211E-06    -67.1693E+06    -71.4980E+06    -198.379E+06    -71.6141E+06    -198.263E+06    -67.1693E+06    -3.83643E+06         39.0348
             238     2.28062E-06     114.948E-03         14.8834         3.29225        -14.1890        -13.8521         14.5466         3.29225         6.14912     232.159E-03    -115.432E-03    -116.727E-03    -116.141E-03     232.151E-03    -116.011E-03     1.62354E-03    -83.1435E+06    -88.6142E+06    -214.805E+06    -87.1190E+06    -213.663E+06    -85.7809E+06    -10.2651E+06         39.1806
             239    -3.33992E-06     113.685E-03         14.1359         4.31927        -14.3437        -13.8398         13.6320         4.31927         7.48651     233.732E-03    -116.444E-03    -117.288E-03    -116.429E-03     233.717E-03    -117.288E-03    -39.5265E-06    -103.941E+06    -109.768E+06    -239.920E+06     -105.09E+06    -238.772E+06    -109.768E+06    -10.4798E+06         39.2733
             240     2.81088E-06     112.421E-03         13.1024         5.15134        -14.0084        -13.4117         12.5057         5.15134         7.94960     234.054E-03    -116.129E-03    -117.925E-03    -117.641E-03     234.036E-03    -116.395E-03     449.059E-06    -117.642E+06    -122.358E+06    -261.095E+06    -119.283E+06    -260.980E+06    -120.832E+06    -277.656E+03         39.3419
             241    -90.0751E-09     111.159E-03         11.7109         5.63761        -12.9922        -12.4443         11.1631         5.63761         7.27050     234.512E-03    -116.263E-03    -118.249E-03    -118.236E-03     234.499E-03    -116.263E-03     1.32707E-03    -119.097E+06    -120.710E+06    -266.466E+06    -120.776E+06    -266.400E+06    -119.097E+06     783.395E+03         39.3927
             242     894.475E-09     109.894E-03         10.0933         5.71834        -11.2886        -10.9280         9.73271         5.71834         5.46717     233.744E-03    -116.017E-03    -117.727E-03    -116.465E-03     233.735E-03    -117.270E-03     599.841E-06    -118.276E+06    -118.904E+06    -269.272E+06    -118.934E+06    -269.242E+06    -118.276E+06    -2.12218E+06         39.4327
             243    -3.12948E-06     108.636E-03         8.37711         5.43742        -9.10046        -8.97142         8.24807         5.43742         2.58243     234.721E-03    -116.709E-03    -118.013E-03    -116.692E-03     234.705E-03    -118.013E-03    -701.062E-06    -125.191E+06    -126.143E+06    -280.950E+06    -125.750E+06    -280.932E+06    -125.602E+06    -1.65391E+06         39.4721
             244     2.99479E-06     107.372E-03         6.86944         4.95977        -7.08650        -6.95068         6.73362         4.95977        -1.40752     237.006E-03    -117.250E-03    -119.756E-03    -119.694E-03     236.995E-03    -117.301E-03    -2.93207E-03    -124.327E+06    -126.346E+06    -281.708E+06    -125.943E+06    -281.699E+06    -124.738E+06    -72.4093E+03         39.5040
             245     1.37890E-06     106.101E-03         6.55722         4.03413        -5.70595        -4.70326         5.55452         4.03413        -6.01209     236.506E-03    -116.657E-03    -119.850E-03    -119.111E-03     236.506E-03    -117.395E-03    -124.914E-06    -124.144E+06    -128.866E+06    -283.984E+06    -125.850E+06    -283.886E+06    -127.258E+06     3.32551E+06         39.5182
             246    -2.73538E-06     104.836E-03         7.53645         2.77527        -5.30422        -2.37943         4.61166         2.77527        -10.5068     234.957E-03    -116.858E-03    -118.099E-03    -116.858E-03     234.956E-03    -118.099E-03     250.130E-06    -117.455E+06    -122.938E+06    -278.405E+06    -119.940E+06    -278.289E+06    -120.569E+06     1.47411E+06         39.5303
             247     1.85951E-06     103.574E-03         8.88103         1.69592        -5.57226    -396.976E-03         3.70574         1.69592        -13.7531     234.875E-03    -117.112E-03    -117.763E-03    -117.259E-03     234.874E-03    -117.615E-03     1.26053E-03    -109.946E+06    -113.418E+06    -268.992E+06    -112.343E+06    -268.964E+06    -111.049E+06    -2.01493E+06         39.5581
             248    -1.62278E-06     102.307E-03         9.88344     821.961E-03        -5.67568         1.44343         2.76433     821.961E-03        -15.4404     234.856E-03    -117.041E-03    -117.815E-03    -117.813E-03     234.854E-03    -117.041E-03     1.00975E-03    -117.175E+06    -119.252E+06    -275.387E+06    -117.290E+06    -275.272E+06    -119.252E+06     2.19822E+06         39.5931
             249     2.71565E-06     101.047E-03         10.0625     145.953E-03        -5.16012         2.92303         1.97935     145.953E-03        -15.1628     234.156E-03    -116.659E-03    -117.497E-03    -117.285E-03     234.156E-03    -116.871E-03    -177.329E-06    -112.884E+06    -115.351E+06    -267.363E+06    -114.531E+06    -267.209E+06    -113.859E+06     1.06898E+06         39.6202
             250    -3.08556E-06     99.7865E-03         8.85323    -118.017E-03        -3.74657         3.53733         1.56933    -118.017E-03        -12.4382     234.917E-03    -116.843E-03    -118.074E-03    -117.854E-03     234.910E-03    -117.056E-03    -2.39555E-03    -106.490E+06    -110.356E+06    -257.332E+06    -108.065E+06    -257.249E+06    -108.864E+06    -173.350E+03         39.6365
             251     4.83297E-06     98.5221E-03         6.51020     74.6801E-03        -1.65108         3.51557         1.34355     74.6801E-03        -7.82066     236.686E-03    -117.333E-03    -119.353E-03    -119.345E-03     236.678E-03    -117.333E-03    -1.70292E-03    -102.014E+06    -107.949E+06    -253.292E+06    -105.622E+06    -253.244E+06    -104.388E+06     2.50943E+06         39.6398
             252    -3.02310E-06     97.2501E-03         3.77491     748.347E-03     354.126E-03         2.89932         1.25446     723.606E-03        -2.27314     236.708E-03    -117.448E-03    -119.260E-03    -118.448E-03     236.707E-03    -118.259E-03    -148.998E-06    -103.163E+06    -107.238E+06    -253.025E+06    -106.738E+06    -253.012E+06    -103.677E+06     1.36096E+06         39.6314
             253     1.56065E-06     95.9874E-03         3.03955         1.98132    -246.809E-03         1.26319         1.55429         1.95658         2.84117     235.802E-03    -116.676E-03    -119.126E-03    -118.313E-03     235.801E-03    -117.488E-03    -1.41398E-03    -102.942E+06    -104.158E+06    -245.879E+06    -102.952E+06    -245.869E+06    -104.158E+06    -139.956E+03         39.6202
             254     1.32788E-06     94.7232E-03         4.07207         3.47301        -2.84813    -816.813E-03         2.04075         3.47301         6.26697     234.007E-03    -116.171E-03    -117.836E-03    -117.832E-03     234.003E-03    -116.171E-03    -2.05973E-03    -100.830E+06    -102.158E+06    -237.172E+06    -100.877E+06    -237.126E+06    -102.158E+06    -2.29162E+06         39.6095
             255    -1.30878E-06     93.4620E-03         5.28255         4.33121        -4.99078        -3.18411         2.65582         5.15127         7.29054     233.254E-03    -116.241E-03    -117.013E-03    -117.005E-03     233.246E-03    -116.241E-03     520.381E-06    -107.027E+06    -108.441E+06    -242.127E+06    -107.884E+06    -242.060E+06    -107.652E+06    -251.634E+03         39.6073
             256     2.62477E-06     92.1934E-03         7.00611         4.25515        -6.80644        -5.96249         3.41120         7.00611         5.32696     236.006E-03    -117.515E-03    -118.490E-03    -118.482E-03     235.997E-03    -117.515E-03     3.51345E-03    -100.523E+06    -103.254E+06    -233.384E+06    -101.384E+06    -233.313E+06    -102.464E+06     3.03567E+06         39.6201
             257    -2.26121E-06     90.9305E-03         8.48988         4.52654        -8.73018        -8.56813         4.36449         8.48988     857.614E-03     235.711E-03    -117.282E-03    -118.428E-03    -117.507E-03     235.706E-03    -118.199E-03     601.681E-06    -99.7124E+06    -104.548E+06    -228.500E+06    -102.719E+06    -228.388E+06    -101.654E+06    -401.877E+03         39.6350
             258     651.858E-09     89.6661E-03         9.36799         6.12751        -11.3965        -10.9503         5.68125         9.36799        -4.93096     233.790E-03    -115.627E-03    -118.162E-03    -117.242E-03     233.786E-03    -116.544E-03     287.841E-06    -103.058E+06    -110.879E+06    -232.267E+06    -106.092E+06    -232.127E+06    -107.985E+06      81.902E+03         39.6465
             259     2.15317E-06     88.4047E-03         9.89096         8.63948        -14.6602        -13.2115         7.23420         9.84753        -11.1185     234.151E-03    -116.152E-03    -117.999E-03    -117.996E-03     234.148E-03    -116.152E-03     565.216E-06    -99.1147E+06    -107.325E+06    -229.478E+06    -102.485E+06    -229.392E+06    -104.042E+06     3.10860E+06         39.6623
             260    -1.72307E-06     87.1435E-03         11.4025         9.65490        -17.3438        -14.9015         8.96025         9.65490        -16.0161     234.898E-03    -116.862E-03    -118.036E-03    -118.036E-03     234.898E-03    -116.862E-03    -649.520E-06    -103.660E+06    -108.354E+06    -234.127E+06    -108.382E+06    -234.099E+06    -103.660E+06     46.8302E+03         39.6821
             261     3.41186E-06     85.8765E-03         13.5761         8.70897        -18.6397        -15.8856         10.8220         8.70897        -18.0054     236.831E-03    -117.388E-03    -119.442E-03    -119.442E-03     236.831E-03    -117.388E-03     63.8729E-06    -101.753E+06    -105.234E+06    -231.273E+06    -103.371E+06    -231.066E+06    -103.824E+06    -4.46134E+06         39.6995
             262    -1.47956E-06     84.6109E-03         14.8254         7.36695        -18.6384        -16.3941         12.5811         7.36695        -16.6455     236.256E-03    -117.466E-03    -118.790E-03    -118.573E-03     236.255E-03    -117.682E-03    -805.957E-06    -103.867E+06    -106.205E+06    -232.204E+06    -104.381E+06    -231.957E+06    -105.938E+06    -1.71920E+06         39.7098
             263     1.08629E-06     83.3421E-03         15.3787         5.57871        -17.4565        -16.2589         14.1810         5.57871        -11.8835     234.470E-03    -116.536E-03    -117.934E-03    -117.715E-03     234.467E-03    -116.752E-03     444.825E-06    -109.882E+06    -111.815E+06    -233.248E+06    -110.309E+06    -233.087E+06    -111.549E+06     4.36324E+06         39.7180
             264     980.080E-09     82.0835E-03         15.8605         3.52542        -15.9624        -15.6623         15.5603         3.52542        -4.88240     235.358E-03    -116.939E-03    -118.419E-03    -118.417E-03     235.355E-03    -116.939E-03     719.420E-06    -103.290E+06    -107.707E+06    -226.168E+06    -106.245E+06    -225.963E+06    -104.957E+06     126.669E+03         39.7283
             265    -429.922E-09     80.8164E-03         16.9811         1.47845        -15.0720        -14.8760         16.7851         1.47845         2.93678     235.805E-03    -117.525E-03    -118.281E-03    -117.823E-03     235.805E-03    -117.982E-03    -635.301E-06    -104.599E+06    -113.591E+06    -229.489E+06    -107.454E+06    -229.384E+06    -110.842E+06    -1.67621E+06         39.7360
             266    -470.898E-09     79.5521E-03         18.7123    -556.640E-03        -14.7472        -13.8341         17.7992    -556.640E-03         10.3993     235.838E-03    -117.504E-03    -118.334E-03    -117.875E-03     235.836E-03    -117.961E-03    -1.23511E-03    -103.928E+06    -115.222E+06    -229.511E+06    -109.003E+06    -229.487E+06    -110.171E+06     1.68062E+06         39.7430
             267     1.17363E-06     78.2883E-03         20.2345        -2.38935        -14.3891        -12.6097         18.4552        -2.38935         15.2198     235.403E-03    -116.967E-03    -118.436E-03    -117.332E-03     235.395E-03    -118.063E-03    -3.22530E-03    -103.296E+06    -114.109E+06    -230.012E+06    -108.399E+06    -229.960E+06    -109.059E+06    -584.366E+03         39.7547
             268    -3.22485E-06     77.0276E-03         20.8384        -3.91198        -13.3927        -11.2425         18.6883        -3.91198         16.6077     235.693E-03    -117.089E-03    -118.604E-03    -117.502E-03     235.687E-03    -118.185E-03    -2.51955E-03    -104.926E+06    -114.337E+06    -230.774E+06    -108.612E+06    -230.736E+06    -110.688E+06    -1.74004E+06         39.7656
             269     3.99768E-06     75.7518E-03         20.2499        -5.06164        -11.6193        -9.82427         18.4549        -5.06164         14.6376     236.565E-03    -118.069E-03    -118.496E-03    -118.494E-03     236.564E-03    -118.069E-03     457.588E-06    -102.790E+06    -108.629E+06    -228.903E+06    -106.464E+06    -228.878E+06    -104.981E+06    -1.45281E+06         39.7641
             270    -4.02785E-06     74.4910E-03         18.7766        -5.90096        -9.18783        -8.33777         17.9265        -5.90096         9.10194     236.217E-03    -117.802E-03    -118.415E-03    -118.413E-03     236.215E-03    -117.802E-03     141.845E-06    -105.767E+06    -108.465E+06    -227.971E+06    -106.329E+06    -227.917E+06    -107.958E+06     91.5387E+03         39.7482
             271     5.09084E-06     73.2247E-03         17.3437        -6.24826        -7.26551        -6.86103         17.1732        -6.48223         1.73052     234.820E-03    -116.403E-03    -118.417E-03    -118.414E-03     234.817E-03    -116.403E-03    -1.94148E-03    -108.078E+06    -112.401E+06    -231.325E+06    -112.447E+06    -231.279E+06    -108.078E+06     377.758E+03         39.7287
             272    -2.55959E-06     71.9630E-03         16.6738        -5.95670        -6.72385        -5.50091         16.2180        -6.72385        -5.32056     232.775E-03    -114.799E-03    -117.976E-03    -116.203E-03     232.771E-03    -116.568E-03     108.603E-06    -102.680E+06    -112.240E+06    -232.367E+06    -106.591E+06    -232.271E+06    -108.424E+06     1.33629E+06         39.7209
             273    -674.209E-09     70.7007E-03         16.6947        -5.79543        -6.70952        -4.25765         15.1569        -6.70952        -11.0373     234.502E-03    -115.961E-03    -118.541E-03    -116.769E-03     234.498E-03    -117.729E-03     525.074E-06    -101.289E+06    -111.920E+06    -227.325E+06    -106.294E+06    -227.206E+06    -107.033E+06     3.75618E+06         39.7356
             274     15.1255E-03     69.0510E-03         11.7554        -3.25874        -4.01316        -3.20742         11.7041        -4.01316    -656.198E-03     245.776E-03    -116.630E-03    -129.146E-03    -116.311E-03     233.995E-03    -117.683E-03     101.280E-03     128.757E+06     95.5697E+06    -6.08145E+06    -6.06640E+06     128.742E+06     95.5697E+06     66.7195E+03         60.1069
             275     14.2314E-03     68.8292E-03         11.9195        -3.38168        -4.00945        -3.33515         11.8730        -4.00945    -826.198E-03     248.728E-03    -117.748E-03    -130.981E-03    -115.767E-03     233.515E-03    -117.748E-03     143.491E-03     114.180E+06     91.7093E+06    -14.8158E+06    -14.8004E+06     114.164E+06     91.7093E+06     1.06601E+06         58.3645
             276     13.3442E-03     68.7031E-03         12.0026        -3.45079        -3.99454        -3.44049         11.9923        -3.99454    -146.794E-03     242.296E-03    -117.769E-03    -124.527E-03    -115.449E-03     233.218E-03    -117.769E-03     113.247E-03     111.247E+06     92.5973E+06    -21.7345E+06    -21.7145E+06     111.227E+06     92.5973E+06     1.18029E+06         56.5271
             277     12.4548E-03     68.5542E-03         12.0798        -3.53084        -3.97801        -3.52301         12.0719        -3.97801    -629.263E-03     241.511E-03    -117.673E-03    -123.838E-03    -114.884E-03     232.556E-03    -117.673E-03     112.174E-03     118.827E+06     82.9118E+06    -26.8012E+06    -26.7849E+06     118.810E+06     82.9118E+06     810.198E+03         54.6886
             278     11.5651E-03     68.4425E-03         12.1267        -3.58407        -3.96170        -3.57770         12.1204        -3.96170    -580.106E-03     236.339E-03    -117.118E-03    -119.220E-03    -113.278E-03     230.843E-03    -117.565E-03     87.0554E-03     115.505E+06     56.1191E+06    -33.2067E+06    -33.1883E+06     115.486E+06     56.1191E+06     1.04050E+06         52.8323
             279     10.6721E-03     68.3512E-03         12.1935        -3.64849        -3.95274        -3.61331         12.1583        -3.95274        -1.38625     234.197E-03    -116.546E-03    -117.651E-03    -113.301E-03     230.860E-03    -117.559E-03     67.5244E-03     108.095E+06     33.2270E+06    -39.5576E+06    -39.5288E+06     108.066E+06     33.2270E+06     522.228E+03         50.9440
             280     9.78413E-03     68.2938E-03         12.2416        -3.68790        -3.95071        -3.65729         12.2110        -3.95071        -1.13406     233.786E-03    -116.148E-03    -117.638E-03    -114.214E-03     231.839E-03    -117.625E-03     51.5641E-03     67.0716E+06     12.0089E+06    -47.9253E+06    -47.8919E+06     67.0383E+06     12.0089E+06    -196.184E+03         49.0703
             281     8.89169E-03     68.2458E-03         12.3322        -3.76305        -3.96474        -3.70680         12.2650        -3.95380        -1.62501     233.934E-03    -116.220E-03    -117.714E-03    -115.139E-03     232.852E-03    -117.714E-03     38.3740E-03     5.43567E+06    -22.8052E+06    -56.1221E+06    -55.8848E+06    -7.15595E+06    -10.4508E+06    -130.039E+03         47.2954
             282     8.00330E-03     68.2130E-03         12.3686        -3.80725        -3.97235        -3.73608         12.2865        -3.96142    -751.867E-03     234.525E-03    -116.692E-03    -117.833E-03    -116.125E-03     233.958E-03    -117.833E-03     27.8338E-03    -17.4833E+06    -54.0970E+06    -80.3343E+06    -61.9273E+06    -72.5040E+06    -17.4833E+06     100.005E+03         45.6943
             283     7.11391E-03     68.1885E-03         12.3517        -3.80746        -3.97440        -3.76577         12.3100        -3.97440    -203.792E-03     234.706E-03    -116.760E-03    -117.946E-03    -116.486E-03     234.432E-03    -117.946E-03     19.1501E-03    -17.4024E+06    -66.4362E+06    -124.736E+06    -66.5137E+06    -124.658E+06    -17.4024E+06     101.826E+03         44.3067
             284     6.22360E-03     68.1736E-03         12.3695        -3.82008        -3.99352        -3.79112         12.3406        -3.99352        -1.23100     235.092E-03    -117.116E-03    -117.976E-03    -116.989E-03     234.964E-03    -117.976E-03     13.2681E-03    -27.3595E+06    -72.4791E+06    -161.713E+06    -72.4880E+06    -161.704E+06    -27.3595E+06    -257.368E+03         43.1399
             285     5.33622E-03     68.1659E-03         12.4136        -3.84012        -4.01809        -3.83667         12.4102        -4.01809    -413.726E-03     235.281E-03    -117.337E-03    -117.944E-03    -117.276E-03     235.220E-03    -117.944E-03     8.85492E-03    -41.1686E+06    -79.6068E+06    -181.907E+06    -79.6183E+06    -181.896E+06    -41.1686E+06    -465.215E+03         42.1817
             286     4.44486E-03     68.1622E-03         12.5978        -3.96248        -4.05520        -3.90716         12.5320        -4.04478        -1.57026     235.103E-03    -117.191E-03    -117.912E-03    -117.174E-03     235.086E-03    -117.912E-03     4.49900E-03    -56.8237E+06    -86.9373E+06    -193.859E+06    -86.9491E+06    -193.847E+06    -56.8237E+06     237.974E+03         41.4121
             287     3.55581E-03     68.1622E-03         12.6857        -4.00396        -4.08508        -3.94613         12.6175        -4.07466        -1.16906     235.219E-03    -117.292E-03    -117.927E-03    -117.288E-03     235.215E-03    -117.927E-03     1.76655E-03    -72.5288E+06    -92.7153E+06    -209.173E+06    -92.7316E+06    -209.157E+06    -72.5288E+06     1.20398E+06         40.8111
             288     2.66566E-03     68.1671E-03         12.8055        -4.04046        -4.15908        -4.01687         12.7298        -4.10700        -1.26990     235.662E-03    -117.544E-03    -118.118E-03    -117.738E-03     235.661E-03    -117.923E-03     32.8512E-06    -85.6074E+06    -96.6944E+06    -219.243E+06    -96.7135E+06    -219.224E+06    -85.6074E+06     1.04507E+06         40.3623
             289     1.77865E-03     68.1673E-03         13.3069        -4.14772        -4.57335        -4.05108         12.7846        -4.14772         2.40937     235.949E-03    -117.682E-03    -118.268E-03    -118.177E-03     235.949E-03    -117.771E-03    -825.951E-06    -94.6881E+06    -100.569E+06    -225.804E+06    -100.591E+06    -225.782E+06    -94.6881E+06     496.961E+03         40.0511
             290     891.062E-06     68.1708E-03         14.4905        -4.61608        -5.33867        -3.38112         12.8820        -4.96511        -2.48248     235.225E-03    -117.034E-03    -118.191E-03    -117.906E-03     235.223E-03    -117.317E-03    -831.874E-06    -100.595E+06    -105.605E+06    -229.676E+06    -103.699E+06    -229.532E+06    -102.645E+06    -717.612E+03         39.8634
             291     15.1214E-03     67.7940E-03         11.8590        -3.38545        -3.65654        -3.37619         11.8040        -3.61083    -681.047E-03     246.540E-03    -115.744E-03    -130.796E-03    -116.886E-03     234.645E-03    -117.760E-03     102.641E-03     126.889E+06     96.3710E+06    -6.56924E+06    -6.52436E+06     126.844E+06     96.3710E+06     709.757E+03         60.0914
             292     14.2358E-03     67.5550E-03         11.8801        -3.39854        -3.64568        -3.42210         11.8300        -3.57206    -854.542E-03     251.022E-03    -117.742E-03    -133.279E-03    -118.136E-03     235.879E-03    -117.742E-03     143.732E-03     117.023E+06     95.8204E+06    -12.3956E+06    -12.3409E+06     116.969E+06     95.8204E+06     1.44786E+06         58.3599
             293     13.3460E-03     67.4438E-03         11.8347        -3.37370        -3.61024        -3.44991         11.8244        -3.52367    -112.728E-03     241.796E-03    -117.699E-03    -124.098E-03    -114.968E-03     232.666E-03    -117.699E-03     113.095E-03     113.165E+06     95.8093E+06    -18.0988E+06    -18.0749E+06     113.141E+06     95.8093E+06    -365.910E+03         56.5269
             294     12.4540E-03     67.2854E-03         11.7985        -3.36771        -3.57732        -3.46234         11.7910        -3.47511    -621.200E-03     240.524E-03    -117.666E-03    -122.858E-03    -113.742E-03     231.408E-03    -117.666E-03     112.639E-03     116.276E+06     85.2082E+06    -25.6887E+06    -25.6788E+06     116.266E+06     85.2082E+06    -243.164E+03         54.6866
             295     11.5659E-03     67.1786E-03         11.7255        -3.34448        -3.52780        -3.43851         11.7201        -3.42829    -540.325E-03     235.824E-03    -116.911E-03    -118.914E-03    -112.747E-03     230.367E-03    -117.620E-03     86.7298E-03     114.319E+06     57.9558E+06    -33.7277E+06    -33.7094E+06     114.300E+06     57.9558E+06     1.00368E+06         52.8317
             296     10.6740E-03     67.0926E-03         11.6739        -3.32792        -3.50025        -3.40351         11.6391        -3.38991        -1.32312     233.654E-03    -116.000E-03    -117.654E-03    -112.494E-03     230.148E-03    -117.654E-03     69.2083E-03     107.080E+06     30.9971E+06    -41.0786E+06    -41.0353E+06     107.037E+06     30.9971E+06     2.21292E+06         50.9485
             297     9.77932E-03     67.0258E-03         11.6052        -3.30561        -3.45897        -3.37542         11.5748        -3.35876        -1.00720     234.596E-03    -116.641E-03    -117.955E-03    -114.844E-03     232.596E-03    -117.752E-03     51.7644E-03     67.5237E+06     12.7881E+06    -49.9848E+06    -49.7681E+06     67.3069E+06     12.7881E+06     3.76890E+06         49.0813
             298     8.89292E-03     66.9824E-03         11.5941        -3.30508        -3.45844        -3.35544         11.5204        -3.33440        -1.53630     235.116E-03    -117.150E-03    -117.966E-03    -116.355E-03     234.117E-03    -117.763E-03     37.1005E-03     6.18595E+06    -18.9730E+06    -58.1759E+06    -57.9194E+06    -5.01684E+06    -8.02668E+06     3.16538E+06         47.3111
             299     8.00263E-03     66.9459E-03         11.5411        -3.29973        -3.43530        -3.32404         11.4461        -3.31606    -690.584E-03     234.576E-03    -116.802E-03    -117.775E-03    -116.239E-03     234.013E-03    -117.775E-03     27.7336E-03    -21.7764E+06    -52.7174E+06    -79.8677E+06    -62.3781E+06    -70.2071E+06    -21.7764E+06    -659.773E+03         45.7103
             300     7.11401E-03     66.9246E-03         11.4066        -3.26525        -3.36423        -3.27304         11.3556        -3.30545    -135.523E-03     234.571E-03    -116.687E-03    -117.884E-03    -116.407E-03     234.292E-03    -117.884E-03     19.4723E-03    -21.9026E+06    -65.8007E+06    -125.476E+06    -65.9709E+06    -125.306E+06    -21.9026E+06    -2.40578E+06         44.3203
             301     6.22402E-03     66.9098E-03         11.3264        -3.24549        -3.33116        -3.24125         11.2948        -3.30377        -1.16726     234.603E-03    -116.629E-03    -117.975E-03    -116.497E-03     234.472E-03    -117.975E-03     13.3333E-03    -27.8466E+06    -71.1007E+06    -162.781E+06    -71.1557E+06    -162.726E+06    -27.8466E+06    -140.252E+03         43.1515
             302     5.33276E-03     66.8997E-03         11.2874        -3.23310        -3.31244        -3.23382         11.2852        -3.30956    -297.552E-03     234.945E-03    -116.929E-03    -118.015E-03    -116.873E-03     234.888E-03    -118.015E-03     8.52549E-03    -42.1073E+06    -77.7913E+06    -181.762E+06    -77.8130E+06    -181.740E+06    -42.1073E+06     812.378E+03         42.1932
             303     4.44614E-03     66.8980E-03         11.3962        -3.27765        -3.36511        -3.25998         11.3332        -3.31969        -1.42282     235.333E-03    -117.290E-03    -118.043E-03    -117.274E-03     235.317E-03    -118.043E-03     4.37563E-03    -55.5026E+06    -84.7371E+06    -196.118E+06    -84.7568E+06    -196.098E+06    -55.5026E+06     104.866E+03         41.4258
             304     3.55540E-03     66.8986E-03         11.4183        -3.27165        -3.38149        -3.25290         11.3542        -3.33607        -1.21452     235.654E-03    -117.593E-03    -118.060E-03    -117.590E-03     235.651E-03    -118.060E-03     1.17054E-03    -66.2568E+06    -90.0723E+06    -209.874E+06    -90.0886E+06    -209.858E+06    -66.2568E+06     542.549E+03         40.8287
             305     2.66760E-03     66.8998E-03         11.4872        -3.29206        -3.41445        -3.30295         11.4401        -3.35648        -1.00239     235.898E-03    -117.684E-03    -118.214E-03    -117.878E-03     235.898E-03    -118.019E-03    -191.048E-06    -79.6643E+06    -94.8636E+06    -219.394E+06    -94.9078E+06    -219.350E+06    -79.6643E+06     1.98650E+06         40.3840
             306     1.77815E-03     66.9025E-03         11.8253        -3.39658        -3.66008        -3.27798         11.4432        -3.39658         2.02939     235.795E-03    -117.613E-03    -118.182E-03    -117.824E-03     235.795E-03    -117.971E-03    -446.072E-06    -92.1823E+06    -99.6146E+06    -223.759E+06    -99.6703E+06    -223.703E+06    -92.1823E+06     1.73209E+06         40.0761
             307     887.507E-06     66.9067E-03         12.6046        -3.58727        -4.26723        -2.79483         11.6067        -4.06170        -1.25680     235.880E-03    -117.557E-03    -118.323E-03    -117.889E-03     235.877E-03    -117.988E-03    -945.867E-06    -99.8548E+06    -105.467E+06    -228.948E+06    -104.379E+06    -228.888E+06    -101.002E+06     521.879E+03         39.8907
             308     15.1218E-03     66.5194E-03         11.9266        -3.20233        -3.56798        -3.51258         11.8712        -3.20233    -667.710E-03     247.457E-03    -116.797E-03    -130.660E-03    -118.027E-03     235.787E-03    -117.760E-03     103.011E-03     125.397E+06     96.7306E+06    -6.12385E+06    -6.04525E+06     125.319E+06     96.7306E+06    -256.110E+03         60.0771
             309     14.2335E-03     66.2895E-03         11.8067        -3.13236        -3.52787        -3.47763         11.7564        -3.13236    -854.044E-03     250.241E-03    -117.716E-03    -132.525E-03    -117.682E-03     235.397E-03    -117.716E-03     142.185E-03     117.604E+06     97.4506E+06    -10.9599E+06    -10.8720E+06     117.516E+06     97.4506E+06    -510.951E+03         58.3523
             310     13.3458E-03     66.1752E-03         11.6383        -3.05521        -3.44173        -3.43193         11.6285        -3.05521    -80.6289E-03     240.996E-03    -117.695E-03    -123.301E-03    -114.167E-03     231.862E-03    -117.695E-03     112.797E-03     114.421E+06     94.9462E+06    -18.4975E+06    -18.4617E+06     114.386E+06     94.9462E+06     197.973E+03         56.5224
             311     12.4559E-03     66.0269E-03         11.4726        -2.97942        -3.36760        -3.36069         11.4657        -2.97942    -589.889E-03     239.524E-03    -117.738E-03    -121.786E-03    -112.317E-03     230.055E-03    -117.738E-03     114.697E-03     113.769E+06     81.2165E+06    -27.8435E+06    -27.8107E+06     113.736E+06     81.2165E+06     583.089E+03         54.6842
             312     11.5611E-03     65.9106E-03         11.2901        -2.90617        -3.28141        -3.27668         11.2854        -2.90617    -497.689E-03     236.105E-03    -117.505E-03    -118.599E-03    -112.618E-03     230.386E-03    -117.768E-03     88.4509E-03     111.891E+06     55.1699E+06    -35.0655E+06    -35.0456E+06     111.872E+06     55.1699E+06     646.093E+03         52.8342
             313     10.6698E-03     65.8344E-03         11.1377        -2.84145        -3.21843        -3.18319         11.1025        -2.84145        -1.27490     235.817E-03    -117.096E-03    -118.721E-03    -114.640E-03     232.378E-03    -117.738E-03     68.9376E-03     106.803E+06     31.1458E+06    -41.4821E+06    -41.3873E+06     106.709E+06     31.1458E+06     2.94211E+06         50.9590
             314     9.78172E-03     65.7572E-03         10.9626        -2.78430        -3.12052        -3.08892         10.9310        -2.78430    -905.496E-03     234.996E-03    -116.518E-03    -118.478E-03    -115.357E-03     233.086E-03    -117.729E-03     50.5094E-03     65.1325E+06     14.4292E+06    -47.4822E+06    -47.1279E+06     64.7782E+06     14.4292E+06     5.62320E+06         49.0970
             315     8.89286E-03     65.7148E-03         10.8632        -2.73497        -3.09063        -3.01144         10.7840        -2.73497        -1.43937     234.407E-03    -116.451E-03    -117.956E-03    -115.711E-03     233.464E-03    -117.753E-03     36.1568E-03     7.47899E+06    -10.5886E+06    -52.6369E+06    -52.1524E+06    -1.07912E+06    -2.51496E+06     4.83022E+06         47.3272
             316     8.00423E-03     65.6832E-03         10.7334        -2.69266        -3.02551        -2.92165         10.6295        -2.69266    -662.522E-03     234.458E-03    -116.668E-03    -117.790E-03    -116.085E-03     233.875E-03    -117.790E-03     28.2367E-03    -19.0536E+06    -45.8871E+06    -76.4078E+06    -59.1178E+06    -63.1772E+06    -19.0536E+06     931.880E+03         45.7255
             317     7.11301E-03     65.6587E-03         10.5207        -2.65866        -2.87411        -2.81453         10.4611        -2.65866    -140.078E-03     234.663E-03    -116.773E-03    -117.890E-03    -116.481E-03     234.371E-03    -117.890E-03     19.8465E-03    -26.3756E+06    -67.0290E+06    -127.927E+06    -67.1872E+06    -127.769E+06    -26.3756E+06    -1.31233E+06         44.3354
             318     6.22460E-03     65.6456E-03         10.3586        -2.63406        -2.77003        -2.73438         10.3230        -2.63406        -1.10541     234.785E-03    -116.810E-03    -117.975E-03    -116.680E-03     234.655E-03    -117.975E-03     13.2578E-03    -30.8113E+06    -74.1153E+06    -165.637E+06    -74.1768E+06    -165.575E+06    -30.8113E+06    -438.759E+03         43.1666
             319     5.33555E-03     65.6365E-03         10.2119        -2.60765        -2.67804        -2.66630         10.2106        -2.61813    -241.307E-03     234.689E-03    -116.666E-03    -118.023E-03    -116.612E-03     234.635E-03    -118.023E-03     8.33404E-03    -44.0717E+06    -80.1268E+06    -180.955E+06    -80.1481E+06    -180.934E+06    -44.0717E+06     531.323E+03         42.2085
             320     4.44291E-03     65.6320E-03         10.2236        -2.59813        -2.70020        -2.64061         10.1745        -2.60860        -1.21391     235.329E-03    -117.256E-03    -118.073E-03    -117.241E-03     235.314E-03    -118.073E-03     4.17223E-03    -59.0066E+06    -85.6996E+06    -196.056E+06    -85.7104E+06    -196.046E+06    -59.0066E+06     213.128E+03         41.4418
             321     3.55640E-03     65.6327E-03         10.1742        -2.56792        -2.68171        -2.59110         10.1229        -2.60719        -1.28164     235.897E-03    -117.807E-03    -118.089E-03    -117.805E-03     235.894E-03    -118.089E-03     1.53584E-03    -67.6537E+06    -91.3247E+06    -211.616E+06    -91.3353E+06    -211.605E+06    -67.6537E+06     331.112E+03         40.8458
             322     2.66641E-03     65.6351E-03         10.1820        -2.57014        -2.66928        -2.61445         10.1664        -2.60940    -555.781E-03     235.819E-03    -117.724E-03    -118.095E-03    -117.761E-03     235.818E-03    -118.057E-03    -70.4643E-06    -79.3458E+06    -97.6912E+06    -219.997E+06    -97.7315E+06    -219.957E+06    -79.3458E+06     1.85008E+06         40.4019
             323     1.77680E-03     65.6382E-03         10.2857        -2.61482        -2.73946        -2.56360         10.1207        -2.62567         1.48253     235.790E-03    -117.684E-03    -118.106E-03    -117.720E-03     235.788E-03    -118.068E-03    -1.39536E-03    -93.0847E+06    -103.259E+06    -221.733E+06    -103.307E+06    -221.685E+06    -93.0847E+06     2.01864E+06         40.0948
             324     889.277E-06     65.6398E-03         10.5458        -2.58818        -3.02261        -2.41997         10.2205        -2.86550     650.950E-03     236.155E-03    -117.811E-03    -118.344E-03    -118.124E-03     236.151E-03    -118.026E-03    -1.34438E-03    -101.686E+06    -108.522E+06    -228.114E+06    -106.480E+06    -228.089E+06    -103.753E+06     118.939E+03         39.9107
             325     15.1268E-03     65.2546E-03         11.9708        -2.80741        -3.71344        -3.65886         11.9162        -2.80741    -630.768E-03     247.188E-03    -117.613E-03    -129.575E-03    -117.750E-03     235.406E-03    -117.656E-03     102.674E-03     125.994E+06     96.0262E+06    -7.85102E+06    -7.77339E+06     125.916E+06     96.0262E+06    -973.234E+03         60.0610
             326     14.2368E-03     65.0235E-03         11.7226        -2.70961        -3.58446        -3.53516         11.6733        -2.70961    -820.989E-03     248.088E-03    -117.678E-03    -130.410E-03    -115.476E-03     233.154E-03    -117.678E-03     141.592E-03     113.663E+06     93.0965E+06    -14.6092E+06    -14.5210E+06     113.575E+06     93.0965E+06    -2.56148E+06         58.3411
             327     13.3439E-03     64.9122E-03         11.4171        -2.60740        -3.40641        -3.39707         11.4077        -2.60740    -22.7527E-03     239.730E-03    -117.782E-03    -121.948E-03    -112.742E-03     230.524E-03    -117.782E-03     112.744E-03     110.229E+06     91.6324E+06    -19.7896E+06    -19.7377E+06     110.178E+06     91.6324E+06     57.0433E+03         56.5163
             328     12.4505E-03     64.7631E-03         11.1350        -2.50841        -3.25844        -3.25244         11.1290        -2.50841    -548.552E-03     239.797E-03    -117.855E-03    -121.941E-03    -112.567E-03     230.423E-03    -117.855E-03     113.859E-03     113.179E+06     76.5828E+06    -26.7750E+06    -26.7469E+06     113.151E+06     76.5828E+06     853.848E+03         54.6845
             329     11.5585E-03     64.6528E-03         10.8548        -2.41246        -3.10857        -3.10514         10.8513        -2.41246    -421.528E-03     237.390E-03    -117.833E-03    -119.558E-03    -113.988E-03     231.821E-03    -117.833E-03     87.7510E-03     112.926E+06     51.5693E+06    -34.2765E+06    -34.2392E+06     112.888E+06     51.5693E+06     1.00080E+06         52.8400
             330     10.6725E-03     64.5575E-03         10.6182        -2.32517        -2.99665        -2.96109         10.5827        -2.32517        -1.19719     236.872E-03    -117.662E-03    -119.211E-03    -115.810E-03     233.525E-03    -117.715E-03     68.0229E-03     104.278E+06     28.6699E+06    -42.8353E+06    -42.7189E+06     104.161E+06     28.6699E+06     3.37479E+06         50.9684
             331     9.78603E-03     64.4973E-03         10.3561        -2.24650        -2.84809        -2.81403         10.3221        -2.24650    -798.180E-03     234.565E-03    -116.352E-03    -118.213E-03    -115.034E-03     232.701E-03    -117.667E-03     50.4754E-03     61.8202E+06     11.9447E+06    -48.2080E+06    -47.9832E+06     61.5954E+06     11.9447E+06     4.67797E+06         49.1077
             332     8.89159E-03     64.4502E-03         10.1778        -2.17559        -2.76941        -2.68595         10.0943        -2.17559        -1.30853     233.520E-03    -115.765E-03    -117.755E-03    -114.727E-03     232.482E-03    -117.755E-03     37.6365E-03     7.53566E+06    -5.74871E+06    -51.7207E+06    -51.3197E+06     3.28035E+06    -1.89438E+06     4.33608E+06         47.3381
             333     8.00139E-03     64.4171E-03         9.97907        -2.11075        -2.66875        -2.55604         9.86636        -2.11075    -594.527E-03     234.467E-03    -116.589E-03    -117.879E-03    -116.011E-03     233.889E-03    -117.879E-03     28.0497E-03    -12.8356E+06    -38.6445E+06    -77.7606E+06    -56.9512E+06    -59.4539E+06    -12.8356E+06     3.93463E+06         45.7381
             334     7.11362E-03     64.3950E-03         9.68903        -2.05407        -2.46647        -2.39737         9.61992        -2.05407    -103.337E-03     234.754E-03    -116.763E-03    -117.990E-03    -116.464E-03     234.455E-03    -117.990E-03     20.1980E-03    -21.5313E+06    -64.7121E+06    -128.008E+06    -64.9677E+06    -127.752E+06    -21.5313E+06     3.29822E+06         44.3506
             335     6.22321E-03     64.3795E-03         9.45053        -2.00711        -2.30516        -2.26598         9.41135        -2.00711        -1.01482     235.055E-03    -117.001E-03    -118.053E-03    -116.856E-03     234.910E-03    -118.053E-03     13.9115E-03    -30.2905E+06    -72.8423E+06    -165.374E+06    -72.9236E+06    -165.292E+06    -30.2905E+06     941.502E+03         43.1838
             336     5.33352E-03     64.3729E-03         9.21920        -1.97039        -2.13947        -2.13766         9.21739        -1.97039    -229.176E-03     235.321E-03    -117.259E-03    -118.062E-03    -117.199E-03     235.261E-03    -118.062E-03     8.89600E-03    -41.5095E+06    -80.3550E+06    -181.748E+06    -80.3699E+06    -181.733E+06    -41.5095E+06    -62.8224E+03         42.2265
             337     4.44649E-03     64.3673E-03         9.11441        -1.94403        -2.07758        -2.04597         9.08280        -1.94403    -987.737E-03     235.315E-03    -117.272E-03    -118.043E-03    -117.253E-03     235.296E-03    -118.043E-03     4.52524E-03    -59.2329E+06    -86.6975E+06    -195.266E+06    -86.7081E+06    -195.255E+06    -59.2329E+06     725.227E+03         41.4592
             338     3.55465E-03     64.3672E-03         9.03548        -1.91909        -2.02880        -1.97685         8.99169        -1.92724        -1.32165     235.633E-03    -117.563E-03    -118.070E-03    -117.561E-03     235.631E-03    -118.070E-03     1.05210E-03    -71.5455E+06    -92.1450E+06    -213.342E+06    -92.1481E+06    -213.339E+06    -71.5455E+06     366.250E+03         40.8617
             339     2.66679E-03     64.3697E-03         9.00765        -1.90400        -2.00687        -1.97103         8.97996        -1.91216    -104.814E-03     235.950E-03    -117.844E-03    -118.106E-03    -117.881E-03     235.949E-03    -118.068E-03    -432.252E-06    -79.4442E+06    -97.1087E+06    -220.603E+06    -97.1173E+06    -220.595E+06    -79.4442E+06     370.942E+03         40.4166
             340     1.77912E-03     64.3722E-03         8.92493        -1.83851        -1.98858        -1.87048         8.88322        -1.91489     969.734E-03     235.907E-03    -117.851E-03    -118.055E-03    -117.887E-03     235.905E-03    -118.018E-03    -1.02838E-03    -89.9779E+06    -101.081E+06    -220.786E+06    -101.088E+06    -220.778E+06    -89.9779E+06     230.137E+03         40.1088
             341     888.621E-06     64.3760E-03         9.22713        -1.45526        -2.68369        -2.32204         8.94185        -1.53165         2.67410     235.925E-03    -117.561E-03    -118.364E-03    -117.559E-03     235.924E-03    -118.364E-03     19.4259E-06    -99.0297E+06    -106.227E+06    -225.684E+06    -104.203E+06    -225.641E+06    -101.096E+06     1.25253E+06         39.9245
             342     15.1262E-03     63.9913E-03         11.9788        -2.44094        -3.83895        -3.78314         11.9230        -2.44094    -612.739E-03     246.346E-03    -117.362E-03    -128.984E-03    -116.408E-03     234.047E-03    -117.639E-03     103.645E-03     128.189E+06     97.2326E+06    -3.10909E+06    -2.98414E+06     128.064E+06     97.2326E+06     608.314E+03         60.0421
             343     14.2339E-03     63.7588E-03         11.6117        -2.32002        -3.62519        -3.57519         11.5617        -2.32002    -820.405E-03     247.789E-03    -117.746E-03    -130.042E-03    -114.446E-03     232.192E-03    -117.746E-03     144.296E-03     113.033E+06     91.7776E+06    -10.7991E+06    -10.6949E+06     112.929E+06     91.7776E+06    -98.9616E+03         58.3304
             344     13.3416E-03     63.6533E-03         11.1972        -2.19669        -3.37051        -3.36195         11.1886        -2.19669     30.5258E-03     240.341E-03    -117.883E-03    -122.458E-03    -113.389E-03     231.273E-03    -117.883E-03     112.390E-03     106.582E+06     90.4026E+06    -18.7769E+06    -18.6833E+06     106.489E+06     90.4026E+06    -2.44925E+06         56.5154
             345     12.4504E-03     63.4974E-03         10.8242        -2.07804        -3.15580        -3.15080         10.8192        -2.07804    -503.062E-03     241.227E-03    -117.900E-03    -123.328E-03    -114.330E-03     232.230E-03    -117.900E-03     112.097E-03     112.325E+06     82.3224E+06    -24.7181E+06    -24.6195E+06     112.226E+06     82.3224E+06    -156.127E+03         54.6901
             346     11.5642E-03     63.3858E-03         10.4460        -1.96402        -2.93528        -2.93315         10.4439        -1.96402    -335.415E-03     237.923E-03    -117.775E-03    -120.148E-03    -114.673E-03     232.447E-03    -117.775E-03     87.3569E-03     111.344E+06     55.2932E+06    -34.6727E+06    -34.4644E+06     111.136E+06     55.2932E+06     4.76422E+06         52.8466
             347     10.6722E-03     63.2922E-03         10.1299        -1.85970        -2.77456        -2.73956         10.0950        -1.85970        -1.09509     235.018E-03    -116.767E-03    -118.251E-03    -113.947E-03     231.628E-03    -117.681E-03     68.1577E-03     102.496E+06     27.4524E+06    -42.9513E+06    -42.7194E+06     102.264E+06     27.4524E+06     5.38460E+06         50.9726
             348     9.77945E-03     63.2313E-03         9.80463        -1.76402        -2.59335        -2.55664         9.76792        -1.76402    -670.200E-03     234.084E-03    -116.337E-03    -117.747E-03    -114.432E-03     232.180E-03    -117.747E-03     50.9034E-03     61.9657E+06     11.6573E+06    -49.0511E+06    -48.9460E+06     61.8606E+06     11.6573E+06     3.17170E+06         49.1114
             349     8.89306E-03     63.1879E-03         9.54167        -1.67583        -2.46655        -2.37870         9.45383        -1.67583        -1.15843     234.349E-03    -116.508E-03    -117.841E-03    -115.423E-03     233.264E-03    -117.841E-03     38.6340E-03     9.24707E+06    -4.53316E+06    -53.1587E+06    -53.0247E+06     5.42368E+06    -843.748E+03     2.33371E+06         47.3456
             350     8.00272E-03     63.1509E-03         9.28043        -1.59408        -2.32787        -2.20274         9.15529        -1.59408    -469.318E-03     234.371E-03    -116.401E-03    -117.970E-03    -115.803E-03     233.773E-03    -117.970E-03     28.3453E-03    -8.46158E+06    -36.8562E+06    -81.2794E+06    -56.4555E+06    -61.6801E+06    -8.46158E+06     4.30746E+06         45.7497
             351     7.11179E-03     63.1306E-03         8.94501        -1.51997        -2.10075        -2.01962         8.86389        -1.51997     7.10750E-03     234.844E-03    -116.738E-03    -118.106E-03    -116.454E-03     234.560E-03    -118.106E-03     19.7176E-03    -15.0303E+06    -61.9183E+06    -126.685E+06    -62.4975E+06    -126.105E+06    -15.0303E+06     5.75350E+06         44.3652
             352     6.22253E-03     63.1150E-03         8.61968        -1.45579        -1.87455        -1.83295         8.57807        -1.45579    -856.071E-03     235.287E-03    -117.140E-03    -118.147E-03    -116.999E-03     235.146E-03    -118.147E-03     13.7346E-03    -27.5605E+06    -69.9274E+06    -161.172E+06    -70.1208E+06    -160.979E+06    -27.5605E+06     3.06059E+06         43.2005
             353     5.33440E-03     63.1061E-03         8.32861        -1.40381        -1.66235        -1.66005         8.32632        -1.40381    -96.7373E-03     235.685E-03    -117.550E-03    -118.135E-03    -117.493E-03     235.628E-03    -118.135E-03     8.66746E-03    -40.1894E+06    -77.2551E+06    -182.464E+06    -77.2803E+06    -182.438E+06    -40.1894E+06     821.649E+03         42.2438
             354     4.44391E-03     63.1028E-03         8.16902        -1.36279        -1.55970        -1.54185         8.15116        -1.36279    -733.294E-03     235.626E-03    -117.536E-03    -118.090E-03    -117.516E-03     235.606E-03    -118.090E-03     4.96609E-03    -54.4435E+06    -82.0573E+06    -194.387E+06    -82.0749E+06    -194.369E+06    -54.4435E+06     899.076E+03         41.4755
             355     3.55688E-03     63.1024E-03         8.03983        -1.33319        -1.46795        -1.42407         7.99596        -1.33319        -1.26610     235.639E-03    -117.554E-03    -118.085E-03    -117.548E-03     235.633E-03    -118.085E-03     2.05066E-03    -70.1077E+06    -87.9756E+06    -212.957E+06    -87.9852E+06    -212.947E+06    -70.1077E+06     593.110E+03         40.8763
             356     2.66677E-03     63.1040E-03         8.02303        -1.31215        -1.46399        -1.37413         7.93317        -1.31215     318.042E-03     235.881E-03    -117.779E-03    -118.102E-03    -117.778E-03     235.880E-03    -118.102E-03     172.217E-06    -80.8128E+06    -91.8199E+06    -220.668E+06    -91.8851E+06    -220.603E+06    -80.8128E+06    -1.52880E+06         40.4297
             357     1.77638E-03     63.1075E-03         7.92163        -1.23587        -1.42828        -1.26422         7.83758        -1.31589     604.571E-03     236.067E-03    -117.930E-03    -118.137E-03    -117.933E-03     236.065E-03    -118.132E-03    -885.654E-06    -85.6301E+06    -94.2958E+06    -221.874E+06    -94.3607E+06    -221.809E+06    -85.6301E+06    -1.67942E+06         40.1208
             358     888.882E-06     63.1100E-03         8.79047    -172.175E-03        -3.36670        -2.40929         7.91307    -252.188E-03         4.29463     236.217E-03    -117.230E-03    -118.987E-03    -118.249E-03     236.215E-03    -117.966E-03    -541.489E-06    -93.2236E+06    -99.1613E+06    -225.612E+06    -99.2097E+06    -225.564E+06    -93.2236E+06     612.742E+03         39.9359
             359     15.1252E-03     62.7283E-03         11.9683        -2.11446        -3.92796        -3.87000         11.9104        -2.11446    -610.909E-03     245.365E-03    -116.562E-03    -128.803E-03    -115.705E-03     233.448E-03    -117.743E-03     102.326E-03     126.647E+06     93.7390E+06    -5.09502E+06    -4.97331E+06     126.525E+06     93.7390E+06    -894.042E+03         60.0245
             360     14.2295E-03     62.5010E-03         11.5065        -1.97553        -3.65676        -3.60509         11.4548        -1.97553    -834.915E-03     248.189E-03    -117.865E-03    -130.323E-03    -114.977E-03     232.843E-03    -117.865E-03     143.861E-03     115.676E+06     92.4389E+06    -10.2619E+06    -10.1669E+06     115.581E+06     92.4389E+06     59.5379E+03         58.3237
             361     13.3412E-03     62.3805E-03         10.9959        -1.83579        -3.32995        -3.32200         10.9879        -1.83579     73.4185E-03     241.751E-03    -117.943E-03    -123.808E-03    -114.733E-03     232.676E-03    -117.943E-03     113.109E-03     108.533E+06     90.9599E+06    -18.3336E+06    -18.2551E+06     108.455E+06     90.9599E+06    -1.58683E+06         56.5179
             362     12.4542E-03     62.2376E-03         10.5370        -1.70245        -3.05694        -3.05289         10.5330        -1.70245    -447.324E-03     242.338E-03    -117.896E-03    -124.442E-03    -115.229E-03     233.125E-03    -117.896E-03     114.227E-03     106.157E+06     81.2035E+06    -28.8666E+06    -28.7356E+06     106.026E+06     81.2035E+06     981.658E+03         54.6955
             363     11.5619E-03     62.1132E-03         10.0837        -1.57506        -2.79071        -2.78919         10.0822        -1.57506    -279.002E-03     237.744E-03    -117.785E-03    -119.960E-03    -114.224E-03     232.009E-03    -117.785E-03     89.0051E-03     106.274E+06     59.6177E+06    -36.2180E+06    -36.0057E+06     106.062E+06     59.6177E+06     4.84092E+06         52.8517
             364     10.6733E-03     62.0359E-03         9.67230        -1.45865        -2.55759        -2.52418         9.63889        -1.45865        -1.01263     234.640E-03    -116.821E-03    -117.819E-03    -113.612E-03     231.335E-03    -117.722E-03     67.3189E-03     103.385E+06     33.9377E+06    -41.0548E+06    -40.7962E+06     103.127E+06     33.9377E+06     5.46436E+06         50.9777
             365     9.78114E-03     61.9644E-03         9.28433        -1.35210        -2.33367        -2.29515         9.24581        -1.35210    -525.437E-03     233.757E-03    -115.972E-03    -117.785E-03    -114.122E-03     231.907E-03    -117.785E-03     49.9842E-03     67.6001E+06     13.4825E+06    -45.7810E+06    -45.6481E+06     67.4672E+06     13.4825E+06     3.60552E+06         49.1185
             366     8.89016E-03     61.9212E-03         8.98324        -1.25310        -2.18220        -2.08995         8.89098        -1.25310        -1.01422     234.207E-03    -116.315E-03    -117.892E-03    -115.297E-03     233.189E-03    -117.892E-03     37.4806E-03     11.2572E+06    -11.3811E+06     -52.529E+06    -52.4267E+06     4.11864E+06    -4.34487E+06     1.81552E+06         47.3554
             367     8.00078E-03     61.8879E-03         8.66645        -1.16190        -2.00223        -1.86258         8.52680        -1.16190    -334.022E-03     234.661E-03    -116.634E-03    -118.027E-03    -116.032E-03     234.059E-03    -118.027E-03     28.5717E-03    -13.4508E+06    -44.7494E+06    -82.6266E+06    -59.7028E+06    -67.6732E+06    -13.4508E+06     4.06036E+06         45.7620
             368     7.11204E-03     61.8642E-03         8.27332        -1.08055        -1.73452        -1.64176         8.18056        -1.08055     163.118E-03     235.116E-03    -116.967E-03    -118.149E-03    -116.681E-03     234.831E-03    -118.149E-03     19.6522E-03    -15.8983E+06    -63.9881E+06    -124.238E+06    -64.5393E+06    -123.686E+06    -15.8983E+06     4.95943E+06         44.3790
             369     6.22310E-03     61.8502E-03         7.89446        -1.01118        -1.46582        -1.42460         7.85324        -1.01118    -702.854E-03     235.411E-03    -117.230E-03    -118.181E-03    -117.097E-03     235.278E-03    -118.181E-03     13.5117E-03    -25.1346E+06    -68.4532E+06    -156.088E+06    -68.5917E+06    -155.949E+06    -25.1346E+06     2.92259E+06         43.2147
             370     5.33285E-03     61.8403E-03         7.58584    -954.535E-03        -1.24812        -1.24573         7.58345    -954.535E-03     149.715E-03     235.505E-03    -117.321E-03    -118.184E-03    -117.264E-03     235.448E-03    -118.184E-03     8.55539E-03    -38.9818E+06    -73.9424E+06    -180.561E+06    -73.9719E+06    -180.532E+06    -38.9818E+06     1.38723E+06         42.2578
             371     4.44527E-03     61.8377E-03         7.40996    -906.986E-03        -1.13751        -1.12690         7.39935    -906.986E-03    -427.073E-03     235.689E-03    -117.509E-03    -118.180E-03    -117.493E-03     235.673E-03    -118.180E-03     4.56517E-03    -53.9029E+06    -80.0847E+06    -195.915E+06    -80.0982E+06    -195.902E+06    -53.9029E+06     784.196E+03         41.4893
             372     3.55412E-03     61.8369E-03         7.25474    -871.026E-03        -1.02108    -980.914E-03         7.21457    -871.026E-03        -1.10509     235.932E-03    -117.751E-03    -118.181E-03    -117.746E-03     235.927E-03    -118.181E-03     2.13198E-03    -66.9122E+06    -84.6659E+06    -210.742E+06    -84.6756E+06    -210.733E+06    -66.9122E+06     643.545E+03         40.8900
             373     2.66601E-03     61.8391E-03         7.26760    -850.541E-03        -1.04712    -893.538E-03         7.11401    -850.541E-03     713.482E-03     236.123E-03    -117.962E-03    -118.162E-03    -117.974E-03     236.121E-03    -118.148E-03    -200.500E-06    -81.1159E+06    -89.5588E+06    -219.663E+06    -89.6275E+06    -219.595E+06    -81.1159E+06    -917.658E+03         40.4434
             374     1.77856E-03     61.8413E-03         7.23635    -833.829E-03        -1.02813    -831.826E-03         7.05453    -848.311E-03     463.082E-03     236.218E-03    -118.033E-03    -118.185E-03    -118.121E-03     236.216E-03    -118.095E-03    -1.22610E-03    -90.2024E+06    -94.4492E+06    -225.039E+06    -94.5278E+06    -224.960E+06    -90.2024E+06    -1.63544E+06         40.1344
             375     888.710E-06     61.8445E-03         8.51925         1.00667        -4.16095        -2.70638         7.07915     992.188E-03         5.39069     236.092E-03    -117.087E-03    -119.005E-03    -119.004E-03     236.090E-03    -117.087E-03    -671.792E-06    -94.0467E+06    -98.8005E+06    -227.868E+06    -98.8191E+06    -227.850E+06    -94.0467E+06    -801.085E+03         39.9488
             376     15.1186E-03     61.4605E-03         11.9559        -1.83959        -3.99835        -3.94093         11.8985        -1.83959    -612.403E-03     245.036E-03    -116.148E-03    -128.887E-03    -115.967E-03     233.794E-03    -117.827E-03     100.390E-03     125.669E+06     93.5748E+06    -7.94444E+06    -7.91260E+06     125.638E+06     93.5748E+06    -1.80779E+06         60.0104
             377     14.2343E-03     61.2374E-03         11.4129        -1.68809        -3.67131        -3.61989         11.3615        -1.68809    -832.580E-03     248.159E-03    -117.909E-03    -130.250E-03    -115.424E-03     233.333E-03    -117.909E-03     142.411E-03     116.933E+06     92.0375E+06    -14.2889E+06    -14.2390E+06     116.884E+06     92.0375E+06    -1.02869E+06         58.3192
             378     13.3397E-03     61.1176E-03         10.8249        -1.53744        -3.30162        -3.29450         10.8178        -1.53744     116.827E-03     241.915E-03    -117.970E-03    -123.945E-03    -114.517E-03     232.487E-03    -117.970E-03     115.335E-03     107.452E+06     88.1412E+06    -22.2919E+06    -22.2437E+06     107.404E+06     88.1412E+06     1.32242E+06         56.5187
             379     12.4495E-03     60.9646E-03         10.2861        -1.39389        -2.98182        -2.97864         10.2829        -1.39389    -396.111E-03     242.222E-03    -117.938E-03    -124.284E-03    -115.172E-03     233.110E-03    -117.938E-03     113.174E-03     102.715E+06     77.1916E+06    -32.3950E+06    -32.3127E+06     102.633E+06     77.1916E+06     1.23212E+06         54.6984
             380     11.5621E-03     60.8549E-03         9.74980        -1.25848        -2.65285        -2.65173         9.74868        -1.25848    -221.094E-03     237.386E-03    -117.847E-03    -119.539E-03    -113.988E-03     231.835E-03    -117.847E-03     87.7332E-03     103.330E+06     58.1397E+06    -37.9481E+06    -37.8828E+06     103.265E+06     58.1397E+06     598.666E+03         52.8570
             381     10.6704E-03     60.7642E-03         9.27269        -1.13558        -2.36287        -2.33254         9.24236        -1.13558    -900.581E-03     235.532E-03    -117.719E-03    -117.814E-03    -114.383E-03     232.156E-03    -117.772E-03     68.0075E-03     99.9776E+06     34.4223E+06    -43.3873E+06    -43.2762E+06     99.8666E+06     34.4223E+06     3.16185E+06         50.9874
             382     9.78338E-03     60.7050E-03         8.83944        -1.02423        -2.09646        -2.05474         8.79772        -1.02423    -334.021E-03     234.386E-03    -116.636E-03    -117.750E-03    -114.785E-03     232.535E-03    -117.750E-03     50.2383E-03     72.0515E+06     12.4962E+06    -47.5056E+06    -47.3539E+06     71.8998E+06     12.4962E+06     4.13658E+06         49.1326
             383     8.89107E-03     60.6556E-03         8.50195    -922.066E-03        -1.91014        -1.81325         8.40507    -922.066E-03    -823.489E-03     233.710E-03    -115.861E-03    -117.849E-03    -114.871E-03     232.720E-03    -117.849E-03     36.7145E-03     17.1412E+06    -20.2058E+06    -54.6605E+06    -53.3692E+06     1.72201E+06    -6.07790E+06     4.15084E+06         47.3708
             384     8.00148E-03     60.6226E-03         8.15242    -829.352E-03        -1.70561        -1.55567         8.00248    -829.352E-03    -213.152E-03     234.375E-03    -116.363E-03    -118.013E-03    -115.820E-03     233.833E-03    -118.013E-03     27.2839E-03    -15.3224E+06    -51.8433E+06    -78.1884E+06    -60.3207E+06    -69.7110E+06    -15.3224E+06     4.59086E+06         45.7762
             385     7.11160E-03     60.5984E-03         7.70246    -749.911E-03        -1.38852        -1.28924         7.60318    -749.911E-03     324.990E-03     235.100E-03    -116.965E-03    -118.135E-03    -116.679E-03     234.814E-03    -118.135E-03     19.7261E-03    -17.7118E+06    -64.2867E+06    -119.507E+06    -64.5597E+06    -119.234E+06    -17.7118E+06     1.51649E+06         44.3916
             386     6.22247E-03     60.5845E-03         7.31485    -684.807E-03        -1.11439        -1.07686         7.27731    -684.807E-03    -554.412E-03     235.519E-03    -117.339E-03    -118.180E-03    -117.212E-03     235.392E-03    -118.180E-03     13.0535E-03    -24.0303E+06    -68.2354E+06    -155.832E+06     -68.306E+06    -155.761E+06    -24.0303E+06     815.893E+03         43.2260
             387     5.33404E-03     60.5756E-03         7.02580    -631.723E-03    -914.434E-03    -909.692E-03         7.02105    -631.723E-03     367.433E-03     235.376E-03    -117.196E-03    -118.181E-03    -117.148E-03     235.329E-03    -118.181E-03     7.85466E-03    -37.8350E+06    -73.9869E+06    -178.433E+06     -74.024E+06    -178.396E+06    -37.8350E+06     1.55962E+06         42.2683
             388     4.44321E-03     60.5718E-03         6.82469    -590.202E-03    -775.743E-03    -764.874E-03         6.81382    -590.202E-03    -218.019E-03     235.557E-03    -117.350E-03    -118.207E-03    -117.336E-03     235.543E-03    -118.207E-03     4.30633E-03    -53.3230E+06    -80.7240E+06    -197.511E+06    -80.7344E+06    -197.501E+06    -53.3230E+06     760.356E+03         41.4998
             389     3.55612E-03     60.5720E-03         6.71358    -558.324E-03    -701.024E-03    -671.901E-03         6.68446    -558.324E-03    -900.110E-03     236.008E-03    -117.779E-03    -118.229E-03    -117.775E-03     236.004E-03    -118.229E-03     2.02068E-03    -65.0833E+06    -85.5157E+06    -210.718E+06    -85.5243E+06    -210.709E+06    -65.0833E+06     719.486E+03         40.9015
             390     2.66700E-03     60.5718E-03         6.72561    -536.041E-03    -746.140E-03    -585.933E-03         6.56540    -536.041E-03     896.596E-03     236.191E-03    -117.968E-03    -118.223E-03    -117.980E-03     236.189E-03    -118.209E-03     108.583E-06    -77.1440E+06    -90.3497E+06    -217.907E+06    -90.3620E+06    -217.895E+06    -77.1440E+06     1.07559E+06         40.4562
             391     1.77695E-03     60.5775E-03         6.70226    -523.962E-03    -728.664E-03    -541.033E-03         6.51463    -523.962E-03     633.141E-03     236.350E-03    -118.069E-03    -118.281E-03    -118.226E-03     236.349E-03    -118.124E-03    -502.634E-06    -89.6521E+06    -96.1048E+06    -225.656E+06    -96.1465E+06    -225.615E+06    -89.6521E+06     1.02229E+06         40.1483
             392     889.480E-06     60.5768E-03         7.86929         2.12105        -4.55485        -3.16208         6.47651         2.12105         5.51223     236.070E-03    -117.261E-03    -118.808E-03    -118.231E-03     236.069E-03    -117.838E-03    -599.449E-06    -96.8602E+06    -103.038E+06    -230.169E+06    -101.117E+06    -230.122E+06    -98.8281E+06    -189.383E+03         39.9633
             393     15.1252E-03     60.1939E-03         11.9398        -1.62815        -4.05961        -4.00385         11.8840        -1.62815    -577.481E-03     245.142E-03    -116.440E-03    -128.703E-03    -116.025E-03     233.859E-03    -117.835E-03     101.227E-03     126.189E+06     95.0048E+06    -6.08375E+06    -6.05755E+06     126.163E+06     95.0048E+06     550.813E+03         59.9970
             394     14.2293E-03     59.9737E-03         11.3289        -1.46954        -3.68929        -3.63956         11.2792        -1.46954    -799.660E-03     248.707E-03    -117.876E-03    -130.831E-03    -116.224E-03     234.099E-03    -117.876E-03     140.913E-03     115.144E+06     90.1004E+06    -15.0409E+06    -15.0168E+06     115.120E+06     90.1004E+06     921.483E+03         58.3142
             395     13.3408E-03     59.8542E-03         10.6900        -1.31373        -3.28972        -3.28329         10.6836        -1.31373     180.376E-03     241.551E-03    -117.908E-03    -123.643E-03    -114.467E-03     232.376E-03    -117.908E-03     113.378E-03     105.473E+06     86.9872E+06    -22.9123E+06    -22.8704E+06     105.431E+06     86.9872E+06     2.17102E+06         56.5196
             396     12.4524E-03     59.6956E-03         10.0820        -1.16621        -2.90904        -2.90695         10.0799        -1.16621    -319.701E-03     240.461E-03    -117.934E-03    -122.528E-03    -113.539E-03     231.473E-03    -117.934E-03     111.781E-03     103.906E+06     78.4798E+06    -30.1319E+06    -30.0744E+06     103.849E+06     78.4798E+06     685.209E+03         54.7003
             397     11.5615E-03     59.5913E-03         9.48995        -1.02949        -2.52887        -2.52804         9.48913        -1.02949    -95.6079E-03     237.306E-03    -117.888E-03    -119.417E-03    -113.892E-03     231.781E-03    -117.888E-03     87.6572E-03     101.930E+06     54.8684E+06    -39.5318E+06    -39.4938E+06     101.892E+06     54.8684E+06    -51.0783E+03         52.8611
             398     10.6714E-03     59.5000E-03         8.97795    -905.924E-03        -2.21136        -2.18443         8.95103    -905.924E-03    -732.008E-03     235.847E-03    -117.446E-03    -118.401E-03    -114.605E-03     232.424E-03    -117.820E-03     68.4025E-03     96.6869E+06     31.8413E+06    -46.4242E+06    -46.3899E+06     96.6526E+06     31.8413E+06     944.213E+03         50.9969
             399     9.78026E-03     59.4362E-03         8.50502    -794.772E-03        -1.91098        -1.86372         8.45776    -794.772E-03    -123.821E-03     234.825E-03    -117.031E-03    -117.794E-03    -115.200E-03     232.994E-03    -117.794E-03     50.0841E-03     69.5633E+06     13.6665E+06    -53.5791E+06    -53.3364E+06     69.3206E+06     13.6665E+06     3.52846E+06         49.1471
             400     8.89350E-03     59.3935E-03         8.11900    -695.304E-03        -1.67996        -1.58137         8.02041    -695.304E-03    -578.450E-03     234.492E-03    -116.667E-03    -117.825E-03    -115.631E-03     233.456E-03    -117.825E-03     37.7483E-03     15.3011E+06    -18.5435E+06    -61.1911E+06    -59.7596E+06     1.01953E+06    -5.69339E+06     5.62719E+06         47.3876
             401     8.00199E-03     59.3574E-03         7.76252    -606.957E-03        -1.46487        -1.31466         7.61231    -606.957E-03    -91.8909E-03     234.313E-03    -116.409E-03    -117.904E-03    -115.842E-03     233.746E-03    -117.904E-03     27.7108E-03    -18.8019E+06    -51.5525E+06    -74.5982E+06    -62.4384E+06    -63.7124E+06    -18.8019E+06     2.08437E+06         45.7920
             402     7.11214E-03     59.3344E-03         7.32257    -531.626E-03        -1.15631        -1.05547         7.22173    -531.626E-03     442.743E-03     234.693E-03    -116.658E-03    -118.035E-03    -116.386E-03     234.421E-03    -118.035E-03     19.2172E-03    -21.2811E+06    -64.2992E+06    -116.809E+06    -64.5206E+06    -116.587E+06    -21.2811E+06    -1.32994E+06         44.4043
             403     6.22312E-03     59.3171E-03         6.91638    -471.222E-03    -861.891E-03    -829.591E-03         6.88408    -471.222E-03    -446.772E-03     235.054E-03    -116.907E-03    -118.147E-03    -116.784E-03     234.931E-03    -118.147E-03     12.7852E-03    -25.5672E+06    -70.7667E+06    -159.887E+06    -70.8238E+06    -159.830E+06    -25.5672E+06    -351.588E+03         43.2358
             404     5.33395E-03     59.3114E-03         6.64704    -424.505E-03    -675.250E-03    -664.385E-03         6.63618    -424.505E-03     536.260E-03     235.271E-03    -117.086E-03    -118.185E-03    -117.036E-03     235.221E-03    -118.185E-03     8.20213E-03    -38.1056E+06    -76.5245E+06    -178.925E+06     -76.565E+06    -178.884E+06    -38.1056E+06     1.00838E+06         42.2765
             405     4.44514E-03     59.3072E-03         6.46676    -390.139E-03    -550.210E-03    -528.609E-03         6.44516    -390.139E-03    -133.207E-03     235.554E-03    -117.331E-03    -118.223E-03    -117.310E-03     235.533E-03    -118.223E-03     5.12084E-03    -52.5081E+06    -81.0438E+06    -197.298E+06    -81.0634E+06    -197.279E+06    -52.5081E+06     1.06530E+06         41.5076
             406     3.55451E-03     59.3052E-03         6.35526    -365.362E-03    -472.173E-03    -451.442E-03         6.33452    -365.362E-03    -678.727E-03     235.893E-03    -117.630E-03    -118.263E-03    -117.624E-03     235.887E-03    -118.263E-03     2.37649E-03    -66.4468E+06    -87.4271E+06    -211.097E+06    -87.4411E+06    -211.083E+06    -66.4468E+06     1.15966E+06         40.9095
             407     2.66520E-03     59.3084E-03         6.33428    -350.488E-03    -475.797E-03    -375.724E-03         6.23421    -350.488E-03     855.502E-03     236.318E-03    -117.963E-03    -118.355E-03    -118.049E-03     236.316E-03    -118.268E-03     206.192E-06    -77.8715E+06    -93.4737E+06    -218.944E+06    -93.5007E+06    -218.917E+06    -77.8715E+06     1.75093E+06         40.4649
             408     1.77776E-03     59.3088E-03         6.32676    -332.002E-03    -502.874E-03    -389.986E-03         6.21387    -332.002E-03         1.06278     236.377E-03    -117.988E-03    -118.389E-03    -118.145E-03     236.375E-03    -118.230E-03    -1.28464E-03    -87.1074E+06    -98.5974E+06    -224.599E+06    -98.6595E+06    -224.537E+06    -87.1074E+06     2.71111E+06         40.1578
             409     888.351E-06     59.3138E-03         6.96078         2.93660        -4.40252        -3.56417         6.12243         2.93660         4.71401     236.319E-03    -117.603E-03    -118.715E-03    -117.673E-03     236.316E-03    -118.643E-03    -978.360E-06    -97.0261E+06    -104.208E+06    -228.105E+06    -101.758E+06    -228.042E+06    -99.5385E+06     1.42480E+06         39.9739
             410     15.1191E-03     58.9339E-03         11.9185        -1.48884        -4.11056        -4.05161         11.8596        -1.48884    -567.871E-03     245.907E-03    -116.414E-03    -129.493E-03    -116.519E-03     234.342E-03    -117.823E-03     101.959E-03     124.045E+06     94.9849E+06    -6.12214E+06    -6.06348E+06     123.987E+06     94.9849E+06     1.39079E+06         59.9834
             411     14.2337E-03     58.7041E-03         11.2693        -1.32884        -3.71006        -3.65665         11.2159        -1.32884    -765.080E-03     249.683E-03    -117.842E-03    -131.841E-03    -117.011E-03     234.853E-03    -117.842E-03     141.992E-03     113.591E+06     93.1110E+06    -13.0658E+06    -12.9854E+06     113.511E+06     93.1110E+06     2.68712E+06         58.3084
             412     13.3473E-03     58.5876E-03         10.5796        -1.17524        -3.25117        -3.24349         10.5720        -1.17524     277.079E-03     241.009E-03    -117.861E-03    -123.148E-03    -113.903E-03     231.764E-03    -117.861E-03     113.436E-03     106.109E+06     89.1600E+06    -20.4016E+06    -20.2993E+06     106.007E+06     89.1600E+06     3.11518E+06         56.5185
             413     12.4507E-03     58.4398E-03         9.93765        -1.03233        -2.83348        -2.83233         9.93650        -1.03233    -207.249E-03     240.102E-03    -117.933E-03    -122.169E-03    -112.694E-03     230.626E-03    -117.933E-03     114.825E-03     104.797E+06     78.9947E+06    -27.5270E+06    -27.4231E+06     104.693E+06     78.9947E+06     3.34461E+06         54.7001
             414     11.5584E-03     58.3204E-03         9.33907    -900.594E-03        -2.45209        -2.45131         9.33830    -900.594E-03     65.9701E-03     237.771E-03    -117.926E-03    -119.845E-03    -114.213E-03     232.139E-03    -117.926E-03     88.0746E-03     102.669E+06     57.0181E+06    -36.6832E+06    -36.6259E+06     102.612E+06     57.0181E+06     2.17379E+06         52.8632
             415     10.6713E-03     58.2362E-03         8.79696    -781.400E-03        -2.10632        -2.08419         8.77482    -781.400E-03    -555.538E-03     235.845E-03    -117.366E-03    -118.479E-03    -114.753E-03     232.592E-03    -117.839E-03     67.0140E-03     96.0514E+06     32.6754E+06    -45.2330E+06    -45.2027E+06     96.0210E+06     32.6754E+06     852.422E+03         51.0038
             416     9.78155E-03     58.1713E-03         8.31570    -675.023E-03        -1.79544        -1.74307         8.26334    -675.023E-03     100.524E-03     234.699E-03    -116.872E-03    -117.827E-03    -115.030E-03     232.857E-03    -117.827E-03     49.9546E-03     63.6676E+06     15.2742E+06    -51.8088E+06    -51.5906E+06     63.4493E+06     15.2742E+06     2.39195E+06         49.1582
             417     8.89011E-03     58.1261E-03         7.92207    -580.592E-03        -1.55195        -1.45188         7.82199    -580.592E-03    -351.229E-03     234.761E-03    -116.904E-03    -117.856E-03    -115.916E-03     233.773E-03    -117.856E-03     36.9736E-03     13.0504E+06    -10.8715E+06    -55.3022E+06    -54.9844E+06     2.55596E+06    -694.993E+03     3.18738E+06         47.4016
             418     8.00320E-03     58.0935E-03         7.55862    -497.535E-03        -1.33026        -1.18055         7.40891    -497.535E-03     42.3285E-03     234.767E-03    -116.890E-03    -117.877E-03    -116.292E-03     234.168E-03    -117.877E-03     28.6261E-03    -15.8957E+06    -45.6593E+06    -69.5591E+06    -58.6962E+06    -56.5222E+06    -15.8957E+06     479.541E+03         45.8068
             419     7.11407E-03     58.0682E-03         7.14068    -426.215E-03        -1.04466    -943.561E-03         7.03958    -426.215E-03     601.114E-03     234.638E-03    -116.659E-03    -117.979E-03    -116.354E-03     234.333E-03    -117.979E-03     20.1993E-03    -22.5181E+06    -65.1665E+06    -118.194E+06    -65.3411E+06    -118.019E+06    -22.5181E+06    -1.17656E+06         44.4176
             420     6.22329E-03     58.0549E-03         6.72135    -368.652E-03    -736.620E-03    -712.893E-03         6.69763    -368.652E-03    -352.164E-03     234.584E-03    -116.469E-03    -118.116E-03    -116.340E-03     234.455E-03    -118.116E-03     13.1478E-03    -27.7151E+06    -71.0732E+06    -162.130E+06    -71.1081E+06    -162.095E+06    -27.7151E+06    -1.47515E+06         43.2465
             421     5.33245E-03     58.0452E-03         6.46711    -326.169E-03    -563.882E-03    -536.770E-03         6.43999    -326.169E-03     763.169E-03     235.280E-03    -117.079E-03    -118.200E-03    -117.027E-03     235.227E-03    -118.200E-03     8.30052E-03    -37.5488E+06    -76.3354E+06    -181.643E+06    -76.3863E+06    -181.592E+06    -37.5488E+06    -1.02930E+06         42.2850
             422     4.44348E-03     58.0420E-03         6.32269    -296.419E-03    -466.268E-03    -416.850E-03         6.27327    -296.419E-03    -17.9186E-03     235.924E-03    -117.648E-03    -118.276E-03    -117.696E-03     235.906E-03    -118.210E-03     4.31684E-03    -49.5519E+06    -81.3057E+06    -198.438E+06    -81.3727E+06    -198.371E+06    -49.5519E+06     1.20083E+06         41.5145
             423     3.55511E-03     58.0408E-03         6.21101    -276.374E-03    -373.559E-03    -339.966E-03         6.17742    -276.374E-03    -372.801E-03     235.917E-03    -117.683E-03    -118.234E-03    -117.746E-03     235.913E-03    -118.167E-03     1.16552E-03    -65.4163E+06    -87.4436E+06    -210.557E+06    -87.4951E+06    -210.505E+06    -65.4163E+06     1.91169E+06         40.9146
             424     2.66692E-03     58.0408E-03         6.12892    -260.948E-03    -321.976E-03    -276.492E-03         6.08933    -266.842E-03     759.746E-03     235.844E-03    -117.573E-03    -118.271E-03    -117.660E-03     235.844E-03    -118.184E-03    -349.080E-06    -80.0395E+06    -93.6042E+06    -220.632E+06    -93.6275E+06    -220.608E+06    -80.0395E+06     1.27953E+06         40.4680
             425     1.77772E-03     58.0438E-03         6.21568    -245.903E-03    -434.301E-03    -305.763E-03         6.09303    -251.798E-03         1.54948     236.028E-03    -117.585E-03    -118.444E-03    -117.669E-03     236.026E-03    -118.356E-03    -694.534E-06    -87.5819E+06    -96.5066E+06    -224.251E+06    -96.5704E+06    -224.187E+06    -87.5819E+06     410.340E+03         40.1598
             426     888.502E-06     58.0487E-03         6.71744         3.03423        -4.24336        -3.87230         5.98790         3.39271         3.48915     236.917E-03    -117.855E-03    -119.062E-03    -118.424E-03     236.915E-03    -118.490E-03     359.833E-06    -92.0791E+06    -98.8542E+06    -223.940E+06    -98.3710E+06    -223.879E+06    -92.6235E+06     731.601E+03         39.9759
             427     15.1250E-03     57.6699E-03         11.8925        -1.42576        -4.12458        -4.06369         11.8316        -1.42576    -549.792E-03     246.566E-03    -116.864E-03    -129.702E-03    -116.955E-03     234.766E-03    -117.812E-03     102.909E-03     120.866E+06     95.3390E+06    -5.46306E+06    -5.42085E+06     120.824E+06     95.3390E+06     850.705E+03         59.9701
             428     14.2326E-03     57.4352E-03         11.2146        -1.27219        -3.68757        -3.63200         11.1590        -1.27219    -734.466E-03     248.802E-03    -117.872E-03    -130.930E-03    -115.745E-03     233.617E-03    -117.872E-03     143.546E-03     110.435E+06     94.5973E+06    -10.4198E+06    -10.3369E+06     110.353E+06     94.5973E+06     2.69387E+06         58.3008
             429     13.3383E-03     57.3258E-03         10.4932        -1.12865        -3.19437        -3.18574         10.4846        -1.12865     355.309E-03     240.901E-03    -117.945E-03    -122.956E-03    -113.816E-03     231.761E-03    -117.945E-03     113.087E-03     106.000E+06     92.3376E+06    -16.3508E+06    -16.2103E+06     105.859E+06     92.3376E+06     3.97288E+06         56.5157
             430     12.4499E-03     57.1762E-03         9.85978    -996.911E-03        -2.78268        -2.78204         9.85913    -996.911E-03    -99.0057E-03     241.768E-03    -117.959E-03    -123.808E-03    -114.485E-03     232.445E-03    -117.959E-03     114.597E-03     105.862E+06     82.5813E+06    -25.2957E+06    -25.1152E+06     105.682E+06     82.5813E+06     4.86013E+06         54.7020
             431     11.5628E-03     57.0530E-03         9.27112    -876.171E-03        -2.40245        -2.40077         9.26944    -876.171E-03     208.844E-03     237.697E-03    -117.758E-03    -119.940E-03    -114.290E-03     232.163E-03    -117.873E-03     87.0597E-03     103.169E+06     58.9563E+06    -33.4722E+06    -33.3054E+06     103.002E+06     58.9563E+06     4.15063E+06         52.8677
             432     10.6709E-03     56.9720E-03         8.73858    -766.788E-03        -2.05362        -2.03619         8.72115    -766.788E-03    -385.250E-03     235.190E-03    -117.338E-03    -117.852E-03    -114.298E-03     232.089E-03    -117.791E-03     65.5301E-03     96.7922E+06     33.7006E+06    -40.9945E+06    -40.8989E+06     96.6965E+06     33.7006E+06     2.78577E+06         51.0094
             433     9.78105E-03     56.9046E-03         8.29288    -668.586E-03        -1.77027        -1.71328         8.23589    -668.586E-03     320.052E-03     234.624E-03    -116.824E-03    -117.801E-03    -114.971E-03     232.772E-03    -117.801E-03     50.0596E-03     63.0142E+06     16.5253E+06    -47.3038E+06    -47.2728E+06     62.9832E+06     16.5253E+06     688.643E+03         49.1666
             434     8.89338E-03     56.8619E-03         7.90726    -580.595E-03        -1.52724        -1.42889         7.80892    -580.595E-03    -121.675E-03     234.504E-03    -116.654E-03    -117.850E-03    -115.684E-03     233.534E-03    -117.850E-03     36.5972E-03     13.5418E+06    -9.50912E+06    -52.1191E+06    -51.9931E+06     2.45578E+06     1.45094E+06    -279.222E+03         47.4130
             435     8.00130E-03     56.8271E-03         7.55591    -502.988E-03        -1.31030        -1.16459         7.41020    -502.988E-03     209.219E-03     234.543E-03    -116.632E-03    -117.911E-03    -116.058E-03     233.969E-03    -117.911E-03     27.9656E-03    -10.5875E+06    -42.6324E+06    -68.4414E+06    -56.1924E+06    -54.8815E+06    -10.5875E+06     662.382E+03         45.8199
             436     7.11177E-03     56.8040E-03         7.13939    -436.756E-03        -1.02882    -927.460E-03         7.03803    -436.756E-03     779.522E-03     234.560E-03    -116.532E-03    -118.028E-03    -116.235E-03     234.263E-03    -118.028E-03     19.9728E-03    -18.6990E+06    -60.6434E+06    -117.827E+06    -60.6691E+06    -117.802E+06    -18.6990E+06    -142.896E+03         44.4307
             437     6.22310E-03     56.7900E-03         6.72748    -383.137E-03    -732.018E-03    -716.261E-03         6.71172    -383.137E-03    -235.811E-03     235.160E-03    -116.971E-03    -118.188E-03    -116.895E-03     235.020E-03    -118.125E-03     13.7432E-03    -26.8486E+06    -67.4080E+06    -163.148E+06    -67.4410E+06    -163.115E+06    -26.8486E+06    -1.16135E+06         43.2584
             438     5.33442E-03     56.7811E-03         6.53213    -341.394E-03    -616.938E-03    -563.656E-03         6.47885    -341.394E-03         1.03963     235.802E-03    -117.596E-03    -118.206E-03    -117.630E-03     235.746E-03    -118.116E-03     8.30816E-03    -37.6024E+06    -75.7818E+06    -183.919E+06    -75.8296E+06    -183.872E+06    -37.6024E+06    -537.061E+03         42.2944
             439     4.44556E-03     56.7747E-03         6.39873    -310.707E-03    -527.307E-03    -435.293E-03         6.30672    -310.707E-03     92.3903E-03     235.899E-03    -117.776E-03    -118.124E-03    -117.856E-03     235.887E-03    -118.031E-03     3.50273E-03    -51.4178E+06    -83.9145E+06    -201.476E+06    -83.9981E+06    -201.393E+06    -51.4178E+06     448.078E+03         41.5206
             440     3.55717E-03     56.7757E-03         6.28678    -290.480E-03    -428.710E-03    -353.048E-03         6.21111    -290.480E-03    -94.6300E-03     235.500E-03    -117.474E-03    -118.027E-03    -117.539E-03     235.499E-03    -117.960E-03     1.07269E-03    -64.3671E+06    -87.3827E+06    -210.381E+06    -87.4478E+06    -210.316E+06    -64.3671E+06     993.661E+03         40.9171
             441     2.66684E-03     56.7764E-03         6.16814    -264.224E-03    -348.303E-03    -294.430E-03         6.13027    -280.224E-03     702.899E-03     235.100E-03    -117.040E-03    -118.060E-03    -117.039E-03     235.099E-03    -118.060E-03    -227.585E-06    -77.5088E+06    -90.0233E+06    -218.622E+06    -90.0329E+06    -218.612E+06    -77.5088E+06     123.876E+03         40.4672
             442     1.77582E-03     56.7806E-03         6.41373    -254.565E-03    -611.579E-03    -299.500E-03         6.11765    -270.565E-03         2.05603     235.852E-03    -117.508E-03    -118.344E-03    -117.507E-03     235.851E-03    -118.344E-03    -418.429E-06    -89.0045E+06    -94.9633E+06    -224.500E+06    -94.9983E+06    -224.465E+06    -89.0045E+06    -1.09437E+06         40.1565
             443     887.434E-06     56.7783E-03         6.97781         2.86045        -4.32799        -3.99708         6.04449         3.46285         2.30137     236.979E-03    -117.959E-03    -119.020E-03    -118.832E-03     236.978E-03    -118.146E-03     272.828E-06    -94.9306E+06    -100.926E+06    -225.863E+06    -99.5347E+06    -225.809E+06    -96.3763E+06    -961.949E+03         39.9707
             444     15.1215E-03     56.3991E-03         11.8382        -1.44162        -4.07524        -4.01349         11.7764        -1.44162    -517.182E-03     245.715E-03    -116.900E-03    -128.815E-03    -116.106E-03     233.938E-03    -117.833E-03     103.434E-03     118.663E+06     95.1331E+06    -6.02261E+06    -6.00663E+06     118.647E+06     95.1331E+06     572.833E+03         59.9574
             445     14.2313E-03     56.1777E-03         11.1658        -1.30234        -3.63658        -3.58068         11.1100        -1.30234    -711.633E-03     248.358E-03    -117.924E-03    -130.434E-03    -115.309E-03     233.233E-03    -117.924E-03     142.975E-03     108.036E+06     92.4603E+06    -12.7011E+06    -12.6785E+06     108.013E+06     92.4603E+06     1.52679E+06         58.2953
             446     13.3413E-03     56.0586E-03         10.4745        -1.17462        -3.16558        -3.15674         10.4656        -1.17462     413.525E-03     242.003E-03    -117.967E-03    -124.036E-03    -115.121E-03     233.088E-03    -117.967E-03     112.234E-03     103.921E+06     90.4740E+06    -19.6602E+06    -19.6057E+06     103.866E+06     90.4740E+06     1.99304E+06         56.5175
             447     12.4536E-03     55.9081E-03         9.85549        -1.05844        -2.75850        -2.75806         9.85504        -1.05844    -13.6080E-03     242.069E-03    -117.912E-03    -124.157E-03    -115.088E-03     233.000E-03    -117.912E-03     113.326E-03     103.572E+06     82.6752E+06    -26.0979E+06    -25.9871E+06     103.461E+06     82.6752E+06     3.16574E+06         54.7073
             448     11.5617E-03     55.7896E-03         9.28673    -953.468E-03        -2.38638        -2.38341         9.28376    -953.468E-03     314.610E-03     237.432E-03    -117.708E-03    -119.724E-03    -113.968E-03     231.792E-03    -117.824E-03     88.0711E-03     102.613E+06     63.0237E+06    -32.1049E+06    -31.9529E+06     102.461E+06     63.0237E+06     4.25282E+06         52.8726
             449     10.6727E-03     55.7066E-03         8.78919    -858.039E-03        -2.06139        -2.04718         8.77498    -858.039E-03    -237.929E-03     235.225E-03    -117.279E-03    -117.946E-03    -114.301E-03     232.049E-03    -117.748E-03     66.0741E-03     99.7234E+06     38.7793E+06    -37.1103E+06    -37.0205E+06     99.6336E+06     38.7793E+06     2.90561E+06         51.0145
             450     9.78235E-03     55.6404E-03         8.39857    -771.460E-03        -1.81314        -1.75000         8.33543    -771.460E-03     521.230E-03     234.205E-03    -116.450E-03    -117.755E-03    -114.635E-03     232.390E-03    -117.755E-03     49.7218E-03     64.4846E+06     18.2826E+06    -43.5947E+06    -43.5244E+06     64.4143E+06     18.2826E+06     1.56905E+06         49.1740
             451     8.89050E-03     55.5958E-03         8.05131    -692.831E-03        -1.59036        -1.49396         7.95491    -692.831E-03     100.370E-03     234.157E-03    -116.330E-03    -117.827E-03    -115.322E-03     233.149E-03    -117.827E-03     37.2271E-03     11.2201E+06    -8.70038E+06    -51.2228E+06    -51.1208E+06     2.35133E+06     66.4062E+03     505.989E+03         47.4231
             452     8.00373E-03     55.5625E-03         7.72631    -622.093E-03        -1.39147        -1.25545         7.59029    -622.093E-03     354.373E-03     234.514E-03    -116.608E-03    -117.906E-03    -116.041E-03     233.947E-03    -117.906E-03     27.7503E-03    -12.6556E+06    -42.0910E+06    -70.0378E+06    -56.3910E+06    -55.7377E+06    -12.6556E+06    -496.415E+03         45.8321
             453     7.11305E-03     55.5402E-03         7.33825    -560.653E-03        -1.13228        -1.03310         7.23906    -560.653E-03     911.928E-03     234.808E-03    -116.795E-03    -118.013E-03    -116.520E-03     234.534E-03    -118.013E-03     19.2354E-03    -19.7772E+06    -61.9159E+06    -118.970E+06    -62.0032E+06    -118.883E+06    -19.7772E+06     520.575E+03         44.4434
             454     6.22219E-03     55.5245E-03         6.94902    -509.580E-03    -854.025E-03    -843.114E-03         6.93811    -509.580E-03    -135.369E-03     235.559E-03    -117.441E-03    -118.118E-03    -117.379E-03     235.433E-03    -118.055E-03     13.0343E-03    -27.0759E+06    -69.2007E+06    -163.400E+06    -69.2579E+06    -163.343E+06    -27.0759E+06     1.49994E+06         43.2694
             455     5.33446E-03     55.5132E-03         6.79849    -467.110E-03    -783.256E-03    -707.958E-03         6.72319    -467.110E-03         1.25141     235.676E-03    -117.591E-03    -118.085E-03    -117.629E-03     235.624E-03    -117.995E-03     8.10300E-03    -37.6822E+06    -75.9050E+06    -184.904E+06    -75.9386E+06    -184.871E+06    -37.6822E+06     911.307E+03         42.3022
             456     4.44619E-03     55.5111E-03         6.68284    -431.034E-03    -717.288E-03    -597.361E-03         6.56291    -431.034E-03     214.417E-03     235.250E-03    -117.283E-03    -117.967E-03    -117.293E-03     235.234E-03    -117.941E-03     4.57927E-03    -52.0693E+06    -81.4246E+06    -201.494E+06    -81.4622E+06    -201.456E+06    -52.0693E+06    -740.847E+03         41.5248
             457     3.55609E-03     55.5100E-03         6.53847    -405.359E-03    -593.120E-03    -478.378E-03         6.42373    -405.359E-03     136.592E-03     235.313E-03    -117.295E-03    -118.018E-03    -117.369E-03     235.308E-03    -117.939E-03     2.10922E-03    -66.0267E+06    -86.9788E+06    -212.115E+06    -87.0184E+06    -212.076E+06    -66.0267E+06    -1.45252E+06         40.9184
             458     2.66695E-03     55.5141E-03         6.39460    -379.958E-03    -477.830E-03    -388.247E-03         6.32268    -397.617E-03     716.368E-03     235.770E-03    -117.430E-03    -118.340E-03    -117.860E-03     235.769E-03    -117.909E-03    -263.577E-06    -76.0476E+06    -90.7419E+06    -218.174E+06    -90.7795E+06    -218.137E+06    -76.0476E+06    -246.695E+03         40.4660
             459     1.77879E-03     55.5136E-03         6.79910    -382.151E-03    -890.960E-03    -396.494E-03         6.32229    -399.809E-03         2.45989     235.807E-03    -117.484E-03    -118.323E-03    -118.071E-03     235.806E-03    -117.735E-03    -1.01962E-03    -87.0318E+06    -95.9466E+06    -224.456E+06    -95.9664E+06    -224.436E+06    -87.0318E+06     745.824E+03         40.1520
             460     889.869E-06     55.5135E-03         7.05871         2.88772        -4.46105        -3.94054         6.29427         3.13165         1.61719     235.148E-03    -116.925E-03    -118.223E-03    -118.206E-03     235.145E-03    -116.939E-03    -1.45797E-03    -97.0895E+06    -102.943E+06    -230.850E+06    -101.529E+06    -230.819E+06    -98.5352E+06     286.637E+03         39.9631
             461     15.1230E-03     55.1397E-03         11.7977        -1.53699        -4.01311        -3.94644         11.7310        -1.53699    -508.151E-03     245.195E-03    -116.697E-03    -128.498E-03    -115.940E-03     233.788E-03    -117.848E-03     101.626E-03     118.171E+06     95.1029E+06    -5.42663E+06    -5.40284E+06     118.147E+06     95.1029E+06     393.843E+03         59.9471
             462     14.2297E-03     54.9110E-03         11.1594        -1.41732        -3.58779        -3.52661         11.0983        -1.41732    -684.598E-03     248.774E-03    -117.916E-03    -130.858E-03    -115.930E-03     233.846E-03    -117.916E-03     142.798E-03     106.484E+06     91.7094E+06    -13.4707E+06    -13.4303E+06     106.443E+06     91.7094E+06     1.51844E+06         58.2926
             463     13.3419E-03     54.7911E-03         10.5173        -1.31058        -3.14991        -3.13885         10.5062        -1.31058     486.377E-03     242.555E-03    -117.920E-03    -124.634E-03    -115.454E-03     233.374E-03    -117.920E-03     114.099E-03     101.834E+06     87.8395E+06    -22.3233E+06    -22.2558E+06     101.767E+06     87.8395E+06     2.33005E+06         56.5197
             464     12.4519E-03     54.6416E-03         9.94332        -1.21399        -2.77555        -2.77463         9.94240        -1.21399     62.7142E-03     241.534E-03    -117.875E-03    -123.659E-03    -114.656E-03     232.531E-03    -117.875E-03     112.580E-03     103.011E+06     81.4577E+06    -28.7208E+06    -28.6541E+06     102.945E+06     81.4577E+06     1.29158E+06         54.7099
             465     11.5623E-03     54.5278E-03         9.42544        -1.12709        -2.44235        -2.43770         9.42079        -1.12709     426.678E-03     237.265E-03    -117.814E-03    -119.451E-03    -113.811E-03     231.625E-03    -117.814E-03     88.3744E-03     102.342E+06     63.8988E+06    -33.6638E+06    -33.6081E+06     102.287E+06     63.8988E+06     131.917E+03         52.8750
             466     10.6718E-03     54.4372E-03         8.96429        -1.04774        -2.13272        -2.12123         8.95280        -1.04774    -102.712E-03     235.448E-03    -117.435E-03    -118.013E-03    -114.432E-03     232.169E-03    -117.737E-03     66.8653E-03     98.2498E+06     38.8353E+06    -39.0878E+06    -39.0481E+06     98.2101E+06     38.8353E+06     852.341E+03         51.0188
             467     9.78282E-03     54.3791E-03         8.63084    -975.369E-03        -1.92441        -1.85485         8.56128    -975.369E-03     727.260E-03     234.239E-03    -116.520E-03    -117.719E-03    -114.736E-03     232.455E-03    -117.719E-03     49.4738E-03     63.7120E+06     16.3878E+06    -44.6561E+06    -44.5826E+06     63.6384E+06     16.3878E+06     1.90216E+06         49.1815
             468     8.89292E-03     54.3301E-03         8.33504    -908.174E-03        -1.74050        -1.64269         8.23722    -908.174E-03     296.581E-03     233.925E-03    -116.137E-03    -117.788E-03    -115.114E-03     232.902E-03    -117.788E-03     37.3606E-03     12.1317E+06    -9.07836E+06    -49.0017E+06    -48.9319E+06     4.26274E+06    -1.27919E+06     1.25662E+06         47.4337
             469     8.00062E-03     54.2976E-03         8.04326    -846.191E-03        -1.55955        -1.43189         7.91561    -846.191E-03     472.820E-03     234.846E-03    -116.872E-03    -117.973E-03    -116.427E-03     234.304E-03    -117.877E-03     27.1032E-03    -11.3302E+06    -40.9680E+06    -72.7118E+06    -54.6525E+06    -59.0273E+06    -11.3302E+06     1.66814E+06         45.8441
             470     7.11257E-03     54.2745E-03         7.70618    -791.012E-03        -1.33319        -1.23755         7.61055    -791.012E-03         1.05449     235.517E-03    -117.509E-03    -118.008E-03    -117.349E-03     235.261E-03    -117.912E-03     18.4891E-03    -16.4671E+06    -62.0350E+06    -120.712E+06    -62.4117E+06    -120.335E+06    -16.4671E+06     2.99513E+06         44.4550
             471     6.22613E-03     54.2582E-03         7.36302    -742.638E-03        -1.08759        -1.07888         7.35431    -742.638E-03     31.1350E-03     234.947E-03    -117.044E-03    -117.903E-03    -116.928E-03     234.831E-03    -117.903E-03     12.5350E-03    -24.3811E+06    -68.5909E+06    -161.145E+06    -68.6895E+06    -161.046E+06    -24.3811E+06     1.66878E+06         43.2782
             472     5.33567E-03     54.2492E-03         7.22315    -701.428E-03        -1.02584    -933.467E-03         7.13078    -701.428E-03         1.46766     234.507E-03    -116.559E-03    -117.948E-03    -116.504E-03     234.452E-03    -117.948E-03     8.41748E-03    -36.4183E+06    -73.4085E+06    -185.332E+06    -73.4422E+06    -185.299E+06    -36.4183E+06    -290.210E+03         42.3075
             473     4.44477E-03     54.2463E-03         7.09102    -668.613E-03    -936.136E-03    -813.536E-03         6.96842    -668.613E-03     458.984E-03     235.139E-03    -117.041E-03    -118.097E-03    -117.111E-03     235.120E-03    -118.008E-03     4.80790E-03    -51.1054E+06    -79.0755E+06    -201.477E+06    -79.0854E+06    -201.467E+06    -51.1054E+06    -262.100E+03         41.5278
             474     3.55537E-03     54.2464E-03         6.97767    -645.329E-03    -834.721E-03    -717.651E-03         6.86060    -645.329E-03     390.106E-03     235.965E-03    -117.666E-03    -118.299E-03    -118.008E-03     235.961E-03    -117.952E-03     1.76032E-03    -66.4504E+06    -86.0928E+06    -213.141E+06    -86.1165E+06    -213.118E+06    -66.4504E+06    -553.401E+03         40.9201
             475     2.66749E-03     54.2458E-03         6.85373    -627.170E-03    -736.628E-03    -642.707E-03         6.76736    -634.723E-03     891.466E-03     236.222E-03    -117.695E-03    -118.527E-03    -118.527E-03     236.222E-03    -117.695E-03    -374.899E-06    -78.6621E+06    -92.4767E+06    -221.496E+06    -92.5583E+06    -221.415E+06    -78.6621E+06    -1.17265E+06         40.4659
             476     1.77981E-03     54.2497E-03         7.22830    -634.869E-03        -1.12582    -604.267E-03         6.71430    -642.422E-03         2.68239     235.367E-03    -117.257E-03    -118.110E-03    -118.110E-03     235.367E-03    -117.257E-03    -583.191E-06    -86.2711E+06    -95.7522E+06    -225.911E+06    -95.8415E+06    -225.821E+06    -86.2711E+06     484.431E+03         40.1497
             477     890.797E-06     54.2499E-03         7.32447         2.45899        -4.33564        -3.76395         6.75279         2.45899         1.61191     233.942E-03    -116.191E-03    -117.751E-03    -117.212E-03     233.938E-03    -116.726E-03    -78.0106E-06    -94.0269E+06    -99.4289E+06    -230.136E+06    -98.9409E+06    -230.093E+06    -94.5578E+06     1.33452E+06         39.9587
             478     15.1217E-03     53.8725E-03         11.7871        -1.70996        -3.96584        -3.89470         11.7159        -1.70996    -493.399E-03     246.114E-03    -116.995E-03    -129.119E-03    -116.820E-03     234.655E-03    -117.835E-03     101.356E-03     116.324E+06     93.6986E+06    -5.02734E+06    -4.98937E+06     116.286E+06     93.6986E+06     1.00460E+06         59.9374
             479     14.2341E-03     53.6495E-03         11.1956        -1.61334        -3.56072        -3.49424         11.1292        -1.61334    -640.380E-03     249.360E-03    -117.870E-03    -131.490E-03    -116.415E-03     234.285E-03    -117.870E-03     143.876E-03     104.683E+06     91.6237E+06    -11.8671E+06    -11.7888E+06     104.604E+06     91.6237E+06     2.30855E+06         58.2887
             480     13.3413E-03     53.5233E-03         10.6103        -1.53108        -3.15004        -3.13608         10.5964        -1.53108     564.352E-03     241.931E-03    -117.891E-03    -124.040E-03    -114.892E-03     232.783E-03    -117.891E-03     113.798E-03     101.518E+06     90.8886E+06    -19.2473E+06    -19.1541E+06     101.425E+06     90.8886E+06     2.36628E+06         56.5189
             481     12.4531E-03     53.3762E-03         10.1197        -1.45726        -2.83007        -2.82842         10.1181        -1.45726     132.555E-03     241.193E-03    -117.868E-03    -123.325E-03    -114.499E-03     232.367E-03    -117.868E-03     111.368E-03     106.857E+06     85.7025E+06    -25.6821E+06    -25.6316E+06     106.807E+06     85.7025E+06     267.517E+03         54.7098
             482     11.5628E-03     53.2629E-03         9.68248        -1.39084        -2.55019        -2.54368         9.67597        -1.39084     538.407E-03     237.232E-03    -117.734E-03    -119.498E-03    -113.921E-03     231.696E-03    -117.775E-03     87.5946E-03     102.434E+06     60.8255E+06    -33.9248E+06    -33.8816E+06     102.391E+06     60.8255E+06    -327.779E+03         52.8760
             483     10.6722E-03     53.1737E-03         9.28846        -1.32857        -2.29208        -2.28241         9.27880        -1.32857     24.2594E-03     234.762E-03    -116.966E-03    -117.796E-03    -113.749E-03     231.468E-03    -117.719E-03     67.0200E-03     93.5025E+06     33.3395E+06    -42.4452E+06    -42.4015E+06     93.4588E+06     33.3395E+06     317.375E+03         51.0219
             484     9.78196E-03     53.1115E-03         9.00428        -1.27027        -2.12264        -2.04911         8.93076        -1.27027     901.555E-03     234.513E-03    -116.750E-03    -117.763E-03    -114.938E-03     232.679E-03    -117.740E-03     50.1097E-03     63.8337E+06     15.4743E+06    -49.9817E+06    -49.9361E+06     63.7881E+06     15.4743E+06     1.04648E+06         49.1879
             485     8.89221E-03     53.0678E-03         8.72668        -1.21641        -1.93817        -1.84254         8.63105        -1.21641     483.237E-03     234.939E-03    -116.998E-03    -117.941E-03    -116.178E-03     233.912E-03    -117.734E-03     37.5595E-03     11.6091E+06    -11.5043E+06    -56.8469E+06    -56.8052E+06     4.35863E+06    -4.29551E+06     1.09523E+06         47.4438
             486     8.00420E-03     53.0313E-03         8.48933        -1.16704        -1.79006        -1.66960         8.36887        -1.16704     631.480E-03     234.862E-03    -116.830E-03    -118.032E-03    -116.577E-03     234.329E-03    -117.752E-03     26.8642E-03    -14.5266E+06    -46.1142E+06    -78.7764E+06    -61.7479E+06    -63.1427E+06    -14.5266E+06     2.05256E+06         45.8557
             487     7.11623E-03     53.0068E-03         8.20463        -1.12211        -1.60207        -1.50691         8.10947        -1.12211         1.21048     234.695E-03    -116.795E-03    -117.900E-03    -116.627E-03     234.430E-03    -117.803E-03     18.9392E-03    -17.3815E+06    -63.4756E+06    -119.393E+06    -63.8189E+06    -119.050E+06    -17.3815E+06     1.61409E+06         44.4649
             488     6.22492E-03     52.9952E-03         7.88845        -1.08297        -1.36850        -1.35806         7.87800        -1.08297     241.923E-03     234.548E-03    -116.690E-03    -117.858E-03    -116.555E-03     234.413E-03    -117.858E-03     13.4169E-03    -24.2479E+06    -66.6215E+06    -160.018E+06    -66.7261E+06    -159.914E+06    -24.2479E+06    -56.7969E+03         43.2858
             489     5.33399E-03     52.9867E-03         7.79216        -1.05154        -1.32699        -1.22663         7.69180        -1.05154         1.67885     234.721E-03    -116.807E-03    -117.914E-03    -116.753E-03     234.666E-03    -117.914E-03     8.21355E-03    -35.6641E+06    -73.7400E+06    -186.182E+06    -73.7745E+06    -186.148E+06    -35.6641E+06     573.701E+03         42.3134
             490     4.44462E-03     52.9813E-03         7.67101        -1.02900        -1.23342        -1.12451         7.56209        -1.02900     746.388E-03     235.234E-03    -117.230E-03    -118.005E-03    -117.305E-03     235.220E-03    -117.916E-03     3.90396E-03    -51.8998E+06    -81.6359E+06    -202.682E+06    -81.6441E+06    -202.674E+06    -51.8998E+06     441.035E+03         41.5322
             491     3.55729E-03     52.9790E-03         7.56783        -1.01611        -1.13625        -1.04721         7.47879        -1.01611     572.065E-03     235.586E-03    -117.463E-03    -118.123E-03    -117.728E-03     235.583E-03    -117.855E-03     1.72968E-03    -65.9019E+06    -86.6041E+06    -213.725E+06    -86.6109E+06    -213.719E+06    -65.9019E+06     405.365E+03         40.9229
             492     2.66844E-03     52.9816E-03         7.52635        -1.00796        -1.10524        -1.03167         7.45278        -1.00796         1.15982     235.581E-03    -117.448E-03    -118.133E-03    -117.848E-03     235.579E-03    -117.732E-03     706.463E-06    -79.5652E+06    -91.9732E+06    -222.440E+06    -92.0577E+06    -222.355E+06    -79.5652E+06     277.041E+03         40.4676
             493     1.77895E-03     52.9839E-03         7.78007        -1.01057        -1.38098    -980.478E-03         7.37956        -1.01057         2.70580     235.297E-03    -117.435E-03    -117.863E-03    -117.699E-03     235.296E-03    -117.597E-03    -229.846E-06    -89.2024E+06    -96.5477E+06    -227.940E+06    -96.7247E+06    -227.763E+06    -89.2024E+06    -691.439E+03         40.1514
             494     888.906E-06     52.9897E-03         7.82519         1.46609        -3.92069        -3.49660         7.40110         1.46609         2.31975     235.017E-03    -117.074E-03    -117.943E-03    -117.336E-03     235.012E-03    -117.676E-03    -268.859E-06    -95.3428E+06    -99.8165E+06    -229.701E+06    -98.7896E+06    -229.575E+06    -96.4953E+06     85.6571E+03         39.9610
             495     15.1228E-03     52.6101E-03         11.7637        -1.95483        -3.90783        -3.83118         11.6870        -1.95483    -464.041E-03     246.828E-03    -116.052E-03    -130.776E-03    -117.057E-03     234.913E-03    -117.855E-03     103.520E-03     112.321E+06     92.0329E+06    -8.04996E+06    -8.01910E+06     112.290E+06     92.0329E+06     766.460E+03         59.9253
             496     14.2306E-03     52.3800E-03         11.2784        -1.88399        -3.56870        -3.49783         11.2075        -1.88399    -619.812E-03     250.830E-03    -117.852E-03    -132.978E-03    -117.786E-03     235.638E-03    -117.852E-03     143.908E-03     102.727E+06     91.2736E+06    -13.6733E+06    -13.6120E+06     102.666E+06     91.2736E+06     1.76219E+06         58.2824
             497     13.3448E-03     52.2603E-03         10.7757        -1.82668        -3.19996        -3.18401         10.7597        -1.82668     629.985E-03     241.474E-03    -117.854E-03    -123.620E-03    -114.438E-03     232.292E-03    -117.854E-03     113.209E-03     102.797E+06     93.8060E+06    -17.1070E+06    -17.0681E+06     102.758E+06     93.8060E+06     141.550E+03         56.5165
             498     12.4518E-03     52.1108E-03         10.3664        -1.77652        -2.92361        -2.92155         10.3643        -1.77652     182.409E-03     241.055E-03    -117.852E-03    -123.203E-03    -114.010E-03     231.861E-03    -117.852E-03     113.254E-03     106.171E+06     85.3407E+06    -24.2192E+06    -24.1964E+06     106.148E+06     85.3407E+06     489.806E+03         54.7076
             499     11.5635E-03     51.9959E-03         10.0206        -1.73161        -2.70536        -2.69811         10.0134        -1.73161     588.912E-03     237.286E-03    -117.723E-03    -119.563E-03    -114.037E-03     231.812E-03    -117.774E-03     87.0963E-03     101.502E+06     60.0394E+06    -33.9441E+06    -33.9013E+06     101.459E+06     60.0394E+06     2.20488E+06         52.8749
             500     10.6728E-03     51.9128E-03         9.70484        -1.68731        -2.50013        -2.49173         9.69644        -1.68731     89.5097E-03     234.869E-03    -117.125E-03    -117.744E-03    -113.843E-03     231.558E-03    -117.716E-03     67.3829E-03     92.3200E+06     33.8886E+06    -41.9721E+06    -41.9121E+06     92.2600E+06     33.8886E+06     2.05127E+06         51.0236
             501     9.78055E-03     51.8458E-03         9.48475        -1.64520        -2.36809        -2.29263         9.40929        -1.64520         1.02367     234.888E-03    -117.105E-03    -117.784E-03    -115.317E-03     233.049E-03    -117.732E-03     49.9815E-03     63.1743E+06     19.5148E+06    -48.4076E+06    -48.3195E+06     63.0862E+06     19.5148E+06     2.30629E+06         49.1930
             502     8.89331E-03     51.7995E-03         9.24914        -1.60626        -2.20587        -2.11295         9.15621        -1.60626     621.777E-03     235.014E-03    -117.103E-03    -117.911E-03    -116.334E-03     234.038E-03    -117.704E-03     36.7585E-03     13.0169E+06    -7.98847E+06    -55.1098E+06    -54.9469E+06     3.66479E+06     1.20067E+06     2.45778E+06         47.4515
             503     8.00540E-03     51.7655E-03         9.03805        -1.57129        -2.06665        -1.95400         8.92541        -1.57129     739.833E-03     234.244E-03    -116.352E-03    -117.893E-03    -115.953E-03     233.662E-03    -117.709E-03     28.3155E-03    -14.9987E+06    -45.4282E+06    -75.3111E+06    -59.4265E+06    -61.3128E+06    -14.9987E+06    -590.918E+03         45.8641
             504     7.11276E-03     51.7456E-03         8.80466        -1.54116        -1.90832        -1.81558         8.71193        -1.54116         1.29611     234.309E-03    -116.497E-03    -117.812E-03    -116.190E-03     234.002E-03    -117.812E-03     20.2159E-03    -21.6332E+06    -64.4316E+06    -119.211E+06    -64.6847E+06    -118.958E+06    -21.6332E+06    -2.54455E+06         44.4736
             505     6.22351E-03     51.7291E-03         8.54307        -1.51658        -1.71068        -1.69761         8.52999        -1.51658     382.497E-03     235.050E-03    -117.174E-03    -117.877E-03    -117.050E-03     234.926E-03    -117.877E-03     12.7066E-03    -27.6452E+06    -70.9421E+06    -163.492E+06    -71.0110E+06    -163.423E+06    -27.6452E+06     64.7370E+03         43.2952
             506     5.33679E-03     51.7218E-03         8.47655        -1.49904        -1.68866        -1.59514         8.38302        -1.49904         1.77290     235.252E-03    -117.403E-03    -117.849E-03    -117.350E-03     235.199E-03    -117.849E-03     8.27012E-03    -36.3697E+06    -77.0186E+06    -187.160E+06    -77.0482E+06    -187.131E+06    -36.3697E+06     1.68807E+06         42.3229
             507     4.44823E-03     51.7161E-03         8.39685        -1.48771        -1.62681        -1.54006         8.31009        -1.48771     966.458E-03     235.062E-03    -117.276E-03    -117.786E-03    -117.250E-03     235.036E-03    -117.786E-03     5.09506E-03    -51.2714E+06    -82.1338E+06    -201.803E+06    -82.1432E+06    -201.794E+06    -51.2714E+06     508.346E+03         41.5402
             508     3.55625E-03     51.7164E-03         8.30400        -1.48115        -1.52741        -1.47000         8.25041        -1.48497     643.935E-03     234.919E-03    -117.141E-03    -117.777E-03    -117.135E-03     234.913E-03    -117.777E-03     1.98776E-03    -66.9073E+06    -87.6858E+06    -215.430E+06    -87.6932E+06    -215.422E+06    -66.9073E+06    -136.665E+03         40.9286
             509     2.66591E-03     51.7159E-03         8.34812        -1.48064        -1.56704        -1.49643         8.28133        -1.48446         1.50012     235.037E-03    -117.179E-03    -117.858E-03    -117.175E-03     235.033E-03    -117.858E-03    -127.167E-06    -78.6576E+06    -92.6259E+06    -223.106E+06    -92.6664E+06    -223.065E+06    -78.6576E+06     696.834E+03         40.4721
             510     1.77689E-03     51.7203E-03         8.43316        -1.48308        -1.67468        -1.46237         8.22549        -1.48772         2.36117     235.524E-03    -117.526E-03    -117.998E-03    -117.523E-03     235.521E-03    -117.998E-03    -1.36485E-03    -88.1300E+06    -97.0760E+06    -228.065E+06    -97.1997E+06    -227.941E+06    -88.1300E+06     103.353E+03         40.1563
             511     888.744E-06     51.7230E-03         8.62613     180.926E-03        -3.53864        -3.16422         8.25636     176.287E-03         3.61544     236.078E-03    -117.637E-03    -118.440E-03    -118.303E-03     236.072E-03    -117.769E-03    -732.277E-06    -97.9821E+06    -103.579E+06    -232.583E+06    -103.106E+06    -232.434E+06    -98.6038E+06    -751.349E+03         39.9671
             512     15.1175E-03     51.3478E-03         11.7538        -2.25876        -3.82292        -3.73943         11.6703        -2.25876    -449.198E-03     247.242E-03    -116.437E-03    -130.805E-03    -117.767E-03     235.588E-03    -117.822E-03     103.800E-03     112.486E+06     93.3014E+06    -6.21891E+06    -6.18135E+06     112.449E+06     93.3014E+06     856.524E+03         59.9124
             513     14.2354E-03     51.1032E-03         11.4001        -2.21588        -3.58277        -3.50777         11.3251        -2.21588    -642.914E-03     249.487E-03    -117.812E-03    -131.675E-03    -116.969E-03     234.781E-03    -117.812E-03     141.051E-03     102.971E+06     92.2168E+06    -11.5126E+06    -11.4615E+06     102.920E+06     92.2168E+06    -1.24551E+06         58.2739
             514     13.3429E-03     51.0048E-03         11.0037        -2.18345        -3.29168        -3.27504         10.9871        -2.18345     628.468E-03     241.187E-03    -117.835E-03    -123.352E-03    -114.175E-03     232.010E-03    -117.835E-03     112.904E-03     99.9408E+06     92.2058E+06    -17.3910E+06    -17.2883E+06     99.8381E+06     92.2058E+06    -98.7712E+03         56.5105
             515     12.4522E-03     50.8407E-03         10.6842        -2.15580        -3.07542        -3.07319         10.6819        -2.15580     171.406E-03     241.133E-03    -117.842E-03    -123.291E-03    -113.997E-03     231.839E-03    -117.842E-03     113.765E-03     102.107E+06     82.3378E+06    -26.5101E+06    -26.4363E+06     102.033E+06     82.3378E+06     2.13946E+06         54.7033
             516     11.5618E-03     50.7336E-03         10.4178        -2.13153        -2.90402        -2.89708         10.4108        -2.13153     592.884E-03     236.946E-03    -117.780E-03    -119.166E-03    -113.833E-03     231.623E-03    -117.790E-03     85.7394E-03     100.727E+06     61.4076E+06    -34.1900E+06    -34.1654E+06     100.702E+06     61.4076E+06     1.46203E+06         52.8723
             517     10.6712E-03     50.6465E-03         10.1662        -2.10660        -2.72532        -2.71767         10.1586        -2.10660     92.3551E-03     235.900E-03    -117.689E-03    -118.211E-03    -114.930E-03     232.629E-03    -117.699E-03     67.2812E-03     93.2011E+06     37.9745E+06    -39.6436E+06    -39.6028E+06     93.1602E+06     37.9745E+06     1.55602E+06         51.0243
             518     9.78501E-03     50.5802E-03         10.0197        -2.08314        -2.63607        -2.56206         9.94572        -2.08314         1.06873     234.981E-03    -117.079E-03    -117.901E-03    -115.460E-03     233.113E-03    -117.653E-03     50.3225E-03      59.657E+06     21.8550E+06    -43.9237E+06    -43.8384E+06     59.5717E+06     21.8550E+06     2.31224E+06         49.1972
             519     8.89446E-03     50.5330E-03         9.85818        -2.06015        -2.52648        -2.43759         9.76929        -2.06015     680.923E-03     233.785E-03    -116.108E-03    -117.677E-03    -115.146E-03     232.823E-03    -117.677E-03     36.3580E-03     13.7754E+06    -2.15940E+06    -47.6270E+06    -47.4450E+06     5.33403E+06     6.09991E+06     1.64510E+06         47.4573
             520     8.00137E-03     50.5046E-03         9.69049        -2.03892        -2.41476        -2.31158         9.58731        -2.03892     772.911E-03     233.933E-03    -116.162E-03    -117.772E-03    -115.612E-03     233.383E-03    -117.772E-03     27.3163E-03    -8.34211E+06    -37.7682E+06    -72.8715E+06    -52.6337E+06    -58.0061E+06    -8.34211E+06    -559.438E+03         45.8714
             521     7.11408E-03     50.4777E-03         9.48890        -2.02289        -2.27208        -2.18554         9.40235        -2.02289         1.27573     234.565E-03    -116.670E-03    -117.896E-03    -116.378E-03     234.274E-03    -117.896E-03     19.7891E-03    -16.4874E+06    -59.9739E+06    -123.168E+06    -60.2849E+06    -122.857E+06    -16.4874E+06     194.397E+03         44.4832
             522     6.22634E-03     50.4650E-03         9.28368        -2.01301        -2.11214        -2.09667         9.26822        -2.01301     421.973E-03     235.081E-03    -117.129E-03    -117.952E-03    -116.975E-03     234.927E-03    -117.952E-03     14.2593E-03    -25.0819E+06    -68.8661E+06    -165.738E+06    -68.9404E+06    -165.664E+06    -25.0819E+06     956.493E+03         43.3065
             523     5.33456E-03     50.4564E-03         9.26593        -2.00837        -2.12041        -2.03791         9.18343        -2.00837         1.80770     235.562E-03    -117.542E-03    -118.020E-03    -117.580E-03     235.489E-03    -117.909E-03     9.49032E-03    -35.1378E+06    -74.0868E+06    -186.776E+06    -74.1082E+06    -186.755E+06    -35.1378E+06    -120.665E+03         42.3347
             524     4.44434E-03     50.4525E-03         9.22624        -2.00696        -2.08464        -2.01569         9.15729        -2.00696         1.13585     235.487E-03    -117.551E-03    -117.936E-03    -117.662E-03     235.462E-03    -117.800E-03     4.92608E-03    -48.8958E+06    -79.8354E+06    -201.791E+06    -79.8424E+06    -201.784E+06    -48.8958E+06     130.001E+03         41.5514
             525     3.55776E-03     50.4509E-03         9.16741        -2.00038        -2.01928        -1.98545         9.14277        -2.00958     599.962E-03     235.140E-03    -117.394E-03    -117.746E-03    -117.414E-03     235.135E-03    -117.721E-03     1.42753E-03    -62.8981E+06    -86.6324E+06    -217.505E+06    -86.6413E+06    -217.496E+06    -62.8981E+06     334.674E+03         40.9383
             526     2.66899E-03     50.4534E-03         9.26238        -2.00286        -2.10290        -2.01215         9.18083        -2.01206         1.83234     234.817E-03    -117.079E-03    -117.739E-03    -117.075E-03     234.814E-03    -117.739E-03    -576.887E-06    -77.5264E+06    -92.0654E+06    -224.501E+06    -92.0762E+06    -224.490E+06    -77.5264E+06    -114.566E+03         40.4800
             527     1.77844E-03     50.4548E-03         9.23886        -1.98065        -2.11436        -1.97380         9.14116        -2.02352         1.91957     235.189E-03    -117.285E-03    -117.904E-03    -117.282E-03     235.186E-03    -117.904E-03    -1.13600E-03    -88.8770E+06    -96.6441E+06    -228.888E+06    -96.6792E+06    -228.853E+06    -88.8770E+06    -81.7549E+03         40.1632
             528     888.676E-06     50.4577E-03         9.97679        -1.27654        -3.54139        -2.75155         9.22982        -1.31941         5.17181     235.996E-03    -117.497E-03    -118.500E-03    -117.939E-03     235.991E-03    -118.051E-03    -404.444E-06    -95.6600E+06    -100.491E+06    -233.092E+06    -100.613E+06    -232.969E+06    -95.6600E+06     514.024E+03         39.9738
             529     15.1302E-03     50.0680E-03         11.7505        -2.60412        -3.72375        -3.63602         11.6628        -2.60412    -450.313E-03     246.800E-03    -117.700E-03    -129.100E-03    -117.719E-03     235.419E-03    -117.700E-03     101.573E-03     114.513E+06     94.6568E+06    -5.58698E+06    -5.55320E+06     114.479E+06     94.6568E+06     1.14224E+06         59.8972
             530     14.2332E-03     49.8541E-03         11.5223        -2.58977        -3.57229        -3.49632         11.4463        -2.58977    -695.935E-03     247.172E-03    -117.741E-03    -129.431E-03    -114.646E-03     232.387E-03    -117.741E-03     141.376E-03     102.097E+06     90.3248E+06    -11.8358E+06    -11.7915E+06     102.052E+06     90.3248E+06    -959.883E+03         58.2616
             531     13.3417E-03     49.7284E-03         11.2574        -2.58359        -3.38776        -3.37241         11.2420        -2.58359     571.084E-03     241.579E-03    -117.822E-03    -123.757E-03    -114.540E-03     232.361E-03    -117.822E-03     113.894E-03     94.2249E+06     88.1289E+06    -20.9832E+06    -20.8588E+06     94.1004E+06     88.1289E+06    -499.041E+03         56.5018
             532     12.4548E-03     49.5837E-03         11.0455        -2.57853        -3.25187        -3.24984         11.0434        -2.57853     123.809E-03     241.202E-03    -117.804E-03    -123.398E-03    -114.429E-03     232.233E-03    -117.804E-03     112.052E-03     100.790E+06     82.1333E+06    -27.3984E+06    -27.3158E+06     100.707E+06     82.1333E+06     484.180E+03         54.6990
             533     11.5622E-03     49.4649E-03         10.8493        -2.57530        -3.11454        -3.10862         10.8433        -2.57530     559.205E-03     236.872E-03    -117.742E-03    -119.130E-03    -113.810E-03     231.552E-03    -117.742E-03     85.7225E-03     101.539E+06     64.7434E+06    -32.8084E+06    -32.8031E+06     101.534E+06     64.7434E+06    -228.380E+03         52.8705
             534     10.6747E-03     49.3829E-03         10.6759        -2.57082        -2.98155        -2.97501         10.6694        -2.57082     90.0140E-03     235.740E-03    -117.423E-03    -118.317E-03    -114.790E-03     232.437E-03    -117.647E-03     67.6015E-03     92.6531E+06     39.7115E+06    -38.4045E+06    -38.3965E+06     92.6451E+06     39.7115E+06    -658.160E+03         51.0246
             535     9.78321E-03     49.3111E-03         10.6057        -2.56541        -2.94692        -2.87605         10.5349        -2.56541         1.10732     234.194E-03    -116.349E-03    -117.845E-03    -114.674E-03     232.299E-03    -117.625E-03     50.5966E-03     55.4555E+06     19.2676E+06    -43.4974E+06    -43.4390E+06     55.3971E+06     19.2676E+06    -281.720E+03         49.2000
             536     8.89268E-03     49.2745E-03         10.5065        -2.55808        -2.88226        -2.79721         10.4215        -2.55808     697.855E-03     233.707E-03    -116.008E-03    -117.699E-03    -115.003E-03     232.702E-03    -117.699E-03     37.1829E-03     12.3729E+06    -369.850E+03    -47.4512E+06    -47.2798E+06     5.97826E+06     5.85343E+06     532.461E+03         47.4631
             537     8.00521E-03     49.2350E-03         10.4058        -2.54994        -2.82049        -2.72848         10.3138        -2.54994     744.652E-03     234.183E-03    -116.365E-03    -117.818E-03    -115.787E-03     233.605E-03    -117.818E-03     27.8869E-03    -5.07732E+06    -36.1189E+06    -78.2732E+06    -54.5592E+06    -59.8330E+06    -5.07732E+06     2.37137E+06         45.8807
             538     7.11399E-03     49.2171E-03         10.2588        -2.54407        -2.71481        -2.63766         10.1816        -2.54407         1.19866     234.279E-03    -116.334E-03    -117.945E-03    -116.040E-03     233.986E-03    -117.945E-03     19.9751E-03    -15.2578E+06    -60.9901E+06    -124.926E+06    -61.2137E+06    -124.702E+06    -15.2578E+06     2.95240E+06         44.4946
             539     6.22030E-03     49.1992E-03         10.0993        -2.54412        -2.57555        -2.55735         10.0811        -2.54412     440.951E-03     235.169E-03    -117.158E-03    -118.012E-03    -117.003E-03     235.015E-03    -118.012E-03     14.1234E-03    -24.2645E+06    -65.3750E+06    -162.563E+06    -65.4472E+06    -162.491E+06    -24.2645E+06     144.511E+03         43.3186
             540     5.33471E-03     49.1903E-03         10.1229        -2.54856        -2.60423        -2.53472         10.0534        -2.54856         1.79835     235.998E-03    -117.891E-03    -118.106E-03    -117.996E-03     235.943E-03    -117.948E-03     7.90791E-03    -35.4865E+06    -73.2747E+06    -188.856E+06    -73.2948E+06    -188.836E+06    -35.4865E+06    -878.626E+03         42.3470
             541     4.44828E-03     49.1864E-03         10.1237        -2.55130        -2.60646        -2.55307         10.0703        -2.55130         1.22302     235.523E-03    -117.539E-03    -117.984E-03    -117.710E-03     235.510E-03    -117.800E-03     3.83829E-03    -50.1254E+06    -80.2192E+06    -203.573E+06    -80.2333E+06    -203.558E+06    -50.1254E+06     485.045E+03         41.5635
             542     3.55712E-03     49.1870E-03         10.0761        -2.53421        -2.56458        -2.53611         10.0669        -2.55348     523.680E-03     235.058E-03    -117.295E-03    -117.764E-03    -117.315E-03     235.054E-03    -117.739E-03     2.06760E-03    -61.8493E+06    -85.3117E+06    -217.905E+06    -85.3328E+06    -217.884E+06    -61.8493E+06     405.881E+03         40.9498
             543     2.66708E-03     49.1890E-03         10.2101        -2.53624        -2.68115        -2.55266         10.1009        -2.55551         2.06310     235.201E-03    -117.333E-03    -117.868E-03    -117.502E-03     235.199E-03    -117.697E-03     360.679E-06    -75.4568E+06    -90.6808E+06    -224.877E+06    -90.6954E+06    -224.862E+06    -75.4568E+06    -209.315E+03         40.4906
             544     1.77799E-03     49.1921E-03         10.2014        -2.50099        -2.69291        -2.51864         10.0934        -2.56726         1.51836     235.254E-03    -117.308E-03    -117.946E-03    -117.635E-03     235.253E-03    -117.617E-03    -655.671E-06    -88.6065E+06    -95.9116E+06    -231.026E+06    -95.9590E+06    -230.979E+06    -88.6065E+06     339.350E+03         40.1724
             545     888.933E-06     49.1912E-03         11.5987        -2.86696        -3.71978        -2.22211         10.1673        -2.93324         6.43450     235.099E-03    -116.852E-03    -118.247E-03    -117.753E-03     235.096E-03    -117.343E-03    -1.59998E-03    -96.3262E+06    -99.5459E+06    -233.692E+06    -99.7336E+06    -233.505E+06    -96.3262E+06     197.141E+03         39.9817
             546     15.1246E-03     48.8153E-03         11.7219        -2.97293        -3.62254        -3.53023         11.6296        -2.97293    -483.266E-03     245.855E-03    -116.396E-03    -129.459E-03    -116.356E-03     234.054E-03    -117.698E-03     102.707E-03     110.168E+06     93.0699E+06    -5.52735E+06    -5.51685E+06     110.158E+06     93.0699E+06     618.659E+03         59.8740
             547     14.2338E-03     48.5864E-03         11.6267        -2.98676        -3.55817        -3.47999         11.5485        -2.98676    -765.647E-03     248.793E-03    -117.764E-03    -131.029E-03    -115.695E-03     233.459E-03    -117.764E-03     144.406E-03     102.629E+06     92.3228E+06    -9.60025E+06    -9.54882E+06     102.578E+06     92.3228E+06     1.81763E+06         58.2451
             548     13.3443E-03     48.4677E-03         11.4748        -3.00790        -3.44516        -3.43086         11.4605        -3.00790     493.482E-03     241.763E-03    -117.822E-03    -123.941E-03    -114.554E-03     232.377E-03    -117.822E-03     114.959E-03     96.4306E+06     91.5546E+06    -17.1139E+06    -17.0426E+06     96.3593E+06     91.5546E+06     81.8488E+03         56.4920
             549     12.4528E-03     48.3118E-03         11.3756        -3.02841        -3.37905        -3.37702         11.3735        -3.02841     49.1919E-03     241.347E-03    -117.814E-03    -123.532E-03    -114.367E-03     232.181E-03    -117.814E-03     113.306E-03     99.8415E+06     84.5696E+06    -26.0410E+06    -25.9792E+06     99.7797E+06     84.5696E+06    -2.25239E+06         54.6924
             550     11.5654E-03     48.2070E-03         11.2945        -3.04884        -3.31915        -3.31425         11.2896        -3.04884     516.893E-03     237.852E-03    -117.720E-03    -120.133E-03    -114.561E-03     232.280E-03    -117.720E-03     88.0272E-03     101.239E+06     65.6552E+06    -32.0452E+06    -32.0009E+06     101.195E+06     65.6552E+06    -1.93303E+06         52.8669
             551     10.6727E-03     48.1111E-03         11.2230        -3.06497        -3.26209        -3.25638         11.2173        -3.06497     78.9081E-03     234.971E-03    -116.730E-03    -118.240E-03    -114.014E-03     231.634E-03    -117.620E-03     67.5787E-03     89.5234E+06     37.6871E+06    -39.4140E+06    -39.4011E+06     89.5106E+06     37.6871E+06    -1.04356E+06         51.0243
             552     9.78355E-03     48.0544E-03         11.2275        -3.07699        -3.28517        -3.21802         11.1603        -3.07699         1.12614     233.538E-03    -115.888E-03    -117.651E-03    -114.024E-03     231.675E-03    -117.651E-03     50.3263E-03     56.0404E+06     16.3431E+06    -44.1569E+06    -44.0526E+06     55.9361E+06     16.3431E+06    -2.08421E+06         49.2030
             553     8.89275E-03     48.0037E-03         11.2057        -3.08400        -3.28826        -3.20841         11.1258        -3.08400     721.395E-03     233.899E-03    -116.150E-03    -117.749E-03    -115.096E-03     232.846E-03    -117.749E-03     37.9537E-03     11.2984E+06    -9.70156E+06    -48.1994E+06    -47.9165E+06     1.17382E+06     140.117E+03    -1.50702E+06         47.4703
             554     8.00171E-03     47.9746E-03         11.1544        -3.08713        -3.25910        -3.17927         11.0746        -3.08713     712.606E-03     234.547E-03    -116.583E-03    -117.964E-03    -116.075E-03     233.964E-03    -117.888E-03     28.1293E-03    -4.13310E+06    -39.3416E+06    -77.9365E+06    -51.7737E+06    -65.5044E+06    -4.13310E+06     3.11056E+06         45.8915
             555     7.11180E-03     47.9505E-03         11.0821        -3.08962        -3.20054        -3.13369         11.0153        -3.08962         1.13660     235.430E-03    -117.164E-03    -118.266E-03    -117.218E-03     235.157E-03    -117.939E-03     19.1417E-03    -9.56500E+06    -57.9506E+06    -121.882E+06    -58.2944E+06    -121.539E+06    -9.56500E+06     3.55661E+06         44.5074
             556     6.22728E-03     47.9351E-03         10.9993        -3.09318        -3.12168        -3.10430         10.9820        -3.09318     433.500E-03     235.314E-03    -117.181E-03    -118.133E-03    -117.318E-03     235.200E-03    -117.882E-03     12.3516E-03    -23.1530E+06    -66.8110E+06    -160.949E+06    -66.9234E+06    -160.837E+06    -23.1530E+06     1.73010E+06         43.3312
             557     5.33571E-03     47.9226E-03         11.0194        -3.09781        -3.14424        -3.08358         10.9587        -3.09781         1.78753     234.633E-03    -116.708E-03    -117.925E-03    -116.708E-03     234.586E-03    -117.877E-03     7.79957E-03    -36.6483E+06    -73.7937E+06    -189.861E+06    -73.8734E+06    -189.781E+06    -36.6483E+06     704.739E+03         42.3578
             558     4.44493E-03     47.9231E-03         11.0164        -3.10089        -3.14191        -3.09540         10.9703        -3.10127         1.29822     235.044E-03    -116.970E-03    -118.074E-03    -117.131E-03     235.027E-03    -117.896E-03     4.84837E-03    -52.6842E+06    -80.3304E+06    -206.050E+06    -80.3519E+06    -206.029E+06    -52.6842E+06     21.9827E+03         41.5734
             559     3.55628E-03     47.9231E-03         10.9822        -3.08851        -3.11124        -3.09187         10.9777        -3.10342     473.544E-03     235.607E-03    -117.496E-03    -118.111E-03    -117.745E-03     235.601E-03    -117.857E-03     2.25806E-03    -65.6182E+06    -85.3387E+06    -217.519E+06     -85.362E+06    -217.496E+06    -65.6182E+06     160.114E+03         40.9606
             560     2.66772E-03     47.9238E-03         11.1420        -3.08802        -3.26221        -3.11283         11.0072        -3.10255         2.25323     235.725E-03    -117.625E-03    -118.100E-03    -117.999E-03     235.724E-03    -117.725E-03    -132.652E-06    -74.9494E+06    -90.5250E+06    -225.787E+06    -90.5476E+06    -225.765E+06    -74.9494E+06     266.238E+03         40.5023
             561     1.77974E-03     47.9266E-03         11.1529        -3.07307        -3.27148        -3.09611         11.0055        -3.10111         1.28932     235.447E-03    -117.453E-03    -117.994E-03    -117.992E-03     235.445E-03    -117.453E-03    -788.078E-06    -83.5373E+06    -95.4516E+06    -232.760E+06    -95.4979E+06    -232.713E+06    -83.5373E+06     1.10535E+06         40.1841
             562     890.869E-06     47.9286E-03         13.1571        -3.65167        -4.65152        -1.56058         11.0551        -4.64069         7.33472     234.423E-03    -116.586E-03    -117.837E-03    -117.620E-03     234.422E-03    -116.802E-03    -859.236E-06    -96.5051E+06    -103.103E+06    -235.251E+06    -101.585E+06    -235.117E+06    -98.1575E+06    -262.247E+03         39.9931
             563     15.1201E-03     47.5473E-03         11.6719        -3.28888        -3.55036        -3.39438         11.5743        -3.34723    -555.589E-03     245.845E-03    -115.697E-03    -130.147E-03    -116.559E-03     234.369E-03    -117.810E-03     103.085E-03     107.876E+06     94.0157E+06    -5.03256E+06    -4.99261E+06     107.836E+06     94.0157E+06    -328.407E+03         59.8475
             564     14.2326E-03     47.3198E-03         11.6934        -3.32879        -3.57263        -3.42890         11.6111        -3.39015    -857.381E-03     250.079E-03    -117.827E-03    -132.252E-03    -117.433E-03     235.259E-03    -117.827E-03     142.589E-03     103.125E+06     96.7410E+06    -10.4228E+06    -10.3426E+06     103.006E+06     96.7799E+06     346.875E+03         58.2274
             565     13.3436E-03     47.2013E-03         11.6466        -3.34247        -3.55640        -3.44683         11.6334        -3.43879     413.108E-03     241.264E-03    -117.822E-03    -123.442E-03    -114.262E-03     232.085E-03    -117.822E-03     113.430E-03     100.197E+06     94.9649E+06    -16.7869E+06    -16.7377E+06     100.108E+06     95.0039E+06     752.476E+03         56.4810
             566     12.4515E-03     47.0526E-03         11.6637        -3.38990        -3.56694        -3.46889         11.6618        -3.48612    -60.6138E-03     241.138E-03    -117.809E-03    -123.329E-03    -114.137E-03     231.946E-03    -117.809E-03     113.489E-03     100.418E+06     83.1267E+06    -24.3820E+06    -24.3107E+06     100.346E+06     83.1267E+06    -2.17670E+06         54.6842
             567     11.5613E-03     46.9316E-03         11.7001        -3.43513        -3.59342        -3.49423         11.6970        -3.53116     401.461E-03     237.585E-03    -117.444E-03    -120.140E-03    -114.412E-03     232.129E-03    -117.717E-03     86.7176E-03     97.0984E+06     59.9324E+06    -32.3306E+06    -32.2494E+06     97.0173E+06     59.9324E+06    -3.02020E+06         52.8621
             568     10.6755E-03     46.8543E-03         11.7446        -3.48605        -3.61301        -3.52592         11.7393        -3.56781    -19.4874E-03     234.544E-03    -116.444E-03    -118.100E-03    -113.633E-03     231.298E-03    -117.665E-03     66.8392E-03     88.2333E+06     37.7359E+06    -38.7107E+06    -38.6960E+06     88.2187E+06     37.7359E+06    -1.06012E+06         51.0241
             569     9.78151E-03     46.7860E-03         11.8402        -3.56324        -3.65593        -3.56082         11.7792        -3.59727         1.04971     233.772E-03    -116.065E-03    -117.708E-03    -114.086E-03     231.794E-03    -117.708E-03     51.6984E-03     57.2940E+06     15.2854E+06    -46.4054E+06    -46.3241E+06     57.2127E+06     15.2854E+06    -1.28089E+06         49.2079
             570     8.89218E-03     46.7427E-03         11.8913        -3.60469        -3.69174        -3.60483         11.8192        -3.61952     687.363E-03     234.319E-03    -116.513E-03    -117.806E-03    -115.504E-03     233.282E-03    -117.778E-03     37.6280E-03     9.08412E+06    -19.8883E+06    -53.9409E+06    -53.7612E+06    -4.93713E+06    -6.04674E+06    -1.47332E+06         47.4799
             571     8.00220E-03     46.7080E-03         11.9161        -3.62157        -3.72275        -3.64158         11.8479        -3.63460     643.661E-03     235.217E-03    -117.270E-03    -117.947E-03    -116.826E-03     234.669E-03    -117.843E-03     27.3764E-03    -12.4596E+06    -51.2838E+06    -78.2410E+06    -59.4396E+06    -70.0852E+06    -12.4596E+06     341.554E+03         45.9039
             572     7.11599E-03     46.6828E-03         11.9183        -3.64394        -3.71285        -3.65731         11.8628        -3.64394         1.11082     235.553E-03    -117.380E-03    -118.173E-03    -117.434E-03     235.280E-03    -117.846E-03     19.3132E-03    -12.4280E+06    -62.0665E+06    -121.580E+06    -62.3987E+06    -121.248E+06    -12.4280E+06     2.16764E+06         44.5201
             573     6.22512E-03     46.6686E-03         11.8812        -3.64654        -3.67159        -3.65611         11.8686        -3.64934     405.903E-03     234.681E-03    -116.598E-03    -118.083E-03    -116.717E-03     234.548E-03    -117.831E-03     13.4071E-03    -20.3959E+06    -65.6019E+06    -162.163E+06    -65.7290E+06    -162.035E+06    -20.3959E+06     3.19219E+06         43.3422
             574     5.33559E-03     46.6637E-03         11.9152        -3.65107        -3.70055        -3.63924         11.8567        -3.65387         1.80367     234.215E-03    -116.318E-03    -117.896E-03    -116.262E-03     234.158E-03    -117.896E-03     8.53307E-03    -34.3619E+06    -70.8664E+06    -188.150E+06    -70.9820E+06    -188.034E+06    -34.3619E+06     2.24287E+06         42.3670
             575     4.44425E-03     46.6571E-03         11.8948        -3.64824        -3.69414        -3.63499         11.8469        -3.65948         1.36712     235.011E-03    -116.910E-03    -118.101E-03    -117.025E-03     234.995E-03    -117.970E-03     4.39335E-03    -51.6664E+06    -78.5736E+06    -205.731E+06    -78.6233E+06    -205.682E+06    -51.6664E+06     394.501E+03         41.5820
             576     3.55647E-03     46.6564E-03         11.8740        -3.65088        -3.67738        -3.65990         11.8684        -3.66277     528.015E-03     235.837E-03    -117.640E-03    -118.197E-03    -117.891E-03     235.834E-03    -117.942E-03     1.68579E-03    -65.6441E+06    -85.8936E+06    -218.776E+06    -85.9072E+06    -218.763E+06    -65.6441E+06     733.157E+03         40.9700
             577     2.66794E-03     46.6596E-03         12.0106        -3.65990        -3.80060        -3.67191         11.8826        -3.66054         2.33429     235.646E-03    -117.588E-03    -118.058E-03    -117.793E-03     235.646E-03    -117.854E-03     538.417E-06    -76.1952E+06    -91.2063E+06    -228.014E+06    -91.2256E+06    -227.994E+06    -76.1952E+06     1.34092E+06         40.5133
             578     1.77808E-03     46.6613E-03         12.0520        -3.65106        -3.81457        -3.67667         11.9141        -3.65106         1.31156     235.380E-03    -117.322E-03    -118.058E-03    -117.534E-03     235.380E-03    -117.846E-03     489.625E-06    -85.4366E+06    -95.6300E+06    -233.049E+06    -95.6445E+06    -233.035E+06    -85.4366E+06     454.852E+03         40.1968
             579     888.893E-06     46.6658E-03         14.1941        -3.13749        -6.44539    -880.074E-03         11.8986        -6.40731         7.47370     235.675E-03    -117.478E-03    -118.197E-03    -117.609E-03     235.675E-03    -118.066E-03     7.17356E-06    -93.8410E+06    -100.407E+06    -234.668E+06    -98.7760E+06    -234.647E+06    -95.4935E+06     949.434E+03         40.0071
             580     15.1224E-03     46.2768E-03         11.5898        -3.33538        -3.71266        -3.23995         11.4944        -3.71266    -568.540E-03     246.113E-03    -116.916E-03    -129.197E-03    -117.268E-03     235.024E-03    -117.755E-03     101.869E-03     107.944E+06     93.1178E+06    -7.40084E+06    -7.32256E+06     107.866E+06     93.1178E+06    -824.767E+03         59.8271
             581     14.2352E-03     46.0531E-03         11.7133        -3.42492        -3.78413        -3.34685         11.6352        -3.78413    -934.917E-03     248.244E-03    -117.760E-03    -130.485E-03    -116.226E-03     233.986E-03    -117.760E-03     139.248E-03     98.5126E+06     91.5126E+06    -14.0773E+06    -13.9817E+06     98.3781E+06     91.5516E+06    -3.05145E+06         58.2121
             582     13.3438E-03     45.9386E-03         11.7780        -3.46136        -3.85903        -3.45112         11.7678        -3.85903     290.431E-03     241.549E-03    -117.771E-03    -123.779E-03    -114.623E-03     232.393E-03    -117.771E-03     113.230E-03     99.4606E+06     91.2328E+06    -19.0307E+06    -18.9833E+06     99.3742E+06     91.2717E+06    -1.60311E+06         56.4705
             583     12.4551E-03     45.7866E-03         11.9163        -3.56346        -3.93052        -3.56179         11.9147        -3.93052    -191.833E-03     241.376E-03    -117.721E-03    -123.654E-03    -114.518E-03     232.239E-03    -117.721E-03     113.043E-03     102.394E+06     79.6493E+06    -23.9506E+06    -23.8701E+06     102.314E+06     79.6493E+06    -343.424E+03         54.6791
             584     11.5658E-03     45.6680E-03         12.0578        -3.66073        -3.99721        -3.65928         12.0564        -3.99721     228.646E-03     235.630E-03    -116.744E-03    -118.886E-03    -112.645E-03     230.323E-03    -117.678E-03     85.2563E-03     93.5872E+06     53.5308E+06    -33.5874E+06    -33.4903E+06     93.4901E+06     53.5308E+06    -1.25245E+06         52.8606
             585     10.6700E-03     45.5902E-03         12.2009        -3.75966        -4.05420        -3.75446         12.1957        -4.05420    -149.052E-03     234.358E-03    -116.511E-03    -117.847E-03    -113.327E-03     231.055E-03    -117.728E-03     67.3101E-03     84.7343E+06     34.4774E+06    -40.8366E+06    -40.8069E+06     84.7047E+06     34.4774E+06    -1.38189E+06         51.0262
             586     9.78222E-03     45.5223E-03         12.3834        -3.91571        -4.10253        -3.86290         12.3306        -4.10253     911.459E-03     234.927E-03    -117.043E-03    -117.884E-03    -115.207E-03     232.971E-03    -117.765E-03     51.4345E-03     56.3904E+06     18.2281E+06    -48.2274E+06    -48.1691E+06     56.3321E+06     18.2281E+06     1.04883E+06         49.2158
             587     8.89165E-03     45.4768E-03         12.5119        -4.02814        -4.14129        -3.96618         12.4499        -4.14129     608.501E-03     234.886E-03    -117.113E-03    -117.773E-03    -116.154E-03     233.899E-03    -117.745E-03     36.8326E-03     8.00578E+06    -17.7065E+06    -56.1648E+06    -56.0924E+06    -5.81682E+06    -3.95633E+06     1.21581E+06         47.4920
             588     8.00470E-03     45.4407E-03         12.6196        -4.09744        -4.19343        -4.06564         12.5644        -4.16997     532.114E-03     234.691E-03    -116.907E-03    -117.784E-03    -116.366E-03     234.122E-03    -117.756E-03     28.0330E-03    -17.2605E+06    -51.8260E+06    -78.0912E+06    -60.1508E+06    -69.7664E+06    -17.2605E+06    -1.91076E+06         45.9164
             589     7.11371E-03     45.4183E-03         12.6849        -4.15109        -4.21510        -4.13416         12.6421        -4.18920         1.04669     234.352E-03    -116.489E-03    -117.863E-03    -116.179E-03     234.042E-03    -117.863E-03     20.4136E-03    -19.0915E+06    -63.3248E+06    -126.378E+06    -63.6179E+06    -126.085E+06    -19.0915E+06    -2.60218E+06         44.5310
             590     6.22408E-03     45.4060E-03         12.6824        -4.15720        -4.20499        -4.15167         12.6745        -4.20255     350.903E-03     234.883E-03    -116.926E-03    -117.957E-03    -116.793E-03     234.750E-03    -117.957E-03     13.3076E-03    -22.5322E+06    -66.8056E+06    -165.657E+06    -66.9176E+06    -165.545E+06    -22.5322E+06     707.980E+03         43.3526
             591     5.33439E-03     45.3973E-03         12.7585        -4.19009        -4.25054        -4.16897         12.7004        -4.21355         1.80572     235.463E-03    -117.475E-03    -117.988E-03    -117.484E-03     235.413E-03    -117.929E-03     8.13523E-03    -34.5866E+06    -73.0888E+06    -187.194E+06    -73.1836E+06    -187.100E+06    -34.5866E+06     3.10195E+06         42.3779
             592     4.44731E-03     45.3938E-03         12.7613        -4.19392        -4.26057        -4.17985         12.7103        -4.22358         1.33431     235.043E-03    -117.098E-03    -117.945E-03    -117.142E-03     235.028E-03    -117.887E-03     4.25992E-03    -50.1689E+06    -79.4798E+06    -203.942E+06    -79.5549E+06    -203.867E+06    -50.1689E+06     2.66334E+06         41.5926
             593     3.55566E-03     45.3914E-03         12.7676        -4.19949        -4.26638        -4.22388         12.7548        -4.22916     662.693E-03     234.778E-03    -116.799E-03    -117.978E-03    -116.796E-03     234.775E-03    -117.978E-03     1.95826E-03    -64.6354E+06    -84.8952E+06    -220.222E+06    -84.9237E+06    -220.194E+06    -64.6354E+06     1.02052E+06         40.9797
             594     2.66627E-03     45.3941E-03         12.8557        -4.22720        -4.32875        -4.23943         12.7664        -4.22720         2.23040     235.576E-03    -117.376E-03    -118.200E-03    -117.450E-03     235.574E-03    -118.124E-03     457.120E-06    -77.1966E+06    -89.8908E+06    -229.014E+06    -89.9056E+06    -228.999E+06    -77.1966E+06     536.800E+03         40.5233
             595     1.77693E-03     45.3983E-03         12.8965        -4.20719        -4.35846        -4.27449         12.8125        -4.20719         1.58219     236.097E-03    -117.713E-03    -118.384E-03    -117.857E-03     236.095E-03    -118.238E-03    -773.107E-06    -87.4965E+06    -94.3405E+06    -232.790E+06    -94.3529E+06    -232.778E+06    -87.4965E+06     436.766E+03         40.2080
             596     887.049E-06     45.3984E-03         14.5393        -1.89926        -8.27814    -189.086E-03         12.7422        -8.19118         6.59226     236.560E-03    -118.031E-03    -118.529E-03    -118.099E-03     236.557E-03    -118.458E-03    -1.30632E-03    -92.8136E+06    -96.3313E+06    -235.926E+06    -96.0174E+06    -235.903E+06    -93.1510E+06    -348.385E+03         40.0188
             597     15.1284E-03     45.0145E-03         11.4710        -3.18772        -4.05772        -3.09394         11.3772        -4.05772    -567.208E-03     245.782E-03    -117.608E-03    -128.174E-03    -116.413E-03     234.057E-03    -117.644E-03     102.740E-03     108.351E+06     94.0809E+06    -4.97058E+06    -4.86722E+06     108.248E+06     94.0809E+06     39.1863E+03         59.8109
             598     14.2348E-03     44.7879E-03         11.7056        -3.35429        -4.15374        -3.28045         11.6317        -4.15374        -1.01031     247.901E-03    -117.706E-03    -130.195E-03    -115.195E-03     232.900E-03    -117.706E-03     141.991E-03     99.4722E+06     89.8739E+06    -11.5163E+06    -11.4093E+06     99.3651E+06     89.8739E+06    -1.18756E+06         58.1994
             599     13.3431E-03     44.6779E-03         11.8804        -3.46952        -4.25126        -3.46171         11.8726        -4.25126     151.372E-03     242.277E-03    -117.750E-03    -124.526E-03    -115.065E-03     232.816E-03    -117.750E-03     115.208E-03     97.0180E+06     88.6701E+06    -19.7854E+06    -19.7219E+06     96.9544E+06     88.6701E+06    -2.55067E+06         56.4635
             600     12.4555E-03     44.5117E-03         12.1117        -3.63335        -4.34361        -3.63106         12.1094        -4.34361    -313.393E-03     240.554E-03    -117.651E-03    -122.903E-03    -113.477E-03     231.223E-03    -117.747E-03     113.801E-03     97.4682E+06     78.7115E+06    -28.8156E+06    -28.6805E+06     97.3331E+06     78.7115E+06    -1.73196E+06         54.6772
             601     11.5623E-03     44.4164E-03         12.3478        -3.79622        -4.43004        -3.79542         12.3470        -4.43004     92.6007E-03     235.753E-03    -117.009E-03    -118.744E-03    -112.447E-03     230.212E-03    -117.766E-03     87.4507E-03     93.7017E+06     57.2820E+06    -33.8131E+06    -33.6481E+06     93.5366E+06     57.2820E+06    -228.865E+03         52.8621
             602     10.6718E-03     44.3206E-03         12.5758        -3.95791        -4.50680        -3.95247         12.5704        -4.50680    -252.915E-03     235.720E-03    -117.102E-03    -118.619E-03    -114.496E-03     232.259E-03    -117.763E-03     68.7896E-03     83.6844E+06     34.5263E+06    -40.4775E+06    -40.4206E+06     83.6275E+06     34.5263E+06     197.632E+03         51.0325
             603     9.78216E-03     44.2585E-03         12.8290        -4.15729        -4.57421        -4.11132         12.7830        -4.57421     790.122E-03     235.440E-03    -117.497E-03    -117.943E-03    -115.862E-03     233.590E-03    -117.728E-03     50.3897E-03     52.4631E+06     19.2256E+06    -45.8104E+06    -45.7482E+06     52.4009E+06     19.2256E+06     1.27800E+06         49.2264
             604     8.89496E-03     44.2081E-03         13.0511        -4.34502        -4.62952        -4.29187         12.9980        -4.62952     541.941E-03     234.419E-03    -116.722E-03    -117.697E-03    -115.709E-03     233.406E-03    -117.697E-03     37.2891E-03     7.33029E+06    -11.0764E+06    -49.7416E+06    -49.6284E+06    -3.98303E+06     123.680E+03     1.70985E+06         47.5038
             605     8.00331E-03     44.1790E-03         13.2075        -4.47942        -4.67228        -4.43589         13.1639        -4.67228     408.454E-03     233.896E-03    -116.130E-03    -117.765E-03    -115.560E-03     233.325E-03    -117.765E-03     27.8701E-03    -15.4079E+06    -45.8830E+06    -76.1719E+06    -55.2707E+06    -66.7842E+06    -15.4079E+06    -1.39635E+06         45.9279
             606     7.11237E-03     44.1541E-03         13.3116        -4.55106        -4.70624        -4.51908         13.2797        -4.70624     940.472E-03     234.378E-03    -116.456E-03    -117.922E-03    -116.171E-03     234.092E-03    -117.922E-03     19.5143E-03    -20.8291E+06    -61.8329E+06    -130.766E+06    -62.0561E+06    -130.543E+06    -20.8291E+06    -2.62529E+06         44.5427
             607     6.22335E-03     44.1401E-03         13.3792        -4.58474        -4.73503        -4.58073         13.3752        -4.73503     234.805E-03     235.238E-03    -117.243E-03    -117.995E-03    -117.123E-03     235.118E-03    -117.995E-03     12.6718E-03    -27.0531E+06    -70.7405E+06    -171.158E+06    -70.8665E+06    -171.032E+06    -27.0531E+06    -831.216E+03         43.3650
             608     5.33575E-03     44.1315E-03         13.5289        -4.69024        -4.77738        -4.64713         13.4674        -4.75893         1.80651     235.479E-03    -117.461E-03    -118.017E-03    -117.469E-03     235.428E-03    -117.958E-03     8.28518E-03    -35.9945E+06    -75.9712E+06    -188.784E+06    -76.0570E+06    -188.698E+06    -35.9945E+06     1.10495E+06         42.3907
             609     4.44571E-03     44.1282E-03         13.5883        -4.73939        -4.79625        -4.69825         13.5287        -4.77780         1.24505     235.209E-03    -117.201E-03    -118.008E-03    -117.276E-03     235.191E-03    -117.915E-03     4.62031E-03    -48.6817E+06    -78.8735E+06    -203.871E+06    -78.9150E+06     -203.83E+06    -48.6817E+06     1.76148E+06         41.6050
             610     3.55682E-03     44.1307E-03         13.6299        -4.75035        -4.83661        -4.76710         13.5988        -4.78876     815.251E-03     235.054E-03    -117.061E-03    -117.993E-03    -117.092E-03     235.051E-03    -117.959E-03     1.88724E-03    -61.9386E+06    -83.4457E+06    -219.895E+06    -83.4802E+06    -219.861E+06    -61.9386E+06     1.00650E+06         40.9908
             611     2.66539E-03     44.1280E-03         13.6732        -4.76617        -4.86170        -4.77216         13.6125        -4.79500         2.03707     235.544E-03    -117.435E-03    -118.110E-03    -117.508E-03     235.542E-03    -118.034E-03    -441.517E-06    -75.5240E+06    -88.8936E+06    -228.116E+06    -88.9156E+06    -228.094E+06    -75.5240E+06     567.049E+03         40.5327
             612     1.77811E-03     44.1312E-03         13.7905        -4.75153        -4.95404        -4.85083         13.7161        -4.78037         2.14367     236.137E-03    -117.895E-03    -118.243E-03    -118.146E-03     236.134E-03    -117.988E-03    -1.84724E-03    -85.9996E+06    -93.0832E+06    -233.213E+06    -93.1054E+06    -233.191E+06    -85.9996E+06    -720.750E+03         40.2156
             613     890.919E-06     44.1339E-03         14.5674    -292.705E-03        -10.1466     481.410E-03         13.6384        -9.99177         5.07244     235.789E-03    -117.162E-03    -118.628E-03    -118.569E-03     235.786E-03    -117.218E-03    -1.29349E-03    -93.3271E+06    -96.7155E+06    -239.759E+06    -96.4814E+06    -239.655E+06    -93.6645E+06    -65.8423E+03         40.0248
             614     15.1258E-03     43.7557E-03         11.3197        -3.04884        -4.36770        -2.95426         11.2251        -4.36770    -630.739E-03     246.016E-03    -116.733E-03    -129.284E-03    -116.077E-03     233.780E-03    -117.703E-03     103.409E-03     107.936E+06     95.4518E+06    -3.49769E+06    -3.41875E+06     107.857E+06     95.4518E+06    -122.917E+03         59.7949
             615     14.2307E-03     43.5269E-03         11.6514        -3.27824        -4.48450        -3.20352         11.5767        -4.48450        -1.10695     249.555E-03    -117.780E-03    -131.774E-03    -116.095E-03     233.876E-03    -117.780E-03     145.639E-03     102.369E+06     94.4697E+06    -9.89053E+06    -9.80570E+06     102.284E+06     94.4697E+06     2.03036E+06         58.1900
             616     13.3465E-03     43.4026E-03         11.9098        -3.44978        -4.60167        -3.44329         11.9033        -4.60167     43.5424E-03     241.585E-03    -117.834E-03    -123.751E-03    -114.280E-03     232.114E-03    -117.834E-03     115.152E-03     96.8018E+06     91.8524E+06    -18.2294E+06    -18.1654E+06     96.7378E+06     91.8524E+06    -339.548E+03         56.4606
             617     12.4515E-03     43.2608E-03         12.2336        -3.68361        -4.71231        -3.68031         12.2303        -4.71231    -419.651E-03     240.202E-03    -117.761E-03    -122.441E-03    -113.089E-03     230.945E-03    -117.856E-03     113.258E-03     95.1534E+06     77.7478E+06    -27.6307E+06    -27.5250E+06     95.0477E+06     77.7478E+06    -3.19824E+06         54.6778
             618     11.5591E-03     43.1438E-03         12.5395        -3.89444        -4.81668        -3.89363         12.5387        -4.81668    -49.2999E-03     237.675E-03    -117.715E-03    -119.960E-03    -114.490E-03     232.301E-03    -117.811E-03     86.2944E-03     91.7045E+06     56.0393E+06    -34.4644E+06    -34.3011E+06     91.5411E+06     56.0393E+06    -2.25162E+06         52.8670
             619     10.6723E-03     43.0589E-03         12.8442        -4.11246        -4.91144        -4.10599         12.8377        -4.91144    -382.214E-03     236.137E-03    -117.268E-03    -118.868E-03    -115.152E-03     232.856E-03    -117.704E-03     67.3013E-03      83.396E+06     35.7986E+06    -39.2282E+06    -39.1452E+06     83.3130E+06     35.7986E+06     117.510E+03         51.0412
             620     9.78395E-03     42.9877E-03         13.1699        -4.37052        -4.99549        -4.32883         13.1282        -4.99549     658.818E-03     234.084E-03    -116.296E-03    -117.788E-03    -114.503E-03     232.195E-03    -117.691E-03     50.7384E-03     49.0108E+06     18.1058E+06    -45.1383E+06    -45.1243E+06     48.9968E+06     18.1058E+06     224.868E+03         49.2352
             621     8.89228E-03     42.9484E-03         13.4506        -4.60232        -5.06642        -4.55427         13.4026        -5.06642     442.705E-03     233.925E-03    -116.165E-03    -117.760E-03    -115.088E-03     232.848E-03    -117.760E-03     38.5088E-03     4.78399E+06    -8.49581E+06    -49.3185E+06    -49.2288E+06    -4.11488E+06     313.409E+03     84.5263E+03         47.5124
             622     8.00254E-03     42.9116E-03         13.6572        -4.76232        -5.12524        -4.72756         13.6225        -5.12524     222.559E-03     234.773E-03    -116.929E-03    -117.844E-03    -116.330E-03     234.175E-03    -117.844E-03     28.4058E-03    -10.8851E+06    -42.2530E+06    -78.9585E+06    -53.9542E+06    -67.2574E+06    -10.8851E+06     1.24508E+06         45.9382
             623     7.11488E-03     42.8913E-03         13.8077        -4.85839        -5.17668        -4.83606         13.7854        -5.17668     819.446E-03     235.077E-03    -117.158E-03    -117.919E-03    -116.886E-03     234.805E-03    -117.919E-03     19.2357E-03    -15.5973E+06    -60.8579E+06    -132.090E+06    -61.0995E+06    -131.849E+06    -15.5973E+06     1.66127E+06         44.5550
             624     6.22467E-03     42.8738E-03         13.9393        -4.93171        -5.22440        -4.93036         13.9380        -5.22440     115.384E-03     234.814E-03    -116.859E-03    -117.955E-03    -116.738E-03     234.694E-03    -117.955E-03     12.5798E-03    -23.7869E+06    -67.5951E+06    -171.507E+06    -67.6428E+06    -171.459E+06    -23.7869E+06    -1.02741E+06         43.3780
             625     5.33417E-03     42.8675E-03         14.1720        -5.11415        -5.26772        -5.04640         14.1035        -5.26699         1.81412     234.833E-03    -116.836E-03    -117.997E-03    -116.791E-03     234.788E-03    -117.997E-03     7.77215E-03    -35.2557E+06    -73.3564E+06    -192.123E+06    -73.4496E+06    -192.030E+06    -35.2557E+06    -2.31880E+06         42.4034
             626     4.44465E-03     42.8639E-03         14.2956        -5.20929        -5.30432        -5.13616         14.2217        -5.30360         1.13038     235.603E-03    -117.428E-03    -118.175E-03    -117.614E-03     235.587E-03    -117.973E-03     4.39028E-03    -51.0751E+06    -78.7509E+06    -206.001E+06    -78.8034E+06    -205.948E+06    -51.0751E+06    -741.941E+03         41.6174
             627     3.55622E-03     42.8637E-03         14.4157        -5.25388        -5.39099        -5.24935         14.3510        -5.33081         1.02162     236.155E-03    -117.813E-03    -118.342E-03    -118.318E-03     236.152E-03    -117.835E-03     1.24572E-03    -61.4886E+06    -83.9833E+06    -220.341E+06    -83.9972E+06    -220.327E+06    -61.4886E+06     886.012E+03         41.0021
             628     2.66969E-03     42.8652E-03         14.4699        -5.28921        -5.41191        -5.28480         14.4053        -5.35174         1.78398     235.316E-03    -117.342E-03    -117.974E-03    -117.646E-03     235.314E-03    -117.668E-03    -419.463E-06     -71.389E+06    -87.6821E+06    -227.674E+06    -87.6983E+06    -227.657E+06     -71.389E+06     314.578E+03         40.5412
             629     1.77819E-03     42.8652E-03         14.7165        -5.29123        -5.61858        -5.38738         14.5478        -5.35375         2.78184     234.964E-03    -117.200E-03    -117.764E-03    -117.305E-03     234.961E-03    -117.656E-03    -1.20204E-03    -83.1877E+06    -91.9789E+06    -234.819E+06    -91.9992E+06    -234.798E+06    -83.1877E+06    -746.726E+03         40.2207
             630     887.896E-06     42.8700E-03         14.9302         1.00297        -12.0801         1.13408         14.5343        -11.8153         3.14786     235.348E-03    -116.647E-03    -118.701E-03    -117.984E-03     235.346E-03    -117.362E-03    -146.059E-06    -92.2292E+06    -96.8182E+06    -240.303E+06    -96.6366E+06    -240.211E+06    -92.5032E+06     1.15456E+06         40.0276
             631     15.1198E-03     42.4956E-03         11.0952        -2.87106        -4.62923        -2.78102         11.0051        -4.62923    -679.404E-03     247.282E-03    -116.310E-03    -130.972E-03    -117.591E-03     235.408E-03    -117.817E-03     103.171E-03     106.676E+06     93.6667E+06    -5.16372E+06    -5.12594E+06     106.638E+06     93.6667E+06    -1.26219E+06         59.7815
             632     14.2358E-03     42.2546E-03         11.5046        -3.17179        -4.76440        -3.09998         11.4328        -4.76440        -1.18327     249.835E-03    -117.832E-03    -132.003E-03    -116.856E-03     234.688E-03    -117.832E-03     143.538E-03     99.5116E+06     94.4273E+06    -11.0784E+06    -10.9308E+06     99.3640E+06     94.4273E+06    -864.109E+03         58.1847
             633     13.3393E-03     42.1453E-03         11.8456        -3.40743        -4.89750        -3.40258         11.8408        -4.89750    -73.4548E-03     240.152E-03    -117.889E-03    -122.262E-03    -113.223E-03     231.112E-03    -117.889E-03     112.128E-03     97.5211E+06     93.6651E+06    -15.8413E+06    -15.7023E+06     97.3821E+06     93.6651E+06    -521.538E+03         56.4601
             634     12.4502E-03     41.9916E-03         12.2462        -3.69549        -5.02358        -3.69055         12.2413        -5.02358    -549.397E-03     241.538E-03    -117.889E-03    -123.649E-03    -114.549E-03     232.438E-03    -117.889E-03     112.943E-03     98.1659E+06     80.6191E+06    -22.0692E+06    -21.9696E+06     98.0664E+06     80.6191E+06     956.684E+03         54.6800
             635     11.5657E-03     41.8788E-03         12.6224        -3.95825        -5.14312        -3.95624         12.6204        -5.14312    -204.612E-03     238.739E-03    -117.730E-03    -121.009E-03    -115.593E-03     233.323E-03    -117.730E-03     86.7841E-03     90.0242E+06     52.7826E+06    -33.4007E+06    -33.2596E+06     89.8830E+06     52.7826E+06     310.369E+03         52.8722
             636     10.6758E-03     41.7903E-03         12.9989        -4.22971        -5.25238        -4.22133         12.9905        -5.25238    -500.328E-03     235.082E-03    -116.592E-03    -118.490E-03    -114.275E-03     231.888E-03    -117.613E-03     66.3076E-03     79.4576E+06     31.2909E+06    -41.5269E+06    -41.4423E+06     79.3730E+06     31.2909E+06    -1.20315E+06         51.0473
             637     9.78205E-03     41.7299E-03         13.3804        -4.52666        -5.35069        -4.48804         13.3418        -5.35069     508.315E-03     233.165E-03    -115.471E-03    -117.694E-03    -113.596E-03     231.290E-03    -117.694E-03     50.4289E-03     48.1514E+06     18.7806E+06    -46.1532E+06    -46.1014E+06     48.0996E+06     18.7806E+06    -1.31162E+06         49.2412
             638     8.89068E-03     41.6807E-03         13.6995        -4.77799        -5.43757        -4.73447         13.6560        -5.43757     345.079E-03     233.944E-03    -116.129E-03    -117.815E-03    -115.086E-03     232.901E-03    -117.815E-03     37.7634E-03     6.18681E+06    -10.0458E+06    -51.4871E+06     -51.435E+06    -6.22252E+06     2.31149E+06    -1.21516E+06         47.5193
             639     8.00261E-03     41.6470E-03         13.9554        -4.96675        -5.51419        -4.93838         13.9270        -5.51419     53.6661E-03     234.912E-03    -117.015E-03    -117.897E-03    -116.440E-03     234.337E-03    -117.897E-03     28.0000E-03    -9.20178E+06    -44.6205E+06    -81.8433E+06    -55.6511E+06    -70.8127E+06    -9.20178E+06     304.261E+03         45.9464
             640     7.11307E-03     41.6234E-03         14.1747        -5.10650        -5.58369        -5.09124         14.1595        -5.58369     687.463E-03     235.123E-03    -117.153E-03    -117.970E-03    -116.861E-03     234.832E-03    -117.970E-03     19.9654E-03    -11.7550E+06    -58.3041E+06    -131.833E+06    -58.6016E+06    -131.535E+06    -11.7550E+06     1.31997E+06         44.5640
             641     6.22502E-03     41.6114E-03         14.3645        -5.21702        -5.64980        -5.21666         14.3641        -5.64980    -30.3371E-03     235.097E-03    -117.103E-03    -117.994E-03    -116.965E-03     234.960E-03    -117.994E-03     13.5195E-03    -19.6924E+06    -63.8008E+06    -169.777E+06    -63.8401E+06    -169.738E+06    -19.6924E+06     698.939E+03         43.3875
             642     5.33499E-03     41.6028E-03         14.6471        -5.43526        -5.71289        -5.35876         14.5706        -5.71289         1.79821     235.286E-03    -117.278E-03    -118.008E-03    -117.265E-03     235.238E-03    -117.973E-03     7.70304E-03    -33.7847E+06    -71.4527E+06    -192.735E+06    -71.5322E+06    -192.656E+06    -33.7847E+06    -1.23455E+06         42.4134
             643     4.44568E-03     41.5992E-03         14.8493        -5.58841        -5.77122        -5.49698         14.7578        -5.77122     982.383E-03     235.638E-03    -117.537E-03    -118.100E-03    -117.728E-03     235.625E-03    -117.897E-03     4.13541E-03    -49.4508E+06    -79.4843E+06    -209.772E+06    -79.5338E+06    -209.722E+06    -49.4508E+06    -1.39039E+06         41.6275
             644     3.55765E-03     41.5959E-03         15.0620        -5.70744        -5.88015        -5.66732         14.9595        -5.81782         1.13727     235.868E-03    -117.580E-03    -118.289E-03    -118.149E-03     235.864E-03    -117.715E-03     1.40399E-03    -65.1940E+06    -84.8060E+06    -221.288E+06    -84.8314E+06    -221.263E+06    -65.1940E+06    -690.057E+03         41.0118
             645     2.66800E-03     41.6014E-03         15.1910        -5.79899        -5.91218        -5.76659         15.0963        -5.84986         1.45232     235.420E-03    -117.266E-03    -118.154E-03    -117.942E-03     235.419E-03    -117.477E-03    -654.059E-06    -76.0610E+06    -88.2487E+06    -229.217E+06    -88.2752E+06    -229.190E+06    -76.0610E+06    -1.15302E+06         40.5500
             646     1.77921E-03     41.6035E-03         15.6064        -5.80638        -6.26935        -5.87940         15.2674        -5.85725         3.34222     234.580E-03    -116.934E-03    -117.646E-03    -117.203E-03     234.578E-03    -117.375E-03    -1.01946E-03    -81.6316E+06    -92.3152E+06    -237.401E+06    -92.3345E+06    -237.381E+06    -81.6316E+06     591.691E+03         40.2280
             647     890.106E-06     41.6037E-03         16.1545         1.25662        -13.8682         1.74054         15.2584        -13.4561         1.32442     234.669E-03    -116.752E-03    -117.918E-03    -116.745E-03     234.663E-03    -117.918E-03    -1.37049E-03    -91.4573E+06    -97.3546E+06    -239.611E+06    -96.6089E+06    -239.581E+06    -92.2330E+06     189.096E+03         40.0339
             648     15.1225E-03     41.2150E-03         10.7921        -2.68539        -4.83373        -2.60124         10.7080        -4.83373    -691.905E-03     246.879E-03    -117.121E-03    -129.758E-03    -117.709E-03     235.522E-03    -117.813E-03     102.507E-03     106.938E+06     92.5939E+06    -7.60252E+06    -7.51347E+06     106.849E+06     92.5939E+06    -1.93760E+06         59.7703
             649     14.2331E-03     40.9953E-03         11.2754        -3.04871        -4.98308        -2.98123         11.2079        -4.98308        -1.22727     248.988E-03    -117.793E-03    -131.195E-03    -116.698E-03     234.491E-03    -117.793E-03     140.315E-03     96.6031E+06     89.3190E+06    -14.8975E+06    -14.6887E+06     96.3944E+06     89.3190E+06    -4.59254E+06         58.1788
             650     13.3451E-03     40.8809E-03         11.6892        -3.34418        -5.12800        -3.34032         11.6853        -5.12800    -179.081E-03     240.836E-03    -117.807E-03    -123.028E-03    -114.283E-03     232.091E-03    -117.807E-03     110.634E-03     93.1581E+06     88.5148E+06    -21.1249E+06    -20.9940E+06     93.0272E+06     88.5148E+06    -2.40586E+06         56.4592
             651     12.4534E-03     40.7280E-03         12.1405        -3.66470        -5.26643        -3.65840         12.1342        -5.26643    -630.276E-03     241.044E-03    -117.810E-03    -123.234E-03    -114.185E-03     231.995E-03    -117.810E-03     112.827E-03     94.7404E+06     82.1699E+06    -27.0638E+06    -26.9765E+06     94.6531E+06     82.1699E+06     1.95651E+06         54.6812
             652     11.5611E-03     40.6073E-03         12.5858        -3.97599        -5.39848        -3.97285         12.5827        -5.39848    -312.803E-03     237.055E-03    -117.197E-03    -119.859E-03    -113.721E-03     231.471E-03    -117.750E-03     87.5773E-03     90.6431E+06     59.9821E+06    -32.6837E+06    -32.5938E+06     90.5531E+06     59.9821E+06     2.45078E+06         52.8723
             653     10.6727E-03     40.5294E-03         13.0169        -4.29042        -5.52033        -4.28061         13.0071        -5.52033    -582.997E-03     235.078E-03    -116.561E-03    -118.517E-03    -114.078E-03     231.778E-03    -117.700E-03     67.4781E-03     80.4314E+06     34.7527E+06    -40.3367E+06    -40.2872E+06     80.3820E+06     34.7527E+06     267.390E+03         51.0478
             654     9.78344E-03     40.4654E-03         13.4372        -4.60723        -5.63240        -4.56952         13.3995        -5.63240     424.747E-03     234.983E-03    -116.681E-03    -118.301E-03    -115.333E-03     233.022E-03    -117.689E-03     51.5958E-03     49.0984E+06     16.6373E+06    -47.1680E+06    -47.1094E+06     49.0399E+06     16.6373E+06    -1.13542E+06         49.2458
             655     8.89440E-03     40.4167E-03         13.8106        -4.89075        -5.73463        -4.84848         13.7683        -5.73463     275.113E-03     234.286E-03    -116.336E-03    -117.951E-03    -115.589E-03     233.294E-03    -117.706E-03     36.8239E-03     8.26083E+06    -15.1309E+06    -52.2981E+06    -52.1135E+06    -7.58468E+06     530.047E+03    -1.50872E+06         47.5271
             656     8.00272E-03     40.3818E-03         14.1267        -5.12326        -5.82675        -5.09807         14.1016        -5.82675    -89.5048E-03     233.740E-03    -115.936E-03    -117.804E-03    -115.411E-03     233.215E-03    -117.804E-03     26.7097E-03    -12.2613E+06    -48.6640E+06    -80.5703E+06    -56.7829E+06    -72.4513E+06    -12.2613E+06    -2.33493E+06         45.9538
             657     7.11283E-03     40.3592E-03         14.4032        -5.30359        -5.91117        -5.29250         14.3922        -5.91117     552.958E-03     234.458E-03    -116.499E-03    -117.959E-03    -116.240E-03     234.199E-03    -117.959E-03     18.6314E-03    -17.8686E+06    -61.0745E+06    -134.851E+06    -61.2344E+06    -134.692E+06    -17.8686E+06    -2.15573E+06         44.5698
             658     6.22224E-03     40.3453E-03         14.6486        -5.45887        -5.99132        -5.45830         14.6480        -5.99132    -196.966E-03     235.341E-03    -117.315E-03    -118.026E-03    -117.198E-03     235.224E-03    -118.026E-03     12.5005E-03    -21.5655E+06    -65.4471E+06    -171.298E+06    -65.5083E+06    -171.237E+06    -21.5655E+06     269.190E+03         43.3931
             659     5.33516E-03     40.3369E-03         14.9687        -5.69758        -6.06888        -5.61914         14.8903        -6.06888         1.70310     235.786E-03    -117.785E-03    -118.001E-03    -117.768E-03     235.734E-03    -117.966E-03     8.17468E-03    -30.7617E+06    -71.6316E+06    -191.548E+06    -71.6559E+06    -191.524E+06    -30.7617E+06     933.832E+03         42.4196
             660     4.44722E-03     40.3339E-03         15.2356        -5.90260        -6.14124        -5.80242         15.1355        -6.14124     838.474E-03     235.564E-03    -117.690E-03    -117.874E-03    -117.710E-03     235.545E-03    -117.835E-03     4.79283E-03    -48.0677E+06    -79.4050E+06    -211.290E+06    -79.4120E+06    -211.283E+06    -48.0677E+06     170.212E+03         41.6344
             661     3.55642E-03     40.3327E-03         15.5225        -6.08354        -6.26358        -6.02200         15.3946        -6.19723         1.18492     235.066E-03    -117.229E-03    -117.837E-03    -117.329E-03     235.062E-03    -117.733E-03     1.85170E-03    -68.0362E+06    -86.2761E+06    -222.638E+06    -86.3092E+06    -222.605E+06    -68.0362E+06    -283.621E+03         41.0200
             662     2.66838E-03     40.3345E-03         15.6980        -6.20685        -6.29968        -6.14511         15.5699        -6.23332         1.18101     235.360E-03    -117.291E-03    -118.070E-03    -117.699E-03     235.358E-03    -117.659E-03     94.1179E-06    -82.7342E+06    -92.1405E+06    -231.716E+06     -92.183E+06    -231.674E+06    -82.7342E+06     98.0366E+03         40.5601
             663     1.78017E-03     40.3409E-03         16.2470        -6.21832        -6.77845        -6.25441         15.7495        -6.24480         3.71921     235.463E-03    -117.367E-03    -118.097E-03    -118.017E-03     235.461E-03    -117.445E-03     64.8846E-06    -88.9970E+06    -95.6585E+06    -239.708E+06    -95.6975E+06    -239.668E+06    -88.9970E+06     334.508E+03         40.2403
             664     889.280E-06     40.3414E-03         17.7379     854.386E-03        -15.3108         2.29144         15.7672        -14.7772    -68.4419E-03     234.484E-03    -116.729E-03    -117.755E-03    -117.299E-03     234.479E-03    -117.179E-03    -652.321E-06    -95.0744E+06    -99.3374E+06    -239.375E+06    -98.7257E+06    -239.334E+06    -95.7272E+06    -521.279E+03         40.0476
             665     15.1252E-03     39.9540E-03         10.4294        -2.51818        -4.97292        -2.43977         10.3510        -4.97292    -705.867E-03     245.220E-03    -117.272E-03    -127.948E-03    -116.189E-03     233.903E-03    -117.714E-03     101.754E-03     107.062E+06     92.6768E+06    -5.91963E+06    -5.82327E+06     106.966E+06     92.6768E+06    -391.102E+03         59.7566
             666     14.2331E-03     39.7286E-03         10.9653        -2.90817        -5.13184        -2.84434         10.9014        -5.13184        -1.25919     248.238E-03    -117.773E-03    -130.465E-03    -115.718E-03     233.491E-03    -117.773E-03     141.632E-03     98.5834E+06     90.8490E+06    -13.4016E+06    -13.2742E+06     98.4560E+06     90.8490E+06    -1.49554E+06         58.1683
             667     13.3441E-03     39.6128E-03         11.4124        -3.22126        -5.28614        -3.21777         11.4089        -5.28614    -269.765E-03     242.543E-03    -117.780E-03    -124.764E-03    -115.721E-03     233.500E-03    -117.780E-03     113.242E-03     92.0257E+06     87.6602E+06    -22.6768E+06    -22.5984E+06     90.3693E+06     89.2381E+06    -2.14969E+06         56.4539
             668     12.4562E-03     39.4660E-03         11.9252        -3.59192        -5.43425        -3.58451         11.9177        -5.43425    -676.167E-03     240.660E-03    -117.745E-03    -122.915E-03    -113.800E-03     231.546E-03    -117.745E-03     113.211E-03     90.8641E+06     80.1211E+06    -28.9650E+06    -28.9189E+06     89.2401E+06     81.6990E+06    -1.11686E+06         54.6801
             669     11.5644E-03     39.3458E-03         12.4116        -3.93597        -5.57602        -3.93190         12.4075        -5.57602    -386.176E-03     235.373E-03    -116.962E-03    -118.410E-03    -111.995E-03     229.763E-03    -117.768E-03     87.2204E-03     88.6418E+06     60.9623E+06    -34.0505E+06    -34.0472E+06     88.6385E+06     60.9623E+06     210.907E+03         52.8717
             670     10.6694E-03     39.2656E-03         12.8790        -4.26992        -5.70978        -4.25908         12.8682        -5.70978    -643.767E-03     235.472E-03    -116.973E-03    -118.499E-03    -114.441E-03     232.220E-03    -117.779E-03     67.0476E-03     81.7365E+06     38.4777E+06    -39.6113E+06    -39.5954E+06     81.7206E+06     38.4777E+06     962.649E+03         51.0485
             671     9.78170E-03     39.1942E-03         13.3555        -4.63062        -5.83452        -4.59414         13.3190        -5.83452     354.819E-03     236.152E-03    -117.508E-03    -118.644E-03    -116.586E-03     234.264E-03    -117.678E-03     50.5597E-03     51.7475E+06     17.5390E+06    -46.4591E+06    -46.4074E+06     51.6958E+06     17.5390E+06    -147.440E+03         49.2504
             672     8.89487E-03     39.1531E-03         13.7841        -4.95858        -5.94852        -4.91738         13.7429        -5.94852     201.531E-03     234.474E-03    -116.633E-03    -117.841E-03    -115.928E-03     233.525E-03    -117.596E-03     36.2146E-03     7.24822E+06    -18.7351E+06    -52.6278E+06    -52.4238E+06    -8.36680E+06    -3.32407E+06    -1.73683E+06         47.5343
             673     8.00519E-03     39.1190E-03         14.1591        -5.23233        -6.05159        -5.20848         14.1353        -6.05159    -196.571E-03     233.619E-03    -115.940E-03    -117.678E-03    -115.386E-03     233.064E-03    -117.678E-03     27.4220E-03    -14.2771E+06    -51.4420E+06    -79.1396E+06    -57.3432E+06    -73.2383E+06    -14.2771E+06    -1.13903E+06         45.9609
             674     7.11404E-03     39.0952E-03         14.4834        -5.44824        -6.14616        -5.43925         14.4744        -6.14616     415.064E-03     234.103E-03    -116.257E-03    -117.846E-03    -115.988E-03     233.834E-03    -117.846E-03     18.9176E-03    -19.1094E+06    -63.6878E+06    -136.854E+06    -63.7553E+06    -136.786E+06    -19.1094E+06    -1.31494E+06         44.5759
             675     6.22579E-03     39.0797E-03         14.7804        -5.64624        -6.23485        -5.64499         14.7791        -6.23485    -315.361E-03     234.779E-03    -116.854E-03    -117.926E-03    -116.738E-03     234.664E-03    -117.926E-03     12.3755E-03    -28.1331E+06    -70.2425E+06    -174.257E+06    -70.3384E+06    -174.162E+06    -28.1331E+06    -1.99990E+06         43.3983
             676     5.33461E-03     39.0722E-03         15.1373        -5.92323        -6.31732        -5.84980         15.0638        -6.31732         1.60202     235.134E-03    -117.204E-03    -117.930E-03    -117.155E-03     235.085E-03    -117.930E-03     7.97560E-03    -39.2809E+06    -75.8054E+06    -193.819E+06    -75.8737E+06    -193.751E+06    -39.2809E+06    -1.25232E+06         42.4246
             677     4.44509E-03     39.0676E-03         15.4225        -6.13875        -6.39174        -6.04328         15.3271        -6.39174     770.314E-03     235.185E-03    -117.246E-03    -117.940E-03    -117.231E-03     235.166E-03    -117.936E-03     4.86447E-03    -50.3333E+06    -79.5301E+06    -213.239E+06    -79.5452E+06    -213.224E+06    -50.3333E+06     597.766E+03         41.6405
             678     3.55793E-03     39.0694E-03         15.7186        -6.33199        -6.50566        -6.25473         15.5869        -6.45122         1.21535     235.147E-03    -117.174E-03    -117.973E-03    -117.172E-03     235.141E-03    -117.970E-03     2.61932E-03    -63.8796E+06    -84.3499E+06    -223.695E+06    -84.3691E+06    -223.676E+06    -63.8796E+06     1.58865E+06         41.0283
             679     2.66548E-03     39.0716E-03         15.9460        -6.47855        -6.56008        -6.41392         15.8091        -6.48784         1.08964     235.595E-03    -117.524E-03    -118.071E-03    -117.559E-03     235.591E-03    -118.032E-03     653.098E-06    -76.4860E+06    -89.3377E+06    -231.921E+06    -89.3610E+06    -231.897E+06    -76.4860E+06     1.42284E+06         40.5715
             680     1.77607E-03     39.0728E-03         16.5023        -6.49276        -7.05582        -6.49274         15.9485        -6.50205         3.86372     236.131E-03    -117.774E-03    -118.357E-03    -118.151E-03     236.127E-03    -117.977E-03    -699.953E-06    -86.9637E+06    -94.3801E+06    -239.480E+06    -94.4393E+06    -239.421E+06    -86.9637E+06     863.832E+03         40.2553
             681     890.738E-06     39.0787E-03         18.5834     798.577E-03        -16.3740         2.83842         16.0076        -15.8380    -714.900E-03     235.727E-03    -117.477E-03    -118.250E-03    -118.146E-03     235.724E-03    -117.578E-03    -650.459E-06    -95.5324E+06    -98.9692E+06    -240.158E+06    -98.6660E+06    -240.102E+06    -95.8911E+06     119.823E+03         40.0655
             682     15.1263E-03     38.6920E-03         9.98784        -2.32334        -5.03906        -2.24477         9.90927        -5.03906    -727.412E-03     245.548E-03    -117.133E-03    -128.415E-03    -116.404E-03     234.087E-03    -117.683E-03     101.867E-03     107.379E+06     93.6329E+06    -5.01682E+06    -4.98480E+06     107.347E+06     93.6329E+06     3.56912E+03         59.7390
             683     14.2330E-03     38.4680E-03         10.5464        -2.72768        -5.20461        -2.66259         10.4813        -5.20461        -1.30372     248.110E-03    -117.767E-03    -130.344E-03    -115.345E-03     233.112E-03    -117.767E-03     142.940E-03     99.3217E+06     93.3280E+06    -9.89921E+06    -9.86269E+06     98.1660E+06     94.4472E+06     917.095E+03         58.1564
             684     13.3420E-03     38.3426E-03         11.0375        -3.07359        -5.36494        -3.06989         11.0338        -5.36494    -341.450E-03     241.442E-03    -117.828E-03    -123.615E-03    -114.449E-03     232.277E-03    -117.828E-03     113.691E-03     92.4076E+06     89.2586E+06    -16.7092E+06    -16.6587E+06     89.6601E+06     91.9556E+06    -394.185E+03         56.4470
             685     12.4544E-03     38.1990E-03         11.5739        -3.45865        -5.51957        -3.44907         11.5643        -5.51957    -751.665E-03     240.928E-03    -117.822E-03    -123.106E-03    -114.051E-03     231.873E-03    -117.822E-03     112.773E-03     89.0886E+06     80.4600E+06    -24.7080E+06    -24.6459E+06     87.4486E+06     82.0379E+06    -1.76590E+06         54.6773
             686     11.5613E-03     38.0893E-03         12.0832        -3.81510        -5.66922        -3.80913         12.0773        -5.66922    -468.390E-03     237.501E-03    -117.503E-03    -119.998E-03    -114.072E-03     231.827E-03    -117.755E-03     88.5566E-03     87.4254E+06     60.5995E+06    -32.6308E+06    -32.6045E+06     87.3991E+06     60.5995E+06    -484.928E+03         52.8737
             687     10.6735E-03     37.9959E-03         12.6042        -4.19924        -5.81220        -4.18682         12.5917        -5.81220    -695.883E-03     236.018E-03    -117.114E-03    -118.904E-03    -115.097E-03     232.747E-03    -117.650E-03     67.0687E-03     80.2045E+06     36.8346E+06    -39.5671E+06    -39.5523E+06     80.1897E+06     36.8346E+06     369.189E+03         51.0543
             688     9.78533E-03     37.9288E-03         13.1278        -4.59892        -5.94592        -4.56253         13.0914        -5.94592     280.947E-03     234.379E-03    -116.419E-03    -117.961E-03    -115.026E-03     232.634E-03    -117.608E-03     48.6434E-03     50.7497E+06     20.7735E+06    -45.6051E+06    -45.5281E+06     50.6726E+06     20.7735E+06     45.8187E+03         49.2566
             689     8.89383E-03     37.8872E-03         13.6071        -4.96256        -6.06862        -4.92152         13.5660        -6.06862     131.485E-03     233.985E-03    -116.360E-03    -117.625E-03    -115.407E-03     233.032E-03    -117.625E-03     36.2379E-03     7.52041E+06    -15.9099E+06    -52.5114E+06    -52.4333E+06    -9.32165E+06     854.039E+03    -73.5289E+03         47.5405
             690     8.00413E-03     37.8557E-03         14.0273        -5.27264        -6.17966        -5.24851         14.0032        -6.17966    -273.600E-03     234.419E-03    -116.746E-03    -117.673E-03    -116.168E-03     233.841E-03    -117.673E-03     28.1602E-03    -13.6041E+06    -52.3111E+06    -80.9264E+06    -58.0908E+06    -75.1467E+06    -13.6041E+06     134.979E+03         45.9686
             691     7.11525E-03     37.8306E-03         14.3888        -5.51645        -6.28128        -5.50801         14.3804        -6.28128     299.902E-03     234.166E-03    -116.383E-03    -117.783E-03    -116.088E-03     233.870E-03    -117.783E-03     19.9411E-03    -17.6552E+06    -61.9706E+06    -136.164E+06    -61.9751E+06    -136.160E+06    -17.6552E+06     177.016E+03         44.5845
             692     6.22369E-03     37.8164E-03         14.7320        -5.75754        -6.37497        -5.75582         14.7303        -6.37497    -352.728E-03     234.210E-03    -116.333E-03    -117.877E-03    -116.197E-03     234.074E-03    -117.877E-03     13.6071E-03    -29.4078E+06    -69.0048E+06    -174.828E+06    -69.0677E+06    -174.765E+06    -29.4078E+06    -1.11488E+06         43.4064
             693     5.33568E-03     37.8069E-03         15.1141        -6.06032        -6.45853        -5.99488         15.0487        -6.45853         1.54353     234.600E-03    -116.639E-03    -117.961E-03    -116.578E-03     234.539E-03    -117.961E-03     8.86226E-03    -43.8630E+06    -76.3212E+06    -196.786E+06    -76.3902E+06    -196.717E+06    -43.8630E+06    -1.74795E+06         42.4326
             694     4.44570E-03     37.8048E-03         15.4154        -6.29681        -6.52898        -6.21422         15.3328        -6.52898     797.989E-03     234.997E-03    -116.915E-03    -118.081E-03    -116.896E-03     234.977E-03    -118.081E-03     4.61227E-03    -53.0472E+06    -81.6773E+06    -216.936E+06    -81.7019E+06    -216.911E+06    -53.0472E+06    -881.674E+03         41.6493
             695     3.55284E-03     37.8043E-03         15.6584        -6.47875        -6.60145        -6.38244         15.5466        -6.58597         1.17370     235.640E-03    -117.486E-03    -118.154E-03    -117.481E-03     235.635E-03    -118.154E-03     1.93468E-03    -64.4245E+06    -86.0497E+06    -224.902E+06    -86.0734E+06    -224.878E+06    -64.4245E+06     493.394E+03         41.0388
             696     2.66767E-03     37.8054E-03         15.8837        -6.61509        -6.66235        -6.54193         15.7734        -6.62521         1.23291     236.121E-03    -117.936E-03    -118.185E-03    -117.969E-03     236.118E-03    -118.149E-03    -9.31981E-06    -76.7201E+06    -90.6546E+06    -232.053E+06    -90.6762E+06    -232.032E+06    -76.7201E+06     1.29604E+06         40.5840
             697     1.77898E-03     37.8086E-03         16.3315        -6.65484        -7.03968        -6.59111         15.8829        -6.65484         3.65218     236.046E-03    -117.835E-03    -118.210E-03    -117.868E-03     236.042E-03    -118.174E-03    -1.72908E-03    -83.6096E+06    -93.9704E+06    -237.974E+06    -94.0392E+06    -237.905E+06    -83.6096E+06     838.485E+03         40.2695
             698     886.336E-06     37.8115E-03         18.0770         1.47722        -16.8705         3.17598         16.0150        -16.5074    -150.717E-03     236.341E-03    -117.778E-03    -118.562E-03    -118.322E-03     236.337E-03    -118.015E-03    -2.20966E-03    -93.1716E+06    -98.6442E+06    -240.648E+06    -98.5123E+06    -240.573E+06    -93.3791E+06     507.676E+03         40.0811
             699     15.1229E-03     37.4283E-03         9.46935        -2.11987        -5.02729        -2.03475         9.38423        -5.02729    -775.591E-03     246.596E-03    -116.759E-03    -129.837E-03    -116.988E-03     234.740E-03    -117.752E-03     101.876E-03     106.819E+06     95.8393E+06    -4.52630E+06    -4.51108E+06     106.804E+06     95.8393E+06    -1.25811E+06         59.7207
             700     14.2360E-03     37.2015E-03         10.0398        -2.52892        -5.19495        -2.45699         9.96791        -5.19495        -1.37281     249.546E-03    -117.791E-03    -131.755E-03    -116.399E-03     234.191E-03    -117.791E-03     144.699E-03     99.3229E+06     92.8033E+06    -9.39321E+06    -9.37772E+06     96.6129E+06     95.4978E+06    -317.056E+03         58.1459
             701     13.3448E-03     37.0827E-03         10.5436        -2.88248        -5.35696        -2.87735         10.5385        -5.35696    -427.154E-03     240.545E-03    -117.850E-03    -122.695E-03    -113.565E-03     231.415E-03    -117.850E-03     113.058E-03     92.6397E+06     88.6999E+06    -16.2523E+06    -16.2365E+06     88.9688E+06      92.355E+06     826.031E+03         56.4429
             702     12.4485E-03     36.9334E-03         11.0967        -3.28189        -5.51453        -3.26842         11.0833        -5.51453    -868.850E-03     240.770E-03    -117.872E-03    -122.898E-03    -114.038E-03     231.910E-03    -117.872E-03     111.218E-03     89.2909E+06     81.1137E+06    -24.9118E+06    -24.8852E+06     88.3036E+06     82.0744E+06    -250.072E+03         54.6765
             703     11.5641E-03     36.8206E-03         11.6212        -3.65835        -5.66746        -3.64956         11.6124        -5.66746    -589.572E-03     239.235E-03    -117.734E-03    -121.501E-03    -115.938E-03     233.673E-03    -117.734E-03     88.4559E-03     86.2359E+06     60.9218E+06    -33.3405E+06    -33.3076E+06     86.2030E+06     60.9218E+06    -827.325E+03         52.8769
             704     10.6768E-03     36.7286E-03         12.1691        -4.06656        -5.81480        -4.05068         12.1532        -5.81480    -809.698E-03     236.052E-03    -116.796E-03    -119.257E-03    -115.141E-03     232.690E-03    -117.549E-03     67.7737E-03     78.4066E+06     37.1223E+06    -39.9722E+06    -39.9526E+06     78.3869E+06     37.1223E+06    -601.794E+03         51.0605
             705     9.78413E-03     36.6684E-03         12.7275        -4.48870        -5.95421        -4.45059         12.6894        -5.95421     172.191E-03     233.113E-03    -115.546E-03    -117.568E-03    -113.765E-03     231.333E-03    -117.568E-03     49.2946E-03     47.6985E+06     22.5970E+06    -45.2397E+06    -45.1966E+06     47.6554E+06     22.5970E+06     300.133E+03         49.2637
             706     8.89270E-03     36.6224E-03         13.2452        -4.87975        -6.08334        -4.83773         13.2031        -6.08334     42.2532E-03     233.601E-03    -115.917E-03    -117.684E-03    -114.897E-03     232.581E-03    -117.684E-03     37.2436E-03     9.20209E+06    -11.6382E+06    -50.1911E+06    -50.1122E+06    -9.51754E+06     7.00254E+06     1.04025E+06         47.5490
             707     8.00438E-03     36.5891E-03         13.7038        -5.21985        -6.20054        -5.19434         13.6783        -6.20054    -368.181E-03     234.385E-03    -116.638E-03    -117.748E-03    -116.073E-03     233.821E-03    -117.748E-03     27.8852E-03    -11.9062E+06    -50.0102E+06    -82.3337E+06    -55.7946E+06    -76.5492E+06    -11.9062E+06     460.596E+03         45.9796
             708     7.11454E-03     36.5675E-03         14.0888        -5.48962        -6.30752        -5.48064         14.0798        -6.30752     146.389E-03     234.448E-03    -116.609E-03    -117.839E-03    -116.294E-03     234.132E-03    -117.839E-03     20.6978E-03    -20.8001E+06    -62.7159E+06    -138.230E+06    -62.7309E+06    -138.215E+06    -20.8001E+06     623.812E+03         44.5972
             709     6.22555E-03     36.5527E-03         14.4606        -5.76250        -6.40500        -5.75943         14.4576        -6.40500    -378.344E-03     234.475E-03    -116.520E-03    -117.955E-03    -116.375E-03     234.330E-03    -117.955E-03     13.7827E-03    -23.5649E+06    -67.8909E+06    -173.575E+06    -67.9115E+06    -173.555E+06    -23.5649E+06     983.657E+03         43.4196
             710     5.33306E-03     36.5434E-03         14.8529        -6.07132        -6.49033        -6.01812         14.7997        -6.49033         1.45242     234.618E-03    -116.573E-03    -118.045E-03    -116.519E-03     234.564E-03    -118.045E-03     8.35528E-03    -37.0191E+06    -74.4950E+06    -197.138E+06    -74.5155E+06    -197.118E+06    -37.0191E+06     881.640E+03         42.4454
             711     4.44364E-03     36.5396E-03         15.1646        -6.31211        -6.56075        -6.24944         15.1019        -6.56075     866.358E-03     235.442E-03    -117.261E-03    -118.181E-03    -117.341E-03     235.425E-03    -118.083E-03     4.26038E-03    -56.8496E+06    -83.6696E+06    -218.435E+06    -83.6918E+06    -218.413E+06    -56.8496E+06    -330.062E+03         41.6617
             712     3.55811E-03     36.5394E-03         15.3902        -6.49988        -6.61564        -6.42537         15.3157        -6.61564         1.04389     235.874E-03    -117.717E-03    -118.157E-03    -117.812E-03     235.872E-03    -118.059E-03     1.30119E-03    -69.5215E+06    -89.6991E+06    -228.174E+06    -89.7136E+06    -228.159E+06    -69.5215E+06    -197.170E+03         41.0509
             713     2.66546E-03     36.5393E-03         15.5877        -6.63379        -6.65751        -6.56897         15.5190        -6.65356         1.51192     235.709E-03    -117.629E-03    -118.079E-03    -117.662E-03     235.706E-03    -118.043E-03    -470.911E-06    -79.1110E+06    -92.7699E+06    -231.610E+06    -92.8004E+06    -231.579E+06    -79.1110E+06     405.570E+03         40.5957
             714     1.77680E-03     36.5435E-03         15.8364        -6.69813        -6.82276        -6.56946         15.5855        -6.70046         3.10755     235.862E-03    -117.720E-03    -118.142E-03    -117.752E-03     235.859E-03    -118.106E-03    -1.38579E-03    -88.1422E+06    -96.8676E+06    -236.992E+06    -96.9176E+06    -236.942E+06    -88.1422E+06    -993.261E+03         40.2807
             715     890.948E-06     36.5470E-03         16.6058         2.42192        -16.7047         3.11645         15.7929        -16.5864         1.37004     236.262E-03    -117.585E-03    -118.677E-03    -118.034E-03     236.260E-03    -118.226E-03    -740.752E-06    -95.5808E+06    -101.111E+06    -243.701E+06    -100.257E+06    -243.662E+06    -96.4739E+06    -497.480E+03         40.0914
             716     15.1231E-03     36.1677E-03         8.89271        -1.92348        -4.93466        -1.83331         8.80254        -4.93466    -817.147E-03     246.495E-03    -116.297E-03    -130.198E-03    -116.527E-03     234.343E-03    -117.817E-03     102.426E-03     106.326E+06     95.3761E+06    -5.26760E+06    -5.24016E+06     106.298E+06     95.3761E+06    -1.60743E+06         59.7040
             717     14.2301E-03     35.9294E-03         9.46891        -2.33606        -5.09881        -2.25805         9.39090        -5.09881        -1.43262     250.180E-03    -117.871E-03    -132.310E-03    -116.834E-03     234.705E-03    -117.871E-03     144.749E-03     98.7611E+06     91.4708E+06    -11.7976E+06    -11.7883E+06     95.0890E+06     95.1336E+06    -955.372E+03         58.1350
             718     13.3424E-03     35.8220E-03         9.94244        -2.66225        -5.25717        -2.65477         9.93496        -5.25717    -533.009E-03     242.002E-03    -117.874E-03    -124.128E-03    -115.198E-03     233.072E-03    -117.874E-03     112.144E-03     94.3288E+06     87.8436E+06    -18.4970E+06    -18.4819E+06     87.8285E+06     94.3288E+06    -355.479E+03         56.4393
             719     12.4558E-03     35.6687E-03         10.5075        -3.08775        -5.41191        -3.06917         10.4889        -5.41191    -994.859E-03     241.713E-03    -117.801E-03    -123.911E-03    -115.011E-03     232.813E-03    -117.801E-03     111.869E-03     91.2896E+06     81.7047E+06    -25.9368E+06    -25.8855E+06     88.4158E+06     84.5272E+06     1.09585E+06         54.6784
             720     11.5631E-03     35.5519E-03         11.0460        -3.49028        -5.56126        -3.47742         11.0331        -5.56126    -752.161E-03     237.474E-03    -117.079E-03    -120.395E-03    -114.254E-03     231.930E-03    -117.676E-03     87.8092E-03     85.6415E+06     60.3272E+06    -34.5003E+06    -34.4520E+06     85.5932E+06     60.3272E+06     370.207E+03         52.8801
             721     10.6736E-03     35.4629E-03         11.5785        -3.88210        -5.70710        -3.86216         11.5586        -5.70710    -953.348E-03     234.785E-03    -116.372E-03    -118.413E-03    -113.784E-03     231.392E-03    -117.608E-03     68.0130E-03     76.7691E+06     35.1533E+06    -41.1058E+06    -41.0542E+06     76.7176E+06     35.1533E+06    -1.99576E+06         51.0642
             722     9.78445E-03     35.4073E-03         12.1376        -4.29879        -5.84790        -4.26009         12.0989        -5.84790     49.4867E-03     234.152E-03    -116.462E-03    -117.690E-03    -114.609E-03     232.244E-03    -117.634E-03     51.0724E-03     45.7012E+06     17.2430E+06    -45.6095E+06    -45.5402E+06     45.6318E+06     17.2430E+06    -1.92790E+06         49.2712
             723     8.89432E-03     35.3569E-03         12.6642        -4.69370        -5.98058        -4.65022         12.6208        -5.98058    -90.2303E-03     233.862E-03    -116.079E-03    -117.784E-03    -115.062E-03     232.790E-03    -117.728E-03     38.2394E-03     9.93262E+06    -17.1352E+06    -50.2909E+06    -49.3992E+06    -12.6327E+06     4.53831E+06     783.149E+03         47.5616
             724     8.00272E-03     35.3258E-03         13.1431        -5.05384        -6.10269        -5.02494         13.1142        -6.10269    -463.594E-03     234.063E-03    -116.210E-03    -117.853E-03    -115.633E-03     233.486E-03    -117.853E-03     28.0371E-03    -7.58749E+06    -52.6483E+06    -83.2311E+06    -57.2410E+06    -78.6384E+06    -7.58749E+06     3.85133E+06         45.9953
             725     7.11234E-03     35.3029E-03         13.5612        -5.35711        -6.21389        -5.34582         13.5499        -6.21389    -22.8819E-03     234.921E-03    -116.988E-03    -117.933E-03    -116.692E-03     234.625E-03    -117.933E-03     19.8959E-03    -18.7182E+06    -65.0708E+06    -135.674E+06    -65.5127E+06    -135.232E+06    -18.7182E+06     2.29006E+06         44.6146
             726     6.22315E-03     35.2866E-03         13.9553        -5.65235        -6.31397        -5.64623         13.9491        -6.31397    -401.672E-03     235.048E-03    -117.072E-03    -117.975E-03    -116.945E-03     234.920E-03    -117.975E-03     12.8295E-03    -25.3644E+06    -71.1666E+06    -175.217E+06    -71.2169E+06    -175.166E+06    -25.3644E+06    -285.879E+03         43.4373
             727     5.33610E-03     35.2811E-03         14.3278        -5.94395        -6.40188        -5.90641         14.2902        -6.40188         1.29881     235.049E-03    -117.052E-03    -117.997E-03    -117.004E-03     235.001E-03    -117.997E-03     7.89276E-03    -34.8809E+06    -76.2068E+06    -199.056E+06     -76.268E+06    -198.995E+06    -34.8809E+06     1.42603E+06         42.4617
             728     4.44594E-03     35.2734E-03         14.6404        -6.17660        -6.47662        -6.13638         14.6002        -6.47662     932.300E-03     235.319E-03    -117.235E-03    -118.084E-03    -117.316E-03     235.302E-03    -117.986E-03     4.44730E-03    -50.8955E+06    -81.2879E+06    -216.430E+06    -81.3311E+06    -216.387E+06    -50.8955E+06     1.84808E+06         41.6754
             729     3.55471E-03     35.2735E-03         14.8877        -6.36418        -6.53635        -6.32929         14.8528        -6.53635     838.151E-03     235.592E-03    -117.545E-03    -118.047E-03    -117.639E-03     235.589E-03    -117.950E-03     1.48879E-03    -66.4321E+06    -87.3909E+06    -229.072E+06    -87.3955E+06    -229.068E+06    -66.4321E+06     56.1981E+03         41.0621
             730     2.66886E-03     35.2760E-03         15.1449        -6.51558        -6.61705        -6.51328         15.0977        -6.57222         1.80967     235.428E-03    -117.487E-03    -117.941E-03    -117.483E-03     235.425E-03    -117.941E-03    -289.386E-06    -78.8241E+06    -92.7403E+06    -231.391E+06    -92.7630E+06    -231.368E+06    -78.8241E+06    -1.41249E+06         40.6051
             731     1.77818E-03     35.2781E-03         15.2465        -6.56641        -6.65049        -6.51244         15.1477        -6.60565         2.39473     235.635E-03    -117.600E-03    -118.035E-03    -117.595E-03     235.630E-03    -118.035E-03    -1.26496E-03    -89.4065E+06    -96.9438E+06    -238.642E+06    -96.9666E+06    -238.619E+06    -89.4065E+06    -1.04939E+06         40.2881
             732     886.551E-06     35.2809E-03         15.8534         2.15268        -15.9823         2.72265         15.2834        -15.9823         3.24524     236.180E-03    -117.530E-03    -118.650E-03    -118.057E-03     236.177E-03    -118.120E-03    -1.08460E-03    -97.1957E+06    -100.983E+06    -246.792E+06    -99.8765E+06    -246.787E+06    -98.3067E+06    -193.756E+03         40.0971
             733     15.1216E-03     34.8991E-03         8.26490        -1.73264        -4.76111        -1.63776         8.17001        -4.76111    -815.568E-03     246.132E-03    -116.396E-03    -129.735E-03    -116.600E-03     234.414E-03    -117.814E-03     101.842E-03     106.364E+06     94.2273E+06    -6.65475E+06    -6.63187E+06     106.341E+06     94.2273E+06    -1.27555E+06         59.6891
             734     14.2334E-03     34.6693E-03         8.82142        -2.13897        -4.91675        -2.05586         8.73831        -4.91675        -1.47491     249.280E-03    -117.864E-03    -131.416E-03    -116.391E-03     234.255E-03    -117.864E-03     142.736E-03     95.6840E+06     87.4093E+06    -14.3510E+06    -14.3300E+06     91.5790E+06     91.4932E+06    -1.38693E+06         58.1248
             735     13.3425E-03     34.5498E-03         9.28391        -2.47665        -5.06491        -2.46584         9.27310        -5.06491    -646.712E-03     242.332E-03    -117.870E-03    -124.462E-03    -115.466E-03     233.336E-03    -117.870E-03     112.664E-03     91.4157E+06     85.3959E+06    -20.8861E+06    -20.8654E+06     85.4492E+06     91.3417E+06    -1.34930E+06         56.4339
             736     12.4540E-03     34.4036E-03         9.81196        -2.88243        -5.20983        -2.85901         9.78854        -5.20983        -1.08315     242.310E-03    -117.794E-03    -124.516E-03    -115.363E-03     233.157E-03    -117.794E-03     113.799E-03     89.4375E+06     83.0099E+06    -28.2243E+06    -28.1634E+06     87.5148E+06     84.8717E+06    -115.852E+03         54.6771
             737     11.5671E-03     34.2870E-03         10.3296        -3.27445        -5.35098        -3.25842         10.3136        -5.35098    -848.277E-03     236.518E-03    -117.048E-03    -119.470E-03    -113.152E-03     230.861E-03    -117.709E-03     88.2379E-03     86.3193E+06     63.4681E+06    -32.9320E+06    -32.8704E+06     86.2577E+06     63.4681E+06     605.525E+03         52.8818
             738     10.6715E-03     34.2058E-03         10.8597        -3.67345        -5.49005        -3.64972         10.8360        -5.49005        -1.04748     234.253E-03    -116.559E-03    -117.695E-03    -113.197E-03     230.891E-03    -117.695E-03     67.7919E-03     77.3466E+06     34.6787E+06    -38.8486E+06    -38.8004E+06     77.2984E+06     34.6787E+06    -1.02428E+06         51.0691
             739     9.78012E-03     34.1346E-03         11.3836        -4.06010        -5.62588        -4.01885         11.3424        -5.62588    -13.3067E-03     234.552E-03    -116.757E-03    -117.795E-03    -114.923E-03     232.662E-03    -117.739E-03     50.5484E-03     43.7066E+06     14.3834E+06    -46.8399E+06    -46.7564E+06     43.3948E+06     14.6116E+06    -2.38262E+06         49.2812
             740     8.89278E-03     34.0965E-03         11.8907        -4.43760        -5.75703        -4.38931         11.8424        -5.75703    -187.793E-03     234.530E-03    -116.577E-03    -117.953E-03    -115.707E-03     233.521E-03    -117.814E-03     37.2722E-03     8.16267E+06    -23.2113E+06    -55.8999E+06    -53.9536E+06    -20.3712E+06     3.37627E+06     979.464E+03         47.5769
             741     8.00194E-03     34.0606E-03         12.3557        -4.78690        -5.88048        -4.75298         12.3218        -5.88048    -545.784E-03     234.679E-03    -116.704E-03    -117.975E-03    -116.217E-03     234.109E-03    -117.892E-03     27.8041E-03    -2.26939E+06    -55.3042E+06    -80.9162E+06    -58.2010E+06    -78.0194E+06    -2.26939E+06     3.97295E+06         46.0142
             742     7.11491E-03     34.0358E-03         12.7802        -5.10123        -5.99450        -5.08643         12.7654        -5.99450    -153.162E-03     234.846E-03    -116.910E-03    -117.936E-03    -116.646E-03     234.582E-03    -117.936E-03     18.7987E-03    -11.1026E+06    -60.5913E+06    -129.536E+06    -61.0538E+06    -129.073E+06    -11.1026E+06     1.66844E+06         44.6346
             743     6.22532E-03     34.0241E-03         13.2016        -5.42221        -6.09680        -5.41185         13.1913        -6.09680    -408.126E-03     235.044E-03    -117.086E-03    -117.958E-03    -116.964E-03     234.922E-03    -117.958E-03     12.8433E-03    -23.9826E+06    -67.0185E+06    -177.355E+06    -67.0763E+06    -177.298E+06    -23.9826E+06    -38.3664E+03         43.4563
             744     5.33427E-03     34.0132E-03         13.5640        -5.69068        -6.18716        -5.66599         13.5393        -6.18716         1.13522     235.405E-03    -117.464E-03    -117.940E-03    -117.409E-03     235.349E-03    -117.940E-03     8.46058E-03    -34.7334E+06    -75.1037E+06    -202.368E+06    -75.1679E+06    -202.304E+06    -34.7334E+06     781.936E+03         42.4785
             745     4.44616E-03     34.0117E-03         13.8929        -5.93118        -6.26546        -5.90634         13.8680        -6.26546         1.03680     235.133E-03    -117.219E-03    -117.914E-03    -117.200E-03     235.114E-03    -117.914E-03     4.82545E-03    -46.1758E+06    -81.5677E+06    -216.293E+06    -81.6376E+06    -216.223E+06    -46.1758E+06     1.92305E+06         41.6892
             746     3.55768E-03     34.0075E-03         14.1403        -6.11268        -6.32944        -6.10252         14.1301        -6.32944     620.408E-03     235.134E-03    -117.236E-03    -117.899E-03    -117.230E-03     235.129E-03    -117.899E-03     1.84021E-03    -65.4854E+06    -88.1830E+06    -226.513E+06    -88.2207E+06    -226.476E+06    -65.4854E+06     682.486E+03         41.0726
             747     2.66573E-03     34.0118E-03         14.4654        -6.27342        -6.46686        -6.29426         14.3903        -6.37083         2.13567     235.610E-03    -117.613E-03    -117.997E-03    -117.751E-03     235.606E-03    -117.855E-03    -479.707E-06    -83.4110E+06    -93.5961E+06    -232.393E+06    -93.6096E+06    -232.379E+06    -83.4110E+06    -1.30857E+06         40.6123
             748     1.77776E-03     34.0133E-03         14.5629        -6.33508        -6.49136        -6.35055         14.4823        -6.39533         1.70384     235.627E-03    -117.614E-03    -118.013E-03    -117.822E-03     235.622E-03    -117.799E-03    -1.14007E-03    -91.3832E+06    -97.4174E+06    -242.750E+06    -97.4287E+06    -242.739E+06    -91.3832E+06    -609.814E+03         40.2927
             749     891.035E-06     34.0159E-03         16.2278     362.725E-03        -14.8204         2.01135         14.5792        -14.8204         5.13018     235.484E-03    -117.164E-03    -118.320E-03    -117.763E-03     235.481E-03    -117.717E-03    -989.302E-06    -97.0606E+06    -101.472E+06    -246.437E+06    -101.312E+06    -246.379E+06    -97.2786E+06     1.39616E+06         40.1002
             750     15.1242E-03     33.6319E-03         7.58148        -1.56649        -4.50994        -1.46056         7.47555        -4.50994    -800.286E-03     246.454E-03    -116.807E-03    -129.647E-03    -116.847E-03     234.631E-03    -117.784E-03     102.854E-03     106.446E+06     95.5299E+06    -6.12717E+06    -6.11781E+06     106.436E+06     95.5299E+06     360.364E+03         59.6751
             751     14.2336E-03     33.4048E-03         8.10062        -1.95743        -4.65173        -1.86556         8.00875        -4.65173        -1.49782     249.203E-03    -117.827E-03    -131.375E-03    -116.183E-03     234.010E-03    -117.827E-03     143.599E-03     96.3119E+06     87.2615E+06    -13.4140E+06    -13.3927E+06     91.4281E+06      92.124E+06    -241.558E+03         58.1147
             752     13.3424E-03     33.2869E-03         8.52372        -2.27953        -4.78492        -2.26625         8.51044        -4.78492    -694.991E-03     241.447E-03    -117.880E-03    -123.567E-03    -114.262E-03     232.142E-03    -117.880E-03     114.153E-03     90.8121E+06     84.6898E+06    -20.9944E+06    -20.9733E+06     84.7427E+06     90.7380E+06    -506.778E+03         56.4268
             753     12.4529E-03     33.1330E-03         9.02034        -2.67310        -4.91550        -2.64571         8.99295        -4.91550        -1.12700     241.194E-03    -117.879E-03    -123.315E-03    -114.067E-03     231.946E-03    -117.879E-03     113.677E-03     88.6012E+06     78.8772E+06    -29.1009E+06    -28.9953E+06     87.3098E+06     80.0629E+06    -2.65860E+06         54.6722
             754     11.5598E-03     33.0267E-03         9.49504        -3.03441        -5.04333        -3.01616         9.47679        -5.04333    -870.294E-03     237.517E-03    -117.749E-03    -119.768E-03    -114.142E-03     231.955E-03    -117.813E-03     87.8308E-03     84.4173E+06     58.5970E+06    -34.9332E+06    -34.7646E+06     84.2487E+06     58.5970E+06    -3.25861E+06         52.8817
             755     10.6734E-03     32.9384E-03         9.99833        -3.41557        -5.17086        -3.38704         9.96980        -5.17086        -1.10092     235.503E-03    -117.228E-03    -118.276E-03    -114.374E-03     232.130E-03    -117.755E-03     68.0971E-03     77.7753E+06     38.9576E+06    -38.8625E+06    -38.7863E+06     77.6991E+06     38.9576E+06    -524.302E+03         51.0761
             756     9.78394E-03     32.8738E-03         10.4848        -3.78245        -5.29690        -3.73550         10.4378        -5.29690    -64.3692E-03     234.255E-03    -116.474E-03    -117.782E-03    -114.642E-03     232.424E-03    -117.782E-03     49.7109E-03     43.2469E+06     19.8893E+06    -46.0680E+06    -45.8604E+06     41.1434E+06     21.7852E+06     1.46482E+06         49.2935
             757     8.89098E-03     32.8283E-03         10.9514        -4.13490        -5.42055        -4.08166         10.8981        -5.42055    -216.590E-03     234.714E-03    -116.806E-03    -117.909E-03    -115.922E-03     233.748E-03    -117.826E-03     36.5289E-03     3.66732E+06    -22.1605E+06    -55.6766E+06    -53.3923E+06    -24.4449E+06     3.66732E+06     1.31550E+06         47.5924
             758     8.00549E-03     32.7948E-03         11.3937        -4.46626        -5.53860        -4.42878         11.3562        -5.53860    -588.699E-03     234.938E-03    -117.019E-03    -117.919E-03    -116.538E-03     234.374E-03    -117.836E-03     27.7940E-03    -7.12320E+06    -55.0344E+06    -77.7032E+06    -56.8736E+06    -75.8640E+06    -7.12320E+06    -1.09065E+06         46.0319
             759     7.11301E-03     32.7726E-03         11.7947        -4.75683        -5.64976        -4.73878         11.7766        -5.64976    -247.346E-03     234.487E-03    -116.572E-03    -117.915E-03    -116.295E-03     234.210E-03    -117.915E-03     19.2912E-03    -11.0823E+06     -60.354E+06    -130.754E+06    -60.4712E+06    -130.637E+06    -11.0823E+06    -612.035E+03         44.6526
             760     6.22339E-03     32.7581E-03         12.1968        -5.05621        -5.75263        -5.04170         12.1823        -5.75263    -418.626E-03     234.980E-03    -116.992E-03    -117.988E-03    -116.858E-03     234.846E-03    -117.988E-03     13.5793E-03    -19.9294E+06    -66.7187E+06    -178.625E+06    -66.7999E+06    -178.544E+06    -19.9294E+06     2.70459E+06         43.4732
             761     5.33594E-03     32.7494E-03         12.5667        -5.33142        -5.84465        -5.31353         12.5488        -5.84465         1.00520     235.494E-03    -117.543E-03    -117.951E-03    -117.483E-03     235.434E-03    -117.951E-03     8.64284E-03    -34.3486E+06    -75.0031E+06    -202.103E+06    -75.1004E+06    -202.005E+06    -34.3486E+06     2.50670E+06         42.4940
             762     4.44625E-03     32.7450E-03         12.8985        -5.57266        -5.92468        -5.55283         12.8786        -5.92468         1.11804     235.431E-03    -117.514E-03    -117.916E-03    -117.554E-03     235.415E-03    -117.861E-03     4.21153E-03    -50.5170E+06    -82.6062E+06    -218.280E+06    -82.6716E+06    -218.214E+06    -50.5170E+06     1.12802E+06         41.7027
             763     3.55543E-03     32.7462E-03         13.1527        -5.75738        -5.99131        -5.75300         13.1483        -5.99131     458.295E-03     235.122E-03    -117.290E-03    -117.832E-03    -117.341E-03     235.117E-03    -117.776E-03     1.69749E-03    -69.1923E+06    -87.4394E+06    -224.382E+06    -87.4901E+06    -224.331E+06    -69.1923E+06     935.435E+03         41.0829
             764     2.66857E-03     32.7440E-03         13.5246        -5.94162        -6.16470        -5.93090         13.3887        -6.03951         2.40003     235.287E-03    -117.388E-03    -117.898E-03    -117.527E-03     235.283E-03    -117.756E-03    -540.375E-06    -82.1502E+06    -91.2507E+06    -232.310E+06    -91.2683E+06    -232.292E+06    -82.1502E+06     389.862E+03         40.6185
             765     1.77936E-03     32.7506E-03         13.6698        -6.03867        -6.20792        -5.98534         13.4913        -6.08272         1.11976     235.535E-03    -117.603E-03    -117.932E-03    -117.816E-03     235.531E-03    -117.716E-03    -797.469E-06    -88.6283E+06    -96.9721E+06    -246.341E+06    -96.9966E+06    -246.317E+06    -88.6283E+06     760.776E+03         40.2957
             766     888.008E-06     32.7495E-03         16.3553        -1.72989        -13.2101     989.731E-03         13.6357        -13.2101         6.59052     235.227E-03    -117.169E-03    -118.058E-03    -117.585E-03     235.222E-03    -117.638E-03    -965.126E-06    -95.5108E+06    -103.049E+06    -244.251E+06    -101.078E+06    -244.134E+06    -97.5991E+06     935.712E+03         40.1020
             767     15.1235E-03     32.3730E-03         6.81344        -1.39083        -4.18371        -1.27122         6.69384        -4.18371    -816.345E-03     246.887E-03    -116.777E-03    -130.110E-03    -117.154E-03     234.940E-03    -117.786E-03     103.923E-03     105.776E+06     95.5498E+06    -6.62554E+06    -6.60354E+06     105.754E+06     95.5498E+06     1.39901E+06         59.6603
             768     14.2321E-03     32.1354E-03         7.28216        -1.76095        -4.30841        -1.65679         7.17800        -4.30841        -1.50840     249.351E-03    -117.820E-03    -131.531E-03    -116.441E-03     234.260E-03    -117.820E-03     142.651E-03     98.4845E+06     89.0634E+06    -11.0983E+06    -11.0776E+06     92.6773E+06     94.8500E+06      978.58E+03         58.1042
             769     13.3441E-03     32.0248E-03         7.65597        -2.05185        -4.42395        -2.03669         7.64081        -4.42395    -700.805E-03     240.524E-03    -117.888E-03    -122.636E-03    -113.491E-03     231.379E-03    -117.888E-03     112.632E-03     93.9214E+06     86.0368E+06    -16.3561E+06    -16.3468E+06     86.0275E+06     93.9214E+06    -44.6381E+03         56.4204
             770     12.4494E-03     31.8702E-03         8.13719        -2.44904        -4.53629        -2.41696         8.10511        -4.53629        -1.15825     240.552E-03    -117.930E-03    -122.622E-03    -113.412E-03     231.342E-03    -117.930E-03     113.096E-03     89.2850E+06     79.1578E+06    -25.1432E+06    -25.0531E+06      87.097E+06     81.2558E+06    -1.93920E+06         54.6691
             771     11.5625E-03     31.7590E-03         8.55442        -2.77677        -4.64545        -2.75485         8.53250        -4.64545    -910.270E-03     237.773E-03    -117.872E-03    -119.900E-03    -114.554E-03     232.427E-03    -117.872E-03     86.1231E-03     83.0609E+06     58.3800E+06    -34.9066E+06    -34.7547E+06     82.9090E+06     58.3800E+06    -3.30027E+06         52.8826
             772     10.6718E-03     31.6721E-03         8.98791        -3.11000        -4.75732        -3.07882         8.95673        -4.75732        -1.10683     235.874E-03    -117.394E-03    -118.480E-03    -114.850E-03     232.634E-03    -117.783E-03     66.9224E-03     73.3439E+06     37.7389E+06    -43.3274E+06    -43.2248E+06     73.2412E+06     37.7389E+06    -2.00965E+06         51.0816
             773     9.78125E-03     31.6100E-03         9.44138        -3.45911        -4.86971        -3.41110         9.39338        -4.86971    -108.696E-03     234.519E-03    -116.735E-03    -117.784E-03    -114.856E-03     232.641E-03    -117.784E-03     50.6158E-03     41.7786E+06     19.4437E+06    -47.8553E+06    -47.6356E+06     38.1773E+06     22.8252E+06     1.15158E+06         49.3027
             774     8.89436E-03     31.5627E-03         9.85896        -3.77750        -4.98090        -3.72348         9.80494        -4.98090    -246.069E-03     234.338E-03    -116.524E-03    -117.814E-03    -115.466E-03     233.280E-03    -117.814E-03     38.1816E-03     2.21121E+06    -19.2816E+06    -52.5080E+06    -51.3102E+06    -20.4794E+06     2.21121E+06     756.841E+03         47.6038
             775     8.00137E-03     31.5296E-03         10.2615        -4.08493        -5.08846        -4.04536         10.2220        -5.08846    -570.484E-03     234.661E-03    -116.799E-03    -117.862E-03    -116.205E-03     234.067E-03    -117.862E-03     28.3593E-03    -11.9745E+06    -53.3291E+06    -79.3273E+06    -56.6391E+06    -76.0173E+06    -11.9745E+06    -2.04018E+06         46.0444
             776     7.11472E-03     31.5082E-03         10.6381        -4.36101        -5.19036        -4.33977         10.6169        -5.19036    -287.815E-03     235.073E-03    -117.115E-03    -117.958E-03    -116.837E-03     234.795E-03    -117.958E-03     19.3990E-03    -13.4933E+06    -63.1131E+06    -136.869E+06    -63.2152E+06    -136.767E+06    -13.4933E+06    -666.849E+03         44.6661
             777     6.22467E-03     31.4941E-03         10.9955        -4.61424        -5.28668        -4.59603         10.9772        -5.28668    -409.324E-03     235.186E-03    -117.196E-03    -117.990E-03    -117.066E-03     235.056E-03    -117.990E-03     13.2517E-03    -20.3462E+06    -70.1056E+06    -181.807E+06    -70.1784E+06    -181.735E+06    -20.3462E+06     2.48226E+06         43.4871
             778     5.33416E-03     31.4827E-03         11.3472        -4.86954        -5.37557        -4.85335         11.3310        -5.37557     952.473E-03     235.321E-03    -117.389E-03    -117.932E-03    -117.336E-03     235.268E-03    -117.932E-03     8.27904E-03    -35.1848E+06    -75.5483E+06    -199.083E+06    -75.6531E+06    -198.978E+06    -35.1848E+06     3.43366E+06         42.5070
             779     4.44597E-03     31.4814E-03         11.6551        -5.10348        -5.45428        -5.08411         11.6358        -5.45428         1.11088     235.579E-03    -117.660E-03    -117.919E-03    -117.746E-03     235.565E-03    -117.819E-03     4.07601E-03    -53.7107E+06    -81.1308E+06    -216.266E+06    -81.1790E+06    -216.218E+06    -53.7107E+06     1.44830E+06         41.7141
             780     3.55918E-03     31.4795E-03         11.9031        -5.29106        -5.52045        -5.28523         11.8973        -5.52045     382.485E-03     235.276E-03    -117.470E-03    -117.805E-03    -117.567E-03     235.273E-03    -117.705E-03     1.64051E-03    -68.1228E+06    -86.0617E+06    -225.874E+06    -86.0823E+06    -225.854E+06    -68.1228E+06     635.494E+03         41.0917
             781     2.66688E-03     31.4831E-03         12.2921        -5.48541        -5.71333        -5.45577         12.1184        -5.56929         2.44593     235.023E-03    -117.323E-03    -117.700E-03    -117.350E-03     235.021E-03    -117.671E-03     95.4146E-06    -78.9308E+06    -91.3700E+06    -232.625E+06    -91.4012E+06    -232.594E+06    -78.9308E+06     1.82706E+06         40.6242
             782     1.77713E-03     31.4828E-03         12.5075        -5.58749        -5.80851        -5.53205         12.2517        -5.60821     786.577E-03     235.289E-03    -117.564E-03    -117.725E-03    -117.608E-03     235.286E-03    -117.677E-03    -1.40351E-03    -85.1374E+06    -95.2243E+06    -245.439E+06    -95.2734E+06    -245.390E+06    -85.1374E+06     1.32375E+06         40.2990
             783     890.373E-06     31.4886E-03         15.4611        -3.15972        -11.1694    -132.871E-03         12.3780        -11.1131         7.18120     235.228E-03    -116.895E-03    -118.333E-03    -118.325E-03     235.220E-03    -116.895E-03    -1.51103E-03    -91.3348E+06    -101.824E+06    -244.001E+06    -99.8429E+06    -243.894E+06    -93.4230E+06     197.183E+03         40.1041
             784     15.1217E-03     31.1000E-03         5.96048        -1.18503        -3.78594        -1.05211         5.82756        -3.78594    -812.160E-03     246.535E-03    -117.106E-03    -129.429E-03    -117.305E-03     235.078E-03    -117.773E-03     102.776E-03     105.644E+06     97.9863E+06    -4.78523E+06    -4.76425E+06     105.623E+06     97.9863E+06     992.772E+03         59.6471
             785     14.2365E-03     30.8737E-03         6.39051        -1.54337        -3.89162        -1.42680         6.27395        -3.89162        -1.50750     248.177E-03    -117.816E-03    -130.361E-03    -115.582E-03     233.398E-03    -117.816E-03     141.654E-03     98.6146E+06     90.2464E+06    -10.7220E+06    -10.7030E+06     92.6992E+06     96.1428E+06     563.639E+03         58.0953
             786     13.3420E-03     30.7599E-03         6.71098        -1.81406        -3.98623        -1.79528         6.69220        -3.98623    -736.577E-03     240.898E-03    -117.892E-03    -123.006E-03    -113.763E-03     231.655E-03    -117.892E-03     113.658E-03     93.3784E+06     85.9836E+06    -18.2897E+06    -18.2835E+06     85.9775E+06     93.3784E+06    -63.0433E+03         56.4159
             787     12.4537E-03     30.6093E-03         7.11541        -2.16518        -4.07762        -2.12870         7.07893        -4.07762        -1.15819     241.423E-03    -117.899E-03    -123.525E-03    -114.326E-03     232.225E-03    -117.899E-03     113.535E-03     89.8708E+06     81.5741E+06    -24.6948E+06    -24.6875E+06     88.3652E+06     83.0724E+06     185.148E+03         54.6689
             788     11.5609E-03     30.4891E-03         7.48025        -2.46511        -4.16706        -2.44047         7.45561        -4.16706    -921.761E-03     237.268E-03    -117.795E-03    -119.473E-03    -114.090E-03     231.915E-03    -117.825E-03     85.8643E-03     82.7705E+06     59.8198E+06    -33.5439E+06    -33.5331E+06     82.7596E+06     59.8198E+06     270.186E+03         52.8846
             789     10.6728E-03     30.4104E-03         7.87042        -2.77161        -4.26097        -2.74116         7.83997        -4.26097        -1.05501     235.159E-03    -117.223E-03    -117.935E-03    -114.282E-03     232.041E-03    -117.759E-03     65.5675E-03     71.5838E+06     35.1325E+06    -42.6253E+06    -42.5895E+06      71.548E+06     35.1325E+06     -787.71E+03         51.0844
             790     9.78321E-03     30.3422E-03         8.26916        -3.08674        -4.35659        -3.04040         8.22282        -4.35659    -70.5507E-03     234.322E-03    -116.531E-03    -117.790E-03    -114.671E-03     232.461E-03    -117.790E-03     50.4075E-03     38.6465E+06     13.4990E+06    -50.1426E+06    -50.0245E+06     33.6799E+06     18.3474E+06    -1.71918E+06         49.3071
             791     8.89051E-03     30.3005E-03         8.64469        -3.38872        -4.45127        -3.33536         8.59133        -4.45127    -216.741E-03     234.182E-03    -116.323E-03    -117.860E-03    -115.282E-03     233.141E-03    -117.860E-03     37.7471E-03     3.46181E+06    -18.2657E+06    -54.1688E+06    -54.0745E+06    -18.3601E+06     3.46181E+06    -1.19312E+06         47.6101
             792     8.00297E-03     30.2634E-03         8.98321        -3.65301        -4.54310        -3.61472         8.94493        -4.54310    -535.077E-03     234.392E-03    -116.456E-03    -117.935E-03    -115.880E-03     233.815E-03    -117.935E-03     27.9879E-03    -11.5541E+06    -50.4957E+06    -82.8501E+06    -58.4933E+06    -74.8525E+06    -11.5541E+06    -928.194E+03         46.0518
             793     7.11185E-03     30.2426E-03         9.31511        -3.89905        -4.63060        -3.87791         9.29397        -4.63060    -288.303E-03     235.431E-03    -117.329E-03    -118.102E-03    -117.100E-03     235.131E-03    -118.031E-03     20.2659E-03    -16.7338E+06    -64.2270E+06    -142.158E+06    -64.2611E+06    -142.124E+06    -16.7338E+06    -331.507E+03         44.6742
             794     6.22485E-03     30.2276E-03         9.64587        -4.13681        -4.71268        -4.11854         9.62760        -4.71268    -399.499E-03     235.954E-03    -117.719E-03    -118.236E-03    -117.818E-03     235.814E-03    -117.997E-03     13.6670E-03    -22.6490E+06    -69.5347E+06    -183.188E+06    -69.5568E+06    -183.166E+06    -22.6490E+06     1.44090E+06         43.4960
             795     5.33626E-03     30.2206E-03         9.94027        -4.34791        -4.78895        -4.32932         9.92167        -4.78895     937.888E-03     235.334E-03    -117.286E-03    -118.048E-03    -117.405E-03     235.284E-03    -117.879E-03     8.09199E-03    -36.5086E+06    -74.8112E+06    -198.097E+06    -74.8435E+06    -198.065E+06    -36.5086E+06     1.83635E+06         42.5157
             796     4.44621E-03     30.2136E-03         10.2031        -4.54951        -4.85804        -4.52880         10.1824        -4.85804         1.04455     235.214E-03    -117.351E-03    -117.862E-03    -117.381E-03     235.198E-03    -117.818E-03     4.01489E-03    -49.5349E+06    -80.1735E+06    -213.829E+06    -80.1980E+06    -213.804E+06    -49.5349E+06     1.63407E+06         41.7214
             797     3.55543E-03     30.2172E-03         10.4301        -4.73644        -4.91346        -4.73176         10.4254        -4.91346     359.935E-03     235.527E-03    -117.471E-03    -118.055E-03    -117.800E-03     235.524E-03    -117.724E-03     1.24401E-03    -62.0480E+06    -86.2742E+06    -227.049E+06    -86.2832E+06    -227.040E+06    -62.0480E+06     789.298E+03         41.0977
             798     2.66877E-03     30.2172E-03         10.7482        -4.90442        -5.06820        -4.84993         10.5800        -4.95450         2.30238     235.210E-03    -117.318E-03    -117.891E-03    -117.633E-03     235.208E-03    -117.575E-03    -479.964E-06    -75.7588E+06    -90.9356E+06    -233.813E+06    -90.9535E+06    -233.795E+06    -75.7588E+06     907.354E+03         40.6297
             799     1.78030E-03     30.2201E-03         10.9879        -4.96850        -5.21932        -4.98765         10.7562        -4.96850     890.702E-03     234.774E-03    -117.165E-03    -117.609E-03    -117.206E-03     234.770E-03    -117.564E-03    -1.16518E-03    -85.6826E+06    -94.3864E+06    -242.498E+06    -94.4170E+06    -242.467E+06    -85.6826E+06     611.427E+03         40.3042
             800     888.518E-06     30.2228E-03         13.3872        -3.74955        -8.76956        -1.28823         10.7888        -8.63244         6.75042     235.162E-03    -116.706E-03    -118.456E-03    -117.793E-03     235.158E-03    -117.366E-03     236.844E-06    -93.8150E+06    -101.509E+06    -246.529E+06    -101.105E+06    -246.455E+06    -94.2932E+06    -106.105E+03         40.1090
             801     15.1281E-03     29.8327E-03         5.05139    -986.242E-03        -3.32355    -839.860E-03         4.90501        -3.32355    -799.321E-03     245.665E-03    -117.443E-03    -128.222E-03    -116.228E-03     234.001E-03    -117.773E-03     103.454E-03     104.320E+06     97.8002E+06    -5.38993E+06    -5.38222E+06     104.313E+06     97.8002E+06     135.052E+03         59.6346
             802     14.2310E-03     29.6140E-03         5.41845        -1.31697        -3.40729        -1.18747         5.28895        -3.40729        -1.47502     247.988E-03    -117.867E-03    -130.121E-03    -114.954E-03     232.821E-03    -117.867E-03     143.439E-03     96.7016E+06     88.8735E+06    -11.9189E+06    -11.9127E+06     90.8600E+06     94.7089E+06     179.148E+03         58.0862
             803     13.3413E-03     29.4943E-03         5.64029        -1.52540        -3.47889        -1.50253         5.61743        -3.47889    -747.801E-03     242.503E-03    -117.923E-03    -124.580E-03    -115.212E-03     233.135E-03    -117.923E-03     115.149E-03     92.7000E+06     84.8125E+06    -19.6127E+06    -19.6045E+06     84.8043E+06     92.7000E+06     469.381E+03         56.4117
             804     12.4524E-03     29.3401E-03         5.97182        -1.82856        -3.54934        -1.78947         5.93273        -3.54934        -1.09859     242.023E-03    -117.858E-03    -124.164E-03    -115.118E-03     232.977E-03    -117.858E-03     112.791E-03      90.479E+06     82.2558E+06    -26.1213E+06    -26.1105E+06     88.4162E+06     84.3079E+06     769.447E+03         54.6687
             805     11.5645E-03     29.2295E-03         6.29446        -2.09905        -3.61954        -2.07405         6.26946        -3.61954    -868.706E-03     236.671E-03    -117.384E-03    -119.287E-03    -113.582E-03     231.345E-03    -117.763E-03     85.6640E-03     83.5952E+06     60.3631E+06    -33.3402E+06    -33.3236E+06     83.5786E+06     60.3631E+06     1.24584E+06         52.8852
             806     10.6723E-03     29.1407E-03         6.63610        -2.37822        -3.69502        -2.34863         6.60651        -3.69502    -977.121E-03     234.511E-03    -116.775E-03    -117.735E-03    -113.591E-03     231.326E-03    -117.735E-03     66.0963E-03     71.7275E+06     34.2337E+06    -41.1351E+06    -41.1192E+06     71.7116E+06     34.2337E+06     1.25467E+06         51.0848
             807     9.78122E-03     29.0830E-03         6.98256        -2.67347        -3.77225        -2.62662         6.93570        -3.77225     2.21193E-03     234.462E-03    -116.671E-03    -117.792E-03    -114.783E-03     232.575E-03    -117.792E-03     50.8090E-03     38.5245E+06     14.8981E+06    -47.7793E+06    -47.6847E+06     35.2365E+06     18.0916E+06    -297.277E+03         49.3084
             808     8.89350E-03     29.0308E-03         7.32333        -2.96936        -3.84738        -2.91651         7.27048        -3.84738    -125.930E-03     234.370E-03    -116.523E-03    -117.848E-03    -115.509E-03     233.357E-03    -117.848E-03     37.1150E-03     1.97618E+06    -18.9915E+06    -55.4339E+06    -54.0607E+06    -20.3647E+06     1.97618E+06    -2.61325E+06         47.6128
             809     8.00195E-03     29.0029E-03         7.61554        -3.20742        -3.91786        -3.17346         7.58158        -3.91786    -503.619E-03     234.433E-03    -116.515E-03    -117.918E-03    -115.978E-03     233.897E-03    -117.918E-03     27.1640E-03    -10.3002E+06    -51.3520E+06    -83.7006E+06    -58.6611E+06    -76.3915E+06    -10.3002E+06    -2.34644E+06         46.0550
             810     7.11228E-03     28.9754E-03         7.87471        -3.40104        -3.98385        -3.38442         7.85809        -3.98385    -247.269E-03     235.144E-03    -117.058E-03    -118.086E-03    -116.851E-03     234.867E-03    -118.016E-03     19.1966E-03    -16.4907E+06    -63.0322E+06    -144.363E+06    -63.0588E+06    -144.336E+06    -16.4907E+06    -1.02736E+06         44.6769
             811     6.22309E-03     28.9611E-03         8.14044        -3.59740        -4.04575        -3.58372         8.12675        -4.04575    -397.408E-03     235.739E-03    -117.491E-03    -118.248E-03    -117.616E-03     235.625E-03    -118.009E-03     12.3716E-03    -23.0824E+06    -68.0193E+06    -185.180E+06    -68.0333E+06    -185.166E+06    -23.0824E+06    -246.479E+03         43.4977
             812     5.33556E-03     28.9540E-03         8.39390        -3.79055        -4.10224        -3.76368         8.36703        -4.10224     930.374E-03     235.622E-03    -117.503E-03    -118.119E-03    -117.664E-03     235.574E-03    -117.911E-03     7.94491E-03    -31.9625E+06    -73.3742E+06    -198.774E+06    -73.3807E+06    -198.767E+06    -31.9625E+06     427.982E+03         42.5171
             813     4.44635E-03     28.9522E-03         8.57322        -3.93138        -4.15330        -3.90378         8.54561        -4.15330     981.913E-03     235.234E-03    -117.379E-03    -117.854E-03    -117.402E-03     235.217E-03    -117.815E-03     4.21817E-03    -46.9358E+06    -79.6932E+06    -214.086E+06    -79.7014E+06    -214.078E+06    -46.9358E+06     915.197E+03         41.7234
             814     3.55831E-03     28.9497E-03         8.75372        -4.07176        -4.20363        -4.07619         8.74706        -4.19254     471.361E-03     235.226E-03    -117.189E-03    -118.036E-03    -117.472E-03     235.221E-03    -117.749E-03     1.57646E-03    -61.2849E+06    -85.6258E+06    -225.845E+06    -85.6337E+06    -225.837E+06    -61.2849E+06     377.099E+03         41.1006
             815     2.66873E-03     28.9531E-03         8.96695        -4.20372        -4.30041        -4.16296         8.84315        -4.21738         2.03609     235.146E-03    -117.151E-03    -117.995E-03    -117.437E-03     235.145E-03    -117.708E-03     331.879E-06    -73.4955E+06    -89.9492E+06    -234.740E+06    -89.9516E+06    -234.738E+06    -73.4955E+06    -384.517E+03         40.6338
             816     1.77733E-03     28.9583E-03         9.12968        -4.20908        -4.42540        -4.28589         8.99017        -4.20908         1.33408     235.139E-03    -117.271E-03    -117.867E-03    -117.413E-03     235.138E-03    -117.725E-03     44.4734E-06    -86.1022E+06    -94.1794E+06    -242.687E+06    -94.1956E+06    -242.671E+06    -86.1022E+06     910.380E+03         40.3102
             817     889.046E-06     28.9579E-03         10.3531        -3.65982        -6.16493        -2.36361         8.91251        -6.02055         5.23257     235.466E-03    -116.839E-03    -118.627E-03    -117.966E-03     235.464E-03    -117.498E-03    -694.589E-06    -95.6151E+06    -99.2383E+06    -246.778E+06    -98.6021E+06    -246.737E+06    -96.2926E+06    -158.897E+03         40.1163
             818     15.1203E-03     28.5766E-03         4.08213    -795.087E-03        -2.80565    -634.107E-03         3.92115        -2.80565    -771.765E-03     245.521E-03    -116.143E-03    -129.378E-03    -115.815E-03     233.673E-03    -117.858E-03     103.360E-03     103.379E+06     97.0045E+06    -5.55867E+06    -5.55091E+06     103.371E+06     97.0045E+06     490.276E+03         59.6197
             819     14.2307E-03     28.3470E-03         4.33797        -1.05694        -2.86561    -913.125E-03         4.19416        -2.86561        -1.39065     250.060E-03    -117.913E-03    -132.147E-03    -116.994E-03     234.907E-03    -117.913E-03     143.472E-03     96.9538E+06     88.7597E+06    -12.8281E+06    -12.8261E+06     90.9345E+06     94.7769E+06     340.990E+03         58.0763
             820     13.3431E-03     28.2268E-03         4.47610        -1.20177        -2.91414        -1.17673         4.45107        -2.91414    -699.659E-03     242.526E-03    -117.902E-03    -124.624E-03    -115.558E-03     233.460E-03    -117.902E-03     113.097E-03     95.5506E+06     85.9671E+06    -18.7661E+06    -18.7586E+06     85.9597E+06     95.5506E+06     126.519E+03         56.4069
             821     12.4542E-03     28.0749E-03         4.76009        -1.47211        -2.96343        -1.43071         4.71869        -2.96343        -1.00834     240.772E-03    -117.870E-03    -122.902E-03    -113.786E-03     231.656E-03    -117.870E-03     112.940E-03     88.8279E+06     82.3235E+06    -26.7326E+06    -26.7227E+06     85.2518E+06     85.8898E+06     438.069E+03         54.6643
             822     11.5634E-03     27.9627E-03         5.01054        -1.70075        -3.01315        -1.67455         4.98433        -3.01315    -797.637E-03     236.826E-03    -117.490E-03    -119.335E-03    -113.372E-03     231.210E-03    -117.838E-03     88.0084E-03     81.1448E+06     62.8589E+06    -33.8452E+06    -33.8201E+06     81.1197E+06     62.8589E+06     1.53519E+06         52.8801
             823     10.6720E-03     27.8828E-03         5.30076        -1.96096        -3.06798        -1.93047         5.27027        -3.06798    -895.561E-03     235.660E-03    -117.135E-03    -118.525E-03    -114.526E-03     232.314E-03    -117.789E-03     67.7874E-03     73.4759E+06     38.8374E+06    -39.4678E+06    -39.4424E+06     73.4505E+06     38.8374E+06     1.43955E+06         51.0811
             824     9.78244E-03     27.8118E-03         5.60147        -2.23793        -3.12343        -2.19032         5.55386        -3.12343     7.40373E-03     234.957E-03    -116.927E-03    -118.031E-03    -115.357E-03     233.127E-03    -117.769E-03     49.9239E-03     40.4403E+06     19.7204E+06    -45.1307E+06    -45.1237E+06     39.0040E+06     21.1497E+06     317.099E+03         49.3066
             825     8.89187E-03     27.7703E-03         5.87416        -2.48679        -3.17695        -2.43647         5.82384        -3.17695    -69.1809E-03     234.584E-03    -116.776E-03    -117.808E-03    -115.861E-03     233.630E-03    -117.769E-03     36.1295E-03     3.01674E+06    -17.8669E+06    -51.9461E+06    -50.5900E+06    -19.2230E+06     3.01674E+06    -1.92216E+06         47.6117
             826     8.00315E-03     27.7348E-03         6.11420        -2.69918        -3.22560        -2.67008         6.08510        -3.22560    -491.836E-03     234.913E-03    -117.093E-03    -117.821E-03    -116.623E-03     234.404E-03    -117.781E-03     26.3650E-03    -9.72130E+06    -53.2092E+06    -83.1903E+06    -56.8550E+06    -79.5444E+06    -9.72130E+06    -2.50580E+06         46.0536
             827     7.11552E-03     27.7114E-03         6.31723        -2.86262        -3.26852        -2.85270         6.30730        -3.26852    -191.058E-03     234.626E-03    -116.779E-03    -117.847E-03    -116.534E-03     234.381E-03    -117.847E-03     18.1341E-03    -15.6621E+06    -63.6170E+06    -145.676E+06    -63.6407E+06    -145.652E+06    -15.6621E+06    -1.04455E+06         44.6741
             828     6.22533E-03     27.6965E-03         6.50063        -2.98843        -3.30880        -2.98044         6.49264        -3.30880    -355.958E-03     234.362E-03    -116.440E-03    -117.922E-03    -116.330E-03     234.251E-03    -117.922E-03     12.2053E-03    -25.2154E+06    -70.2611E+06    -187.079E+06    -70.2998E+06    -187.040E+06    -25.2154E+06    -1.56625E+06         43.4928
             829     5.33457E-03     27.6884E-03         6.72074        -3.16369        -3.35103        -3.11478         6.66719        -3.34638         1.02620     235.115E-03    -117.123E-03    -117.992E-03    -117.114E-03     235.067E-03    -117.953E-03     7.84382E-03    -35.6358E+06    -75.3252E+06    -201.315E+06    -75.3563E+06    -201.284E+06    -35.6358E+06    -1.22597E+06         42.5116
             830     4.44658E-03     27.6865E-03         6.82933        -3.26955        -3.38432        -3.21884         6.77397        -3.37968     931.126E-03     235.410E-03    -117.467E-03    -117.942E-03    -117.490E-03     235.393E-03    -117.903E-03     4.76690E-03    -51.0528E+06    -79.9175E+06    -215.264E+06    -79.9234E+06    -215.259E+06    -51.0528E+06     456.235E+03         41.7193
             831     3.55618E-03     27.6866E-03         6.94563        -3.32655        -3.46679        -3.35014         6.90471        -3.40227     730.810E-03     235.009E-03    -117.111E-03    -117.898E-03    -117.104E-03     235.003E-03    -117.898E-03     2.32103E-03    -65.9009E+06    -84.0970E+06    -223.446E+06    -84.1059E+06    -223.437E+06    -65.9009E+06     63.6001E+03         41.0986
             832     2.66533E-03     27.6899E-03         7.05960        -3.40879        -3.50272        -3.41635         6.97323        -3.40879         1.74109     235.464E-03    -117.402E-03    -118.062E-03    -117.471E-03     235.462E-03    -117.991E-03     285.352E-06    -76.0572E+06    -90.3917E+06    -236.562E+06    -90.3969E+06    -236.557E+06    -76.0572E+06    -626.241E+03         40.6335
             833     1.77857E-03     27.6914E-03         7.21889        -3.37506        -3.64626        -3.51170         7.08433        -3.37506         1.97623     236.098E-03    -117.864E-03    -118.234E-03    -118.180E-03     236.098E-03    -117.918E-03    -611.671E-06    -86.8828E+06    -97.0159E+06    -244.437E+06    -97.0462E+06    -244.406E+06    -86.8828E+06     1.30639E+06         40.3114
             834     889.743E-06     27.6942E-03         7.35875        -2.80792        -4.32588        -3.23589         6.90716        -3.44633         2.93433     235.541E-03    -116.919E-03    -118.623E-03    -118.143E-03     235.534E-03    -117.390E-03     145.437E-06    -95.9935E+06    -101.378E+06    -243.547E+06    -99.7202E+06    -243.516E+06    -97.6823E+06     1.35793E+06         40.1187
             835     15.1202E-03     27.3111E-03         3.06286    -601.285E-03        -2.24345    -407.471E-03         2.86904        -2.24345    -725.290E-03     246.446E-03    -116.105E-03    -130.341E-03    -117.168E-03     235.056E-03    -117.887E-03     102.627E-03     104.073E+06     97.7013E+06    -5.54654E+06    -5.53419E+06     102.732E+06     99.0299E+06     577.548E+03         59.6039
             836     14.2337E-03     27.0767E-03         3.22890    -804.187E-03        -2.27870    -631.475E-03         3.05619        -2.27870        -1.30727     249.881E-03    -117.892E-03    -131.990E-03    -117.253E-03     235.145E-03    -117.892E-03     142.214E-03     100.831E+06     91.1590E+06    -10.6952E+06    -10.6906E+06     92.3957E+06     99.5895E+06    -87.2750E+03         58.0642
             837     13.3452E-03     26.9618E-03         3.26882    -882.882E-03        -2.30365    -854.175E-03         3.24011        -2.30365    -638.852E-03     241.255E-03    -117.911E-03    -123.344E-03    -113.904E-03     231.815E-03    -117.911E-03     114.802E-03     96.1219E+06     84.2766E+06    -17.8563E+06    -17.8133E+06     84.2337E+06     96.1219E+06     728.240E+03         56.3955
             838     12.4519E-03     26.8128E-03         3.47649        -1.11203        -2.32988        -1.06470         3.42916        -2.32988    -917.294E-03     240.693E-03    -117.948E-03    -122.745E-03    -113.400E-03     231.348E-03    -117.948E-03     113.953E-03     88.4810E+06     79.3637E+06    -26.1219E+06    -26.0733E+06     83.6890E+06     84.1071E+06     1.32352E+06         54.6522
             839     11.5577E-03     26.7008E-03         3.66816        -1.30942        -2.35555        -1.27871         3.63745        -2.35555    -739.227E-03     237.666E-03    -117.908E-03    -119.758E-03    -114.295E-03     232.203E-03    -117.908E-03     86.9344E-03     80.8977E+06     62.4562E+06    -34.0601E+06    -34.0281E+06     80.8658E+06     62.4562E+06     667.065E+03         52.8691
             840     10.6712E-03     26.6105E-03         3.90273        -1.54175        -2.38540        -1.50805         3.86902        -2.38540    -816.114E-03     236.741E-03    -117.781E-03    -118.959E-03    -115.774E-03     233.556E-03    -117.781E-03     66.2208E-03     73.3156E+06     40.6335E+06    -40.2996E+06    -40.2734E+06     73.2893E+06     40.6335E+06     236.149E+03         51.0723
             841     9.78396E-03     26.5500E-03         4.12437        -1.77039        -2.41670        -1.71983         4.07381        -2.41670    -4.56831E-03     235.134E-03    -117.133E-03    -118.001E-03    -115.764E-03     233.427E-03    -117.662E-03     48.2933E-03     43.6575E+06     18.9393E+06    -46.1109E+06    -46.1037E+06     42.2801E+06     20.3096E+06    -230.249E+03         49.2992
             842     8.89435E-03     26.5033E-03         4.30604        -1.95738        -2.44773        -1.90893         4.25759        -2.44773    -17.6003E-03     234.409E-03    -116.746E-03    -117.663E-03    -115.838E-03     233.461E-03    -117.623E-03     36.1467E-03     4.73534E+06    -21.9694E+06    -52.7202E+06    -52.6175E+06    -17.3387E+06     1.87825E+03    -951.209E+03         47.6040
             843     8.00622E-03     26.4690E-03         4.46656        -2.10395        -2.47609        -2.07937         4.44198        -2.47609    -487.452E-03     234.399E-03    -116.701E-03    -117.698E-03    -116.191E-03     233.849E-03    -117.658E-03     27.3442E-03    -12.0656E+06    -55.0766E+06    -85.3606E+06    -57.9498E+06    -82.4874E+06    -12.0656E+06    -524.838E+03         46.0445
             844     7.11539E-03     26.4474E-03         4.60934        -2.21573        -2.50179        -2.21180         4.60541        -2.50179    -150.090E-03     234.255E-03    -116.494E-03    -117.762E-03    -116.216E-03     233.978E-03    -117.762E-03     19.3915E-03    -16.0348E+06    -63.0661E+06    -145.938E+06    -63.1002E+06    -145.904E+06    -16.0348E+06    -444.472E+03         44.6634
             845     6.22481E-03     26.4343E-03         4.73704        -2.31071        -2.52633        -2.30531         4.73164        -2.52633    -338.666E-03     234.273E-03    -116.434E-03    -117.839E-03    -116.308E-03     234.147E-03    -117.839E-03     12.8973E-03    -27.1971E+06    -69.7094E+06    -186.167E+06    -69.7476E+06    -186.128E+06    -27.1971E+06    -1.22530E+06         43.4812
             846     5.33487E-03     26.4241E-03         4.94696        -2.45072        -2.60721        -2.40001         4.83796        -2.54892         1.11564     234.370E-03    -116.472E-03    -117.898E-03    -116.426E-03     234.325E-03    -117.898E-03     7.59761E-03    -44.1449E+06    -76.7305E+06    -203.904E+06    -76.7749E+06    -203.860E+06    -44.1449E+06    -1.63891E+06         42.5000
             847     4.44425E-03     26.4212E-03         5.02629        -2.53925        -2.62647        -2.47540         4.90415        -2.56817     827.967E-03     234.983E-03    -117.005E-03    -117.977E-03    -116.992E-03     234.970E-03    -117.977E-03     3.74653E-03    -57.4905E+06    -82.0445E+06    -217.282E+06    -82.0671E+06    -217.259E+06    -57.4905E+06    -879.683E+03         41.7083
             848     3.55577E-03     26.4229E-03         5.15324        -2.54791        -2.76260        -2.58155         5.00111        -2.57683     990.677E-03     235.644E-03    -117.509E-03    -118.134E-03    -117.660E-03     235.641E-03    -117.982E-03     960.064E-06    -70.6880E+06    -85.9232E+06    -222.977E+06    -85.9534E+06    -222.947E+06    -70.6880E+06     445.466E+03         41.0886
             849     2.66777E-03     26.4242E-03         5.15458        -2.57124        -2.75998        -2.60795         5.00255        -2.57124         1.42068     235.843E-03    -117.654E-03    -118.189E-03    -117.877E-03     235.842E-03    -117.965E-03    -541.456E-06    -77.1467E+06    -89.4562E+06    -236.352E+06    -89.4795E+06    -236.328E+06    -77.1467E+06     740.385E+03         40.6241
             850     1.77747E-03     26.4254E-03         5.55356        -2.53051        -3.14985        -2.67484         5.07855        -2.53051         2.68141     235.763E-03    -117.646E-03    -118.117E-03    -117.819E-03     235.763E-03    -117.943E-03    -998.893E-06    -83.5103E+06    -94.1446E+06    -246.299E+06    -94.2094E+06    -246.234E+06    -83.5103E+06    -307.424E+03         40.3014
             851     888.938E-06     26.4298E-03         5.74716        -1.08211        -4.71566        -3.91029         4.94179        -1.08211     621.377E-03     235.785E-03    -117.437E-03    -118.348E-03    -117.697E-03     235.773E-03    -118.075E-03    -633.664E-06    -91.1966E+06    -97.2772E+06    -241.085E+06    -95.8603E+06    -241.012E+06    -92.6861E+06     130.068E+03         40.1082
             852     15.1240E-03     26.0363E-03         2.02068    -433.102E-03        -1.64732    -171.414E-03         1.75899        -1.64732    -672.796E-03     246.054E-03    -117.384E-03    -128.670E-03    -116.931E-03     234.712E-03    -117.781E-03     102.396E-03     102.956E+06     96.7759E+06    -6.33717E+06    -6.32445E+06     101.615E+06     98.1046E+06     383.704E+03         59.5878
             853     14.2353E-03     25.8157E-03         2.11100    -593.674E-03        -1.65790    -365.322E-03         1.88265        -1.65790        -1.21252     247.066E-03    -117.872E-03    -129.194E-03    -114.281E-03     232.153E-03    -117.872E-03     142.450E-03     97.4206E+06     89.8093E+06    -11.0385E+06    -11.0295E+06     90.3477E+06     96.8732E+06    -88.2067E+03         58.0468
             854     13.3379E-03     25.6997E-03         2.02646    -581.133E-03        -1.65720    -541.904E-03         1.98723        -1.65720    -582.904E-03     241.100E-03    -118.007E-03    -123.093E-03    -113.467E-03     231.474E-03    -118.007E-03     116.177E-03     93.9942E+06     82.8042E+06    -18.2401E+06    -18.1727E+06     82.7368E+06     93.9942E+06     459.829E+03         56.3763
             855     12.4491E-03     25.5456E-03         2.17224    -779.791E-03        -1.65628    -717.984E-03         2.11043        -1.65628    -823.297E-03     242.691E-03    -118.003E-03    -124.688E-03    -115.626E-03     233.629E-03    -118.003E-03     112.669E-03     89.0441E+06     80.9802E+06    -25.8919E+06    -25.8243E+06     83.5217E+06     86.4349E+06     319.095E+03         54.6343
             856     11.5655E-03     25.4349E-03         2.27976    -927.239E-03        -1.65464    -885.109E-03         2.23763        -1.65464    -689.118E-03     238.731E-03    -117.810E-03    -120.920E-03    -115.773E-03     233.583E-03    -117.810E-03     84.8579E-03     82.4457E+06     64.2139E+06    -33.1802E+06    -33.1162E+06     82.3816E+06     64.2139E+06     692.146E+03         52.8533
             857     10.6744E-03     25.3441E-03         2.40375        -1.07599        -1.65963        -1.03731         2.36507        -1.65963    -703.658E-03     235.563E-03    -117.120E-03    -118.443E-03    -114.859E-03     232.491E-03    -117.632E-03     64.9457E-03     72.9529E+06     37.8312E+06    -40.7487E+06    -40.6892E+06     72.8934E+06     37.8312E+06     892.217E+03         51.0555
             858     9.78439E-03     25.2833E-03         2.56199        -1.26286        -1.66822        -1.20640         2.50553        -1.66822     49.8663E-03     234.485E-03    -116.833E-03    -117.652E-03    -115.167E-03     232.742E-03    -117.576E-03     48.8820E-03     42.8165E+06     18.2828E+06    -46.4399E+06    -46.4001E+06     42.4754E+06     18.5841E+06     742.097E+03         49.2801
             859     8.89557E-03     25.2391E-03         2.67000        -1.39510        -1.67751        -1.34203         2.61693        -1.67751     54.2604E-03     234.376E-03    -116.808E-03    -117.567E-03    -115.790E-03     233.357E-03    -117.567E-03     37.4618E-03     4.28160E+06    -20.9843E+06    -52.8528E+06    -52.7818E+06    -16.3218E+06    -451.854E+03     407.505E+03         47.5841
             860     8.00348E-03     25.2053E-03         2.72550        -1.45933        -1.68710        -1.43680         2.70297        -1.68710    -432.555E-03     234.069E-03    -116.449E-03    -117.620E-03    -115.904E-03     233.523E-03    -117.620E-03     26.9144E-03    -12.8307E+06    -55.1359E+06    -87.0518E+06    -58.6771E+06    -83.5106E+06    -12.8307E+06    -943.657E+03         46.0242
             861     7.11373E-03     25.1839E-03         2.78435        -1.51427        -1.69780        -1.51302         2.78309        -1.69780    -106.191E-03     234.298E-03    -116.573E-03    -117.726E-03    -116.327E-03     234.053E-03    -117.726E-03     18.1254E-03    -17.0697E+06    -62.4661E+06    -147.218E+06    -62.6146E+06    -147.069E+06    -17.0697E+06    -908.980E+03         44.6425
             862     6.22586E-03     25.1680E-03         2.87499        -1.58609        -1.70920        -1.57607         2.86497        -1.70920    -352.947E-03     234.598E-03    -116.819E-03    -117.779E-03    -116.709E-03     234.489E-03    -117.779E-03     12.0012E-03    -24.0420E+06    -68.5269E+06    -186.210E+06    -68.5524E+06    -186.184E+06    -24.0420E+06     609.678E+03         43.4601
             863     5.33639E-03     25.1624E-03         3.15102        -1.67402        -1.90248        -1.64182         2.93580        -1.71945         1.12955     234.542E-03    -116.779E-03    -117.763E-03    -116.743E-03     234.506E-03    -117.763E-03     6.79729E-03    -41.5710E+06    -76.1951E+06    -202.979E+06    -76.2237E+06    -202.950E+06    -41.5710E+06     399.367E+03         42.4782
             864     4.44594E-03     25.1570E-03         3.21246        -1.72399        -1.94460        -1.67894         2.95095        -1.72814     724.350E-03     234.671E-03    -116.893E-03    -117.778E-03    -116.886E-03     234.663E-03    -117.778E-03     2.56060E-03    -59.2031E+06    -83.4937E+06    -218.230E+06    -83.5268E+06    -218.197E+06    -59.2031E+06    -1.08327E+06         41.6854
             865     3.55626E-03     25.1568E-03         3.39428        -1.72530        -2.14812        -1.75452         3.00483        -1.72946         1.17846     235.203E-03    -117.260E-03    -117.942E-03    -117.413E-03     235.203E-03    -117.790E-03     260.772E-06    -71.1859E+06    -88.8655E+06    -225.518E+06    -88.8990E+06    -225.485E+06    -71.1859E+06    -394.420E+03         41.0646
             866     2.66749E-03     25.1585E-03         3.41657        -1.72044        -2.18336        -1.76171         2.99491        -1.72044         1.08481     235.460E-03    -117.439E-03    -118.021E-03    -117.711E-03     235.459E-03    -117.748E-03    -690.637E-06    -80.9000E+06    -91.8062E+06    -234.954E+06    -91.8296E+06    -234.931E+06    -80.9000E+06     545.618E+03         40.5991
             867     1.77878E-03     25.1629E-03         4.27865        -1.69334        -3.02793        -1.78090         3.03162        -1.69334         3.25838     235.357E-03    -117.415E-03    -117.942E-03    -117.644E-03     235.355E-03    -117.712E-03    -1.49193E-03    -86.3486E+06     -94.515E+06    -245.135E+06    -94.5631E+06    -245.087E+06    -86.3486E+06    -1.14290E+06         40.2751
             868     888.377E-06     25.1628E-03         5.32066     902.200E-03        -6.62804        -4.25616         2.94878     902.200E-03        -1.24009     235.324E-03    -116.915E-03    -118.408E-03    -118.234E-03     235.316E-03    -117.082E-03    -1.93503E-03    -94.4475E+06    -99.7659E+06    -244.463E+06    -99.8521E+06    -244.377E+06    -94.4475E+06    -1.67158E+06         40.0805
             869     15.1291E-03     24.7780E-03         1.09598    -416.495E-03        -1.04961     74.0222E-03     582.077E-03        -1.02623    -600.050E-03     245.031E-03    -117.001E-03    -128.030E-03    -115.426E-03     233.177E-03    -117.752E-03     102.691E-03     100.679E+06     96.6639E+06    -5.98242E+06    -5.94311E+06     100.312E+06     96.9918E+06     1.13229E+06         59.5693
             870     14.2285E-03     24.5563E-03         1.05690    -471.772E-03        -1.03561    -97.3862E-03     659.131E-03        -1.01223        -1.09899     247.529E-03    -117.894E-03    -129.634E-03    -114.349E-03     232.244E-03    -117.894E-03     143.288E-03     95.6297E+06     90.2201E+06    -12.3635E+06    -12.3230E+06     90.7270E+06     95.0823E+06     1.46234E+06         58.0269
             871     13.3416E-03     24.4340E-03     822.755E-03    -363.027E-03    -983.269E-03    -248.340E-03     708.068E-03    -983.269E-03    -525.297E-03     242.354E-03    -117.978E-03    -124.376E-03    -115.151E-03     233.129E-03    -117.978E-03     114.125E-03     93.9582E+06     85.7970E+06    -20.1533E+06    -20.1217E+06     85.7654E+06     93.9582E+06    -261.127E+03         56.3558
             872     12.4529E-03     24.2780E-03     893.533E-03    -516.335E-03    -953.465E-03    -366.708E-03     743.906E-03    -953.465E-03    -702.732E-03     242.785E-03    -117.887E-03    -124.898E-03    -115.940E-03     233.826E-03    -117.887E-03     112.408E-03     85.9811E+06     79.0515E+06    -29.7022E+06    -29.6721E+06     82.3241E+06     82.6784E+06    -1.52138E+06         54.6112
             873     11.5633E-03     24.1628E-03     882.515E-03    -569.246E-03    -925.904E-03    -455.432E-03     768.701E-03    -925.904E-03    -605.090E-03     238.280E-03    -117.701E-03    -120.579E-03    -115.361E-03     233.062E-03    -117.701E-03     85.1888E-03     79.3315E+06     61.8783E+06    -35.9474E+06    -35.8681E+06     79.2522E+06     61.8783E+06    -336.225E+03         52.8249
             874     10.6760E-03     24.0846E-03     897.103E-03    -631.763E-03    -908.415E-03    -546.003E-03     811.344E-03    -908.415E-03    -563.550E-03     235.088E-03    -117.053E-03    -118.034E-03    -114.366E-03     231.932E-03    -117.565E-03     66.0215E-03     74.1733E+06     39.7948E+06    -39.3798E+06    -39.3032E+06     74.0967E+06     39.7948E+06     722.075E+03         51.0225
             875     9.78323E-03     24.0174E-03     994.900E-03    -746.585E-03    -931.282E-03    -644.735E-03     857.687E-03    -895.920E-03     129.553E-03     234.174E-03    -116.622E-03    -117.553E-03    -114.816E-03     232.358E-03    -117.542E-03     49.4564E-03     40.7922E+06     18.8907E+06    -44.6729E+06    -44.6201E+06     40.4381E+06     19.1920E+06     666.481E+03         49.2442
             876     8.89338E-03     23.9740E-03         1.01371    -795.541E-03    -938.107E-03    -716.290E-03     883.095E-03    -886.738E-03     136.102E-03     234.292E-03    -116.748E-03    -117.544E-03    -115.811E-03     233.356E-03    -117.544E-03     35.8925E-03     2.63476E+06    -15.6254E+06    -49.2716E+06    -49.1543E+06    -14.3705E+06     1.26249E+06     802.843E+03         47.5468
             877     8.00665E-03     23.9404E-03     953.719E-03    -801.048E-03    -895.931E-03    -775.037E-03     911.702E-03    -879.926E-03    -357.590E-03     234.530E-03    -116.964E-03    -117.566E-03    -116.442E-03     234.008E-03    -117.566E-03     26.4921E-03    -10.9125E+06    -50.1138E+06    -88.7568E+06    -55.8778E+06    -82.9928E+06    -10.9125E+06     1.12147E+06         45.9864
             878     7.11779E-03     23.9194E-03     941.711E-03    -814.720E-03    -877.256E-03    -810.934E-03     935.594E-03    -874.925E-03    -42.5211E-03     234.667E-03    -117.043E-03    -117.624E-03    -116.829E-03     234.432E-03    -117.602E-03     17.6016E-03    -17.4102E+06    -64.9868E+06    -150.967E+06    -65.3475E+06    -150.606E+06    -17.4102E+06     1.92646E+06         44.6041
             879     6.22581E-03     23.9052E-03         1.00386    -835.348E-03    -912.233E-03    -825.877E-03     954.850E-03    -872.690E-03    -287.070E-03     234.506E-03    -116.895E-03    -117.611E-03    -116.827E-03     234.416E-03    -117.590E-03     10.8238E-03    -24.0919E+06    -73.0722E+06    -185.351E+06    -73.1178E+06    -185.305E+06    -24.0919E+06     1.78168E+06         43.4201
             880     5.33650E-03     23.8964E-03         1.46763    -861.716E-03        -1.35941    -839.056E-03     958.808E-03    -873.246E-03         1.15468     234.563E-03    -117.045E-03    -117.518E-03    -117.016E-03     234.534E-03    -117.518E-03     5.93345E-03    -38.0567E+06    -79.3457E+06    -201.164E+06    -79.3614E+06    -201.148E+06    -38.0567E+06     676.564E+03         42.4358
             881     4.44869E-03     23.8940E-03         1.59348    -874.106E-03        -1.50279    -867.825E-03     958.507E-03    -874.106E-03     712.418E-03     234.518E-03    -117.046E-03    -117.471E-03    -117.091E-03     234.511E-03    -117.421E-03     2.50265E-03    -56.5257E+06    -84.8565E+06    -216.608E+06    -84.8729E+06    -216.592E+06    -56.5257E+06    -179.857E+03         41.6402
             882     3.55837E-03     23.8934E-03         1.83570    -870.100E-03        -1.76642    -902.970E-03     972.245E-03    -870.100E-03         1.27041     234.352E-03    -116.932E-03    -117.421E-03    -116.989E-03     234.350E-03    -117.361E-03    -254.808E-06    -71.7811E+06    -90.4623E+06    -227.112E+06    -90.4726E+06    -227.101E+06    -71.7811E+06    -837.405E+03         41.0168
             883     2.66770E-03     23.8944E-03         1.97629    -860.272E-03        -1.92093    -899.965E-03     955.327E-03    -860.272E-03     892.004E-03     234.513E-03    -117.059E-03    -117.453E-03    -117.184E-03     234.508E-03    -117.324E-03    -2.09171E-03    -83.6282E+06    -95.2913E+06    -235.048E+06    -95.2949E+06    -235.045E+06    -83.6282E+06    -476.257E+03         40.5497
             884     1.77883E-03     23.8972E-03         3.19893    -840.172E-03        -3.14613    -900.948E-03     953.742E-03    -840.172E-03         3.50015     234.668E-03    -117.133E-03    -117.534E-03    -117.444E-03     234.664E-03    -117.220E-03    -2.14744E-03    -91.8681E+06    -99.4433E+06    -244.518E+06    -99.4447E+06    -244.516E+06    -91.8681E+06         210.418         40.2247
             885     891.130E-06     23.9006E-03         5.50300         1.81705        -8.07542        -4.24295     896.030E-03         2.59155        -2.21180     234.197E-03    -115.871E-03    -118.326E-03    -117.111E-03     234.195E-03    -117.084E-03    -865.740E-06    -101.471E+06    -105.613E+06    -247.898E+06    -105.353E+06    -247.865E+06    -101.763E+06    -947.319E+03         40.0290
             886     15.1187E-03     23.5228E-03     672.679E-03    -266.379E-03        -1.10920     333.855E-03    -651.673E-03    -385.086E-03    -568.715E-03     245.801E-03    -115.859E-03    -129.942E-03    -116.244E-03     234.110E-03    -117.865E-03     102.713E-03     99.6243E+06     97.5476E+06    -5.27093E+06    -5.23794E+06     99.0676E+06     98.0712E+06     640.180E+03         59.5472
             887     14.2339E-03     23.2870E-03     547.260E-03    -226.627E-03        -1.09837     195.890E-03    -628.337E-03    -345.294E-03        -1.01693     250.892E-03    -117.881E-03    -133.012E-03    -117.895E-03     235.775E-03    -117.881E-03     144.017E-03     98.9488E+06     93.3447E+06    -9.32398E+06    -9.23371E+06     93.2544E+06     98.9488E+06     2.32100E+06         58.0053
             888     13.3444E-03     23.1686E-03     277.978E-03    -113.237E-03        -1.01028     90.2189E-03    -645.782E-03    -289.981E-03    -468.619E-03     243.035E-03    -117.793E-03    -125.241E-03    -116.236E-03     234.029E-03    -117.793E-03     113.074E-03     94.1028E+06     87.2810E+06    -18.2032E+06    -18.0520E+06     87.1298E+06     94.1028E+06     2.88464E+06         56.3313
             889     12.4545E-03     23.0119E-03     285.639E-03    -141.698E-03        -1.03984     40.8180E-03    -700.317E-03    -236.397E-03    -596.025E-03     240.651E-03    -117.700E-03    -122.950E-03    -114.020E-03     231.720E-03    -117.700E-03     111.898E-03     85.8282E+06     76.1137E+06    -28.9513E+06    -28.8478E+06     83.9833E+06     77.8551E+06     1.49149E+06         54.5762
             890     11.5649E-03     22.8984E-03     230.750E-03    -110.944E-03        -1.05323     1.40631E-03    -748.505E-03    -186.330E-03    -496.960E-03     236.623E-03    -117.647E-03    -118.976E-03    -113.602E-03     231.249E-03    -117.647E-03     85.7849E-03     79.0475E+06     55.2165E+06    -36.5527E+06    -36.4500E+06     78.9449E+06     55.2165E+06    -2.20213E+06         52.7766
             891     10.6728E-03     22.8185E-03     204.210E-03    -101.190E-03        -1.07082    -41.8269E-03    -779.039E-03    -146.931E-03    -435.782E-03     236.027E-03    -117.564E-03    -118.463E-03    -115.372E-03     232.936E-03    -117.564E-03     65.4328E-03     71.2959E+06     36.7991E+06    -42.7497E+06    -42.6414E+06     71.1876E+06     36.7991E+06    -2.52552E+06         50.9655
             892     9.78634E-03     22.7532E-03     258.987E-03    -108.174E-03        -1.16087    -54.4108E-03    -840.490E-03    -115.153E-03     183.307E-03     234.987E-03    -117.108E-03    -117.879E-03    -115.796E-03     233.250E-03    -117.454E-03     48.4727E-03     40.7394E+06     18.6654E+06    -48.2380E+06    -48.2017E+06     40.7031E+06     18.6654E+06    -453.778E+03         49.1831
             893     8.89687E-03     22.7090E-03     259.125E-03    -103.471E-03        -1.20437    -68.7144E-03    -890.012E-03    -89.9880E-03     220.803E-03     234.039E-03    -116.655E-03    -117.384E-03    -115.798E-03     233.182E-03    -117.384E-03     34.2438E-03     705.880E+03    -19.3362E+06    -53.5624E+06    -53.4788E+06    -15.9845E+06    -2.72934E+06     166.381E+03         47.4819
             894     8.00442E-03     22.6763E-03     205.165E-03    -102.177E-03        -1.17180    -91.8154E-03    -908.335E-03    -68.6639E-03    -295.677E-03     234.213E-03    -116.788E-03    -117.425E-03    -116.318E-03     233.743E-03    -117.425E-03     25.1334E-03    -9.42447E+06    -52.0276E+06    -92.4180E+06    -57.5464E+06    -86.8991E+06    -9.42447E+06     3.52194E+06         45.9173
             895     7.11546E-03     22.6529E-03     192.256E-03    -80.3957E-03        -1.18536    -80.1882E-03    -942.584E-03    -50.7318E-03     8.65030E-03     234.747E-03    -117.188E-03    -117.559E-03    -117.086E-03     234.527E-03    -117.442E-03     16.8616E-03    -11.0629E+06    -62.9342E+06    -148.885E+06    -63.2858E+06    -148.534E+06    -11.0629E+06     4.77533E+06         44.5315
             896     6.22986E-03     22.6417E-03     226.591E-03    -60.6839E-03        -1.23601    -71.3047E-03    -961.571E-03    -37.2273E-03    -205.232E-03     234.718E-03    -117.154E-03    -117.564E-03    -117.309E-03     234.638E-03    -117.329E-03     10.2601E-03    -20.6195E+06    -69.8124E+06    -181.602E+06    -69.8639E+06    -181.550E+06    -20.6195E+06     1.33269E+06         43.3445
             897     5.33986E-03     22.6329E-03     684.044E-03    -41.2744E-03        -1.72562    -52.7741E-03        -1.00262    -27.4513E-03         1.10690     234.219E-03    -116.917E-03    -117.303E-03    -117.008E-03     234.194E-03    -117.186E-03     5.42549E-03    -34.2510E+06    -75.9841E+06    -201.723E+06    -75.9871E+06    -201.720E+06    -34.2510E+06    -506.378E+03         42.3571
             898     4.44860E-03     22.6304E-03     812.503E-03    -20.2428E-03        -1.90370    -47.1382E-03        -1.04406    -20.2428E-03     748.979E-03     234.127E-03    -116.934E-03    -117.193E-03    -117.094E-03     234.122E-03    -117.028E-03     1.75030E-03    -51.3703E+06    -82.4617E+06    -216.159E+06    -82.4647E+06    -216.156E+06    -51.3703E+06     22.0842E+03         41.5583
             899     3.56030E-03     22.6297E-03         1.02446    -11.7318E-03        -2.14935    -56.3238E-03        -1.06857    -11.7318E-03         1.23879     233.870E-03    -116.845E-03    -117.024E-03    -117.016E-03     233.867E-03    -116.851E-03    -665.266E-06    -68.5847E+06    -88.3085E+06    -227.254E+06    -88.3102E+06    -227.252E+06    -68.5847E+06     152.250E+03         40.9327
             900     2.67165E-03     22.6324E-03         1.12890     6.73980E-03        -2.29164    -77.6088E-03        -1.08513     6.73980E-03     884.401E-03     233.330E-03    -116.563E-03    -116.767E-03    -116.568E-03     233.327E-03    -116.758E-03    -1.82687E-03    -79.8466E+06    -92.9513E+06    -236.100E+06    -92.9531E+06    -236.098E+06    -79.8466E+06     166.166E+03         40.4644
             901     1.78040E-03     22.6345E-03         2.31523     31.7919E-03        -3.49448    -19.2475E-03        -1.16000     31.7919E-03         3.33543     233.248E-03    -116.360E-03    -116.889E-03    -116.441E-03     233.245E-03    -116.804E-03    -1.77480E-03    -87.5428E+06    -96.5060E+06    -243.652E+06    -96.5102E+06    -243.648E+06    -87.5428E+06     524.331E+03         40.1390
             902     888.983E-06     22.6375E-03         5.90517         1.37571        -8.37054        -3.88866        -1.17624         3.97523        -1.99002     233.664E-03    -115.541E-03    -118.123E-03    -116.651E-03     233.661E-03    -117.010E-03    -1.98912E-03    -95.9731E+06    -100.096E+06    -247.605E+06    -98.8821E+06    -247.602E+06    -97.1899E+06     218.956E+03         39.9432
             903     15.1210E-03     22.2442E-03     743.356E-03     273.106E-03        -2.06076     609.345E-03        -1.92675     273.106E-03    -545.529E-03     246.893E-03    -115.998E-03    -130.896E-03    -117.261E-03     235.188E-03    -117.928E-03     104.249E-03     99.4835E+06     97.4422E+06    -4.72882E+06    -4.72807E+06     99.2871E+06     97.6380E+06    -179.867E+03         59.5187
             904     14.2332E-03     22.0247E-03     667.504E-03     335.242E-03        -2.11891     536.602E-03        -1.99078     338.014E-03    -939.557E-03     252.958E-03    -117.852E-03    -135.106E-03    -119.802E-03     237.654E-03    -117.852E-03     146.175E-03     97.8560E+06     91.0908E+06    -11.7942E+06    -11.7305E+06     92.0307E+06     96.8525E+06     1.55392E+06         57.9723
             905     13.3470E-03     21.8948E-03     540.975E-03     398.890E-03        -2.12081     504.637E-03        -2.09979     414.211E-03    -423.254E-03     243.428E-03    -117.694E-03    -125.734E-03    -116.810E-03     234.505E-03    -117.694E-03     112.993E-03     95.4192E+06     86.7222E+06    -18.2591E+06    -18.0725E+06     86.5356E+06     95.4192E+06     4.11332E+06         56.2887
             906     12.4587E-03     21.7548E-03     576.397E-03     434.728E-03        -2.24066     494.752E-03        -2.20997     485.689E-03    -530.807E-03     239.843E-03    -117.604E-03    -122.240E-03    -113.525E-03     231.128E-03    -117.604E-03     110.553E-03     91.4230E+06     81.7906E+06    -24.1110E+06    -23.9666E+06     88.1475E+06     84.9217E+06     3.57924E+06         54.5182
             907     11.5615E-03     21.6354E-03     593.637E-03     482.896E-03        -2.34714     500.938E-03        -2.32639     554.848E-03    -426.297E-03     236.477E-03    -117.532E-03    -118.946E-03    -113.545E-03     231.077E-03    -117.532E-03     85.8215E-03     81.6267E+06     55.9896E+06    -33.7609E+06    -33.5939E+06     81.4597E+06     55.9896E+06     1.23256E+06         52.7013
             908     10.6756E-03     21.5489E-03     616.921E-03     528.293E-03        -2.45128     520.042E-03        -2.43892     612.814E-03    -334.347E-03     235.951E-03    -117.410E-03    -118.541E-03    -115.628E-03     233.038E-03    -117.410E-03     63.3492E-03     69.9839E+06     31.1313E+06    -43.8393E+06    -43.6757E+06     69.8202E+06     31.1313E+06    -841.927E+03         50.8748
             909     9.78646E-03     21.4877E-03     670.419E-03     557.034E-03        -2.57620     529.227E-03        -2.53911     661.132E-03     224.645E-03     235.370E-03    -117.200E-03    -118.170E-03    -116.526E-03     233.793E-03    -117.267E-03     46.3709E-03     38.8812E+06     16.9521E+06    -52.3527E+06    -52.3276E+06     38.7067E+06     17.1014E+06    -862.869E+03         49.0803
             910     8.89738E-03     21.4443E-03     710.495E-03     595.377E-03        -2.68976     570.885E-03        -2.65644     701.666E-03     279.302E-03     234.540E-03    -116.869E-03    -117.671E-03    -116.658E-03     233.769E-03    -117.111E-03     32.3225E-03    -153.201E+03    -20.9980E+06    -60.1998E+06    -59.6632E+06    -19.4717E+06    -2.21615E+06     1.49163E+06         47.3698
             911     8.01085E-03     21.4123E-03     735.630E-03     613.314E-03        -2.74786     608.241E-03        -2.74279     735.630E-03    -209.073E-03     233.877E-03    -116.583E-03    -117.295E-03    -116.476E-03     233.514E-03    -117.038E-03     22.1287E-03    -13.0494E+06    -57.7992E+06    -94.8010E+06    -64.1066E+06    -88.4936E+06    -13.0494E+06     1.67370E+06         45.7973
             912     7.12054E-03     21.3893E-03     764.881E-03     644.252E-03        -2.81163     640.488E-03        -2.80786     764.881E-03     12.8096E-03     233.559E-03    -116.444E-03    -117.115E-03    -116.385E-03     233.404E-03    -117.019E-03     14.2581E-03    -15.8604E+06    -66.0168E+06    -143.512E+06    -66.3560E+06    -143.173E+06    -15.8604E+06    -752.815E+03         44.4041
             913     6.22878E-03     21.3753E-03     789.935E-03     689.873E-03        -2.87898     674.714E-03        -2.86382     789.935E-03    -156.142E-03     233.921E-03    -116.642E-03    -117.278E-03    -116.925E-03     233.863E-03    -116.938E-03     8.44860E-03    -23.4592E+06    -68.5400E+06    -180.261E+06    -68.7127E+06    -180.088E+06    -23.4592E+06    -1.71978E+06         43.2116
             914     5.34087E-03     21.3710E-03     991.820E-03     762.300E-03        -3.16602     716.122E-03        -2.93890     810.878E-03     993.792E-03     233.977E-03    -116.760E-03    -117.217E-03    -117.192E-03     233.959E-03    -116.767E-03     4.30266E-03    -34.1514E+06    -72.9665E+06    -204.390E+06    -72.9789E+06    -204.378E+06    -34.1514E+06    -297.176E+03         42.2211
             915     4.45281E-03     21.3665E-03         1.03507     798.764E-03        -3.28402     750.211E-03        -3.02891     828.510E-03     764.178E-03     233.247E-03    -116.361E-03    -116.886E-03    -116.676E-03     233.244E-03    -116.568E-03     1.08146E-03    -48.7678E+06    -80.0002E+06    -215.914E+06    -80.0064E+06    -215.908E+06    -48.7678E+06     554.303E+03         41.4210
             916     3.56213E-03     21.3681E-03         1.16662     813.955E-03        -3.46496     783.318E-03        -3.11140     843.701E-03         1.08432     232.746E-03    -116.201E-03    -116.544E-03    -116.314E-03     232.745E-03    -116.431E-03    -706.668E-06    -64.2543E+06    -85.9494E+06    -227.148E+06    -85.9686E+06    -227.129E+06    -64.2543E+06     944.796E+03         40.7951
             917     2.67043E-03     21.3708E-03         1.19125     814.225E-03        -3.49903     750.488E-03        -3.11361     869.577E-03         1.04191     232.618E-03    -116.203E-03    -116.415E-03    -116.280E-03     232.614E-03    -116.334E-03    -1.68768E-03    -78.8898E+06    -90.8986E+06    -236.554E+06    -90.9178E+06    -236.535E+06    -78.8898E+06     1.01586E+06         40.3275
             918     1.78057E-03     21.3743E-03         1.93927     842.383E-03        -4.28065     856.722E-03        -3.25345     897.735E-03         2.82066     232.438E-03    -115.967E-03    -116.472E-03    -116.109E-03     232.434E-03    -116.325E-03    -2.08677E-03    -85.7102E+06    -93.3634E+06    -241.835E+06    -93.3708E+06    -241.828E+06    -85.7102E+06     204.989E+03         40.0033
             919     890.229E-06     21.3757E-03         6.00721     124.725E-03        -7.60230        -3.18637        -3.27404         4.99005    -711.877E-03     232.649E-03    -115.533E-03    -117.116E-03    -116.857E-03     232.646E-03    -115.789E-03    -1.43892E-03    -92.6095E+06    -99.4545E+06    -248.105E+06    -98.5508E+06    -248.084E+06    -93.5344E+06     688.614E+03         39.8081
             920     15.1211E-03     20.9905E-03         1.05631     864.582E-03        -3.31888     916.938E-03        -3.25495     940.023E-03    -491.003E-03     247.871E-03    -117.000E-03    -130.871E-03    -118.064E-03     235.911E-03    -117.846E-03     104.772E-03     99.3527E+06     96.1937E+06    -7.31355E+06    -7.28658E+06     99.2350E+06     96.2844E+06     893.445E+03         59.4777
             921     14.2305E-03     20.7442E-03         1.08920     912.600E-03        -3.47494     912.962E-03        -3.41272         1.02662    -864.570E-03     251.378E-03    -117.789E-03    -133.589E-03    -118.315E-03     236.104E-03    -117.789E-03     144.676E-03     94.4507E+06     86.0401E+06    -14.8998E+06    -14.8414E+06     86.9852E+06     93.4471E+06     521.158E+03         57.9190
             922     13.3468E-03     20.6307E-03         1.12107     949.517E-03        -3.60810     939.621E-03        -3.59820         1.12107    -408.786E-03     242.509E-03    -117.709E-03    -124.800E-03    -116.019E-03     233.729E-03    -117.709E-03     111.556E-03     94.5808E+06     83.6503E+06    -20.0123E+06    -19.9312E+06     83.5692E+06     94.5808E+06    -76.3867E+03         56.2148
             923     12.4543E-03     20.4896E-03         1.20833         1.00267        -3.79501     990.124E-03        -3.78247         1.20833    -467.524E-03     242.114E-03    -117.565E-03    -124.549E-03    -115.859E-03     233.424E-03    -117.565E-03     110.833E-03     93.1457E+06     83.7113E+06    -24.5340E+06    -24.4040E+06     89.4016E+06     87.3254E+06     2.25618E+06         54.4219
             924     11.5716E-03     20.3719E-03         1.29193         1.06206        -3.97347         1.05353        -3.96494         1.29193    -387.078E-03     238.085E-03    -117.329E-03    -120.756E-03    -115.466E-03     232.795E-03    -117.329E-03     85.6779E-03     83.7685E+06     60.3249E+06    -31.6604E+06    -31.4071E+06     83.5152E+06     60.3249E+06     5.18043E+06         52.5822
             925     10.6781E-03     20.2839E-03         1.36368         1.11288        -4.13233         1.10892        -4.12837         1.36368    -274.276E-03     235.837E-03    -117.093E-03    -118.744E-03    -115.852E-03     232.944E-03    -117.093E-03     62.8033E-03     72.5671E+06     33.6707E+06    -39.9509E+06    -39.6854E+06     72.3016E+06     33.6707E+06     4.29605E+06         50.7316
             926     9.78987E-03     20.2210E-03         1.42501         1.16448        -4.28389         1.14904        -4.26844         1.42501     261.109E-03     235.454E-03    -116.883E-03    -118.572E-03    -117.212E-03     234.094E-03    -116.883E-03     42.7505E-03     40.1237E+06     16.5157E+06    -48.6108E+06    -48.4761E+06     37.6541E+06     18.8506E+06     1.72411E+06         48.9153
             927     8.90332E-03     20.1778E-03         1.47737         1.23089        -4.43416         1.21635        -4.41961         1.47737     295.497E-03     234.521E-03    -116.623E-03    -117.898E-03    -117.300E-03     233.923E-03    -116.623E-03     28.5483E-03            901.    -20.2039E+06    -55.7799E+06    -55.2106E+06    -20.7732E+06            901.     2.04011E+06         47.1878
             928     8.01332E-03     20.1481E-03         1.52300         1.27759        -4.54205         1.27669        -4.54115         1.52300    -111.107E-03     233.485E-03    -116.370E-03    -117.114E-03    -116.781E-03     233.194E-03    -116.413E-03     19.6075E-03    -14.6019E+06    -54.8529E+06    -86.7441E+06    -59.4866E+06    -82.1104E+06    -14.6019E+06    -193.657E+03         45.6020
             929     7.12448E-03     20.1274E-03         1.56407         1.33838        -4.64410         1.33792        -4.64363         1.56407     8.08296E-03     232.599E-03    -115.981E-03    -116.618E-03    -116.166E-03     232.485E-03    -116.319E-03     11.8560E-03    -19.2946E+06    -63.5640E+06    -140.421E+06    -63.8384E+06    -140.146E+06    -19.2946E+06    -4.18681E+06         44.1986
             930     6.23506E-03     20.1144E-03         1.60082         1.40622        -4.74535         1.40395        -4.74308         1.60082    -86.7117E-03     232.240E-03    -115.787E-03    -116.452E-03    -115.963E-03     232.211E-03    -116.248E-03     5.81210E-03    -27.3174E+06    -70.1196E+06    -184.148E+06    -70.3002E+06    -183.967E+06    -27.3174E+06    -3.55745E+06         42.9985
             931     5.34442E-03     20.1056E-03         1.66927         1.52520        -4.95000         1.47776        -4.86562         1.63233     865.201E-03     232.302E-03    -115.834E-03    -116.467E-03    -116.162E-03     232.296E-03    -116.134E-03     1.74960E-03    -38.0600E+06    -77.0003E+06    -206.278E+06    -77.0241E+06    -206.254E+06    -38.0600E+06    -836.191E+03         42.0040
             932     4.45376E-03     20.1068E-03         1.69887         1.56019        -5.05146         1.50799        -4.96231         1.66193     817.552E-03     232.018E-03    -115.641E-03    -116.377E-03    -116.038E-03     232.014E-03    -115.977E-03    -768.063E-06    -51.2467E+06    -80.9527E+06    -215.963E+06    -80.9593E+06    -215.956E+06    -51.2467E+06     21.6436E+03         41.2035
             933     3.56238E-03     20.1076E-03         1.77032         1.59815        -5.18667         1.57840        -5.08730         1.69070     849.044E-03     231.717E-03    -115.617E-03    -116.100E-03    -115.868E-03     231.708E-03    -115.840E-03    -2.53580E-03    -65.1236E+06     -86.368E+06    -228.406E+06    -86.3944E+06    -228.379E+06    -65.1236E+06     62.4859E+03         40.5796
             934     2.67315E-03     20.1097E-03         1.80440         1.62550        -5.25266         1.59437        -5.14191         1.72478         1.28215     231.612E-03    -115.671E-03    -115.941E-03    -115.907E-03     231.601E-03    -115.694E-03    -3.74985E-03    -76.4549E+06    -89.7959E+06    -235.255E+06    -89.8263E+06    -235.225E+06    -76.4549E+06     708.952E+03         40.1150
             935     1.78237E-03     20.1138E-03         2.11425         1.65432        -5.58994         1.72652        -5.29820         1.75030         1.99368     231.383E-03    -115.454E-03    -115.929E-03    -115.920E-03     231.374E-03    -115.454E-03    -3.46954E-03    -87.6376E+06    -93.6810E+06    -241.687E+06    -93.6950E+06    -241.673E+06    -87.6376E+06     547.741E+03         39.7934
             936     891.672E-06     20.1157E-03         6.11796    -881.244E-03        -7.02769        -2.24587        -5.29912         5.75402         1.26051     230.597E-03    -114.928E-03    -115.668E-03    -115.446E-03     230.591E-03    -115.145E-03    -2.02323E-03    -92.3617E+06    -98.9006E+06    -246.511E+06    -96.7208E+06    -246.459E+06    -94.5941E+06    -190.594E+03         39.6000
             937     15.1258E-03     19.7199E-03         1.60575         1.28063        -4.65476         1.24602        -4.62015         1.60575    -458.197E-03     249.250E-03    -117.558E-03    -131.693E-03    -119.594E-03     237.324E-03    -117.730E-03     105.799E-03     101.358E+06     95.9935E+06    -4.21353E+06    -4.17710E+06     98.8017E+06     98.5132E+06     1.44945E+06         59.4180
             938     14.2412E-03     19.4818E-03         1.70995         1.33905        -4.89153         1.30392        -4.85640         1.70995    -802.338E-03     249.540E-03    -117.667E-03    -131.872E-03    -116.767E-03     234.434E-03    -117.667E-03     143.259E-03     94.7225E+06     84.5923E+06    -9.71549E+06    -9.63249E+06     84.5093E+06     94.7225E+06     1.30037E+06         57.8409
             939     13.3413E-03     19.3690E-03         1.82082         1.39390        -5.12375         1.38796        -5.11781         1.82082    -384.776E-03     241.587E-03    -117.644E-03    -123.943E-03    -115.204E-03     232.848E-03    -117.644E-03     111.008E-03     91.7458E+06     81.3129E+06    -16.9972E+06    -16.9249E+06     81.2406E+06     91.7458E+06    -304.987E+03         56.1061
             940     12.4583E-03     19.2144E-03         1.92315         1.51214        -5.38855         1.50591        -5.38232         1.92315    -405.255E-03     243.840E-03    -117.438E-03    -126.401E-03    -118.002E-03     235.440E-03    -117.438E-03     109.137E-03     88.9750E+06     78.6223E+06    -25.5627E+06    -25.4721E+06     86.0621E+06     81.4446E+06     1.05694E+06         54.2780
             941     11.5683E-03     19.1078E-03         2.01864         1.61594        -5.62000         1.61150        -5.61556         2.01864    -338.510E-03     240.167E-03    -117.018E-03    -123.148E-03    -118.343E-03     235.362E-03    -117.018E-03     82.1299E-03     83.4333E+06     60.2326E+06    -31.9732E+06    -31.8010E+06     83.2611E+06     60.2326E+06     3.61986E+06         52.4035
             942     10.6834E-03     19.0178E-03         2.10091         1.70854        -5.82255         1.70659        -5.82059         2.10091    -229.873E-03     237.136E-03    -116.557E-03    -120.578E-03    -117.986E-03     234.544E-03    -116.557E-03     59.3296E-03     75.1922E+06     38.2240E+06    -37.3924E+06    -37.1584E+06     74.9582E+06     38.2240E+06     4.86390E+06         50.5195
             943     9.79753E-03     18.9522E-03         2.17132         1.80653        -6.02451         1.79668        -6.01466         2.17132     278.760E-03     234.900E-03    -116.172E-03    -118.728E-03    -117.637E-03     233.808E-03    -116.172E-03     37.9329E-03     43.2616E+06     18.6590E+06    -42.2947E+06    -41.9069E+06     39.5692E+06     21.9636E+06     5.04530E+06         48.6719
             944     8.90894E-03     18.9144E-03         2.23181         1.87671        -6.18722         1.86712        -6.17763         2.23181     298.757E-03     233.533E-03    -115.815E-03    -117.718E-03    -117.297E-03     233.113E-03    -115.815E-03     23.6977E-03     1.83876E+06    -17.7635E+06    -47.6256E+06    -47.3600E+06    -18.0291E+06     1.83876E+06     2.38584E+06         46.9179
             945     8.02105E-03     18.8842E-03         2.28700         1.93403        -6.31589         1.93359        -6.31545         2.28700    -55.8759E-03     232.597E-03    -115.503E-03    -117.094E-03    -116.924E-03     232.427E-03    -115.503E-03     14.4164E-03    -13.8374E+06    -49.3503E+06    -78.6010E+06    -52.6125E+06    -75.3388E+06    -13.8374E+06    -843.975E+03         45.3118
             946     7.13150E-03     18.8657E-03         2.33730         2.03491        -6.46834         2.03480        -6.46823         2.33730    -5.22347E-03     231.700E-03    -115.302E-03    -116.398E-03    -116.354E-03     231.655E-03    -115.302E-03     6.62715E-03    -16.8860E+06    -58.8039E+06    -139.889E+06    -58.8625E+06    -139.830E+06    -16.8860E+06    -1.14429E+06         43.8938
             947     6.24086E-03     18.8536E-03         2.38260         2.11636        -6.59121         2.11600        -6.59085         2.38260    -2.29107E-03     230.557E-03    -114.970E-03    -115.587E-03    -115.406E-03     230.541E-03    -115.135E-03     1.33090E-03    -23.3943E+06    -67.5407E+06    -186.361E+06    -67.5799E+06    -186.322E+06    -23.3943E+06    -600.517E+03         42.6835
             948     5.34928E-03     18.8477E-03         2.42372         2.23536        -6.76485         2.20584        -6.73533         2.42372     722.212E-03     229.783E-03    -114.687E-03    -115.096E-03    -114.776E-03     229.764E-03    -114.987E-03    -2.88878E-03    -36.9240E+06    -75.0882E+06    -205.591E+06    -75.1540E+06    -205.526E+06    -36.9240E+06    -1.71838E+06         41.6826
             949     4.45757E-03     18.8461E-03         2.46221         2.30385        -6.89610         2.26949        -6.86174         2.46221     946.712E-03     229.833E-03    -114.711E-03    -115.122E-03    -114.959E-03     229.805E-03    -114.846E-03    -5.49495E-03    -52.3017E+06    -80.5548E+06    -218.705E+06    -80.6058E+06    -218.654E+06    -52.3017E+06    -1.54794E+06         40.8798
             950     3.56840E-03     18.8478E-03         2.50132         2.35476        -7.00948         2.33558        -6.99030         2.50132     624.864E-03     229.650E-03    -114.679E-03    -114.971E-03    -114.943E-03     229.622E-03    -114.679E-03    -5.98338E-03    -65.4605E+06    -84.5010E+06    -228.779E+06    -84.5100E+06    -228.770E+06    -65.4605E+06    -600.409E+03         40.2570
             951     2.67562E-03     18.8518E-03         2.55071         2.46937        -7.16849         2.36756        -7.06668         2.55071         1.62276     229.207E-03    -114.508E-03    -114.699E-03    -114.659E-03     229.187E-03    -114.527E-03    -5.28478E-03    -76.3400E+06    -90.0033E+06    -235.569E+06    -90.0234E+06    -235.549E+06    -76.3400E+06    -613.243E+03         39.7951
             952     1.78425E-03     18.8546E-03         2.72577         2.54518        -7.40876         2.55687        -7.28107         2.58640         1.11157     228.995E-03    -114.317E-03    -114.678E-03    -114.632E-03     228.982E-03    -114.350E-03    -4.15271E-03    -86.4122E+06    -95.5637E+06    -240.709E+06    -95.5821E+06    -240.690E+06    -86.4122E+06     509.179E+03         39.4767
             953     892.854E-06     18.8592E-03         6.44771     197.081E-03        -8.73851        -1.12648        -7.27558         6.30833         3.54706     228.451E-03    -113.834E-03    -114.616E-03    -114.378E-03     228.443E-03    -114.065E-03    -3.13243E-03    -93.0247E+06    -98.9435E+06    -244.516E+06    -96.8375E+06    -244.390E+06    -95.2571E+06     1.39559E+06         39.2861
             954     15.1259E-03     18.4423E-03         2.26088         1.60227        -6.01346         1.58166        -5.99285         2.26088    -426.832E-03     248.807E-03    -117.559E-03    -131.248E-03    -119.061E-03     236.773E-03    -117.712E-03     107.562E-03     98.8016E+06     93.1154E+06    -4.48282E+06    -4.30738E+06     95.8629E+06     95.8786E+06    -842.580E+03         59.3412
             955     14.2330E-03     18.2238E-03         2.38004         1.72318        -6.32570         1.70142        -6.30393         2.38004    -730.544E-03     251.620E-03    -117.603E-03    -134.017E-03    -118.834E-03     236.437E-03    -117.603E-03     144.095E-03     94.7492E+06     85.2234E+06    -7.17190E+06    -6.98112E+06     85.0326E+06     94.7492E+06    -467.863E+03         57.7400
             956     13.3505E-03     18.1007E-03         2.50487         1.84854        -6.64124         1.84449        -6.63719         2.50487    -368.465E-03     244.426E-03    -117.400E-03    -127.026E-03    -118.621E-03     236.021E-03    -117.400E-03     109.918E-03     93.9424E+06     83.0144E+06    -13.1563E+06    -13.0644E+06     82.9224E+06     93.9424E+06     2.62215E+06         55.9693
             957     12.4588E-03     17.9473E-03         2.62094         2.00845        -6.96283         2.00444        -6.95882         2.62094    -375.972E-03     244.508E-03    -116.990E-03    -127.518E-03    -119.951E-03     236.941E-03    -116.990E-03     103.505E-03      87.639E+06     79.2638E+06    -23.1614E+06    -23.0615E+06     83.3737E+06     83.4293E+06     2.57125E+06         54.0950
             958     11.5782E-03     17.8342E-03         2.72776         2.16683        -7.25469         2.16412        -7.25199         2.72776    -301.327E-03     241.378E-03    -116.336E-03    -125.042E-03    -121.198E-03     237.534E-03    -116.336E-03     73.5641E-03     81.8456E+06     61.9141E+06    -31.6318E+06    -31.5620E+06     81.7759E+06     61.9141E+06     2.36178E+06         52.1707
             959     10.6957E-03     17.7488E-03         2.81813         2.30428        -7.50345         2.30327        -7.50244         2.81813    -195.604E-03     237.620E-03    -115.580E-03    -122.040E-03    -120.183E-03     235.763E-03    -115.580E-03     50.2853E-03     74.8198E+06     37.1931E+06    -37.8585E+06    -37.7357E+06     74.6970E+06     37.1931E+06     3.61509E+06         50.2403
             960     9.80759E-03     17.6892E-03         2.89584         2.41561        -7.72194         2.40900        -7.71532         2.89584     262.974E-03     233.950E-03    -114.963E-03    -118.988E-03    -118.277E-03     233.240E-03    -114.963E-03     29.7949E-03     43.6957E+06     18.3603E+06    -43.3438E+06    -43.0273E+06     42.2601E+06     19.4794E+06     4.29215E+06         48.3508
             961     8.91991E-03     17.6494E-03         2.96338         2.52756        -7.93117         2.52112        -7.92474         2.96338     283.024E-03     232.423E-03    -114.436E-03    -117.987E-03    -117.783E-03     232.219E-03    -114.436E-03     14.5319E-03     4.16435E+06    -13.8419E+06    -48.3038E+06    -48.0305E+06    -11.8036E+06     1.85280E+06     2.38523E+06         46.5605
             962     8.03153E-03     17.6227E-03         3.02342         2.62072        -8.10199         2.62042        -8.10169         3.02342    -28.9010E-03     230.959E-03    -113.948E-03    -117.011E-03    -116.948E-03     230.896E-03    -113.948E-03     4.61496E-03    -14.1069E+06    -48.1236E+06    -79.4478E+06    -54.1802E+06    -73.3913E+06    -14.1069E+06     1.10433E+06         44.9249
             963     7.14239E-03     17.6053E-03         3.07757         2.72950        -8.26586         2.72908        -8.26545         3.07757    -45.2464E-03     229.310E-03    -113.594E-03    -115.716E-03    -115.682E-03     229.276E-03    -113.594E-03    -2.21531E-03    -18.2444E+06    -60.6701E+06    -139.941E+06    -60.7470E+06    -139.864E+06    -18.2444E+06     1.62889E+06         43.4831
             964     6.25242E-03     17.5961E-03         3.12629         2.83212        -8.41092         2.83028        -8.40907         3.12629     89.1270E-03     227.994E-03    -113.295E-03    -114.699E-03    -114.651E-03     227.946E-03    -113.295E-03    -6.68939E-03    -21.5755E+06    -65.6530E+06    -184.086E+06    -65.6754E+06    -184.064E+06    -21.5755E+06     717.932E+03         42.2545
             965     5.36067E-03     17.5917E-03         3.17014         2.94261        -8.56721         2.93111        -8.55571         3.17014     631.190E-03     226.735E-03    -113.001E-03    -113.734E-03    -113.661E-03     226.661E-03    -113.001E-03    -9.50448E-03    -35.3005E+06    -71.0901E+06    -204.275E+06    -71.1669E+06    -204.198E+06    -35.3005E+06    -601.127E+03         41.2404
             966     4.46839E-03     17.5901E-03         3.21037         3.03998        -8.72429         3.01266        -8.69697         3.21037         1.08817     225.724E-03    -112.702E-03    -113.022E-03    -112.838E-03     225.634E-03    -112.796E-03    -10.7192E-03    -53.1949E+06    -79.0084E+06    -219.955E+06    -79.0794E+06    -219.884E+06    -53.1949E+06    -813.502E+03         40.4288
             967     3.57293E-03     17.5931E-03         3.24875         3.11118        -8.85420         3.09146        -8.83449         3.24875     489.897E-03     225.352E-03    -112.591E-03    -112.761E-03    -112.582E-03     225.267E-03    -112.685E-03    -10.2515E-03    -68.0980E+06    -85.9961E+06    -229.623E+06    -86.0105E+06    -229.609E+06    -68.0980E+06     301.734E+03         39.8014
             968     2.68058E-03     17.5967E-03         3.35204         3.24435        -9.08360         3.11691        -8.90060         3.29648         1.96458     225.230E-03    -112.574E-03    -112.656E-03    -112.558E-03     225.166E-03    -112.608E-03    -8.79235E-03    -80.5154E+06    -91.2507E+06    -235.654E+06    -91.2723E+06    -235.632E+06    -80.5154E+06     495.199E+03         39.3385
             969     1.78658E-03     17.6007E-03         3.57099         3.34064        -9.38583         3.27368        -9.08910         3.34122     432.812E-03     224.961E-03    -112.307E-03    -112.654E-03    -112.269E-03     224.923E-03    -112.654E-03    -6.68312E-03    -86.4599E+06    -94.4585E+06    -240.286E+06    -94.4742E+06    -240.270E+06    -86.4599E+06    -324.494E+03         39.0210
             970     892.572E-06     17.6039E-03         6.82542         2.50332        -11.7507     60.2131E-03        -9.13338         6.65123         5.60487     225.406E-03    -112.361E-03    -113.045E-03    -112.717E-03     225.392E-03    -112.675E-03    -3.79891E-03    -93.9506E+06    -99.0482E+06    -243.354E+06    -99.1532E+06    -243.250E+06    -93.9506E+06     1.05922E+06         38.8319
             971     15.1222E-03     17.1879E-03         2.89632         1.92914        -7.36639         1.91716        -7.35442         2.89632    -407.376E-03     249.361E-03    -117.523E-03    -131.838E-03    -120.355E-03     238.030E-03    -117.676E-03     105.403E-03     96.5843E+06     91.2021E+06    -6.74195E+06    -6.56867E+06     96.0767E+06     91.5364E+06    -1.32616E+06         59.2685
             972     14.2368E-03     16.9454E-03         3.03011         2.10614        -7.74473         2.09191        -7.73049         3.03011    -693.786E-03     254.517E-03    -117.367E-03    -137.150E-03    -123.097E-03     240.464E-03    -117.367E-03     139.203E-03     89.5046E+06     81.7721E+06    -14.1863E+06    -13.9542E+06     83.5451E+06     87.4995E+06    -2.64988E+06         57.6399
             973     13.3532E-03     16.8306E-03         3.16801         2.28104        -8.12198         2.27719        -8.11812         3.16801    -389.305E-03     247.922E-03    -116.841E-03    -131.080E-03    -123.697E-03     240.538E-03    -116.841E-03     104.178E-03     90.4143E+06     80.0377E+06    -19.6781E+06    -19.5200E+06     79.8796E+06     90.4143E+06    -678.694E+03         55.8262
             974     12.4760E-03     16.6769E-03         3.29589         2.48750        -8.49835         2.48425        -8.49511         3.29589    -372.236E-03     247.139E-03    -116.059E-03    -131.081E-03    -124.456E-03     240.515E-03    -116.059E-03     97.7703E-03     89.3532E+06     81.8596E+06    -23.3788E+06    -23.2142E+06     84.2052E+06     86.8430E+06     2.47903E+06         53.8970
             975     11.5922E-03     16.5600E-03         3.41278         2.69605        -8.84569         2.69357        -8.84321         3.41278    -320.253E-03     242.038E-03    -115.041E-03    -126.997E-03    -123.959E-03     239.000E-03    -115.041E-03     64.5009E-03     82.4195E+06     64.6496E+06    -29.9323E+06    -29.7772E+06     82.2644E+06     64.6496E+06     4.11021E+06         51.9124
             976     10.7096E-03     16.4805E-03         3.51056         2.87337        -9.13670         2.87255        -9.13588         3.51056    -196.812E-03     237.468E-03    -113.946E-03    -123.522E-03    -122.423E-03     236.369E-03    -113.946E-03     37.1704E-03     73.8896E+06     36.6862E+06    -37.4588E+06    -37.3257E+06     73.7565E+06     36.6862E+06     3.66958E+06         49.9239
             977     9.82666E-03     16.4254E-03         3.59344         3.02647        -9.39648         3.02192        -9.39194         3.59344     238.464E-03     233.544E-03    -112.965E-03    -120.579E-03    -120.277E-03     233.242E-03    -112.965E-03     16.3589E-03     44.6766E+06     17.1500E+06    -43.9844E+06    -43.8248E+06     44.5170E+06     17.1500E+06     3.29098E+06         47.9819
             978     8.94087E-03     16.3863E-03         3.66446         3.17513        -9.64592         3.17079        -9.64158         3.66446     278.507E-03     230.229E-03    -112.127E-03    -118.102E-03    -118.043E-03     230.170E-03    -112.127E-03     1.34799E-03     5.85421E+06    -12.6012E+06    -50.5630E+06    -49.9885E+06    -7.59272E+06     271.213E+03     3.60552E+06         46.1437
             979     8.05334E-03     16.3639E-03         3.72533         3.30785        -9.86164         3.30763        -9.86142         3.72533     7.67306E-03     227.659E-03    -111.424E-03    -116.235E-03    -116.163E-03     227.587E-03    -111.424E-03    -7.66756E-03    -14.4548E+06    -46.8616E+06    -81.1801E+06    -56.2131E+06    -71.8287E+06    -14.4548E+06     3.89143E+06         44.4639
             980     7.16233E-03     16.3499E-03         3.77728         3.44171        -10.0455         3.44128        -10.0451         3.77728    -30.7920E-03     225.568E-03    -110.846E-03    -114.722E-03    -114.554E-03     225.399E-03    -110.846E-03    -13.7125E-03    -23.4981E+06    -61.2900E+06    -136.820E+06    -61.4530E+06    -136.658E+06    -23.4981E+06     2.12367E+06         42.9831
             981     6.26917E-03     16.3426E-03         3.82184         3.55136        -10.1795         3.54779        -10.1760         3.82184     213.681E-03     223.473E-03    -110.361E-03    -113.112E-03    -112.862E-03     223.223E-03    -110.361E-03    -17.1203E-03    -29.1860E+06    -66.1419E+06    -180.938E+06    -66.1712E+06    -180.909E+06    -29.1860E+06     407.929E+03         41.7210
             982     5.37618E-03     16.3397E-03         3.86003         3.65928        -10.3238         3.65280        -10.3173         3.86003     589.270E-03     221.516E-03    -109.969E-03    -111.547E-03    -111.270E-03     221.239E-03    -109.969E-03    -18.1928E-03    -39.1285E+06    -73.1006E+06    -205.330E+06    -73.1471E+06    -205.284E+06    -39.1285E+06     1.54374E+06         40.6791
             983     4.48035E-03     16.3422E-03         3.89233         3.77105        -10.4827         3.73794        -10.4496         3.89233         1.21349     220.058E-03    -109.599E-03    -110.458E-03    -110.108E-03     219.802E-03    -109.693E-03    -17.7368E-03    -53.7540E+06    -80.4329E+06    -219.615E+06    -80.5728E+06    -219.475E+06    -53.7540E+06     2.86405E+06         39.8462
             984     3.58563E-03     16.3443E-03         3.92100         3.84189        -10.6038         3.80440        -10.5663         3.92100     459.492E-03     219.305E-03    -109.430E-03    -109.874E-03    -109.572E-03     219.097E-03    -109.524E-03    -16.1951E-03    -69.3204E+06    -87.6513E+06    -228.683E+06    -87.7747E+06    -228.560E+06    -69.3204E+06     2.23523E+06         39.2038
             985     2.68867E-03     16.3478E-03         4.10038         3.92431        -10.8658         3.82736        -10.6235         3.95502         2.17768     218.867E-03    -109.344E-03    -109.524E-03    -109.265E-03     218.719E-03    -109.453E-03    -13.6757E-03    -81.9358E+06    -92.0099E+06    -234.848E+06    -92.0249E+06    -234.833E+06    -81.9358E+06     1.02721E+06         38.7311
             986     1.79276E-03     16.3528E-03         4.39586         3.99118        -11.2047         3.92378        -10.7326         3.99118    -55.0851E-03     218.759E-03    -109.103E-03    -109.656E-03    -109.164E-03     218.677E-03    -109.512E-03    -10.0797E-03    -89.5382E+06    -96.1465E+06    -239.440E+06    -96.1555E+06    -239.431E+06    -89.5382E+06     129.672E+03         38.4081
             987     895.490E-06     16.3563E-03         7.07236         4.17056        -14.0255         1.19845        -10.7941         6.81304         6.78904     219.136E-03    -109.079E-03    -110.057E-03    -109.728E-03     219.108E-03    -109.379E-03    -5.53615E-03    -96.3327E+06    -100.829E+06    -242.518E+06    -100.864E+06    -242.483E+06    -96.3327E+06    -1.63116E+06         38.2160
             988     15.1258E-03     15.9041E-03         3.50619         2.25086        -8.69236         2.24387        -8.68537         3.50619    -396.723E-03     253.992E-03    -117.511E-03    -136.481E-03    -125.597E-03     243.109E-03    -117.511E-03     107.219E-03     98.7712E+06     93.2421E+06    -6.62738E+06    -6.58672E+06     98.1556E+06     93.8170E+06    -94.7145E+03         59.2278
             989     14.2481E-03     15.6795E-03         3.65377         2.46608        -9.11759         2.45602        -9.10753         3.65377    -660.052E-03     259.361E-03    -116.828E-03    -142.533E-03    -129.392E-03     246.220E-03    -116.828E-03     136.034E-03     90.9395E+06     82.7321E+06    -15.2229E+06    -15.1320E+06     84.6463E+06     88.9344E+06    -121.839E+03         57.5724
             990     13.3673E-03     15.5498E-03         3.80305         2.69081        -9.55424         2.68695        -9.55038         3.80305    -408.953E-03     251.539E-03    -115.841E-03    -135.697E-03    -129.425E-03     245.266E-03    -115.841E-03     97.2950E-03     87.4012E+06     77.1979E+06    -22.3005E+06    -22.1842E+06     77.0816E+06     87.4012E+06    -2.53792E+06         55.7124
             991     12.4895E-03     15.4010E-03         3.94040         2.94353        -9.97889         2.94104        -9.97640         3.94040    -347.967E-03     249.729E-03    -114.573E-03    -135.156E-03    -129.833E-03     244.406E-03    -114.573E-03     87.7746E-03     85.6040E+06     78.7171E+06    -27.0999E+06    -26.9661E+06     80.8943E+06     83.2931E+06    -1.47840E+06         53.7242
             992     11.6161E-03     15.2855E-03         4.06467         3.18924        -10.3610         3.18720        -10.3590         4.06467    -296.719E-03     242.827E-03    -113.096E-03    -129.731E-03    -127.649E-03     240.745E-03    -113.096E-03     52.5653E-03     81.4736E+06     65.6730E+06    -31.3049E+06    -31.1578E+06     81.3265E+06     65.6730E+06     1.03012E+06         51.6756
             993     10.7382E-03     15.2123E-03         4.16797         3.41941        -10.7042         3.41892        -10.7037         4.16797    -145.349E-03     237.450E-03    -111.550E-03    -125.900E-03    -125.393E-03     236.943E-03    -111.550E-03     24.4410E-03     73.9007E+06     38.1525E+06    -36.3418E+06    -36.1068E+06     73.6657E+06     38.1525E+06     3.64472E+06         49.6225
             994     9.85716E-03     15.1583E-03         4.25314         3.62789        -11.0239         3.62465        -11.0207         4.25314     239.562E-03     232.629E-03    -110.090E-03    -122.539E-03    -122.443E-03     232.533E-03    -110.090E-03     3.01797E-03     45.1672E+06     13.5325E+06    -42.9481E+06    -42.4513E+06     44.6703E+06     13.5325E+06     5.84569E+06         47.6185
             995     8.97160E-03     15.1309E-03         4.32289         3.81967        -11.3210         3.81657        -11.3179         4.32289     299.700E-03     227.597E-03    -108.819E-03    -118.777E-03    -118.626E-03     227.446E-03    -108.819E-03    -11.9492E-03     3.35800E+06    -12.9970E+06    -49.9929E+06    -48.5712E+06    -5.04272E+06    -6.01799E+06     6.66945E+06         45.7194
             996     8.08012E-03     15.1095E-03         4.38036         3.97335        -11.5505         3.97296        -11.5501         4.38036     102.453E-03     223.860E-03    -107.753E-03    -116.108E-03    -115.693E-03     223.446E-03    -107.753E-03    -21.4695E-03    -20.2354E+06    -42.7007E+06    -78.4940E+06    -53.9681E+06    -67.2266E+06    -20.2354E+06     5.75208E+06         43.9794
             997     7.18963E-03     15.0999E-03         4.42760         4.11438        -11.7268         4.11387        -11.7263         4.42760     32.7364E-03     220.563E-03    -106.852E-03    -113.711E-03    -113.053E-03     219.905E-03    -106.852E-03    -28.1143E-03    -29.0842E+06    -59.7747E+06    -131.883E+06    -60.2588E+06    -131.399E+06    -29.0842E+06     4.53223E+06         42.4405
             998     6.29679E-03     15.0965E-03         4.46489         4.24403        -11.8697         4.23970        -11.8654         4.46489     299.182E-03     217.016E-03    -106.118E-03    -110.898E-03    -110.133E-03     216.250E-03    -106.118E-03    -30.6813E-03    -35.9560E+06    -68.9848E+06    -179.153E+06    -69.3287E+06    -178.809E+06    -35.9560E+06     4.37392E+06         41.1243
             999     5.39886E-03     15.0979E-03         4.49243         4.35533        -11.9985         4.34992        -11.9931         4.49243     563.862E-03     214.045E-03    -105.574E-03    -108.470E-03    -107.716E-03     213.290E-03    -105.574E-03    -30.3739E-03    -43.1172E+06    -78.5341E+06    -205.787E+06    -78.6945E+06    -205.627E+06    -43.1172E+06     4.11897E+06         40.0341
            1000     4.50103E-03     15.1007E-03         4.51199         4.45721        -12.1319         4.42062        -12.0953         4.51199         1.27940     212.090E-03    -105.158E-03    -106.931E-03    -106.300E-03     211.458E-03    -105.158E-03    -27.6508E-03    -56.3244E+06    -84.4466E+06    -218.463E+06    -84.6310E+06    -218.278E+06    -56.3244E+06     4.21643E+06         39.1605
            1001     3.60119E-03     15.1046E-03         4.53057         4.48723        -12.2107         4.43969        -12.1631         4.53057     445.847E-03     210.618E-03    -104.876E-03    -105.742E-03    -105.272E-03     210.148E-03    -104.876E-03    -23.7284E-03    -69.6053E+06    -88.1246E+06    -225.524E+06    -88.2606E+06    -225.389E+06    -69.6053E+06     3.25352E+06         38.4857
            1002     2.70141E-03     15.1099E-03         4.72701         4.52665        -12.4595         4.44690        -12.2111         4.55840         2.20138     209.679E-03    -104.681E-03    -104.998E-03    -104.597E-03     209.372E-03    -104.775E-03    -19.0905E-03    -78.7720E+06    -93.1950E+06    -232.017E+06    -93.2250E+06    -231.987E+06    -78.7720E+06     1.36589E+06         37.9885
            1003     1.79995E-03     15.1139E-03         5.03477         4.59220        -12.7943         4.52377        -12.2833         4.59220    -258.790E-03     209.620E-03    -104.615E-03    -105.005E-03    -104.758E-03     209.467E-03    -104.709E-03    -13.2439E-03    -89.8052E+06    -99.2853E+06    -237.581E+06    -99.2922E+06    -237.574E+06    -89.8052E+06     600.877E+03         37.6484
            1004     901.632E-06     15.1160E-03         7.13049         5.19651        -15.4672         2.35441        -12.3511         6.85653         7.02254     209.307E-03    -104.102E-03    -105.205E-03    -105.157E-03     209.259E-03    -104.102E-03    -7.17713E-03    -100.131E+06    -105.309E+06    -243.150E+06    -103.879E+06    -243.123E+06    -101.588E+06    -227.986E+03         37.4463
            1005     15.1289E-03     14.6318E-03         4.08449         2.56649        -9.97972         2.56266        -9.97589         4.08449    -369.318E-03     260.025E-03    -117.203E-03    -142.823E-03    -132.305E-03     249.508E-03    -117.203E-03     110.865E-03     98.1991E+06     94.0228E+06    -7.41493E+06    -7.30852E+06     97.5177E+06     94.5977E+06    -412.862E+03         59.2379
            1006     14.2540E-03     14.3857E-03         4.24307         2.81833        -10.4544         2.81161        -10.4477         4.24307    -589.467E-03     265.209E-03    -116.053E-03    -149.156E-03    -136.985E-03     253.038E-03    -116.053E-03     132.169E-03     93.2779E+06     86.7716E+06    -11.7754E+06    -11.7110E+06     87.3205E+06     92.6646E+06    -338.629E+03         57.5598
            1007     13.3880E-03     14.2738E-03         4.39993         3.08691        -10.9331         3.08327        -10.9295         4.39993    -409.683E-03     256.697E-03    -114.520E-03    -142.177E-03    -136.507E-03     251.027E-03    -114.520E-03     93.7925E-03     90.9280E+06     80.0356E+06    -16.4989E+06    -16.4671E+06     80.0038E+06     90.9280E+06     20.4861E+03         55.6587
            1008     12.5200E-03     14.1149E-03         4.54293         3.38093        -11.3952         3.37963        -11.3939         4.54293    -266.311E-03     253.007E-03    -112.685E-03    -140.322E-03    -135.720E-03     248.405E-03    -112.685E-03     81.8592E-03     84.0145E+06     75.4890E+06    -25.2558E+06    -25.1731E+06     78.3575E+06     81.0633E+06    -1.76535E+06         53.6166
            1009     11.6463E-03     14.0145E-03         4.67009         3.67542        -11.8227         3.67440        -11.8217         4.67009    -228.246E-03     244.850E-03    -110.633E-03    -134.218E-03    -132.782E-03     243.414E-03    -110.633E-03     44.1688E-03     76.3756E+06     59.2046E+06    -33.8124E+06    -33.7554E+06     76.3186E+06     59.2046E+06    -1.97346E+06         51.5085
            1010     10.7694E-03     13.9394E-03         4.77446         3.94766        -12.2081         3.94735        -12.2078         4.77446    -48.5433E-03     238.400E-03    -108.511E-03    -129.889E-03    -129.565E-03     238.077E-03    -108.511E-03     13.9087E-03     68.9318E+06     33.0350E+06    -39.3820E+06    -39.1728E+06     68.7226E+06     33.0350E+06     2.77051E+06         49.3934
            1011     9.89079E-03     13.8974E-03         4.85932         4.17642        -12.5495         4.17415        -12.5473         4.85932     299.376E-03     231.974E-03    -106.469E-03    -125.505E-03    -125.255E-03     231.725E-03    -106.469E-03    -11.8854E-03     46.3310E+06     10.1765E+06    -44.9603E+06    -44.3608E+06     45.7315E+06     10.1765E+06     6.94425E+06         47.3248
            1012     9.00676E-03     13.8751E-03         4.92701         4.40591        -12.8785         4.40359        -12.8762         4.92701     338.481E-03     225.871E-03    -104.584E-03    -121.287E-03    -120.653E-03     225.237E-03    -104.584E-03    -27.6177E-03     2.07296E+06    -14.1397E+06    -49.6082E+06    -48.4197E+06    -850.687E+03    -12.4046E+06     6.52579E+06         45.3580
            1013     8.12233E-03     13.8612E-03         4.98073         4.57795        -13.1194         4.57709        -13.1185         4.98073     225.884E-03     219.970E-03    -102.963E-03    -117.007E-03    -115.891E-03     218.854E-03    -102.963E-03    -37.5257E-03    -23.1243E+06    -40.3023E+06    -77.9208E+06    -52.4658E+06    -65.7574E+06    -23.1243E+06     7.64175E+06         43.5460
            1014     7.22920E-03     13.8578E-03         5.02369         4.71736        -13.2825         4.71657        -13.2817         5.02369     106.036E-03     214.001E-03    -101.648E-03    -112.352E-03    -110.865E-03     212.513E-03    -101.648E-03    -43.3391E-03    -24.0999E+06    -57.6848E+06    -129.712E+06    -59.9362E+06    -127.460E+06    -24.0999E+06     11.5071E+06         41.9316
            1015     6.33151E-03     13.8603E-03         5.05523         4.86976        -13.4283         4.86481        -13.4234         5.05523     371.946E-03     209.052E-03    -100.560E-03    -108.491E-03    -106.902E-03     207.462E-03    -100.560E-03    -44.2375E-03    -31.7023E+06     -67.758E+06    -174.323E+06    -69.0810E+06    -173.000E+06    -31.7023E+06     10.5099E+06         40.5401
            1016     5.43246E-03     13.8669E-03         5.07537         4.97184        -13.5369         4.96642        -13.5314         5.07537     565.696E-03     204.926E-03    -99.6751E-03    -105.251E-03    -103.761E-03     203.436E-03    -99.6751E-03    -42.3587E-03    -42.7898E+06    -76.7164E+06    -201.477E+06    -77.1417E+06    -201.052E+06    -42.7898E+06     7.05855E+06         39.3788
            1017     4.52901E-03     13.8719E-03         5.08894         5.04688        -13.6491         5.01438        -13.6166         5.08894         1.23306     201.288E-03    -99.0161E-03    -102.272E-03    -101.044E-03     200.060E-03    -99.0161E-03    -38.0007E-03    -56.5894E+06    -84.5019E+06    -215.691E+06    -84.7299E+06    -215.463E+06    -56.5894E+06     4.97065E+06         38.4410
            1018     3.62464E-03     13.8788E-03         5.10373         5.06437        -13.7258         5.02206        -13.6835         5.10373     477.095E-03     198.844E-03    -98.5935E-03    -100.250E-03    -99.3610E-03     197.954E-03    -98.5935E-03    -32.0295E-03    -71.9122E+06    -92.0270E+06    -222.619E+06    -92.1484E+06    -222.498E+06    -71.9122E+06     3.55481E+06         37.7112
            1019     2.71829E-03     13.8841E-03         5.25919         5.09486        -13.9240         5.02251        -13.7215         5.12913         2.08379     197.621E-03    -98.3235E-03    -99.2974E-03    -98.7375E-03     197.061E-03    -98.3235E-03    -25.2729E-03    -85.1649E+06    -98.1078E+06    -227.996E+06    -98.1660E+06    -227.937E+06    -85.1649E+06     2.62117E+06         37.1702
            1020     1.81326E-03     13.8890E-03         5.47648         5.17158        -14.1753         5.06475        -13.7636         5.17158    -199.186E-03     196.702E-03    -98.0584E-03    -98.6439E-03    -98.2668E-03     196.421E-03    -98.1537E-03    -17.4324E-03    -94.0866E+06    -103.166E+06    -235.831E+06    -103.205E+06    -235.792E+06    -94.0866E+06     1.91619E+06         36.7975
            1021     905.423E-06     13.8901E-03         7.03862         5.78590        -16.3006         3.52892        -13.8688         6.86379         6.52729     196.209E-03    -97.7103E-03    -98.4988E-03    -98.3101E-03     196.116E-03    -97.8057E-03    -9.75990E-03    -102.599E+06    -109.627E+06    -241.538E+06    -108.223E+06    -241.485E+06    -104.056E+06     2.24388E+06         36.5749
            1022     15.1360E-03     13.3327E-03         4.62436         2.87589        -11.2212         2.87336        -11.2186         4.62436    -361.792E-03     267.255E-03    -116.764E-03    -150.490E-03    -140.266E-03     257.030E-03    -116.764E-03     114.933E-03     99.4238E+06     94.7113E+06    -6.84766E+06    -6.76511E+06     99.3412E+06     94.7113E+06     271.018E+03         59.3024
            1023     14.2752E-03     13.1012E-03         4.79027         3.17214        -11.7413         3.16715        -11.7364         4.79027    -526.122E-03     270.411E-03    -115.128E-03    -155.283E-03    -143.782E-03     258.910E-03    -115.128E-03     130.654E-03     93.0676E+06     85.3183E+06    -12.4958E+06    -12.4184E+06     87.2806E+06     91.0279E+06    -1.38688E+06         57.6089
            1024     13.4041E-03     12.9784E-03         4.95080         3.47996        -12.2603         3.47608        -12.2565         4.95080    -438.278E-03     261.349E-03    -113.105E-03    -148.244E-03    -142.908E-03     256.013E-03    -113.105E-03     92.2625E-03     89.5684E+06      79.841E+06    -17.9763E+06    -17.9199E+06     79.7846E+06     89.5684E+06    -1.08197E+06         55.6760
            1025     12.5399E-03     12.8297E-03         5.09543         3.81596        -12.7624         3.81523        -12.7617         5.09543    -219.277E-03     257.380E-03    -110.708E-03    -146.673E-03    -142.501E-03     253.209E-03    -110.708E-03     78.2642E-03     83.8402E+06     76.4187E+06    -24.4234E+06    -24.3757E+06     79.7746E+06     80.4365E+06    -499.026E+03         53.5934
            1026     11.6750E-03     12.7338E-03         5.22180         4.14790        -13.2252         4.14723        -13.2246         5.22180    -215.228E-03     249.226E-03    -107.966E-03    -141.260E-03    -140.163E-03     248.129E-03    -107.966E-03     37.1627E-03     72.5470E+06     55.1889E+06    -34.1025E+06    -34.0353E+06     72.4798E+06     55.1889E+06     843.345E+03         51.4423
            1027     10.8095E-03     12.6665E-03         5.32404         4.44133        -13.6312         4.44079        -13.6306         5.32404    -19.4292E-03     240.670E-03    -105.097E-03    -135.573E-03    -135.367E-03     240.464E-03    -105.097E-03     2.93753E-03     61.2749E+06     26.8783E+06    -43.8955E+06    -43.7246E+06     61.1039E+06     26.8783E+06     3.48121E+06         49.2806
            1028     9.93557E-03     12.6357E-03         5.40601         4.68881        -13.9843         4.68733        -13.9829         5.40601     297.432E-03     232.060E-03    -102.339E-03    -129.721E-03    -129.280E-03     231.619E-03    -102.339E-03    -23.2095E-03     47.3758E+06     8.46719E+06    -50.3835E+06    -49.9135E+06     46.9059E+06     8.46719E+06     6.41356E+06         47.1584
            1029     9.05653E-03     12.6218E-03         5.47203         4.89874        -14.2863         4.89692        -14.2845         5.47203     353.498E-03     224.108E-03    -99.7410E-03    -124.367E-03    -123.218E-03     222.959E-03    -99.7410E-03    -39.1447E-03     6.15851E+06    -14.6578E+06    -58.3960E+06    -56.9550E+06     4.34680E+06    -14.2871E+06     8.22681E+06         45.1288
            1030     8.16783E-03     12.6188E-03         5.52510         5.08575        -14.5307         5.08447        -14.5295         5.52510     313.909E-03     215.374E-03    -97.4574E-03    -117.916E-03    -116.039E-03     213.497E-03    -97.4574E-03    -49.4012E-03    -28.5928E+06    -46.0916E+06    -87.0155E+06    -64.1274E+06    -67.0006E+06    -30.5718E+06     11.1609E+06         43.2442
            1031     7.27451E-03     12.6270E-03         5.56537         5.26308        -14.7162         5.26231        -14.7155         5.56537     185.412E-03     207.270E-03    -95.5618E-03    -111.708E-03    -109.345E-03     204.907E-03    -95.5618E-03    -54.4119E-03    -32.9848E+06    -64.3732E+06    -128.377E+06    -67.6354E+06    -125.115E+06    -32.9848E+06     13.1305E+06         41.5483
            1032     6.37504E-03     12.6364E-03         5.59484         5.38619        -14.8258         5.38204        -14.8217         5.59484     418.217E-03     200.369E-03    -93.9770E-03    -106.392E-03    -103.853E-03     197.830E-03    -93.9770E-03    -55.2827E-03    -35.6889E+06    -68.5012E+06    -167.077E+06    -70.2667E+06    -165.312E+06    -35.6889E+06     12.4527E+06         40.0700
            1033     5.47086E-03     12.6472E-03         5.61667         5.47868        -14.9303         5.47400        -14.9257         5.61667     553.602E-03     194.220E-03    -92.6762E-03    -101.544E-03    -99.1743E-03     191.851E-03    -92.6762E-03    -52.3791E-03    -44.9001E+06    -75.7152E+06    -196.483E+06    -77.0621E+06    -195.136E+06    -44.9001E+06     11.8963E+06         38.8210
            1034     4.56425E-03     12.6601E-03         5.63267         5.56611        -15.0625         5.54061        -15.0370         5.63267         1.16180     189.046E-03    -91.6549E-03    -97.3910E-03    -95.4752E-03     187.130E-03    -91.6549E-03    -46.3442E-03    -59.6348E+06    -86.8671E+06    -209.624E+06    -87.6820E+06    -208.810E+06    -59.6348E+06     8.97993E+06         37.7989
            1035     3.65252E-03     12.6689E-03         5.64928         5.58596        -15.1455         5.55547        -15.1150         5.64928     537.628E-03     185.180E-03    -90.9149E-03    -94.2652E-03    -92.8834E-03     183.798E-03    -90.9149E-03    -38.7839E-03    -74.9864E+06    -94.9102E+06    -217.501E+06    -95.1781E+06    -217.233E+06    -74.9864E+06     5.50369E+06         36.9929
            1036     2.74121E-03     12.6756E-03         5.75643         5.63130        -15.3221         5.57176        -15.1809         5.67478         1.89842     182.577E-03    -90.4154E-03    -92.1612E-03    -91.3008E-03     181.716E-03    -90.4154E-03    -30.1831E-03    -89.6953E+06    -99.9794E+06    -224.892E+06    -100.102E+06    -224.769E+06    -89.6953E+06     3.69793E+06         36.3874
            1037     1.82774E-03     12.6813E-03         5.87427         5.71802        -15.4783         5.60373        -15.2078         5.71802     26.9715E-03     181.005E-03    -90.0195E-03    -90.9855E-03    -90.4719E-03     180.587E-03    -90.1149E-03    -20.6414E-03    -98.0334E+06    -106.009E+06    -232.519E+06    -106.097E+06    -232.431E+06    -98.0334E+06     3.22057E+06         35.9658
            1038     914.421E-06     12.6859E-03         7.02637         6.05916        -16.9106         4.53821        -15.3150         6.95177         5.55447     180.078E-03    -89.6830E-03    -90.3952E-03    -90.0890E-03     179.939E-03    -89.8497E-03    -11.5462E-03    -104.738E+06    -110.945E+06    -239.184E+06    -110.665E+06    -239.101E+06    -105.100E+06     1.83683E+06         35.7121
            1039     15.1460E-03     12.0359E-03         5.12035         3.17534        -12.3885         3.17265        -12.3859         5.12035    -381.151E-03     274.396E-03    -116.353E-03    -158.044E-03    -147.587E-03     263.940E-03    -116.353E-03     119.865E-03     101.362E+06     97.7626E+06    -5.39032E+06    -5.36717E+06     100.967E+06     98.1342E+06     1.27936E+06         59.4048
            1040     14.2796E-03     11.7995E-03         5.29026         3.51113        -12.9503         3.50630        -12.9455         5.29026    -507.460E-03     276.599E-03    -114.257E-03    -162.342E-03    -150.848E-03     265.105E-03    -114.257E-03     132.359E-03     94.3272E+06     86.6868E+06    -10.9868E+06    -10.9482E+06     88.0745E+06     92.9009E+06    -448.094E+03         57.7043
            1041     13.4266E-03     11.6824E-03         5.45132         3.86853        -13.5155         3.86371        -13.5107         5.45132    -515.744E-03     266.841E-03    -111.695E-03    -155.146E-03    -150.337E-03     262.031E-03    -111.695E-03     89.3089E-03     87.4229E+06     79.3710E+06    -19.2563E+06    -19.2038E+06     79.3185E+06     87.4229E+06    -1.98337E+06         55.7563
            1042     12.5669E-03     11.5389E-03         5.59444         4.23140        -14.0482         4.23067        -14.0475         5.59444    -221.595E-03     261.451E-03    -108.689E-03    -152.763E-03    -149.209E-03     257.897E-03    -108.689E-03     73.5546E-03     78.7572E+06     71.6759E+06    -28.4043E+06    -28.3290E+06     76.4725E+06     73.8853E+06     544.085E+03         53.6544
            1043     11.7102E-03     11.4407E-03         5.71855         4.57487        -14.5283         4.57397        -14.5274         5.71855    -246.521E-03     252.557E-03    -105.332E-03    -147.225E-03    -146.328E-03     251.660E-03    -105.332E-03     33.0227E-03     69.2100E+06     51.5008E+06    -36.0573E+06    -35.8222E+06     68.9750E+06     51.5008E+06     4.43695E+06         51.4814
            1044     10.8471E-03     11.3927E-03         5.81821         4.87970        -14.9443         4.87864        -14.9432         5.81821    -40.0148E-03     242.955E-03    -101.808E-03    -141.147E-03    -140.992E-03     242.800E-03    -101.808E-03    -1.30475E-03     59.4555E+06     26.5996E+06    -44.4144E+06    -43.8323E+06     58.8734E+06     26.5996E+06     7.30171E+06         49.2955
            1045     9.97556E-03     11.3732E-03         5.89785         5.13083        -15.2933         5.12999        -15.2925         5.89785     257.155E-03     232.821E-03    -98.3358E-03    -134.485E-03    -133.915E-03     232.250E-03    -98.3358E-03    -26.7398E-03     45.7034E+06     6.29079E+06    -54.6187E+06    -53.4674E+06     44.5521E+06     6.29079E+06     10.0454E+06         47.1444
            1046     9.09836E-03     11.3700E-03         5.96185         5.35284        -15.5920         5.35131        -15.5905         5.96185     348.214E-03     222.280E-03    -95.0564E-03    -127.223E-03    -125.739E-03     220.796E-03    -95.0564E-03    -44.4623E-03     9.64540E+06    -13.5871E+06    -64.3841E+06    -61.5118E+06     6.77310E+06    -13.5871E+06     12.8038E+06         45.0763
            1047     8.21462E-03     11.3859E-03         6.01318         5.53679        -15.8198         5.53512        -15.8181         6.01318     373.322E-03     211.634E-03    -92.0918E-03    -119.542E-03    -117.210E-03     209.302E-03    -92.0918E-03    -55.1727E-03    -29.2209E+06    -45.4346E+06    -87.2664E+06    -66.9729E+06    -61.8896E+06    -33.0593E+06     12.9272E+06         43.1402
            1048     7.32016E-03     11.4024E-03         6.05406         5.69966        -15.9886         5.69873        -15.9876         6.05406     267.139E-03     201.663E-03    -89.4855E-03    -112.178E-03    -109.282E-03     198.767E-03    -89.4855E-03    -59.9029E-03    -43.2180E+06    -68.0224E+06    -123.652E+06    -70.7406E+06    -120.933E+06    -43.2180E+06     11.0371E+06         41.3794
            1049     6.42090E-03     11.4236E-03         6.08623         5.83023        -16.1131         5.82643        -16.1093         6.08623     496.176E-03     192.149E-03    -87.2765E-03    -104.872E-03    -101.732E-03     189.009E-03    -87.2765E-03    -60.7263E-03    -44.0834E+06    -73.2453E+06    -165.228E+06    -75.0213E+06    -163.452E+06    -44.0834E+06     12.5170E+06         39.8237
            1050     5.51325E-03     11.4449E-03         6.11240         5.92429        -16.2198         5.91999        -16.2155         6.11240     580.927E-03     183.662E-03    -85.4478E-03    -98.2138E-03    -95.2495E-03     180.697E-03    -85.4478E-03    -57.4566E-03    -47.7494E+06    -78.3760E+06    -192.764E+06    -80.1651E+06    -190.974E+06    -47.7494E+06     14.0798E+06         38.4883
            1051     4.59949E-03     11.4622E-03         6.13478         6.01608        -16.3541         5.99618        -16.3342         6.13478         1.11210     176.771E-03    -83.9223E-03    -92.8490E-03    -90.3779E-03     174.300E-03    -83.9223E-03    -51.2195E-03    -60.2912E+06    -83.5388E+06    -200.575E+06    -84.8525E+06    -199.262E+06    -60.2912E+06     11.9520E+06         37.3762
            1052     3.68540E-03     11.4769E-03         6.15905         6.04748        -16.4499         6.02608        -16.4285         6.15905     633.298E-03     170.952E-03    -82.7514E-03    -88.2005E-03    -86.4117E-03     169.163E-03    -82.7514E-03    -42.6404E-03    -74.0758E+06    -90.8429E+06    -210.764E+06    -91.5490E+06    -210.058E+06    -74.0758E+06     8.64008E+06         36.4829
            1053     2.76517E-03     11.4875E-03         6.22923         6.12082        -16.6145         6.07038        -16.5259         6.19103         1.67596     166.547E-03    -81.9734E-03    -84.5734E-03    -83.4764E-03     165.450E-03    -81.9734E-03    -32.7148E-03    -87.4632E+06    -99.1328E+06    -221.087E+06    -99.6895E+06    -220.530E+06    -87.4632E+06     7.52701E+06         35.7997
            1054     1.84354E-03     11.4950E-03         6.29204         6.22290        -16.7319         6.12999        -16.5808         6.23385     289.526E-03     164.141E-03    -81.4873E-03    -82.6538E-03    -82.1255E-03     163.613E-03    -81.4873E-03    -22.1033E-03    -99.7394E+06    -105.934E+06    -227.243E+06    -106.365E+06    -226.813E+06    -99.7394E+06     6.18117E+06         35.3172
            1055     922.713E-06     11.4974E-03         7.11855         6.28870        -17.5996         5.41697        -16.7078         7.09855         4.41619     162.729E-03    -81.0264E-03    -81.7024E-03    -81.4507E-03     162.549E-03    -81.0978E-03    -12.5608E-03    -110.031E+06    -112.709E+06    -233.765E+06    -112.078E+06    -233.656E+06    -110.770E+06     2.06618E+06         35.0243
            1056     15.1470E-03     10.7330E-03         5.56754         3.44189        -13.4491         3.43785        -13.4451         5.56754    -453.648E-03     281.287E-03    -116.037E-03    -165.251E-03    -154.789E-03     270.826E-03    -116.037E-03     123.010E-03     101.315E+06     98.9187E+06    -3.80333E+06    -3.72952E+06     100.870E+06     99.2903E+06     526.150E+03         59.5181
            1057     14.2972E-03     10.4899E-03         5.73889         3.83575        -14.0658         3.83020        -14.0602         5.73889    -545.882E-03     282.423E-03    -113.496E-03    -168.927E-03    -157.525E-03     271.021E-03    -113.496E-03     134.078E-03     92.4562E+06     87.6814E+06    -10.5906E+06    -10.5495E+06     89.0089E+06     91.0876E+06     977.109E+03         57.8186
            1058     13.4413E-03     10.3746E-03         5.89816         4.23312        -14.6699         4.22673        -14.6636         5.89816    -644.446E-03     272.366E-03    -110.469E-03    -161.896E-03    -157.005E-03     267.474E-03    -110.469E-03     91.4016E-03     85.0981E+06     78.3423E+06    -19.6422E+06    -19.5808E+06     78.2809E+06     85.0981E+06     1.01269E+06         55.8687
            1059     12.5929E-03     10.2388E-03         6.03770         4.61399        -15.2235         4.61273        -15.2222         6.03770    -267.711E-03     265.355E-03    -107.010E-03    -158.345E-03    -154.632E-03     261.642E-03    -107.010E-03     76.6022E-03     79.2927E+06     69.2927E+06    -29.0635E+06    -28.7894E+06     72.4947E+06     75.8166E+06     4.24819E+06         53.7647
            1060     11.7346E-03     10.1516E-03         6.15796         4.96205        -15.7198         4.96065        -15.7183         6.15796    -295.609E-03     253.810E-03    -103.232E-03    -150.579E-03    -149.542E-03     252.774E-03    -103.232E-03     36.1941E-03     69.3050E+06     50.0551E+06    -38.0202E+06    -37.4869E+06     65.9689E+06     52.8578E+06     7.24364E+06         51.5909
            1061     10.8736E-03     10.1128E-03         6.25531         5.25730        -16.1321         5.25510        -16.1299         6.25531    -41.2061E-03     244.007E-03    -99.2703E-03    -144.737E-03    -144.583E-03     243.853E-03    -99.2703E-03     1.39339E-03     56.9007E+06     23.6697E+06    -47.0766E+06    -45.9610E+06     55.7852E+06     23.6697E+06     10.3440E+06         49.4090
            1062     10.0113E-03     10.1073E-03         6.33393         5.50553        -16.4647         5.50446        -16.4637         6.33393     269.240E-03     232.971E-03    -95.3071E-03    -137.664E-03    -137.189E-03     232.496E-03    -95.3071E-03    -23.6591E-03     45.0553E+06     4.75969E+06    -55.0410E+06    -53.0455E+06     43.0599E+06     4.75969E+06     13.8677E+06         47.2667
            1063     9.13652E-03     10.1246E-03         6.39686         5.74862        -16.7650         5.74677        -16.7632         6.39686     351.212E-03     220.602E-03    -91.5289E-03    -129.073E-03    -127.843E-03     219.372E-03    -91.5289E-03    -39.9767E-03     12.7621E+06    -9.74170E+06    -61.2632E+06    -57.9392E+06     9.43806E+06    -9.74170E+06     14.5377E+06         45.2049
            1064     8.25050E-03     10.1529E-03         6.44711         5.93582        -16.9870         5.93343        -16.9846         6.44711     455.807E-03     208.949E-03    -88.0193E-03    -120.929E-03    -118.997E-03     207.016E-03    -88.0193E-03    -49.6539E-03    -23.4052E+06    -39.0003E+06    -80.8586E+06    -62.5472E+06    -54.8435E+06    -25.8734E+06     13.5328E+06         43.2653
            1065     7.36021E-03     10.1861E-03         6.48927         6.07500        -17.1432         6.07374        -17.1419         6.48927     341.036E-03     197.235E-03    -84.7929E-03    -112.442E-03    -109.988E-03     194.780E-03    -84.7929E-03    -54.4660E-03    -39.8502E+06    -64.4458E+06    -120.956E+06    -68.7667E+06    -116.636E+06    -39.8502E+06     13.7771E+06         41.4851
            1066     6.45735E-03     10.2213E-03         6.52591         6.20413        -17.2804         6.19982        -17.2761         6.52591     580.274E-03     186.058E-03    -81.9165E-03    -104.142E-03    -101.396E-03     183.313E-03    -81.9165E-03    -55.9094E-03    -47.8143E+06    -73.3286E+06    -163.970E+06    -75.7378E+06    -161.561E+06    -47.8143E+06     14.2137E+06         39.8909
            1067     5.54906E-03     10.2532E-03         6.55938         6.29761        -17.3911         6.29309        -17.3866         6.55938     610.024E-03     175.818E-03    -79.4053E-03    -96.4123E-03    -93.7127E-03     173.118E-03    -79.4053E-03    -53.8229E-03    -52.2277E+06    -79.3922E+06    -188.307E+06    -80.9461E+06    -186.753E+06    -52.2277E+06     12.8176E+06         38.4989
            1068     4.63541E-03     10.2801E-03         6.59124         6.40369        -17.5265         6.38857        -17.5114         6.59124         1.01678     166.381E-03    -77.2503E-03    -89.1306E-03    -86.8001E-03     164.050E-03    -77.2503E-03    -48.4350E-03    -63.9857E+06    -83.9178E+06    -194.889E+06    -85.4160E+06    -193.391E+06    -63.9857E+06     12.7018E+06         37.3163
            1069     3.71248E-03     10.3020E-03         6.62423         6.46738        -17.6357         6.45271        -17.6211         6.62423     715.114E-03     158.800E-03    -75.5296E-03    -83.2701E-03    -81.4974E-03     157.027E-03    -75.5296E-03    -41.1292E-03    -77.3897E+06    -89.7440E+06    -205.787E+06    -91.2829E+06    -204.248E+06    -77.3897E+06     12.9218E+06         36.3462
            1070     2.78790E-03     10.3188E-03         6.67077         6.56430        -17.7827         6.51928        -17.7299         6.66298         1.47815     152.956E-03    -74.2067E-03    -78.7496E-03    -77.5893E-03     151.796E-03    -74.2067E-03    -32.4344E-03    -87.0365E+06    -95.6757E+06    -216.492E+06    -96.8834E+06    -215.285E+06    -87.0365E+06     11.7161E+06         35.5896
            1071     1.86061E-03     10.3274E-03         6.71735         6.67161        -17.9270         6.60134        -17.8489         6.70955     513.482E-03     148.343E-03    -73.3389E-03    -75.0039E-03    -74.4103E-03     147.749E-03    -73.3389E-03    -22.4789E-03    -94.6444E+06    -100.656E+06    -217.369E+06    -101.389E+06    -216.636E+06    -94.6444E+06     8.87876E+06         35.0461
            1072     929.472E-06     10.3341E-03         7.21657         6.70852        -18.4506         6.25187        -17.9939         7.21657         3.48132     146.273E-03    -72.7242E-03    -73.5485E-03    -73.3460E-03     146.070E-03    -72.7242E-03    -12.1351E-03    -101.787E+06    -105.443E+06    -221.444E+06    -104.931E+06    -221.214E+06    -102.530E+06     4.63695E+06         34.7121
            1073     15.1541E-03     9.41037E-03         5.96182         3.68808        -14.4117         3.68190        -14.4055         5.96182    -609.267E-03     288.179E-03    -115.896E-03    -172.283E-03    -161.635E-03     277.532E-03    -115.896E-03     127.481E-03     100.909E+06     96.9489E+06    -7.25290E+06    -7.15294E+06     100.809E+06     96.9489E+06    -240.275E+03         59.6156
            1074     14.3011E-03     9.17896E-03         6.13160         4.13492        -15.0770         4.12857        -15.0706         6.13160    -642.532E-03     286.382E-03    -113.035E-03    -173.347E-03    -161.594E-03     274.629E-03    -113.035E-03     139.071E-03     90.9807E+06     84.8768E+06    -14.8324E+06    -14.7174E+06     87.7835E+06     87.9590E+06     1.73675E+06         57.9165
            1075     13.4534E-03     9.05999E-03         6.28720         4.56240        -15.7094         4.55438        -15.7014         6.28720    -788.231E-03     274.986E-03    -109.802E-03    -165.184E-03    -159.464E-03     269.266E-03    -109.802E-03     99.4397E-03     82.6761E+06     75.4556E+06    -22.4749E+06    -22.2982E+06     75.2788E+06     82.6761E+06     3.97947E+06         55.9625
            1076     12.6021E-03     8.93273E-03         6.42198         4.96223        -16.2962         4.95950        -16.2935         6.42198    -357.865E-03     267.061E-03    -106.185E-03    -160.876E-03    -156.526E-03     262.711E-03    -106.185E-03     83.4438E-03     76.2032E+06     68.6210E+06    -29.8724E+06    -29.5489E+06     68.9387E+06     75.5621E+06     5.35556E+06         53.8577
            1077     11.7502E-03     8.86198E-03         6.53732         5.30179        -16.7955         5.29986        -16.7936         6.53732    -319.095E-03     254.230E-03    -102.278E-03    -151.952E-03    -150.469E-03     252.747E-03    -102.278E-03     45.8422E-03     65.9576E+06     53.3114E+06    -37.1594E+06    -36.1173E+06     62.1127E+06     56.1141E+06     9.12443E+06         51.6963
            1078     10.8911E-03     8.83105E-03         6.63251         5.58187        -17.1941         5.57859        -17.1908         6.63251    -38.8432E-03     241.986E-03    -98.2576E-03    -143.729E-03    -143.379E-03     241.637E-03    -98.2576E-03     14.1437E-03     53.9108E+06     25.9688E+06    -46.4648E+06    -44.4414E+06     51.8874E+06     25.9688E+06     13.6380E+06         49.5458
            1079     10.0221E-03     8.84414E-03         6.71047         5.84089        -17.5231         5.83947        -17.5217         6.71047     296.271E-03     229.990E-03    -94.3100E-03    -135.680E-03    -135.532E-03     229.842E-03    -94.3100E-03    -7.18715E-03     46.7381E+06     6.33092E+06    -52.3958E+06    -50.2585E+06     44.6008E+06     6.33092E+06     14.2468E+06         47.4548
            1080     9.14697E-03     8.87964E-03         6.77383         6.07528        -17.7926         6.07282        -17.7901         6.77383     384.488E-03     218.822E-03    -90.4915E-03    -128.331E-03    -127.909E-03     218.400E-03    -90.4915E-03    -19.0764E-03     17.3535E+06    -5.90953E+06    -57.2584E+06    -54.0760E+06     13.1843E+06    -4.92272E+06     13.6675E+06         45.4603
            1081     8.26653E-03     8.92286E-03         6.82555         6.27282        -18.0157         6.26935        -18.0122         6.82555     566.336E-03     207.201E-03    -86.8053E-03    -120.396E-03    -119.614E-03     206.420E-03    -86.8053E-03    -28.1292E-03    -16.7506E+06    -33.7538E+06    -78.5163E+06    -59.0516E+06    -52.6098E+06    -17.3593E+06     15.0447E+06         43.5911
            1082     7.37325E-03     8.97416E-03         6.86952         6.41482        -18.1848         6.41280        -18.1828         6.86952     440.625E-03     195.428E-03    -83.2605E-03    -112.167E-03    -111.089E-03     194.349E-03    -83.2605E-03    -32.8348E-03    -32.1229E+06    -58.8006E+06    -120.775E+06    -64.4565E+06    -115.119E+06    -32.1229E+06     16.5543E+06         41.8693
            1083     6.47568E-03     9.02256E-03         6.91210         6.50322        -18.3095         6.49796        -18.3042         6.91210     674.726E-03     184.245E-03    -79.8780E-03    -104.367E-03    -103.069E-03     182.947E-03    -79.8780E-03    -35.4915E-03    -45.2699E+06    -66.3035E+06    -159.515E+06    -69.0928E+06    -156.726E+06    -45.2699E+06     15.4307E+06         40.3113
            1084     5.56907E-03     9.06811E-03         6.95673         6.60283        -18.4384         6.59782        -18.4334         6.95673     652.980E-03     173.071E-03    -76.7458E-03    -96.3252E-03    -94.9341E-03     171.680E-03    -76.7458E-03    -36.0944E-03    -51.1122E+06    -72.9179E+06    -183.517E+06    -74.7567E+06    -181.678E+06    -51.1122E+06     14.1122E+06         38.9285
            1085     4.65223E-03     9.10863E-03         7.00088         6.73775        -18.5884         6.72464        -18.5753         7.00088     986.727E-03     162.461E-03    -73.9004E-03    -88.5611E-03    -87.2665E-03     161.167E-03    -73.9004E-03    -34.5102E-03    -59.4128E+06    -79.9754E+06    -191.991E+06    -81.8576E+06    -190.109E+06    -59.4128E+06     14.3626E+06         37.7296
            1086     3.73179E-03     9.13890E-03         7.04268         6.85204        -18.7119         6.83962        -18.6995         7.04268     744.808E-03     153.111E-03    -71.4047E-03    -81.7063E-03    -80.6149E-03     152.020E-03    -71.4047E-03    -30.9556E-03    -69.0896E+06    -84.3294E+06    -199.285E+06    -85.9288E+06    -197.685E+06    -69.0896E+06     12.9142E+06         36.7247
            1087     2.80518E-03     9.16175E-03         7.08190         6.98247        -18.8831         6.94662        -18.8472         7.08190         1.31101     145.107E-03    -69.3258E-03    -75.7810E-03    -74.9843E-03     144.310E-03    -69.3258E-03    -25.7127E-03    -72.2325E+06    -85.5893E+06    -208.482E+06    -86.5375E+06    -207.534E+06    -72.2325E+06     10.1190E+06         35.9248
            1088     1.87292E-03     9.17899E-03         7.12285         7.07183        -19.0313         7.02431        -18.9838         7.12285     578.501E-03     138.462E-03    -67.7024E-03    -70.7594E-03    -70.3138E-03     138.016E-03    -67.7024E-03    -18.6611E-03    -77.6623E+06    -89.2393E+06    -207.460E+06    -89.7736E+06    -206.926E+06    -77.6623E+06     7.77185E+06         35.3400
            1089     937.048E-06     9.18787E-03         7.43365         7.10956        -19.4097         6.85334        -19.1535         7.43365         2.78438     134.133E-03    -66.4059E-03    -67.7268E-03    -67.5428E-03     133.985E-03    -66.4419E-03    -9.48312E-03    -87.4750E+06    -93.0941E+06    -208.826E+06    -92.9863E+06    -208.569E+06    -87.8401E+06     4.99725E+06         34.9755
            1090     15.1495E-03     8.08685E-03         6.29913         3.91928        -15.2757         3.90966        -15.2661         6.29913    -835.434E-03     294.013E-03    -116.285E-03    -177.728E-03    -165.658E-03     281.943E-03    -116.285E-03     137.393E-03     100.723E+06     96.3444E+06    -5.55860E+06    -5.35292E+06     100.517E+06     96.3444E+06     1.89821E+06         59.6692
            1091     14.3037E-03     7.85930E-03         6.46404         4.42232        -16.0023         4.41409        -15.9940         6.46404    -806.744E-03     289.937E-03    -113.351E-03    -176.586E-03    -162.943E-03     276.294E-03    -113.351E-03     151.618E-03     92.0946E+06     84.1194E+06    -12.2154E+06    -11.8617E+06     85.6059E+06     90.2544E+06     3.97104E+06         57.9532
            1092     13.4509E-03     7.74821E-03         6.61279         4.87090        -16.6649         4.86163        -16.6556         6.61279    -891.171E-03     275.297E-03    -110.202E-03    -165.095E-03    -157.436E-03     267.638E-03    -110.202E-03     114.200E-03     84.3548E+06     73.4926E+06    -19.3337E+06    -18.9874E+06     73.1463E+06     84.3548E+06     5.56753E+06         55.9709
            1093     12.5995E-03     7.62495E-03         6.74162         5.25634        -17.2500         5.25202        -17.2457         6.74162    -439.742E-03     265.121E-03    -106.855E-03    -158.266E-03    -151.567E-03     258.423E-03    -106.855E-03     102.975E-03     71.4039E+06     65.8257E+06    -28.6682E+06    -28.0190E+06     65.8177E+06     70.7627E+06     6.97043E+06         53.8397
            1094     11.7416E-03     7.57120E-03         6.85315         5.57531        -17.7391         5.57359        -17.7374         6.85315    -286.764E-03     251.211E-03    -103.413E-03    -147.797E-03    -144.405E-03     247.818E-03    -103.413E-03     69.9423E-03     58.3574E+06     51.5066E+06    -38.3798E+06    -37.0075E+06     56.7753E+06     51.7165E+06     10.4894E+06         51.6778
            1095     10.8765E-03     7.55526E-03         6.94709         5.85619        -18.1365         5.85271        -18.1330         6.94709     10.4106E-03     236.462E-03    -100.063E-03    -136.399E-03    -134.699E-03     234.762E-03    -100.063E-03     44.1440E-03     53.9606E+06     33.7344E+06    -43.2307E+06    -41.3426E+06     52.0724E+06     33.7344E+06     13.0484E+06         49.5731
            1096     10.0031E-03     7.59181E-03         7.02610         6.11727        -18.4503         6.11536        -18.4484         7.02610     373.039E-03     225.191E-03    -96.8789E-03    -128.312E-03    -127.110E-03     223.989E-03    -96.8789E-03     30.6475E-03     49.8696E+06     16.0107E+06    -47.2944E+06    -45.6031E+06     48.1783E+06     16.0107E+06     12.4743E+06         47.5802
            1097     9.12455E-03     7.63003E-03         7.09192         6.35879        -18.7051         6.35576        -18.7021         7.09192     462.882E-03     216.972E-03    -93.7671E-03    -123.205E-03    -122.124E-03     215.891E-03    -93.7671E-03     23.6075E-03     23.5467E+06    -6.14388E+06    -53.0932E+06    -50.1462E+06     10.5415E+06     3.91426E+06     11.7429E+06         45.7287
            1098     8.24030E-03     7.69755E-03         7.14633         6.56241        -18.9224         6.55812        -18.9181         7.14633     650.047E-03     208.988E-03    -90.5701E-03    -118.418E-03    -117.453E-03     208.023E-03    -90.5701E-03     17.4084E-03    -5.03870E+06    -33.6646E+06    -76.4205E+06    -53.5791E+06    -56.5061E+06    -5.03870E+06     14.9739E+06         44.0270
            1099     7.35150E-03     7.75802E-03         7.19454         6.68652        -19.0849         6.68356        -19.0819         7.19454     551.415E-03     200.389E-03    -87.1802E-03    -113.209E-03    -112.414E-03     199.594E-03    -87.1802E-03     11.6477E-03    -17.3559E+06    -52.0750E+06    -118.994E+06    -57.7922E+06    -113.277E+06    -17.3559E+06     17.4686E+06         42.4723
            1100     6.45522E-03     7.82233E-03         7.24300         6.78537        -19.2392         6.77877        -19.2326         7.24300     797.131E-03     190.513E-03    -83.6723E-03    -106.841E-03    -106.285E-03     189.957E-03    -83.6723E-03     4.62155E-03    -29.5403E+06    -60.0155E+06    -154.732E+06    -62.8724E+06    -151.876E+06    -29.5403E+06     15.9094E+06         41.0604
            1101     5.55199E-03     7.88150E-03         7.29536         6.87812        -19.3723         6.87215        -19.3663         7.29536     734.798E-03     180.358E-03    -80.1639E-03    -100.194E-03    -99.7582E-03     179.922E-03    -80.1639E-03    -858.081E-06    -35.9601E+06    -65.2037E+06    -178.995E+06    -67.0545E+06    -177.144E+06    -35.9601E+06     14.0364E+06         39.7909
            1102     4.64547E-03     7.93322E-03         7.34943         7.02933        -19.5279         7.01506        -19.5136         7.34943         1.06585     169.872E-03    -76.7012E-03    -93.1705E-03    -92.7766E-03     169.478E-03    -76.7012E-03    -5.64276E-03    -39.0785E+06    -68.5034E+06    -187.197E+06    -69.8401E+06    -185.861E+06    -39.0785E+06     11.9150E+06         38.6692
            1103     3.72857E-03     7.97694E-03         7.39775         7.19201        -19.6834         7.17863        -19.6700         7.39775     796.567E-03     158.665E-03    -73.4577E-03    -85.2069E-03    -84.8903E-03     158.348E-03    -73.4577E-03    -8.06554E-03    -45.8569E+06    -72.3857E+06    -189.258E+06    -73.2285E+06    -188.416E+06    -45.8569E+06     9.23415E+06         37.7073
            1104     2.80401E-03     8.01009E-03         7.43644         7.34153        -19.8522         7.30925        -19.8199         7.43644         1.27963     148.634E-03    -70.6747E-03    -77.9592E-03    -77.7301E-03     148.405E-03    -70.6747E-03    -8.42114E-03    -58.1416E+06    -79.5017E+06    -201.554E+06    -79.8880E+06    -201.168E+06    -58.1416E+06     6.52241E+06         36.9247
            1105     1.87398E-03     8.03601E-03         7.47026         7.43444        -20.0123         7.39067        -19.9686         7.47026     531.763E-03     140.860E-03    -68.3078E-03    -72.5520E-03    -72.4082E-03     140.716E-03    -68.3078E-03    -7.02788E-03    -68.9766E+06    -83.1586E+06    -200.547E+06    -83.3616E+06    -200.344E+06    -68.9766E+06     4.42592E+06         36.3424
            1106     940.392E-06     8.04933E-03         7.67771         7.48752        -20.3783         7.29321        -20.1840         7.67771         2.39485     134.349E-03    -66.3812E-03    -67.9674E-03    -67.8467E-03     134.299E-03    -66.4525E-03    -4.08399E-03    -79.4142E+06    -84.7845E+06    -200.085E+06    -84.6913E+06    -199.968E+06    -79.6247E+06     2.14897E+06         35.9741
            1107     15.1329E-03     6.76289E-03         6.57403         4.15520        -16.0686         4.13905        -16.0525         6.57403        -1.13121     297.772E-03    -117.678E-03    -180.095E-03    -165.693E-03     283.370E-03    -117.678E-03     152.173E-03     97.8683E+06     90.9563E+06    -6.67738E+06    -6.48957E+06     97.6805E+06     90.9563E+06     2.32457E+06         59.6469
            1108     14.2767E-03     6.53159E-03         6.73032         4.69816        -16.8681         4.68592        -16.8559         6.73032        -1.00389     289.989E-03    -115.041E-03    -174.948E-03    -157.757E-03     272.798E-03    -115.041E-03     171.721E-03     85.8951E+06     80.0676E+06    -12.9375E+06    -12.5949E+06     80.7617E+06     84.8584E+06     4.42155E+06         57.8713
            1109     13.4287E-03     6.43675E-03         6.86982         5.14380        -17.5417         5.13426        -17.5322         6.86982    -929.364E-03     273.374E-03    -112.503E-03    -160.871E-03    -148.599E-03     261.102E-03    -112.503E-03     141.935E-03     81.5264E+06     70.8455E+06    -19.2543E+06    -18.4878E+06     70.0791E+06     81.5264E+06     7.65762E+06         55.8012
            1110     12.5598E-03     6.33297E-03         6.99154         5.51435        -18.1113         5.50914        -18.1061         6.99154    -454.347E-03     260.996E-03    -110.075E-03    -150.921E-03    -139.367E-03     249.442E-03    -110.075E-03     134.002E-03     73.5118E+06     65.1745E+06    -27.9211E+06    -26.3999E+06     63.6534E+06     73.5118E+06     11.4681E+06         53.5877
            1111     11.6915E-03     6.27902E-03         7.09914         5.80103        -18.5665         5.80022        -18.5657         7.09914    -142.665E-03     242.627E-03    -107.907E-03    -134.720E-03    -127.255E-03     235.162E-03    -107.907E-03     102.531E-03     61.6528E+06     54.3590E+06    -36.9524E+06    -35.4988E+06     57.7519E+06     56.8063E+06     11.5915E+06         51.3944
            1112     10.8133E-03     6.30285E-03         7.19417         6.05391        -18.9237         6.05065        -18.9204         7.19417     178.903E-03     229.778E-03    -106.117E-03    -123.660E-03    -117.389E-03     223.506E-03    -106.117E-03     88.7848E-03     54.9924E+06     38.2743E+06    -43.2269E+06    -42.3904E+06     54.1559E+06     38.2743E+06     8.53261E+06         49.3464
            1113     9.92675E-03     6.33481E-03         7.27842         6.31848        -19.2264         6.31538        -19.2233         7.27842     519.201E-03     223.822E-03    -104.553E-03    -119.269E-03    -113.224E-03     217.777E-03    -104.553E-03     85.2008E-03     50.6822E+06     27.4616E+06    -45.7932E+06    -44.9754E+06     49.8644E+06     27.4616E+06     8.18535E+06         47.5082
            1114     9.03936E-03     6.39684E-03         7.35107         6.57006        -19.4798         6.56630        -19.4760         7.35107     572.975E-03     220.627E-03    -102.934E-03    -117.693E-03    -112.287E-03     215.221E-03    -102.934E-03     80.2758E-03     30.9174E+06    -4.78193E+06    -51.8715E+06    -47.8513E+06     2.54695E+06     19.5683E+06     9.35202E+06         45.8900
            1115     8.15103E-03     6.46020E-03         7.41243         6.78747        -19.7048         6.78235        -19.6996         7.41243     729.310E-03     218.623E-03    -100.976E-03    -117.647E-03    -112.827E-03     213.803E-03    -100.976E-03     75.5073E-03     10.9806E+06    -41.9813E+06    -77.0375E+06    -52.1413E+06    -66.8774E+06     10.9806E+06     11.3579E+06         44.4677
            1116     7.26747E-03     6.53297E-03         7.46710         6.92263        -19.8807         6.91915        -19.8773         7.46710     608.294E-03     215.428E-03    -98.4969E-03    -116.931E-03    -112.750E-03     211.247E-03    -98.4969E-03     69.1527E-03     5.14587E+06    -51.9025E+06    -116.480E+06    -55.8506E+06    -112.532E+06     5.14587E+06     14.1252E+06         43.2055
            1117     6.38075E-03     6.60784E-03         7.52005         7.05033        -20.0693         7.04258        -20.0616         7.52005     867.786E-03     209.928E-03    -95.5074E-03    -114.420E-03    -110.984E-03     206.492E-03    -95.5074E-03     60.3022E-03    -3.72749E+06    -57.4410E+06    -148.551E+06    -59.6446E+06    -146.347E+06    -3.72749E+06     13.3707E+06         42.0715
            1118     5.49058E-03     6.67705E-03         7.57498         7.14898        -20.2055         7.14205        -20.1985         7.57498     775.420E-03     202.131E-03    -92.1430E-03    -109.988E-03    -107.426E-03     199.569E-03    -92.1430E-03     49.8541E-03    -14.4540E+06    -62.0271E+06    -171.945E+06    -63.0419E+06    -170.930E+06    -14.4540E+06     9.09137E+06         41.0464
            1119     4.59189E-03     6.74160E-03         7.62987         7.31594        -20.3723         7.30000        -20.3564         7.62987         1.11743     192.334E-03    -88.6071E-03    -103.727E-03    -101.974E-03     190.581E-03    -88.6071E-03     39.0245E-03    -24.0224E+06    -64.4731E+06    -180.253E+06    -64.7808E+06    -179.945E+06    -24.0224E+06     4.50104E+06         40.1248
            1120     3.68843E-03     6.79935E-03         7.67686         7.48189        -20.5114         7.46627        -20.4958         7.67686     787.438E-03     181.753E-03    -85.1463E-03    -96.6068E-03    -95.5132E-03     180.660E-03    -85.1463E-03     28.7165E-03    -34.8709E+06    -66.4718E+06    -186.195E+06    -66.7254E+06    -185.941E+06    -34.8709E+06     3.89105E+06         39.3154
            1121     2.77513E-03     6.84696E-03         7.72605         7.61722        -20.6663         7.59163        -20.6282         7.71354         1.33015     171.392E-03    -82.0312E-03    -89.3612E-03    -88.7568E-03     170.788E-03    -82.0312E-03     19.6878E-03    -48.5440E+06    -69.2465E+06    -195.780E+06    -69.4389E+06    -195.588E+06    -48.5440E+06     2.86444E+06         38.6406
            1122     1.85517E-03     6.87870E-03         7.76431         7.72634        -20.8637         7.69134        -20.8025         7.73813     337.866E-03     162.561E-03    -79.5677E-03    -82.9930E-03    -82.7236E-03     162.291E-03    -79.5677E-03     12.2413E-03     -61.021E+06    -73.0739E+06    -196.082E+06    -73.1642E+06    -195.992E+06     -61.021E+06    -668.785E+03         38.1281
            1123     928.795E-06     6.90405E-03         7.94081         7.79703        -21.1941         7.66439        -20.9458         7.82520         2.47170     156.841E-03    -77.7088E-03    -79.1317E-03    -79.0057E-03     156.750E-03    -77.7441E-03     6.39405E-03    -72.1685E+06    -77.5497E+06    -198.651E+06    -77.1621E+06    -198.454E+06    -72.7527E+06     314.269E+03         37.7987
            1124     15.0896E-03     5.41607E-03         6.78092         4.39678        -16.8496         4.36873        -16.8216         6.78092        -1.53069     296.099E-03    -120.788E-03    -175.311E-03    -155.159E-03     275.947E-03    -120.788E-03     177.478E-03     96.6533E+06     89.3093E+06    -6.72828E+06    -6.37462E+06     96.1908E+06     89.4182E+06     4.38045E+06         59.4915
            1125     14.2354E-03     5.22564E-03         6.92586         4.98541        -17.7198         4.96690        -17.7013         6.92586        -1.22774     289.816E-03    -119.064E-03    -170.752E-03    -144.755E-03     263.819E-03    -119.064E-03     208.720E-03     79.9790E+06     76.3826E+06    -17.8717E+06    -17.4081E+06     76.7686E+06     79.1294E+06     5.17450E+06         57.5850
            1126     13.3527E-03     5.13443E-03         7.05262         5.41684        -18.3845         5.40934        -18.3770         7.05262    -826.091E-03     273.860E-03    -117.577E-03    -156.282E-03    -136.902E-03     254.479E-03    -117.577E-03     177.144E-03     75.6845E+06     66.2131E+06    -26.3820E+06    -25.4570E+06     65.2881E+06     75.6845E+06     8.71648E+06         55.3533
            1127     12.4857E-03     5.03538E-03         7.16505         5.71616        -18.8782         5.71227        -18.8743         7.16505    -253.138E-03     254.186E-03    -114.478E-03    -139.708E-03    -120.610E-03     237.128E-03    -116.518E-03     158.836E-03     73.4053E+06     62.8818E+06    -31.4330E+06    -30.0794E+06     61.5282E+06     73.4053E+06     10.9093E+06         53.0107
            1128     11.5943E-03     5.02794E-03         7.27041         5.94345        -19.2381         5.94278        -19.2375         7.27041     137.441E-03     234.020E-03    -110.437E-03    -123.583E-03    -104.040E-03     220.343E-03    -116.303E-03     134.278E-03     67.1568E+06     61.4315E+06    -35.7939E+06    -34.7732E+06     62.4461E+06     65.1215E+06     9.44352E+06         50.7780
            1129     10.6906E-03     5.05063E-03         7.37069         6.17168        -19.5405         6.16788        -19.5367         7.37069     430.751E-03     228.265E-03    -108.633E-03    -119.632E-03    -98.6619E-03     215.372E-03    -116.711E-03     128.561E-03     61.3587E+06     49.6211E+06    -40.0630E+06    -39.6825E+06     60.9782E+06     49.6211E+06     5.01650E+06         48.8218
            1130     9.79347E-03     5.09272E-03         7.46477         6.42883        -19.8258         6.42375        -19.8208         7.46477     707.282E-03     229.238E-03    -109.339E-03    -119.899E-03    -99.5842E-03     216.887E-03    -117.303E-03     126.644E-03     53.3336E+06     32.3953E+06    -45.2017E+06    -45.0427E+06     44.5876E+06     40.9823E+06     2.93723E+06         47.2069
            1131     8.90035E-03     5.14892E-03         7.54997         6.68214        -20.0850         6.67734        -20.0802         7.54997     698.922E-03     232.747E-03    -111.480E-03    -121.267E-03    -103.076E-03     220.830E-03    -117.754E-03     125.414E-03     41.1781E+06    -8.16358E+06    -52.5762E+06    -49.6466E+06    -8.44412E+06     38.5291E+06     5.09276E+06         45.9109
            1132     8.01504E-03     5.21340E-03         7.62404         6.93615        -20.3515         6.93029        -20.3456         7.62404     797.289E-03     236.800E-03    -113.988E-03    -122.812E-03    -107.776E-03     225.509E-03    -117.733E-03     123.422E-03     30.7812E+06    -48.2407E+06    -79.1819E+06    -53.5407E+06    -73.8819E+06     30.7812E+06     4.18764E+06         44.8697
            1133     7.12813E-03     5.28778E-03         7.68905         7.10590        -20.5562         7.10216        -20.5524         7.68905     629.670E-03     239.361E-03    -115.688E-03    -123.673E-03    -112.097E-03     229.166E-03    -117.069E-03     118.500E-03     24.8595E+06    -52.5065E+06    -116.732E+06    -53.7203E+06    -115.518E+06     24.8595E+06     1.80051E+06         44.0124
            1134     6.24798E-03     5.36171E-03         7.74895         7.26825        -20.7666         7.25953        -20.7578         7.74895     907.554E-03     240.037E-03    -115.483E-03    -124.554E-03    -115.402E-03     231.084E-03    -115.681E-03     111.706E-03     13.9910E+06    -51.0068E+06    -146.288E+06    -52.0559E+06    -145.239E+06     13.9910E+06     1.75969E+06         43.2797
            1135     5.36906E-03     5.44130E-03         7.80729         7.38346        -20.9139         7.37567        -20.9061         7.80729     705.231E-03     237.492E-03    -113.619E-03    -123.873E-03    -116.481E-03     230.100E-03    -113.619E-03     101.000E-03    -2.57420E+06    -52.8747E+06    -164.605E+06    -53.1183E+06    -164.361E+06    -2.57420E+06     780.460E+03         42.6293
            1136     4.48786E-03     5.51524E-03         7.86012         7.58380        -21.1116         7.56554        -21.0933         7.86012         1.07434     231.949E-03    -111.132E-03    -120.816E-03    -115.262E-03     226.394E-03    -111.132E-03     86.4275E-03    -17.5767E+06    -56.4531E+06    -176.203E+06    -56.5368E+06    -176.119E+06    -17.5767E+06    -1.59371E+06         42.0381
            1137     3.59985E-03     5.58406E-03         7.90254         7.72717        -21.2287         7.70624        -21.2078         7.90254     646.142E-03     225.000E-03    -108.475E-03    -116.525E-03    -112.736E-03     221.211E-03    -108.475E-03     70.0942E-03    -31.4406E+06    -60.5484E+06    -188.405E+06    -60.6783E+06    -188.275E+06    -31.4406E+06    -2.72012E+06         41.5048
            1138     2.70956E-03     5.64088E-03         7.98701         7.81938        -21.3774         7.81559        -21.3241         7.93742         1.34515     217.187E-03    -105.903E-03    -111.284E-03    -109.021E-03     214.923E-03    -105.903E-03     52.8541E-03    -45.6169E+06    -63.2342E+06    -192.284E+06    -63.3465E+06    -192.172E+06    -45.6169E+06     -2.5851E+06         41.0458
            1139     1.81001E-03     5.68793E-03         8.04519         7.95570        -21.5994         7.93174        -21.4859         7.95570    -159.166E-03     209.984E-03    -103.882E-03    -106.102E-03    -105.020E-03     208.903E-03    -103.882E-03     35.2857E-03    -57.1896E+06    -67.3863E+06    -198.207E+06    -67.4768E+06    -198.116E+06    -57.1896E+06    -3.02158E+06         40.6861
            1140     904.724E-06     5.71440E-03         8.27925         8.10737        -22.0403         7.77341        -21.5645         8.13742         3.03865     205.788E-03    -102.237E-03    -103.550E-03    -102.874E-03     205.438E-03    -102.564E-03     19.0393E-03    -67.7260E+06    -74.3423E+06    -203.087E+06    -74.2196E+06    -202.836E+06    -68.0997E+06    -1.29254E+06         40.4507
            1141     15.0150E-03     4.10966E-03         6.91639         4.74764        -17.7572         4.70099        -17.7106         6.91639        -2.03145     295.691E-03    -126.359E-03    -169.333E-03    -139.063E-03     265.422E-03    -126.359E-03     220.448E-03     95.3922E+06     89.3475E+06    -7.50633E+06    -6.82158E+06     94.5588E+06     89.4961E+06     8.25734E+06         59.1313
            1142     14.1103E-03     3.91601E-03         7.04201         5.31810        -18.6511         5.29467        -18.6277         7.04201        -1.24978     298.223E-03    -125.638E-03    -172.584E-03    -139.929E-03     265.567E-03    -125.638E-03     235.207E-03     80.3935E+06     74.7749E+06    -15.6321E+06    -14.8701E+06     74.0128E+06     80.3935E+06     8.16966E+06         57.0505
            1143     13.2573E-03     3.81577E-03         7.15225         5.61357        -19.1756         5.61067        -19.1727         7.15225    -393.539E-03     269.380E-03    -120.992E-03    -148.388E-03    -123.217E-03     248.408E-03    -125.192E-03     180.760E-03     79.4002E+06     64.0633E+06    -22.3077E+06    -21.4388E+06     63.1944E+06     79.4002E+06     8.57790E+06         54.6419
            1144     12.3619E-03     3.77534E-03         7.25959         5.77721        -19.4465         5.77478        -19.4441         7.25959     139.752E-03     244.285E-03    -112.244E-03    -132.040E-03    -98.6661E-03     224.528E-03    -125.862E-03     164.552E-03     77.9554E+06     63.7535E+06    -28.9012E+06    -28.2376E+06     63.0899E+06     77.9554E+06     7.40860E+06         52.1793
            1145     11.4493E-03     3.78505E-03         7.36998         5.96156        -19.6915         5.95932        -19.6892         7.36998     444.941E-03     233.654E-03    -105.919E-03    -127.735E-03    -88.3073E-03     216.042E-03    -127.735E-03     150.560E-03     72.9920E+06     66.5819E+06    -33.8617E+06    -33.5719E+06     68.3673E+06     70.9169E+06     4.21717E+06         49.9494
            1146     10.5423E-03     3.80231E-03         7.48068         6.19199        -19.9607         6.18705        -19.9558         7.48068     645.704E-03     234.263E-03    -104.073E-03    -130.190E-03    -87.8682E-03     218.058E-03    -130.190E-03     144.429E-03     66.9233E+06     57.1844E+06    -38.2164E+06    -38.1368E+06     66.8437E+06     57.1844E+06     1.02415E+06         48.1480
            1147     9.63570E-03     3.84338E-03         7.58797         6.45114        -20.2415         6.44453        -20.2349         7.58797     828.536E-03     239.404E-03    -106.495E-03    -132.908E-03    -91.2666E-03     224.175E-03    -132.908E-03     141.903E-03     53.3165E+06     29.9577E+06    -42.8581E+06    -42.7157E+06     37.4790E+06     45.6528E+06    -1.22766E+06         46.8165
            1148     8.73405E-03     3.88838E-03         7.68922         6.70501        -20.5149         6.70007        -20.5099         7.68922     730.867E-03     247.706E-03    -112.037E-03    -135.669E-03    -97.3707E-03     233.040E-03    -135.669E-03     142.167E-03     42.9514E+06    -12.7845E+06    -52.2016E+06    -46.1508E+06    -18.8353E+06     42.9514E+06    -3.94979E+06         45.8965
            1149     7.83823E-03     3.94716E-03         7.78075         6.98904        -20.8189         6.98357        -20.8134         7.78075     777.829E-03     257.164E-03    -119.039E-03    -138.124E-03    -105.092E-03     243.217E-03    -138.124E-03     142.004E-03     37.8397E+06    -39.6464E+06    -81.0019E+06    -46.8776E+06    -73.7708E+06     37.8397E+06    -9.24462E+06         45.2908
            1150     6.95755E-03     4.00922E-03         7.86287         7.18870        -21.0502         7.18527        -21.0468         7.86287     580.067E-03     266.329E-03    -126.282E-03    -140.047E-03    -113.334E-03     253.381E-03    -140.047E-03     140.037E-03     27.8542E+06    -43.2027E+06    -124.039E+06    -46.4798E+06    -120.762E+06     27.8542E+06    -14.1776E+06         44.9013
            1151     6.07979E-03     4.08303E-03         7.93627         7.41551        -21.3113         7.40755        -21.3033         7.93627     835.407E-03     273.553E-03    -131.414E-03    -142.139E-03    -120.656E-03     261.984E-03    -141.328E-03     134.886E-03     13.4820E+06    -44.1967E+06    -154.962E+06    -46.0931E+06    -153.065E+06     13.4820E+06    -12.9918E+06         44.6456
            1152     5.20769E-03     4.15408E-03         8.00319         7.55987        -21.4837         7.55225        -21.4760         8.00319     536.002E-03     278.944E-03    -134.684E-03    -144.260E-03    -127.099E-03     269.023E-03    -141.924E-03     126.641E-03    -6.10205E+06    -45.7363E+06    -167.360E+06    -46.5211E+06    -166.576E+06    -6.10205E+06    -8.41186E+06         44.4606
            1153     4.34167E-03     4.23360E-03         8.06210         7.77336        -21.7150         7.75403        -21.6957         8.06210     950.876E-03     282.185E-03    -137.326E-03    -144.859E-03    -132.358E-03     274.258E-03    -141.900E-03     114.323E-03    -20.5582E+06    -49.2885E+06    -179.391E+06    -49.5908E+06    -179.088E+06    -20.5582E+06    -5.85844E+06         44.3026
            1154     3.47760E-03     4.30330E-03         8.11168         7.90893        -21.8570         7.88167        -21.8297         8.11168     382.030E-03     282.632E-03    -138.651E-03    -143.981E-03    -135.474E-03     276.874E-03    -141.400E-03     97.5924E-03    -31.0625E+06    -54.3329E+06    -190.775E+06    -54.5233E+06    -190.585E+06    -31.0625E+06    -4.79670E+06         44.1510
            1155     2.60936E-03     4.36840E-03         8.25064         7.99229        -22.0497         8.01722        -21.9774         8.15337         1.29405     281.598E-03    -139.196E-03    -142.402E-03    -137.412E-03     278.022E-03    -140.610E-03     76.5615E-03    -46.2702E+06    -61.6910E+06    -195.487E+06    -61.8219E+06    -195.356E+06    -46.2702E+06    -3.82482E+06         44.0062
            1156     1.74203E-03     4.41810E-03         8.34260         8.17427        -22.3245         8.14752        -22.1294         8.17427    -811.304E-03     280.116E-03    -139.379E-03    -140.738E-03    -138.655E-03     278.330E-03    -139.674E-03     53.3770E-03    -59.2427E+06    -68.4409E+06    -201.329E+06    -68.4872E+06    -201.283E+06    -59.2427E+06    -2.15222E+06         43.8812
            1157     874.075E-06     4.44941E-03         8.92966         8.30597        -23.0976         7.48778        -22.2083         8.85860         3.98198     277.901E-03    -138.515E-03    -139.387E-03    -138.331E-03     277.298E-03    -138.967E-03     29.3909E-03    -67.3936E+06    -76.7150E+06    -208.358E+06    -73.0406E+06    -208.275E+06    -71.1509E+06    -1.29530E+06         43.7930
            1158     14.8597E-03     2.78818E-03         6.96510         5.18500        -18.9667         5.12133        -18.9030         6.96510        -2.29748     307.757E-03    -133.158E-03    -174.599E-03    -142.210E-03     275.369E-03    -133.158E-03     235.473E-03     95.0786E+06     89.6535E+06    -10.6455E+06    -9.88608E+06     93.4291E+06     90.5437E+06     8.85178E+06         58.6682
            1159     14.0251E-03     2.55785E-03         7.06734         5.46711        -19.5572         5.45144        -19.5415         7.06734    -713.523E-03     292.787E-03    -124.631E-03    -168.157E-03    -137.037E-03     269.950E-03    -132.914E-03     191.253E-03     82.2741E+06     74.8402E+06    -13.5283E+06    -12.8285E+06     74.1403E+06     82.2741E+06     7.72215E+06         56.4798
            1160     13.1386E-03     2.54264E-03         7.17356         5.52040        -19.6429         5.51947        -19.6420         7.17356     174.970E-03     252.303E-03    -112.490E-03    -139.813E-03    -102.940E-03     236.658E-03    -133.717E-03     148.123E-03     80.3225E+06     64.8214E+06    -16.1067E+06    -15.4832E+06     64.1980E+06     80.3225E+06     6.53660E+06         53.9520
            1161     12.2190E-03     2.53010E-03         7.29073         5.66444        -19.7481         5.66201        -19.7457         7.29073     414.901E-03     240.072E-03    -103.926E-03    -136.147E-03    -87.9482E-03     224.095E-03    -136.147E-03     143.465E-03     80.9390E+06     66.5381E+06    -20.1068E+06    -19.7648E+06     68.7572E+06     78.3778E+06     4.77926E+06         51.4307
            1162     11.3062E-03     2.52798E-03         7.41363         5.87544        -19.9317         5.87219        -19.9284         7.41363     568.686E-03     237.377E-03    -97.8407E-03    -139.536E-03    -84.1126E-03     223.649E-03    -139.536E-03     131.232E-03     77.3875E+06     62.1624E+06    -25.9249E+06    -25.8405E+06     74.4207E+06     65.0449E+06     1.74196E+06         49.2729
            1163     10.3909E-03     2.55083E-03         7.53832         6.11467        -20.1701         6.11030        -20.1658         7.53832     646.653E-03     241.351E-03    -97.8310E-03    -143.520E-03    -85.3127E-03     228.833E-03    -143.520E-03     126.230E-03     66.8850E+06     41.2976E+06    -34.0011E+06    -33.9922E+06     66.8762E+06     41.2976E+06    -847.039E+03         47.6680
            1164     9.47903E-03     2.57653E-03         7.66081         6.40124        -20.4820         6.39600        -20.4768         7.66081     732.427E-03     249.907E-03    -101.970E-03    -147.936E-03    -90.3296E-03     238.266E-03    -147.936E-03     123.836E-03     43.5149E+06     9.33832E+06    -40.5465E+06    -39.8300E+06     35.6903E+06     16.4464E+06    -4.80946E+06         46.6305
            1165     8.57532E-03     2.61200E-03         7.77874         6.66353        -20.7802         6.66020        -20.7768         7.77874     587.603E-03     261.089E-03    -108.416E-03    -152.673E-03    -97.6788E-03     250.352E-03    -152.673E-03     122.163E-03     18.5969E+06    -19.9659E+06    -54.3173E+06    -41.8845E+06    -18.1582E+06     4.35628E+06    -14.2691E+06         46.0746
            1166     7.68119E-03     2.65188E-03         7.89010         6.95152        -21.0994         6.94818        -21.0961         7.89010     590.658E-03     274.090E-03    -116.528E-03    -157.562E-03    -106.496E-03     264.058E-03    -157.562E-03     121.737E-03     7.41704E+06    -32.2778E+06    -89.8243E+06    -42.5244E+06    -76.5996E+06     4.43882E+06    -22.2732E+06         45.8819
            1167     6.79029E-03     2.69947E-03         7.99271         7.20960        -21.3814         7.20742        -21.3793         7.99271     442.664E-03     288.636E-03    -126.307E-03    -162.330E-03    -116.906E-03     279.236E-03    -162.330E-03     121.321E-03    -143.909E+03    -38.9008E+06    -137.725E+06    -45.3710E+06    -131.255E+06    -143.909E+03    -23.5718E+06         45.9397
            1168     5.91626E-03     2.75456E-03         8.08428         7.48127        -21.6849         7.47619        -21.6798         8.08428     638.391E-03     303.464E-03    -136.739E-03    -166.726E-03    -128.186E-03     294.912E-03    -166.726E-03     119.311E-03    -11.7543E+06    -44.3678E+06    -170.096E+06    -47.8832E+06    -166.581E+06    -11.7543E+06    -20.3674E+06         46.1517
            1169     5.05029E-03     2.81714E-03         8.16604         7.67620        -21.9228         7.67074        -21.9173         8.16604     325.611E-03     317.299E-03    -146.652E-03    -170.647E-03    -139.178E-03     309.825E-03    -170.647E-03     114.688E-03    -25.9872E+06    -48.6844E+06    -182.258E+06    -50.2635E+06    -180.679E+06    -25.9872E+06    -13.7335E+06         46.4397
            1170     4.19262E-03     2.87719E-03         8.23929         7.88920        -22.1946         7.87402        -22.1794         8.23929     738.020E-03     330.261E-03    -156.204E-03    -174.057E-03    -150.012E-03     324.069E-03    -174.057E-03     106.951E-03    -36.4302E+06    -53.5074E+06    -188.520E+06    -53.9056E+06    -188.122E+06    -36.4302E+06    -6.61188E+06         46.7421
            1171     3.34446E-03     2.94290E-03         8.30792         8.02978        -22.3859         8.00452        -22.3607         8.30792     126.670E-03     341.967E-03    -165.172E-03    -176.795E-03    -160.469E-03     337.264E-03    -176.795E-03     95.0753E-03    -44.0758E+06    -57.3626E+06    -195.568E+06    -57.4454E+06    -195.486E+06    -44.0758E+06    -3.05075E+06         47.0146
            1172     2.50436E-03     2.99844E-03         8.47707         8.17809        -22.6705         8.22007        -22.5987         8.36327         1.15119     351.028E-03    -172.292E-03    -178.736E-03    -169.252E-03     347.988E-03    -178.736E-03     77.4624E-03    -53.0293E+06    -62.0687E+06    -199.566E+06    -62.1576E+06    -199.477E+06    -53.0293E+06    -700.944E+03         47.2330
            1173     1.66781E-03     3.04330E-03         8.56787         8.36342        -22.9211         8.29542        -22.6945         8.40924        -1.24380     357.012E-03    -176.984E-03    -180.028E-03    -175.472E-03     355.449E-03    -179.977E-03     55.4728E-03    -59.5123E+06    -67.5206E+06    -202.548E+06    -67.6015E+06    -202.467E+06    -59.5123E+06     904.833E+03         47.3879
            1174     832.126E-06     3.07512E-03         10.0975         7.86096        -23.9114         6.80850        -22.8141         10.0526         4.33730     360.446E-03    -179.638E-03    -180.808E-03    -179.254E-03     359.897E-03    -180.643E-03     31.4837E-03    -65.1215E+06    -77.3212E+06    -210.386E+06    -73.6196E+06    -210.330E+06    -68.8788E+06     2.14811E+06         47.4795
            1175     14.8062E-03     1.31992E-03         6.93503         5.44266        -20.4385         5.39414        -20.3900         6.93503        -1.73406     335.435E-03    -136.725E-03    -198.710E-03    -172.726E-03     312.177E-03    -139.451E-03     207.429E-03     104.571E+06     95.1653E+06    -2.08737E+06    -1.19664E+06     95.5098E+06     103.336E+06     9.28947E+06         58.5649
            1176     13.9494E-03     1.29620E-03         7.03238         5.22941        -19.9968         5.22598        -19.9934         7.03238    -67.5852E-03     272.035E-03    -120.533E-03    -151.503E-03    -123.926E-03     263.007E-03    -139.081E-03     116.442E-03     90.6780E+06     81.4604E+06    -5.13846E+06    -4.56806E+06       80.89E+06     90.6780E+06     5.94406E+06         56.3962
            1177     13.0163E-03     1.27897E-03         7.15449         5.25410        -19.7687         5.25303        -19.7676         7.15449     302.218E-03     244.743E-03    -103.813E-03    -140.930E-03    -96.0885E-03     237.018E-03    -140.930E-03     95.3046E-03     81.6917E+06     67.9107E+06    -9.11262E+06    -8.97475E+06     67.7728E+06     81.6917E+06     2.01000E+06         53.8295
            1178     12.1149E-03     1.26329E-03         7.28908         5.46459        -19.8207         5.46315        -19.8193         7.28908     346.305E-03     240.007E-03    -95.7783E-03    -144.229E-03    -89.0081E-03     233.237E-03    -144.229E-03     85.0257E-03     79.1204E+06     64.9442E+06    -12.4584E+06    -12.3954E+06     71.4199E+06     72.5817E+06     1.63773E+06         51.3236
            1179     11.1977E-03     1.27226E-03         7.42677         5.73889        -19.9981         5.73712        -19.9963         7.42677     392.904E-03     239.708E-03    -91.3070E-03    -148.401E-03    -85.8224E-03     234.224E-03    -148.401E-03     76.8068E-03     77.3597E+06     52.6168E+06    -17.8334E+06    -17.7653E+06     77.2916E+06     52.6168E+06     1.67053E+06         49.2645
            1180     10.2798E-03     1.28003E-03         7.56409         6.02583        -20.2565         6.02402        -20.2547         7.56409     387.650E-03     246.116E-03    -92.8091E-03    -153.307E-03    -87.8966E-03     241.204E-03    -153.307E-03     72.9396E-03     67.6359E+06     21.7063E+06    -23.0381E+06    -23.0133E+06     67.6110E+06     21.7063E+06     256.827E+03         47.8311
            1181     9.36964E-03     1.29402E-03         7.69892         6.32506        -20.5842         6.32312        -20.5822         7.69892     405.985E-03     256.522E-03    -97.7493E-03    -158.772E-03    -93.3317E-03     252.104E-03    -158.772E-03     70.9421E-03     41.1010E+06    -10.7131E+06    -37.4142E+06    -28.8270E+06     40.2997E+06    -18.4989E+06    -5.00987E+06         47.0232
            1182     8.46377E-03     1.31167E-03         7.83039         6.60620        -20.9175         6.60498        -20.9163         7.83039     335.249E-03     269.637E-03    -104.842E-03    -164.795E-03    -100.730E-03     265.525E-03    -164.795E-03     70.4452E-03     1.15525E+06    -32.9775E+06    -64.0470E+06    -34.4087E+06    -11.4354E+06    -50.0253E+06    -13.7099E+06         46.7391
            1183     7.56355E-03     1.33414E-03         7.95756         6.89664        -21.2505         6.89564        -21.2496         7.95756     299.723E-03     285.236E-03    -113.868E-03    -171.368E-03    -109.984E-03     281.352E-03    -171.368E-03     70.4411E-03    -25.3088E+06    -54.9806E+06    -102.990E+06    -40.3364E+06    -82.9115E+06    -60.0314E+06    -19.4914E+06         46.8505
            1184     6.67754E-03     1.35923E-03         8.07744         7.19613        -21.5728         7.19541        -21.5721         8.07744     238.178E-03     303.014E-03    -124.724E-03    -178.289E-03    -121.172E-03     299.461E-03    -178.289E-03     70.0691E-03    -33.9383E+06    -67.0804E+06    -149.542E+06    -46.5396E+06    -145.072E+06    -58.9489E+06    -19.6022E+06         47.2396
            1185     5.79677E-03     1.38850E-03         8.18577         7.50047        -21.9087         7.49892        -21.9072         8.18577     324.218E-03     323.111E-03    -137.820E-03    -185.291E-03    -134.573E-03     319.865E-03    -185.291E-03     69.3615E-03    -43.6568E+06    -64.0645E+06    -184.600E+06    -52.6902E+06    -182.271E+06    -57.3601E+06    -15.7485E+06         47.8061
            1186     4.93350E-03     1.42285E-03         8.28261         7.73887        -22.2043         7.73705        -22.2025         8.28261     127.496E-03     344.439E-03    -152.324E-03    -192.115E-03    -149.417E-03     341.532E-03    -192.115E-03     67.9449E-03    -51.4593E+06    -62.3840E+06    -197.758E+06    -58.0429E+06    -196.804E+06    -56.7550E+06    -9.73815E+06         48.4641
            1187     4.08254E-03     1.46256E-03         8.36985         7.96598        -22.5235         7.95959        -22.5171         8.36985     428.214E-03     365.812E-03    -167.271E-03    -198.541E-03    -164.825E-03     363.367E-03    -198.541E-03     64.6705E-03    -55.6117E+06    -62.8356E+06    -198.083E+06    -61.8489E+06    -197.884E+06    -56.7980E+06    -4.35135E+06         49.1387
            1188     3.24425E-03     1.49556E-03         8.45333         8.12289        -22.7653         8.11073        -22.7531         8.45333    -24.8579E-03     386.572E-03    -182.265E-03    -204.307E-03    -180.374E-03     384.681E-03    -204.307E-03     58.4851E-03    -58.4834E+06    -64.6847E+06    -202.155E+06    -64.7365E+06    -202.104E+06    -58.4834E+06    -894.654E+03         49.7667
            1189     2.42084E-03     1.53038E-03         8.58028         8.33584        -23.0806         8.35567        -23.0431         8.52287     736.116E-03     404.747E-03    -195.647E-03    -209.100E-03    -194.369E-03     403.469E-03    -209.100E-03     49.1815E-03    -61.3313E+06    -66.6316E+06    -202.987E+06    -66.7138E+06    -202.905E+06    -61.3313E+06     1.65741E+06         50.2988
            1190     1.60725E-03     1.56037E-03         8.65350         8.47499        -23.2319         8.40692        -23.1064         8.59609    -925.159E-03     418.873E-03    -206.089E-03    -212.783E-03    -205.411E-03     418.194E-03    -212.783E-03     36.2766E-03    -61.6976E+06    -68.2255E+06    -201.520E+06    -68.2882E+06    -201.457E+06    -61.6976E+06     2.21757E+06         50.7018
            1191     801.848E-06     1.57996E-03         11.3376         6.58294        -23.9350         5.94229        -23.2943         11.3376         3.04907     428.514E-03    -213.027E-03    -215.487E-03    -213.362E-03     428.278E-03    -214.916E-03     20.7785E-03    -63.1112E+06    -72.7676E+06    -205.671E+06    -71.3339E+06    -205.611E+06    -64.6056E+06     1.12348E+06         50.9582
            1192     888.386E-06     70.7017E-03         16.3518        -5.66335        -6.46391        -4.94324         15.2882        -6.12040        -2.00938     234.319E-03    -116.226E-03    -118.094E-03    -116.847E-03     234.317E-03    -117.470E-03     624.939E-06    -97.5349E+06    -107.683E+06    -228.568E+06    -104.876E+06    -228.503E+06    -100.407E+06     1.99409E+06         39.8013
            1193     1.78008E-03     70.6953E-03         15.6176        -5.49456        -5.87602        -5.50273         15.2746        -5.52491         2.13525     234.371E-03    -116.647E-03    -117.724E-03    -117.131E-03     234.371E-03    -117.239E-03     142.040E-06    -88.1139E+06    -100.031E+06    -229.153E+06    -100.049E+06    -229.135E+06    -88.1139E+06     146.702E+03         39.9935
            1194     2.66902E-03     70.6939E-03         15.1892        -5.44596        -5.50932        -5.40449         15.1402        -5.50172        -1.30848     234.658E-03    -116.998E-03    -117.660E-03    -117.341E-03     234.657E-03    -117.316E-03     155.290E-06    -77.2123E+06    -92.7730E+06    -221.763E+06    -92.8110E+06    -221.725E+06    -77.2123E+06     207.343E+03         40.3136
            1195     3.55786E-03     70.6918E-03         15.0698        -5.37897        -5.46714        -5.32603         15.0168        -5.46714        -1.38116     234.934E-03    -117.331E-03    -117.604E-03    -117.512E-03     234.929E-03    -117.417E-03     2.23996E-03    -68.6727E+06    -87.1837E+06    -207.145E+06    -87.2685E+06    -207.060E+06    -68.6727E+06     924.781E+03         40.7734
            1196     4.44719E-03     70.6923E-03         14.8589        -5.22928        -5.42509        -5.17508         14.8047        -5.42509        -1.72914     235.745E-03    -117.615E-03    -118.130E-03    -118.108E-03     235.723E-03    -117.615E-03     5.30686E-03    -55.0968E+06    -84.4793E+06    -195.631E+06    -84.5698E+06    -195.540E+06    -55.0968E+06     1.78973E+06         41.3832
            1197     5.33548E-03     70.6967E-03         14.6270        -5.06651        -5.37620        -5.06223         14.6227        -5.37620    -569.381E-03     235.730E-03    -117.479E-03    -118.251E-03    -117.826E-03     235.672E-03    -117.846E-03     8.80254E-03    -35.8762E+06    -78.9650E+06    -182.704E+06    -79.0142E+06    -182.655E+06    -35.8762E+06     1.65195E+06         42.1581
            1198     6.22378E-03     70.7046E-03         14.4440        -4.94244        -5.32538        -4.91834         14.4199        -5.32538        -1.20449     235.023E-03    -117.098E-03    -117.925E-03    -116.950E-03     234.876E-03    -117.925E-03     13.9925E-03    -22.8898E+06    -70.6917E+06    -159.016E+06    -70.7105E+06    -158.997E+06    -22.8898E+06     606.653E+03         43.1191
            1199     7.11411E-03     70.7199E-03         14.2323        -4.78372        -5.27088        -4.74972         14.1983        -5.27088    -244.603E-03     234.821E-03    -116.925E-03    -117.897E-03    -116.627E-03     234.523E-03    -117.897E-03     20.1902E-03    -16.3070E+06    -64.6999E+06    -125.503E+06    -64.7594E+06    -125.444E+06    -16.3070E+06    -65.1179E+03         44.2875
            1200     8.00351E-03     70.7395E-03         14.0193        -4.63387        -5.21325        -4.56902         13.9545        -5.21325    -720.339E-03     234.308E-03    -116.502E-03    -117.806E-03    -115.934E-03     233.740E-03    -117.806E-03     27.7778E-03    -11.4216E+06    -46.4946E+06    -81.8991E+06    -59.6172E+06    -68.7765E+06    -11.4216E+06    -1.01775E+06         45.6778
            1201     8.89378E-03     70.7747E-03         13.7293        -4.42344        -5.15324        -4.36820         13.6741        -5.15324        -1.68810     234.020E-03    -116.323E-03    -117.697E-03    -115.353E-03     233.050E-03    -117.697E-03     36.5783E-03     10.6740E+06    -14.3247E+06    -55.6924E+06    -55.1039E+06    -655.552E+03    -3.58366E+06    -2.57361E+06         47.2855
            1202     9.78190E-03     70.8195E-03         13.3981        -4.18512        -5.09160        -4.15957         13.3726        -5.09160        -1.18757     234.006E-03    -116.372E-03    -117.635E-03    -114.643E-03     232.278E-03    -117.635E-03     48.4609E-03     64.6713E+06     12.9549E+06    -51.1820E+06    -50.9058E+06     64.3951E+06     12.9549E+06    -3.44245E+06         49.0697
            1203     10.6737E-03     70.8817E-03         13.1192        -3.99931        -5.03119        -3.97135         13.0912        -5.03119        -1.29745     234.793E-03    -116.750E-03    -118.043E-03    -114.048E-03     231.665E-03    -117.617E-03     65.4397E-03     103.168E+06     31.5326E+06    -44.9004E+06    -44.8320E+06     103.100E+06     31.5326E+06    -2.98920E+06         50.9515
            1204     11.5637E-03     70.9737E-03         12.8123        -3.77877        -4.97405        -3.77359         12.8071        -4.97405    -480.262E-03     237.609E-03    -117.494E-03    -120.115E-03    -114.524E-03     232.204E-03    -117.680E-03     86.5191E-03     109.844E+06     50.2066E+06    -38.4919E+06    -38.4539E+06     109.806E+06     50.2066E+06    -571.363E+03         52.8411
            1205     12.4503E-03     71.0815E-03         12.5068        -3.56323        -4.92029        -3.55836         12.5020        -4.92029    -454.624E-03     241.631E-03    -117.802E-03    -123.829E-03    -114.601E-03     232.403E-03    -117.802E-03     113.708E-03     113.541E+06     75.4323E+06    -29.6175E+06    -29.4691E+06     113.392E+06     75.4323E+06     1.91761E+06         54.6921
            1206     13.3454E-03     71.2445E-03         12.1663        -3.33423        -4.86324        -3.32537         12.1574        -4.86324    -18.3003E-03     240.383E-03    -117.837E-03    -122.546E-03    -113.597E-03     231.434E-03    -117.837E-03     111.356E-03     116.381E+06     93.8254E+06    -18.5472E+06    -18.3947E+06     116.229E+06     93.8254E+06     2.55722E+06         56.5300
            1207     14.2326E-03     71.3453E-03         11.8306        -3.13662        -4.80240        -3.09523         11.7892        -4.80240    -682.151E-03     248.403E-03    -117.758E-03    -130.645E-03    -115.402E-03     233.161E-03    -117.758E-03     142.426E-03     119.014E+06     96.5233E+06    -11.4667E+06    -11.3663E+06     118.914E+06     96.5233E+06     1.85528E+06         58.3804
            1208     15.1205E-03     71.5842E-03         11.4192        -2.88415        -4.73307        -2.84117         11.3762        -4.73307    -638.969E-03     246.444E-03    -116.568E-03    -129.877E-03    -116.502E-03     234.183E-03    -117.681E-03     105.862E-03     127.334E+06     97.5761E+06    -5.83960E+06    -5.75531E+06     127.250E+06     97.5761E+06     38.0325E+03         60.1443
            1209     892.936E-06     71.9610E-03         16.7514        -6.06427        -6.63206        -5.89748         16.4004        -6.44785    -409.891E-03     233.333E-03    -115.746E-03    -117.587E-03    -116.699E-03     233.329E-03    -116.631E-03    -563.056E-06    -101.294E+06    -109.226E+06    -230.617E+06    -106.406E+06    -230.565E+06    -104.166E+06     1.04139E+06         39.7871
            1210     1.78005E-03     71.9606E-03         16.5350        -6.09448        -6.34924        -6.13999         16.3963        -6.16503         1.53312     234.298E-03    -116.883E-03    -117.415E-03    -117.413E-03     234.296E-03    -116.883E-03    -801.762E-06    -93.2955E+06    -103.334E+06    -227.876E+06    -103.344E+06    -227.865E+06    -93.2955E+06     40.4243E+03         39.9795
            1211     2.66836E-03     71.9578E-03         16.2280        -6.02354        -6.13553        -6.00253         16.2069        -6.13553        -1.11905     234.800E-03    -117.111E-03    -117.688E-03    -117.602E-03     234.800E-03    -117.198E-03     2.53151E-06    -80.0334E+06    -97.5677E+06    -221.905E+06    -97.5871E+06    -221.886E+06    -80.0334E+06    -1.21719E+06         40.2987
            1212     3.55894E-03     71.9546E-03         16.0892        -5.94232        -6.08944        -5.90148         16.0484        -6.08944        -1.62442     235.075E-03    -117.327E-03    -117.748E-03    -117.657E-03     235.070E-03    -117.413E-03     2.00416E-03    -67.1844E+06    -91.0958E+06    -210.670E+06    -91.1611E+06    -210.605E+06    -67.1844E+06     162.766E+03         40.7567
            1213     4.44752E-03     71.9586E-03         15.8464        -5.78266        -6.03732        -5.74210         15.8058        -6.03732        -1.68395     235.268E-03    -117.327E-03    -117.941E-03    -117.655E-03     235.245E-03    -117.590E-03     5.32730E-03    -52.3135E+06    -83.7599E+06    -197.344E+06    -83.8669E+06    -197.237E+06    -52.3135E+06     2.77890E+06         41.3658
            1214     5.33534E-03     71.9628E-03         15.5483        -5.57338        -5.97580        -5.56720         15.5421        -5.97580    -660.960E-03     235.253E-03    -117.264E-03    -117.989E-03    -117.465E-03     235.200E-03    -117.735E-03     8.48388E-03    -36.4280E+06    -77.3034E+06    -181.746E+06    -77.4139E+06    -181.635E+06    -36.4280E+06     2.85210E+06         42.1419
            1215     6.22576E-03     71.9680E-03         15.2701        -5.37793        -5.90613        -5.35538         15.2475        -5.90613        -1.13756     235.017E-03    -117.179E-03    -117.837E-03    -117.068E-03     234.878E-03    -117.810E-03     13.4735E-03    -24.3348E+06    -72.5183E+06    -158.332E+06    -72.5838E+06    -158.266E+06    -24.3348E+06     1.61160E+06         43.1054
            1216     7.11498E-03     71.9850E-03         14.9989        -5.18610        -5.83062        -5.15100         14.9638        -5.83062    -203.741E-03     235.021E-03    -117.195E-03    -117.826E-03    -116.926E-03     234.752E-03    -117.826E-03     19.3113E-03    -16.4984E+06    -66.2572E+06    -123.310E+06    -66.5187E+06    -123.049E+06    -16.4984E+06    -354.979E+03         44.2771
            1217     8.00337E-03     72.0057E-03         14.6921        -4.96940        -5.75061        -4.90940         14.6321        -5.75061    -604.501E-03     234.974E-03    -117.178E-03    -117.795E-03    -116.656E-03     234.452E-03    -117.795E-03     26.6176E-03    -13.0149E+06    -47.9943E+06    -80.8528E+06    -60.0957E+06    -68.7514E+06    -13.0149E+06    -1.24879E+06         45.6711
            1218     8.89147E-03     72.0397E-03         14.3190        -4.70450        -5.66602        -4.65602         14.2705        -5.66602        -1.61584     234.272E-03    -116.535E-03    -117.737E-03    -115.541E-03     233.278E-03    -117.737E-03     36.8941E-03     11.9297E+06    -15.2734E+06    -56.7880E+06    -56.3157E+06     745.813E+03    -4.56176E+06    -180.385E+03         47.2826
            1219     9.78304E-03     72.0842E-03         13.8870        -4.39999        -5.57795        -4.38008         13.8671        -5.57795        -1.07482     234.639E-03    -116.827E-03    -117.812E-03    -115.076E-03     232.780E-03    -117.704E-03     50.3269E-03     67.4483E+06     13.9125E+06    -51.6142E+06    -51.5566E+06     67.3907E+06     13.9125E+06    -1.44229E+06         49.0711
            1220     10.6698E-03     72.1487E-03         13.4831        -4.13045        -5.48803        -4.10913         13.4618        -5.48803        -1.13870     235.537E-03    -117.446E-03    -118.092E-03    -114.581E-03     232.297E-03    -117.716E-03     66.8093E-03     101.531E+06     30.4826E+06    -45.2888E+06    -45.2351E+06     101.478E+06     30.4826E+06    -2.40885E+06         50.9549
            1221     11.5620E-03     72.2333E-03         13.0632        -3.84215        -5.39843        -3.83859         13.0597        -5.39843    -307.415E-03     237.443E-03    -117.599E-03    -119.844E-03    -114.020E-03     231.805E-03    -117.785E-03     88.1404E-03     107.425E+06     51.5126E+06    -38.5823E+06    -38.5724E+06     107.415E+06     51.5126E+06    -990.512E+03         52.8437
            1222     12.4528E-03     72.3557E-03         12.6526        -3.57094        -5.31016        -3.56775         12.6494        -5.31016    -276.103E-03     240.886E-03    -117.858E-03    -123.028E-03    -113.818E-03     231.676E-03    -117.858E-03     113.657E-03     112.614E+06     77.6796E+06    -30.9651E+06    -30.9518E+06     112.600E+06     77.6796E+06    -896.120E+03         54.6944
            1223     13.3397E-03     72.4980E-03         12.2168        -3.29560        -5.21848        -3.28708         12.2083        -5.21848     94.3010E-03     239.653E-03    -117.822E-03    -121.832E-03    -112.888E-03     230.709E-03    -117.822E-03     111.440E-03     113.374E+06     90.6399E+06    -23.0743E+06    -23.0402E+06     113.340E+06     90.6399E+06    -434.047E+03         56.5360
            1224     14.2363E-03     72.6164E-03         11.7642        -3.03229        -5.12335        -2.99447         11.7264        -5.12335    -560.798E-03     247.984E-03    -117.708E-03    -130.276E-03    -114.859E-03     232.567E-03    -117.708E-03     143.628E-03     117.780E+06     95.0302E+06    -12.9427E+06    -12.8382E+06     117.675E+06     95.0302E+06     723.688E+03         58.3973
            1225     15.1304E-03     72.8444E-03         11.2443        -2.72073        -5.02056        -2.68307         11.2066        -5.02056    -588.480E-03     246.795E-03    -117.129E-03    -129.666E-03    -116.949E-03     234.591E-03    -117.642E-03     105.126E-03     129.325E+06     99.5674E+06    -4.44075E+06    -4.35140E+06     129.236E+06     99.5674E+06     917.105E+03         60.1748
            1226     886.956E-06     73.2236E-03         17.4875        -6.49919        -7.11126        -6.88450         17.3778        -6.61617         1.57398     234.614E-03    -116.696E-03    -117.918E-03    -117.734E-03     234.611E-03    -116.877E-03    -1.48501E-03    -102.335E+06    -108.704E+06    -229.896E+06    -108.728E+06    -229.872E+06    -102.335E+06     361.116E+03         39.7931
            1227     1.77923E-03     73.2235E-03         17.3744        -6.62244        -6.84257        -6.69664         17.3451        -6.73912     843.516E-03     234.413E-03    -117.041E-03    -117.372E-03    -117.084E-03     234.410E-03    -117.326E-03    -1.38423E-03    -93.5272E+06    -102.188E+06    -227.034E+06    -102.194E+06    -227.028E+06    -93.5272E+06    -105.997E+03         39.9813
            1228     2.67022E-03     73.2208E-03         17.1185        -6.51916        -6.69432        -6.49299         17.0923        -6.69432    -839.807E-03     234.970E-03    -117.296E-03    -117.674E-03    -117.568E-03     234.968E-03    -117.400E-03    -650.371E-06    -81.3631E+06    -97.4411E+06    -221.112E+06    -97.4545E+06    -221.098E+06    -81.3631E+06    -258.356E+03         40.2947
            1229     3.55681E-03     73.2211E-03         16.9372        -6.40975        -6.62836        -6.37042         16.8978        -6.62836        -1.86356     235.394E-03    -117.493E-03    -117.901E-03    -117.796E-03     235.391E-03    -117.595E-03     1.52660E-03    -65.5651E+06    -92.8810E+06    -212.608E+06    -92.9067E+06    -212.582E+06    -65.5651E+06    -844.465E+03         40.7456
            1230     4.44601E-03     73.2217E-03         16.6389        -6.21377        -6.55937        -6.18513         16.6102        -6.55937        -1.57794     234.831E-03    -117.082E-03    -117.750E-03    -117.110E-03     234.815E-03    -117.705E-03     4.36175E-03    -50.5716E+06    -84.7716E+06    -200.359E+06    -84.8188E+06    -200.312E+06    -50.5716E+06     370.590E+03         41.3488
            1231     5.33799E-03     73.2268E-03         16.2965        -5.98522        -6.48138        -5.97422         16.2855        -6.48138    -761.190E-03     234.795E-03    -117.036E-03    -117.760E-03    -117.018E-03     234.751E-03    -117.732E-03     7.70503E-03    -36.4520E+06    -76.1443E+06    -182.912E+06    -76.2304E+06    -182.825E+06    -36.4520E+06     2.52661E+06         42.1226
            1232     6.22489E-03     73.2348E-03         15.9238        -5.72298        -6.39291        -5.70235         15.9032        -6.39291        -1.00445     235.370E-03    -117.511E-03    -117.858E-03    -117.459E-03     235.247E-03    -117.789E-03     12.6923E-03    -24.3561E+06    -68.5177E+06    -157.000E+06    -68.5851E+06    -156.933E+06    -24.3561E+06     1.89406E+06         43.0862
            1233     7.11350E-03     73.2489E-03         15.5675        -5.47261        -6.29500        -5.43686         15.5318        -6.29500    -135.435E-03     235.060E-03    -117.183E-03    -117.877E-03    -116.949E-03     234.784E-03    -117.835E-03     19.4032E-03    -15.6691E+06    -61.6511E+06    -121.966E+06    -62.0714E+06    -121.546E+06    -15.6691E+06     786.285E+03         44.2592
            1234     8.00262E-03     73.2734E-03         15.1869        -5.21227        -6.19115        -5.15788         15.1325        -6.19115    -451.951E-03     234.443E-03    -116.669E-03    -117.774E-03    -116.107E-03     233.881E-03    -117.774E-03     27.6071E-03    -13.6945E+06    -47.2817E+06    -81.1892E+06    -59.3033E+06    -69.1676E+06    -13.6945E+06     1.05919E+06         45.6562
            1235     8.89319E-03     73.3027E-03         14.7475        -4.91176        -6.08288        -4.87116         14.7069        -6.08288        -1.49432     234.356E-03    -116.677E-03    -117.679E-03    -115.630E-03     233.309E-03    -117.679E-03     37.8960E-03     11.8261E+06    -17.5962E+06    -54.8862E+06    -54.7714E+06     1.12774E+06    -7.01252E+06     479.574E+03         47.2725
            1236     9.78236E-03     73.3496E-03         14.2393        -4.56209        -5.97063        -4.54721         14.2244        -5.97063    -942.417E-03     234.777E-03    -117.010E-03    -117.768E-03    -115.165E-03     232.824E-03    -117.660E-03     51.6209E-03     68.7496E+06     12.7830E+06    -49.2406E+06    -49.2186E+06     68.7275E+06     12.7830E+06    -176.405E+03         49.0658
            1237     10.6738E-03     73.4159E-03         13.7503        -4.24023        -5.85486        -4.22529         13.7354        -5.85486    -930.898E-03     236.028E-03    -117.520E-03    -118.507E-03    -114.999E-03     232.723E-03    -117.724E-03     67.6941E-03     102.749E+06     34.5389E+06    -44.7431E+06    -44.7153E+06     102.721E+06     34.5389E+06    -558.864E+03         50.9532
            1238     11.5603E-03     73.4985E-03         13.2491        -3.90609        -5.73737        -3.90400         13.2470        -5.73737    -117.463E-03     237.471E-03    -117.821E-03    -119.650E-03    -113.917E-03     231.738E-03    -117.821E-03     88.7564E-03     107.654E+06     58.4189E+06    -37.1718E+06    -37.1610E+06     107.643E+06     58.4189E+06    -1.02691E+06         52.8439
            1239     12.4514E-03     73.6180E-03         12.7533        -3.58589        -5.61935        -3.58416         12.7515        -5.61935    -73.2517E-03     239.503E-03    -117.820E-03    -121.683E-03    -112.327E-03     230.146E-03    -117.820E-03     114.141E-03     110.592E+06     81.4988E+06    -28.6229E+06    -28.6196E+06     110.589E+06     81.4988E+06    -498.221E+03         54.6985
            1240     13.3466E-03     73.7641E-03         12.2390        -3.26856        -5.49790        -3.26087         12.2314        -5.49790     248.973E-03     240.112E-03    -117.724E-03    -122.388E-03    -113.124E-03     230.848E-03    -117.724E-03     113.705E-03     113.264E+06     92.8852E+06    -20.3312E+06    -20.3217E+06     113.255E+06     92.8852E+06    -618.785E+03         56.5482
            1241     14.2341E-03     73.8755E-03         11.6878        -2.94524        -5.37288        -2.91201         11.6545        -5.37288    -431.593E-03     249.817E-03    -117.687E-03    -132.130E-03    -116.992E-03     234.679E-03    -117.687E-03     144.158E-03     119.466E+06     96.3261E+06    -12.8600E+06    -12.8145E+06     119.421E+06     96.3261E+06    -1.94944E+06         58.4183
            1242     15.1217E-03     74.1102E-03         11.0678        -2.57592        -5.24044        -2.54456         11.0364        -5.24044    -526.809E-03     247.055E-03    -116.763E-03    -130.292E-03    -117.708E-03     235.424E-03    -117.716E-03     102.446E-03     127.402E+06     98.0318E+06    -6.96333E+06    -6.91225E+06     127.351E+06     98.0318E+06    -637.108E+03         60.2037
            1243     890.688E-06     74.4888E-03         18.5752        -6.55217        -8.30591        -7.85580         18.1251        -6.55217         3.68806     235.991E-03    -117.739E-03    -118.252E-03    -118.066E-03     235.986E-03    -117.920E-03    -983.764E-06    -99.8992E+06    -105.435E+06    -227.157E+06    -104.380E+06    -227.117E+06    -100.995E+06    -400.484E+03         39.8105
            1244     1.77772E-03     74.4864E-03         18.0980        -7.05628        -7.29665        -7.11925         18.0507        -7.18634     118.133E-03     235.499E-03    -117.507E-03    -117.993E-03    -117.526E-03     235.492E-03    -117.966E-03    -1.57618E-03    -90.8652E+06    -100.146E+06    -226.066E+06    -100.163E+06    -226.049E+06    -90.8652E+06    -844.780E+03         39.9930
            1245     2.66588E-03     74.4854E-03         17.8207        -6.94317        -7.12736        -6.87612         17.7536        -7.12736    -493.552E-03     235.214E-03    -117.306E-03    -117.907E-03    -117.355E-03     235.211E-03    -117.856E-03    -134.728E-06    -83.5333E+06    -96.0332E+06    -222.859E+06    -96.0468E+06    -222.845E+06    -83.5333E+06     350.466E+03         40.2981
            1246     3.55707E-03     74.4863E-03         17.5727        -6.78250        -7.04598        -6.73033         17.5205        -7.04598        -2.04429     235.182E-03    -117.296E-03    -117.887E-03    -117.345E-03     235.180E-03    -117.835E-03     1.55890E-03    -68.9558E+06    -91.4990E+06    -212.300E+06    -91.5839E+06    -212.215E+06    -68.9558E+06     1.35354E+06         40.7403
            1247     4.44634E-03     74.4857E-03         17.1772        -6.50295        -6.95891        -6.47926         17.1535        -6.95891        -1.44214     234.996E-03    -117.143E-03    -117.853E-03    -117.130E-03     234.983E-03    -117.853E-03     3.95703E-03    -53.7629E+06    -87.5403E+06    -202.233E+06    -87.6412E+06    -202.132E+06    -53.7629E+06     271.953E+03         41.3359
            1248     5.33378E-03     74.4907E-03         16.7881        -6.25015        -6.85990        -6.23362         16.7716        -6.85990    -797.393E-03     234.697E-03    -116.872E-03    -117.826E-03    -116.819E-03     234.645E-03    -117.826E-03     8.07043E-03    -42.4233E+06    -80.2024E+06    -183.010E+06    -80.3196E+06    -182.893E+06    -42.4233E+06    -1.59964E+06         42.1037
            1249     6.22557E-03     74.5001E-03         16.3691        -5.96816        -6.75257        -5.94989         16.3509        -6.75257    -815.325E-03     234.735E-03    -116.884E-03    -117.851E-03    -116.788E-03     234.597E-03    -117.809E-03     13.5493E-03    -29.4695E+06    -71.2209E+06    -157.501E+06    -71.3285E+06    -157.394E+06    -29.4695E+06    -562.192E+03         43.0641
            1250     7.11389E-03     74.5160E-03         15.9544        -5.68195        -6.63658        -5.64527         15.9177        -6.63658    -3.29635E-03     234.453E-03    -116.621E-03    -117.832E-03    -116.383E-03     234.173E-03    -117.790E-03     19.5886E-03    -17.7336E+06    -63.8128E+06    -124.798E+06    -64.0114E+06    -124.599E+06    -17.7336E+06     2.12577E+06         44.2366
            1251     8.00513E-03     74.5343E-03         15.5035        -5.37295        -6.51317        -5.32258         15.4531        -6.51317    -250.514E-03     234.123E-03    -116.427E-03    -117.697E-03    -115.856E-03     233.552E-03    -117.697E-03     27.7895E-03    -10.8984E+06    -47.5672E+06    -76.8499E+06    -56.2697E+06    -68.1474E+06    -10.8984E+06     1.67035E+06         45.6354
            1252     8.89441E-03     74.5707E-03         14.9976        -5.03348        -6.38435        -5.00082         14.9649        -6.38435        -1.32483     234.669E-03    -117.056E-03    -117.613E-03    -116.014E-03     233.628E-03    -117.613E-03     37.8948E-03     13.8253E+06    -17.9464E+06    -51.8392E+06    -51.7304E+06     513.990E+03    -4.74381E+06     1.54511E+06         47.2547
            1253     9.78297E-03     74.6142E-03         14.4482        -4.66606        -6.25123        -4.65594         14.4381        -6.25123    -769.229E-03     234.884E-03    -117.260E-03    -117.625E-03    -115.371E-03     232.996E-03    -117.625E-03     50.8004E-03     69.5522E+06     14.1005E+06    -48.4768E+06    -48.3725E+06     69.4480E+06     14.1005E+06     2.00477E+06         49.0517
            1254     10.6718E-03     74.6807E-03         13.9146        -4.32571        -6.11459        -4.31598         13.9049        -6.11459    -708.902E-03     235.308E-03    -117.223E-03    -118.085E-03    -114.249E-03     231.925E-03    -117.676E-03     68.1224E-03     104.523E+06     37.6095E+06    -42.8098E+06    -42.7778E+06     104.491E+06     37.6095E+06     814.377E+03         50.9450
            1255     11.5627E-03     74.7673E-03         13.3661        -3.96957        -5.97547        -3.96733         13.3638        -5.97547     101.825E-03     236.560E-03    -117.578E-03    -118.981E-03    -113.167E-03     230.877E-03    -117.710E-03     88.4434E-03     107.762E+06     59.0969E+06    -36.5620E+06    -36.5188E+06     107.719E+06     59.0969E+06    -1.01172E+06         52.8441
            1256     12.4546E-03     74.8762E-03         12.7983        -3.60642        -5.83398        -3.60448         12.7964        -5.83398     156.957E-03     239.755E-03    -117.708E-03    -122.047E-03    -112.839E-03     230.547E-03    -117.708E-03     113.208E-03     109.810E+06     81.9884E+06    -27.6228E+06    -27.5795E+06     109.767E+06     81.9884E+06    -2.13461E+06         54.7061
            1257     13.3472E-03     75.0255E-03         12.1953        -3.23586        -5.68818        -3.22726         12.1867        -5.68818     425.518E-03     241.566E-03    -117.704E-03    -123.862E-03    -114.844E-03     232.548E-03    -117.704E-03     112.355E-03     112.769E+06     95.1407E+06    -18.1629E+06    -18.1342E+06     112.741E+06     95.1407E+06    -1.43187E+06         56.5590
            1258     14.2368E-03     75.1487E-03         11.5769        -2.87589        -5.53773        -2.84615         11.5472        -5.53773    -272.354E-03     250.918E-03    -117.763E-03    -133.154E-03    -118.222E-03     235.985E-03    -117.763E-03     142.820E-03     120.534E+06     98.7082E+06    -11.2097E+06    -11.1734E+06     120.498E+06     98.7082E+06    -475.896E+03         58.4304
            1259     15.1215E-03     75.3796E-03         10.8851        -2.46657        -5.38032        -2.44128         10.8598        -5.38032    -453.672E-03     246.747E-03    -116.236E-03    -130.512E-03    -117.249E-03     235.051E-03    -117.802E-03     102.609E-03     127.208E+06     98.6594E+06    -5.77784E+06    -5.74436E+06     127.174E+06     98.6594E+06     369.235E+03         60.2203
            1260     886.738E-06     75.7572E-03         19.5129        -6.26590        -9.65286        -8.67450         18.5345        -6.26590         5.29568     236.453E-03    -118.054E-03    -118.400E-03    -118.288E-03     236.448E-03    -118.160E-03    -708.773E-06    -99.6863E+06    -104.974E+06    -226.320E+06    -103.904E+06    -226.294E+06    -100.782E+06    -1.09206E+06         39.8252
            1261     1.77677E-03     75.7509E-03         18.5676        -7.38745        -7.55654        -7.36199         18.4340        -7.44842    -397.645E-03     236.260E-03    -117.959E-03    -118.302E-03    -118.016E-03     236.255E-03    -118.239E-03    -792.035E-06    -93.2963E+06    -100.977E+06    -226.145E+06    -100.995E+06    -226.127E+06    -93.2963E+06    -12.7462E+03         40.0039
            1262     2.66713E-03     75.7509E-03         18.2588        -7.24299        -7.38342        -7.12421         18.1401        -7.38342    -195.291E-03     235.731E-03    -117.517E-03    -118.213E-03    -117.553E-03     235.730E-03    -118.177E-03     362.956E-06    -83.8060E+06    -97.6956E+06    -224.429E+06    -97.7052E+06    -224.420E+06    -83.8060E+06     602.251E+03         40.3031
            1263     3.55550E-03     75.7490E-03         17.8871        -6.97781        -7.29232        -6.90980         17.8191        -7.29232        -2.10325     235.016E-03    -116.975E-03    -118.041E-03    -116.972E-03     235.013E-03    -118.041E-03     1.57233E-03    -72.6922E+06    -91.6862E+06    -213.287E+06    -91.7549E+06    -213.218E+06    -72.6922E+06     1.21923E+06         40.7390
            1264     4.44493E-03     75.7521E-03         17.4468        -6.67637        -7.19098        -6.65506         17.4255        -7.19098        -1.24196     234.753E-03    -116.822E-03    -117.931E-03    -116.806E-03     234.736E-03    -117.931E-03     4.42820E-03    -56.9713E+06    -84.1221E+06    -200.114E+06    -84.2071E+06    -200.029E+06    -56.9713E+06    -42.5609E+03         41.3289
            1265     5.33616E-03     75.7536E-03         17.0196        -6.39918        -7.07941        -6.37851         16.9989        -7.07941    -727.780E-03     234.682E-03    -116.807E-03    -117.875E-03    -116.743E-03     234.618E-03    -117.875E-03     9.03117E-03    -41.6389E+06    -79.4425E+06    -181.589E+06    -79.5856E+06    -181.446E+06    -41.6389E+06    -1.54501E+06         42.0911
            1266     6.22415E-03     75.7650E-03         16.5734        -6.09953        -6.95933        -6.08313         16.5570        -6.95933    -587.424E-03     234.270E-03    -116.450E-03    -117.820E-03    -116.313E-03     234.133E-03    -117.820E-03     13.7225E-03    -30.9212E+06    -75.8615E+06    -162.162E+06    -76.0091E+06    -162.014E+06    -30.9212E+06    -559.806E+03         43.0468
            1267     7.11597E-03     75.7783E-03         16.1434        -5.80883        -6.83180        -5.77052         16.1051        -6.83180     179.402E-03     234.274E-03    -116.529E-03    -117.746E-03    -116.269E-03     234.015E-03    -117.746E-03     18.7816E-03    -21.9667E+06    -69.7647E+06    -125.667E+06     -69.794E+06    -125.638E+06    -21.9667E+06    -222.474E+03         44.2168
            1268     8.00401E-03     75.8008E-03         15.6477        -5.46910        -6.69664        -5.42132         15.5999        -6.69664    -5.38641E-03     234.642E-03    -116.953E-03    -117.689E-03    -116.432E-03     234.121E-03    -117.689E-03     26.6351E-03    -14.6563E+06    -54.1709E+06    -78.9803E+06    -64.3404E+06    -68.8109E+06    -14.6563E+06     596.829E+03         45.6139
            1269     8.89357E-03     75.8342E-03         15.1009        -5.09832        -6.55452        -5.07342         15.0760        -6.55452        -1.11333     234.271E-03    -116.636E-03    -117.636E-03    -115.628E-03     233.264E-03    -117.636E-03     37.0714E-03     14.5306E+06    -21.2137E+06    -58.2062E+06    -58.0503E+06    -1.21191E+06    -5.62715E+06     1.98753E+06         47.2326
            1270     9.78292E-03     75.8827E-03         14.5338        -4.73151        -6.40753        -4.72568         14.5280        -6.40753    -558.377E-03     234.205E-03    -116.623E-03    -117.582E-03    -114.721E-03     232.303E-03    -117.582E-03     50.9075E-03     70.2969E+06     11.7868E+06    -50.5094E+06    -50.4142E+06     70.2016E+06     11.7868E+06     1.49713E+06         49.0335
            1271     10.6736E-03     75.9430E-03         13.9706        -4.38014        -6.25692        -4.37457         13.9650        -6.25692    -471.088E-03     234.915E-03    -117.147E-03    -117.768E-03    -113.963E-03     231.551E-03    -117.588E-03     67.8917E-03     105.058E+06     34.5651E+06    -42.3154E+06    -42.2959E+06     105.039E+06     34.5651E+06     479.072E+03         50.9356
            1272     11.5657E-03     76.0311E-03         13.3790        -4.00229        -6.10247        -3.99848         13.3752        -6.10247     328.857E-03     236.104E-03    -117.508E-03    -118.596E-03    -113.212E-03     230.851E-03    -117.640E-03     85.2092E-03     110.182E+06     60.5736E+06    -34.3427E+06    -34.2926E+06     110.132E+06     60.5736E+06    -1.32063E+06         52.8446
            1273     12.4566E-03     76.1388E-03         12.7555        -3.60474        -5.94319        -3.60087         12.7517        -5.94319     384.498E-03     241.411E-03    -117.731E-03    -123.679E-03    -114.843E-03     232.575E-03    -117.731E-03     111.094E-03     111.004E+06     84.2466E+06    -27.6278E+06    -27.5603E+06     110.937E+06     84.2466E+06    -3.03090E+06         54.7104
            1274     13.3413E-03     76.2960E-03         12.1080        -3.20432        -5.77819        -3.19257         12.0962        -5.77819     617.467E-03     242.969E-03    -117.826E-03    -125.143E-03    -116.091E-03     233.917E-03    -117.826E-03     113.056E-03     109.982E+06     92.4962E+06    -20.8960E+06    -20.8267E+06     109.912E+06     92.4962E+06    -2.95821E+06         56.5592
            1275     14.2277E-03     76.4125E-03         11.4317        -2.80968        -5.60682        -2.78237         11.4044        -5.60682    -69.1765E-03     249.270E-03    -117.842E-03    -131.427E-03    -116.190E-03     234.032E-03    -117.842E-03     143.201E-03     116.473E+06     93.8327E+06    -13.9863E+06    -13.8903E+06     116.377E+06     93.8327E+06     512.026E+03         58.4303
            1276     15.1243E-03     76.6432E-03         10.6916        -2.37172        -5.42924        -2.35218         10.6720        -5.42924    -344.180E-03     245.979E-03    -116.758E-03    -129.221E-03    -116.214E-03     233.995E-03    -117.781E-03     102.546E-03     127.668E+06     96.8288E+06    -6.91937E+06    -6.85778E+06     127.607E+06     96.8288E+06     1.87736E+06         60.2293
            1277     890.308E-06     77.0189E-03         19.7934        -5.72840        -10.5514        -9.35787         18.5998        -5.72840         5.81241     235.885E-03    -117.429E-03    -118.456E-03    -117.798E-03     235.881E-03    -118.083E-03    -905.308E-06    -101.220E+06    -109.981E+06    -227.501E+06    -107.122E+06    -227.479E+06    -104.101E+06    -411.495E+03         39.8271
            1278     1.77830E-03     77.0193E-03         18.5930        -7.47457        -7.59225        -7.36830         18.4041        -7.50957    -588.674E-03     236.291E-03    -117.962E-03    -118.329E-03    -118.223E-03     236.291E-03    -118.068E-03     113.014E-06    -93.6657E+06    -103.385E+06    -226.953E+06    -103.393E+06    -226.945E+06    -93.6657E+06     703.523E+03         40.0062
            1279     2.66486E-03     77.0152E-03         18.2917        -7.31422        -7.43018        -7.16500         18.1425        -7.43018    -89.2856E-03     235.898E-03    -117.655E-03    -118.243E-03    -117.749E-03     235.895E-03    -118.146E-03     550.405E-06    -82.8509E+06    -97.6124E+06    -224.313E+06    -97.6215E+06    -224.304E+06    -82.8509E+06    -228.618E+03         40.3049
            1280     3.55505E-03     77.0149E-03         17.8739        -7.01830        -7.33637        -6.93923         17.7949        -7.33637        -2.11288     235.151E-03    -117.086E-03    -118.065E-03    -117.079E-03     235.144E-03    -118.065E-03     2.67256E-03    -70.5970E+06      -90.84E+06    -212.857E+06    -90.8499E+06    -212.848E+06    -70.5970E+06    -1.04296E+06         40.7396
            1281     4.44603E-03     77.0135E-03         17.4278        -6.71677        -7.23289        -6.69559         17.4067        -7.23289        -1.11796     234.968E-03    -116.997E-03    -117.970E-03    -116.982E-03     234.952E-03    -117.970E-03     4.57108E-03    -56.9143E+06    -83.9610E+06    -199.111E+06    -83.9768E+06    -199.095E+06    -56.9143E+06    -1.29950E+06         41.3270
            1282     5.33472E-03     77.0198E-03         17.0153        -6.46008        -7.12180        -6.43635         16.9916        -7.12180    -635.509E-03     234.709E-03    -116.774E-03    -117.936E-03    -116.723E-03     234.659E-03    -117.936E-03     7.95951E-03    -39.3397E+06    -77.4220E+06    -184.309E+06    -77.4634E+06    -184.267E+06    -39.3397E+06    -82.4542E+03         42.0854
            1283     6.22543E-03     77.0282E-03         16.5574        -6.14584        -7.00205        -6.13060         16.5422        -7.00205    -380.442E-03     234.526E-03    -116.627E-03    -117.899E-03    -116.507E-03     234.406E-03    -117.899E-03     12.7534E-03    -24.4307E+06    -71.0866E+06    -163.202E+06    -71.1727E+06    -163.116E+06    -24.4307E+06     1.00189E+06         43.0366
            1284     7.11380E-03     77.0425E-03         16.1097        -5.83536        -6.87199        -5.79548         16.0698        -6.87199     344.855E-03     234.624E-03    -116.785E-03    -117.839E-03    -116.519E-03     234.358E-03    -117.839E-03     18.9046E-03    -16.5774E+06    -66.1172E+06    -125.906E+06    -66.2134E+06    -125.809E+06    -16.5774E+06     983.713E+03         44.2019
            1285     8.00356E-03     77.0676E-03         15.6179        -5.49910        -6.73284        -5.45233         15.5711        -6.73284     196.248E-03     234.674E-03    -116.897E-03    -117.777E-03    -116.353E-03     234.130E-03    -117.777E-03     27.2646E-03    -10.9069E+06    -50.8146E+06    -80.1635E+06     -61.094E+06    -69.8840E+06    -10.9069E+06     624.535E+03         45.5950
            1286     8.89194E-03     77.0990E-03         15.0576        -5.12533        -6.58664        -5.10602         15.0383        -6.58664    -919.525E-03     233.912E-03    -116.227E-03    -117.685E-03    -115.246E-03     232.931E-03    -117.685E-03     36.6204E-03     13.8929E+06    -17.8402E+06    -54.5696E+06    -54.4492E+06    -1.07130E+06    -2.99652E+06    -425.687E+03         47.2125
            1287     9.78481E-03     77.1439E-03         14.4781        -4.75439        -6.43455        -4.75143         14.4752        -6.43455    -354.879E-03     233.715E-03    -116.132E-03    -117.583E-03    -114.262E-03     231.845E-03    -117.583E-03     50.2679E-03     68.9210E+06     12.6903E+06    -47.7092E+06    -47.7030E+06     68.9148E+06     12.6903E+06    -173.527E+03         49.0169
            1288     10.6746E-03     77.2108E-03         13.8930        -4.38585        -6.27687        -4.38272         13.8899        -6.27687    -251.361E-03     235.091E-03    -117.161E-03    -117.930E-03    -114.340E-03     231.914E-03    -117.573E-03     66.2623E-03     106.645E+06     33.6582E+06    -41.2267E+06    -41.2172E+06     106.636E+06     33.6582E+06    -463.314E+03         50.9266
            1289     11.5619E-03     77.2937E-03         13.2753        -3.98659        -6.11264        -3.97986         13.2685        -6.11264     536.888E-03     237.487E-03    -117.691E-03    -119.796E-03    -114.648E-03     232.338E-03    -117.691E-03     84.4494E-03     111.406E+06     57.8721E+06    -34.9497E+06    -34.9291E+06     111.385E+06     57.8721E+06    -1.63575E+06         52.8417
            1290     12.4509E-03     77.4053E-03         12.6253        -3.56721        -5.94037        -3.55988         12.6180        -5.94037     611.617E-03     241.760E-03    -117.827E-03    -123.933E-03    -114.820E-03     232.648E-03    -117.827E-03     112.750E-03     111.165E+06     80.9525E+06    -27.6146E+06    -27.5842E+06     111.135E+06     80.9525E+06    -1.72139E+06         54.7072
            1291     13.3418E-03     77.5653E-03         11.9501        -3.15077        -5.76068        -3.13523         11.9345        -5.76068     802.269E-03     241.709E-03    -117.860E-03    -123.849E-03    -114.324E-03     232.184E-03    -117.860E-03     115.690E-03     108.126E+06     90.9938E+06    -20.0766E+06    -20.0159E+06     108.065E+06     90.9938E+06    -961.043E+03         56.5547
            1292     14.2356E-03     77.6748E-03         11.2516        -2.73706        -5.57373        -2.71133         11.2259        -5.57373     112.317E-03     249.045E-03    -117.794E-03    -131.251E-03    -115.828E-03     233.622E-03    -117.794E-03     144.863E-03     114.299E+06     91.1210E+06    -14.3879E+06    -14.2661E+06     114.177E+06     91.1210E+06     141.191E+03         58.4312
            1293     15.1238E-03     77.9070E-03         10.5110        -2.30332        -5.38275        -2.28882         10.4965        -5.38275    -248.794E-03     246.458E-03    -116.896E-03    -129.562E-03    -116.819E-03     234.558E-03    -117.738E-03     102.967E-03     127.101E+06      93.549E+06    -7.73974E+06    -7.66130E+06     127.022E+06      93.549E+06     316.937E+03         60.2401
            1294     888.643E-06     78.2840E-03         19.2508        -4.87858        -10.9331        -9.91967         18.2586        -4.89990         5.33609     235.464E-03    -117.199E-03    -118.266E-03    -117.544E-03     235.460E-03    -117.916E-03    -1.27929E-03    -100.528E+06    -109.777E+06    -228.411E+06    -106.924E+06    -228.383E+06    -103.409E+06     10.6449E+03         39.8172
            1295     1.77757E-03     78.2852E-03         18.1705        -7.31492        -7.39833        -7.18225         18.0045        -7.36499    -487.449E-03     235.486E-03    -117.473E-03    -118.013E-03    -117.698E-03     235.486E-03    -117.788E-03     292.583E-06    -94.6434E+06    -103.863E+06    -227.714E+06    -103.866E+06    -227.711E+06    -94.6434E+06     334.728E+03         39.9991
            1296     2.66812E-03     78.2809E-03         17.9202        -7.16105        -7.27683        -7.01902         17.7782        -7.27683    -180.687E-03     235.623E-03    -117.420E-03    -118.203E-03    -117.778E-03     235.620E-03    -117.842E-03     519.227E-06    -86.6491E+06    -100.155E+06    -222.808E+06    -100.171E+06    -222.793E+06    -86.6491E+06    -864.431E+03         40.3014
            1297     3.55747E-03     78.2774E-03         17.5418        -6.90442        -7.18876        -6.82562         17.4630        -7.18876        -2.09042     235.673E-03    -117.439E-03    -118.234E-03    -117.732E-03     235.666E-03    -117.934E-03     2.23216E-03    -71.6143E+06    -94.6393E+06    -212.207E+06    -94.6727E+06    -212.174E+06    -71.6143E+06    -1.84089E+06         40.7381
            1298     4.44442E-03     78.2813E-03         17.1434        -6.63901        -7.09557        -6.61946         17.1238        -7.09557        -1.07127     235.440E-03    -117.440E-03    -118.000E-03    -117.421E-03     235.421E-03    -118.000E-03     4.79013E-03    -55.5309E+06    -88.6706E+06    -199.355E+06    -88.7029E+06    -199.322E+06    -55.5309E+06    -1.78007E+06         41.3254
            1299     5.33391E-03     78.2824E-03         16.7563        -6.38871        -6.99480        -6.36607         16.7336        -6.99480    -552.084E-03     235.148E-03    -117.125E-03    -118.023E-03    -117.074E-03     235.097E-03    -118.023E-03     8.22693E-03    -40.1853E+06    -80.8247E+06    -185.728E+06    -80.8399E+06    -185.713E+06    -40.1853E+06    -1.14529E+06         42.0817
            1300     6.22369E-03     78.2927E-03         16.3269        -6.09387        -6.88353        -6.08090         16.3139        -6.88353    -249.863E-03     234.861E-03    -116.848E-03    -118.013E-03    -116.725E-03     234.738E-03    -118.013E-03     12.8871E-03    -25.4936E+06    -72.4059E+06    -165.005E+06    -72.4503E+06    -164.961E+06    -25.4936E+06     491.572E+03         43.0289
            1301     7.11348E-03     78.3085E-03         15.8888        -5.78687        -6.76041        -5.74683         15.8487        -6.76041     492.460E-03     234.550E-03    -116.609E-03    -117.941E-03    -116.337E-03     234.278E-03    -117.941E-03     19.1715E-03    -16.1900E+06    -63.7143E+06    -125.462E+06    -63.9023E+06    -125.274E+06    -16.1900E+06     472.089E+03         44.1893
            1302     8.00326E-03     78.3306E-03         15.3992        -5.45538        -6.62602        -5.41007         15.3539        -6.62602     364.453E-03     234.079E-03    -116.265E-03    -117.814E-03    -115.712E-03     233.525E-03    -117.814E-03     27.4303E-03    -11.0626E+06    -48.2847E+06    -77.1747E+06    -55.7763E+06    -69.6831E+06    -11.0626E+06    -1.13824E+06         45.5794
            1303     8.89412E-03     78.3658E-03         14.8496        -5.08996        -6.48339        -5.07514         14.8348        -6.48339    -751.381E-03     234.120E-03    -116.422E-03    -117.697E-03    -115.459E-03     233.156E-03    -117.697E-03     36.4389E-03     11.9946E+06    -16.7201E+06    -50.3400E+06    -50.2401E+06    -2.32030E+06    -2.50510E+06    -649.974E+03         47.1971
            1304     9.78150E-03     78.4060E-03         14.2666        -4.71059        -6.33284        -4.70927         14.2653        -6.33284    -189.503E-03     234.417E-03    -116.777E-03    -117.641E-03    -114.918E-03     232.558E-03    -117.641E-03     50.0886E-03     68.2770E+06     14.3808E+06    -45.6986E+06    -45.6920E+06     68.2704E+06     14.3808E+06     106.227E+03         49.0038
            1305     10.6722E-03     78.4771E-03         13.6629        -4.32212        -6.17307        -4.31988         13.6607        -6.17307    -38.8426E-03     234.881E-03    -117.070E-03    -117.811E-03    -114.007E-03     231.642E-03    -117.634E-03     66.8185E-03     105.426E+06     33.4474E+06    -41.0361E+06    -41.0338E+06     105.424E+06     33.4474E+06    -446.259E+03         50.9175
            1306     11.5640E-03     78.5586E-03         13.0485        -3.92024        -6.00351        -3.90955         13.0378        -6.00351     737.152E-03     237.565E-03    -117.570E-03    -119.995E-03    -114.259E-03     231.978E-03    -117.719E-03     87.7315E-03     110.966E+06     59.4403E+06    -33.9756E+06    -33.9695E+06     110.960E+06     59.4403E+06    -905.126E+03         52.8367
            1307     12.4513E-03     78.6764E-03         12.3978        -3.49865        -5.82363        -3.48677         12.3859        -5.82363     815.532E-03     241.735E-03    -117.827E-03    -123.908E-03    -114.584E-03     232.412E-03    -117.827E-03     114.540E-03     111.062E+06     83.1272E+06    -26.8024E+06    -26.7888E+06     111.049E+06     83.1272E+06     28.8583E+03         54.7040
            1308     13.3448E-03     78.8195E-03         11.7268        -3.08231        -5.63577        -3.06279         11.7072        -5.63577     954.645E-03     241.195E-03    -117.847E-03    -123.348E-03    -114.160E-03     232.007E-03    -117.847E-03     113.430E-03     108.195E+06     92.7448E+06    -20.0540E+06    -20.0258E+06     108.167E+06     92.7448E+06     1.11798E+06         56.5528
            1309     14.2338E-03     78.9469E-03         11.0419        -2.68136        -5.44082        -2.65612         11.0167        -5.44082     249.475E-03     248.612E-03    -117.797E-03    -130.815E-03    -116.018E-03     233.814E-03    -117.797E-03     141.838E-03     114.076E+06      94.079E+06    -12.7046E+06    -12.6567E+06     114.028E+06      94.079E+06    -458.140E+03         58.4345
            1310     15.1229E-03     79.1687E-03         10.3385        -2.27626        -5.24472        -2.26568         10.3279        -5.24472    -197.890E-03     246.054E-03    -116.803E-03    -129.250E-03    -116.843E-03     234.594E-03    -117.751E-03     102.117E-03     125.475E+06     94.3999E+06    -6.09164E+06    -6.06210E+06     125.446E+06     94.3999E+06    -967.866E+03         60.2529
            1311     888.930E-06     79.5506E-03         17.9927        -3.70486        -10.8998        -10.2991         17.4917        -3.80455         3.87595     235.486E-03    -117.424E-03    -118.062E-03    -117.607E-03     235.483E-03    -117.876E-03    -1.14539E-03    -100.684E+06    -110.867E+06    -230.543E+06    -107.759E+06     -230.53E+06    -103.805E+06     759.436E+03         39.8054
            1312     1.77925E-03     79.5471E-03         17.3370        -6.90958        -7.02252        -6.84108         17.2564        -7.01042    -39.6382E-03     235.204E-03    -117.385E-03    -117.818E-03    -117.448E-03     235.201E-03    -117.754E-03    -730.936E-06    -92.9303E+06    -102.536E+06    -228.495E+06    -102.538E+06    -228.493E+06    -92.9303E+06     35.7239E+03         39.9881
            1313     2.66814E-03     79.5460E-03         17.2149        -6.82940        -6.94902        -6.74612         17.1195        -6.93691    -377.031E-03     235.635E-03    -117.487E-03    -118.149E-03    -117.851E-03     235.635E-03    -117.784E-03    -339.914E-06    -82.2872E+06    -97.4461E+06    -220.690E+06    -97.4621E+06    -220.674E+06    -82.2872E+06    -61.1485E+03         40.2924
            1314     3.55457E-03     79.5452E-03         16.9077        -6.62224        -6.86737        -6.56171         16.8472        -6.86737        -1.89470     235.750E-03    -117.545E-03    -118.205E-03    -117.840E-03     235.745E-03    -117.905E-03     1.59837E-03    -70.6137E+06    -94.3577E+06    -211.742E+06    -94.3901E+06    -211.709E+06    -70.6137E+06    -958.530E+03         40.7310
            1315     4.44602E-03     79.5434E-03         16.6090        -6.43314        -6.79145        -6.41707         16.5930        -6.79145        -1.05093     235.494E-03    -117.497E-03    -117.996E-03    -117.478E-03     235.475E-03    -117.996E-03     4.89114E-03    -54.5455E+06    -88.9203E+06    -199.065E+06    -88.9433E+06    -199.042E+06    -54.5455E+06    -1.22281E+06         41.3190
            1316     5.33513E-03     79.5498E-03         16.2467        -6.18990        -6.70795        -6.17122         16.2280        -6.70795    -402.818E-03     235.447E-03    -117.396E-03    -118.052E-03    -117.341E-03     235.393E-03    -118.052E-03     8.43028E-03    -38.5603E+06    -81.9156E+06    -185.377E+06    -81.9527E+06    -185.340E+06    -38.5603E+06    -1.44181E+06         42.0746
            1317     6.22276E-03     79.5569E-03         15.8685        -5.92529        -6.61096        -5.91528         15.8585        -6.61096    -92.8521E-03     234.892E-03    -116.860E-03    -118.031E-03    -116.721E-03     234.752E-03    -118.031E-03     13.6469E-03    -30.0008E+06    -73.3872E+06    -166.896E+06    -73.5397E+06    -166.744E+06    -30.0008E+06    -2.67526E+06         43.0195
            1318     7.11287E-03     79.5727E-03         15.4768        -5.65281        -6.50154        -5.61402         15.4380        -6.50154     656.460E-03     234.372E-03    -116.436E-03    -117.936E-03    -116.124E-03     234.060E-03    -117.936E-03     20.5064E-03    -21.4913E+06    -65.2558E+06    -125.941E+06    -65.4871E+06    -125.710E+06    -21.4913E+06    -2.48095E+06         44.1774
            1319     8.00251E-03     79.5958E-03         15.0121        -5.33522        -6.37954        -5.29300         14.9698        -6.37954     553.335E-03     234.235E-03    -116.409E-03    -117.825E-03    -115.853E-03     233.678E-03    -117.825E-03     27.6592E-03    -12.3353E+06    -51.1894E+06    -77.9161E+06    -59.9403E+06    -69.1651E+06    -12.3353E+06    -1.15120E+06         45.5663
            1320     8.89282E-03     79.6276E-03         14.4717        -4.97067        -6.24654        -4.96100         14.4621        -6.24654    -542.176E-03     234.250E-03    -116.524E-03    -117.726E-03    -115.526E-03     233.252E-03    -117.726E-03     36.8963E-03     11.5586E+06    -19.2937E+06    -54.7749E+06    -54.7048E+06    -4.35352E+06    -3.45176E+06    -944.203E+03         47.1850
            1321     9.78303E-03     79.6767E-03         13.8972        -4.59245        -6.10234        -4.59197         13.8967        -6.10234    -24.5489E-03     234.416E-03    -116.751E-03    -117.664E-03    -114.886E-03     232.551E-03    -117.664E-03     50.4305E-03     66.4948E+06     12.9293E+06    -48.4772E+06    -48.4223E+06     66.4399E+06     12.9293E+06    -1.17970E+06         48.9950
            1322     10.6727E-03     79.7362E-03         13.3108        -4.20766        -5.94601        -4.20499         13.3081        -5.94601     183.714E-03     234.680E-03    -117.024E-03    -117.656E-03    -113.706E-03     231.362E-03    -117.656E-03     67.3416E-03     105.120E+06     35.7662E+06    -41.0496E+06    -41.0375E+06     105.108E+06     35.7662E+06    -399.946E+03         50.9127
            1323     11.5631E-03     79.8263E-03         12.7206        -3.82382        -5.77765        -3.80873         12.7055        -5.77765     914.357E-03     236.660E-03    -117.503E-03    -119.157E-03    -113.321E-03     231.024E-03    -117.703E-03     88.1242E-03     109.895E+06     63.3894E+06    -34.5334E+06    -34.5283E+06     109.890E+06     63.3894E+06     104.007E+03         52.8354
            1324     12.4567E-03     79.9382E-03         12.0916        -3.41582        -5.59721        -3.39899         12.0748        -5.59721     982.989E-03     241.889E-03    -117.793E-03    -124.096E-03    -114.948E-03     232.741E-03    -117.793E-03     113.586E-03     109.056E+06     86.9126E+06    -27.6555E+06    -27.6435E+06     109.044E+06     86.9126E+06     330.985E+03         54.7047
            1325     13.3399E-03     80.0929E-03         11.4573        -3.02891        -5.40946        -3.00651         11.4349        -5.40946         1.06049     242.305E-03    -117.856E-03    -124.448E-03    -115.388E-03     233.245E-03    -117.856E-03     113.080E-03     109.425E+06     95.0183E+06    -19.1835E+06    -19.1588E+06     109.400E+06     95.0183E+06     902.201E+03         56.5536
            1326     14.2306E-03     80.2036E-03         10.8144        -2.66146        -5.21581        -2.63748         10.7904        -5.21581     335.058E-03     249.152E-03    -117.838E-03    -131.314E-03    -115.957E-03     233.795E-03    -117.838E-03     144.048E-03     114.662E+06     95.8261E+06    -11.8106E+06    -11.7715E+06     114.623E+06     95.8261E+06     1.33482E+06         58.4392
            1327     15.1238E-03     80.4389E-03         10.1609        -2.28561        -5.02311        -2.27796         10.1533        -5.02311    -162.979E-03     245.653E-03    -116.167E-03    -129.487E-03    -115.875E-03     233.628E-03    -117.754E-03     103.279E-03     124.054E+06     96.4148E+06    -5.98830E+06    -5.93990E+06     124.005E+06     96.4148E+06    -20.8080E+03         60.2691
            1328     889.213E-06     80.8157E-03         16.5736        -2.38173        -10.8047        -10.5427         16.4593        -2.52946         1.64260     235.947E-03    -117.717E-03    -118.230E-03    -117.945E-03     235.944E-03    -117.999E-03    -1.62133E-03    -100.899E+06    -109.165E+06    -230.564E+06    -106.050E+06    -230.509E+06    -104.069E+06    -1.22584E+06         39.7974
            1329     1.77731E-03     80.8112E-03         16.2809        -6.35066        -6.51345        -6.34049         16.2557        -6.49839     621.808E-03     235.673E-03    -117.541E-03    -118.133E-03    -117.685E-03     235.671E-03    -117.986E-03    -1.31934E-03    -92.6179E+06    -102.508E+06    -230.071E+06    -102.470E+06    -230.060E+06    -92.6668E+06     76.3049E+03         39.9777
            1330     2.66586E-03     80.8125E-03         16.2423        -6.34780        -6.45506        -6.32182         16.2012        -6.43999    -728.750E-03     235.285E-03    -117.295E-03    -117.990E-03    -117.359E-03     235.284E-03    -117.925E-03     577.644E-06    -79.6977E+06    -96.5407E+06    -221.966E+06    -96.5535E+06    -221.953E+06    -79.6977E+06     849.284E+03         40.2801
            1331     3.55818E-03     80.8079E-03         16.0264        -6.21106        -6.39325        -6.17396         15.9893        -6.39325        -1.62185     235.661E-03    -117.629E-03    -118.032E-03    -117.726E-03     235.657E-03    -117.931E-03     1.88873E-03    -65.3574E+06    -90.1494E+06    -210.466E+06    -90.1543E+06    -210.461E+06    -65.3574E+06     356.828E+03         40.7187
            1332     4.44470E-03     80.8109E-03         15.7966        -6.06428        -6.33676        -6.04954         15.7818        -6.33676        -1.08802     235.524E-03    -117.431E-03    -118.092E-03    -117.514E-03     235.506E-03    -117.991E-03     4.42736E-03    -52.9042E+06    -84.6817E+06    -199.187E+06    -84.6888E+06    -199.179E+06    -52.9042E+06    -524.996E+03         41.3074
            1333     5.33331E-03     80.8135E-03         15.4991        -5.86012        -6.27091        -5.84615         15.4851        -6.27091    -219.689E-03     234.872E-03    -116.873E-03    -117.998E-03    -116.810E-03     234.808E-03    -117.998E-03     8.95557E-03    -38.3294E+06    -77.6678E+06    -184.792E+06    -77.7232E+06    -184.736E+06    -38.3294E+06    -2.06552E+06         42.0635
            1334     6.22465E-03     80.8227E-03         15.1827        -5.64076        -6.19203        -5.63328         15.1752        -6.19203     62.6654E-03     234.842E-03    -116.881E-03    -117.961E-03    -116.736E-03     234.697E-03    -117.961E-03     14.0194E-03    -26.7507E+06    -71.3168E+06    -165.840E+06    -71.4882E+06    -165.669E+06    -26.7507E+06    -3.36160E+06         43.0087
            1335     7.11425E-03     80.8354E-03         14.8460        -5.40916        -6.10039        -5.36767         14.8045        -6.10039     871.774E-03     234.723E-03    -116.823E-03    -117.900E-03    -116.516E-03     234.416E-03    -117.900E-03     20.3016E-03    -20.3875E+06    -67.0513E+06    -128.713E+06    -67.2091E+06    -128.555E+06    -20.3875E+06    -2.14385E+06         44.1661
            1336     8.00416E-03     80.8620E-03         14.4382        -5.12732        -5.99515        -5.08332         14.3942        -5.99515     764.689E-03     234.510E-03    -116.677E-03    -117.833E-03    -116.112E-03     233.945E-03    -117.833E-03     27.8782E-03    -10.6385E+06    -52.1836E+06    -79.6868E+06    -60.9576E+06    -70.9128E+06    -10.6385E+06    -340.707E+03         45.5545
            1337     8.89193E-03     80.8930E-03         13.9251        -4.76897        -5.87686        -4.76264         13.9187        -5.87686    -329.963E-03     234.173E-03    -116.426E-03    -117.747E-03    -115.402E-03     233.149E-03    -117.747E-03     37.3702E-03     15.0628E+06    -17.7119E+06    -55.4959E+06    -55.4496E+06    -2.80035E+06     104.990E+03    -1.12836E+06         47.1749
            1338     9.78262E-03     80.9393E-03         13.4043        -4.42549        -5.74520        -4.42484         13.4036        -5.74520     156.459E-03     233.883E-03    -116.225E-03    -117.658E-03    -114.347E-03     232.005E-03    -117.658E-03     50.5757E-03     66.0959E+06     15.7608E+06    -50.7133E+06    -50.6440E+06     66.0266E+06     15.7608E+06    -2.49172E+06         48.9900
            1339     10.6729E-03     81.0033E-03         12.8672        -4.07310        -5.60022        -4.06876         12.8629        -5.60022     390.128E-03     234.920E-03    -116.942E-03    -117.978E-03    -114.000E-03     231.633E-03    -117.633E-03     67.1158E-03     102.294E+06     36.0921E+06    -43.4081E+06    -43.3740E+06     102.260E+06     36.0921E+06    -1.44940E+06         50.9141
            1340     11.5644E-03     81.0868E-03         12.3165        -3.71192        -5.44135        -3.69158         12.2961        -5.44135         1.07657     237.652E-03    -117.660E-03    -119.992E-03    -114.370E-03     232.080E-03    -117.710E-03     87.8695E-03     108.499E+06     59.6548E+06    -35.3681E+06    -35.3491E+06     108.480E+06     59.6548E+06     627.689E+03         52.8388
            1341     12.4510E-03     81.2065E-03         11.7457        -3.35034        -5.26895        -3.32755         11.7229        -5.26895         1.14529     241.222E-03    -117.813E-03    -123.409E-03    -114.341E-03     232.154E-03    -117.813E-03     112.825E-03     108.527E+06     82.7185E+06    -27.6467E+06    -27.6308E+06     108.511E+06     82.7185E+06     931.309E+03         54.7057
            1342     13.3455E-03     81.3584E-03         11.1684        -3.00509        -5.09019        -2.97948         11.1428        -5.09019         1.15884     241.113E-03    -117.822E-03    -123.291E-03    -114.255E-03     232.077E-03    -117.822E-03     112.568E-03     107.545E+06     91.1660E+06    -20.3997E+06    -20.3814E+06     107.527E+06     91.1660E+06     819.533E+03         56.5547
            1343     14.2352E-03     81.4694E-03         10.5859        -2.66962        -4.90620        -2.64737         10.5636        -4.90620     430.497E-03     248.867E-03    -117.768E-03    -131.098E-03    -115.749E-03     233.518E-03    -117.768E-03     143.953E-03     113.425E+06     93.2458E+06    -12.7591E+06    -12.7067E+06     113.373E+06     93.2458E+06     834.738E+03         58.4491
            1344     15.1235E-03     81.7028E-03         9.99406        -2.32887        -4.72469        -2.32419         9.98938        -4.72469    -111.551E-03     245.477E-03    -116.261E-03    -129.216E-03    -115.786E-03     233.482E-03    -117.696E-03     102.951E-03     124.393E+06     97.3880E+06    -5.14035E+06    -5.06440E+06     124.317E+06     97.3880E+06     10.4846E+03         60.2938
            1345     888.419E-06     82.0804E-03         15.5013        -1.12189        -10.9462        -10.6320         15.2565        -1.19125    -654.110E-03     235.755E-03    -117.425E-03    -118.331E-03    -118.328E-03     235.753E-03    -117.425E-03     177.845E-06    -101.937E+06    -107.400E+06    -230.341E+06    -106.623E+06    -230.235E+06    -102.819E+06     56.1409E+03         39.7896
            1346     1.77703E-03     82.0789E-03         15.2086        -5.80873        -5.92710        -5.75538         15.1062        -5.87809         1.38008     235.884E-03    -117.558E-03    -118.326E-03    -117.932E-03     235.882E-03    -117.950E-03    -684.541E-06    -95.4389E+06    -104.305E+06    -231.273E+06    -104.269E+06    -231.260E+06    -95.4878E+06     300.998E+03         39.9688
            1347     2.66879E-03     82.0723E-03         15.1169        -5.74872        -5.87482        -5.76625         15.0964        -5.83680        -1.10867     235.456E-03    -117.273E-03    -118.182E-03    -117.482E-03     235.453E-03    -117.972E-03     246.651E-06    -81.9919E+06    -98.3597E+06    -222.212E+06    -98.3767E+06    -222.195E+06    -81.9919E+06    -162.869E+03         40.2686
            1348     3.55487E-03     82.0771E-03         14.9306        -5.65344        -5.80345        -5.62814         14.9053        -5.80345        -1.40121     235.146E-03    -117.114E-03    -118.033E-03    -117.209E-03     235.141E-03    -117.932E-03     2.23295E-03    -66.3343E+06    -90.9616E+06    -211.805E+06    -90.9745E+06    -211.792E+06    -66.3343E+06    -814.835E+03         40.7053
            1349     4.44503E-03     82.0742E-03         14.7615        -5.56105        -5.75947        -5.54327         14.7437        -5.75947        -1.15892     235.040E-03    -116.977E-03    -118.063E-03    -117.119E-03     235.017E-03    -117.898E-03     5.11439E-03    -52.2920E+06    -83.4706E+06    -197.787E+06    -83.4826E+06    -197.775E+06    -52.2920E+06    -811.492E+03         41.2944
            1350     5.33663E-03     82.0775E-03         14.5146        -5.39718        -5.70911        -5.38803         14.5055        -5.70911    -71.8688E-03     234.975E-03    -117.012E-03    -117.963E-03    -117.017E-03     234.916E-03    -117.900E-03     8.74937E-03    -38.2361E+06    -77.7748E+06    -183.405E+06    -77.8166E+06    -183.363E+06    -38.2361E+06    -1.81160E+06         42.0516
            1351     6.22502E-03     82.0866E-03         14.2591        -5.21624        -5.64678        -5.21094         14.2538        -5.64678     152.074E-03     234.967E-03    -117.041E-03    -117.927E-03    -116.901E-03     234.828E-03    -117.927E-03     13.4733E-03    -23.0877E+06    -71.4578E+06    -167.202E+06    -71.4953E+06    -167.164E+06    -23.0877E+06    -1.42597E+06         42.9968
            1352     7.11293E-03     82.1028E-03         13.9975        -5.03837        -5.57198        -4.99227         13.9514        -5.57198         1.05745     234.944E-03    -117.045E-03    -117.898E-03    -116.748E-03     234.647E-03    -117.898E-03     20.1049E-03    -15.5352E+06    -64.9068E+06    -128.470E+06    -64.9548E+06    -128.422E+06    -15.5352E+06    -1.01503E+06         44.1535
            1353     8.00201E-03     82.1243E-03         13.6581        -4.80510        -5.48441        -4.75707         13.6101        -5.48441     945.329E-03     234.352E-03    -116.539E-03    -117.813E-03    -115.965E-03     233.779E-03    -117.813E-03     27.9729E-03    -11.7176E+06    -53.8455E+06    -79.1791E+06    -59.6117E+06    -73.4129E+06    -11.7176E+06    -1.58151E+06         45.5421
            1354     8.89394E-03     82.1599E-03         13.2244        -4.49962        -5.38461        -4.49496         13.2197        -5.38461    -142.298E-03     233.807E-03    -116.097E-03    -117.710E-03    -115.079E-03     232.789E-03    -117.710E-03     37.3651E-03     15.3977E+06    -18.2431E+06    -53.5059E+06    -53.2669E+06    -3.73632E+06     651.995E+03    -511.374E+03         47.1653
            1355     9.78312E-03     82.2021E-03         12.7874        -4.21162        -5.27185        -4.20976         12.7856        -5.27185     333.487E-03     234.099E-03    -116.444E-03    -117.655E-03    -114.591E-03     232.220E-03    -117.629E-03     50.5172E-03     67.7137E+06     19.3473E+06    -48.1714E+06    -48.1432E+06     67.6855E+06     19.3473E+06    -344.987E+03         48.9862
            1356     10.6747E-03     82.2675E-03         12.3245        -3.90893        -5.14503        -3.90195         12.3175        -5.14503     575.625E-03     235.706E-03    -117.244E-03    -118.462E-03    -114.791E-03     232.436E-03    -117.646E-03     67.2049E-03     100.105E+06     36.8701E+06    -43.8379E+06    -43.8000E+06     100.067E+06     36.8701E+06    -1.58043E+06         50.9154
            1357     11.5615E-03     82.3547E-03         11.8558        -3.60894        -5.00383        -3.58223         11.8291        -5.00383         1.22761     237.846E-03    -117.733E-03    -120.114E-03    -114.473E-03     232.205E-03    -117.733E-03     88.2687E-03     105.072E+06     55.0933E+06    -36.3044E+06    -36.2759E+06     105.043E+06     55.0933E+06    -609.676E+03         52.8414
            1358     12.4520E-03     82.4730E-03         11.3585        -3.29600        -4.84878        -3.26636         11.3288        -4.84878         1.29317     240.738E-03    -117.803E-03    -122.935E-03    -113.668E-03     231.471E-03    -117.803E-03     113.929E-03     107.098E+06     77.7348E+06    -27.0427E+06    -26.9941E+06     107.049E+06     77.7348E+06     1.88675E+06         54.7070
            1359     13.3422E-03     82.6155E-03         10.8569        -2.99375        -4.68706        -2.96346         10.8267        -4.68706         1.26318     240.915E-03    -117.793E-03    -123.122E-03    -113.939E-03     231.732E-03    -117.793E-03     113.389E-03     107.072E+06     90.1726E+06    -20.1085E+06    -20.0642E+06     107.028E+06     90.1726E+06     1.81579E+06         56.5573
            1360     14.2324E-03     82.7417E-03         10.3525        -2.70224        -4.52010        -2.67935         10.3296        -4.52010     531.046E-03     247.879E-03    -117.732E-03    -130.146E-03    -115.316E-03     233.048E-03    -117.732E-03     141.732E-03     113.417E+06     94.1091E+06    -12.7159E+06    -12.6726E+06     113.374E+06     94.1091E+06    -1.10094E+06         58.4609
            1361     15.1274E-03     82.9569E-03         9.83107        -2.39406        -4.35654        -2.39131         9.82832        -4.35654    -79.9485E-03     245.390E-03    -117.093E-03    -128.297E-03    -116.259E-03     233.930E-03    -117.671E-03     102.256E-03     124.321E+06     96.9366E+06    -5.21795E+06    -5.16702E+06     124.270E+06     96.9366E+06    -697.320E+03         60.3204
            1362     890.552E-06     83.3467E-03         14.8073     188.569E-03        -11.4746        -10.5948         13.9275     188.569E-03        -2.74579     235.024E-03    -117.054E-03    -117.970E-03    -117.860E-03     235.021E-03    -117.162E-03     14.6892E-06    -101.869E+06    -107.762E+06    -233.747E+06    -107.012E+06    -233.663E+06    -102.703E+06     2.13751E+06         39.7800
            1363     1.77971E-03     83.3423E-03         14.1193        -5.17672        -5.39149        -5.07377         13.8015        -5.17672         2.07624     236.051E-03    -117.738E-03    -118.313E-03    -118.310E-03     236.049E-03    -117.738E-03    -858.046E-06    -92.7776E+06    -101.893E+06    -230.538E+06    -101.901E+06    -230.530E+06    -92.7776E+06    -560.378E+03         39.9601
            1364     2.66425E-03     83.3412E-03         13.8336        -5.06486        -5.21347        -5.09429         13.7939        -5.14428        -1.40265     235.603E-03    -117.322E-03    -118.281E-03    -117.677E-03     235.601E-03    -117.924E-03     54.7732E-06    -83.8079E+06    -97.3905E+06    -221.156E+06    -97.4027E+06    -221.144E+06    -83.8079E+06    -1.00183E+06         40.2594
            1365     3.55716E-03     83.3376E-03         13.6734        -5.00927        -5.11984        -4.98459         13.6487        -5.11984        -1.17426     234.570E-03    -116.700E-03    -117.870E-03    -116.695E-03     234.565E-03    -117.870E-03     2.43603E-03    -67.9021E+06    -91.8673E+06    -211.672E+06    -91.8899E+06    -211.650E+06    -67.9021E+06    -1.41630E+06         40.6944
            1366     4.44839E-03     83.3386E-03         13.5563        -4.95710        -5.08677        -4.93259         13.5317        -5.08677        -1.21115     234.989E-03    -117.118E-03    -117.871E-03    -117.163E-03     234.970E-03    -117.807E-03     4.84632E-03    -52.0226E+06    -85.2675E+06    -198.860E+06    -85.2924E+06    -198.835E+06    -52.0226E+06    -1.49478E+06         41.2824
            1367     5.33391E-03     83.3443E-03         13.3512        -4.81763        -5.04902        -4.81096         13.3445        -5.04902     50.9777E-03     235.440E-03    -117.498E-03    -117.941E-03    -117.511E-03     235.389E-03    -117.878E-03     8.09593E-03    -35.1791E+06    -77.7582E+06    -182.820E+06    -77.7856E+06    -182.792E+06    -35.1791E+06    -1.13724E+06         42.0388
            1368     6.22359E-03     83.3502E-03         13.1612        -4.68190        -5.00106        -4.67753         13.1568        -5.00106     239.536E-03     235.015E-03    -117.069E-03    -117.946E-03    -116.929E-03     234.876E-03    -117.946E-03     13.4276E-03    -21.1608E+06    -70.8651E+06    -167.966E+06    -70.9140E+06    -167.917E+06    -21.1608E+06    -1.31069E+06         42.9825
            1369     7.11511E-03     83.3679E-03         12.9732        -4.56054        -4.94245        -4.51080         12.9234        -4.94245         1.17259     234.452E-03    -116.566E-03    -117.886E-03    -116.264E-03     234.150E-03    -117.886E-03     20.2625E-03    -14.2184E+06    -63.4903E+06    -129.838E+06    -63.5521E+06    -129.776E+06    -14.2184E+06    -1.51583E+06         44.1385
            1370     8.00421E-03     83.3903E-03         12.7083        -4.37700        -4.87259        -4.32586         12.6572        -4.87259         1.04889     234.245E-03    -116.479E-03    -117.766E-03    -115.900E-03     233.666E-03    -117.766E-03     28.1157E-03    -10.5504E+06    -52.5645E+06    -78.0470E+06    -57.6586E+06    -72.9528E+06    -10.5504E+06    -1.91027E+06         45.5281
            1371     8.89286E-03     83.4218E-03         12.3711        -4.14504        -4.79257        -4.14116         12.3672        -4.79257    -5.94659E-03     233.954E-03    -116.291E-03    -117.663E-03    -115.298E-03     232.961E-03    -117.663E-03     36.9703E-03     12.2823E+06    -20.0156E+06    -52.8314E+06    -52.5160E+06    -6.57317E+06    -1.47553E+06    -1.44591E+06         47.1540
            1372     9.78448E-03     83.4681E-03         12.0366        -3.93392        -4.70169        -3.93076         12.0334        -4.70169     444.933E-03     234.439E-03    -116.801E-03    -117.638E-03    -114.945E-03     232.557E-03    -117.612E-03     50.4710E-03     65.8407E+06     17.9632E+06    -46.1655E+06    -46.1232E+06     65.7983E+06     17.9632E+06     650.779E+03         48.9783
            1373     10.6713E-03     83.5332E-03         11.6816        -3.70816        -4.59789        -3.69797         11.6714        -4.59789     713.535E-03     235.608E-03    -117.498E-03    -118.110E-03    -114.533E-03     232.172E-03    -117.639E-03     68.7339E-03     101.153E+06     38.0492E+06    -40.7029E+06    -40.6307E+06     101.081E+06     38.0492E+06     1.55093E+06         50.9112
            1374     11.5621E-03     83.6223E-03         11.3258        -3.49012        -4.48101        -3.45793         11.2936        -4.48101         1.33741     237.013E-03    -117.567E-03    -119.446E-03    -113.572E-03     231.255E-03    -117.684E-03     89.1531E-03     103.367E+06     55.7643E+06    -35.7691E+06    -35.7112E+06     103.309E+06     55.7643E+06     521.499E+03         52.8412
            1375     12.4556E-03     83.7305E-03         10.9223        -3.23646        -4.35022        -3.20094         10.8868        -4.35022         1.39985     241.122E-03    -117.736E-03    -123.385E-03    -114.039E-03     231.776E-03    -117.736E-03     114.508E-03     103.643E+06     77.3804E+06    -29.0337E+06    -28.9522E+06     103.561E+06     77.3804E+06    -285.245E+03         54.7092
            1376     13.3447E-03     83.8902E-03         10.5111        -2.98688        -4.21250        -2.95265         10.4769        -4.21250         1.33967     241.144E-03    -117.760E-03    -123.384E-03    -114.180E-03     231.939E-03    -117.760E-03     113.504E-03     106.737E+06     92.6643E+06    -19.8899E+06    -19.7965E+06     106.643E+06     92.6643E+06    -190.623E+03         56.5606
            1377     14.2359E-03     83.9964E-03         10.0863        -2.73527        -4.06897        -2.71208         10.0631        -4.06897     584.182E-03     248.608E-03    -117.724E-03    -130.884E-03    -115.930E-03     233.654E-03    -117.724E-03     142.421E-03     115.280E+06     97.1461E+06    -11.5387E+06    -11.4586E+06     115.200E+06     97.1461E+06     392.698E+03         58.4698
            1378     15.1229E-03     84.2295E-03         9.64776        -2.46662        -3.92862        -2.46482         9.64596        -3.92862    -62.7424E-03     246.297E-03    -116.749E-03    -129.548E-03    -116.978E-03     234.659E-03    -117.681E-03     102.768E-03     123.866E+06     96.0187E+06    -6.04133E+06    -5.97259E+06     123.797E+06     96.0187E+06     606.449E+03         60.3413
            1379     888.624E-06     84.6072E-03         14.0655         1.47086        -11.9411        -10.3245         12.4488         1.47086        -4.18822     235.913E-03    -117.388E-03    -118.525E-03    -118.075E-03     235.912E-03    -117.836E-03    -868.385E-06    -100.037E+06    -103.658E+06    -233.949E+06    -102.772E+06    -233.799E+06    -101.072E+06    -231.851E+03         39.7712
            1380     1.77704E-03     84.6107E-03         12.9120        -4.40197        -4.87637        -4.30524         12.3409        -4.40197         2.54612     235.245E-03    -117.070E-03    -118.175E-03    -117.349E-03     235.243E-03    -117.894E-03    -1.07270E-03    -91.0734E+06    -98.7986E+06    -230.752E+06    -98.8281E+06    -230.722E+06    -91.0734E+06     249.214E+03         39.9509
            1381     2.66929E-03     84.6047E-03         12.3906        -4.32873        -4.43583        -4.31679         12.3135        -4.37075        -1.56746     235.221E-03    -116.919E-03    -118.302E-03    -117.435E-03     235.219E-03    -117.784E-03    -421.793E-06    -81.3053E+06    -94.7841E+06    -220.344E+06    -94.8101E+06    -220.318E+06    -81.3053E+06    -1.21313E+06         40.2511
            1382     3.55693E-03     84.6005E-03         12.2841        -4.30686        -4.35325        -4.27657         12.2538        -4.35325    -970.602E-03     235.532E-03    -117.329E-03    -118.203E-03    -117.697E-03     235.528E-03    -117.832E-03     1.61654E-03    -67.4959E+06    -89.9143E+06    -211.315E+06    -89.9579E+06    -211.271E+06    -67.4959E+06    -1.96047E+06         40.6856
            1383     4.44386E-03     84.6051E-03         12.2096        -4.26693        -4.33306        -4.23575         12.1784        -4.33306        -1.18933     235.047E-03    -117.147E-03    -117.900E-03    -117.132E-03     235.032E-03    -117.900E-03     4.35787E-03    -49.3593E+06    -83.3770E+06    -200.812E+06    -83.4082E+06    -200.781E+06    -49.3593E+06    -1.55704E+06         41.2704
            1384     5.33671E-03     84.6075E-03         12.0684        -4.16698        -4.30809        -4.16099         12.0624        -4.30809     190.445E-03     234.858E-03    -116.955E-03    -117.903E-03    -116.897E-03     234.800E-03    -117.903E-03     8.59115E-03    -33.0888E+06    -76.6751E+06    -184.487E+06    -76.6887E+06    -184.473E+06    -33.0888E+06    -615.831E+03         42.0237
            1385     6.22505E-03     84.6175E-03         11.9467        -4.07860        -4.27582        -4.07378         11.9419        -4.27582     343.867E-03     235.086E-03    -117.166E-03    -117.920E-03    -117.029E-03     234.950E-03    -117.920E-03     13.6483E-03    -19.8459E+06    -69.8570E+06    -166.795E+06    -69.8914E+06    -166.761E+06    -19.8459E+06    -956.564E+03         42.9660
            1386     7.11254E-03     84.6300E-03         11.8447        -4.02571        -4.23566        -3.96928         11.7882        -4.23566         1.28400     234.387E-03    -116.515E-03    -117.872E-03    -116.231E-03     234.103E-03    -117.872E-03     19.6238E-03    -13.6604E+06    -64.1420E+06    -131.599E+06    -64.2116E+06    -131.529E+06    -13.6604E+06    -1.66721E+06         44.1211
            1387     8.00444E-03     84.6548E-03         11.6694        -3.90869        -4.18666        -3.85122         11.6120        -4.18666         1.14355     233.992E-03    -116.250E-03    -117.742E-03    -115.679E-03     233.420E-03    -117.742E-03     27.8872E-03    -9.38496E+06    -52.0769E+06    -79.7441E+06    -58.3186E+06    -73.5024E+06    -9.38496E+06    -1.45076E+06         45.5114
            1388     8.89398E-03     84.6884E-03         11.4152        -3.72942        -4.12908        -3.72600         11.4118        -4.12908     75.5964E-03     234.218E-03    -116.573E-03    -117.645E-03    -115.577E-03     233.222E-03    -117.645E-03     37.0513E-03     11.2151E+06    -18.7636E+06    -53.3034E+06    -53.2160E+06    -7.31274E+06    -323.173E+03    -1.23602E+06         47.1395
            1389     9.78219E-03     84.7309E-03         11.1903        -3.59980        -4.06236        -3.59585         11.1864        -4.06236     480.867E-03     234.310E-03    -116.720E-03    -117.591E-03    -114.742E-03     232.332E-03    -117.591E-03     51.5806E-03     61.6651E+06     15.9219E+06    -48.0303E+06    -47.9966E+06     61.6313E+06     15.9219E+06     8.65119E+03         48.9667
            1390     10.6748E-03     84.8010E-03         10.9525        -3.45704        -3.98467        -3.44406         10.9395        -3.98467     786.100E-03     234.645E-03    -117.072E-03    -117.573E-03    -113.675E-03     231.236E-03    -117.561E-03     68.4979E-03     98.7655E+06     34.3648E+06    -40.9520E+06    -40.8941E+06     98.7077E+06     34.3648E+06     1.77986E+06         50.9045
            1391     11.5670E-03     84.8810E-03         10.7111        -3.31463        -3.89476        -3.27793         10.6744        -3.89476         1.40144     237.093E-03    -117.487E-03    -119.606E-03    -113.834E-03     231.437E-03    -117.604E-03     88.2255E-03     104.393E+06     57.1646E+06    -33.2326E+06    -33.1807E+06     104.341E+06     57.1646E+06     1.59924E+06         52.8397
            1392     12.4528E-03     85.0030E-03         10.4326        -3.14775        -3.79142        -3.10746         10.3923        -3.79142         1.46462     241.226E-03    -117.699E-03    -123.527E-03    -114.291E-03     231.990E-03    -117.699E-03     113.935E-03     104.199E+06     81.6510E+06    -26.7666E+06    -26.6770E+06     104.109E+06     81.6510E+06     300.573E+03         54.7089
            1393     13.3436E-03     85.1476E-03         10.1212        -2.95862        -3.68195        -2.92116         10.0837        -3.68195         1.38820     240.929E-03    -117.731E-03    -123.198E-03    -114.188E-03     231.919E-03    -117.731E-03     112.260E-03     104.760E+06     94.1597E+06    -20.1630E+06    -20.0647E+06     104.662E+06     94.1597E+06    -103.220E+03         56.5602
            1394     14.2352E-03     85.2651E-03         9.78445        -2.74997        -3.56551        -2.72672         9.76120        -3.56551     633.474E-03     249.255E-03    -117.701E-03    -131.555E-03    -116.469E-03     234.170E-03    -117.701E-03     142.966E-03     113.725E+06     95.9939E+06    -13.7124E+06    -13.6481E+06     113.661E+06     95.9939E+06     938.381E+03         58.4750
            1395     15.1250E-03     85.4961E-03         9.46166        -2.54864        -3.45254        -2.54751         9.46053        -3.45254    -22.6911E-03     246.287E-03    -116.395E-03    -129.893E-03    -116.812E-03     234.481E-03    -117.668E-03     102.517E-03     123.282E+06     96.0006E+06    -7.66822E+06    -7.61398E+06     123.227E+06     96.0006E+06     543.483E+03         60.3605
            1396     887.238E-06     85.8766E-03         12.7967         2.57880        -11.6895        -9.69224         10.7995         2.57880        -4.62354     236.073E-03    -117.317E-03    -118.756E-03    -118.344E-03     236.073E-03    -117.729E-03    -42.8423E-06    -99.5367E+06    -104.191E+06    -233.043E+06    -103.303E+06    -232.895E+06    -100.572E+06    -2.14425E+06         39.7609
            1397     1.77819E-03     85.8715E-03         11.4875        -3.54243        -4.21859        -3.50229         10.7712        -3.54243         2.71325     235.142E-03    -117.032E-03    -118.110E-03    -117.213E-03     235.140E-03    -117.927E-03    -1.00749E-03    -91.9884E+06    -98.9710E+06    -230.326E+06    -99.0233E+06    -230.274E+06    -91.9884E+06    -482.844E+03         39.9409
            1398     2.66758E-03     85.8682E-03         10.8501        -3.50830        -3.61070        -3.49380         10.7533        -3.52844        -1.53531     235.405E-03    -117.048E-03    -118.356E-03    -117.601E-03     235.403E-03    -117.802E-03    -701.786E-06    -80.7502E+06    -93.3734E+06    -220.329E+06    -93.4057E+06    -220.297E+06    -80.7502E+06    -1.18664E+06         40.2415
            1399     3.55538E-03     85.8700E-03         10.7742        -3.49791        -3.53134        -3.47953         10.7432        -3.51865    -802.214E-03     235.647E-03    -117.399E-03    -118.247E-03    -117.766E-03     235.642E-03    -117.876E-03     1.90925E-03    -67.3591E+06    -89.7399E+06    -211.187E+06    -89.7764E+06    -211.150E+06    -67.3591E+06    -1.01599E+06         40.6757
            1400     4.44634E-03     85.8666E-03         10.7708        -3.49443        -3.54252        -3.49421         10.7395        -3.51142        -1.08651     235.233E-03    -117.241E-03    -117.992E-03    -117.258E-03     235.216E-03    -117.959E-03     4.67356E-03    -49.2670E+06    -83.8292E+06    -202.658E+06    -83.8595E+06    -202.627E+06    -49.2670E+06    -1.02862E+06         41.2584
            1401     5.33442E-03     85.8721E-03         10.7056        -3.46167        -3.52547        -3.47458         10.6972        -3.50416     300.347E-03     234.803E-03    -116.813E-03    -117.990E-03    -116.795E-03     234.751E-03    -117.956E-03     8.22591E-03    -32.9531E+06    -76.7472E+06    -186.658E+06    -76.7702E+06    -186.635E+06    -32.9531E+06    -668.230E+03         42.0086
            1402     6.22477E-03     85.8821E-03         10.6563        -3.42403        -3.50997        -3.43480         10.6487        -3.49159     478.230E-03     234.487E-03    -116.574E-03    -117.913E-03    -116.451E-03     234.365E-03    -117.913E-03     12.8788E-03    -20.4698E+06    -70.5361E+06    -167.312E+06    -70.5437E+06    -167.304E+06    -20.4698E+06     269.673E+03         42.9487
            1403     7.11536E-03     85.8960E-03         10.6614        -3.41563        -3.52766        -3.40443         10.5962        -3.47372         1.37463     234.406E-03    -116.562E-03    -117.844E-03    -116.269E-03     234.113E-03    -117.844E-03     19.7695E-03    -10.8564E+06    -64.5097E+06    -130.428E+06    -64.5408E+06    -130.396E+06    -10.8564E+06     37.6716E+03         44.1032
            1404     8.00319E-03     85.9174E-03         10.5794        -3.37234        -3.49611        -3.35317         10.5138        -3.44969         1.23403     233.965E-03    -116.244E-03    -117.721E-03    -115.645E-03     233.366E-03    -117.721E-03     28.5920E-03    -6.84795E+06    -53.6240E+06    -79.1041E+06    -58.5035E+06    -74.2246E+06    -6.84795E+06    -1.15171E+06         45.4940
            1405     8.89426E-03     85.9533E-03         10.4206        -3.28617        -3.43577        -3.30040         10.4174        -3.41836     152.713E-03     234.017E-03    -116.412E-03    -117.604E-03    -115.354E-03     232.959E-03    -117.604E-03     38.1027E-03     9.45170E+06    -20.2896E+06    -53.2415E+06    -52.8476E+06    -11.0722E+06    -159.637E+03    -663.525E+03         47.1245
            1406     9.78478E-03     85.9969E-03         10.3041        -3.22516        -3.39118        -3.23185         10.2987        -3.37902     538.668E-03     234.412E-03    -116.858E-03    -117.554E-03    -114.984E-03     232.538E-03    -117.554E-03     50.5515E-03     59.3177E+06     16.4836E+06    -47.3958E+06    -47.3912E+06     59.3131E+06     16.4836E+06     483.317E+03         48.9564
            1407     10.6743E-03     86.0616E-03         10.1715        -3.15409        -3.33525        -3.14516         10.1567        -3.32936     833.067E-03     234.675E-03    -117.112E-03    -117.563E-03    -113.853E-03     231.404E-03    -117.551E-03     66.7938E-03     98.0924E+06     35.9584E+06    -40.5117E+06    -40.5091E+06     98.0898E+06     35.9584E+06    -5.62021E+03         50.8994
            1408     11.5622E-03     86.1492E-03         10.0414        -3.07974        -3.28181        -3.05184         9.99915        -3.26741         1.44801     237.019E-03    -117.558E-03    -119.461E-03    -113.693E-03     231.285E-03    -117.592E-03     88.7627E-03     102.918E+06     57.4107E+06    -33.1961E+06    -33.1796E+06     102.901E+06     57.4107E+06     735.679E+03         52.8382
            1409     12.4558E-03     86.2653E-03         9.87503        -2.98802        -3.20419        -2.95377         9.82901        -3.19241         1.51631     240.863E-03    -117.668E-03    -123.195E-03    -114.017E-03     231.684E-03    -117.668E-03     113.586E-03     103.163E+06     81.6156E+06    -25.4608E+06    -25.4067E+06     103.109E+06     81.6156E+06     2.34300E+06         54.7083
            1410     13.3467E-03     86.4140E-03         9.67243        -2.87357        -3.11236        -2.83456         9.63286        -3.11180         1.39847     241.184E-03    -117.700E-03    -123.484E-03    -114.419E-03     232.119E-03    -117.700E-03     112.900E-03     104.136E+06     94.8658E+06    -17.6531E+06    -17.5762E+06     104.059E+06     94.8658E+06     2.78821E+06         56.5594
            1411     14.2338E-03     86.5311E-03         9.46525        -2.74771        -3.02462        -2.72345         9.44099        -3.02462     664.246E-03     249.145E-03    -117.665E-03    -131.480E-03    -116.221E-03     233.886E-03    -117.665E-03     144.053E-03     111.275E+06     94.7863E+06    -12.6938E+06    -12.6225E+06     111.204E+06     94.7863E+06     2.01554E+06         58.4803
            1412     15.1256E-03     86.7579E-03         9.27763        -2.63533        -2.94291        -2.63448         9.27678        -2.94291    -3.74952E-03     246.189E-03    -116.854E-03    -129.334E-03    -116.754E-03     234.388E-03    -117.634E-03     102.098E-03     123.246E+06     96.8586E+06    -6.86321E+06    -6.81805E+06     123.201E+06     96.8586E+06    -315.515E+03         60.3797
            1413     890.931E-06     87.1403E-03         10.8979         3.50730        -10.5950        -8.79252         9.09538         3.50730        -4.10896     235.169E-03    -117.172E-03    -117.997E-03    -117.923E-03     235.167E-03    -117.244E-03    -1.27128E-03    -97.0042E+06    -102.397E+06    -231.499E+06    -102.471E+06    -231.425E+06    -97.0042E+06    -1.93560E+06         39.7451
            1414     1.77868E-03     87.1363E-03         9.81544        -2.64082        -3.30006        -2.63860         9.15398        -2.64082         2.52364     235.593E-03    -117.550E-03    -118.044E-03    -117.896E-03     235.591E-03    -117.695E-03    -890.601E-06    -91.4189E+06    -97.7102E+06    -229.521E+06    -97.7853E+06    -229.446E+06    -91.4189E+06    -2.97293E+06         39.9274
            1415     2.66593E-03     87.1351E-03         9.21988        -2.63145        -2.72619        -2.63546         9.13876        -2.64107        -1.39359     235.477E-03    -117.466E-03    -118.012E-03    -117.667E-03     235.476E-03    -117.810E-03     720.910E-06    -82.5785E+06    -95.7839E+06    -224.124E+06    -95.8227E+06    -224.086E+06    -82.5785E+06     26.6329E+03         40.2286
            1416     3.55772E-03     87.1313E-03         9.22973        -2.63492        -2.70736        -2.67354         9.20552        -2.64454    -761.870E-03     235.300E-03    -117.415E-03    -117.885E-03    -117.431E-03     235.297E-03    -117.865E-03     2.06662E-03    -65.9165E+06    -90.5629E+06    -211.367E+06    -90.5890E+06    -211.341E+06    -65.9165E+06     1.44828E+06         40.6628
            1417     4.44539E-03     87.1341E-03         9.28338        -2.65434        -2.74771        -2.72216         9.25783        -2.65434    -968.560E-03     235.436E-03    -117.481E-03    -117.955E-03    -117.498E-03     235.419E-03    -117.921E-03     4.51119E-03    -50.6252E+06    -85.2094E+06    -201.442E+06    -85.2353E+06    -201.416E+06    -50.6252E+06    -711.061E+03         41.2454
            1418     5.33431E-03     87.1365E-03         9.32133        -2.66696        -2.78527        -2.77065         9.30671        -2.66696     314.781E-03     234.903E-03    -116.908E-03    -117.996E-03    -116.882E-03     234.843E-03    -117.962E-03     8.77989E-03    -33.7067E+06    -77.6842E+06    -189.078E+06    -77.7205E+06    -189.041E+06    -33.7067E+06    -1.43604E+06         41.9946
            1419     6.22409E-03     87.1454E-03         9.35305        -2.67814        -2.80828        -2.79591         9.34068        -2.67814     577.663E-03     234.251E-03    -116.334E-03    -117.918E-03    -116.197E-03     234.115E-03    -117.918E-03     13.5957E-03    -18.6925E+06    -69.0127E+06    -169.869E+06    -69.0297E+06    -169.852E+06    -18.6925E+06    -294.636E+03         42.9340
            1420     7.11452E-03     87.1589E-03         9.44829        -2.68559        -2.90157        -2.82590         9.37262        -2.68559         1.40044     234.148E-03    -116.337E-03    -117.811E-03    -116.053E-03     233.864E-03    -117.811E-03     19.5671E-03    -8.85744E+06    -60.4699E+06    -130.398E+06    -60.4786E+06    -130.389E+06    -8.85744E+06     299.002E+03         44.0890
            1421     8.00537E-03     87.1844E-03         9.45879        -2.68783        -2.90808        -2.83226         9.38296        -2.68783         1.28845     234.127E-03    -116.435E-03    -117.692E-03    -115.876E-03     233.568E-03    -117.692E-03     27.6097E-03    -4.20627E+06    -51.0223E+06    -76.9693E+06    -54.1809E+06    -73.8107E+06    -4.20627E+06     7.74642E+03         45.4804
            1422     8.89510E-03     87.2137E-03         9.39340        -2.68328        -2.84431        -2.84096         9.39005        -2.68328     202.265E-03     233.980E-03    -116.390E-03    -117.590E-03    -115.347E-03     232.937E-03    -117.590E-03     37.7145E-03     7.84418E+06    -20.6594E+06    -51.1510E+06    -50.6440E+06    -14.1069E+06     784.742E+03     157.860E+03         47.1126
            1423     9.78359E-03     87.2665E-03         9.38265        -2.67155        -2.84992        -2.84258         9.37532        -2.67155     595.595E-03     234.144E-03    -116.615E-03    -117.528E-03    -114.722E-03     232.251E-03    -117.528E-03     50.7856E-03     57.8567E+06     17.8341E+06    -45.6054E+06    -45.5944E+06     57.8457E+06     17.8341E+06     1.03264E+06         48.9498
            1424     10.6725E-03     87.3237E-03         9.36403        -2.65083        -2.84629        -2.82895         9.34669        -2.65083     883.393E-03     235.319E-03    -117.229E-03    -118.090E-03    -114.401E-03     231.950E-03    -117.549E-03     67.8687E-03     98.5759E+06     39.5158E+06    -40.4644E+06    -40.4513E+06     98.5628E+06     39.5158E+06     1.00102E+06         50.8996
            1425     11.5671E-03     87.4136E-03         9.33949        -2.61818        -2.84217        -2.79424         9.29156        -2.61818         1.48085     237.124E-03    -117.584E-03    -119.541E-03    -113.836E-03     231.454E-03    -117.618E-03     88.5329E-03     100.031E+06     58.8751E+06    -35.8425E+06    -35.8137E+06     100.002E+06     58.8751E+06     1.58221E+06         52.8422
            1426     12.4545E-03     87.5297E-03         9.26479        -2.57181        -2.79980        -2.74826         9.21325        -2.57181         1.54817     240.719E-03    -117.692E-03    -123.028E-03    -114.025E-03     231.717E-03    -117.692E-03     112.375E-03     100.038E+06     80.9942E+06    -28.2638E+06    -28.2340E+06     100.008E+06     80.9942E+06     1.89955E+06         54.7115
            1427     13.3438E-03     87.6785E-03         9.18927        -2.51913        -2.75982        -2.71650         9.14727        -2.52045         1.40577     240.843E-03    -117.725E-03    -123.118E-03    -114.294E-03     232.019E-03    -117.725E-03     111.143E-03     102.334E+06     94.9319E+06    -19.5210E+06    -19.4778E+06     102.291E+06     94.9319E+06     2.05066E+06         56.5595
            1428     14.2377E-03     87.7954E-03         9.13136        -2.46190        -2.73919        -2.71037         9.10573        -2.46508     683.077E-03     248.130E-03    -117.678E-03    -130.452E-03    -115.478E-03     233.155E-03    -117.678E-03     141.886E-03     111.622E+06     98.0819E+06    -10.8005E+06    -10.7334E+06     111.555E+06     98.0819E+06     1.94697E+06         58.4828
            1429     15.1265E-03     88.0244E-03         9.08937        -2.41442        -2.72289        -2.71933         9.08864        -2.41725     2.32963E-03     246.353E-03    -117.386E-03    -128.967E-03    -116.961E-03     234.592E-03    -117.631E-03     102.695E-03     123.878E+06     100.065E+06    -4.24916E+06    -4.17453E+06     123.803E+06     100.065E+06     1.17033E+06         60.3933
            1430     888.353E-06     88.4045E-03         9.15952         3.45056        -8.65110        -7.54188         7.44627         4.05458        -2.75763     234.608E-03    -116.750E-03    -117.858E-03    -117.854E-03     234.604E-03    -116.750E-03    -182.509E-06    -95.4973E+06    -104.065E+06    -228.818E+06    -101.693E+06    -228.728E+06    -97.9608E+06     900.196E+03         39.7259
            1431     1.77803E-03     88.4019E-03         7.96305        -1.73743        -2.20301        -1.77386         7.54266        -1.74619         2.05021     235.257E-03    -117.402E-03    -117.854E-03    -117.778E-03     235.254E-03    -117.476E-03    -379.978E-06    -87.9892E+06    -99.7217E+06    -230.544E+06    -99.7888E+06    -230.477E+06    -87.9892E+06    -524.823E+03         39.9095
            1432     2.66953E-03     88.3981E-03         7.61665        -1.75153        -1.84893        -1.79409         7.57058        -1.76029        -1.12573     235.645E-03    -117.626E-03    -118.020E-03    -117.945E-03     235.644E-03    -117.700E-03     386.110E-06    -78.4896E+06    -96.1163E+06    -227.665E+06    -96.1677E+06    -227.614E+06    -78.4896E+06     379.070E+03         40.2119
            1433     3.55553E-03     88.3981E-03         7.72800        -1.77942        -1.90552        -1.88080         7.70327        -1.77942    -892.046E-03     235.437E-03    -117.485E-03    -117.952E-03    -117.608E-03     235.433E-03    -117.825E-03     1.78841E-03    -66.0208E+06    -89.0502E+06    -214.090E+06    -89.0840E+06    -214.056E+06    -66.0208E+06     549.806E+03         40.6466
            1434     4.44574E-03     88.3978E-03         7.80895        -1.80548        -1.96402        -1.94383         7.78876        -1.80548    -851.285E-03     234.736E-03    -116.899E-03    -117.837E-03    -116.879E-03     234.716E-03    -117.837E-03     4.96364E-03    -51.7840E+06    -83.0244E+06    -199.536E+06    -83.0538E+06    -199.507E+06    -51.7840E+06     697.777E+03         41.2305
            1435     5.33599E-03     88.4014E-03         7.96087        -1.83633        -2.09605        -2.07080         7.93562        -1.83633     282.409E-03     234.578E-03    -116.763E-03    -117.815E-03    -116.703E-03     234.518E-03    -117.815E-03     8.95768E-03    -36.9335E+06    -78.2342E+06    -189.707E+06    -78.2739E+06    -189.667E+06    -36.9335E+06    -326.596E+03         41.9828
            1436     6.22602E-03     88.4083E-03         8.06862        -1.87016        -2.16832        -2.14908         8.04938        -1.87016     625.804E-03     234.700E-03    -116.890E-03    -117.810E-03    -116.743E-03     234.553E-03    -117.810E-03     14.0512E-03    -23.1451E+06    -71.0973E+06    -171.782E+06    -71.1339E+06    -171.745E+06    -23.1451E+06    -1.61668E+06         42.9251
            1437     7.11443E-03     88.4253E-03         8.24689        -1.90087        -2.31810        -2.22760         8.15639        -1.90087         1.39236     234.580E-03    -116.798E-03    -117.781E-03    -116.511E-03     234.293E-03    -117.781E-03     19.8808E-03    -13.8179E+06    -64.7071E+06    -133.243E+06    -64.7347E+06    -133.215E+06    -13.8179E+06    -655.223E+03         44.0814
            1438     8.00422E-03     88.4451E-03         8.34262        -1.92715        -2.38278        -2.29217         8.25201        -1.92715         1.33190     234.366E-03    -116.646E-03    -117.720E-03    -116.094E-03     233.814E-03    -117.720E-03     27.3747E-03    -6.40664E+06    -52.4504E+06    -83.0954E+06    -59.4503E+06    -76.0955E+06    -6.40664E+06     1.34569E+06         45.4729
            1439     8.89259E-03     88.4839E-03         8.34970        -1.94801        -2.36157        -2.35791         8.34604        -1.94801     224.945E-03     233.624E-03    -115.986E-03    -117.638E-03    -114.982E-03     232.620E-03    -117.638E-03     37.0484E-03     7.80411E+06    -15.2849E+06    -53.0477E+06    -52.8464E+06    -13.1119E+06     5.42979E+06     1.25927E+06         47.1057
            1440     9.78549E-03     88.5234E-03         8.43814        -1.96250        -2.43130        -2.42240         8.42924        -1.96250     616.910E-03     233.559E-03    -116.036E-03    -117.524E-03    -114.119E-03     231.643E-03    -117.524E-03     50.8374E-03     54.7772E+06     19.6452E+06    -46.6599E+06    -46.6472E+06     54.4238E+06     19.9859E+06     980.505E+03         48.9472
            1441     10.6780E-03     88.5945E-03         8.52512        -1.96849        -2.49765        -2.47701         8.50448        -1.96849     921.891E-03     235.794E-03    -117.127E-03    -118.667E-03    -114.941E-03     232.461E-03    -117.520E-03     67.9201E-03     95.5579E+06     37.7299E+06    -41.2820E+06    -41.1906E+06     95.4665E+06     37.7299E+06     2.90719E+06         50.9039
            1442     11.5603E-03     88.6767E-03         8.61042        -1.96428        -2.56442        -2.51173         8.55773        -1.96428         1.49435     237.845E-03    -117.663E-03    -120.182E-03    -114.766E-03     232.429E-03    -117.663E-03     86.7369E-03     99.5039E+06     60.5838E+06    -34.8203E+06    -34.7225E+06     99.4061E+06     60.5838E+06     3.09478E+06         52.8497
            1443     12.4543E-03     88.7937E-03         8.65035        -1.94777        -2.59219        -2.53678         8.59494        -1.94777         1.54844     240.895E-03    -117.777E-03    -123.118E-03    -114.034E-03     231.810E-03    -117.777E-03     112.651E-03     98.9184E+06     83.4019E+06    -27.0837E+06    -27.0497E+06     98.8844E+06     83.4019E+06     2.02593E+06         54.7153
            1444     13.3443E-03     88.9458E-03         8.70126        -1.92751        -2.63528        -2.59034         8.65632        -1.92751         1.41781     240.816E-03    -117.788E-03    -123.027E-03    -114.106E-03     231.894E-03    -117.788E-03     111.452E-03     101.834E+06     95.7464E+06    -19.3833E+06    -19.3601E+06     101.810E+06     95.7464E+06     1.50735E+06         56.5578
            1445     14.2315E-03     89.0560E-03         8.79547        -1.90594        -2.71757        -2.69038         8.76828        -1.90594     709.341E-03     248.281E-03    -117.729E-03    -130.553E-03    -115.597E-03     233.325E-03    -117.729E-03     141.459E-03     111.512E+06     97.9940E+06    -11.8549E+06    -11.8018E+06     111.459E+06     97.9940E+06     1.32454E+06         58.4827
            1446     15.1263E-03     89.2874E-03         8.91740        -1.89402        -2.81181        -2.81129         8.91688        -1.89402     6.99338E-03     246.032E-03    -116.809E-03    -129.224E-03    -116.480E-03     234.149E-03    -117.669E-03     103.412E-03     123.397E+06     100.004E+06    -5.63055E+06    -5.54617E+06     123.312E+06     100.004E+06     2.17322E+06         60.4056
            1447     891.163E-06     89.6682E-03         7.90805         2.62366        -6.38088        -6.00803         5.91496         4.24390        -1.03230     234.374E-03    -116.436E-03    -117.938E-03    -117.476E-03     234.371E-03    -116.894E-03    -176.336E-06    -97.2632E+06    -106.761E+06    -231.659E+06    -104.401E+06    -231.556E+06    -99.7267E+06     1.46334E+06         39.7091
            1448     1.78046E-03     89.6650E-03         6.21088    -887.206E-03        -1.14127    -970.605E-03         6.05176    -898.748E-03         1.42953     235.416E-03    -117.444E-03    -117.972E-03    -117.970E-03     235.414E-03    -117.444E-03    -704.016E-06    -85.2638E+06    -99.8164E+06    -233.210E+06    -99.8714E+06    -233.155E+06    -85.2638E+06     2.64700E+06         39.8912
            1449     2.66605E-03     89.6649E-03         6.15140    -916.075E-03        -1.05292    -985.351E-03         6.09537    -927.618E-03    -775.970E-03     235.387E-03    -117.304E-03    -118.083E-03    -117.704E-03     235.387E-03    -117.683E-03     47.9669E-06    -75.6291E+06    -93.6368E+06    -226.981E+06     -93.669E+06    -226.949E+06    -75.6291E+06     721.703E+03         40.1928
            1450     3.55719E-03     89.6624E-03         6.31929    -956.730E-03        -1.15562        -1.10374         6.26742    -956.730E-03        -1.03012     234.627E-03    -116.832E-03    -117.795E-03    -116.935E-03     234.622E-03    -117.688E-03     2.19165E-03    -67.2440E+06    -88.1649E+06    -216.346E+06    -88.1779E+06    -216.333E+06    -67.2440E+06    -147.133E+03         40.6288
            1451     4.44689E-03     89.6608E-03         6.44362    -997.416E-03        -1.24120        -1.22242         6.42484    -997.416E-03    -705.781E-03     234.503E-03    -116.828E-03    -117.675E-03    -116.838E-03     234.480E-03    -117.642E-03     5.35655E-03    -54.1736E+06    -82.6400E+06    -203.850E+06    -82.6726E+06    -203.818E+06    -54.1736E+06     1.62341E+06         41.2169
            1452     5.33682E-03     89.6651E-03         6.65556        -1.04437        -1.41203        -1.36895         6.61248        -1.04437     236.365E-03     234.886E-03    -117.173E-03    -117.713E-03    -117.149E-03     234.829E-03    -117.680E-03     8.82101E-03    -36.9878E+06    -75.9766E+06    -187.488E+06    -76.0111E+06    -187.453E+06    -36.9878E+06     1.39791E+06         41.9742
            1453     6.22504E-03     89.6741E-03         6.81883        -1.09424        -1.52057        -1.49101         6.78928        -1.09424     688.585E-03     234.924E-03    -117.164E-03    -117.760E-03    -117.034E-03     234.794E-03    -117.760E-03     13.2305E-03    -22.4068E+06    -71.3420E+06    -172.972E+06    -71.4096E+06    -172.905E+06    -22.4068E+06     465.968E+03         42.9195
            1454     7.11565E-03     89.6883E-03         7.08407        -1.14334        -1.72898        -1.62325         6.97834        -1.14334         1.37427     234.734E-03    -116.954E-03    -117.779E-03    -116.654E-03     234.433E-03    -117.779E-03     20.1068E-03    -12.3857E+06    -67.3362E+06    -137.581E+06    -67.4785E+06    -137.438E+06    -12.3857E+06     1.45203E+06         44.0773
            1455     8.00316E-03     89.7137E-03         7.24716        -1.18983        -1.84093        -1.73516         7.14138        -1.18983         1.35352     234.478E-03    -116.750E-03    -117.729E-03    -116.167E-03     233.895E-03    -117.729E-03     28.2680E-03    -4.97650E+06    -54.5918E+06    -84.7725E+06    -61.8275E+06    -77.5367E+06    -4.97650E+06      1.7176E+06         45.4706
            1456     8.89522E-03     89.7434E-03         7.33039        -1.23318        -1.87422        -1.87015         7.32632        -1.23318     257.872E-03     233.947E-03    -116.285E-03    -117.662E-03    -115.325E-03     232.987E-03    -117.662E-03     36.3548E-03     7.60648E+06    -16.1218E+06    -56.0557E+06    -55.9432E+06    -14.0460E+06     5.41823E+06     1.29077E+06         47.1055
            1457     9.78411E-03     89.7902E-03         7.51180        -1.27202        -2.00440        -1.99354         7.50094        -1.27202     635.498E-03     234.231E-03    -116.631E-03    -117.601E-03    -114.787E-03     232.388E-03    -117.601E-03     49.8321E-03     52.6211E+06     19.9847E+06    -51.1366E+06    -51.0787E+06     52.2224E+06     20.3255E+06     2.01607E+06         48.9481
            1458     10.6717E-03     89.8564E-03         7.68766        -1.30291        -2.12671        -2.10314         7.66409        -1.30291     937.591E-03     235.421E-03    -117.226E-03    -118.195E-03    -114.475E-03     232.064E-03    -117.589E-03     67.9838E-03     92.0199E+06     35.4136E+06    -44.4303E+06    -44.3191E+06     91.9088E+06     35.4136E+06     2.34245E+06         50.9062
            1459     11.5663E-03     89.9488E-03         7.89045        -1.32572        -2.27335        -2.21685         7.83395        -1.32572         1.47967     237.655E-03    -117.501E-03    -120.154E-03    -114.509E-03     232.201E-03    -117.692E-03     87.0910E-03     98.7388E+06     59.0380E+06    -34.3207E+06    -34.2117E+06     98.6298E+06     59.0380E+06     2.23667E+06         52.8534
            1460     12.4513E-03     90.0538E-03         8.06785        -1.34009        -2.39878        -2.34077         8.00984        -1.34009         1.52366     241.106E-03    -117.807E-03    -123.300E-03    -114.204E-03     232.011E-03    -117.807E-03     112.723E-03     98.9678E+06     83.7621E+06    -26.6469E+06    -26.5886E+06     98.9095E+06     83.7621E+06     2.60798E+06         54.7172
            1461     13.3437E-03     90.2122E-03         8.25454        -1.35341        -2.52992        -2.48446         8.20908        -1.35341         1.39170     240.432E-03    -117.796E-03    -122.636E-03    -113.593E-03     231.389E-03    -117.796E-03     112.168E-03     100.903E+06     93.7803E+06    -21.1869E+06    -21.1144E+06     100.830E+06     93.7803E+06     2.58521E+06         56.5583
            1462     14.2372E-03     90.3197E-03         8.48977        -1.36736        -2.70111        -2.67372         8.46238        -1.36736     705.583E-03     249.124E-03    -117.737E-03    -131.387E-03    -116.276E-03     234.013E-03    -117.737E-03     142.833E-03     110.661E+06     95.5844E+06    -15.3696E+06    -15.2820E+06     110.573E+06     95.5844E+06     1.99865E+06         58.4896
            1463     15.1224E-03     90.5546E-03         8.77492        -1.39303        -2.90398        -2.90362         8.77457        -1.39303    -3.19945E-03     246.277E-03    -116.124E-03    -130.152E-03    -116.654E-03     234.359E-03    -117.706E-03     103.428E-03     123.297E+06     99.0754E+06    -8.01325E+06    -7.96325E+06     123.247E+06     99.0754E+06     1.07453E+06         60.4267
            1464     888.726E-06     90.9294E-03         6.69274         2.19416        -4.56265        -4.44890         4.59732         4.17583     598.100E-03     235.661E-03    -117.297E-03    -118.364E-03    -117.622E-03     235.657E-03    -118.035E-03    -448.323E-06    -97.7290E+06    -103.258E+06    -235.995E+06    -102.369E+06    -235.914E+06    -98.6996E+06     663.723E+03         39.6958
            1465     1.77684E-03     90.9324E-03         4.81031    -150.136E-03    -300.915E-03    -209.443E-03         4.72162    -152.918E-03     787.787E-03     234.970E-03    -116.889E-03    -118.081E-03    -117.203E-03     234.969E-03    -117.766E-03    -985.060E-06    -89.8353E+06    -96.8375E+06    -237.241E+06    -96.8647E+06    -237.205E+06    -89.8445E+06     1.67526E+06         39.8749
            1466     2.66864E-03     90.9282E-03         4.94516    -172.763E-03    -408.035E-03    -218.375E-03         4.75828    -175.545E-03    -529.154E-03     234.188E-03    -116.522E-03    -117.665E-03    -116.622E-03     234.187E-03    -117.565E-03     294.094E-06    -76.8564E+06    -91.0890E+06    -226.357E+06    -91.1143E+06    -226.322E+06    -76.8656E+06     1.77347E+06         40.1769
            1467     3.55842E-03     90.9245E-03         5.10559    -206.863E-03    -523.350E-03    -391.770E-03         4.97401    -206.863E-03        -1.18221     234.471E-03    -116.854E-03    -117.617E-03    -116.991E-03     234.467E-03    -117.475E-03     2.05656E-03    -63.6427E+06    -88.0223E+06    -218.992E+06    -88.0637E+06    -218.951E+06    -63.6427E+06     1.96272E+06         40.6167
            1468     4.44833E-03     90.9254E-03         5.20197    -257.314E-03    -567.243E-03    -535.044E-03         5.16977    -257.314E-03    -623.646E-03     235.000E-03    -117.287E-03    -117.712E-03    -117.444E-03     234.982E-03    -117.538E-03     4.68367E-03    -50.7595E+06    -82.3004E+06    -206.291E+06    -82.3278E+06    -206.264E+06    -50.7595E+06     1.28490E+06         41.2080
            1469     5.33622E-03     90.9302E-03         5.46177    -314.528E-03    -774.384E-03    -699.264E-03         5.38665    -314.528E-03     144.525E-03     235.042E-03    -117.348E-03    -117.694E-03    -117.323E-03     234.984E-03    -117.661E-03     8.68147E-03    -34.6159E+06    -76.2245E+06    -189.326E+06    -76.2787E+06    -189.272E+06    -34.6159E+06     1.66299E+06         41.9663
            1470     6.22605E-03     90.9389E-03         5.65015    -375.644E-03    -897.661E-03    -853.777E-03         5.60627    -375.644E-03     696.813E-03     235.001E-03    -117.224E-03    -117.778E-03    -117.092E-03     234.869E-03    -117.778E-03     13.4206E-03    -16.5845E+06    -69.0211E+06    -174.786E+06    -69.1200E+06    -174.687E+06    -16.5845E+06     2.99143E+06         42.9124
            1471     7.11397E-03     90.9531E-03         5.96086    -437.661E-03        -1.13831        -1.01700         5.83955    -437.661E-03         1.28498     234.575E-03    -116.796E-03    -117.779E-03    -116.502E-03     234.280E-03    -117.779E-03     19.8736E-03    -7.75473E+06    -60.7954E+06    -139.328E+06    -60.9274E+06    -139.196E+06    -7.75473E+06     2.71255E+06         44.0717
            1472     8.00634E-03     90.9771E-03         6.19998    -499.201E-03        -1.30467        -1.18365         6.07897    -499.201E-03         1.32601     234.411E-03    -116.711E-03    -117.700E-03    -116.137E-03     233.837E-03    -117.700E-03     28.0565E-03    -3.70034E+06    -50.6620E+06    -85.2084E+06    -55.6343E+06    -80.2361E+06    -3.70034E+06     3.72799E+06         45.4681
            1473     8.89255E-03     91.0108E-03         6.34958    -560.388E-03        -1.37595        -1.37246         6.34609    -560.388E-03     239.416E-03     234.818E-03    -117.134E-03    -117.684E-03    -116.167E-03     233.851E-03    -117.684E-03     36.5597E-03     9.49474E+06    -17.0441E+06    -57.1170E+06    -54.1290E+06    -17.8439E+06     7.30648E+06     6.31381E+06         47.1067
            1474     9.78221E-03     91.0536E-03         6.62818    -620.259E-03        -1.58002        -1.56861         6.61677    -620.259E-03     600.421E-03     234.955E-03    -117.267E-03    -117.688E-03    -115.327E-03     233.016E-03    -117.688E-03     51.1042E-03     55.0942E+06     21.2303E+06    -51.5113E+06    -50.9279E+06     52.4122E+06     23.3288E+06     4.87187E+06         48.9501
            1475     10.6738E-03     91.1237E-03         6.91461    -675.991E-03        -1.78153        -1.75790         6.89097    -675.991E-03     894.110E-03     235.297E-03    -117.304E-03    -117.992E-03    -114.190E-03     231.878E-03    -117.688E-03     68.7218E-03     93.5253E+06     39.7199E+06    -44.7703E+06    -44.7266E+06     93.4816E+06     39.7199E+06     1.20887E+06         50.9067
            1476     11.5619E-03     91.2074E-03         7.22699    -726.645E-03        -1.99963        -1.94326         7.17062    -726.645E-03         1.40465     236.782E-03    -117.531E-03    -119.251E-03    -113.556E-03     231.278E-03    -117.722E-03     87.1550E-03     95.2759E+06     57.7656E+06    -39.1774E+06    -39.1319E+06     95.2304E+06     57.7656E+06     1.27080E+06         52.8531
            1477     12.4545E-03     91.3282E-03         7.53973    -772.411E-03        -2.21774        -2.16070         7.48269    -772.411E-03         1.44660     240.485E-03    -117.767E-03    -122.718E-03    -113.691E-03     231.459E-03    -117.767E-03     112.294E-03     95.5352E+06     79.5008E+06    -32.0254E+06    -31.9527E+06     95.4624E+06     79.5008E+06     2.93856E+06         54.7183
            1478     13.3438E-03     91.4664E-03         7.86463    -820.356E-03        -2.44309        -2.40221         7.82374    -820.356E-03         1.28998     241.071E-03    -117.773E-03    -123.298E-03    -114.222E-03     231.995E-03    -117.773E-03     112.808E-03     99.7622E+06     92.9549E+06    -23.0577E+06    -22.9714E+06     99.6759E+06     92.9549E+06     2.71409E+06         56.5616
            1479     14.2331E-03     91.5911E-03         8.22956    -870.851E-03        -2.69512        -2.67047         8.20492    -870.851E-03     663.072E-03     249.011E-03    -117.741E-03    -131.269E-03    -116.107E-03     233.849E-03    -117.741E-03     143.398E-03     111.347E+06     97.7636E+06    -14.4157E+06    -14.3576E+06     111.289E+06     97.7636E+06     1.33064E+06         58.4996
            1480     15.1254E-03     91.8169E-03         8.66725    -934.300E-03        -2.99382        -2.99355         8.66698    -934.300E-03    -364.684E-06     246.155E-03    -116.721E-03    -129.434E-03    -116.640E-03     234.345E-03    -117.705E-03     103.150E-03     124.581E+06     101.311E+06    -6.17444E+06    -6.15515E+06     124.562E+06     101.311E+06     96.1241E+03         60.4517
            1481     887.420E-06     92.1996E-03         5.48139         2.36493        -3.36147        -2.79262         3.53705         3.74042         1.82382     235.444E-03    -117.317E-03    -118.127E-03    -117.800E-03     235.440E-03    -117.639E-03     1.98172E-03    -97.2763E+06    -101.823E+06    -239.079E+06    -100.889E+06    -239.042E+06    -98.2469E+06     1.64057E+06         39.6820
            1482     1.77829E-03     92.1930E-03         3.92737     469.314E-03     120.976E-03     450.766E-03         3.59758     469.314E-03     219.580E-03     234.347E-03    -116.661E-03    -117.686E-03    -116.766E-03     234.346E-03    -117.580E-03    -132.805E-06    -92.0022E+06    -97.9616E+06    -239.464E+06     -97.955E+06    -239.461E+06    -92.0114E+06     427.018E+03         39.8640
            1483     2.66925E-03     92.1900E-03         4.12521     456.518E-03    -49.7217E-03     415.028E-03         3.66046     456.518E-03    -403.593E-03     234.272E-03    -116.716E-03    -117.557E-03    -116.892E-03     234.272E-03    -117.380E-03    -125.578E-06    -81.5234E+06    -93.6598E+06    -229.968E+06    -93.6785E+06    -229.940E+06    -81.5326E+06     1.51843E+06         40.1697
            1484     3.55875E-03     92.1891E-03         4.13587     428.615E-03    -18.9006E-03     264.223E-03         3.85275     428.615E-03        -1.38106     235.123E-03    -117.390E-03    -117.734E-03    -117.664E-03     235.121E-03    -117.457E-03     1.46595E-03    -65.5648E+06    -88.4087E+06    -220.971E+06    -88.4565E+06    -220.923E+06    -65.5648E+06     2.36755E+06         40.6119
            1485     4.44619E-03     92.1906E-03         4.11955     381.524E-03     39.6942E-03     109.936E-03         4.04931     381.524E-03    -662.881E-03     235.174E-03    -117.350E-03    -117.824E-03    -117.544E-03     235.162E-03    -117.618E-03     3.88602E-03    -50.1761E+06    -82.5371E+06    -206.945E+06    -82.6431E+06    -206.839E+06    -50.1761E+06     2.51942E+06         41.2025
            1486     5.33674E-03     92.1939E-03         4.41494     322.811E-03    -205.719E-03    -81.5019E-03         4.29072     322.811E-03    -31.6261E-03     234.627E-03    -116.922E-03    -117.705E-03    -116.868E-03     234.573E-03    -117.705E-03     8.17321E-03    -34.6518E+06    -77.2116E+06    -193.168E+06    -77.3531E+06    -193.027E+06    -34.6518E+06     3.11626E+06         41.9585
            1487     6.22566E-03     92.2040E-03         4.59401     256.821E-03    -313.747E-03    -256.962E-03         4.53722     256.821E-03     599.186E-03     234.635E-03    -116.893E-03    -117.742E-03    -116.752E-03     234.494E-03    -117.742E-03     13.8188E-03    -19.4032E+06    -70.9877E+06    -177.129E+06    -71.0834E+06    -177.034E+06    -19.4032E+06     3.10749E+06         42.9038
            1488     7.11587E-03     92.2182E-03         4.94728     187.627E-03    -582.563E-03    -448.230E-03         4.81294     187.627E-03         1.11955     234.931E-03    -117.114E-03    -117.817E-03    -116.890E-03     234.641E-03    -117.751E-03     19.8995E-03    -10.5667E+06    -65.5027E+06    -141.403E+06    -65.8336E+06    -141.072E+06    -10.5667E+06     3.30137E+06         44.0641
            1489     8.00298E-03     92.2406E-03         5.24177     115.878E-03    -790.023E-03    -656.919E-03         5.10867     115.878E-03         1.19358     234.468E-03    -116.687E-03    -117.781E-03    -116.184E-03     233.900E-03    -117.716E-03     27.8068E-03    -6.49232E+06    -56.9436E+06    -94.3801E+06    -62.0259E+06    -89.2978E+06    -6.49232E+06     7.10006E+06         45.4615
            1490     8.89550E-03     92.2774E-03         5.44429     41.3618E-03    -898.691E-03    -896.651E-03         5.44225     41.3618E-03     106.710E-03     234.496E-03    -116.815E-03    -117.682E-03    -115.779E-03     233.461E-03    -117.682E-03     37.7196E-03     11.2468E+06    -18.0501E+06    -61.8401E+06    -55.3853E+06    -20.7221E+06     7.46392E+06     9.85253E+06         47.1019
            1491     9.78337E-03     92.3198E-03         5.81904    -35.9531E-03        -1.17130        -1.16239         5.81013    -35.9531E-03     470.253E-03     235.265E-03    -117.361E-03    -117.904E-03    -115.660E-03     233.345E-03    -117.686E-03     51.2343E-03     59.7258E+06     25.3505E+06    -48.8622E+06    -48.0708E+06     56.8358E+06     27.4490E+06     6.93761E+06         48.9479
            1492     10.6722E-03     92.3867E-03         6.21847    -114.600E-03        -1.45869        -1.44011         6.19990    -114.600E-03     748.964E-03     235.509E-03    -117.271E-03    -118.238E-03    -114.386E-03     232.101E-03    -117.715E-03     68.4190E-03     93.8147E+06     42.9924E+06    -43.7188E+06    -43.4951E+06     93.5911E+06     42.9924E+06     4.69316E+06         50.9055
            1493     11.5628E-03     92.4762E-03         6.64914    -193.134E-03        -1.76372        -1.71438         6.59980    -193.134E-03         1.23891     236.245E-03    -117.472E-03    -118.773E-03    -112.929E-03     230.662E-03    -117.733E-03     87.6866E-03     92.9375E+06     59.9164E+06    -39.6644E+06    -39.5411E+06     92.8142E+06     59.9164E+06     3.21409E+06         52.8527
            1494     12.4545E-03     92.5834E-03         7.07412    -270.201E-03        -2.05632        -2.00564         7.02343    -270.201E-03         1.30324     240.229E-03    -117.741E-03    -122.488E-03    -113.362E-03     231.103E-03    -117.741E-03     112.803E-03     94.7142E+06     82.2602E+06    -30.9725E+06    -30.9343E+06     94.6760E+06     82.2602E+06     1.31780E+06         54.7179
            1495     13.3456E-03     92.7407E-03         7.51490    -351.120E-03        -2.35328        -2.32040         7.48202    -351.120E-03         1.13109     241.677E-03    -117.753E-03    -123.925E-03    -114.768E-03     232.521E-03    -117.753E-03     113.412E-03     99.7343E+06     96.3555E+06    -19.9919E+06    -19.9596E+06     99.7020E+06     96.3555E+06     751.491E+03         56.5597
            1496     14.2342E-03     92.8507E-03         8.01741    -437.193E-03        -2.69684        -2.67644         7.99700    -437.193E-03     566.612E-03     249.226E-03    -117.741E-03    -131.486E-03    -116.380E-03     234.120E-03    -117.741E-03     143.178E-03     111.587E+06     99.6202E+06    -11.9884E+06    -11.9691E+06     111.568E+06     99.6202E+06     600.628E+03         58.5020
            1497     15.1258E-03     93.0827E-03         8.58227    -537.216E-03        -3.08030        -3.07996         8.58193    -537.216E-03    -41.1826E-03     246.007E-03    -116.720E-03    -129.287E-03    -116.557E-03     234.260E-03    -117.702E-03     102.193E-03     124.679E+06     100.768E+06    -5.88711E+06    -5.86802E+06     124.660E+06     100.768E+06     441.443E+03         60.4698
            1498     891.980E-06     93.4598E-03         4.35992         2.65352        -2.39200        -1.11181         2.66971         3.06354         2.31535     233.652E-03    -116.522E-03    -117.129E-03    -117.083E-03     233.647E-03    -116.564E-03     171.199E-06    -97.2885E+06    -102.710E+06    -241.948E+06    -102.438E+06    -241.907E+06    -97.6008E+06     514.003E+03         39.6726
            1499     1.78072E-03     93.4579E-03         3.42283     972.944E-03     249.148E-03     963.720E-03         2.70826     972.944E-03    -70.7523E-03     234.931E-03    -117.058E-03    -117.873E-03    -117.829E-03     234.929E-03    -117.100E-03    -994.315E-06    -87.7320E+06    -98.3038E+06    -241.854E+06    -98.3132E+06    -241.845E+06    -87.7320E+06     1.03311E+06         39.8609
            1500     2.66806E-03     93.4530E-03         3.59148     963.316E-03     118.943E-03     924.664E-03         2.78576     963.316E-03    -358.079E-03     235.473E-03    -117.367E-03    -118.106E-03    -118.031E-03     235.472E-03    -117.441E-03    -668.821E-06    -83.7477E+06    -95.5960E+06    -233.151E+06    -95.6029E+06    -233.144E+06    -83.7477E+06     893.733E+03         40.1688
            1501     3.55667E-03     93.4547E-03         3.39758     940.797E-03     343.021E-03     814.079E-03         2.92652     940.797E-03        -1.50309     234.890E-03    -117.149E-03    -117.740E-03    -117.280E-03     234.885E-03    -117.605E-03     1.95188E-03    -71.6486E+06    -90.1132E+06    -223.464E+06    -90.1388E+06    -223.439E+06    -71.6486E+06     1.66420E+06         40.6090
            1502     4.44688E-03     93.4550E-03         3.26755     899.680E-03     516.191E-03     641.767E-03         3.14197     899.680E-03    -718.897E-03     234.826E-03    -117.082E-03    -117.744E-03    -117.150E-03     234.807E-03    -117.656E-03     4.86498E-03    -55.6422E+06    -84.5220E+06    -210.877E+06    -84.6463E+06    -210.753E+06    -55.6422E+06     3.49412E+06         41.1984
            1503     5.33539E-03     93.4579E-03         3.55727     843.253E-03     277.830E-03     456.017E-03         3.37909     843.253E-03    -235.058E-03     234.932E-03    -117.182E-03    -117.749E-03    -117.155E-03     234.880E-03    -117.725E-03     8.27606E-03    -38.2068E+06    -77.7411E+06    -196.086E+06    -77.9593E+06    -195.868E+06    -38.2068E+06     4.72452E+06         41.9541
            1504     6.22655E-03     93.4669E-03         3.70674     777.712E-03     202.367E-03     262.692E-03         3.64642     777.712E-03     423.369E-03     234.742E-03    -116.936E-03    -117.807E-03    -116.813E-03     234.619E-03    -117.806E-03     12.8886E-03    -19.4153E+06    -72.8379E+06    -180.973E+06    -73.1354E+06    -180.676E+06    -19.4153E+06     5.14925E+06         42.8977
            1505     7.11527E-03     93.4839E-03         4.08854     705.567E-03    -85.3601E-03     45.3848E-03         3.95779     705.567E-03     881.128E-03     234.709E-03    -116.820E-03    -117.889E-03    -116.608E-03     234.431E-03    -117.824E-03     19.3536E-03    -6.07168E+06    -67.7216E+06    -146.967E+06    -68.5195E+06    -146.169E+06    -6.07168E+06     6.99016E+06         44.0559
            1506     8.00473E-03     93.5075E-03         4.41638     627.633E-03    -315.408E-03    -188.433E-03         4.28940     627.633E-03     966.282E-03     234.585E-03    -116.738E-03    -117.847E-03    -116.274E-03     234.042E-03    -117.769E-03     27.2665E-03    -1.72932E+06    -58.5944E+06    -96.9245E+06    -61.1035E+06    -94.4155E+06    -1.72932E+06     7.13353E+06         45.4515
            1507     8.89335E-03     93.5371E-03         4.69125     543.256E-03    -485.121E-03    -483.594E-03         4.68973     543.256E-03    -81.6569E-03     234.471E-03    -116.763E-03    -117.708E-03    -115.738E-03     233.434E-03    -117.695E-03     37.5955E-03     9.75310E+06    -20.4817E+06    -59.4769E+06    -52.5400E+06    -23.6358E+06     5.97024E+06     7.01411E+06         47.0899
            1508     9.78409E-03     93.5908E-03         5.13474     451.367E-03    -815.402E-03    -810.215E-03         5.12955     451.367E-03     244.513E-03     234.868E-03    -116.967E-03    -117.901E-03    -115.313E-03     232.996E-03    -117.683E-03     50.7465E-03     57.9879E+06     25.8841E+06    -47.7189E+06    -46.7791E+06     56.1056E+06     26.8266E+06     9.17948E+06         48.9366
            1509     10.6720E-03     93.6504E-03         5.61554     353.014E-03        -1.16476        -1.15348         5.60426     353.014E-03     546.330E-03     234.928E-03    -117.019E-03    -117.909E-03    -113.939E-03     231.630E-03    -117.690E-03     67.1182E-03     94.2649E+06     44.5857E+06    -43.1222E+06    -42.4612E+06      93.604E+06     44.5857E+06     9.30617E+06         50.8992
            1510     11.5649E-03     93.7374E-03         6.15546     250.083E-03        -1.54916        -1.51190         6.11820     250.083E-03         1.01237     236.559E-03    -117.369E-03    -119.190E-03    -113.311E-03     231.020E-03    -117.709E-03     87.4261E-03     96.9540E+06     63.7951E+06    -36.1683E+06    -35.8742E+06     96.6598E+06     63.7951E+06     5.35911E+06         52.8516
            1511     12.4545E-03     93.8505E-03         6.67956     145.075E-03        -1.90569        -1.86631         6.64017     145.075E-03         1.09929     241.049E-03    -117.773E-03    -123.276E-03    -114.324E-03     232.096E-03    -117.773E-03     112.047E-03     97.7601E+06     86.1845E+06    -29.5668E+06    -29.5417E+06     97.7349E+06     86.1845E+06     680.569E+03         54.7156
            1512     13.3441E-03     94.0024E-03         7.22721     34.0383E-03        -2.27519        -2.25093         7.20294     34.0383E-03     949.342E-03     240.984E-03    -117.800E-03    -123.184E-03    -114.309E-03     232.109E-03    -117.800E-03     111.481E-03     97.7698E+06     96.7276E+06    -22.3752E+06    -22.3655E+06       97.76E+06     96.7276E+06    -443.487E+03         56.5528
            1513     14.2357E-03     94.1190E-03         7.84787    -84.9167E-03        -2.70181        -2.68595         7.83202    -84.9167E-03     452.502E-03     248.867E-03    -117.764E-03    -131.104E-03    -116.197E-03     233.960E-03    -117.764E-03     142.041E-03     110.005E+06     99.4064E+06    -14.0168E+06    -14.0041E+06     109.992E+06     99.4064E+06     126.707E+03         58.4989
            1514     15.1222E-03     94.3469E-03         8.51762    -218.205E-03        -3.15541        -3.15495         8.51716    -218.205E-03    -101.626E-03     246.133E-03    -116.431E-03    -129.701E-03    -116.747E-03     234.470E-03    -117.723E-03     101.993E-03     123.361E+06     100.465E+06    -6.70911E+06    -6.69819E+06     123.350E+06     100.465E+06     97.6996E+03         60.4834
            1515     889.030E-06     94.7203E-03         3.46633         2.42196        -1.18003     318.504E-03         1.96779         2.42196         1.99831     234.379E-03    -116.665E-03    -117.715E-03    -117.674E-03     234.377E-03    -116.703E-03    -1.21892E-03    -97.0632E+06    -102.023E+06    -242.852E+06    -101.410E+06    -242.801E+06    -97.7269E+06     209.461E+03         39.6741
            1516     1.77914E-03     94.7224E-03         2.87978         1.37836     500.294E-03         1.40905         1.97102         1.37836    -9.45008E-03     235.189E-03    -117.136E-03    -118.053E-03    -117.802E-03     235.188E-03    -117.386E-03    -863.865E-06    -88.1718E+06    -98.6752E+06    -245.615E+06    -98.7074E+06    -245.583E+06    -88.1718E+06     1.92171E+06         39.8610
            1517     2.66712E-03     94.7207E-03         3.10129         1.37662     315.818E-03         1.32384         2.09327         1.37662    -398.093E-03     235.376E-03    -117.291E-03    -118.085E-03    -117.778E-03     235.375E-03    -117.597E-03    -359.192E-06    -80.3259E+06    -93.6750E+06    -235.509E+06    -93.7016E+06    -235.483E+06    -80.3259E+06     1.59841E+06         40.1673
            1518     3.55713E-03     94.7161E-03         2.83120         1.34898     616.860E-03         1.20148         2.24658         1.34898        -1.48837     234.762E-03    -117.097E-03    -117.665E-03    -117.092E-03     234.757E-03    -117.665E-03     2.10901E-03    -69.2240E+06    -89.5040E+06    -227.486E+06    -89.5526E+06    -227.437E+06    -69.2240E+06     2.38108E+06         40.6059
            1519     4.44769E-03     94.7189E-03         2.62923         1.30446     869.479E-03         1.03922         2.45949         1.30446    -760.131E-03     234.764E-03    -117.064E-03    -117.699E-03    -117.067E-03     234.743E-03    -117.676E-03     5.07070E-03    -53.8494E+06    -84.4292E+06    -215.634E+06    -84.4963E+06    -215.567E+06    -53.8494E+06     2.93087E+06         41.1947
            1520     5.33702E-03     94.7237E-03         2.93001         1.24588     629.640E-03     844.215E-03         2.71543         1.24588    -336.364E-03     235.458E-03    -117.634E-03    -117.824E-03    -117.631E-03     235.405E-03    -117.774E-03     8.39358E-03    -36.3462E+06     -78.002E+06    -201.024E+06    -78.2347E+06    -200.791E+06    -36.3462E+06     5.01200E+06         41.9510
            1521     6.22320E-03     94.7321E-03         3.06227         1.17663     583.872E-03     639.222E-03         3.00692         1.17663     256.730E-03     235.286E-03    -117.345E-03    -117.941E-03    -117.243E-03     235.157E-03    -117.914E-03     13.0951E-03    -16.8078E+06    -70.1863E+06    -185.470E+06    -70.7463E+06    -184.910E+06    -16.8078E+06     7.85684E+06         42.8936
            1522     7.11355E-03     94.7476E-03         3.43094         1.10060     316.036E-03     430.272E-03         3.31670         1.10060     645.471E-03     234.486E-03    -116.572E-03    -117.915E-03    -116.289E-03     234.204E-03    -117.915E-03     19.5408E-03    -4.68394E+06    -61.2955E+06    -151.010E+06    -62.0423E+06    -150.264E+06    -4.68394E+06     7.83863E+06         44.0485
            1523     8.00456E-03     94.7710E-03         3.79251         1.01772     56.8446E-03     166.261E-03         3.68309         1.01772     702.385E-03     234.734E-03    -116.890E-03    -117.844E-03    -116.359E-03     234.190E-03    -117.831E-03     27.3073E-03     873.284E+03    -51.6083E+06    -96.8227E+06    -54.9061E+06    -93.5249E+06     873.284E+03     6.87826E+06         45.4402
            1524     8.89302E-03     94.8062E-03         4.12940     924.884E-03    -167.999E-03    -161.636E-03         4.12304     924.884E-03    -295.563E-03     234.625E-03    -116.846E-03    -117.778E-03    -115.841E-03     233.607E-03    -117.766E-03     37.2873E-03     6.33652E+06    -22.2019E+06    -58.6670E+06    -51.7665E+06    -29.1023E+06     6.33652E+06     7.49949E+06         47.0744
            1525     9.78188E-03     94.8514E-03         4.63042     820.645E-03    -542.333E-03    -537.452E-03         4.62554     820.645E-03    -17.7033E-03     233.951E-03    -116.258E-03    -117.692E-03    -114.329E-03     232.021E-03    -117.692E-03     51.1796E-03     52.4991E+06     19.7166E+06    -48.3788E+06    -47.1437E+06     47.7598E+06     23.2208E+06     10.5700E+06         48.9206
            1526     10.6749E-03     94.9183E-03         5.17302     705.874E-03    -937.214E-03    -932.609E-03         5.16842     705.874E-03     314.729E-03     234.977E-03    -116.908E-03    -118.069E-03    -114.148E-03     231.817E-03    -117.669E-03     66.0831E-03     97.6605E+06     46.8099E+06    -39.8351E+06    -38.9712E+06     96.7966E+06     46.8099E+06     10.5434E+06         50.8900
            1527     11.5632E-03     94.9978E-03         5.76183     583.497E-03        -1.34964        -1.32577         5.73795     583.497E-03     744.300E-03     237.375E-03    -117.658E-03    -119.717E-03    -114.168E-03     231.905E-03    -117.737E-03     86.6403E-03     101.050E+06     67.6120E+06    -31.9894E+06    -31.5055E+06     100.566E+06     67.6120E+06     7.38915E+06         52.8494
            1528     12.4527E-03     95.1210E-03         6.37101     455.736E-03        -1.76729        -1.74095         6.34468     455.736E-03     862.729E-03     241.237E-03    -117.824E-03    -123.413E-03    -114.305E-03     232.129E-03    -117.824E-03     113.167E-03     101.093E+06     88.6173E+06    -26.4086E+06    -26.0773E+06     100.762E+06     88.6173E+06     4.97432E+06         54.7153
            1529     13.3416E-03     95.2638E-03         7.01712     318.840E-03        -2.21088        -2.19518         7.00142     318.840E-03     748.651E-03     241.500E-03    -117.860E-03    -123.640E-03    -114.658E-03     232.518E-03    -117.860E-03     112.358E-03     99.3976E+06     98.5091E+06    -21.6575E+06    -21.5590E+06     99.1824E+06     98.6258E+06     1.17074E+06         56.5511
            1530     14.2327E-03     95.3836E-03         7.71467     171.818E-03        -2.68922        -2.67817         7.70361     171.818E-03     326.611E-03     248.433E-03    -117.810E-03    -130.623E-03    -115.566E-03     233.377E-03    -117.810E-03     142.601E-03     108.660E+06     99.6726E+06    -14.2014E+06    -14.1716E+06     108.513E+06     99.7893E+06    -853.633E+03         58.5005
            1531     15.1265E-03     95.6129E-03         8.46626     11.0343E-03        -3.19933        -3.19860         8.46553     11.0343E-03    -152.923E-03     245.442E-03    -116.674E-03    -128.768E-03    -115.989E-03     233.716E-03    -117.727E-03     102.258E-03     122.018E+06     101.325E+06    -5.67489E+06    -5.64627E+06     121.990E+06     101.325E+06    -671.774E+03         60.4996
            1532     889.083E-06     95.9856E-03         2.64694         1.83690     318.088E-03         1.55871         1.41869         1.82453         1.02548     235.506E-03    -117.051E-03    -118.454E-03    -117.869E-03     235.505E-03    -117.635E-03    -246.641E-06    -99.7393E+06    -102.681E+06    -247.785E+06    -102.100E+06    -247.758E+06    -100.348E+06     694.086E+03         39.6809
            1533     1.77732E-03     95.9864E-03         2.25608         1.70017     898.771E-03         1.73155         1.42330         1.70017     262.248E-03     234.725E-03    -117.048E-03    -117.677E-03    -117.048E-03     234.724E-03    -117.677E-03     513.193E-06    -89.9303E+06    -97.7940E+06    -247.346E+06    -97.8377E+06    -247.302E+06    -89.9303E+06     1.87909E+06         39.8604
            1534     2.66913E-03     95.9835E-03         2.56361         1.69189     629.823E-03         1.59746         1.59597         1.69189    -589.673E-03     234.748E-03    -117.092E-03    -117.656E-03    -117.185E-03     234.748E-03    -117.563E-03     440.890E-06    -76.7269E+06    -92.2023E+06    -239.511E+06    -92.2685E+06    -239.445E+06    -76.7269E+06     2.91769E+06         40.1636
            1535     3.55758E-03     95.9816E-03         2.44364         1.65352     805.710E-03         1.47456         1.77479         1.65352        -1.42450     235.437E-03    -117.530E-03    -117.907E-03    -117.792E-03     235.433E-03    -117.642E-03     1.87269E-03    -64.0389E+06    -88.2211E+06    -230.502E+06    -88.3042E+06    -230.419E+06    -64.0389E+06     3.39270E+06         40.6027
            1536     4.44570E-03     95.9819E-03         2.26338         1.60001         1.04933         1.28525         2.02746         1.60001    -873.189E-03     235.288E-03    -117.330E-03    -117.958E-03    -117.481E-03     235.266E-03    -117.785E-03     4.98602E-03    -47.8782E+06    -83.2508E+06    -219.016E+06    -83.3771E+06    -218.890E+06    -47.8782E+06     3.91554E+06         41.1905
            1537     5.33502E-03     95.9893E-03         2.50919         1.53263     871.669E-03         1.08958         2.29128         1.53263    -391.624E-03     234.973E-03    -117.092E-03    -117.881E-03    -117.057E-03     234.912E-03    -117.855E-03     8.96021E-03    -32.8123E+06    -76.5393E+06    -207.814E+06    -76.7695E+06    -207.584E+06    -32.8123E+06     5.33379E+06         41.9450
            1538     6.22593E-03     95.9980E-03         2.64428         1.45575     830.743E-03     872.372E-03         2.60265         1.45575     93.4273E-03     235.153E-03    -117.231E-03    -117.922E-03    -117.127E-03     235.013E-03    -117.886E-03     13.7618E-03    -21.2213E+06    -68.5071E+06    -189.270E+06    -68.8901E+06    -188.887E+06    -21.2213E+06     6.34836E+06         42.8874
            1539     7.11451E-03     96.0111E-03         3.03678         1.37128     549.985E-03     643.863E-03         2.94290         1.37128     466.217E-03     235.246E-03    -117.308E-03    -117.938E-03    -117.021E-03     234.949E-03    -117.927E-03     20.1502E-03    -7.63686E+06    -60.4448E+06    -153.431E+06    -61.2724E+06    -152.603E+06    -7.63686E+06     7.58795E+06         44.0410
            1540     8.00262E-03     96.0368E-03         3.42471         1.27896     275.455E-03     364.721E-03         3.33544         1.27896     467.746E-03     234.804E-03    -116.902E-03    -117.901E-03    -116.317E-03     234.219E-03    -117.901E-03     28.2800E-03     405.879E+03    -52.4514E+06    -102.076E+06    -57.0458E+06    -97.4820E+06     405.879E+03     9.53027E+06         45.4282
            1541     8.89234E-03     96.0716E-03         3.80903         1.17613     13.5952E-03     32.1782E-03         3.79044         1.17613    -512.909E-03     234.407E-03    -116.583E-03    -117.824E-03    -115.592E-03     233.417E-03    -117.824E-03     36.9858E-03     8.26993E+06    -23.3638E+06    -60.8648E+06    -52.2881E+06    -31.9405E+06     8.26993E+06     9.99509E+06         47.0589
            1542     9.78430E-03     96.1140E-03         4.33410         1.06093    -372.814E-03    -360.556E-03         4.32184         1.06093    -252.650E-03     233.970E-03    -116.249E-03    -117.720E-03    -114.433E-03     232.154E-03    -117.720E-03     49.5152E-03     51.6697E+06     14.8341E+06    -46.4840E+06    -45.1384E+06     43.4336E+06     21.7247E+06     9.19621E+06         48.9061
            1543     10.6732E-03     96.1827E-03         4.90585     933.508E-03    -779.667E-03    -778.823E-03         4.90500     933.508E-03     87.0338E-03     234.734E-03    -116.672E-03    -118.062E-03    -113.771E-03     231.434E-03    -117.663E-03     67.0993E-03     94.4681E+06     41.3999E+06    -39.2344E+06    -38.4725E+06     93.7062E+06     41.3999E+06     9.36927E+06         50.8813
            1544     11.5617E-03     96.2676E-03         5.52921     796.107E-03        -1.21395        -1.19920         5.51446     796.107E-03     489.531E-03     237.395E-03    -117.608E-03    -119.787E-03    -114.030E-03     231.763E-03    -117.733E-03     88.1396E-03     101.665E+06     68.0632E+06    -32.7988E+06    -32.1044E+06     100.971E+06     68.0632E+06     9.23470E+06         52.8483
            1545     12.4541E-03     96.3790E-03         6.18613     650.000E-03        -1.66948        -1.65263         6.16928     650.000E-03     657.472E-03     241.268E-03    -117.824E-03    -123.444E-03    -114.097E-03     231.921E-03    -117.824E-03     114.449E-03     104.761E+06     93.7202E+06    -23.5576E+06    -23.1135E+06     103.801E+06     94.2356E+06     7.20769E+06         54.7166
            1546     13.3458E-03     96.5361E-03         6.88401     493.033E-03        -2.15142        -2.14200         6.87459     493.033E-03     564.478E-03     241.581E-03    -117.846E-03    -123.735E-03    -114.502E-03     232.348E-03    -117.846E-03     113.741E-03     106.174E+06     104.448E+06    -15.2735E+06    -15.0604E+06     104.281E+06     106.128E+06     4.19585E+06         56.5499
            1547     14.2325E-03     96.6457E-03         7.64008     324.283E-03        -2.67482        -2.66713         7.63238     324.283E-03     220.360E-03     248.862E-03    -117.799E-03    -131.063E-03    -115.921E-03     233.720E-03    -117.799E-03     143.049E-03     111.516E+06     104.379E+06     -9.6513E+06    -9.53417E+06     110.234E+06     105.544E+06     1.29694E+06         58.5032
            1548     15.1238E-03     96.8734E-03         8.44646     142.313E-03        -3.22358        -3.22249         8.44538     142.313E-03    -206.091E-03     245.530E-03    -116.468E-03    -129.062E-03    -115.974E-03     233.695E-03    -117.721E-03     102.972E-03     120.300E+06     104.100E+06    -4.55456E+06    -4.51094E+06     120.256E+06     104.100E+06     192.388E+03         60.5198
            1549     888.747E-06     97.2520E-03         3.09764         1.31682     447.173E-03         2.46605         1.09113         1.30445    -471.419E-03     235.840E-03    -117.235E-03    -118.605E-03    -117.730E-03     235.834E-03    -118.104E-03    -1.05261E-03    -99.1726E+06    -103.689E+06    -252.401E+06    -103.440E+06    -252.393E+06    -99.4294E+06     719.641E+03         39.6896
            1550     1.77971E-03     97.2482E-03         2.19206         1.88740     833.107E-03         1.89608         1.12908         1.88740     660.680E-03     234.700E-03    -116.924E-03    -117.775E-03    -116.920E-03     234.695E-03    -117.775E-03    -1.20975E-03    -90.5184E+06    -97.3815E+06    -250.016E+06    -97.4024E+06    -249.995E+06    -90.5184E+06     794.291E+03         39.8637
            1551     2.66827E-03     97.2469E-03         2.22594         1.87106     875.065E-03         1.76059         1.34041         1.87106    -910.583E-03     234.721E-03    -117.035E-03    -117.685E-03    -117.128E-03     234.720E-03    -117.592E-03     240.087E-06    -77.2998E+06    -92.4965E+06    -244.248E+06    -92.5499E+06    -244.195E+06    -77.2998E+06     2.31193E+06         40.1620
            1552     3.55764E-03     97.2473E-03         2.27757         1.82676     874.594E-03         1.62008         1.53209         1.82676        -1.35544     235.334E-03    -117.416E-03    -117.918E-03    -117.676E-03     235.329E-03    -117.653E-03     2.37660E-03    -62.1385E+06    -87.7042E+06    -234.941E+06    -87.8612E+06    -234.784E+06    -62.1385E+06     4.42206E+06         40.5988
            1553     4.44615E-03     97.2477E-03         2.20490         1.76498         1.02561         1.40409         1.82642         1.76498        -1.08747     235.512E-03    -117.489E-03    -118.023E-03    -117.706E-03     235.486E-03    -117.780E-03     5.64510E-03    -50.0136E+06    -82.4129E+06    -222.679E+06    -82.6863E+06    -222.406E+06    -50.0136E+06     6.05306E+06         41.1852
            1554     5.33587E-03     97.2522E-03         2.31055         1.68959         1.00227         1.21339         2.09943         1.68959    -525.978E-03     235.052E-03    -117.111E-03    -117.942E-03    -117.123E-03     234.994E-03    -117.871E-03     8.92345E-03    -35.4840E+06    -76.2264E+06    -211.238E+06    -76.4669E+06    -210.997E+06    -35.4840E+06     5.64276E+06         41.9366
            1555     6.22528E-03     97.2617E-03         2.46092         1.60575     952.703E-03     978.518E-03         2.43510         1.60575    -129.150E-03     234.971E-03    -117.049E-03    -117.922E-03    -116.928E-03     234.839E-03    -117.911E-03     13.2953E-03    -20.6389E+06    -70.0510E+06    -193.828E+06    -70.4537E+06    -193.426E+06    -20.6389E+06     6.26171E+06         42.8756
            1556     7.11379E-03     97.2789E-03         2.87252         1.51260     656.906E-03     723.481E-03         2.80595         1.51260     252.507E-03     235.383E-03    -117.434E-03    -117.950E-03    -117.145E-03     235.084E-03    -117.939E-03     20.1442E-03    -9.40924E+06    -64.1847E+06    -159.758E+06    -65.2307E+06    -158.712E+06    -9.40924E+06     8.98660E+06         44.0264
            1557     8.00298E-03     97.3011E-03         3.27860         1.41029     372.599E-03     432.278E-03         3.21892         1.41029     247.339E-03     235.040E-03    -117.116E-03    -117.925E-03    -116.550E-03     234.475E-03    -117.925E-03     27.8757E-03    -957.273E+03    -55.0761E+06    -102.446E+06    -57.5714E+06    -99.9506E+06    -957.273E+03     8.63252E+06         45.4111
            1558     8.89382E-03     97.3352E-03         3.73443         1.29696     52.5774E-03     85.2107E-03         3.70180         1.29696    -679.684E-03     234.187E-03    -116.339E-03    -117.848E-03    -115.335E-03     233.183E-03    -117.848E-03     36.9987E-03     8.92265E+06    -26.8355E+06    -56.0356E+06    -48.2759E+06    -34.5952E+06     8.92265E+06     7.82911E+06         47.0413
            1559     9.77972E-03     97.3825E-03         4.25839         1.17144    -318.295E-03    -295.108E-03         4.23520         1.17144    -450.829E-03     233.850E-03    -116.125E-03    -117.725E-03    -114.241E-03     231.966E-03    -117.725E-03     50.4543E-03     50.2248E+06     12.5104E+06    -43.5603E+06    -41.8602E+06     38.4256E+06     22.6096E+06     10.0754E+06         48.8931
            1560     10.6726E-03     97.4412E-03         4.81453         1.03428    -704.916E-03    -704.013E-03         4.81363         1.03428    -99.3470E-03     234.710E-03    -116.796E-03    -117.914E-03    -113.596E-03     231.238E-03    -117.642E-03     68.7539E-03     92.1846E+06     40.8123E+06    -39.6620E+06    -38.3853E+06     90.9079E+06     40.8123E+06     11.9270E+06         50.8758
            1561     11.5675E-03     97.5345E-03         5.46432     885.624E-03        -1.16018        -1.14995         5.45408     885.624E-03     284.159E-03     237.210E-03    -117.577E-03    -119.633E-03    -113.969E-03     231.671E-03    -117.702E-03     87.7763E-03     103.526E+06     67.9760E+06    -34.4395E+06    -33.6387E+06     102.725E+06     67.9760E+06     10.1897E+06         52.8477
            1562     12.4533E-03     97.6454E-03         6.14408     725.353E-03        -1.63059        -1.62015         6.13365     725.353E-03     486.608E-03     241.054E-03    -117.802E-03    -123.252E-03    -114.204E-03     232.006E-03    -117.802E-03     112.370E-03     107.056E+06     92.9447E+06    -27.6723E+06    -27.3666E+06     106.235E+06     93.4601E+06     6.14479E+06         54.7130
            1563     13.3428E-03     97.7976E-03         6.85988     553.165E-03        -2.12874        -2.12371         6.85485     553.165E-03     396.718E-03     240.525E-03    -117.807E-03    -122.718E-03    -113.578E-03     231.386E-03    -117.807E-03     112.882E-03     107.807E+06     103.497E+06    -18.1055E+06    -17.9170E+06     105.111E+06     106.004E+06     4.73166E+06         56.5403
            1564     14.2377E-03     97.9127E-03         7.63741     368.238E-03        -2.66771        -2.66254         7.63223     368.238E-03     122.723E-03     248.474E-03    -117.733E-03    -130.740E-03    -115.656E-03     233.389E-03    -117.733E-03     142.737E-03     113.488E+06     105.810E+06    -10.0958E+06    -9.93791E+06     111.338E+06     107.802E+06     4.20841E+06         58.5005
            1565     15.1254E-03     98.1401E-03         8.46889     171.332E-03        -3.23745        -3.23606         8.46750     171.332E-03    -241.311E-03     246.453E-03    -116.881E-03    -129.572E-03    -116.951E-03     234.635E-03    -117.684E-03     103.477E-03     121.166E+06     106.970E+06    -5.64069E+06    -5.59199E+06     121.118E+06     106.970E+06     2.21276E+06         60.5407
            1566     887.767E-06     98.5167E-03         4.97009     983.905E-03        -1.02054         2.80350         1.14605     983.905E-03        -2.10221     236.239E-03    -117.424E-03    -118.815E-03    -118.482E-03     236.231E-03    -117.748E-03    -2.26249E-03    -96.8381E+06    -104.387E+06    -253.423E+06    -103.225E+06    -253.398E+06    -98.0250E+06     1.58237E+06         39.6989
            1567     1.77667E-03     98.5115E-03         2.85656         1.90453     210.360E-03         1.94986         1.11706         1.90453         1.13805     235.501E-03    -117.398E-03    -118.102E-03    -117.450E-03     235.496E-03    -118.046E-03    -1.71563E-03    -90.2288E+06    -99.3826E+06    -253.218E+06    -99.4064E+06    -253.194E+06    -90.2288E+06     1.15122E+06         39.8725
            1568     2.66737E-03     98.5112E-03         2.21369         1.89609     901.404E-03         1.77699         1.33810         1.89609        -1.21810     235.014E-03    -117.151E-03    -117.863E-03    -117.150E-03     235.013E-03    -117.863E-03    -47.2636E-06    -83.1360E+06    -96.4158E+06    -250.343E+06    -96.4832E+06    -250.276E+06    -83.1360E+06     2.60282E+06         40.1657
            1569     3.55743E-03     98.5101E-03         2.24215         1.84817     940.495E-03         1.62382         1.55882         1.84817        -1.26464     235.004E-03    -117.218E-03    -117.786E-03    -117.214E-03     235.000E-03    -117.786E-03     1.81127E-03    -70.5298E+06    -91.1075E+06    -240.290E+06    -91.2593E+06    -240.139E+06    -70.5298E+06     4.28984E+06         40.5954
            1570     4.44749E-03     98.5134E-03         2.32500         1.78328     947.205E-03         1.41594         1.85627         1.78328        -1.27147     235.287E-03    -117.400E-03    -117.887E-03    -117.455E-03     235.272E-03    -117.817E-03     4.32917E-03    -55.2081E+06    -84.5233E+06    -227.073E+06    -84.7666E+06    -226.830E+06    -55.2081E+06     5.57215E+06         41.1763
            1571     5.33502E-03     98.5173E-03         2.33282         1.70424         1.03062         1.19942         2.16402         1.70424    -646.547E-03     235.288E-03    -117.309E-03    -117.979E-03    -117.324E-03     235.232E-03    -117.908E-03     8.32341E-03    -36.9037E+06    -78.1752E+06    -213.963E+06    -78.5317E+06    -213.606E+06    -36.9037E+06     6.64077E+06         41.9230
            1572     6.22372E-03     98.5267E-03         2.52992         1.61528     940.946E-03     965.580E-03         2.50529         1.61528    -348.756E-03     235.132E-03    -117.156E-03    -117.976E-03    -117.008E-03     234.984E-03    -117.976E-03     14.0853E-03    -21.0792E+06    -72.1626E+06    -200.810E+06    -72.8034E+06    -200.169E+06    -21.0792E+06     8.60502E+06         42.8557
            1573     7.11453E-03     98.5426E-03         2.91897         1.51759     671.299E-03     710.768E-03         2.87950         1.51759     63.5912E-03     234.899E-03    -116.950E-03    -117.949E-03    -116.640E-03     234.589E-03    -117.949E-03     20.5754E-03    -13.0587E+06    -65.4848E+06    -163.248E+06    -66.3095E+06    -162.423E+06    -13.0587E+06     8.76743E+06         44.0009
            1574     8.00311E-03     98.5686E-03         3.34700         1.40979     365.832E-03     400.648E-03         3.31218         1.40979     23.1688E-03     234.521E-03    -116.658E-03    -117.863E-03    -116.057E-03     233.920E-03    -117.863E-03     28.5544E-03    -5.36309E+06    -57.2283E+06    -99.8337E+06    -58.6926E+06    -98.3694E+06    -5.36309E+06     6.30280E+06         45.3854
            1575     8.89007E-03     98.5996E-03         3.84660         1.28972     2.51520E-03     48.2433E-03         3.80087         1.28972    -822.763E-03     233.616E-03    -115.852E-03    -117.764E-03    -114.788E-03     232.552E-03    -117.764E-03     38.0463E-03     5.58867E+06    -34.8765E+06    -61.5777E+06    -53.8718E+06    -42.5825E+06     5.58867E+06     7.14866E+06         47.0222
            1576     9.78737E-03     98.6429E-03         4.37605         1.15677    -372.050E-03    -338.196E-03         4.34219         1.15677    -638.067E-03     233.863E-03    -116.181E-03    -117.682E-03    -114.274E-03     231.908E-03    -117.634E-03     51.4814E-03     47.2087E+06     7.14713E+06    -51.1894E+06    -49.1302E+06     31.3801E+06     20.9165E+06     11.4150E+06         48.8834
            1577     10.6756E-03     98.7094E-03         4.92591         1.01131    -746.881E-03    -743.591E-03         4.92262         1.01131    -260.330E-03     235.948E-03    -117.401E-03    -118.548E-03    -114.946E-03     232.553E-03    -117.607E-03     68.5048E-03     93.2754E+06     40.7902E+06    -42.0175E+06    -40.7883E+06     92.0462E+06     40.7902E+06     12.1165E+06         50.8732
            1578     11.5600E-03     98.7968E-03         5.55989     853.656E-03        -1.18571        -1.17936         5.55353     853.656E-03     101.021E-03     237.282E-03    -117.714E-03    -119.569E-03    -114.073E-03     231.787E-03    -117.714E-03     87.2361E-03     104.730E+06     66.0807E+06    -32.5361E+06    -31.7355E+06     103.930E+06     66.0807E+06     10.3472E+06         52.8455
            1579     12.4538E-03     98.9128E-03         6.23740     682.854E-03        -1.65718        -1.65232         6.23253     682.854E-03     314.763E-03     240.487E-03    -117.798E-03    -122.688E-03    -113.580E-03     231.378E-03    -117.798E-03     112.667E-03     108.198E+06     93.0143E+06    -25.8876E+06    -25.0574E+06     107.368E+06     93.0143E+06     9.72833E+06         54.7071
            1580     13.3455E-03     99.0594E-03         6.96067     499.573E-03        -2.16079        -2.15874         6.95862     499.573E-03     244.832E-03     240.817E-03    -117.799E-03    -123.017E-03    -114.003E-03     231.802E-03    -117.799E-03     112.107E-03     108.620E+06     103.965E+06    -21.9504E+06    -21.4123E+06     107.138E+06     104.909E+06     7.14098E+06         56.5317
            1581     14.2343E-03     99.1758E-03         7.71977     303.485E-03        -2.68469        -2.68175         7.71682     303.485E-03     16.4994E-03     247.961E-03    -117.734E-03    -130.226E-03    -115.398E-03     233.133E-03    -117.734E-03     141.114E-03     111.586E+06     103.784E+06    -15.4363E+06    -15.3137E+06     110.519E+06     104.728E+06     3.61682E+06         58.4965
            1582     15.1278E-03     99.4051E-03         8.52015     97.9401E-03        -3.23070        -3.22906         8.51851     97.9401E-03    -267.069E-03     245.862E-03    -116.986E-03    -128.877E-03    -116.537E-03     234.211E-03    -117.674E-03     101.957E-03     122.119E+06     106.305E+06    -6.51423E+06    -6.47630E+06     122.081E+06     106.305E+06     2.04094E+06         60.5556
            1583     890.128E-06     99.7821E-03         6.62770     830.631E-03        -2.46195         2.72838         1.43737     830.631E-03        -3.45816     235.529E-03    -117.324E-03    -118.205E-03    -118.094E-03     235.524E-03    -117.430E-03    -1.82520E-03    -101.417E+06    -106.765E+06    -257.578E+06    -105.698E+06    -257.458E+06    -102.604E+06     1.81191E+06         39.6984
            1584     1.77825E-03     99.7778E-03         3.64294         1.78255    -399.688E-03         1.79474         1.44851         1.78255         1.52470     236.132E-03    -117.742E-03    -118.390E-03    -118.214E-03     236.131E-03    -117.917E-03    -696.548E-06    -94.0119E+06    -103.406E+06    -257.112E+06    -103.538E+06    -256.981E+06    -94.0119E+06     3.89956E+06         39.8763
            1585     2.66628E-03     99.7744E-03         2.40768         1.76620     869.879E-03         1.64790         1.62966         1.76620        -1.46435     235.983E-03    -117.665E-03    -118.317E-03    -117.921E-03     235.982E-03    -118.061E-03     426.507E-06    -86.2102E+06    -100.439E+06    -254.905E+06    -100.544E+06    -254.800E+06    -86.2102E+06     3.97392E+06         40.1688
            1586     3.55550E-03     99.7750E-03         2.31283         1.72031         1.02912         1.51092         1.83104         1.72031        -1.17420     235.441E-03    -117.333E-03    -118.108E-03    -117.378E-03     235.437E-03    -118.059E-03     1.89502E-03    -74.8187E+06    -94.7314E+06    -244.508E+06    -94.8463E+06    -244.393E+06    -74.8187E+06     3.97259E+06         40.5912
            1587     4.44392E-03     99.7777E-03         2.57306         1.65782     862.319E-03         1.29834         2.13704         1.65782        -1.39642     234.833E-03    -116.824E-03    -118.008E-03    -116.806E-03     234.815E-03    -118.008E-03     4.51777E-03    -56.8334E+06    -88.7361E+06    -231.385E+06    -88.9104E+06    -231.211E+06    -56.8334E+06     4.80260E+06         41.1628
            1588     5.33541E-03     99.7817E-03         2.55692         1.57945     974.405E-03         1.08088         2.45045         1.57945    -711.604E-03     234.903E-03    -116.921E-03    -117.981E-03    -116.862E-03     234.843E-03    -117.981E-03     8.70642E-03    -37.7121E+06    -82.2397E+06    -220.075E+06    -82.6320E+06    -219.682E+06    -37.7121E+06     7.08432E+06         41.9028
            1589     6.22558E-03     99.7913E-03         2.83340         1.49006     808.706E-03     842.330E-03         2.79978         1.49006    -503.645E-03     235.052E-03    -117.061E-03    -117.991E-03    -116.912E-03     234.903E-03    -117.991E-03     14.1584E-03    -22.1072E+06    -73.5636E+06    -205.606E+06    -74.0560E+06    -205.114E+06    -22.1072E+06     7.93445E+06         42.8309
            1590     7.11271E-03     99.8085E-03         3.20069         1.39044     557.576E-03     577.383E-03         3.18088         1.39044    -70.5117E-03     234.192E-03    -116.280E-03    -117.913E-03    -115.959E-03     233.872E-03    -117.913E-03     20.8479E-03    -12.2556E+06    -64.0578E+06    -162.916E+06    -64.6163E+06    -162.357E+06    -12.2556E+06     7.04602E+06         43.9733
            1591     8.00427E-03     99.8308E-03         3.61739         1.28025     257.807E-03     279.478E-03         3.59572         1.28025    -163.713E-03     233.357E-03    -115.620E-03    -117.736E-03    -114.997E-03     232.734E-03    -117.736E-03     29.0292E-03    -6.08497E+06    -57.6986E+06    -104.936E+06    -60.2884E+06    -102.346E+06    -6.08497E+06     8.34550E+06         45.3610
            1592     8.89861E-03     99.8643E-03         4.12896         1.15803    -122.357E-03    -69.8304E-03         4.07643         1.15803    -926.873E-03     234.145E-03    -116.117E-03    -118.029E-03    -115.496E-03     233.137E-03    -117.641E-03     37.3062E-03     5.99172E+06    -35.2497E+06    -70.5582E+06    -57.6423E+06    -48.1655E+06     5.99172E+06     10.6298E+06         47.0070
            1593     9.78233E-03     99.9055E-03         4.66788         1.02147    -512.024E-03    -471.451E-03         4.62731         1.02147    -781.599E-03     235.246E-03    -117.108E-03    -118.138E-03    -115.807E-03     233.408E-03    -117.601E-03     50.0081E-03     45.9184E+06     3.79199E+06    -52.9425E+06    -51.0898E+06     29.8044E+06     18.0533E+06     9.52706E+06         48.8747
            1594     10.6725E-03     99.9776E-03         5.21441     870.223E-03    -886.902E-03    -880.517E-03         5.20802     870.223E-03    -392.014E-03     235.605E-03    -117.219E-03    -118.385E-03    -114.641E-03     232.255E-03    -117.614E-03     67.8934E-03     89.7158E+06     34.0163E+06    -43.3265E+06    -42.7533E+06     89.1426E+06     34.0163E+06     8.67415E+06         50.8657
            1595     11.5649E-03     100.063E-03         5.83169     705.547E-03        -1.31338        -1.30840         5.82671     705.547E-03    -34.6870E-03     236.620E-03    -117.297E-03    -119.323E-03    -113.432E-03     231.124E-03    -117.692E-03     87.1074E-03     102.002E+06     60.7885E+06    -35.8771E+06    -35.1732E+06     101.298E+06     60.7885E+06     9.73470E+06         52.8399
            1596     12.4550E-03     100.172E-03         6.48427     526.961E-03        -1.76392        -1.76202         6.48237     526.961E-03     180.886E-03     240.746E-03    -117.768E-03    -122.978E-03    -113.753E-03     231.521E-03    -117.768E-03     113.379E-03     106.190E+06     90.2217E+06    -27.6676E+06    -26.7875E+06     105.310E+06     90.2217E+06     10.3856E+06         54.7024
            1597     13.3437E-03     100.330E-03         7.16719     337.012E-03        -2.23607        -2.23530         7.16642     337.012E-03     132.531E-03     241.055E-03    -117.791E-03    -123.265E-03    -114.234E-03     232.025E-03    -117.791E-03     112.100E-03     110.958E+06     106.389E+06    -18.9257E+06    -18.1442E+06     110.177E+06     106.389E+06     9.38917E+06         56.5241
            1598     14.2340E-03     100.437E-03         7.88980     135.411E-03        -2.73430        -2.73234         7.88784     135.411E-03    -48.5418E-03     249.010E-03    -117.748E-03    -131.261E-03    -116.015E-03     233.764E-03    -117.748E-03     142.845E-03     115.075E+06     107.125E+06    -11.6312E+06    -11.2491E+06     114.693E+06     107.125E+06     6.08656E+06         58.4916
            1599     15.1228E-03     100.670E-03         8.62442    -72.6428E-03        -3.23024        -3.22839         8.62257    -72.6428E-03    -289.923E-03     246.224E-03    -116.293E-03    -129.931E-03    -116.376E-03     234.068E-03    -117.692E-03     103.773E-03     123.793E+06     107.662E+06    -5.50115E+06    -5.38126E+06     123.673E+06     107.662E+06     2.80939E+06         60.5695
            1600     889.505E-06     101.046E-03         7.58369     835.657E-03        -3.38789         2.21495         1.98085     835.657E-03        -4.24475     234.911E-03    -117.072E-03    -117.839E-03    -117.732E-03     234.910E-03    -117.178E-03    -875.423E-06    -110.177E+06    -114.564E+06    -265.857E+06    -114.232E+06    -265.701E+06    -110.665E+06     2.23187E+06         39.6833
            1601     1.77869E-03     101.043E-03         4.28630         1.51578    -752.726E-03         1.47596         2.05762         1.51578         1.70156     235.990E-03    -117.688E-03    -118.301E-03    -118.300E-03     235.989E-03    -117.688E-03    -1.00756E-03    -100.699E+06    -109.403E+06    -262.170E+06    -109.524E+06    -262.048E+06    -100.699E+06     3.49692E+06         39.8637
            1602     2.66695E-03     101.041E-03         2.85855         1.49157     729.613E-03         1.40264         2.18552         1.49157        -1.65740     236.205E-03    -117.897E-03    -118.308E-03    -118.208E-03     236.202E-03    -117.994E-03     1.12002E-03    -86.7290E+06    -103.202E+06    -257.153E+06    -103.295E+06    -257.060E+06    -86.7290E+06     3.71087E+06         40.1580
            1603     3.55457E-03     101.041E-03         2.69310         1.45223     942.879E-03         1.25457         2.38141         1.45223        -1.11058     235.600E-03    -117.468E-03    -118.131E-03    -117.510E-03     235.592E-03    -118.082E-03     3.16438E-03    -73.9236E+06    -97.7819E+06    -248.277E+06    -97.9406E+06    -248.118E+06    -73.9236E+06     4.75413E+06         40.5800
            1604     4.44610E-03     101.040E-03         2.99753         1.39506     720.688E-03         1.07475         2.64347         1.39506        -1.49994     234.959E-03    -116.917E-03    -118.041E-03    -116.894E-03     234.935E-03    -118.041E-03     5.43546E-03    -58.9179E+06    -91.5326E+06    -236.596E+06    -91.8168E+06    -236.312E+06    -58.9179E+06     6.31238E+06         41.1485
            1605     5.33500E-03     101.046E-03         3.01292         1.32359     794.910E-03     867.790E-03         2.94004         1.32359    -755.859E-03     234.834E-03    -116.823E-03    -118.011E-03    -116.756E-03     234.767E-03    -118.011E-03     9.41702E-03    -39.2758E+06    -85.1188E+06    -224.495E+06    -85.4507E+06    -224.163E+06    -39.2758E+06     6.70257E+06         41.8844
            1606     6.22301E-03     101.057E-03         3.33542         1.23806     571.751E-03     609.273E-03         3.29790         1.23806    -620.287E-03     234.529E-03    -116.553E-03    -117.976E-03    -116.404E-03     234.380E-03    -117.976E-03     14.1847E-03    -23.2500E+06    -77.2221E+06    -207.552E+06    -77.5167E+06    -207.257E+06    -23.2500E+06     6.15030E+06         42.8114
            1607     7.11583E-03     101.071E-03         3.67333         1.14009     341.543E-03     355.042E-03         3.65983         1.14009    -201.387E-03     233.884E-03    -116.046E-03    -117.838E-03    -115.759E-03     233.597E-03    -117.838E-03     19.7073E-03    -17.5960E+06    -69.6586E+06    -165.674E+06    -70.1261E+06    -165.207E+06    -17.5960E+06     6.24713E+06         43.9563
            1608     8.00633E-03     101.093E-03         4.07637         1.03131     47.1541E-03     63.4027E-03         4.06012         1.03131    -293.336E-03     233.845E-03    -116.159E-03    -117.685E-03    -115.626E-03     233.311E-03    -117.685E-03     26.8979E-03    -12.9889E+06    -60.0026E+06    -112.393E+06    -62.4540E+06    -109.942E+06    -12.9889E+06     8.64735E+06         45.3460
            1609     8.89313E-03     101.128E-03         4.58756     909.231E-03    -339.454E-03    -286.894E-03         4.53500     909.231E-03    -997.618E-03     234.668E-03    -116.638E-03    -118.030E-03    -116.048E-03     233.690E-03    -117.642E-03     36.6239E-03     470.755E+03    -32.6675E+06    -71.9753E+06    -54.4861E+06    -50.1568E+06     470.755E+03     10.2668E+06         46.9915
            1610     9.78411E-03     101.178E-03         5.11432     771.823E-03    -719.624E-03    -678.297E-03         5.07300     771.823E-03    -857.072E-03     235.287E-03    -117.162E-03    -118.125E-03    -115.758E-03     233.393E-03    -117.635E-03     50.7983E-03     42.2779E+06     4.84478E+06    -51.3537E+06    -49.8088E+06     30.3549E+06     15.2229E+06     9.19535E+06         48.8588
            1611     10.6722E-03     101.238E-03         5.65899     618.647E-03        -1.10233        -1.09366         5.65032     618.647E-03    -483.674E-03     234.729E-03    -117.006E-03    -117.723E-03    -113.780E-03     231.401E-03    -117.621E-03     67.5770E-03     85.0683E+06     31.0942E+06    -46.6926E+06    -46.0896E+06     84.4653E+06     31.0942E+06     8.78869E+06         50.8514
            1612     11.5641E-03     101.327E-03         6.25443     450.397E-03        -1.51573        -1.51021         6.24891     450.397E-03    -132.087E-03     236.449E-03    -117.084E-03    -119.366E-03    -113.222E-03     230.876E-03    -117.654E-03     87.5289E-03     98.9248E+06     57.9332E+06    -40.1770E+06    -39.5696E+06     98.3175E+06     57.9332E+06     9.12744E+06         52.8288
            1613     12.4532E-03     101.439E-03         6.86004     267.953E-03        -1.92973        -1.92863         6.85894     267.953E-03     85.6360E-03     240.996E-03    -117.730E-03    -123.265E-03    -114.041E-03     231.771E-03    -117.730E-03     113.585E-03     104.092E+06     86.9490E+06    -31.5260E+06    -31.0245E+06     103.590E+06     86.9490E+06     8.17421E+06         54.6902
            1614     13.3450E-03     101.592E-03         7.48746     76.0739E-03        -2.35996        -2.35933         7.48683     76.0739E-03     65.1096E-03     240.282E-03    -117.740E-03    -122.543E-03    -113.453E-03     231.193E-03    -117.740E-03     112.492E-03     108.721E+06     103.446E+06    -21.0446E+06    -20.5806E+06     108.257E+06     103.446E+06     7.46614E+06         56.5070
            1615     14.2374E-03     101.702E-03         8.13310    -125.512E-03        -2.79597        -2.79403         8.13116    -125.512E-03    -76.9602E-03     248.739E-03    -117.667E-03    -131.071E-03    -115.505E-03     233.172E-03    -117.667E-03     144.631E-03     118.827E+06     108.363E+06    -13.1360E+06    -12.6728E+06     118.363E+06     108.363E+06     7.51073E+06         58.4817
            1616     15.1279E-03     101.939E-03         8.77958    -329.519E-03        -3.22539        -3.22348         8.77767    -329.519E-03    -289.455E-03     246.965E-03    -116.856E-03    -130.109E-03    -117.037E-03     234.655E-03    -117.618E-03     105.020E-03     128.988E+06     109.901E+06    -7.42919E+06    -7.23070E+06     128.789E+06     109.901E+06     4.05803E+06         60.5879
            1617     889.695E-06     102.311E-03         7.69661     969.299E-03        -3.62599         1.26387         2.80675     969.299E-03        -4.30472     235.180E-03    -117.324E-03    -117.856E-03    -117.849E-03     235.178E-03    -117.330E-03     157.747E-06    -112.498E+06    -116.324E+06    -270.308E+06    -115.344E+06    -270.250E+06    -113.536E+06     916.473E+03         39.6558
            1618     1.77798E-03     102.308E-03         4.73022         1.11188    -779.874E-03         1.09112         2.85922         1.11188         1.69118     235.541E-03    -117.645E-03    -117.895E-03    -117.841E-03     235.541E-03    -117.699E-03    -520.061E-06    -103.776E+06    -111.340E+06    -267.002E+06    -111.362E+06    -266.979E+06    -103.776E+06     1.14225E+06         39.8357
            1619     2.66730E-03     102.306E-03         3.50051         1.09535     481.973E-03         1.02300         2.95948         1.09535        -1.69274     235.332E-03    -117.477E-03    -117.855E-03    -117.532E-03     235.330E-03    -117.798E-03     820.165E-06    -91.2589E+06    -106.160E+06    -261.862E+06    -106.246E+06    -261.776E+06    -91.2589E+06     3.52513E+06         40.1315
            1620     3.55799E-03     102.305E-03         3.36697         1.06193     666.829E-03     888.350E-03         3.14545         1.06193        -1.07239     235.247E-03    -117.417E-03    -117.830E-03    -117.409E-03     235.240E-03    -117.830E-03     2.92419E-03    -76.4925E+06    -100.554E+06    -252.075E+06    -100.692E+06    -251.938E+06    -76.4925E+06     4.46632E+06         40.5587
            1621     4.44486E-03     102.305E-03         3.62010         1.01247     486.226E-03     739.773E-03         3.36655         1.01247        -1.53061     235.409E-03    -117.517E-03    -117.892E-03    -117.488E-03     235.380E-03    -117.892E-03     5.95672E-03    -60.1379E+06    -93.5373E+06    -241.909E+06    -93.8004E+06    -241.646E+06    -60.1379E+06     5.94268E+06         41.1331
            1622     5.33440E-03     102.310E-03         3.69979     948.153E-03     476.490E-03     525.780E-03         3.65050     948.153E-03    -758.114E-03     235.056E-03    -117.106E-03    -117.950E-03    -117.033E-03     234.982E-03    -117.950E-03     9.85065E-03    -42.2046E+06    -85.6066E+06    -227.649E+06    -85.9688E+06    -227.287E+06    -42.2046E+06     7.07533E+06         41.8726
            1623     6.22653E-03     102.320E-03         3.99886     868.385E-03     259.342E-03     292.427E-03         3.96578     868.385E-03    -689.444E-03     234.565E-03    -116.632E-03    -117.932E-03    -116.497E-03     234.430E-03    -117.932E-03     13.5564E-03    -28.8952E+06    -78.5823E+06    -208.069E+06    -78.8379E+06    -207.814E+06    -28.8952E+06     5.51063E+06         42.8019
            1624     7.11392E-03     102.335E-03         4.32062     776.264E-03     29.4577E-03     45.8932E-03         4.30418     776.264E-03    -308.716E-03     234.615E-03    -116.767E-03    -117.848E-03    -116.501E-03     234.349E-03    -117.848E-03     18.9302E-03    -23.4540E+06    -70.7457E+06    -168.751E+06    -71.0201E+06    -168.476E+06    -23.4540E+06     4.25384E+06         43.9487
            1625     8.00256E-03     102.358E-03         4.72130     671.100E-03    -272.417E-03    -255.218E-03         4.70410     671.100E-03    -377.068E-03     234.735E-03    -116.957E-03    -117.778E-03    -116.406E-03     234.184E-03    -117.778E-03     27.3213E-03    -19.0096E+06    -61.9866E+06    -116.453E+06    -62.8399E+06    -115.600E+06    -19.0096E+06     5.39250E+06         45.3356
            1626     8.89352E-03     102.394E-03         5.20961     551.014E-03    -640.557E-03    -590.225E-03         5.15928     551.014E-03        -1.06881     234.259E-03    -116.517E-03    -117.741E-03    -115.482E-03     233.224E-03    -117.741E-03     37.6451E-03    -4.34978E+06    -37.4704E+06    -72.9548E+06    -55.6054E+06    -54.8198E+06    -4.34978E+06     7.99297E+06         46.9730
            1627     9.78338E-03     102.439E-03         5.70922     415.357E-03        -1.00293    -964.616E-03         5.67090     415.357E-03    -906.685E-03     233.983E-03    -116.327E-03    -117.656E-03    -114.439E-03     232.095E-03    -117.656E-03     50.7151E-03     40.5479E+06     3.10164E+06    -51.4234E+06    -49.5588E+06     26.9964E+06     14.7886E+06     10.5398E+06         48.8363
            1628     10.6743E-03     102.507E-03         6.23207     263.976E-03        -1.36875        -1.35845         6.22177     263.976E-03    -559.177E-03     234.757E-03    -116.889E-03    -117.867E-03    -113.992E-03     231.590E-03    -117.598E-03     66.0271E-03     85.0098E+06     32.9991E+06    -46.0460E+06    -45.0918E+06     84.0556E+06     32.9991E+06     10.8822E+06         50.8325
            1629     11.5647E-03     102.584E-03         6.77599     97.7522E-03        -1.74447        -1.73873         6.77026     97.7522E-03    -222.997E-03     236.767E-03    -117.470E-03    -119.297E-03    -113.484E-03     231.129E-03    -117.645E-03     87.7677E-03     96.5966E+06     57.2529E+06    -41.2202E+06    -40.5501E+06     95.9265E+06     57.2529E+06     9.41709E+06         52.8122
            1630     12.4557E-03     102.711E-03         7.32549    -82.4696E-03        -2.12055        -2.12000         7.32494    -82.4696E-03     6.72799E-03     239.878E-03    -117.692E-03    -122.186E-03    -113.017E-03     230.709E-03    -117.692E-03     113.241E-03     102.489E+06     85.3615E+06    -33.8086E+06    -33.3260E+06     102.007E+06     85.3615E+06     8.03023E+06         54.6725
            1631     13.3458E-03     102.848E-03         7.88374    -270.284E-03        -2.49680        -2.49624         7.88318    -270.284E-03     18.1452E-03     240.260E-03    -117.676E-03    -122.583E-03    -113.576E-03     231.252E-03    -117.676E-03     112.257E-03     108.375E+06     102.293E+06    -25.3322E+06    -24.9492E+06     107.992E+06     102.293E+06     7.05968E+06         56.4898
            1632     14.2366E-03     102.971E-03         8.43422    -465.084E-03        -2.85622        -2.85467         8.43267    -465.084E-03    -84.0913E-03     248.132E-03    -117.621E-03    -130.512E-03    -115.455E-03     233.075E-03    -117.621E-03     142.797E-03     119.754E+06     108.273E+06    -16.1104E+06    -15.8405E+06     119.484E+06     108.273E+06     5.33903E+06         58.4744
            1633     15.1289E-03     103.195E-03         8.97904    -658.367E-03        -3.20606        -3.20454         8.97752    -658.367E-03    -256.002E-03     245.746E-03    -117.014E-03    -128.732E-03    -116.487E-03     234.056E-03    -117.569E-03     103.570E-03     132.684E+06     110.256E+06    -8.52575E+06    -8.43317E+06     132.591E+06     110.256E+06     2.48746E+06         60.6060
            1634     888.686E-06     103.573E-03         7.28096         1.16323        -3.41583     97.9558E-03         3.76717         1.16323        -3.84833     234.942E-03    -117.295E-03    -117.647E-03    -117.388E-03     234.940E-03    -117.553E-03     1.07878E-03    -109.874E+06    -113.356E+06    -271.151E+06    -112.875E+06    -271.081E+06    -110.425E+06     351.880E+03         39.6210
            1635     1.77875E-03     103.574E-03         5.05101     626.549E-03    -629.495E-03     608.826E-03         3.81269     626.549E-03         1.53385     235.158E-03    -117.495E-03    -117.664E-03    -117.609E-03     235.158E-03    -117.548E-03     215.871E-06    -105.759E+06    -112.774E+06    -272.432E+06    -112.844E+06    -272.362E+06    -105.759E+06     2.39125E+06         39.8023
            1636     2.66794E-03     103.569E-03         4.19524     613.282E-03     241.652E-03     555.083E-03         3.88181     613.282E-03        -1.55423     235.174E-03    -117.419E-03    -117.754E-03    -117.530E-03     235.173E-03    -117.643E-03     201.351E-06    -94.3471E+06    -108.098E+06    -266.204E+06    -108.147E+06    -266.154E+06    -94.3471E+06     2.56002E+06         40.1015
            1637     3.55670E-03     103.569E-03         4.18116     584.408E-03     303.192E-03     428.161E-03         4.05619     584.408E-03        -1.01312     235.100E-03    -117.368E-03    -117.732E-03    -117.379E-03     235.095E-03    -117.716E-03     2.16286E-03    -77.9646E+06    -101.580E+06    -256.219E+06    -101.668E+06    -256.131E+06    -77.9646E+06     3.48885E+06         40.5334
            1638     4.44787E-03     103.570E-03         4.44273     536.366E-03     108.720E-03     258.747E-03         4.29270     536.366E-03        -1.42772     235.309E-03    -117.507E-03    -117.803E-03    -117.482E-03     235.285E-03    -117.803E-03     5.27577E-03    -60.1591E+06    -94.7552E+06    -244.960E+06    -94.8801E+06    -244.835E+06    -60.1591E+06     3.37614E+06         41.1139
            1639     5.33638E-03     103.575E-03         4.57678     473.382E-03     41.4335E-03     77.1297E-03         4.54109     473.382E-03    -764.900E-03     235.404E-03    -117.515E-03    -117.889E-03    -117.452E-03     235.341E-03    -117.889E-03     9.01583E-03    -44.7635E+06    -84.0777E+06    -230.033E+06    -84.2801E+06    -229.830E+06    -44.7635E+06     2.77997E+06         41.8602
            1640     6.22281E-03     103.584E-03         4.83465     398.972E-03    -148.949E-03    -124.808E-03         4.81051     398.972E-03    -679.568E-03     235.022E-03    -117.093E-03    -117.929E-03    -116.964E-03     234.893E-03    -117.929E-03     13.2490E-03    -31.4260E+06    -73.3243E+06    -208.033E+06    -73.4802E+06    -207.877E+06    -31.4260E+06     2.63551E+06         42.7941
            1641     7.11433E-03     103.599E-03         5.16336     311.318E-03    -402.545E-03    -387.690E-03         5.14851     311.318E-03    -359.146E-03     234.759E-03    -116.859E-03    -117.900E-03    -116.546E-03     234.446E-03    -117.900E-03     20.3847E-03    -21.8935E+06    -66.0423E+06    -171.778E+06    -66.2129E+06    -171.608E+06    -21.8935E+06     3.38628E+06         43.9408
            1642     8.00356E-03     103.624E-03         5.52152     209.372E-03    -673.789E-03    -657.783E-03         5.50551     209.372E-03    -422.669E-03     234.953E-03    -116.997E-03    -117.956E-03    -116.516E-03     234.347E-03    -117.831E-03     28.9520E-03    -18.0706E+06    -60.7051E+06    -119.280E+06    -61.1945E+06    -118.790E+06    -18.0706E+06     3.92184E+06         45.3235
            1643     8.89249E-03     103.656E-03         5.97505     93.7818E-03        -1.01663    -974.194E-03         5.93261     93.7818E-03        -1.07427     234.589E-03    -116.677E-03    -117.912E-03    -115.799E-03     233.586E-03    -117.788E-03     37.1920E-03    -8.54495E+06    -43.7365E+06    -71.1024E+06    -55.0432E+06    -59.7956E+06    -8.54495E+06     4.67943E+06         46.9541
            1644     9.78276E-03     103.705E-03         6.44335    -37.0573E-03        -1.35401        -1.32237         6.41171    -37.0573E-03    -909.800E-03     233.699E-03    -115.998E-03    -117.701E-03    -114.205E-03     231.906E-03    -117.701E-03     49.3262E-03     33.7579E+06    -4.64250E+06    -48.3733E+06    -46.9040E+06     17.6291E+06     10.0169E+06     8.99154E+06         48.8122
            1645     10.6743E-03     103.767E-03         6.89411    -182.339E-03        -1.66413        -1.65362         6.88361    -182.339E-03    -598.403E-03     234.301E-03    -116.416E-03    -117.884E-03    -113.509E-03     231.124E-03    -117.615E-03     65.8689E-03     82.5036E+06     32.5079E+06    -41.8297E+06    -40.3178E+06     80.9917E+06     32.5079E+06     13.4929E+06         50.8104
            1646     11.5621E-03     103.856E-03         7.36964    -340.334E-03        -1.98939        -1.98389         7.36414    -340.334E-03    -265.211E-03     236.040E-03    -117.401E-03    -118.639E-03    -112.819E-03     230.448E-03    -117.629E-03     87.3967E-03     98.0352E+06     60.5148E+06    -37.5920E+06    -36.2812E+06     96.7245E+06     60.5148E+06     12.7526E+06         52.7971
            1647     12.4547E-03     103.964E-03         7.85125    -511.452E-03        -2.31559        -2.31518         7.85083    -511.452E-03    -34.9124E-03     239.788E-03    -117.646E-03    -122.142E-03    -112.818E-03     230.464E-03    -117.646E-03     113.960E-03     103.722E+06     88.5457E+06    -31.5163E+06    -30.7697E+06     102.976E+06     88.5457E+06     9.61088E+06         54.6639
            1648     13.3482E-03     104.120E-03         8.31549    -688.513E-03        -2.62057        -2.62007         8.31499    -688.513E-03    -13.3144E-03     241.286E-03    -117.646E-03    -123.640E-03    -114.532E-03     232.177E-03    -117.646E-03     112.860E-03     111.701E+06     104.414E+06    -23.3743E+06    -22.9457E+06     111.273E+06     104.414E+06     7.32805E+06         56.4871
            1649     14.2359E-03     104.232E-03         8.76945    -869.657E-03        -2.90520        -2.90393         8.76817    -869.657E-03    -94.2843E-03     248.846E-03    -117.651E-03    -131.195E-03    -116.458E-03     234.109E-03    -117.651E-03     141.296E-03     122.184E+06     109.074E+06    -14.0538E+06    -13.8908E+06     122.021E+06     109.074E+06     3.46047E+06         58.4798
            1650     15.1255E-03     104.461E-03         9.22004        -1.04621        -3.18319        -3.18187         9.21871        -1.04621    -239.968E-03     244.999E-03    -116.068E-03    -128.932E-03    -115.835E-03     233.462E-03    -117.627E-03     103.219E-03     133.238E+06     112.408E+06    -5.48961E+06    -5.47753E+06     133.225E+06     112.408E+06     1.09636E+06         60.6275
            1651     890.531E-06     104.837E-03         6.71281         1.44773        -3.15916        -1.20565         4.75930         1.44773        -2.91624     234.819E-03    -117.016E-03    -117.802E-03    -117.035E-03     234.818E-03    -117.783E-03     80.4406E-06    -111.853E+06    -120.173E+06    -277.856E+06    -118.730E+06    -277.742E+06    -113.410E+06     2.05909E+06         39.5922
            1652     1.77929E-03     104.837E-03         5.45505     106.714E-03    -570.541E-03     51.4202E-03         4.83309     106.714E-03         1.27684     234.918E-03    -117.311E-03    -117.607E-03    -117.425E-03     234.917E-03    -117.492E-03    -219.373E-06    -102.173E+06    -113.844E+06    -274.177E+06    -113.924E+06    -274.096E+06    -102.173E+06     2.64120E+06         39.7737
            1653     2.66800E-03     104.835E-03         5.02327     83.7843E-03    -111.169E-03     24.6340E-03         4.88747     83.7843E-03        -1.28177     235.385E-03    -117.569E-03    -117.816E-03    -117.780E-03     235.384E-03    -117.604E-03     149.307E-06    -92.2543E+06    -108.401E+06    -268.057E+06    -108.430E+06    -268.029E+06    -92.2543E+06     1.70414E+06         40.0757
            1654     3.55727E-03     104.832E-03         5.15904     50.0065E-03    -197.655E-03    -144.068E-03         5.10545     50.0065E-03    -912.590E-03     235.509E-03    -117.603E-03    -117.906E-03    -117.748E-03     235.504E-03    -117.756E-03     2.05883E-03    -78.4088E+06    -101.497E+06    -259.220E+06    -101.539E+06    -259.178E+06    -78.4088E+06     1.24536E+06         40.5102
            1655     4.44503E-03     104.835E-03         5.40708    -5.16380E-03    -375.089E-03    -305.461E-03         5.33745    -5.16380E-03        -1.18454     235.276E-03    -117.393E-03    -117.884E-03    -117.405E-03     235.256E-03    -117.851E-03     4.95272E-03    -62.3790E+06    -92.7084E+06    -245.008E+06    -92.7544E+06    -244.962E+06    -62.3790E+06     127.079E+03         41.0924
            1656     5.33446E-03     104.840E-03         5.61652    -72.3912E-03    -514.627E-03    -489.110E-03         5.59100    -72.3912E-03    -712.495E-03     234.967E-03    -117.089E-03    -117.877E-03    -117.026E-03     234.903E-03    -117.877E-03     9.02011E-03    -48.9067E+06    -84.7496E+06    -229.612E+06    -84.7836E+06    -229.578E+06    -48.9067E+06    -2.07102E+06         41.8417
            1657     6.22583E-03     104.849E-03         5.85977    -149.504E-03    -694.442E-03    -679.549E-03         5.84488    -149.504E-03    -590.862E-03     235.037E-03    -117.071E-03    -117.966E-03    -117.011E-03     234.889E-03    -117.879E-03     14.1683E-03    -38.1658E+06    -76.3428E+06    -209.487E+06    -76.4322E+06    -209.398E+06    -38.1658E+06    -2.09047E+06         42.7790
            1658     7.11375E-03     104.863E-03         6.14358    -236.391E-03    -910.959E-03    -900.456E-03         6.13307    -236.391E-03    -332.339E-03     235.142E-03    -117.173E-03    -117.969E-03    -116.960E-03     234.842E-03    -117.882E-03     20.2137E-03    -27.5129E+06    -66.2895E+06    -173.581E+06    -66.6943E+06    -173.177E+06    -27.5129E+06    -1.11848E+06         43.9253
            1659     8.00434E-03     104.889E-03         6.47032    -334.705E-03        -1.15987        -1.14844         6.45890    -334.705E-03    -378.578E-03     234.940E-03    -116.972E-03    -117.968E-03    -116.508E-03     234.352E-03    -117.844E-03     28.3492E-03    -21.1302E+06    -56.6201E+06    -122.408E+06    -56.9702E+06    -122.058E+06    -21.1302E+06     2.21227E+03         45.3032
            1660     8.89185E-03     104.925E-03         6.86961    -445.021E-03        -1.46127        -1.43092         6.83926    -445.021E-03    -986.881E-03     234.253E-03    -116.353E-03    -117.900E-03    -115.477E-03     233.253E-03    -117.775E-03     37.1559E-03    -13.0986E+06    -44.5010E+06    -72.6177E+06    -50.9862E+06    -66.1325E+06    -13.0986E+06     2.61367E+06         46.9300
            1661     9.78146E-03     104.966E-03         7.26253    -567.679E-03        -1.73914        -1.71555         7.23895    -567.679E-03    -858.665E-03     233.852E-03    -116.176E-03    -117.675E-03    -114.215E-03     231.890E-03    -117.675E-03     51.1824E-03     21.9457E+06    -11.5829E+06    -49.8359E+06    -48.0401E+06     5.08974E+06     3.47722E+06     8.35992E+06         48.7900
            1662     10.6718E-03     105.033E-03         7.64708    -702.260E-03        -1.99919        -1.99020         7.63809    -702.260E-03    -586.580E-03     233.847E-03    -116.303E-03    -117.544E-03    -112.923E-03     230.467E-03    -117.544E-03     67.9863E-03     73.3461E+06     23.0861E+06    -44.7821E+06    -43.0913E+06     71.6553E+06     23.0861E+06     13.8972E+06         50.7971
            1663     11.5672E-03     105.116E-03         8.03696    -847.854E-03        -2.26157        -2.25706         8.03246    -847.854E-03    -266.206E-03     235.768E-03    -116.848E-03    -118.920E-03    -112.637E-03     230.161E-03    -117.525E-03     87.5619E-03     101.320E+06     55.2399E+06    -36.4206E+06    -34.8264E+06     99.7253E+06     55.2399E+06     14.6154E+06         52.7964
            1664     12.4585E-03     105.230E-03         8.40963        -1.00456        -2.50380        -2.50322         8.40905        -1.00456    -77.3776E-03     240.854E-03    -117.616E-03    -123.238E-03    -114.042E-03     231.658E-03    -117.616E-03     113.571E-03     109.044E+06     91.0708E+06    -27.9248E+06    -26.8200E+06     107.939E+06     91.0708E+06     12.1221E+06         54.6684
            1665     13.3452E-03     105.384E-03         8.77936        -1.16474        -2.73699        -2.73625         8.77863        -1.16474    -37.8843E-03     241.398E-03    -117.675E-03    -123.723E-03    -114.630E-03     232.306E-03    -117.675E-03     112.953E-03     116.312E+06     108.727E+06    -20.3628E+06    -19.8861E+06     115.835E+06     108.727E+06     7.30464E+06         56.4889
            1666     14.2359E-03     105.499E-03         9.14297        -1.32722        -2.95661        -2.95506         9.14143        -1.32722    -111.842E-03     249.052E-03    -117.684E-03    -131.368E-03    -116.527E-03     234.212E-03    -117.684E-03     142.167E-03     125.543E+06     112.078E+06    -13.1334E+06    -13.0733E+06     125.482E+06     112.078E+06     2.05774E+06         58.4832
            1667     15.1254E-03     105.725E-03         9.49024        -1.48220        -3.15779        -3.15634         9.48879        -1.48220    -227.476E-03     245.141E-03    -115.614E-03    -129.527E-03    -115.979E-03     233.643E-03    -117.664E-03     102.053E-03     133.312E+06     113.443E+06    -6.19812E+06    -6.17375E+06     133.287E+06     113.443E+06     1.31909E+06         60.6485
            1668     887.635E-06     106.101E-03         6.43548         1.80458        -3.33218        -2.65954         5.76284         1.80458        -1.60186     235.906E-03    -116.976E-03    -118.930E-03    -118.203E-03     235.905E-03    -117.703E-03    -807.789E-06    -115.744E+06    -122.648E+06    -281.325E+06    -121.141E+06    -281.275E+06    -117.300E+06     1.62589E+06         39.5772
            1669     1.77825E-03     106.100E-03         6.10278    -446.321E-03    -736.121E-03    -532.988E-03         5.89965    -446.321E-03     866.051E-03     235.059E-03    -117.182E-03    -117.876E-03    -117.181E-03     235.057E-03    -117.876E-03    -1.13309E-03    -103.719E+06    -113.915E+06    -276.487E+06    -113.943E+06    -276.459E+06    -103.719E+06     294.056E+03         39.7533
            1670     2.66830E-03     106.099E-03         6.03405    -484.948E-03    -633.288E-03    -590.298E-03         5.99106    -484.948E-03    -928.464E-03     235.039E-03    -117.218E-03    -117.821E-03    -117.318E-03     235.038E-03    -117.720E-03     71.5445E-06    -95.0075E+06    -108.932E+06    -268.349E+06    -108.960E+06    -268.321E+06    -95.0075E+06     203.550E+03         40.0529
            1671     3.55643E-03     106.098E-03         6.26726    -532.797E-03    -802.455E-03    -776.354E-03         6.24116    -532.797E-03    -816.680E-03     235.450E-03    -117.564E-03    -117.886E-03    -117.690E-03     235.443E-03    -117.752E-03     2.67435E-03    -83.3534E+06    -102.648E+06    -258.757E+06    -102.683E+06    -258.722E+06    -83.3534E+06    -1.53971E+06         40.4886
            1672     4.44616E-03     106.100E-03         6.50650    -597.572E-03    -964.961E-03    -931.805E-03         6.47334    -597.572E-03    -955.108E-03     235.291E-03    -117.435E-03    -117.855E-03    -117.443E-03     235.266E-03    -117.823E-03     5.68378E-03    -70.8579E+06    -95.4655E+06    -243.696E+06    -95.5474E+06    -243.614E+06    -70.8579E+06    -3.08765E+06         41.0725
            1673     5.33599E-03     106.103E-03         6.76663    -672.287E-03        -1.15626        -1.13717         6.74755    -672.287E-03    -607.738E-03     234.812E-03    -116.970E-03    -117.842E-03    -116.912E-03     234.753E-03    -117.842E-03     8.80702E-03    -57.4578E+06    -88.6602E+06    -226.493E+06    -88.8290E+06    -226.324E+06    -57.4578E+06    -4.26297E+06         41.8214
            1674     6.22508E-03     106.113E-03         7.01084    -756.505E-03        -1.33118        -1.32167         7.00134    -756.505E-03    -462.364E-03     234.951E-03    -117.033E-03    -117.919E-03    -116.973E-03     234.805E-03    -117.832E-03     13.9800E-03    -47.1155E+06    -79.9712E+06    -207.752E+06    -80.6247E+06    -207.099E+06    -47.1155E+06    -7.60654E+06         42.7563
            1675     7.11383E-03     106.131E-03         7.25624    -846.212E-03        -1.50945        -1.50015         7.24694    -846.212E-03    -278.291E-03     235.315E-03    -117.395E-03    -117.920E-03    -117.158E-03     234.991E-03    -117.833E-03     20.9570E-03    -39.9451E+06    -70.8083E+06    -174.434E+06    -71.8861E+06    -173.356E+06    -39.9451E+06    -9.81360E+06         43.8985
            1676     8.00039E-03     106.153E-03         7.52854    -941.716E-03        -1.70965        -1.70058         7.51947    -941.716E-03    -293.528E-03     234.416E-03    -116.613E-03    -117.803E-03    -115.981E-03     233.784E-03    -117.803E-03     29.2957E-03    -31.1926E+06    -62.9314E+06    -129.611E+06    -63.9036E+06    -128.639E+06    -31.1926E+06    -6.78263E+06         45.2730
            1677     8.89374E-03     106.189E-03         7.84179        -1.04438        -1.93760        -1.91692         7.82111        -1.04438    -888.382E-03     233.299E-03    -115.617E-03    -117.682E-03    -114.593E-03     232.276E-03    -117.682E-03     37.5506E-03    -20.1730E+06    -52.3662E+06    -79.3221E+06    -55.6788E+06    -76.0095E+06    -20.1730E+06    -496.049E+03         46.9029
            1678     9.78582E-03     106.229E-03         8.15896        -1.15581        -2.16071        -2.14506         8.14331        -1.15581    -753.303E-03     233.452E-03    -115.922E-03    -117.530E-03    -113.967E-03     231.497E-03    -117.530E-03     51.0354E-03     9.81272E+06    -20.1829E+06    -50.5532E+06    -48.7017E+06    -8.11776E+06    -4.10387E+06     7.34558E+06         48.7757
            1679     10.6768E-03     106.298E-03         8.47447        -1.27712        -2.37267        -2.36573         8.46753        -1.27712    -544.915E-03     234.279E-03    -116.381E-03    -117.898E-03    -113.601E-03     231.020E-03    -117.419E-03     66.9865E-03     66.2071E+06     16.0025E+06    -45.6747E+06    -44.0154E+06     64.5477E+06     16.0025E+06     13.3232E+06         50.7998
            1680     11.5655E-03     106.374E-03         8.76236        -1.40739        -2.55390        -2.55030         8.75876        -1.40739    -262.625E-03     237.208E-03    -117.028E-03    -120.181E-03    -114.270E-03     231.747E-03    -117.476E-03     86.6738E-03     103.111E+06     45.6593E+06    -39.9965E+06    -38.7064E+06     101.821E+06     45.6593E+06     13.3710E+06         52.8089
            1681     12.4533E-03     106.501E-03         9.02741        -1.54597        -2.71333        -2.71257         9.02665        -1.54597    -115.026E-03     241.059E-03    -117.660E-03    -123.399E-03    -114.545E-03     232.205E-03    -117.660E-03     111.678E-03     111.113E+06     82.9061E+06    -31.1443E+06    -30.3059E+06     110.275E+06     82.9061E+06     10.6201E+06         54.6754
            1682     13.3458E-03     106.643E-03         9.27846        -1.68490        -2.85919        -2.85824         9.27751        -1.68490    -65.0256E-03     240.336E-03    -117.745E-03    -122.592E-03    -113.704E-03     231.449E-03    -117.745E-03     111.675E-03     119.909E+06     108.469E+06    -21.3204E+06    -20.8567E+06     119.445E+06     108.469E+06     7.54692E+06         56.4779
            1683     14.2372E-03     106.768E-03         9.52736        -1.82423        -2.99774        -2.99611         9.52573        -1.82423    -122.322E-03     248.127E-03    -117.691E-03    -130.436E-03    -115.320E-03     233.011E-03    -117.691E-03     143.213E-03     127.158E+06     112.722E+06    -15.8161E+06    -15.6424E+06     126.985E+06     112.722E+06     4.09253E+06         58.4620
            1684     15.1254E-03     106.991E-03         9.76891        -1.95349        -3.12605        -3.12461         9.76746        -1.95349    -198.558E-03     244.984E-03    -115.960E-03    -129.024E-03    -115.740E-03     233.354E-03    -117.614E-03     101.123E-03     134.865E+06     112.893E+06    -9.72022E+06    -9.63114E+06     134.776E+06     112.893E+06     1.04778E+06         60.6503
            1685     888.774E-06     107.366E-03         7.02769         1.94850        -4.17573        -4.08164         6.93360         1.94850    -286.327E-03     236.368E-03    -117.381E-03    -118.987E-03    -118.603E-03     236.362E-03    -117.760E-03    -1.89086E-03    -118.729E+06    -122.770E+06    -279.899E+06    -122.572E+06    -279.892E+06    -118.935E+06    -202.843E+03         39.5619
            1686     1.77673E-03     107.364E-03         7.12306        -1.08523        -1.20793        -1.17752         7.09266        -1.08523     400.340E-03     235.267E-03    -117.219E-03    -118.048E-03    -117.218E-03     235.266E-03    -118.048E-03    -286.345E-06    -109.481E+06    -116.323E+06    -277.998E+06    -116.342E+06    -277.979E+06    -109.481E+06    -1.31280E+06         39.7348
            1687     2.66662E-03     107.362E-03         7.23342        -1.12899        -1.28460        -1.25779         7.20661        -1.12899    -642.279E-03     234.844E-03    -117.054E-03    -117.790E-03    -117.051E-03     234.841E-03    -117.790E-03     1.21603E-03    -100.453E+06    -110.516E+06    -267.146E+06    -110.572E+06    -267.090E+06    -100.453E+06    -2.42417E+06         40.0315
            1688     3.55779E-03     107.363E-03         7.48266        -1.18253        -1.46343        -1.43792         7.45714        -1.18253    -813.494E-03     235.076E-03    -117.352E-03    -117.723E-03    -117.345E-03     235.069E-03    -117.723E-03     3.01429E-03    -87.5297E+06    -104.346E+06    -254.854E+06    -104.508E+06    -254.691E+06    -87.5297E+06    -4.23580E+06         40.4675
            1689     4.44612E-03     107.364E-03         7.72361        -1.25189        -1.63634        -1.61511         7.70238        -1.25189    -780.177E-03     235.252E-03    -117.488E-03    -117.763E-03    -117.468E-03     235.232E-03    -117.763E-03     5.12205E-03    -74.2577E+06    -96.3450E+06    -240.626E+06    -96.8580E+06    -240.113E+06    -74.2577E+06    -7.58207E+06         41.0534
            1690     5.33479E-03     107.368E-03         7.98357        -1.33038        -1.82193        -1.80342         7.96506        -1.33038    -542.031E-03     235.277E-03    -117.459E-03    -117.819E-03    -117.396E-03     235.215E-03    -117.819E-03     8.95285E-03    -61.1490E+06    -85.2176E+06    -222.473E+06    -86.4381E+06    -221.252E+06    -61.1490E+06    -11.5271E+06         41.8017
            1691     6.22365E-03     107.378E-03         8.22152        -1.41577        -1.98995        -1.98081         8.21238        -1.41577    -381.697E-03     234.994E-03    -117.141E-03    -117.853E-03    -116.983E-03     234.837E-03    -117.853E-03     14.5392E-03    -48.7186E+06    -75.3363E+06    -203.673E+06    -77.0456E+06    -201.964E+06    -48.7186E+06    -14.0617E+06         42.7309
            1692     7.11440E-03     107.394E-03         8.44168        -1.50478        -2.14727        -2.13708         8.43149        -1.50478    -266.661E-03     234.210E-03    -116.406E-03    -117.804E-03    -116.078E-03     233.882E-03    -117.804E-03     21.0577E-03    -39.9296E+06    -68.0930E+06    -176.105E+06    -69.8788E+06    -174.319E+06    -39.9296E+06    -13.7340E+06         43.8672
            1693     8.00613E-03     107.420E-03         8.62289        -1.59421        -2.26692        -2.25946         8.61542        -1.59421    -198.513E-03     233.713E-03    -116.041E-03    -117.672E-03    -115.433E-03     233.104E-03    -117.672E-03     28.7626E-03    -35.2213E+06    -62.0424E+06    -136.151E+06    -64.1935E+06    -134.000E+06    -35.2213E+06    -12.0329E+06         45.2431
            1694     8.89445E-03     107.448E-03         8.85458        -1.68524        -2.42866        -2.41510         8.84103        -1.68524    -769.153E-03     233.872E-03    -116.310E-03    -117.562E-03    -115.294E-03     232.855E-03    -117.562E-03     37.3880E-03    -26.9239E+06     -56.549E+06    -87.5912E+06    -58.2543E+06    -85.8860E+06    -26.9239E+06    -6.93600E+06         46.8825
            1695     9.78347E-03     107.497E-03         9.10353        -1.78233        -2.59963        -2.59040         9.09430        -1.78233    -611.876E-03     233.940E-03    -116.443E-03    -117.497E-03    -114.708E-03     232.206E-03    -117.497E-03     48.6842E-03    -758.097E+03    -26.9855E+06    -56.3767E+06    -50.5365E+06    -23.4936E+06    -10.0901E+06     2.93753E+06         48.7686
            1696     10.6751E-03     107.555E-03         9.33371        -1.88727        -2.74897        -2.74461         9.32935        -1.88727    -448.753E-03     235.169E-03    -116.898E-03    -118.272E-03    -114.585E-03     232.036E-03    -117.451E-03     65.4954E-03     57.9938E+06     10.4098E+06    -44.7977E+06    -43.5261E+06     56.7221E+06     10.4098E+06     11.0741E+06         50.8032
            1697     11.5639E-03     107.650E-03         9.52893        -1.99907        -2.86490        -2.86238         9.52641        -1.99907    -215.476E-03     237.447E-03    -117.547E-03    -119.900E-03    -114.417E-03     231.964E-03    -117.547E-03     87.0655E-03     103.687E+06     42.6709E+06    -37.8001E+06    -36.5739E+06     102.461E+06     42.6709E+06     12.9093E+06         52.8143
            1698     12.4535E-03     107.759E-03         9.68939        -2.11663        -2.94720        -2.94644         9.68863        -2.11663    -108.783E-03     241.073E-03    -117.720E-03    -123.353E-03    -114.156E-03     231.876E-03    -117.720E-03     113.444E-03     114.024E+06     81.4958E+06    -30.9945E+06    -30.2206E+06     113.250E+06     81.4958E+06     10.1268E+06         54.6725
            1699     13.3430E-03     107.912E-03         9.82023        -2.23152        -3.00329        -3.00235         9.81929        -2.23152    -62.1919E-03     240.528E-03    -117.785E-03    -122.744E-03    -113.689E-03     231.473E-03    -117.785E-03     112.288E-03     120.600E+06     106.019E+06    -23.6003E+06    -23.2697E+06     120.270E+06     106.019E+06     6.71787E+06         56.4544
            1700     14.2342E-03     108.025E-03         9.93587        -2.34418        -3.04954        -3.04814         9.93448        -2.34418    -101.016E-03     246.794E-03    -117.688E-03    -129.106E-03    -113.686E-03     231.374E-03    -117.688E-03     142.923E-03     129.428E+06     114.737E+06    -13.9943E+06    -13.7717E+06     129.205E+06     114.737E+06     5.51460E+06         58.4230
            1701     15.1307E-03     108.258E-03         10.0417        -2.44497        -3.08978        -3.08860         10.0405        -2.44497    -166.817E-03     244.414E-03    -116.326E-03    -128.088E-03    -114.699E-03     232.227E-03    -117.528E-03     102.362E-03     138.444E+06     117.870E+06    -5.00336E+06    -4.87505E+06     138.316E+06     117.870E+06     2.16654E+06         60.6307
            1702     888.539E-06     108.633E-03         8.44056         1.80705        -5.53396        -5.45283         8.35943         1.80705     829.229E-03     235.151E-03    -117.022E-03    -118.129E-03    -117.327E-03     235.142E-03    -117.815E-03    -860.642E-06    -117.883E+06    -122.224E+06    -277.977E+06    -122.082E+06    -277.913E+06    -118.089E+06    -2.56916E+06         39.5335
            1703     1.77915E-03     108.627E-03         8.45284        -1.83264        -1.91926        -1.88734         8.42365        -1.83538     10.7367E-03     235.437E-03    -117.364E-03    -118.073E-03    -117.755E-03     235.435E-03    -117.680E-03    -440.604E-06    -105.999E+06    -114.657E+06    -274.147E+06    -114.827E+06    -273.977E+06    -105.999E+06    -4.38702E+06         39.7120
            1704     2.66853E-03     108.626E-03         8.56767        -1.86055        -2.00474        -1.95945         8.52513        -1.86329    -331.205E-03     235.128E-03    -117.330E-03    -117.798E-03    -117.405E-03     235.124E-03    -117.720E-03     1.36767E-03    -97.5279E+06    -107.674E+06    -264.431E+06    -107.989E+06    -264.116E+06    -97.5279E+06    -6.34941E+06         40.0099
            1705     3.55611E-03     108.626E-03         8.79388        -1.90759        -2.16244        -2.13168         8.76312        -1.90759    -754.364E-03     234.955E-03    -117.263E-03    -117.693E-03    -117.253E-03     234.945E-03    -117.693E-03     3.55432E-03    -87.3928E+06    -100.662E+06    -248.792E+06    -101.261E+06    -248.193E+06    -87.3928E+06    -8.80639E+06         40.4442
            1706     4.44630E-03     108.629E-03         9.01588        -1.97019        -2.31811        -2.30176         8.99952        -1.97019    -547.532E-03     235.108E-03    -117.402E-03    -117.706E-03    -117.374E-03     235.080E-03    -117.706E-03     5.96082E-03    -75.2038E+06    -92.0391E+06    -232.553E+06    -93.5811E+06    -231.011E+06    -75.2038E+06    -13.6443E+06         41.0295
            1707     5.33564E-03     108.633E-03         9.26103        -2.04325        -2.50155        -2.48497         9.24446        -2.04325    -447.891E-03     235.186E-03    -117.430E-03    -117.755E-03    -117.359E-03     235.114E-03    -117.755E-03     9.74988E-03    -63.9528E+06    -84.1007E+06    -217.513E+06    -86.6380E+06    -214.976E+06    -63.9528E+06    -17.9914E+06         41.7773
            1708     6.22509E-03     108.643E-03         9.43594        -2.12086        -2.61951        -2.61148         9.42790        -2.12086    -257.193E-03     234.762E-03    -116.976E-03    -117.786E-03    -116.808E-03     234.594E-03    -117.786E-03     15.0379E-03    -52.4705E+06    -76.6540E+06    -201.596E+06    -79.7234E+06    -198.527E+06    -52.4705E+06    -18.9121E+06         42.7051
            1709     7.11318E-03     108.659E-03         9.58497        -2.19713        -2.71895        -2.71031         9.57633        -2.19713    -206.785E-03     234.197E-03    -116.400E-03    -117.796E-03    -116.150E-03     233.886E-03    -117.736E-03     20.6567E-03    -44.0824E+06    -67.7690E+06    -176.881E+06    -71.8989E+06    -172.751E+06    -44.0824E+06    -19.5228E+06         43.8421
            1710     8.00428E-03     108.679E-03         9.71592        -2.27135        -2.79786        -2.79308         9.71113        -2.27135    -77.3035E-03     234.010E-03    -116.306E-03    -117.703E-03    -115.839E-03     233.482E-03    -117.643E-03     26.9099E-03    -38.1996E+06    -59.1722E+06    -140.726E+06    -63.6970E+06    -136.201E+06    -38.1996E+06    -17.9071E+06         45.2217
            1711     8.89517E-03     108.717E-03         9.88059        -2.34631        -2.91394        -2.90731         9.87396        -2.34631    -558.662E-03     233.927E-03    -116.353E-03    -117.574E-03    -115.409E-03     232.983E-03    -117.574E-03     35.8878E-03    -29.2791E+06    -52.5759E+06    -100.105E+06    -56.4147E+06    -96.2661E+06    -29.2791E+06    -12.7102E+06         46.8671
            1712     9.78456E-03     108.758E-03         10.0463        -2.42581        -3.03049        -3.02632         10.0421        -2.42581    -408.142E-03     234.545E-03    -116.832E-03    -117.713E-03    -115.178E-03     232.702E-03    -117.523E-03     49.9897E-03    -13.0430E+06    -31.4853E+06    -63.3959E+06    -49.3344E+06    -42.1027E+06    -16.4870E+06    -3.66638E+06         48.7589
            1713     10.6719E-03     108.824E-03         10.1919        -2.51135        -3.11906        -3.11723         10.1901        -2.51135    -292.412E-03     235.935E-03    -117.428E-03    -118.507E-03    -115.000E-03     232.474E-03    -117.474E-03     68.9132E-03     47.3268E+06    -1.10665E+06    -41.9038E+06    -41.0578E+06     44.5381E+06     836.108E+03     7.34166E+06         50.7963
            1714     11.5624E-03     108.911E-03         10.3040        -2.60163        -3.17597        -3.17478         10.3028        -2.60163    -123.554E-03     236.904E-03    -117.559E-03    -119.345E-03    -113.849E-03     231.408E-03    -117.559E-03     87.3964E-03     103.771E+06     37.0387E+06    -36.3505E+06    -35.2892E+06     102.710E+06     37.0387E+06     11.7970E+06         52.8064
            1715     12.4558E-03     109.023E-03         10.3619        -2.69545        -3.18404        -3.18355         10.3614        -2.69545    -61.0222E-03     240.249E-03    -117.710E-03    -122.539E-03    -113.232E-03     230.942E-03    -117.710E-03     113.478E-03     115.461E+06     83.0070E+06    -30.3166E+06    -29.3139E+06     114.458E+06     83.0070E+06     11.5009E+06         54.6551
            1716     13.3450E-03     109.181E-03         10.3787        -2.78448        -3.16206        -3.16142         10.3781        -2.78448    -27.6720E-03     240.091E-03    -117.726E-03    -122.364E-03    -113.025E-03     230.751E-03    -117.726E-03     113.664E-03     124.884E+06     110.231E+06    -22.4531E+06    -21.8749E+06     124.306E+06     110.231E+06     8.01165E+06         56.4207
            1717     14.2365E-03     109.284E-03         10.3652        -2.85256        -3.13551        -3.11874         10.3643        -2.86843    -56.5935E-03     246.801E-03    -117.613E-03    -129.187E-03    -113.783E-03     231.397E-03    -117.613E-03     142.864E-03     133.400E+06     118.475E+06    -13.1729E+06    -13.0592E+06     133.286E+06     118.475E+06     3.75488E+06         58.3811
            1718     15.1299E-03     109.516E-03         10.3093        -2.86129        -3.12844        -3.05063         10.3086        -2.93839    -107.934E-03     243.459E-03    -115.203E-03    -128.257E-03    -113.811E-03     231.244E-03    -117.433E-03     103.508E-03     138.736E+06     118.752E+06    -5.65934E+06    -5.60140E+06     138.678E+06     118.752E+06     2.29614E+06         60.6077
            1719     891.924E-06     109.896E-03         10.0484         1.54327        -7.03243        -6.80620         9.82219         1.54327         1.65904     234.423E-03    -116.625E-03    -117.798E-03    -117.161E-03     234.417E-03    -117.256E-03    -554.937E-06    -116.030E+06    -119.420E+06    -270.892E+06    -119.592E+06    -270.720E+06    -116.030E+06    -4.44482E+06         39.4977
            1720     1.77827E-03     109.893E-03         9.94337        -2.63173        -2.72764        -2.64883         9.86730        -2.63447    -210.070E-03     235.379E-03    -117.409E-03    -117.970E-03    -117.963E-03     235.377E-03    -117.414E-03    -987.868E-06    -109.472E+06    -116.346E+06    -268.838E+06    -116.713E+06    -268.471E+06    -109.472E+06    -7.37618E+06         39.6827
            1721     2.66659E-03     109.890E-03         9.97806        -2.64115        -2.74736        -2.68637         9.91980        -2.64389     16.7494E-03     235.284E-03    -117.426E-03    -117.858E-03    -117.666E-03     235.282E-03    -117.616E-03     930.845E-06    -102.044E+06    -109.028E+06    -255.737E+06    -110.107E+06    -254.657E+06    -102.044E+06    -11.1259E+06         39.9834
            1722     3.55805E-03     109.890E-03         10.1344        -2.67025        -2.85610        -2.82399         10.1023        -2.67025    -542.255E-03     234.675E-03    -117.061E-03    -117.614E-03    -117.051E-03     234.665E-03    -117.614E-03     3.41898E-03    -94.3330E+06    -101.103E+06    -241.061E+06    -103.253E+06    -238.911E+06    -94.3330E+06    -16.1323E+06         40.4148
            1723     4.44689E-03     109.893E-03         10.3284        -2.71867        -3.00790        -2.99470         10.3153        -2.71867    -175.693E-03     234.606E-03    -117.027E-03    -117.579E-03    -116.994E-03     234.573E-03    -117.579E-03     6.52618E-03    -83.1355E+06    -94.8866E+06    -225.248E+06    -97.6439E+06    -222.490E+06    -83.1355E+06    -18.3663E+06         40.9970
            1724     5.33578E-03     109.898E-03         10.5155        -2.77887        -3.14213        -3.13046         10.5038        -2.77887    -223.688E-03     234.783E-03    -117.174E-03    -117.608E-03    -117.098E-03     234.707E-03    -117.608E-03     10.1485E-03    -69.0949E+06    -88.5470E+06    -210.257E+06    -92.3014E+06    -206.502E+06    -69.0949E+06    -20.6503E+06         41.7461
            1725     6.22476E-03     109.907E-03         10.6210        -2.83907        -3.19963        -3.19386         10.6153        -2.83907    -34.5090E-03     234.549E-03    -116.911E-03    -117.638E-03    -116.750E-03     234.389E-03    -117.638E-03     14.7334E-03    -57.9334E+06    -79.4627E+06    -198.392E+06    -84.8496E+06    -193.005E+06    -57.9334E+06    -24.2803E+06         42.6786
            1726     7.11683E-03     109.922E-03         10.7133        -2.89582        -3.26138        -3.25543         10.7074        -2.89582    -22.0804E-03     234.578E-03    -116.893E-03    -117.685E-03    -116.614E-03     234.239E-03    -117.625E-03     21.4540E-03    -51.2375E+06    -70.6882E+06    -176.252E+06    -77.8781E+06    -169.062E+06    -51.2375E+06    -26.2986E+06         43.8208
            1727     8.00278E-03     109.948E-03         10.7802        -2.95056        -3.30150        -3.29762         10.7763        -2.95056     95.5987E-03     234.558E-03    -116.894E-03    -117.664E-03    -116.341E-03     233.945E-03    -117.603E-03     29.0319E-03    -45.7091E+06    -61.5163E+06    -146.270E+06    -70.5493E+06    -137.237E+06    -45.7091E+06    -25.5515E+06         45.2057
            1728     8.89193E-03     109.976E-03         10.8618        -3.00494        -3.35991        -3.35790         10.8598        -3.00494    -301.498E-03     234.060E-03    -116.491E-03    -117.569E-03    -115.476E-03     233.045E-03    -117.569E-03     37.2988E-03    -37.9602E+06    -52.7033E+06    -114.123E+06    -61.3672E+06    -105.459E+06    -37.9602E+06    -20.9388E+06         46.8559
            1729     9.78458E-03     110.023E-03         10.9682        -3.06359        -3.44256        -3.44167         10.9673        -3.06359    -160.151E-03     234.522E-03    -116.813E-03    -117.709E-03    -115.130E-03     232.649E-03    -117.519E-03     50.4281E-03    -26.9791E+06    -39.2427E+06    -74.3526E+06    -53.4872E+06    -60.1080E+06    -26.9791E+06    -10.8144E+06         48.7478
            1730     10.6760E-03     110.089E-03         11.0352        -3.12787        -3.48298        -3.48259         11.0348        -3.12787    -88.2162E-03     235.251E-03    -117.135E-03    -118.116E-03    -114.457E-03     231.883E-03    -117.425E-03     67.9600E-03     32.0174E+06    -17.7435E+06    -48.2956E+06    -47.4582E+06     27.0585E+06    -13.6220E+06     1.41067E+06         50.7810
            1731     11.5649E-03     110.178E-03         11.0448        -3.19468        -3.46867        -3.46814         11.0443        -3.19468     25.6451E-03     236.819E-03    -117.266E-03    -119.553E-03    -113.746E-03     231.216E-03    -117.471E-03     87.9321E-03     99.1786E+06     23.9577E+06    -41.8137E+06    -40.9815E+06     98.3464E+06     23.9577E+06     9.26244E+06         52.7874
            1732     12.4513E-03     110.287E-03         11.0098        -3.23673        -3.43922        -3.41308         11.0094        -3.26251     32.9131E-03     239.551E-03    -117.627E-03    -121.924E-03    -112.735E-03     230.362E-03    -117.627E-03     112.882E-03     115.560E+06     75.6233E+06    -34.2299E+06    -33.3557E+06     114.686E+06     75.6233E+06     10.0747E+06         54.6263
            1733     13.3485E-03     110.438E-03         10.9178        -3.22002        -3.41546        -3.31138         10.9173        -3.32367     45.0017E-03     238.174E-03    -117.450E-03    -120.724E-03    -111.382E-03     228.999E-03    -117.616E-03     112.434E-03     129.018E+06     111.136E+06    -23.6748E+06    -23.0881E+06     128.432E+06     111.136E+06     7.93036E+06         56.3756
            1734     14.2405E-03     110.552E-03         10.7695        -3.14702        -3.40389        -3.17302         10.7689        -3.37731     16.3537E-03     246.340E-03    -117.302E-03    -129.038E-03    -113.551E-03     231.019E-03    -117.468E-03     143.060E-03     136.355E+06     121.920E+06    -14.5783E+06    -14.3690E+06     136.146E+06     121.920E+06     4.78927E+06         58.3327
            1735     15.1298E-03     110.775E-03         10.5748        -3.01010        -3.41453        -3.00982         10.5745        -3.41453    -50.8854E-03     243.618E-03    -115.128E-03    -128.490E-03    -114.301E-03     231.613E-03    -117.312E-03     104.056E-03     139.232E+06     121.588E+06    -7.26947E+06    -7.24090E+06     139.203E+06     121.588E+06     1.52953E+06         60.5828
            1736     887.126E-06     111.159E-03         11.5712         1.11776        -8.27298        -7.93191         11.2301         1.11776         2.22360     234.573E-03    -116.787E-03    -117.786E-03    -117.773E-03     234.565E-03    -116.792E-03     368.771E-06    -114.542E+06    -118.970E+06    -263.786E+06    -119.114E+06    -263.642E+06    -114.542E+06    -2.00775E+06         39.4581
            1737     1.77969E-03     111.157E-03         11.3776        -3.40280        -3.51851        -3.40816         11.2673        -3.40280    -284.122E-03     234.879E-03    -117.341E-03    -117.538E-03    -117.503E-03     234.878E-03    -117.375E-03    -175.352E-06    -109.061E+06    -115.664E+06    -257.730E+06    -116.174E+06    -257.221E+06    -109.061E+06    -7.46562E+06         39.6450
            1738     2.66873E-03     111.155E-03         11.3575        -3.40617        -3.48913        -3.42503         11.2934        -3.40617     351.783E-03     234.970E-03    -117.352E-03    -117.618E-03    -117.518E-03     234.968E-03    -117.450E-03     1.19616E-03    -105.529E+06    -110.278E+06    -240.845E+06    -112.203E+06    -238.920E+06    -105.529E+06    -14.5412E+06         39.9482
            1739     3.55594E-03     111.153E-03         11.4573        -3.42097        -3.54705        -3.51606         11.4263        -3.42097    -229.078E-03     234.577E-03    -117.084E-03    -117.493E-03    -117.077E-03     234.565E-03    -117.489E-03     3.68028E-03    -96.8316E+06    -104.768E+06    -231.691E+06    -108.242E+06    -228.217E+06    -96.8316E+06    -20.6794E+06         40.3801
            1740     4.44704E-03     111.156E-03         11.5904        -3.45300        -3.65361        -3.63999         11.5768        -3.45300     226.773E-03     234.089E-03    -116.631E-03    -117.458E-03    -116.593E-03     234.051E-03    -117.458E-03     6.96039E-03    -84.8857E+06    -97.4580E+06    -220.888E+06    -102.069E+06    -216.277E+06    -84.8857E+06    -22.8577E+06         40.9607
            1741     5.33729E-03     111.162E-03         11.6971        -3.49413        -3.73143        -3.72266         11.6883        -3.49413     77.8441E-03     234.255E-03    -116.814E-03    -117.441E-03    -116.739E-03     234.168E-03    -117.429E-03     10.8442E-03    -71.6397E+06    -87.0280E+06    -201.967E+06    -93.5919E+06    -195.403E+06    -71.6397E+06    -26.0602E+06         41.7116
            1742     6.22711E-03     111.171E-03         11.7614        -3.53490        -3.76870        -3.76244         11.7552        -3.53490     235.976E-03     234.818E-03    -117.237E-03    -117.581E-03    -117.168E-03     234.657E-03    -117.489E-03     14.9204E-03    -59.9829E+06    -77.4387E+06    -192.979E+06    -86.2841E+06    -184.134E+06    -59.9829E+06    -30.3974E+06         42.6500
            1743     7.11360E-03     111.186E-03         11.7907        -3.57229        -3.78157        -3.77609         11.7852        -3.57229     208.865E-03     234.266E-03    -116.673E-03    -117.594E-03    -116.423E-03     233.937E-03    -117.514E-03     21.0626E-03    -53.0146E+06    -66.5645E+06    -174.461E+06    -77.9865E+06    -163.039E+06    -53.0146E+06    -32.5174E+06         43.7972
            1744     8.00730E-03     111.211E-03         11.7991        -3.60665        -3.77879        -3.77408         11.7944        -3.60665     339.048E-03     234.007E-03    -116.535E-03    -117.472E-03    -115.912E-03     233.384E-03    -117.472E-03     29.2013E-03    -48.7439E+06    -58.3086E+06    -150.032E+06    -71.7657E+06    -136.574E+06    -48.7439E+06    -31.9981E+06         45.1879
            1745     8.89684E-03     111.243E-03         11.8145        -3.64041        -3.79540        -3.79490         11.8140        -3.64041    -5.38566E-03     235.098E-03    -117.239E-03    -117.859E-03    -116.558E-03     234.050E-03    -117.492E-03     38.0266E-03    -42.5007E+06    -54.8762E+06    -125.450E+06    -67.9074E+06    -112.418E+06    -42.5007E+06    -27.2131E+06         46.8430
            1746     9.78273E-03     111.287E-03         11.8242        -3.66995        -3.82252        -3.81481         11.8235        -3.67698     117.259E-03     235.369E-03    -117.428E-03    -117.941E-03    -115.946E-03     233.486E-03    -117.541E-03     50.7583E-03    -32.2162E+06    -43.0682E+06    -91.3290E+06    -60.3079E+06    -73.3058E+06    -32.9997E+06    -19.9482E+06         48.7323
            1747     10.6707E-03     111.354E-03         11.8068        -3.69045        -3.83035        -3.80327         11.8061        -3.71688     154.336E-03     234.397E-03    -116.935E-03    -117.461E-03    -113.705E-03     231.133E-03    -117.428E-03     66.8259E-03     14.6350E+06    -28.0844E+06    -58.4377E+06    -50.5421E+06     4.56069E+06    -25.9056E+06    -7.48697E+06         50.7567
            1748     11.5645E-03     111.437E-03         11.7378        -3.67765        -3.82207        -3.74032         11.7368        -3.75847     209.630E-03     235.497E-03    -116.932E-03    -118.565E-03    -112.413E-03     229.753E-03    -117.339E-03     88.4522E-03     84.9532E+06     5.44893E+06    -43.3767E+06    -42.8878E+06     84.4643E+06     5.44893E+06     6.44411E+06         52.7544
            1749     12.4585E-03     111.557E-03         11.5971        -3.59049        -3.81675        -3.60733         11.5963        -3.79907     178.448E-03     239.123E-03    -117.437E-03    -121.686E-03    -112.577E-03     230.014E-03    -117.437E-03     112.734E-03     119.803E+06     61.6390E+06    -36.1575E+06    -35.5910E+06     119.236E+06     61.6390E+06     8.26186E+06         54.5864
            1750     13.3452E-03     111.693E-03         11.3915        -3.42718        -3.82994        -3.42647         11.3908        -3.82994     162.872E-03     238.016E-03    -117.321E-03    -120.695E-03    -111.573E-03     229.061E-03    -117.487E-03     111.370E-03     130.412E+06     105.059E+06    -26.9851E+06    -26.7222E+06     130.149E+06     105.059E+06     4.08042E+06         56.3225
            1751     14.2420E-03     111.814E-03         11.1343        -3.21823        -3.85185        -3.21760         11.1337        -3.85185     114.967E-03     245.017E-03    -117.192E-03    -127.825E-03    -112.373E-03     229.731E-03    -117.358E-03     142.655E-03     136.606E+06     122.740E+06    -16.4794E+06    -16.2767E+06     136.404E+06     122.740E+06     3.26090E+06         58.2646
            1752     15.1378E-03     112.037E-03         10.8374        -2.98603        -3.85716        -2.98594         10.8373        -3.85716     15.9896E-03     243.080E-03    -115.619E-03    -127.461E-03    -114.032E-03     231.211E-03    -117.179E-03     102.886E-03     143.125E+06     125.974E+06    -6.76064E+06    -6.71459E+06     143.079E+06     125.974E+06     2.23781E+06         60.5252
            1753     891.944E-06     112.423E-03         12.8774     517.353E-03        -9.12411        -8.75672         12.5100     517.353E-03         2.45802     234.232E-03    -116.646E-03    -117.586E-03    -117.444E-03     234.222E-03    -116.778E-03     462.956E-06    -110.291E+06    -116.457E+06    -256.528E+06    -115.080E+06    -256.310E+06    -111.886E+06    -2.90436E+06         39.4070
            1754     1.77824E-03     112.420E-03         12.6263        -4.11099        -4.20730        -4.09053         12.5095        -4.11099    -255.387E-03     234.265E-03    -117.056E-03    -117.209E-03    -117.098E-03     234.264E-03    -117.166E-03     555.887E-06    -99.9657E+06    -107.151E+06    -242.527E+06    -108.111E+06    -241.566E+06    -99.9657E+06    -9.83332E+06         39.5950
            1755     2.66815E-03     112.419E-03         12.6269        -4.10746        -4.18113        -4.12249         12.5682        -4.10746     671.961E-03     234.226E-03    -117.041E-03    -117.185E-03    -117.041E-03     234.222E-03    -117.181E-03     1.80678E-03    -93.0426E+06    -101.334E+06    -225.079E+06    -103.580E+06    -222.833E+06    -93.0426E+06    -16.1774E+06         39.9032
            1756     3.55956E-03     112.417E-03         12.6967        -4.11835        -4.21438        -4.18741         12.6698        -4.11835     147.682E-03     234.388E-03    -117.114E-03    -117.274E-03    -117.132E-03     234.373E-03    -117.242E-03     4.31457E-03    -83.3069E+06    -95.6788E+06    -219.344E+06    -99.2509E+06    -215.772E+06    -83.3069E+06    -20.6286E+06         40.3415
            1757     4.44744E-03     112.419E-03         12.7470        -4.13791        -4.25272        -4.23558         12.7299        -4.13791     586.335E-03     234.194E-03    -116.826E-03    -117.368E-03    -116.883E-03     234.155E-03    -117.272E-03     7.21827E-03    -77.1196E+06    -87.9173E+06    -209.975E+06    -94.3531E+06    -203.539E+06    -77.1196E+06    -26.6315E+06         40.9242
            1758     5.33812E-03     112.424E-03         12.7905        -4.16073        -4.28878        -4.27862         12.7803        -4.16073     405.029E-03     234.062E-03    -116.716E-03    -117.347E-03    -116.702E-03     233.968E-03    -117.266E-03     11.2319E-03    -72.0008E+06    -81.3596E+06    -194.285E+06    -90.3193E+06    -185.325E+06    -72.0008E+06    -30.4837E+06         41.6729
            1759     6.22647E-03     112.438E-03         12.8094        -4.18341        -4.29743        -4.28814         12.8001        -4.18341     542.451E-03     234.383E-03    -116.967E-03    -117.415E-03    -116.879E-03     234.203E-03    -117.324E-03     15.7403E-03    -61.0097E+06    -74.1402E+06    -184.236E+06    -86.1709E+06    -172.205E+06    -61.0097E+06    -33.8794E+06         42.6117
            1760     7.11728E-03     112.450E-03         12.7777        -4.19899        -4.26868        -4.25773         12.7698        -4.20200     495.071E-03     234.601E-03    -116.776E-03    -117.825E-03    -116.887E-03     234.278E-03    -117.391E-03     21.0342E-03    -53.6876E+06    -66.1157E+06    -170.403E+06    -82.4164E+06    -154.103E+06    -53.6876E+06    -37.5648E+06         43.7635
            1761     8.00483E-03     112.473E-03         12.7309        -4.18266        -4.25795        -4.21558         12.7225        -4.21662     639.636E-03     234.544E-03    -116.748E-03    -117.796E-03    -116.515E-03     233.956E-03    -117.441E-03     28.3944E-03    -48.7925E+06    -59.1509E+06    -153.332E+06    -76.4965E+06    -135.986E+06    -48.7925E+06    -36.3866E+06         45.1549
            1762     8.89421E-03     112.509E-03         12.6754        -4.15977        -4.26375        -4.19106         12.6731        -4.23013     345.273E-03     234.495E-03    -116.662E-03    -117.833E-03    -115.986E-03     233.451E-03    -117.466E-03     37.8178E-03    -39.9676E+06    -51.8273E+06    -133.247E+06    -67.5211E+06    -114.752E+06     -42.769E+06    -34.5996E+06         46.8054
            1763     9.78355E-03     112.555E-03         12.6136        -4.14978        -4.26004        -4.16148         12.6101        -4.24479     456.961E-03     234.753E-03    -116.875E-03    -117.878E-03    -115.300E-03     232.746E-03    -117.446E-03     52.1965E-03    -33.8802E+06    -41.7402E+06    -104.205E+06    -59.4015E+06    -82.9586E+06    -37.4650E+06    -30.2860E+06         48.6930
            1764     10.6751E-03     112.616E-03         12.5101        -4.09452        -4.26056        -4.09122         12.5068        -4.26056     442.119E-03     234.866E-03    -117.133E-03    -117.733E-03    -114.125E-03     231.461E-03    -117.336E-03     68.5325E-03    -3.68333E+06    -32.9937E+06    -67.7477E+06    -51.2065E+06    -20.4848E+06    -32.7335E+06    -16.9919E+06         50.7193
            1765     11.5652E-03     112.700E-03         12.3362        -3.95471        -4.27538        -3.95181         12.3333        -4.27538     416.315E-03     235.268E-03    -116.988E-03    -118.280E-03    -112.341E-03     229.531E-03    -117.191E-03     88.3898E-03     67.1682E+06    -13.0111E+06    -43.4072E+06    -41.8767E+06     65.6378E+06    -13.0111E+06    -501.583E+03         52.7131
            1766     12.4569E-03     112.816E-03         12.0942        -3.75417        -4.28670        -3.75187         12.0919        -4.28670     362.927E-03     237.870E-03    -117.213E-03    -120.657E-03    -111.526E-03     228.739E-03    -117.213E-03     112.446E-03     120.348E+06     42.1394E+06    -33.5411E+06    -33.2839E+06     120.091E+06     42.1394E+06     5.47009E+06         54.5311
            1767     13.3517E-03     112.963E-03         11.7966        -3.51640        -4.28691        -3.51479         11.7950        -4.28691     301.417E-03     237.983E-03    -117.312E-03    -120.671E-03    -111.776E-03     229.088E-03    -117.312E-03     110.843E-03     134.219E+06     100.314E+06    -25.3025E+06    -25.1051E+06     134.021E+06     100.314E+06     3.04217E+06         56.2445
            1768     14.2409E-03     113.067E-03         11.4498        -3.24909        -4.27700        -3.24792         11.4487        -4.27700     235.159E-03     245.596E-03    -117.244E-03    -128.352E-03    -112.764E-03     230.008E-03    -117.244E-03     143.555E-03     139.978E+06     123.876E+06    -16.7205E+06    -16.5961E+06     139.853E+06     123.876E+06     1.58483E+06         58.1566
            1769     15.1332E-03     113.301E-03         11.0581        -2.95755        -4.25078        -2.95708         11.0576        -4.25078     132.754E-03     240.987E-03    -113.540E-03    -127.447E-03    -111.684E-03     228.695E-03    -117.011E-03     104.362E-03     143.658E+06     126.123E+06    -8.06450E+06    -8.04172E+06     143.636E+06     126.123E+06     1.01453E+06         60.4129
            1770     887.898E-06     113.684E-03         13.9001    -206.502E-03        -9.56040        -9.25643         13.5971    -207.422E-03         2.38593     233.421E-03    -116.365E-03    -117.056E-03    -116.399E-03     233.413E-03    -117.014E-03     460.614E-06    -100.751E+06    -106.464E+06    -241.904E+06    -103.602E+06    -241.026E+06    -104.490E+06    -9.87509E+06         39.3386
            1771     1.78077E-03     113.685E-03         13.7066        -4.72820        -4.81117        -4.71092         13.6072        -4.72912    -21.9919E-03     233.205E-03    -116.389E-03    -116.816E-03    -116.506E-03     233.203E-03    -116.697E-03     1.12142E-03    -95.6634E+06    -100.289E+06    -227.616E+06    -100.720E+06    -226.358E+06    -96.4895E+06    -11.9446E+06         39.5291
            1772     2.67086E-03     113.680E-03         13.7215        -4.71736        -4.80211        -4.74084         13.6693        -4.72637     973.619E-03     233.637E-03    -116.624E-03    -117.013E-03    -116.895E-03     233.631E-03    -116.736E-03     2.55356E-03    -87.9976E+06    -95.1677E+06    -210.806E+06    -97.9315E+06    -208.042E+06    -87.9976E+06    -17.3222E+06         39.8436
            1773     3.55886E-03     113.682E-03         13.7301        -4.72225        -4.78451        -4.75092         13.7056        -4.73125     510.356E-03     234.121E-03    -116.874E-03    -117.247E-03    -117.203E-03     234.107E-03    -116.904E-03     4.28337E-03    -76.0653E+06    -86.6216E+06    -205.124E+06    -91.8221E+06    -199.924E+06    -76.0653E+06    -23.4839E+06         40.2887
            1774     4.44984E-03     113.682E-03         13.7633        -4.73947        -4.80829        -4.78675         13.7417        -4.73947     988.489E-03     234.347E-03    -117.055E-03    -117.291E-03    -117.252E-03     234.307E-03    -117.055E-03     7.08101E-03    -67.1193E+06    -77.3552E+06    -194.982E+06    -85.4773E+06    -186.860E+06    -67.1193E+06    -29.3161E+06         40.8734
            1775     5.33739E-03     113.690E-03         13.7606        -4.75001        -4.80248        -4.78754         13.7457        -4.75001     832.439E-03     234.026E-03    -116.782E-03    -117.243E-03    -116.778E-03     233.928E-03    -117.149E-03     11.5331E-03    -59.6551E+06    -70.7527E+06    -186.052E+06    -80.8623E+06    -175.942E+06    -59.6551E+06    -32.5610E+06         41.6158
            1776     6.22905E-03     113.698E-03         13.7254        -4.74324        -4.78320        -4.75337         13.7099        -4.75755     919.559E-03     233.788E-03    -116.596E-03    -117.191E-03    -116.403E-03     233.595E-03    -117.191E-03     16.2267E-03    -49.0539E+06    -62.8183E+06    -172.640E+06    -75.6595E+06    -159.799E+06    -49.0539E+06    -34.9147E+06         42.5461
            1777     7.11756E-03     113.717E-03         13.6569        -4.71355        -4.76457        -4.70433         13.6438        -4.76063     853.684E-03     234.574E-03    -116.962E-03    -117.612E-03    -116.953E-03     234.210E-03    -117.257E-03     22.3019E-03    -40.6920E+06    -55.6503E+06    -161.302E+06    -71.6093E+06    -145.343E+06    -40.6920E+06    -37.6294E+06         43.6948
            1778     8.00529E-03     113.739E-03         13.5438        -4.63015        -4.75884        -4.61526         13.5289        -4.75884     978.185E-03     234.761E-03    -117.085E-03    -117.676E-03    -116.726E-03     234.048E-03    -117.322E-03     31.1255E-03    -37.7552E+06    -48.6349E+06    -150.739E+06    -66.3091E+06    -130.787E+06    -40.0332E+06    -40.7286E+06         45.0839
            1779     8.89445E-03     113.772E-03         13.4230        -4.54693        -4.75339        -4.53861         13.4147        -4.75339     743.098E-03     234.080E-03    -116.587E-03    -117.493E-03    -115.546E-03     232.873E-03    -117.328E-03     40.8002E-03    -34.0337E+06    -43.1687E+06    -135.193E+06    -60.8705E+06    -112.412E+06    -39.1132E+06    -41.1169E+06         46.7299
            1780     9.78799E-03     113.816E-03         13.3035        -4.47632        -4.74749        -4.46687         13.2941        -4.74749     805.460E-03     233.983E-03    -116.502E-03    -117.482E-03    -114.716E-03     232.001E-03    -117.285E-03     52.0983E-03    -29.3559E+06    -37.6530E+06    -113.673E+06    -57.0094E+06    -89.0006E+06    -34.6717E+06    -36.9124E+06         48.6177
            1781     10.6766E-03     113.882E-03         13.1034        -4.32938        -4.74000        -4.32083         13.0949        -4.74000     758.515E-03     234.578E-03    -116.963E-03    -117.616E-03    -114.049E-03     231.223E-03    -117.174E-03     67.8041E-03    -13.2045E+06    -32.0399E+06    -78.4508E+06    -50.7292E+06    -41.1864E+06    -31.7797E+06    -27.6219E+06         50.6510
            1782     11.5660E-03     113.962E-03         12.8306        -4.11808        -4.72761        -4.11104         12.8235        -4.72761     676.730E-03     235.754E-03    -117.012E-03    -118.742E-03    -112.968E-03     229.980E-03    -117.012E-03     88.8762E-03     49.8732E+06    -21.3887E+06    -45.7721E+06    -39.4360E+06     43.5371E+06    -21.3887E+06    -12.9782E+06         52.6474
            1783     12.4589E-03     114.076E-03         12.5061        -3.86450        -4.70921        -3.85909         12.5007        -4.70921     583.944E-03     237.372E-03    -116.966E-03    -120.406E-03    -111.112E-03     228.079E-03    -116.966E-03     113.176E-03     114.408E+06     22.9597E+06    -29.0122E+06    -28.4192E+06     113.815E+06     22.9597E+06    -1.11563E+06         54.4453
            1784     13.3519E-03     114.220E-03         12.1291        -3.57369        -4.67939        -3.56958         12.1249        -4.67939     493.092E-03     236.734E-03    -117.035E-03    -119.700E-03    -110.462E-03     227.497E-03    -117.035E-03     112.554E-03     134.617E+06     87.3373E+06    -21.9198E+06    -21.7849E+06     134.482E+06     87.3373E+06     3.52534E+06         56.1194
            1785     14.2460E-03     114.334E-03         11.7103        -3.26085        -4.63841        -3.25752         11.7069        -4.63841     430.500E-03     244.444E-03    -116.945E-03    -127.499E-03    -111.371E-03     228.316E-03    -116.945E-03     145.616E-03     142.624E+06     123.200E+06    -13.8861E+06    -13.7014E+06     142.439E+06     123.200E+06     3.79573E+06         57.9966
            1786     15.1419E-03     114.554E-03         11.2515        -2.92419        -4.58140        -2.92230         11.2496        -4.58140     281.916E-03     238.864E-03    -112.217E-03    -126.647E-03    -109.524E-03     226.162E-03    -116.638E-03     106.792E-03     144.179E+06     128.365E+06    -6.23137E+06    -6.13952E+06     144.087E+06     128.365E+06     1.74138E+06         60.2549
            1787     891.779E-06     114.947E-03         14.6879    -967.450E-03        -9.71575        -9.51170         14.4915    -975.129E-03         2.05458     232.335E-03    -115.589E-03    -116.746E-03    -116.225E-03     232.331E-03    -116.105E-03     1.18665E-03    -81.8289E+06    -87.7205E+06    -221.234E+06    -86.7584E+06    -220.051E+06    -83.9737E+06    -11.4408E+06         39.2463
            1788     1.78099E-03     114.943E-03         14.5476        -5.22862        -5.29244        -5.21237         14.4753        -5.23630     306.002E-03     232.604E-03    -116.001E-03    -116.603E-03    -116.375E-03     232.603E-03    -116.228E-03     1.02316E-03    -79.2532E+06    -84.8400E+06    -212.314E+06    -84.1386E+06    -210.596E+06    -81.6725E+06    -14.2830E+06         39.4361
            1789     2.67090E-03     114.945E-03         14.5554        -5.22163        -5.28824        -5.23386         14.5100        -5.23063         1.26714     232.949E-03    -116.308E-03    -116.641E-03    -116.594E-03     232.942E-03    -116.347E-03     2.82816E-03    -72.2950E+06    -77.3718E+06    -194.370E+06    -79.2519E+06    -190.897E+06    -73.8883E+06    -19.6475E+06         39.7482
            1790     3.56149E-03     114.944E-03         14.5595        -5.22213        -5.26437        -5.22869         14.5328        -5.23113     951.075E-03     233.518E-03    -116.509E-03    -117.008E-03    -116.944E-03     233.493E-03    -116.548E-03     5.63160E-03    -60.1877E+06    -69.4136E+06    -188.210E+06    -75.4830E+06    -182.140E+06    -60.1877E+06    -25.7766E+06         40.1911
            1791     4.44905E-03     114.947E-03         14.5863        -5.23273        -5.27513        -5.24491         14.5564        -5.23298         1.40404     233.832E-03    -116.747E-03    -117.085E-03    -117.026E-03     233.772E-03    -116.747E-03     8.80380E-03    -49.3958E+06    -64.6465E+06    -182.312E+06    -72.7526E+06    -174.206E+06    -49.3958E+06    -29.5672E+06         40.7728
            1792     5.34028E-03     114.952E-03         14.5558        -5.23542        -5.25181        -5.22883         14.5331        -5.23568         1.24887     233.651E-03    -116.698E-03    -116.953E-03    -116.666E-03     233.530E-03    -116.863E-03     12.7966E-03    -43.1329E+06    -57.9357E+06    -173.752E+06    -68.9104E+06    -162.778E+06    -43.1329E+06    -33.6330E+06         41.5086
            1793     6.22849E-03     114.962E-03         14.4981        -5.19784        -5.24058        -5.17904         14.4735        -5.23482         1.32700     233.260E-03    -116.366E-03    -116.894E-03    -116.121E-03     233.006E-03    -116.884E-03     18.3815E-03    -40.7983E+06    -50.7141E+06    -163.663E+06    -64.4638E+06    -149.913E+06    -40.7983E+06    -36.8613E+06         42.4271
            1794     7.11918E-03     114.980E-03         14.3880        -5.11205        -5.22806        -5.09064         14.3665        -5.22806         1.24208     233.347E-03    -116.452E-03    -116.896E-03    -115.964E-03     232.859E-03    -116.896E-03     25.7298E-03    -34.0332E+06    -42.4213E+06    -152.282E+06    -58.3902E+06    -136.313E+06    -34.0332E+06    -38.4972E+06         43.5641
            1795     8.01056E-03     115.004E-03         14.2374        -4.99274        -5.21392        -4.96904         14.2138        -5.21392         1.32490     233.975E-03    -116.748E-03    -117.227E-03    -116.278E-03     233.206E-03    -116.928E-03     32.5954E-03    -28.8166E+06    -39.2375E+06    -140.880E+06    -56.7864E+06    -121.053E+06    -31.0947E+06    -40.5397E+06         44.9470
            1796     8.90131E-03     115.035E-03         14.0609        -4.86830        -5.19380        -4.84965         14.0422        -5.19380         1.17072     234.332E-03    -116.888E-03    -117.444E-03    -116.090E-03     233.070E-03    -116.980E-03     41.5541E-03    -27.7405E+06    -38.5994E+06    -131.761E+06    -57.1800E+06    -108.582E+06    -32.3394E+06    -41.5008E+06         46.5902
            1797     9.78561E-03     115.083E-03         13.8388        -4.71067        -5.16895        -4.69179         13.8199        -5.16895         1.16914     233.901E-03    -116.746E-03    -117.154E-03    -114.763E-03     231.752E-03    -116.990E-03     54.1981E-03    -21.9656E+06    -32.3328E+06    -115.565E+06    -52.2371E+06    -88.0141E+06    -29.6117E+06    -41.4286E+06         48.4782
            1798     10.6783E-03     115.141E-03         13.5507        -4.49254        -5.13778        -4.47584         13.5340        -5.13778         1.08631     234.197E-03    -116.643E-03    -117.554E-03    -113.606E-03     230.490E-03    -116.884E-03     71.0328E-03    -9.24438E+06    -29.2943E+06    -87.4369E+06    -45.5846E+06    -51.0966E+06    -29.2943E+06    -37.8359E+06         50.5172
            1799     11.5719E-03     115.228E-03         13.2199        -4.24020        -5.09928        -4.22665         13.2063        -5.09928     959.235E-03     234.900E-03    -116.682E-03    -118.217E-03    -112.211E-03     228.893E-03    -116.682E-03     90.7653E-03     35.2802E+06    -25.0777E+06    -53.2643E+06    -37.4767E+06     19.4927E+06    -25.0777E+06    -25.9692E+06         52.5178
            1800     12.4613E-03     115.336E-03         12.8227        -3.93308        -5.05277        -3.92256         12.8122        -5.05277     830.826E-03     237.246E-03    -116.522E-03    -120.724E-03    -110.864E-03     227.386E-03    -116.522E-03     116.139E-03     96.5518E+06     3.28673E+06    -30.9001E+06    -29.1522E+06     94.8039E+06     3.28673E+06    -9.05296E+06         54.3051
            1801     13.3567E-03     115.478E-03         12.3796        -3.59815        -4.99425        -3.58970         12.3711        -4.99425     723.235E-03     236.540E-03    -116.532E-03    -120.008E-03    -110.029E-03     226.561E-03    -116.532E-03     116.718E-03     129.980E+06     63.8451E+06    -22.5660E+06    -22.4050E+06     129.819E+06     63.8451E+06     1.54264E+06         55.9475
            1802     14.2524E-03     115.592E-03         11.9194        -3.25587        -4.92433        -3.24891         11.9124        -4.92433     643.548E-03     241.063E-03    -116.435E-03    -124.627E-03    -108.503E-03     224.939E-03    -116.435E-03     144.630E-03     142.357E+06     115.061E+06    -15.5535E+06    -15.3863E+06     142.190E+06     115.061E+06     2.79462E+06         57.7881
            1803     15.1519E-03     115.806E-03         11.4336        -2.89928        -4.84005        -2.89492         11.4293        -4.84005     457.540E-03     235.405E-03    -111.303E-03    -124.101E-03    -106.744E-03     222.793E-03    -116.048E-03     106.583E-03     145.422E+06     130.653E+06    -7.00460E+06    -6.82756E+06     145.245E+06     130.653E+06     2.68319E+06         60.0514
            1804     890.992E-06     116.206E-03         15.2424        -1.83622        -9.56570        -9.44668         15.1406        -1.85350         1.62834     231.315E-03    -114.938E-03    -116.377E-03    -116.179E-03     231.313E-03    -115.133E-03     703.782E-06    -61.6490E+06    -67.4541E+06    -197.821E+06    -68.3487E+06    -196.926E+06    -61.6490E+06    -9.34939E+06         39.0971
            1805     1.78126E-03     116.206E-03         15.1497        -5.61763        -5.65322        -5.59014         15.1039        -5.63491     573.314E-03     231.616E-03    -115.555E-03    -116.061E-03    -115.861E-03     231.611E-03    -115.750E-03     2.05115E-03    -53.7946E+06    -61.5098E+06    -193.014E+06    -62.2275E+06    -190.703E+06    -55.3878E+06    -17.1838E+06         39.2774
            1806     2.67226E-03     116.204E-03         15.1497        -5.60440        -5.63821        -5.58715         15.1127        -5.61843         1.45026     231.557E-03    -115.727E-03    -115.830E-03    -115.737E-03     231.538E-03    -115.801E-03     4.69725E-03    -51.0066E+06    -56.8166E+06    -179.189E+06    -58.8280E+06    -175.584E+06    -52.5998E+06    -20.6384E+06         39.5757
            1807     3.56270E-03     116.207E-03         15.1770        -5.59957        -5.65851        -5.61387         15.1464        -5.61360         1.34081     231.664E-03    -115.665E-03    -115.999E-03    -115.760E-03     231.613E-03    -115.853E-03     7.99365E-03    -46.8587E+06    -54.1889E+06    -172.224E+06    -59.2194E+06    -167.194E+06    -46.8587E+06    -23.7753E+06         40.0044
            1808     4.45446E-03     116.209E-03         15.2033        -5.61575        -5.67030        -5.63089         15.1641        -5.61600         1.74179     232.061E-03    -115.838E-03    -116.224E-03    -116.003E-03     231.955E-03    -115.952E-03     11.8711E-03    -39.7160E+06    -51.9950E+06    -170.138E+06    -58.7140E+06    -163.419E+06    -39.7160E+06    -27.2576E+06         40.5760
            1809     5.34272E-03     116.215E-03         15.1648        -5.61245        -5.63040        -5.59301         15.1320        -5.61710         1.60778     232.205E-03    -116.032E-03    -116.173E-03    -115.957E-03     231.996E-03    -116.038E-03     16.6526E-03    -35.3846E+06    -47.1071E+06    -158.459E+06    -56.7006E+06    -148.865E+06    -35.3846E+06    -30.8602E+06         41.3055
            1810     6.23418E-03     116.225E-03         15.0751        -5.53795        -5.61293        -5.50642         15.0411        -5.61048         1.64731     232.273E-03    -115.815E-03    -116.458E-03    -115.796E-03     231.898E-03    -116.102E-03     22.5492E-03    -33.8347E+06    -42.8314E+06    -150.744E+06    -56.4446E+06    -137.131E+06    -33.8347E+06    -35.6028E+06         42.2145
            1811     7.12545E-03     116.240E-03         14.9295        -5.41667        -5.59437        -5.38376         14.8966        -5.59437         1.60937     232.536E-03    -115.868E-03    -116.668E-03    -115.744E-03     231.915E-03    -116.171E-03     29.1749E-03    -30.6042E+06    -39.1372E+06    -144.629E+06    -56.2979E+06    -127.469E+06    -30.6042E+06    -38.8153E+06         43.3333
            1812     8.01430E-03     116.269E-03         14.7523        -5.27828        -5.56923        -5.24167         14.7157        -5.56923         1.69723     232.953E-03    -116.230E-03    -116.722E-03    -115.713E-03     231.966E-03    -116.253E-03     36.4774E-03    -24.5248E+06    -33.4334E+06    -132.718E+06    -53.1548E+06    -112.997E+06    -24.5248E+06    -39.5460E+06         44.6965
            1813     8.90066E-03     116.300E-03         14.5105        -5.09250        -5.53508        -5.05936         14.4774        -5.53508         1.59748     232.651E-03    -116.052E-03    -116.599E-03    -114.766E-03     231.045E-03    -116.280E-03     46.3957E-03    -20.9631E+06    -27.7095E+06    -123.414E+06    -48.7696E+06    -100.033E+06    -23.2839E+06    -41.6833E+06         46.3298
            1814     9.79696E-03     116.344E-03         14.2247        -4.87783        -5.49190        -4.84561         14.1925        -5.49190         1.55605     233.066E-03    -115.981E-03    -117.085E-03    -114.103E-03     230.341E-03    -116.238E-03     60.8758E-03    -15.6538E+06    -24.2611E+06    -111.825E+06    -44.8539E+06    -82.7165E+06    -24.1696E+06    -43.9042E+06         48.2222
            1815     10.6868E-03     116.404E-03         13.8876        -4.62481        -5.44027        -4.59630         13.8591        -5.44027         1.44187     234.300E-03    -116.133E-03    -118.167E-03    -113.760E-03     229.922E-03    -116.162E-03     77.5396E-03    -2.72239E+06    -25.7141E+06    -90.9930E+06    -42.0401E+06    -51.6753E+06    -25.7141E+06    -42.8979E+06         50.2768
            1816     11.5745E-03     116.491E-03         13.4823        -4.31283        -5.37904        -4.29025         13.4597        -5.37904         1.25038     234.287E-03    -115.990E-03    -118.297E-03    -111.688E-03     227.678E-03    -115.990E-03     95.0855E-03     22.1925E+06    -28.9292E+06    -63.9611E+06    -39.6767E+06    -2.09192E+06    -28.9292E+06    -34.5871E+06         52.2933
            1817     12.4743E-03     116.589E-03         13.0366        -3.97171        -5.30775        -3.95438         13.0192        -5.30775         1.07860     237.119E-03    -115.773E-03    -121.346E-03    -110.738E-03     226.510E-03    -115.773E-03     120.523E-03     75.3695E+06    -14.6853E+06    -39.4088E+06    -33.6800E+06     69.6406E+06    -14.6853E+06    -17.5025E+06         54.0819
            1818     13.3658E-03     116.745E-03         12.5698        -3.61599        -5.22488        -3.60212         12.5559        -5.22488     934.319E-03     235.591E-03    -115.378E-03    -120.214E-03    -109.367E-03     225.075E-03    -115.708E-03     119.476E-03     122.966E+06     36.5906E+06    -25.1854E+06    -24.7898E+06     122.571E+06     36.5906E+06    -4.49406E+06         55.7070
            1819     14.2593E-03     116.841E-03         12.0724        -3.24000        -5.13043        -3.22840         12.0608        -5.13043     833.226E-03     239.049E-03    -115.279E-03    -123.770E-03    -106.480E-03     222.089E-03    -115.609E-03     147.157E-03     139.411E+06     98.5830E+06    -16.2677E+06    -15.8998E+06     139.043E+06     98.5830E+06     888.494E+03         57.5233
            1820     15.1617E-03     117.057E-03         11.5800        -2.88022        -5.02357        -2.87194         11.5717        -5.02357     652.249E-03     231.937E-03    -108.681E-03    -123.255E-03    -103.332E-03     218.508E-03    -115.176E-03     110.480E-03     144.632E+06     129.073E+06    -8.84653E+06    -8.58784E+06     144.373E+06     129.073E+06     3.54336E+06         59.7930
            1821     890.812E-06     117.466E-03         15.6549        -2.73812        -9.22021        -9.14034         15.6107        -2.77374         1.21856     228.939E-03    -113.823E-03    -115.116E-03    -114.832E-03     228.934E-03    -114.103E-03     2.18348E-03    -51.9526E+06    -54.9864E+06    -174.486E+06    -55.6185E+06    -173.769E+06    -52.0378E+06    -7.52710E+06         38.8208
            1822     1.78424E-03     117.463E-03         15.5800        -5.90555        -5.95307        -5.88953         15.5521        -5.94117     782.680E-03     228.654E-03    -114.177E-03    -114.477E-03    -114.170E-03     228.635E-03    -114.465E-03     4.55305E-03    -45.9051E+06    -52.5217E+06    -171.888E+06    -54.4338E+06    -169.976E+06    -45.9051E+06    -14.7850E+06         38.9888
            1823     2.67557E-03     117.464E-03         15.5791        -5.89623        -5.93275        -5.87650         15.5475        -5.92084         1.53971     228.878E-03    -114.399E-03    -114.479E-03    -114.390E-03     228.833E-03    -114.443E-03     7.60041E-03    -43.4071E+06    -50.5097E+06    -167.003E+06    -53.7808E+06    -163.731E+06    -43.4071E+06    -18.9145E+06         39.2696
            1824     3.56783E-03     117.464E-03         15.5835        -5.88500        -5.93727        -5.87658         15.5474        -5.90961         1.63401     228.659E-03    -114.183E-03    -114.477E-03    -114.105E-03     228.558E-03    -114.452E-03     11.3152E-03    -39.7303E+06    -45.8895E+06    -158.866E+06    -50.7981E+06    -153.958E+06    -39.7303E+06    -22.9640E+06         39.6778
            1825     4.45921E-03     117.469E-03         15.6094        -5.89661        -5.94307        -5.88789         15.5622        -5.90455         1.99404     228.696E-03    -114.151E-03    -114.545E-03    -114.023E-03     228.497E-03    -114.473E-03     16.1116E-03    -30.4613E+06    -40.6081E+06    -156.263E+06    -47.2178E+06    -149.653E+06    -30.4613E+06    -26.7685E+06         40.2310
            1826     5.35272E-03     117.474E-03         15.5437        -5.86607        -5.90943        -5.83193         15.4987        -5.89858         1.94313     229.373E-03    -114.447E-03    -114.925E-03    -114.492E-03     229.034E-03    -114.542E-03     21.2603E-03    -20.3358E+06    -34.7188E+06    -146.258E+06    -43.0738E+06    -137.903E+06    -20.3358E+06    -29.2828E+06         40.9456
            1827     6.24343E-03     117.484E-03         15.4206        -5.76423        -5.88326        -5.71818         15.3745        -5.88326         1.95695     230.269E-03    -114.668E-03    -115.600E-03    -114.988E-03     229.662E-03    -114.675E-03     28.2933E-03    -13.1965E+06    -29.1250E+06    -134.925E+06    -39.8319E+06    -124.219E+06    -13.1965E+06    -31.5711E+06         41.8363
            1828     7.13148E-03     117.504E-03         15.2450        -5.60770        -5.85606        -5.56078         15.1980        -5.85606         1.95607     230.347E-03    -114.786E-03    -115.561E-03    -114.534E-03     229.320E-03    -114.786E-03     36.7605E-03    -13.0115E+06    -25.8695E+06    -130.855E+06    -39.4609E+06    -117.263E+06    -13.0115E+06    -34.8488E+06         42.9285
            1829     8.02333E-03     117.527E-03         15.0254        -5.42506        -5.81693        -5.37290         14.9732        -5.81693         2.05525     229.798E-03    -114.788E-03    -115.010E-03    -113.349E-03     228.137E-03    -114.788E-03     46.9062E-03    -14.2657E+06    -19.9845E+06    -122.757E+06    -38.5693E+06    -104.172E+06    -14.2657E+06    -39.0136E+06         44.2675
            1830     8.91963E-03     117.562E-03         14.7587        -5.21545        -5.76713        -5.16623         14.7095        -5.76713         1.97394     230.691E-03    -114.547E-03    -116.144E-03    -113.578E-03     228.351E-03    -114.773E-03     56.4675E-03    -12.5081E+06    -14.3045E+06    -113.197E+06    -36.7007E+06    -90.8006E+06    -12.5081E+06    -41.3582E+06         45.8930
            1831     9.80848E-03     117.599E-03         14.4456        -4.98148        -5.70813        -4.93432         14.3985        -5.70813         1.90499     232.484E-03    -114.571E-03    -117.913E-03    -114.117E-03     228.914E-03    -114.797E-03     69.5416E-03    -8.72366E+06    -16.0354E+06    -103.020E+06    -37.4354E+06    -75.0236E+06    -15.3198E+06    -42.0745E+06         47.7924
            1832     10.6987E-03     117.673E-03         14.0740        -4.70006        -5.63981        -4.65818         14.0321        -5.63981         1.76598     233.045E-03    -114.791E-03    -118.254E-03    -112.963E-03     227.754E-03    -114.791E-03     85.1730E-03     1.79145E+06    -19.1864E+06    -86.9573E+06    -37.0211E+06    -48.1448E+06    -19.1864E+06    -43.6045E+06         49.8671
            1833     11.5955E-03     117.742E-03         13.6465        -4.36957        -5.56100        -4.33769         13.6147        -5.56100         1.49940     234.834E-03    -114.717E-03    -120.116E-03    -112.284E-03     227.001E-03    -114.717E-03     103.543E-03     17.3234E+06    -22.2022E+06    -65.8667E+06    -34.2687E+06    -14.2746E+06    -22.2022E+06    -38.5273E+06         51.9139
            1834     12.4817E-03     117.857E-03         13.1764        -4.00693        -5.47152        -3.98251         13.1520        -5.47152         1.29068     237.271E-03    -114.538E-03    -122.733E-03    -110.573E-03     225.111E-03    -114.538E-03     129.105E-03     59.1885E+06    -19.4435E+06    -40.8441E+06    -29.7498E+06     48.0943E+06    -19.4435E+06    -25.3858E+06         53.7246
            1835     13.3780E-03     117.994E-03         12.6713        -3.62483        -5.37013        -3.60582         12.6523        -5.37013         1.09595     233.608E-03    -114.002E-03    -119.606E-03    -107.035E-03     221.367E-03    -114.332E-03     128.266E-03     108.508E+06     11.3162E+06    -25.9246E+06    -23.8540E+06     106.437E+06     11.3162E+06    -10.8716E+06         55.3637
            1836     14.2809E-03     118.097E-03         12.1553        -3.24009        -5.25749        -3.22449         12.1397        -5.25749     972.140E-03     237.586E-03    -113.808E-03    -123.778E-03    -104.637E-03     218.775E-03    -114.138E-03     155.674E-03     133.113E+06     72.9659E+06    -16.6315E+06    -16.1779E+06     132.660E+06     72.9659E+06    -1.76426E+06         57.2022
            1837     15.1829E-03     118.300E-03         11.6784        -2.88691        -5.13495        -2.87456         11.6661        -5.13495     815.668E-03     228.372E-03    -105.842E-03    -122.530E-03    -100.278E-03     213.988E-03    -113.710E-03     115.300E-03     142.570E+06     120.832E+06    -7.11861E+06    -6.66513E+06     142.116E+06     120.832E+06     2.38444E+06         59.5261
            1838     894.861E-06     118.719E-03         15.8646        -3.56731        -8.77112        -8.73124         15.8527        -3.59530     772.045E-03     223.495E-03    -110.785E-03    -112.710E-03    -111.496E-03     223.482E-03    -111.986E-03     3.38434E-03    -43.2054E+06    -46.4529E+06    -156.132E+06    -45.5386E+06    -155.402E+06    -44.8492E+06    -7.84921E+06         38.3334
            1839     1.78785E-03     118.717E-03         15.8370        -6.11997        -6.15748        -6.10509         15.8171        -6.15251         1.06184     223.891E-03    -111.722E-03    -112.169E-03    -111.991E-03     223.847E-03    -111.856E-03     7.28817E-03    -35.0105E+06    -40.4694E+06    -154.550E+06    -42.2373E+06    -152.782E+06    -35.0105E+06    -13.4727E+06         38.4912
            1840     2.68246E-03     118.719E-03         15.8347        -6.10796        -6.13702        -6.08048         15.8023        -6.13205         1.66921     223.703E-03    -111.736E-03    -111.967E-03    -111.650E-03     223.593E-03    -111.943E-03     11.5375E-03    -24.2888E+06    -33.1814E+06    -151.096E+06    -36.4713E+06    -147.806E+06    -24.2888E+06    -19.1305E+06         38.7539
            1841     3.57569E-03     118.719E-03         15.8080        -6.08727        -6.11788        -6.04247         15.7599        -6.11458         1.99399     223.721E-03    -111.667E-03    -112.053E-03    -111.546E-03     223.491E-03    -111.944E-03     16.8533E-03    -15.5710E+06    -26.6947E+06    -145.591E+06    -31.2471E+06    -141.038E+06    -15.5710E+06    -22.7120E+06         39.1397
            1842     4.47099E-03     118.722E-03         15.7602        -6.04970        -6.09891        -5.99184         15.6991        -6.09561         2.29464     223.969E-03    -111.755E-03    -112.214E-03    -111.589E-03     223.552E-03    -111.963E-03     23.0063E-03    -8.89223E+06    -22.6060E+06    -142.096E+06    -28.4023E+06    -136.300E+06    -8.89223E+06    -25.5011E+06         39.6668
            1843     5.36388E-03     118.730E-03         15.6700        -5.98178        -6.07321        -5.92009         15.6083        -6.07321         2.29422     224.651E-03    -111.923E-03    -112.728E-03    -111.936E-03     223.946E-03    -112.011E-03     29.7966E-03    -6.43925E+06    -20.6810E+06    -135.392E+06    -28.2386E+06    -127.835E+06    -6.43925E+06    -28.2070E+06         40.3506
            1844     6.25662E-03     118.742E-03         15.5420        -5.87037        -6.04461        -5.80805         15.4797        -6.04461         2.29802     224.919E-03    -112.040E-03    -112.879E-03    -111.710E-03     223.770E-03    -112.061E-03     38.3461E-03    -5.89440E+06    -17.0677E+06    -124.880E+06    -26.2997E+06    -115.647E+06    -5.89440E+06    -30.1078E+06         41.2092
            1845     7.15287E-03     118.759E-03         15.3376        -5.68810        -6.00521        -5.62364         15.2732        -6.00521         2.31210     224.928E-03    -112.050E-03    -112.878E-03    -111.086E-03     223.157E-03    -112.071E-03     48.1913E-03    -4.49498E+06    -12.6120E+06    -117.745E+06    -23.6992E+06    -106.657E+06    -4.49498E+06    -32.1992E+06         42.2756
            1846     8.04800E-03     118.781E-03         15.0849        -5.47992        -5.95286        -5.40942         15.0144        -5.95286         2.39692     226.104E-03    -112.065E-03    -114.039E-03    -111.493E-03     223.558E-03    -112.065E-03     58.1786E-03    -5.46384E+06    -9.32178E+06    -108.178E+06    -23.8232E+06    -93.6761E+06    -5.46384E+06    -34.4081E+06         43.5969
            1847     8.93985E-03     118.816E-03         14.8060        -5.25948        -5.88984        -5.19088         14.7374        -5.88984         2.33390     228.380E-03    -112.163E-03    -116.216E-03    -112.599E-03     224.762E-03    -112.163E-03     69.3657E-03    -5.45616E+06    -8.54317E+06    -101.195E+06    -26.8439E+06    -82.8943E+06    -5.45616E+06    -36.5267E+06         45.2101
            1848     9.83020E-03     118.867E-03         14.4930        -5.01615        -5.81801        -4.95179         14.4286        -5.81801         2.23006     230.094E-03    -112.287E-03    -117.807E-03    -112.565E-03     224.852E-03    -112.287E-03     83.7288E-03    -2.39761E+06    -12.3965E+06    -92.0662E+06    -30.0995E+06    -67.1514E+06    -9.60938E+06    -38.4985E+06         47.1103
            1849     10.7252E-03     118.921E-03         14.1277        -4.73469        -5.73731        -4.67874         14.0717        -5.73731         2.04616     231.740E-03    -112.360E-03    -119.380E-03    -111.823E-03     224.183E-03    -112.360E-03     100.855E-03     3.31387E+06    -12.8482E+06    -77.1801E+06    -31.3565E+06    -42.5098E+06    -12.8482E+06    -39.3688E+06         49.2102
            1850     11.6144E-03     119.009E-03         13.7034        -4.40617        -5.64697        -4.36563         13.6629        -5.64697         1.69469     234.241E-03    -112.346E-03    -121.895E-03    -110.906E-03     223.252E-03    -112.346E-03     121.752E-03     14.9664E+06    -18.6979E+06    -66.3230E+06    -32.4324E+06    -18.9242E+06    -18.6979E+06    -39.3745E+06         51.3097
            1851     12.5111E-03     119.113E-03         13.2139        -4.03160        -5.54564        -4.00170         13.1840        -5.54564         1.43337     237.030E-03    -112.187E-03    -124.843E-03    -108.942E-03     221.129E-03    -112.187E-03     147.262E-03     47.1214E+06    -19.7355E+06    -48.6196E+06    -32.4406E+06     30.9424E+06    -19.7355E+06    -30.2504E+06         53.2015
            1852     13.4124E-03     119.244E-03         12.7059        -3.65277        -5.43301        -3.63017         12.6833        -5.43301         1.19780     234.458E-03    -111.997E-03    -122.461E-03    -106.956E-03     218.953E-03    -111.997E-03     144.653E-03     94.4035E+06     3.76533E+06    -31.8273E+06    -28.4525E+06     91.0287E+06     3.76533E+06    -16.3876E+06         54.9442
            1853     14.3082E-03     119.348E-03         12.1963        -3.27957        -5.31083        -3.26248         12.1792        -5.31083         1.02379     236.830E-03    -111.749E-03    -125.082E-03    -103.259E-03     215.008E-03    -111.749E-03     167.919E-03     124.686E+06     44.7536E+06    -20.5682E+06    -19.4172E+06     123.536E+06     44.7536E+06    -8.47326E+06         56.9122
            1854     15.2149E-03     119.541E-03         11.6779        -2.89627        -5.18004        -2.88206         11.6637        -5.18004     894.750E-03     225.934E-03    -104.494E-03    -121.440E-03    -98.3209E-03     209.667E-03    -111.346E-03     122.610E-03     136.411E+06     94.7078E+06    -9.79282E+06    -9.50300E+06     136.121E+06     94.7078E+06    -1.23154E+06         59.4059
            1855     898.454E-06     119.965E-03         15.8472        -4.34696        -8.12491        -8.11601         15.8411        -4.34984     545.612E-03     215.153E-03    -106.382E-03    -108.772E-03    -107.535E-03     215.111E-03    -107.577E-03     6.79726E-03    -22.3744E+06    -25.4352E+06    -137.597E+06    -24.7533E+06    -136.720E+06    -23.9331E+06    -9.83000E+06         37.5478
            1856     1.79535E-03     119.966E-03         15.8227        -6.21854        -6.22720        -6.19675         15.8001        -6.22637         1.35720     215.390E-03    -107.455E-03    -107.935E-03    -107.665E-03     215.288E-03    -107.622E-03     10.9155E-03    -18.4476E+06    -23.4950E+06    -138.066E+06    -23.5263E+06    -136.257E+06    -20.2252E+06    -13.7280E+06         37.6926
            1857     2.69252E-03     119.963E-03         15.8149        -6.19606        -6.21245        -6.15567         15.7720        -6.20994         1.92154     215.036E-03    -107.380E-03    -107.656E-03    -107.150E-03     214.775E-03    -107.625E-03     17.4543E-03    -14.9071E+06    -22.1095E+06    -134.802E+06    -23.4818E+06    -131.652E+06    -16.6846E+06    -18.5787E+06         37.9388
            1858     3.59225E-03     119.965E-03         15.7699        -6.15777        -6.19169        -6.09550         15.7051        -6.18918         2.35948     215.301E-03    -107.440E-03    -107.860E-03    -107.185E-03     214.782E-03    -107.597E-03     25.0687E-03    -10.7731E+06    -19.1575E+06    -133.832E+06    -23.1494E+06    -129.840E+06    -10.7731E+06    -20.9794E+06         38.3018
            1859     4.48826E-03     119.969E-03         15.6960        -6.08907        -6.16203        -6.00783         15.6147        -6.16203         2.64771     215.911E-03    -107.615E-03    -108.295E-03    -107.371E-03     214.987E-03    -107.615E-03     33.4739E-03    -7.36645E+06    -15.4449E+06    -130.651E+06    -20.6447E+06    -125.451E+06    -7.36645E+06    -23.7592E+06         38.7972
            1860     5.38652E-03     119.977E-03         15.5908        -5.99613        -6.12847        -5.91123         15.5059        -6.12847         2.69357     216.190E-03    -107.626E-03    -108.564E-03    -107.052E-03     214.678E-03    -107.626E-03     43.1770E-03    -5.42323E+06    -11.2789E+06    -124.328E+06    -17.7863E+06    -117.202E+06    -6.04161E+06    -27.3655E+06         39.4453
            1861     6.28503E-03     119.989E-03         15.4257        -5.85492        -6.08774        -5.77274         15.3435        -6.08774         2.63281     216.748E-03    -107.602E-03    -109.146E-03    -106.924E-03     214.546E-03    -107.622E-03     52.4739E-03    -3.38258E+06    -8.04075E+06    -116.732E+06    -16.2350E+06    -107.920E+06    -4.00096E+06    -29.6792E+06         40.2758
            1862     7.18271E-03     120.003E-03         15.2178        -5.68122        -6.03732        -5.59587         15.1324        -6.03732         2.65711     218.534E-03    -107.668E-03    -110.865E-03    -107.726E-03     215.414E-03    -107.689E-03     62.7243E-03     1.16249E+06    -5.50943E+06    -107.102E+06    -15.6920E+06    -96.9192E+06     1.16249E+06    -30.3677E+06         41.3239
            1863     8.07887E-03     120.033E-03         14.9728        -5.48280        -5.97669        -5.39180         14.8818        -5.97669         2.71795     220.984E-03    -107.845E-03    -113.139E-03    -108.739E-03     216.584E-03    -107.845E-03     74.8347E-03     3.05332E+06    -5.03357E+06    -99.8080E+06    -15.7405E+06    -89.1011E+06     3.05332E+06    -29.9446E+06         42.6266
            1864     8.97332E-03     120.069E-03         14.6887        -5.25091        -5.90605        -5.16006         14.5979        -5.90605         2.68050     222.700E-03    -108.015E-03    -114.685E-03    -108.505E-03     216.520E-03    -108.015E-03     89.1143E-03     4.74534E+06    -3.44568E+06    -87.6135E+06    -16.6066E+06    -74.4526E+06     4.74534E+06    -30.0132E+06         44.2254
            1865     9.87302E-03     120.115E-03         14.3929        -5.01515        -5.82684        -4.93223         14.3099        -5.82684         2.52571     225.491E-03    -108.148E-03    -117.343E-03    -108.762E-03     216.910E-03    -108.148E-03     105.847E-03     7.41843E+06    -3.89732E+06    -78.0840E+06    -18.3663E+06    -59.6154E+06     3.41872E+06    -32.8590E+06         46.1407
            1866     10.7660E-03     120.178E-03         14.0427        -4.73328        -5.73960        -4.66424         13.9737        -5.73960         2.26960     229.482E-03    -108.269E-03    -121.214E-03    -109.518E-03     217.786E-03    -108.269E-03     124.748E-03     7.76513E+06    -4.86423E+06    -64.8212E+06    -21.0371E+06    -38.5597E+06    -2.32348E+06    -32.2825E+06         48.3029
            1867     11.6644E-03     120.261E-03         13.6237        -4.39847        -5.64249        -4.34932         13.5745        -5.64249         1.86145     232.301E-03    -108.372E-03    -123.929E-03    -108.523E-03     216.895E-03    -108.372E-03     144.279E-03     16.4620E+06    -6.21596E+06    -52.2307E+06    -26.6115E+06    -11.7189E+06    -3.65420E+06    -31.6702E+06         50.5214
            1868     12.5648E-03     120.359E-03         13.1724        -4.05666        -5.53501        -4.02191         13.1376        -5.53501         1.54472     237.312E-03    -108.330E-03    -128.982E-03    -108.447E-03     216.777E-03    -108.330E-03     167.866E-03     41.5707E+06    -14.8529E+06    -46.6673E+06    -29.1255E+06     21.4671E+06    -12.2911E+06    -30.4459E+06         52.5942
            1869     13.4576E-03     120.505E-03         12.6952        -3.70755        -5.41891        -3.68205         12.6698        -5.41891         1.27487     236.149E-03    -108.314E-03    -127.835E-03    -108.243E-03     216.557E-03    -108.314E-03     163.187E-03     87.7757E+06     439.149E+03    -29.1929E+06    -22.0659E+06     80.6487E+06     439.149E+03    -22.3762E+06         54.5792
            1870     14.3572E-03     120.588E-03         12.1714        -3.32467        -5.29413        -3.30609         12.1528        -5.29413         1.06974     238.344E-03    -108.265E-03    -130.079E-03    -105.319E-03     213.584E-03    -108.265E-03     181.156E-03     115.841E+06     20.4058E+06    -18.0730E+06    -15.8966E+06     113.664E+06     20.4058E+06    -14.6236E+06         56.8588
            1871     15.2695E-03     120.780E-03         11.5880        -2.89876        -5.16057        -2.88409         11.5733        -5.16057     905.174E-03     229.366E-03    -105.511E-03    -123.854E-03    -103.670E-03     211.876E-03    -108.206E-03     125.648E-03     124.300E+06     57.4102E+06    -10.9637E+06    -9.96824E+06     123.304E+06     57.4102E+06    -7.48397E+06         59.6842
            1872     902.336E-06     121.199E-03         15.5382        -4.86371        -7.47440        -7.46278         15.5266        -4.86371     486.007E-03     202.081E-03    -99.9804E-03    -102.101E-03    -101.727E-03     201.994E-03    -100.267E-03     9.72493E-03    -5.70941E+06    -8.37801E+06    -118.943E+06    -8.48637E+06    -118.360E+06    -6.18349E+06    -7.04828E+06         36.3747
            1873     1.80709E-03     121.198E-03         15.5053        -6.15388        -6.16048        -6.13017         15.4761        -6.15502         1.56604     201.582E-03    -100.576E-03    -101.006E-03    -100.419E-03     201.330E-03    -100.911E-03     16.4268E-03    -8.06005E+06    -11.3126E+06    -121.401E+06    -9.94420E+06    -120.153E+06    -10.6768E+06    -11.4613E+06         36.5125
            1874     2.71181E-03     121.196E-03         15.4859        -6.13933        -6.14627        -6.08998         15.4308        -6.14048         2.14843     202.172E-03    -100.785E-03    -101.387E-03    -100.756E-03     201.588E-03    -100.833E-03     25.5527E-03    -8.48746E+06    -13.6009E+06    -121.418E+06    -11.8377E+06    -119.217E+06    -12.4516E+06    -15.2009E+06         36.7502
            1875     3.61381E-03     121.198E-03         15.4576        -6.10669        -6.13702        -6.03707         15.3723        -6.12136         2.69320     202.769E-03    -100.899E-03    -101.870E-03    -100.787E-03     201.686E-03    -100.899E-03     35.2690E-03    -8.91010E+06    -12.5903E+06    -122.284E+06    -14.1803E+06    -118.873E+06    -10.7316E+06    -18.8646E+06         37.0952
            1876     4.51928E-03     121.202E-03         15.4094        -6.04612        -6.10572        -5.95071         15.3042        -6.09586         2.98936     203.046E-03    -100.940E-03    -102.106E-03    -100.309E-03     201.249E-03    -100.940E-03     45.6978E-03    -5.14214E+06    -7.96513E+06    -118.325E+06    -13.6771E+06    -112.613E+06    -5.14214E+06    -24.1909E+06         37.5639
            1877     5.42253E-03     121.210E-03         15.2857        -5.93288        -6.06075        -5.82369         15.1765        -6.06075         3.03064     203.750E-03    -100.938E-03    -102.812E-03    -100.013E-03     200.951E-03    -100.938E-03     57.2889E-03     3.18652E+06    -2.48173E+06    -114.421E+06    -10.1078E+06    -106.176E+06     2.56813E+06    -29.2623E+06         38.1880
            1878     6.32709E-03     121.221E-03         15.1223        -5.78101        -6.01538        -5.67615         15.0174        -6.01538         2.94787     206.207E-03    -101.000E-03    -105.207E-03    -101.056E-03     202.057E-03    -101.000E-03     70.1082E-03     8.27379E+06     50.0533E+03    -110.608E+06    -7.82826E+06    -102.111E+06     7.65541E+06    -29.5125E+06         39.0040
            1879     7.22819E-03     121.243E-03         14.9291        -5.61744        -5.96096        -5.51059         14.8222        -5.96096         2.95061     209.387E-03    -101.205E-03    -108.182E-03    -102.345E-03     203.550E-03    -101.205E-03     83.8366E-03     12.9231E+06     1.20548E+06    -100.352E+06    -6.70973E+06    -92.4369E+06     12.9231E+06    -27.1121E+06         40.0452
            1880     8.12880E-03     121.270E-03         14.6941        -5.42863        -5.89783        -5.31769         14.5831        -5.89783         2.97594     211.841E-03    -101.457E-03    -110.385E-03    -102.349E-03     203.806E-03    -101.457E-03     98.9523E-03     17.7592E+06     1.94185E+06    -92.4638E+06    -6.57139E+06    -83.9506E+06     17.7592E+06    -26.9486E+06         41.3541
            1881     9.03309E-03     121.307E-03         14.4478        -5.22484        -5.82633        -5.11341         14.3364        -5.82633         2.94921     215.383E-03    -101.674E-03    -113.710E-03    -103.203E-03     204.877E-03    -101.674E-03     114.463E-03     18.6409E+06     4.51426E+06    -79.6037E+06    -5.23742E+06    -69.8520E+06     18.6409E+06    -26.4570E+06         42.9895
            1882     9.93257E-03     121.354E-03         14.1622        -4.97822        -5.74652        -4.87794         14.0620        -5.74652         2.75785     220.437E-03    -101.965E-03    -118.472E-03    -104.948E-03     206.913E-03    -101.965E-03     131.593E-03     21.4725E+06     5.18628E+06    -63.7211E+06    -5.95873E+06    -52.5761E+06     21.4725E+06    -25.0092E+06         44.9858
            1883     10.8346E-03     121.426E-03         13.8098        -4.67412        -5.65675        -4.59360         13.7293        -5.65675         2.42902     225.451E-03    -102.288E-03    -123.163E-03    -106.344E-03     208.631E-03    -102.288E-03     148.741E-03     19.7200E+06     45.1332E+03    -52.8488E+06    -10.7692E+06    -37.5465E+06     15.2320E+06    -23.4476E+06         47.2947
            1884     11.7328E-03     121.502E-03         13.4298        -4.36187        -5.55677        -4.30491         13.3728        -5.55677         1.99557     232.452E-03    -102.730E-03    -129.722E-03    -109.163E-03     211.893E-03    -102.730E-03     166.984E-03     26.8500E+06     14.5488E+06    -34.2079E+06    -13.5427E+06    -1.62852E+06     22.3621E+06    -21.5721E+06         49.7457
            1885     12.6265E-03     121.614E-03         13.0294        -4.05729        -5.44803        -4.01697         12.9891        -5.44803         1.65595     239.158E-03    -103.177E-03    -135.982E-03    -111.148E-03     214.324E-03    -103.177E-03     186.169E-03     43.6659E+06     12.5515E+06    -27.1475E+06    -15.4154E+06     28.3790E+06     16.1062E+06    -24.9024E+06         52.1313
            1886     13.5306E-03     121.748E-03         12.5749        -3.71930        -5.33212        -3.69047         12.5461        -5.33212         1.35493     237.793E-03    -103.660E-03    -134.134E-03    -112.067E-03     215.726E-03    -103.660E-03     174.734E-03     81.6752E+06     16.7982E+06    -25.6259E+06    -16.8131E+06     72.8624E+06     16.7982E+06    -25.2117E+06         54.5095
            1887     14.4258E-03     121.841E-03         12.0642        -3.33603        -5.20759        -3.31555         12.0438        -5.20759         1.12095     243.659E-03    -104.269E-03    -139.390E-03    -115.153E-03     219.421E-03    -104.269E-03     184.763E-03     108.277E+06     26.7120E+06    -15.6318E+06    -12.4069E+06     105.052E+06     26.7120E+06    -18.6089E+06         57.2646
            1888     15.3138E-03     122.025E-03         11.4764        -2.90035        -5.07559        -2.88708         11.4631        -5.07559     833.763E-03     241.040E-03    -105.173E-03    -135.867E-03    -120.074E-03     225.247E-03    -105.173E-03     119.082E-03     110.517E+06     53.0560E+06    -7.27880E+06    -5.80815E+06     109.046E+06     53.0560E+06    -11.8670E+06         60.5280
            1889     912.709E-06     122.413E-03         14.9275        -5.10176        -6.82869        -6.81267         14.9115        -5.10176     540.055E-03     182.156E-03    -89.8846E-03    -92.2711E-03    -91.0433E-03     181.986E-03    -90.9423E-03     12.5102E-03    -2.68832E+06    -8.26258E+06    -105.837E+06    -5.47403E+06    -105.461E+06    -5.85267E+06    -4.99551E+06         34.7774
            1890     1.82551E-03     122.409E-03         14.9240        -5.95420        -5.98298        -5.94611         14.8879        -5.95496         1.72469     183.088E-03    -90.9438E-03    -92.1443E-03    -91.4266E-03     182.578E-03    -91.1519E-03     22.6358E-03    -577.146E+03    -2.64588E+06    -105.411E+06    -3.01953E+06    -104.198E+06    -1.41636E+06    -10.7702E+06         34.9222
            1891     2.73703E-03     122.411E-03         14.9079        -5.94666        -5.98543        -5.91554         14.8388        -5.94743         2.34773     184.333E-03    -91.4018E-03    -92.9307E-03    -91.8359E-03     183.238E-03    -91.4018E-03     33.8523E-03     2.54357E+06    -1.78102E+06    -110.803E+06    -1.67389E+06    -108.723E+06     356.914E+03    -14.8747E+06         35.1581
            1892     3.64936E-03     122.412E-03         14.9224        -5.93622        -5.99892        -5.89171         14.8152        -5.93622         2.97680     185.216E-03    -91.6056E-03    -93.6104E-03    -91.6293E-03     183.235E-03    -91.6056E-03     45.7912E-03     5.76605E+06     832.386E+03    -109.411E+06    -571.365E+03    -106.185E+06     3.94453E+06    -18.4319E+06         35.4962
            1893     4.55944E-03     122.416E-03         14.8834        -5.89857        -5.94814        -5.80114         14.7560        -5.91818         3.24120     186.022E-03    -91.7054E-03    -94.3164E-03    -91.0939E-03     182.799E-03    -91.7054E-03     58.5633E-03     10.1665E+06     5.87215E+06    -104.127E+06     671.849E+03    -98.9265E+06     10.1665E+06    -23.1243E+06         35.9619
            1894     5.47317E-03     122.423E-03         14.7880        -5.80973        -5.88745        -5.67791         14.6562        -5.88745         3.28047     188.144E-03    -91.7862E-03    -96.3583E-03    -91.4249E-03     183.211E-03    -91.7862E-03     72.9332E-03     14.5437E+06     5.08527E+06    -102.766E+06    -1.55218E+06    -96.1290E+06     14.5437E+06    -25.6031E+06         36.5897
            1895     6.38382E-03     122.438E-03         14.6616        -5.67681        -5.84617        -5.54998         14.5347        -5.84617         3.19827     191.417E-03    -91.9405E-03    -99.4768E-03    -92.2418E-03     184.182E-03    -91.9405E-03     89.2152E-03     15.2462E+06     1.12212E+06    -106.365E+06    -5.38912E+06    -99.8537E+06     15.2462E+06    -25.2911E+06         37.4174
            1896     7.29447E-03     122.462E-03         14.4895        -5.51607        -5.79599        -5.39162         14.3651        -5.79599         3.14365     195.039E-03    -92.1385E-03    -102.900E-03    -92.9388E-03     185.077E-03    -92.1385E-03     105.776E-03     12.9466E+06    -3.48473E+06    -98.8219E+06    -9.03967E+06    -93.2670E+06     12.9466E+06    -22.2228E+06         38.4960
            1897     8.20553E-03     122.489E-03         14.2980        -5.35006        -5.73715        -5.22089         14.1688        -5.73715         3.17195     200.543E-03    -92.4691E-03    -108.074E-03    -95.0641E-03     187.533E-03    -92.4691E-03     122.919E-03     17.4791E+06    -6.99803E+06    -81.5773E+06    -12.8868E+06    -75.6886E+06     17.4791E+06    -19.8727E+06         39.8918
            1898     9.11276E-03     122.530E-03         14.0737        -5.14357        -5.66941        -5.01478         13.9449        -5.66941         3.13306     207.846E-03    -93.0118E-03    -114.834E-03    -98.6963E-03     191.708E-03    -93.0118E-03     139.825E-03     18.8397E+06    -12.7823E+06    -75.6523E+06    -19.6731E+06    -68.7614E+06     18.8397E+06    -19.4459E+06         41.6658
            1899     10.0170E-03     122.587E-03         13.7861        -4.87445        -5.59088        -4.76028         13.6719        -5.59088         2.90766     215.203E-03    -93.7542E-03    -121.449E-03    -102.186E-03     195.941E-03    -93.7542E-03     155.723E-03     23.9209E+06    -10.3122E+06    -62.4211E+06    -24.3711E+06    -48.3623E+06     23.9209E+06    -17.3751E+06         43.8579
            1900     10.9193E-03     122.654E-03         13.4696        -4.58592        -5.50112        -4.49447         13.3781        -5.50112         2.55547     223.898E-03    -94.6701E-03    -129.228E-03    -107.041E-03     201.711E-03    -94.6701E-03     171.064E-03     25.2289E+06    -7.96303E+06    -52.6398E+06    -25.3248E+06    -35.2780E+06     25.2289E+06    -17.2951E+06         46.4392
            1901     11.8192E-03     122.748E-03         13.1276        -4.29502        -5.40165        -4.23027         13.0629        -5.40165         2.11075     234.275E-03    -95.8289E-03    -138.446E-03    -113.414E-03     209.243E-03    -95.8289E-03     186.451E-03     38.3544E+06     19.4650E+06    -42.4370E+06    -24.7759E+06     4.92584E+06     35.2324E+06    -18.5895E+06         49.2441
            1902     12.7133E-03     122.865E-03         12.7417        -3.98806        -5.29330        -3.94177         12.6954        -5.29330         1.75315     242.868E-03    -97.2050E-03    -145.663E-03    -118.947E-03     216.152E-03    -97.2050E-03     196.593E-03     53.6272E+06     40.5866E+06    -29.5341E+06    -21.7586E+06     42.0680E+06     44.3703E+06    -21.5450E+06         52.0588
            1903     13.5988E-03     122.994E-03         12.3326        -3.66747        -5.17821        -3.63512         12.3003        -5.17821         1.42796     245.397E-03    -98.8135E-03    -146.583E-03    -124.836E-03     223.649E-03    -98.8135E-03     178.050E-03     85.6834E+06     54.1585E+06    -26.3003E+06    -19.2417E+06      75.834E+06     56.9493E+06    -23.4727E+06         54.9214
            1904     14.4796E-03     123.105E-03         11.8793        -3.30780        -5.05533        -3.28689         11.8584        -5.05533         1.12135     254.925E-03    -100.615E-03    -154.310E-03    -132.517E-03     233.132E-03    -100.615E-03     182.639E-03     105.706E+06     56.0248E+06    -21.7646E+06    -15.1516E+06     99.0926E+06     56.0248E+06    -24.3267E+06         58.1683
            1905     15.3590E-03     123.293E-03         11.3603        -2.88958        -4.92719        -2.87922         11.3500        -4.92719     722.845E-03     259.982E-03    -102.883E-03    -157.099E-03    -143.520E-03     246.403E-03    -102.883E-03     112.967E-03     101.276E+06     63.8980E+06    -9.75132E+06    -4.94633E+06     88.9916E+06     71.3772E+06    -16.5830E+06         61.8113
            1906     925.786E-06     123.596E-03         14.0735        -5.17830        -6.14645        -6.12879         14.0559        -5.17830     679.023E-03     157.824E-03    -78.1162E-03    -79.7075E-03    -78.5413E-03     157.546E-03    -79.0047E-03     14.9809E-03    -150.397E+03    -6.82509E+06    -91.5179E+06    -3.90950E+06    -91.0124E+06    -3.57154E+06    -6.20384E+06         32.8204
            1907     1.84793E-03     123.599E-03         14.1132        -5.66050        -5.72821        -5.68621         14.0712        -5.66050         1.81441     159.992E-03    -79.1151E-03    -80.8764E-03    -80.0585E-03     159.174E-03    -79.1151E-03     27.1006E-03     1.54003E+06    -3.55875E+06    -91.2988E+06    -3.96041E+06    -90.1663E+06     809.154E+03    -9.69755E+06         32.9661
            1908     2.76995E-03     123.598E-03         14.1743        -5.67072        -5.77804        -5.69445         14.0907        -5.67072         2.51970     161.220E-03    -79.5547E-03    -81.6649E-03    -79.8874E-03     159.442E-03    -79.5547E-03     40.3076E-03     2.17196E+06    -3.30207E+06    -100.203E+06    -5.58011E+06    -97.9254E+06     2.17196E+06    -14.5330E+06         33.2018
            1909     3.69201E-03     123.601E-03         14.2086        -5.67332        -5.79273        -5.66600         14.0819        -5.67332         3.16804     162.310E-03    -79.6951E-03    -82.6152E-03    -79.3234E-03     159.018E-03    -79.6951E-03     55.1579E-03     1.21954E+06    -4.18459E+06    -99.0178E+06    -4.85139E+06    -95.6556E+06    -1.47581E+06    -17.7251E+06         33.5520
            1910     4.61639E-03     123.604E-03         14.1843        -5.65803        -5.73198        -5.57949         14.0367        -5.66290         3.40880     165.023E-03    -79.8000E-03    -85.2232E-03    -79.8698E-03     159.670E-03    -79.8000E-03     71.1978E-03    -3.54550E+06    -9.40852E+06    -96.9416E+06    -9.15590E+06    -93.6745E+06    -7.06517E+06    -16.4223E+06         34.0519
            1911     5.53686E-03     123.613E-03         14.1307        -5.61426        -5.66248        -5.48303         13.9761        -5.63916         3.47757     168.966E-03    -80.0625E-03    -88.9032E-03    -80.8055E-03     160.868E-03    -80.0625E-03     88.6005E-03    -6.09046E+06    -18.0626E+06    -95.3003E+06    -19.6906E+06    -92.8479E+06    -6.91478E+06    -11.9992E+06         34.7346
            1912     6.45773E-03     123.632E-03         14.0416        -5.52207        -5.60559        -5.37281         13.8923        -5.60559         3.39996     173.188E-03    -80.4250E-03    -92.7633E-03    -81.4971E-03     161.922E-03    -80.4250E-03     106.001E-03    -2.44364E+06    -28.5410E+06    -97.2516E+06    -31.0866E+06    -94.7061E+06    -2.44364E+06    -11.7812E+06         35.6454
            1913     7.38021E-03     123.652E-03         13.9352        -5.39877        -5.56379        -5.25146         13.7878        -5.56379         3.35576     179.209E-03    -80.8626E-03    -98.3463E-03    -83.7336E-03     164.596E-03    -80.8626E-03     123.187E-03    -1.05024E+06    -36.0807E+06    -95.6850E+06    -39.0098E+06    -92.7558E+06    -1.05024E+06    -12.8293E+06         36.8554
            1914     8.29846E-03     123.690E-03         13.7852        -5.23576        -5.51269        -5.08424         13.6337        -5.51269         3.37525     188.764E-03    -81.5810E-03    -107.183E-03    -88.8978E-03     170.479E-03    -81.5810E-03     141.891E-03     4.69471E+06    -41.8258E+06    -77.7121E+06    -44.4753E+06    -75.0625E+06     4.69471E+06    -9.12621E+06         38.4400
            1915     9.20961E-03     123.740E-03         13.5630        -5.00194        -5.44913        -4.85433         13.4154        -5.44913         3.29271     199.486E-03    -82.7326E-03    -116.754E-03    -95.3595E-03     178.092E-03    -82.7326E-03     158.486E-03     16.5574E+06    -41.3224E+06    -67.8398E+06    -46.6802E+06    -62.4819E+06     16.5574E+06    -9.94528E+06         40.4623
            1916     10.1184E-03     123.801E-03         13.3085        -4.74017        -5.37245        -4.61050         13.1788        -5.37245         3.04411     211.336E-03    -84.2486E-03    -127.087E-03    -103.246E-03     187.495E-03    -84.2486E-03     173.099E-03     24.2901E+06    -30.2456E+06    -60.7964E+06    -44.7818E+06    -46.2602E+06     24.2901E+06    -12.1712E+06         42.9694
            1917     11.0193E-03     123.884E-03         13.0239        -4.46797        -5.28431        -4.36417         12.9201        -5.28431         2.67633     225.554E-03    -86.1827E-03    -139.371E-03    -113.620E-03     199.802E-03    -86.1827E-03     186.888E-03     31.5942E+06    -10.6849E+06    -52.7499E+06    -39.7143E+06    -23.7205E+06     31.5942E+06    -17.0202E+06         45.9292
            1918     11.9075E-03     123.990E-03         12.7040        -4.18098        -5.18616        -4.10696         12.6300        -5.18616         2.22243     238.383E-03    -88.5341E-03    -149.848E-03    -123.461E-03     211.995E-03    -88.5341E-03     195.384E-03     47.3331E+06     21.9012E+06    -43.8916E+06    -31.5720E+06     12.7035E+06     44.2111E+06    -21.0833E+06         49.1637
            1919     12.7922E-03     124.115E-03         12.3614        -3.88653        -5.07891        -3.83465         12.3095        -5.07891         1.82564     250.409E-03    -91.2258E-03    -159.183E-03    -133.233E-03     224.459E-03    -91.2258E-03     199.410E-03     65.2233E+06     51.3553E+06    -31.3272E+06    -23.4988E+06     49.7328E+06     59.0174E+06    -21.7393E+06         52.4421
            1920     13.6667E-03     124.268E-03         12.0024        -3.58100        -4.96578        -3.54549         11.9669        -4.96578         1.48014     258.308E-03    -94.2883E-03    -164.019E-03    -143.963E-03     238.251E-03    -94.2883E-03     177.386E-03     95.5633E+06     75.2251E+06    -22.9588E+06    -15.3934E+06     85.2071E+06     78.0159E+06    -24.8779E+06         55.7506
            1921     14.5286E-03     124.378E-03         11.6174        -3.24351        -4.84554        -3.22288         11.5967        -4.84554         1.08331     272.086E-03    -97.6072E-03    -174.479E-03    -155.049E-03     252.656E-03    -97.6072E-03     180.823E-03     104.493E+06     73.4024E+06    -17.9443E+06    -10.3222E+06     96.8707E+06     73.4024E+06    -22.3748E+06         59.3518
            1922     15.3776E-03     124.596E-03         11.2237        -2.89070        -4.72265        -2.88292         11.2159        -4.72265     630.928E-03     280.821E-03    -101.347E-03    -179.474E-03    -167.233E-03     268.581E-03    -101.347E-03     113.147E-03     97.1682E+06     62.2773E+06    -16.5862E+06    -10.7260E+06     73.0441E+06     80.5413E+06    -16.1829E+06         63.2144
            1923     935.633E-06     124.752E-03         13.0712        -5.06435        -5.59997        -5.58123         13.0525        -5.06435     833.260E-03     132.032E-03    -65.5185E-03    -66.5134E-03    -66.0568E-03     131.614E-03    -65.5575E-03     16.9153E-03    -5.00718E+06    -13.4477E+06    -78.2296E+06    -11.2150E+06    -77.8246E+06    -7.64476E+06    -5.09932E+06         30.6347
            1924     1.87267E-03     124.756E-03         13.1787        -5.33464        -5.43485        -5.38401         13.1278        -5.33464         1.91579     132.716E-03    -65.8676E-03    -66.8481E-03    -65.6588E-03     131.526E-03    -65.8676E-03     29.6071E-03    -4.23428E+06    -13.2651E+06    -84.8900E+06    -11.4606E+06    -84.3555E+06    -6.57318E+06    -5.49071E+06         30.7680
            1925     2.80829E-03     124.757E-03         13.2908        -5.35456        -5.50102        -5.40120         13.1910        -5.35456         2.67991     133.781E-03    -65.8270E-03    -67.9537E-03    -65.3552E-03     131.182E-03    -65.8270E-03     44.3800E-03    -12.0402E+06    -20.6145E+06    -88.6744E+06    -16.4559E+06    -87.5947E+06    -17.2784E+06    -7.52055E+06         31.0122
            1926     3.74582E-03     124.757E-03         13.3513        -5.36286        -5.51935        -5.37217         13.2041        -5.36286         3.31183     136.291E-03    -65.8247E-03    -70.4667E-03    -65.7122E-03     131.537E-03    -65.8247E-03     61.0008E-03    -27.2583E+06    -35.1751E+06    -93.3630E+06    -29.1394E+06    -91.6796E+06    -34.9774E+06    -7.99529E+06         31.4043
            1927     4.68062E-03     124.764E-03         13.3686        -5.35766        -5.48601        -5.31288         13.1955        -5.35766         3.58839     140.686E-03    -66.0473E-03    -74.6391E-03    -66.8532E-03     132.901E-03    -66.0473E-03     79.3251E-03    -39.5022E+06    -48.1303E+06    -99.3945E+06    -45.1341E+06    -97.4776E+06    -44.4153E+06    -2.53941E+06         31.9820
            1928     5.61419E-03     124.776E-03         13.3428        -5.33511        -5.42550        -5.23995         13.1632        -5.34113         3.64748     146.664E-03    -66.5374E-03    -80.1268E-03    -68.6626E-03     135.200E-03    -66.5374E-03     98.4761E-03    -37.1725E+06    -55.1820E+06    -98.1614E+06    -55.7386E+06    -96.7804E+06    -37.9968E+06     2.69918E+06         32.7883
            1929     6.54735E-03     124.794E-03         13.3012        -5.29474        -5.35109        -5.15429         13.1252        -5.31552         3.59896     154.532E-03    -67.3211E-03    -87.2107E-03    -71.9083E-03     139.229E-03    -67.3211E-03     117.135E-03    -17.8671E+06    -57.7864E+06    -90.4718E+06    -59.4590E+06    -88.7992E+06    -17.8671E+06     2.90712E+06         33.8819
            1930     7.47415E-03     124.825E-03         13.2531        -5.22117        -5.29294        -5.05788         13.0786        -5.28169         3.57100     165.346E-03    -68.4559E-03    -96.8902E-03    -77.7674E-03     146.223E-03    -68.4559E-03     135.913E-03    -1.26856E+06    -58.9941E+06     -90.323E+06    -60.8404E+06    -88.4767E+06    -1.26856E+06    -1.37162E+06         35.3288
            1931     8.39657E-03     124.869E-03         13.1347        -5.06500        -5.23684        -4.89147         12.9612        -5.23684         3.53456     178.200E-03    -69.9811E-03    -108.219E-03    -85.5221E-03     155.503E-03    -69.9811E-03     154.492E-03     9.90721E+06    -54.2459E+06    -76.5743E+06    -56.5684E+06    -74.2518E+06     9.90721E+06    -4.29655E+06         37.1914
            1932     9.31480E-03     124.934E-03         12.9537        -4.83688        -5.17746        -4.67173         12.7886        -5.17746         3.40892     192.636E-03    -72.0048E-03    -120.631E-03    -95.7996E-03     167.804E-03    -72.0048E-03     169.180E-03     21.9650E+06    -43.9054E+06    -58.5082E+06    -49.6762E+06    -52.7375E+06     21.9650E+06    -6.80239E+06         39.5395
            1933     10.2194E-03     125.008E-03         12.7251        -4.57946        -5.10361        -4.43513         12.5808        -5.10361         3.14538     210.432E-03    -74.6366E-03    -135.795E-03    -109.482E-03     184.119E-03    -74.6366E-03     183.483E-03     30.5685E+06    -26.1975E+06    -54.0442E+06    -41.9795E+06    -38.2622E+06     30.5685E+06    -13.0133E+06         42.4194
            1934     11.1114E-03     125.115E-03         12.4588        -4.30351        -5.01676        -4.18848         12.3438        -5.01676         2.75705     228.782E-03    -77.8733E-03    -150.908E-03    -123.775E-03     201.648E-03    -77.8733E-03     195.546E-03     41.2394E+06     3.18602E+06    -44.4041E+06    -32.9320E+06    -8.28614E+06     41.2394E+06    -19.1990E+06         45.7844
            1935     11.9940E-03     125.238E-03         12.1853        -4.03535        -4.91946        -3.95246         12.1024        -4.91946         2.30717     246.465E-03    -81.6343E-03    -164.830E-03    -138.141E-03     219.776E-03    -81.6343E-03     202.545E-03     50.5367E+06     29.9639E+06    -36.0673E+06    -26.0186E+06     19.9153E+06     50.5367E+06    -23.3999E+06         49.4520
            1936     12.8605E-03     125.383E-03         11.9075        -3.77113        -4.81391        -3.71339         11.8497        -4.81391         1.88614     263.944E-03    -85.8764E-03    -178.068E-03    -152.842E-03     238.718E-03    -85.8764E-03     204.801E-03     70.8272E+06     59.1187E+06    -27.9634E+06    -19.7416E+06     56.3138E+06     65.4102E+06    -24.7488E+06         53.1495
            1937     13.7168E-03     125.553E-03         11.6121        -3.48306        -4.70390        -3.44517         11.5742        -4.70390         1.50647     274.061E-03    -90.5135E-03    -183.547E-03    -165.198E-03     255.711E-03    -90.5135E-03     177.022E-03     96.4614E+06     82.1937E+06    -21.7723E+06    -15.6854E+06     90.3745E+06     82.1937E+06    -23.3764E+06         56.7777
            1938     14.5586E-03     125.687E-03         11.3147        -3.18949        -4.58824        -3.16889         11.2941        -4.58824         1.05081     290.007E-03    -95.2909E-03    -194.716E-03    -176.308E-03     271.599E-03    -95.2909E-03     183.549E-03     98.8705E+06     75.9777E+06    -19.1902E+06    -11.0946E+06     90.7749E+06     75.9777E+06    -21.8247E+06         60.5602
            1939     15.3931E-03     125.925E-03         11.0293        -2.90456        -4.47290        -2.89833         11.0231        -4.47290     568.718E-03     298.930E-03    -100.270E-03    -198.660E-03    -186.396E-03     286.666E-03    -100.270E-03     122.086E-03     100.508E+06     59.4998E+06    -16.8942E+06    -772.762E+03     57.4203E+06     86.4665E+06    -16.2570E+06         64.5208
            1940     949.400E-06     125.879E-03         12.0066        -4.81846        -5.18668        -5.16482         11.9848        -4.81846         1.05190     104.312E-03    -51.6206E-03    -52.6910E-03    -52.1100E-03     103.735E-03    -51.6253E-03     18.1915E-03    -19.9263E+06    -30.7604E+06     -74.968E+06    -28.1837E+06    -74.2338E+06    -23.2372E+06     1.14299E+06         28.3768
            1941     1.89832E-03     125.879E-03         12.1601        -5.00217        -5.11049        -5.04475         12.0944        -5.00217         2.07928     103.847E-03    -51.6628E-03    -52.1840E-03    -50.6445E-03     102.312E-03    -51.6675E-03     29.7908E-03    -30.7264E+06    -41.4785E+06    -87.1154E+06    -35.6459E+06    -85.7494E+06    -37.9250E+06     3.03353E+06         28.5150
            1942     2.85180E-03     125.879E-03         12.3017        -5.02026        -5.18572        -5.06613         12.1821        -5.02026         2.85630     105.334E-03    -51.3171E-03    -54.0170E-03    -50.6736E-03     101.991E-03    -51.3171E-03     44.7641E-03    -45.7862E+06    -60.4387E+06    -88.5759E+06    -49.3598E+06    -85.0023E+06    -60.4387E+06     5.09494E+06         28.7946
            1943     3.80022E-03     125.883E-03         12.3982        -5.02977        -5.21970        -5.05385         12.2324        -5.02977         3.39490     109.616E-03    -51.4278E-03    -58.1880E-03    -52.0718E-03     103.500E-03    -51.4278E-03     61.9726E-03    -57.1726E+06    -69.7420E+06    -101.543E+06    -65.1806E+06    -95.8530E+06    -67.4242E+06     8.93904E+06         29.2628
            1944     4.74824E-03     125.890E-03         12.4371        -5.02758        -5.20019        -5.00395         12.2408        -5.02758         3.69488     115.788E-03    -51.9384E-03    -63.8500E-03    -53.9664E-03     105.905E-03    -51.9384E-03     81.1410E-03    -58.1123E+06    -70.9003E+06    -110.170E+06    -75.8185E+06    -103.859E+06    -59.5058E+06     12.4144E+06         29.9643
            1945     5.69599E-03     125.907E-03         12.4674        -5.01610        -5.17266        -4.96981         12.2645        -5.01610         3.75773     124.608E-03    -52.7834E-03    -71.8241E-03    -57.7164E-03     110.500E-03    -52.7834E-03     100.971E-03    -43.4125E+06    -71.3089E+06    -104.845E+06    -79.2652E+06    -96.8888E+06    -43.4125E+06     11.1614E+06         30.9535
            1946     6.63612E-03     125.934E-03         12.4767        -4.99771        -5.11398        -4.91138         12.2741        -4.99771         3.74942     136.974E-03    -54.1416E-03    -82.8329E-03    -64.4882E-03     118.630E-03    -54.1416E-03     121.281E-03    -20.7945E+06    -68.6213E+06    -95.1606E+06    -76.0751E+06    -87.7068E+06    -20.7945E+06     8.85544E+06         32.2925
            1947     7.57164E-03     125.975E-03         12.4487        -4.95561        -5.01893        -4.80564         12.2488        -4.96908         3.70822     152.555E-03    -56.1024E-03    -96.4525E-03    -73.9745E-03     130.077E-03    -56.1024E-03     142.566E-03     154.096E+03    -60.3915E+06    -86.9479E+06    -68.8715E+06    -78.4679E+06     154.096E+03     3.72245E+06         34.0342
            1948     8.49607E-03     126.036E-03         12.3794        -4.84662        -4.93498        -4.66059         12.1858        -4.92735         3.62887     170.120E-03    -58.6499E-03    -111.471E-03    -85.8672E-03     144.517E-03    -58.6499E-03     161.850E-03     10.9242E+06    -50.2784E+06    -76.0583E+06    -61.6282E+06    -64.7084E+06     10.9242E+06    -6.30682E+06         36.2271
            1949     9.40941E-03     126.113E-03         12.2320        -4.63524        -4.87056        -4.45537         12.0522        -4.87056         3.45972     189.679E-03    -61.8493E-03    -127.830E-03    -100.519E-03     162.369E-03    -61.8493E-03     177.974E-03     20.2084E+06    -35.9301E+06    -60.4433E+06    -50.8569E+06    -45.5165E+06     20.2084E+06    -11.5648E+06         38.9286
            1950     10.3105E-03     126.218E-03         12.0209        -4.37318        -4.79737        -4.21571         11.8634        -4.79737         3.19478     211.889E-03    -65.7525E-03    -146.136E-03    -117.504E-03     183.256E-03    -65.7525E-03     194.165E-03     31.3030E+06    -14.6405E+06    -51.0505E+06    -40.4573E+06    -25.2337E+06     31.3030E+06    -16.2126E+06         42.1736
            1951     11.1964E-03     126.346E-03         11.8038        -4.12086        -4.71037        -3.99362         11.6766        -4.71037         2.82143     234.629E-03    -70.3160E-03    -164.313E-03    -135.609E-03     205.925E-03    -70.3160E-03     206.012E-03     41.5390E+06     12.2279E+06    -44.5334E+06    -34.6444E+06     2.33882E+06     41.5390E+06    -20.6546E+06         45.9132
            1952     12.0677E-03     126.493E-03         11.5843        -3.87280        -4.61345        -3.78077         11.4923        -4.61345         2.37255     257.813E-03    -75.5122E-03    -182.301E-03    -154.826E-03     230.338E-03    -75.5122E-03     212.794E-03     50.9754E+06     35.6967E+06    -39.2046E+06    -31.4339E+06     27.9260E+06     50.9754E+06    -22.4503E+06         49.9542
            1953     12.9224E-03     126.674E-03         11.3719        -3.63155        -4.50899        -3.56641         11.3067        -4.50899         1.95787     279.577E-03    -81.2708E-03    -198.307E-03    -172.772E-03     254.043E-03    -81.2708E-03     214.698E-03     80.1677E+06     62.1986E+06     -36.079E+06    -28.9433E+06     67.5952E+06     67.6354E+06    -26.3242E+06         53.9773
            1954     13.7559E-03     126.866E-03         11.1702        -3.39636        -4.40323        -3.35624         11.1301        -4.40323         1.51625     290.696E-03    -87.3382E-03    -203.357E-03    -184.629E-03     271.967E-03    -87.3382E-03     186.507E-03     101.180E+06     82.4285E+06    -30.2508E+06    -18.7683E+06     89.6980E+06     82.4285E+06    -30.2835E+06         57.8266
            1955     14.5847E-03     127.012E-03         10.9568        -3.14865        -4.29485        -3.12838         10.9365        -4.29485         1.03070     307.272E-03    -93.3304E-03    -213.942E-03    -194.298E-03     287.628E-03    -93.3304E-03     196.480E-03     93.3152E+06     76.5022E+06    -19.3908E+06    -5.53212E+06     79.4565E+06     76.5022E+06    -23.5491E+06         61.7184
            1956     15.4090E-03     127.272E-03         10.7459        -2.89790        -4.18839        -2.89192         10.7399        -4.18839     537.445E-03     316.347E-03    -99.3153E-03    -217.032E-03    -203.774E-03     303.090E-03    -99.3153E-03     133.132E-03     93.1648E+06     47.6885E+06    -20.9561E+06    -4.34058E+06     41.6662E+06     82.5715E+06    -12.0745E+06         65.7356
            1957     962.702E-06     126.973E-03         10.9416        -4.56757        -4.78403        -4.72119         10.9124        -4.60118         1.23881     75.9026E-03    -37.7033E-03    -38.1992E-03    -37.5897E-03     75.3298E-03    -37.7401E-03     15.5017E-03    -48.3559E+06    -61.8381E+06    -88.7965E+06    -58.1543E+06    -82.9678E+06    -57.8684E+06     10.1130E+06         26.2311
            1958     1.92824E-03     126.970E-03         11.1154        -4.67470        -4.80586        -4.72745         11.0370        -4.67470         2.18925     76.4374E-03    -37.5745E-03    -38.8628E-03    -37.1270E-03     74.7063E-03    -37.5792E-03     26.9988E-03    -59.9523E+06    -72.6402E+06    -99.0852E+06    -65.6813E+06    -93.3562E+06    -72.6402E+06     12.3424E+06         26.4114
            1959     2.88944E-03     126.971E-03         11.2701        -4.69518        -4.87620        -4.74144         11.1354        -4.69518         2.91925     79.3300E-03    -37.5693E-03    -41.7607E-03    -37.8053E-03     75.3746E-03    -37.5693E-03     42.1772E-03    -64.6342E+06    -80.6706E+06    -105.644E+06    -76.7050E+06    -93.5734E+06    -80.6706E+06     18.4427E+06         26.7614
            1960     3.85355E-03     126.977E-03         11.3776        -4.70355        -4.90558        -4.72362         11.1956        -4.70355         3.41496     84.7618E-03    -37.9792E-03    -46.7827E-03    -39.5788E-03     77.5579E-03    -37.9792E-03     59.1912E-03    -68.1460E+06    -77.2331E+06    -120.844E+06    -85.3397E+06    -105.968E+06    -74.9154E+06     22.8970E+06         27.3371
            1961     4.81409E-03     126.988E-03         11.4478        -4.70100        -4.90488        -4.69142         11.2343        -4.70100         3.70777     93.6202E-03    -38.8381E-03    -54.7821E-03    -43.5346E-03     82.3727E-03    -38.8381E-03     78.1572E-03    -60.8844E+06    -73.7142E+06    -123.111E+06    -89.4981E+06    -107.284E+06    -60.9271E+06     22.2263E+06         28.1939
            1962     5.76823E-03     127.012E-03         11.5049        -4.68998        -4.88506        -4.65816         11.2780        -4.68998         3.82461     105.783E-03    -40.2463E-03    -65.5364E-03    -49.8281E-03     90.0744E-03    -40.2463E-03     98.6576E-03    -41.2601E+06    -71.2039E+06    -107.422E+06    -88.0753E+06    -90.5502E+06    -41.2601E+06     16.7982E+06         29.3866
            1963     6.71845E-03     127.050E-03         11.5607        -4.67147        -4.84624        -4.61561         11.3301        -4.67147         3.85688     121.511E-03    -42.2845E-03    -79.2264E-03    -59.0017E-03     101.286E-03    -42.2845E-03     120.725E-03    -23.6434E+06    -70.4904E+06    -94.1524E+06    -81.7674E+06    -82.8754E+06    -23.6434E+06     8.01449E+06         30.9708
            1964     7.65604E-03     127.108E-03         11.5758        -4.64305        -4.75545        -4.52834         11.3487        -4.64305         3.82009     140.934E-03    -45.0138E-03    -95.9197E-03    -71.3808E-03     116.395E-03    -45.0138E-03     144.278E-03    -6.61658E+06    -60.6599E+06    -76.7655E+06    -70.4927E+06    -66.9327E+06    -6.61658E+06    -144.355E+03         32.9975
            1965     8.58415E-03     127.188E-03         11.5218        -4.56591        -4.63372        -4.38165         11.3044        -4.60056         3.71489     163.657E-03    -48.5211E-03    -115.136E-03    -87.1551E-03     135.676E-03    -48.5211E-03     167.448E-03     9.95536E+06    -41.9321E+06    -65.4619E+06    -57.7814E+06    -49.6125E+06     9.95536E+06    -9.19490E+06         35.5111
            1966     9.49581E-03     127.293E-03         11.3975        -4.38796        -4.54171        -4.19123         11.2008        -4.54171         3.49715     188.667E-03    -52.8244E-03    -135.842E-03    -105.624E-03     158.449E-03    -52.8244E-03     188.498E-03     21.1320E+06    -24.0931E+06    -61.1256E+06    -47.1310E+06    -38.0877E+06     21.1320E+06    -17.6164E+06         38.5509
            1967     10.3920E-03     127.422E-03         11.2312        -4.14911        -4.46680        -3.97856         11.0607        -4.46680         3.21890     215.456E-03    -57.8920E-03    -157.564E-03    -126.103E-03     183.995E-03    -57.8920E-03     207.208E-03     32.7115E+06    -4.70405E+06    -49.0497E+06    -36.6546E+06    -17.0991E+06     32.7115E+06    -19.7994E+06         42.1322
            1968     11.2738E-03     127.581E-03         11.0607        -3.91654        -4.37864        -3.77617         10.9203        -4.37864         2.87707     243.385E-03    -63.7145E-03    -179.670E-03    -148.864E-03     212.579E-03    -63.7145E-03     219.584E-03     43.0717E+06     15.6430E+06    -37.7512E+06    -29.7320E+06     7.62379E+06     43.0717E+06    -17.8602E+06         46.1900
            1969     12.1310E-03     127.767E-03         10.9029        -3.69593        -4.28133        -3.59334         10.8003        -4.28133         2.42972     270.550E-03    -70.2321E-03    -200.318E-03    -170.953E-03     241.185E-03    -70.2321E-03     227.576E-03     59.5315E+06     40.7543E+06    -30.2484E+06    -24.9748E+06     40.2198E+06     54.7925E+06    -19.2101E+06         50.5093
            1970     12.9694E-03     127.975E-03         10.7652        -3.49350        -4.17881        -3.42086         10.6926        -4.17881         2.02060     292.634E-03    -77.1698E-03    -215.465E-03    -187.642E-03     264.812E-03    -77.1698E-03     230.993E-03     90.8923E+06     65.3359E+06    -22.7892E+06    -15.4856E+06     79.5721E+06     69.3524E+06    -26.0624E+06         54.7663
            1971     13.8000E-03     128.200E-03         10.6375        -3.29296        -4.07818        -3.24954         10.5941        -4.07818         1.52537     306.028E-03    -84.3183E-03    -221.709E-03    -200.891E-03     285.210E-03    -84.3183E-03     202.965E-03     103.858E+06       82.13E+06    -22.3347E+06    -10.1770E+06     91.7008E+06       82.13E+06    -29.7617E+06         58.8039
            1972     14.6161E-03     128.352E-03         10.4989        -3.07497        -3.97701        -3.05538         10.4793        -3.97701         1.00902     326.470E-03    -91.4456E-03    -235.024E-03    -214.577E-03     306.022E-03    -91.4456E-03     208.845E-03     85.9921E+06     70.2358E+06    -27.7453E+06    -8.07669E+06     66.3235E+06     70.2358E+06    -26.8518E+06         62.8035
            1973     15.4215E-03     128.650E-03         10.3775        -2.86454        -3.87985        -2.85795         10.3709        -3.87985     533.353E-03     332.945E-03    -98.4829E-03    -234.462E-03    -221.171E-03     319.653E-03    -98.4829E-03     139.035E-03     82.7823E+06     47.3044E+06    -40.2416E+06     876.729E+03     17.0148E+06     71.9536E+06    -12.1224E+06         66.8752
            1974     975.835E-06     128.034E-03         9.92357        -4.33150        -4.45017        -4.37888         9.88590        -4.36511         1.35125     50.6059E-03    -25.0414E-03    -25.5645E-03    -24.9737E-03     50.0541E-03    -25.0804E-03     11.8578E-03    -85.4242E+06    -105.956E+06    -121.728E+06    -103.615E+06    -103.537E+06    -105.956E+06     16.6254E+06         24.3835
            1975     1.95063E-03     128.033E-03         10.0862        -4.38465        -4.52719        -4.43490         9.99388        -4.38465         2.28263     52.6461E-03    -25.1991E-03    -27.4469E-03    -25.5907E-03     50.7898E-03    -25.1991E-03     23.1663E-03    -85.7262E+06    -107.553E+06    -133.817E+06    -111.418E+06    -108.125E+06    -107.553E+06     20.3602E+06         24.6302
            1976     2.92688E-03     128.036E-03         10.2219        -4.40042        -4.57590        -4.42512         10.0712        -4.40042         2.95212     57.0505E-03    -25.6687E-03    -31.3818E-03    -27.1744E-03     52.8430E-03    -25.6687E-03     37.0998E-03    -82.1215E+06    -101.162E+06    -139.449E+06    -112.913E+06    -108.657E+06    -101.162E+06     25.6441E+06         25.0754
            1977     3.89862E-03     128.043E-03         10.3355        -4.40289        -4.61216        -4.41163         10.1350        -4.40289         3.43213     64.5500E-03    -26.5372E-03    -38.0128E-03    -30.4083E-03     56.9455E-03    -26.5372E-03     53.3960E-03    -80.9538E+06    -89.7796E+06    -136.815E+06    -107.373E+06    -111.695E+06    -88.4798E+06     25.2348E+06         25.7744
            1978     4.86732E-03     128.063E-03         10.4237        -4.39643        -4.60710        -4.37770         10.1943        -4.39643         3.68133     75.7696E-03    -27.9316E-03    -47.8380E-03    -35.9990E-03     63.9307E-03    -27.9316E-03     72.5509E-03    -67.5744E+06    -77.4001E+06    -123.020E+06    -94.6017E+06    -105.776E+06    -67.6171E+06     20.0783E+06         26.7823
            1979     5.82997E-03     128.096E-03         10.4845        -4.37965        -4.56827        -4.31799         10.2342        -4.37965         3.84522     90.6819E-03    -29.9440E-03    -60.7379E-03    -44.1750E-03     74.1190E-03    -29.9440E-03     94.3991E-03    -42.2921E+06    -66.2360E+06    -98.5691E+06    -79.7108E+06    -85.0943E+06    -42.2921E+06     14.6357E+06         28.1531
            1980     6.78211E-03     128.149E-03         10.5689        -4.35376        -4.53531        -4.27549         10.3091        -4.35376         3.92319     109.286E-03    -32.6242E-03    -76.6622E-03    -55.1112E-03     87.7354E-03    -32.6242E-03     118.961E-03    -22.1480E+06    -60.0788E+06    -80.8151E+06    -68.8361E+06    -72.0578E+06    -22.1480E+06     6.76904E+06         29.9420
            1981     7.72677E-03     128.226E-03         10.6131        -4.31929        -4.45741        -4.20721         10.3629        -4.31929         3.84734     131.809E-03    -36.0194E-03    -95.7891E-03    -69.3430E-03     105.362E-03    -36.0194E-03     145.799E-03    -4.08184E+06    -44.2051E+06    -69.9581E+06    -61.1645E+06    -52.9986E+06    -4.08184E+06    -4.37345E+06         32.2017
            1982     8.65566E-03     128.330E-03         10.5707        -4.25374        -4.31852        -4.06606         10.3361        -4.27155         3.70405     157.999E-03    -40.2044E-03    -117.794E-03    -87.1304E-03     127.335E-03    -40.2044E-03     173.300E-03     12.5882E+06    -26.1194E+06    -61.5140E+06    -51.6198E+06    -36.0136E+06     12.5882E+06    -14.5839E+06         34.9788
            1983     9.56987E-03     128.464E-03         10.4822        -4.10953        -4.20823        -3.90244         10.2751        -4.20823         3.44727     187.656E-03    -45.2626E-03    -142.394E-03    -109.046E-03     154.309E-03    -45.2626E-03     198.770E-03     24.8798E+06    -13.7783E+06    -57.8550E+06    -42.4172E+06    -29.2161E+06     24.8798E+06    -20.5946E+06         38.3052
            1984     10.4648E-03     128.625E-03         10.3561        -3.89336        -4.13051        -3.71842         10.1811        -4.13051         3.13633     220.530E-03    -51.2502E-03    -169.280E-03    -134.732E-03     185.982E-03    -51.2502E-03     221.387E-03     34.2621E+06     1.90125E+06    -50.2687E+06    -36.0348E+06    -12.3327E+06     34.2621E+06    -23.0898E+06         42.1647
            1985     11.3335E-03     128.825E-03         10.2273        -3.67592        -4.04043        -3.52826         10.0797        -4.04043         2.84595     252.905E-03    -58.1105E-03    -194.795E-03    -160.599E-03     218.710E-03    -58.1105E-03     237.521E-03     41.6004E+06     18.2401E+06    -38.6728E+06    -27.1153E+06     6.68271E+06     41.6004E+06    -22.2147E+06         46.4540
            1986     12.1852E-03     129.046E-03         10.1308        -3.48958        -3.94302        -3.38006         10.0212        -3.94302         2.41958     281.048E-03    -65.5990E-03    -215.449E-03    -182.338E-03     247.937E-03    -65.5990E-03     247.541E-03     67.1479E+06     50.6408E+06    -21.7579E+06    -14.0213E+06     50.8084E+06     59.2437E+06    -21.7445E+06         50.9703
            1987     13.0214E-03     129.292E-03         10.0459        -3.30791        -3.84278        -3.23124         9.96926        -3.84278         2.01351     305.462E-03    -73.4262E-03    -232.036E-03    -201.285E-03     274.711E-03    -73.4262E-03     249.260E-03     94.3581E+06     69.4734E+06    -15.5986E+06    -9.41852E+06     88.1780E+06     69.4734E+06    -23.4933E+06         55.4223
            1988     13.8435E-03     129.531E-03         9.96879        -3.11857        -3.74504        -3.07128         9.92150        -3.74504         1.53581     322.704E-03    -81.6104E-03    -241.094E-03    -218.865E-03     300.475E-03    -81.6104E-03     216.551E-03     101.504E+06     82.1577E+06    -16.8848E+06    -10.0838E+06     94.7030E+06     82.1577E+06    -22.7092E+06         59.6105
            1989     14.6386E-03     129.745E-03         9.92847        -2.94990        -3.64885        -2.92834         9.90691        -3.64885         1.03879     341.923E-03    -89.7993E-03    -252.124E-03    -230.941E-03     320.740E-03    -89.7993E-03     218.781E-03     84.7784E+06     66.7633E+06    -25.1363E+06    -9.42793E+06     61.3303E+06     74.5030E+06    -21.8506E+06         63.6731
            1990     15.4243E-03     130.031E-03         9.93680        -2.80255        -3.56071        -2.79422         9.92847        -3.56071     576.628E-03     348.160E-03    -97.7086E-03    -250.452E-03    -236.373E-03     334.082E-03    -97.7086E-03     153.896E-03      75.726E+06     28.9146E+06    -56.4254E+06    -11.6333E+06    -7.96793E+06     67.8165E+06    -15.9442E+06         67.8026
            1991     986.265E-06     129.073E-03         8.90480        -4.08178        -4.21373        -4.16580         8.85687        -4.08178         1.44944     30.4775E-03    -14.6803E-03    -15.7972E-03    -15.1884E-03     29.8755E-03    -14.6872E-03     9.42579E-03    -119.932E+06    -170.961E+06    -179.764E+06    -171.721E+06    -127.192E+06    -171.745E+06     11.5088E+06         22.9738
            1992     1.97096E-03     129.075E-03         9.03819        -4.12780        -4.25478        -4.14569         8.92911        -4.12780         2.37636     34.2891E-03    -15.4335E-03    -18.8556E-03    -16.9310E-03     32.3645E-03    -15.4335E-03     19.3663E-03    -112.894E+06    -151.529E+06    -167.688E+06    -157.359E+06    -123.223E+06    -151.529E+06     18.1932E+06         23.2849
            1993     2.95282E-03     129.078E-03         9.17852        -4.13417        -4.32288        -4.15550         9.01115        -4.13417         2.97220     40.6024E-03    -16.4755E-03    -24.1269E-03    -19.8874E-03     36.3628E-03    -16.4755E-03     31.6613E-03    -107.591E+06    -131.554E+06    -152.539E+06    -140.361E+06    -118.276E+06    -133.047E+06     18.1400E+06         23.8222
            1994     3.93237E-03     129.094E-03         9.29449        -4.13281        -4.34393        -4.12442         9.07498        -4.13281         3.42517     50.1608E-03    -17.9593E-03    -32.2015E-03    -24.5745E-03     42.5338E-03    -17.9593E-03     47.5480E-03    -99.4227E+06    -108.053E+06    -132.853E+06    -121.006E+06    -111.187E+06    -108.136E+06     14.2365E+06         24.6301
            1995     4.90577E-03     129.119E-03         9.37305        -4.11865        -4.31191        -4.06039         9.12153        -4.11865         3.67004     62.8930E-03    -19.9327E-03    -42.9603E-03    -31.0076E-03     50.9403E-03    -19.9327E-03     66.8952E-03    -80.6971E+06    -86.4092E+06    -117.355E+06    -103.337E+06    -100.427E+06    -80.6971E+06     7.36120E+06         25.7552
            1996     5.87305E-03     129.166E-03         9.46564        -4.09338        -4.27795        -4.00294         9.19063        -4.09338         3.84302     79.1814E-03    -22.4041E-03    -56.7773E-03    -39.7488E-03     62.1529E-03    -22.4041E-03     89.9417E-03    -56.5691E+06    -72.4636E+06    -97.7378E+06    -87.3918E+06    -82.8097E+06    -56.5691E+06     3.13342E+06         27.2538
            1997     6.83225E-03     129.234E-03         9.54635        -4.05945        -4.22708        -3.93923         9.25850        -4.05945         3.93527     99.9288E-03    -25.5087E-03    -74.4202E-03    -51.7963E-03     77.3050E-03    -25.5087E-03     117.130E-03    -30.5998E+06    -55.6336E+06    -78.6476E+06    -71.0844E+06    -63.1969E+06    -30.5998E+06    -799.552E+03         29.1885
            1998     7.77743E-03     129.330E-03         9.58925        -4.01639        -4.13437        -3.86504         9.31993        -4.01639         3.80090     124.864E-03    -29.3449E-03    -95.5187E-03    -67.1983E-03     96.5432E-03    -29.3449E-03     147.447E-03    -1.92362E+06    -28.6009E+06    -64.6980E+06    -55.3301E+06    -37.9688E+06    -1.92362E+06    -8.23171E+06         31.6167
            1999     8.71059E-03     129.460E-03         9.57495        -3.94986        -4.00493        -3.75423         9.33677        -3.96238         3.56198     154.019E-03    -33.9782E-03    -120.041E-03    -86.8729E-03     120.851E-03    -33.9782E-03     178.677E-03     17.7502E+06    -15.1906E+06    -56.0019E+06    -46.0593E+06    -25.1333E+06     17.7502E+06    -15.8484E+06         34.5856
            2000     9.62661E-03     129.623E-03         9.49555        -3.79633        -3.89443        -3.58927         9.28850        -3.89443         3.28823     187.598E-03    -39.5411E-03    -148.057E-03    -111.668E-03     151.209E-03    -39.5411E-03     208.532E-03     29.5089E+06    -5.32586E+06    -53.9809E+06    -40.0600E+06    -19.2468E+06     29.5089E+06    -21.3892E+06         38.1078
            2001     10.5176E-03     129.830E-03         9.40780        -3.59669        -3.81244        -3.42318         9.23429        -3.81244         2.98137     224.369E-03    -46.1018E-03    -178.267E-03    -139.877E-03     185.979E-03    -46.1018E-03     236.285E-03     38.2616E+06     7.92439E+06    -47.8305E+06    -32.0720E+06    -7.83405E+06     38.2616E+06    -24.3352E+06         42.1286
            2002     11.3890E-03     130.068E-03         9.33273        -3.41346        -3.72086        -3.26869         9.18796        -3.72086         2.69849     259.208E-03    -53.5443E-03    -205.664E-03    -167.126E-03     220.670E-03    -53.5443E-03     256.064E-03     46.6810E+06     26.1797E+06    -40.2511E+06    -24.5636E+06     10.4923E+06     46.6810E+06    -26.5651E+06         46.5399
            2003     12.2366E-03     130.332E-03         9.24621        -3.21349        -3.62387        -3.10577         9.13849        -3.62387         2.29536     289.640E-03    -61.6300E-03    -228.010E-03    -191.523E-03     253.153E-03    -61.6300E-03     264.699E-03     69.2504E+06     53.5057E+06    -31.1783E+06    -21.3204E+06     54.0976E+06     58.8005E+06    -27.3294E+06         51.1890
            2004     13.0688E-03     130.603E-03         9.17473        -3.02011        -3.52311        -2.94409         9.09870        -3.52311         1.91628     320.649E-03    -70.2654E-03    -250.384E-03    -217.137E-03     287.403E-03    -70.2654E-03     266.964E-03     94.9751E+06     68.0151E+06    -19.9925E+06    -14.6100E+06     89.5926E+06     68.0151E+06    -23.2783E+06         55.7893
            2005     13.8646E-03     130.913E-03         9.16384        -2.86563        -3.42591        -2.81781         9.11602        -3.42591         1.48295     337.469E-03    -79.3378E-03    -258.131E-03    -233.808E-03     313.146E-03    -79.3378E-03     232.998E-03     100.861E+06     79.1367E+06    -10.1936E+06    -5.26780E+06     95.9353E+06     79.1367E+06    -19.5850E+06         60.0836
            2006     14.6554E-03     131.122E-03         9.21970        -2.74427        -3.33507        -2.72281         9.19823        -3.33507     994.920E-03     352.529E-03    -88.2909E-03    -264.238E-03    -241.553E-03     329.844E-03    -88.2909E-03     230.804E-03     84.5220E+06     61.8594E+06    -13.3090E+06     144.651E+03     53.6200E+06     79.3077E+06    -14.6989E+06         64.2068
            2007     15.4597E-03     131.438E-03         9.34155        -2.65480        -3.25506        -2.64702         9.33377        -3.25506     542.944E-03     363.011E-03    -96.8897E-03    -266.121E-03    -251.020E-03     347.909E-03    -96.8897E-03     167.374E-03     83.8945E+06     36.8602E+06    -58.8446E+06     5.85949E+06    -23.4720E+06     79.5226E+06    -5.55404E+06         68.4220
            2008     992.586E-06     130.095E-03         7.84155        -3.86886        -3.98712        -3.91438         7.78941        -3.88946         1.47108     17.8391E-03    -8.40867E-03    -9.43048E-03    -8.94162E-03     17.3845E-03    -8.44288E-03     6.49458E-03    -137.943E+06    -223.693E+06    -228.987E+06    -227.987E+06    -138.159E+06    -224.477E+06     1.15472E+06         22.0990
            2009     1.98359E-03     130.098E-03         7.97542        -3.90257        -4.03085        -3.90909         7.85366        -3.90257         2.37573     22.1976E-03    -9.22481E-03    -12.9728E-03    -11.2834E-03     20.5082E-03    -9.22481E-03     14.6667E-03    -122.382E+06    -207.727E+06    -218.237E+06    -208.437E+06    -126.318E+06    -213.591E+06    -2.82076E+06         22.4393
            2010     2.97084E-03     130.109E-03         8.12776        -3.90323        -4.09917        -3.91217         7.94077        -3.90323         2.98609     29.8992E-03    -10.5226E-03    -19.3766E-03    -15.2279E-03     25.7505E-03    -10.5226E-03     27.1579E-03    -108.790E+06    -185.032E+06    -196.025E+06    -181.024E+06    -114.130E+06    -194.693E+06    -8.64510E+06         23.0238
            2011     3.95291E-03     130.129E-03         8.23270        -3.89382        -4.08426        -3.84602         7.99446        -3.89382         3.38514     40.9509E-03    -12.4322E-03    -28.5187E-03    -20.8232E-03     33.2555E-03    -12.4322E-03     43.5073E-03    -99.2234E+06    -150.751E+06    -163.555E+06    -150.249E+06    -108.844E+06    -154.436E+06    -13.0016E+06         23.8914
            2012     4.93004E-03     130.167E-03         8.33674        -3.87058        -4.05810        -3.78167         8.06030        -3.87058         3.65546     54.8975E-03    -14.8374E-03    -40.0601E-03    -28.0375E-03     42.8749E-03    -14.8374E-03     63.1014E-03    -80.4860E+06    -110.095E+06    -130.487E+06    -118.600E+06    -93.4094E+06    -109.058E+06    -15.0364E+06         25.0847
            2013     5.89960E-03     130.223E-03         8.45650        -3.84006        -4.03310        -3.73515         8.15855        -3.84006         3.80879     72.1931E-03    -17.7073E-03    -54.4857E-03    -37.2720E-03     54.9793E-03    -17.7073E-03     86.7990E-03    -54.7764E+06    -74.5118E+06    -109.959E+06    -88.0343E+06    -81.9089E+06    -69.3044E+06    -16.9642E+06         26.6601
            2014     6.86081E-03     130.308E-03         8.53269        -3.80251        -3.95552        -3.65644         8.23361        -3.80251         3.81754     93.8292E-03    -21.1131E-03    -72.7161E-03    -49.4308E-03     70.5440E-03    -21.1131E-03     115.499E-03    -27.3951E+06    -41.6100E+06    -84.8274E+06    -62.4900E+06    -60.4539E+06    -30.8886E+06    -16.0429E+06         28.6826
            2015     7.81114E-03     130.426E-03         8.55795        -3.75222        -3.83642        -3.56108         8.28561        -3.75522         3.63010     120.117E-03    -25.1765E-03    -94.9406E-03    -65.6071E-03     90.7836E-03    -25.1765E-03     147.592E-03     1.50045E+06    -20.4382E+06    -58.1381E+06    -47.4762E+06    -31.1001E+06     1.50045E+06    -14.8111E+06         31.2130
            2016     8.74683E-03     130.578E-03         8.53736        -3.64646        -3.71776        -3.43853         8.30831        -3.69664         3.30900     152.006E-03    -30.0802E-03    -121.926E-03    -87.0064E-03     117.087E-03    -30.0802E-03     182.650E-03     25.9100E+06    -2.96496E+06    -47.9864E+06    -35.7902E+06    -15.1611E+06     25.9100E+06    -16.5204E+06         34.2868
            2017     9.65976E-03     130.781E-03         8.46594        -3.45750        -3.62478        -3.26910         8.27753        -3.62478         2.96991     188.250E-03    -35.9404E-03    -152.310E-03    -113.133E-03     149.073E-03    -35.9404E-03     217.162E-03     41.5219E+06     11.7004E+06    -45.8813E+06    -23.2957E+06    -10.8852E+06     41.5219E+06    -21.2359E+06         37.8816
            2018     10.5560E-03     131.020E-03         8.38742        -3.25144        -3.54044        -3.09537         8.23136        -3.54044         2.67485     226.266E-03    -42.7619E-03    -183.504E-03    -141.829E-03     184.591E-03    -42.7619E-03     247.549E-03     51.7071E+06     18.7683E+06    -38.0824E+06    -14.8027E+06    -4.51145E+06     51.7071E+06    -20.3691E+06         41.9202
            2019     11.4262E-03     131.310E-03         8.31308        -3.05312        -3.44727        -2.92420         8.18416        -3.44727         2.40420     261.605E-03    -50.4389E-03    -211.167E-03    -170.160E-03     220.599E-03    -50.4389E-03     265.716E-03     60.0488E+06     29.1929E+06    -25.6678E+06    -14.4730E+06     17.9981E+06     60.0488E+06    -18.4259E+06         46.3271
            2020     12.2774E-03     131.606E-03         8.23944        -2.85457        -3.34860        -2.75851         8.14338        -3.34860         2.04691     297.568E-03    -58.9108E-03    -238.658E-03    -200.481E-03     259.391E-03    -58.9108E-03     275.403E-03     82.3671E+06     52.7876E+06    -22.7568E+06    -15.4429E+06     60.6903E+06     67.1505E+06    -19.7563E+06         50.9758
            2021     13.0923E-03     131.943E-03         8.19634        -2.67582        -3.24798        -2.61113         8.13165        -3.24798         1.66052     330.167E-03    -68.0659E-03    -262.102E-03    -226.301E-03     294.367E-03    -68.0659E-03     282.071E-03     101.778E+06     74.7856E+06    -21.1053E+06    -15.3469E+06     96.0197E+06     74.7856E+06    -23.0324E+06         55.5964
            2022     13.8969E-03     132.288E-03         8.22235        -2.53015        -3.15375        -2.49151         8.18372        -3.15375         1.26371     344.831E-03    -77.5444E-03    -267.287E-03    -240.335E-03     317.880E-03    -77.5444E-03     248.333E-03     98.9133E+06     82.0726E+06    -19.7269E+06    -13.0372E+06     92.0155E+06     82.2807E+06    -24.6622E+06         60.0242
            2023     14.6893E-03     132.513E-03         8.34567        -2.44349        -3.06841        -2.42547         8.32765        -3.06841     860.255E-03     365.579E-03    -86.9928E-03    -278.587E-03    -255.082E-03     342.075E-03    -86.9928E-03     241.019E-03     76.7015E+06     50.6599E+06    -27.9051E+06    -7.68220E+06     35.2937E+06     71.8447E+06    -16.9377E+06         64.3520
            2024     15.4465E-03     132.866E-03         8.56194        -2.41391        -2.99494        -2.40771         8.55575        -2.99494     480.074E-03     375.551E-03    -96.2844E-03    -279.266E-03    -264.078E-03     360.363E-03    -96.2844E-03     174.823E-03     71.9482E+06     20.8578E+06    -77.3470E+06    -7.60180E+06    -44.5154E+06     67.5762E+06    -5.96143E+06         68.7019
            2025     993.506E-06     131.107E-03         6.80322        -3.74045        -3.80781        -3.72170         6.75078        -3.77414         1.41532     14.7752E-03    -7.10686E-03    -7.66837E-03    -7.45627E-03     14.5973E-03    -7.14107E-03     3.40148E-03    -129.582E+06    -216.190E+06    -221.243E+06    -219.598E+06    -131.141E+06    -216.276E+06    -3.94889E+06         21.8306
            2026     1.98577E-03     131.114E-03         6.90767        -3.73998        -3.84474        -3.71242         6.77535        -3.73998         2.32559     17.8773E-03    -7.67198E-03    -10.2053E-03    -9.23323E-03     16.9052E-03    -7.67198E-03     9.34364E-03    -104.022E+06    -207.101E+06    -221.979E+06    -210.822E+06    -109.315E+06    -212.965E+06    -21.0241E+06         22.1544
            2027     2.97641E-03     131.129E-03         7.05388        -3.72302        -3.87720        -3.67704         6.85372        -3.72302         2.92636     24.5270E-03    -8.70612E-03    -15.8209E-03    -12.7659E-03     21.4720E-03    -8.70612E-03     20.8616E-03    -85.8417E+06    -199.802E+06    -219.972E+06    -200.203E+06    -97.4440E+06    -207.969E+06    -34.5847E+06         22.7160
            2028     3.96221E-03     131.159E-03         7.18419        -3.70171        -3.87197        -3.62864         6.94086        -3.70171         3.23952     35.3377E-03    -10.3880E-03    -24.9497E-03    -18.2906E-03     28.6786E-03    -10.3880E-03     37.6045E-03    -74.5463E+06    -183.754E+06    -205.001E+06    -181.527E+06    -95.7169E+06    -186.057E+06    -45.1684E+06         23.5631
            2029     4.94047E-03     131.206E-03         7.32375        -3.67520        -3.85257        -3.57280         7.04398        -3.67520         3.49093     49.9698E-03    -12.6807E-03    -37.2891E-03    -25.8894E-03     38.5702E-03    -12.6807E-03     58.7790E-03    -58.6683E+06    -152.394E+06    -179.304E+06    -151.869E+06    -86.1039E+06    -152.394E+06    -50.4516E+06         24.7499
            2030     5.91191E-03     131.275E-03         7.45449        -3.64452        -3.81470        -3.52298         7.16278        -3.64452         3.57893     68.7933E-03    -15.6443E-03    -53.1490E-03    -36.1927E-03     51.8371E-03    -15.6443E-03     84.3797E-03    -37.9010E+06    -107.613E+06    -158.827E+06    -118.377E+06    -78.3510E+06    -107.613E+06    -50.6432E+06         26.3377
            2031     6.87258E-03     131.375E-03         7.52699        -3.60741        -3.71557        -3.43718         7.24923        -3.60804         3.48916     91.4287E-03    -19.3034E-03    -72.1253E-03    -49.1400E-03     68.4434E-03    -19.3034E-03     113.671E-03    -22.6531E+06    -56.8684E+06    -127.467E+06    -86.7883E+06    -65.7763E+06    -54.4236E+06    -44.1063E+06         28.3888
            2032     7.82364E-03     131.511E-03         7.51706        -3.50550        -3.58763        -3.28767         7.27167        -3.56008         3.25474     118.913E-03    -23.6299E-03    -95.2827E-03    -66.1604E-03     89.7903E-03    -23.6299E-03     146.799E-03     1.45202E+06    -16.8130E+06    -81.1739E+06    -54.2707E+06    -35.4110E+06    -6.85321E+06    -33.9514E+06         30.9518
            2033     8.75618E-03     131.694E-03         7.47323        -3.32408        -3.49821        -3.12351         7.27266        -3.49821         2.90920     151.535E-03    -28.7636E-03    -122.771E-03    -87.8583E-03     116.622E-03    -28.7636E-03     182.779E-03     27.7298E+06     8.62575E+06    -52.6839E+06    -28.7137E+06    -15.1550E+06     27.5403E+06    -26.2389E+06         34.0310
            2034     9.67613E-03     131.924E-03         7.41103        -3.10712        -3.42443        -2.95480         7.25871        -3.42443         2.50680     188.112E-03    -34.8054E-03    -153.307E-03    -113.739E-03     148.545E-03    -34.8054E-03     218.451E-03     49.1014E+06     16.9837E+06    -46.0981E+06    -20.2981E+06    -8.81626E+06     49.1014E+06    -19.0541E+06         37.5696
            2035     10.5678E-03     132.209E-03         7.30684        -2.86282        -3.33942        -2.73932         7.18335        -3.33942         2.22614     226.066E-03    -41.7247E-03    -184.342E-03    -142.277E-03     184.002E-03    -41.7247E-03     248.756E-03     58.1258E+06     16.6004E+06    -42.7520E+06    -22.5172E+06    -3.63442E+06     58.1258E+06    -16.5338E+06         41.4860
            2036     11.4416E-03     132.530E-03         7.18930        -2.61894        -3.24477        -2.51855         7.08892        -3.24477         1.96612     263.482E-03    -49.5354E-03    -213.947E-03    -172.965E-03     222.501E-03    -49.5354E-03     266.990E-03     70.5809E+06     32.1820E+06    -25.4445E+06    -15.0920E+06     21.8296E+06     70.5809E+06    -19.1511E+06         45.7096
            2037     12.2849E-03     132.885E-03         7.12526        -2.42498        -3.14623        -2.35281         7.05309        -3.14623         1.64426     301.053E-03    -58.2006E-03    -242.852E-03    -203.918E-03     262.118E-03    -58.2006E-03     280.214E-03     92.5231E+06     52.8632E+06    -7.75919E+06    -2.36848E+06     55.4044E+06     84.5912E+06    -13.4897E+06         50.1145
            2038     13.1066E-03     133.278E-03         7.11025        -2.26097        -3.04955        -2.21667         7.06594        -3.04955         1.26232     328.666E-03    -67.3767E-03    -261.289E-03    -225.298E-03     292.675E-03    -67.3767E-03     282.003E-03     124.144E+06     84.7536E+06    -6.64973E+06    -824.292E+03     104.182E+06     98.8900E+06    -1.43012E+06         54.5705
            2039     13.9167E-03     133.632E-03         7.16338        -2.12827        -2.95972        -2.10290         7.13801        -2.95972     963.661E-03     347.240E-03    -76.8501E-03    -270.390E-03    -242.897E-03     319.747E-03    -76.8501E-03     252.542E-03     129.264E+06     109.152E+06    -15.7348E+06    -6.94945E+06     117.689E+06     111.941E+06    -7.60346E+06         59.1443
            2040     14.6894E-03     133.950E-03         7.33050        -2.07653        -2.87916        -2.06245         7.31641        -2.87916     687.501E-03     374.195E-03    -86.4992E-03    -287.696E-03    -263.417E-03     349.916E-03    -86.4992E-03     248.579E-03     80.0489E+06     54.7683E+06    -40.3642E+06    -12.0109E+06     26.4150E+06     80.0489E+06    -15.9298E+06         63.8144
            2041     15.4654E-03     134.298E-03         7.61758        -2.09419        -2.81216        -2.09029         7.61368        -2.81216     343.692E-03     379.637E-03    -95.9760E-03    -283.661E-03    -268.420E-03     364.396E-03    -95.9760E-03     180.514E-03     68.6414E+06    -2.46048E+06    -95.0176E+06    -8.84193E+06    -65.7668E+06     45.7720E+06    -8.80132E+06         68.4232
            2042     990.392E-06     132.123E-03         5.80135        -3.66462        -3.73859        -3.67209         5.74794        -3.67770         1.35336     20.4763E-03    -9.95997E-03    -10.5164E-03    -10.2920E-03     20.4505E-03    -10.1586E-03     748.528E-06    -97.5317E+06    -165.499E+06    -173.497E+06    -162.113E+06    -108.830E+06    -165.585E+06    -16.9183E+06         22.2206
            2043     1.98051E-03     132.131E-03         5.91122        -3.66185        -3.74058        -3.61066         5.78131        -3.66185         2.18961     22.8876E-03    -10.6491E-03    -12.2385E-03    -11.9769E-03     22.6259E-03    -10.6491E-03     4.03615E-03    -70.9655E+06    -142.816E+06    -161.515E+06    -150.187E+06    -82.2938E+06    -142.816E+06    -28.4863E+06         22.5155
            2044     2.96816E-03     132.150E-03         6.02978        -3.63253        -3.72526        -3.53626         5.84079        -3.63253         2.68725     27.4446E-03    -11.5714E-03    -15.8731E-03    -14.6476E-03     26.2190E-03    -11.5714E-03     12.0249E-03    -52.6179E+06    -134.450E+06    -162.946E+06    -143.496E+06    -72.0682E+06    -134.450E+06    -41.3007E+06         23.0147
            2045     3.95320E-03     132.185E-03         6.18634        -3.60204        -3.71908        -3.49510         5.96236        -3.60204         2.94226     35.0149E-03    -12.8631E-03    -22.1518E-03    -18.6103E-03     31.4735E-03    -12.8631E-03     25.5537E-03    -38.1914E+06    -130.416E+06    -172.802E+06    -141.416E+06    -69.5775E+06    -130.416E+06    -55.7801E+06         23.7709
            2046     4.93478E-03     132.241E-03         6.35255        -3.57406        -3.69700        -3.44699         6.10254        -3.57406         3.12980     47.4798E-03    -14.6758E-03    -32.8040E-03    -25.1966E-03     39.8724E-03    -14.6758E-03     45.7124E-03    -30.4312E+06    -123.510E+06    -180.809E+06    -140.913E+06    -70.3275E+06    -123.510E+06    -65.6657E+06         24.8535
            2047     5.90659E-03     132.324E-03         6.47185        -3.53360        -3.63022        -3.36521         6.21681        -3.54358         3.16738     65.6522E-03    -17.2087E-03    -48.4435E-03    -35.2403E-03     52.4489E-03    -17.2087E-03     72.3574E-03    -22.7842E+06    -109.056E+06    -181.164E+06    -136.434E+06    -67.5144E+06    -109.056E+06    -70.5392E+06         26.3421
            2048     6.86787E-03     132.441E-03         6.52241        -3.43682        -3.53995        -3.23823         6.28916        -3.50528         3.01351     89.5996E-03    -20.6619E-03    -68.9377E-03    -49.2848E-03     69.9467E-03    -20.6619E-03     104.238E-03    -10.0319E+06    -72.9539E+06    -170.536E+06    -116.948E+06    -63.6197E+06    -72.9539E+06    -74.9536E+06         28.3107
            2049     7.81303E-03     132.596E-03         6.49087        -3.24131        -3.45479        -3.04920         6.29876        -3.45479         2.70083     119.207E-03    -24.9631E-03    -94.2437E-03    -67.6782E-03     92.6414E-03    -24.9631E-03     140.792E-03     9.60102E+06    -42.2180E+06    -140.678E+06    -85.8199E+06    -45.2575E+06    -42.2180E+06    -72.2507E+06         30.7935
            2050     8.74614E-03     132.804E-03         6.41127        -2.97834        -3.39041        -2.82768         6.26061        -3.39041         2.35059     152.941E-03    -30.2844E-03    -122.657E-03    -90.3031E-03     120.588E-03    -30.2844E-03     177.244E-03     20.8768E+06    -20.3444E+06    -102.012E+06    -57.0737E+06    -38.8280E+06    -5.57739E+06    -52.3335E+06         33.7598
            2051     9.65491E-03     133.063E-03         6.29959        -2.70506        -3.31326        -2.59476         6.18928        -3.31326         1.97195     189.252E-03    -36.6341E-03    -152.618E-03    -116.266E-03     152.900E-03    -36.6341E-03     210.529E-03     41.0651E+06     2.22993E+06    -65.4157E+06    -35.5995E+06    -27.5863E+06     41.0651E+06    -26.1699E+06         37.1203
            2052     10.5508E-03     133.382E-03         6.18373        -2.45129        -3.22656        -2.36909         6.10154        -3.22656         1.66320     225.581E-03    -43.8024E-03    -181.779E-03    -144.095E-03     187.898E-03    -43.8024E-03     235.449E-03     72.2524E+06     19.4109E+06    -31.0521E+06    -12.7803E+06     1.13915E+06     72.2524E+06    -17.6431E+06         40.7603
            2053     11.4203E-03     133.744E-03         6.06870        -2.20615        -3.13509        -2.14644         6.00899        -3.13509         1.37885     261.557E-03    -51.7784E-03    -209.778E-03    -172.917E-03     224.695E-03    -51.7784E-03     252.597E-03     91.1947E+06     33.3260E+06    -9.26683E+06     2.10718E+06     21.9520E+06     91.1947E+06    -15.3310E+06         44.5682
            2054     12.2630E-03     134.157E-03         5.97054        -1.97254        -3.04225        -1.93032         5.92832        -3.04225         1.14517     294.171E-03    -60.3426E-03    -233.828E-03    -198.072E-03     258.414E-03    -60.3426E-03     265.020E-03     102.059E+06     44.6598E+06    -2.78855E+06     2.09566E+06     39.7756E+06     102.059E+06    -5.33663E+06         48.4588
            2055     13.0927E-03     134.570E-03         5.94285        -1.78939        -2.95131        -1.76417         5.91764        -2.95131     844.139E-03     319.500E-03    -69.1613E-03    -250.339E-03    -217.830E-03     286.992E-03    -69.1613E-03     263.779E-03     130.267E+06     82.0948E+06     2.50342E+06     9.16627E+06     87.1093E+06     118.590E+06     2.32669E+06         52.4932
            2056     13.8962E-03     134.991E-03         6.02946        -1.69381        -2.86776        -1.68174         6.01739        -2.86776     577.371E-03     340.353E-03    -78.1826E-03    -262.171E-03    -235.406E-03     313.589E-03    -78.1826E-03     247.508E-03     155.733E+06     128.101E+06     5.31872E+06     17.7309E+06     127.366E+06     144.056E+06     18.4083E+06         56.9650
            2057     14.6901E-03     135.356E-03         6.20674        -1.66538        -2.79529        -1.65909         6.20045        -2.79529     370.252E-03     366.326E-03    -87.1953E-03    -279.131E-03    -252.077E-03     339.272E-03    -87.1953E-03     257.903E-03     122.056E+06     95.6511E+06    -23.6832E+06     11.2565E+06     60.7115E+06     122.056E+06     19.8979E+06         61.9306
            2058     15.4479E-03     135.743E-03         6.48855        -1.67848        -2.73410        -1.67765         6.48773        -2.73410     124.671E-03     376.202E-03    -95.9741E-03    -280.228E-03    -262.324E-03     358.298E-03    -95.9741E-03     196.513E-03     83.5342E+06     17.6523E+06    -95.3080E+06     1.62055E+06    -56.4068E+06     60.6648E+06    -3.27729E+06         67.0651
            2059     984.618E-06     133.147E-03         4.95252        -3.73806        -3.79364        -3.74274         4.90893        -3.74537         1.14508     34.4486E-03    -16.7480E-03    -17.7006E-03    -17.3810E-03     34.4291E-03    -17.0481E-03    -1.76870E-03    -54.6504E+06    -89.4970E+06    -109.201E+06    -93.1660E+06    -74.1712E+06    -86.0117E+06    -21.2025E+06         23.3065
            2060     1.96713E-03     133.159E-03         5.04958        -3.71803        -3.76951        -3.65752         4.94857        -3.72900         1.84926     37.6373E-03    -17.8264E-03    -19.8109E-03    -19.7393E-03     37.5656E-03    -17.8264E-03    -2.15221E-03    -36.7811E+06    -79.8711E+06    -111.118E+06    -92.2113E+06    -55.6878E+06    -79.8711E+06    -30.8296E+06         23.6037
            2061     2.94714E-03     133.181E-03         5.13197        -3.66078        -3.72230        -3.54224         4.98160        -3.69047         2.27213     41.4691E-03    -19.0359E-03    -22.4332E-03    -22.2064E-03     41.2423E-03    -19.0359E-03     378.017E-06    -18.5579E+06    -69.6063E+06    -111.376E+06    -84.6454E+06    -45.2889E+06    -69.6063E+06    -41.2219E+06         24.0729
            2062     3.92509E-03     133.220E-03         5.27857        -3.60820        -3.68506        -3.46317         5.09688        -3.64840         2.51634     46.6410E-03    -20.4752E-03    -26.1658E-03    -25.3968E-03     45.8720E-03    -20.4752E-03     7.52976E-03    -8.23912E+06    -56.1216E+06    -115.695E+06    -80.2796E+06    -43.6541E+06    -56.1216E+06    -49.6287E+06         24.7458
            2063     4.89892E-03     133.281E-03         5.43421        -3.54625        -3.65142        -3.39553         5.24363        -3.61157         2.58743     54.5111E-03    -22.2144E-03    -32.2966E-03    -29.9546E-03     52.1690E-03    -22.2144E-03     20.6937E-03    -6.13564E+06    -47.4335E+06    -124.276E+06    -79.5091E+06    -50.9029E+06    -47.4335E+06    -56.3282E+06         25.6825
            2064     5.86856E-03     133.375E-03         5.51229        -3.41796        -3.58698        -3.24560         5.32594        -3.57298         2.54354     67.0225E-03    -24.3688E-03    -42.6537E-03    -37.0976E-03     61.4663E-03    -24.3688E-03     42.2049E-03     3.68164E+06    -45.3337E+06    -130.004E+06    -79.6694E+06    -46.6525E+06    -45.3337E+06    -63.7461E+06         26.9710
            2065     6.82886E-03     133.504E-03         5.52493        -3.20912        -3.52431        -3.04628         5.36209        -3.52431         2.34682     87.0301E-03    -27.2659E-03    -59.7642E-03    -49.0915E-03     76.3574E-03    -27.2659E-03     72.2298E-03     15.4711E+06    -41.7809E+06    -140.372E+06    -82.3158E+06    -42.5849E+06    -41.7809E+06    -74.9819E+06         28.7018
            2066     7.77648E-03     133.683E-03         5.47697        -2.94073        -3.46490        -2.81870         5.35494        -3.46490         1.99265     114.854E-03    -31.1639E-03    -83.6905E-03    -66.7720E-03     97.9359E-03    -31.1639E-03     108.237E-03     22.0480E+06    -41.8252E+06    -150.066E+06    -87.7487E+06    -40.2696E+06    -41.8252E+06    -82.2136E+06         30.9113
            2067     8.70161E-03     133.913E-03         5.34217        -2.61069        -3.39360        -2.52403         5.25551        -3.39360         1.62237     148.539E-03    -36.2685E-03    -112.270E-03    -89.3993E-03     125.668E-03    -36.2685E-03     145.814E-03     9.78381E+06    -42.2696E+06    -151.672E+06    -86.3088E+06    -62.9899E+06    -34.8593E+06    -73.8351E+06         33.5563
            2068     9.60984E-03     134.206E-03         5.16735        -2.27809        -3.31115        -2.22107         5.11032        -3.31115         1.25145     186.057E-03    -42.5957E-03    -143.461E-03    -116.427E-03     159.023E-03    -42.5957E-03     179.485E-03     20.5340E+06    -23.2494E+06    -125.798E+06    -65.9869E+06    -59.0532E+06    -3.47321E+06    -59.9293E+06         36.5183
            2069     10.4884E-03     134.549E-03         5.03806        -2.01336        -3.22419        -1.97761         5.00231        -3.22419     961.527E-03     222.667E-03    -50.0327E-03    -172.634E-03    -144.254E-03     194.287E-03    -50.0327E-03     202.990E-03     63.2660E+06     12.8086E+06    -82.3113E+06    -41.5025E+06    -13.8352E+06     49.1010E+06    -50.6987E+06         39.6370
            2070     11.3446E-03     134.952E-03         4.91745        -1.76320        -3.13727        -1.74110         4.89534        -3.13727     709.801E-03     254.382E-03    -58.1954E-03    -196.187E-03    -167.757E-03     225.952E-03    -58.1954E-03     218.384E-03     91.0198E+06     16.5543E+06    -51.6947E+06    -27.6797E+06    -7.46069E+06     91.0198E+06    -30.7750E+06         42.7842
            2071     12.1932E-03     135.383E-03         4.80750        -1.51434        -3.05120        -1.49953         4.79268        -3.05120     537.646E-03     281.069E-03    -66.5123E-03    -214.557E-03    -186.870E-03     253.382E-03    -66.5123E-03     226.853E-03     115.007E+06     28.9923E+06    -24.1023E+06    -12.6522E+06     17.5422E+06     115.007E+06    -12.4119E+06         45.9146
            2072     13.0205E-03     135.849E-03         4.79062        -1.34879        -2.96965        -1.34014         4.78197        -2.96965     335.948E-03     300.814E-03    -74.7369E-03    -226.078E-03    -200.366E-03     275.103E-03    -74.7369E-03     226.483E-03     139.637E+06     78.9487E+06    -6.69895E+06     256.061E+03     71.9937E+06     139.637E+06    -8.42590E+06         49.1669
            2073     13.8420E-03     136.299E-03         4.86228        -1.25960        -2.89622        -1.25699         4.85967        -2.89622     94.6302E-03     313.134E-03    -82.4876E-03    -230.647E-03    -206.221E-03     288.708E-03    -82.4876E-03     224.963E-03     143.206E+06     91.8964E+06    -15.5059E+06     9.49605E+06     66.8944E+06     143.206E+06     14.8618E+06         53.0665
            2074     14.6511E-03     136.718E-03         4.97629        -1.18999        -2.83052        -1.18874         4.97504        -2.83052     10.0239E-03     335.194E-03    -89.5153E-03    -245.678E-03    -216.094E-03     305.609E-03    -89.5153E-03     254.549E-03     143.330E+06     98.0625E+06    -20.2365E+06     16.9894E+06     72.5893E+06     131.577E+06     45.3045E+06         58.0318
            2075     15.4796E-03     137.144E-03         5.15914        -1.14541        -2.76894        -1.14446         5.15819        -2.76894    -69.9217E-03     360.573E-03    -96.5986E-03    -263.974E-03    -241.584E-03     338.183E-03    -96.5986E-03     219.566E-03     124.658E+06     61.2908E+06    -69.0439E+06     11.5951E+06     12.2296E+06     93.0807E+06     30.8648E+06         63.5845
            2076     974.214E-06     134.191E-03         4.43535        -4.06604        -4.09500        -4.04300         4.40888        -4.09157     887.140E-03     58.1617E-03    -28.6737E-03    -29.4880E-03    -29.2824E-03     58.0644E-03    -28.7820E-03    -5.65171E-03    -6.05711E+06    -19.3207E+06    -55.1946E+06    -21.3387E+06    -43.3983E+06    -15.8354E+06    -14.4021E+06         25.0216
            2077     1.94420E-03     134.208E-03         4.41387        -3.95034        -4.04208        -3.89741         4.35949        -4.04064         1.29408     62.5034E-03    -29.8833E-03    -32.6201E-03    -32.3914E-03     62.2748E-03    -29.8833E-03    -9.02029E-03     4.82084E+06    -11.2203E+06    -52.5331E+06    -19.6799E+06    -28.0324E+06    -11.2203E+06    -24.4902E+06         25.3608
            2078     2.91158E-03     134.233E-03         4.44039        -3.81467        -3.97713        -3.73165         4.35736        -3.97713         1.59140     68.3008E-03    -31.6223E-03    -36.6785E-03    -36.2329E-03     67.8552E-03    -31.6223E-03    -12.9404E-03     12.0498E+06    -10.8680E+06    -61.3038E+06    -27.1884E+06    -22.0656E+06    -10.8680E+06    -32.9208E+06         25.8813
            2079     3.87451E-03     134.277E-03         4.51457        -3.68039        -3.91304        -3.57924         4.41342        -3.91304         1.74760     74.1731E-03    -33.6884E-03    -40.4846E-03    -39.9186E-03     73.6070E-03    -33.6884E-03    -13.7525E-03     11.5933E+06    -8.95928E+06    -68.6328E+06    -32.8804E+06    -24.1590E+06    -8.95928E+06    -38.3980E+06         26.5796
            2080     4.83230E-03     134.343E-03         4.58293        -3.49670        -3.85066        -3.39618         4.48241        -3.85066         1.73345     80.3374E-03    -35.9561E-03    -44.3813E-03    -43.7351E-03     79.6911E-03    -35.9561E-03    -10.1733E-03     12.6431E+06    -8.31766E+06    -79.9328E+06    -35.5911E+06    -31.6986E+06    -8.31766E+06    -44.7949E+06         27.4808
            2081     5.78608E-03     134.438E-03         4.60374        -3.24820        -3.78481        -3.15916         4.51469        -3.78481         1.59584     88.4979E-03    -38.5337E-03    -49.9642E-03    -48.8275E-03     87.3612E-03    -38.5337E-03    -1.00373E-03     16.5775E+06    -6.77044E+06    -85.2049E+06    -39.7322E+06    -28.8952E+06    -6.77044E+06    -49.6084E+06         28.6393
            2082     6.73401E-03     134.577E-03         4.55624        -2.93531        -3.71151        -2.86271         4.48365        -3.71151         1.39539     100.787E-03    -41.6905E-03    -59.0969E-03    -56.5840E-03     98.2745E-03    -41.6905E-03     14.3586E-03     26.5019E+06    -2.82611E+06    -91.8105E+06    -47.5623E+06    -17.7464E+06    -2.82611E+06    -54.5967E+06         30.1116
            2083     7.66900E-03     134.767E-03         4.44155        -2.57838        -3.62943        -2.52940         4.39257        -3.62943         1.06382     118.767E-03    -45.7077E-03    -73.0593E-03    -68.2155E-03     113.923E-03    -45.7077E-03     35.6503E-03     25.1494E+06    -7.08796E+06    -102.768E+06    -59.1317E+06    -23.7895E+06    -1.78558E+06    -56.1784E+06         31.9175
            2084     8.59085E-03     135.020E-03         4.27948        -2.21877        -3.54096        -2.19245         4.25316        -3.54096     659.820E-03     142.983E-03    -50.7753E-03    -92.2081E-03    -84.5231E-03     135.298E-03    -50.7753E-03     59.4226E-03     12.0757E+06    -17.2665E+06    -127.149E+06    -70.9854E+06    -49.3903E+06    -11.9641E+06    -62.1236E+06         34.0031
            2085     9.48949E-03     135.332E-03         4.09856        -1.88359        -3.45076        -1.86895         4.08392        -3.45076     316.266E-03     170.392E-03    -56.9444E-03    -113.448E-03    -103.311E-03     160.255E-03    -56.9444E-03     83.5537E-03     9.69572E+06    -22.9810E+06    -145.894E+06    -80.0296E+06    -59.1767E+06    -19.9729E+06    -70.7640E+06         36.2353
            2086     10.3645E-03     135.719E-03         3.90871        -1.56463        -3.36175        -1.55369         3.89777        -3.36175     107.599E-03     197.466E-03    -64.0764E-03    -133.389E-03    -121.534E-03     185.611E-03    -64.0764E-03     106.752E-03     30.6104E+06     1.01234E+06    -137.369E+06    -84.3236E+06    -32.2588E+06     10.8365E+06    -70.9765E+06         38.4791
            2087     11.2228E-03     136.137E-03         3.74209        -1.27289        -3.27487        -1.26025         3.72944        -3.27487    -80.6664E-03     223.141E-03    -71.6709E-03    -151.470E-03    -138.633E-03     210.304E-03    -71.6709E-03     124.034E-03     49.2520E+06     5.19090E+06    -126.982E+06    -74.8632E+06    -41.3191E+06     43.6431E+06    -61.1537E+06         40.6602
            2088     12.0568E-03     136.601E-03         3.64901        -1.05689        -3.19332        -1.04408         3.63619        -3.19332    -216.307E-03     245.151E-03    -79.1840E-03    -165.967E-03    -152.550E-03     231.734E-03    -79.1840E-03     138.276E-03     70.2395E+06     12.1080E+06    -99.9346E+06    -58.3763E+06    -24.2626E+06     65.0517E+06    -49.1724E+06         42.7332
            2089     12.8851E-03     137.080E-03         3.63507    -912.917E-03        -3.11864    -903.119E-03         3.62527        -3.11864    -244.131E-03     255.251E-03    -86.0897E-03    -169.161E-03    -154.704E-03     240.794E-03    -86.0897E-03     151.113E-03     116.438E+06     49.9627E+06    -64.4769E+06    -44.9790E+06     35.6525E+06     111.250E+06    -33.5142E+06         44.8946
            2090     13.7195E-03     137.549E-03         3.68612    -807.546E-03        -3.04724    -798.656E-03         3.67723        -3.04724    -317.554E-03     259.860E-03    -91.6464E-03    -168.213E-03    -151.523E-03     243.170E-03    -91.6464E-03     164.709E-03     120.319E+06     32.8323E+06    -62.1763E+06    -38.3138E+06     8.96982E+06     120.319E+06    -8.33755E+06         47.8418
            2091     14.5888E-03     137.979E-03         3.73284    -696.083E-03        -2.97810    -684.852E-03         3.72161        -2.97810    -351.859E-03     277.655E-03    -96.0542E-03    -181.601E-03    -159.427E-03     255.481E-03    -96.0542E-03     195.477E-03     124.314E+06     41.3558E+06    -47.6001E+06    -18.7461E+06     24.2544E+06     112.561E+06     6.92932E+06         51.9632
            2092     15.4220E-03     138.464E-03         3.68648    -519.004E-03        -2.90625    -508.709E-03         3.67618        -2.90625    -332.379E-03     301.303E-03    -100.204E-03    -201.099E-03    -177.212E-03     277.416E-03    -100.204E-03     207.204E-03     131.670E+06     66.0619E+06    -69.5805E+06    -409.420E+03     28.4685E+06     100.092E+06     18.0439E+06         56.4610
            2093     955.657E-06     135.265E-03         4.34555        -4.70253        -4.80393        -4.69538         4.33641        -4.80194     411.945E-03     93.6626E-03    -46.2304E-03    -47.4322E-03    -47.2072E-03     93.4444E-03    -46.2372E-03    -10.4994E-03     47.4436E+06     35.6700E+06    -17.7097E+06     42.1514E+06    -14.2657E+06     37.5183E+06    -12.3381E+06         26.8468
            2094     1.91252E-03     135.286E-03         4.24283        -4.50991        -4.71526        -4.49527         4.22819        -4.71526     445.882E-03     98.0022E-03    -47.6215E-03    -50.3807E-03    -49.8785E-03     97.5001E-03    -47.6215E-03    -17.0065E-03     40.5088E+06     33.2144E+06    -13.7678E+06     33.8541E+06    -8.24245E+06     34.3438E+06    -14.9990E+06         27.2350
            2095     2.86009E-03     135.322E-03         4.15543        -4.23923        -4.62420        -4.21715         4.13335        -4.62420     482.951E-03     106.191E-03    -49.7124E-03    -56.4782E-03    -55.5376E-03     105.250E-03    -49.7124E-03    -24.4641E-03     35.0086E+06     28.4975E+06    -20.1557E+06     21.2201E+06    -7.49657E+06     29.6269E+06    -17.3222E+06         27.8565
            2096     3.80085E-03     135.370E-03         4.06083        -3.90872        -4.51964        -3.88230         4.03441        -4.51964     421.427E-03     116.212E-03    -52.6669E-03    -63.5455E-03    -62.0221E-03     114.689E-03    -52.6669E-03    -32.7893E-03     32.5623E+06     19.7525E+06    -25.9441E+06     8.62021E+06    -8.00137E+06     25.7518E+06    -20.7501E+06         28.6957
            2097     4.73706E-03     135.442E-03         3.94983        -3.51887        -4.40420        -3.48889         3.91986        -4.40420     306.685E-03     127.730E-03    -56.3453E-03    -71.3847E-03    -69.0825E-03     125.428E-03    -56.3453E-03    -41.8833E-03     34.9053E+06     12.2361E+06    -36.8926E+06    -2.42155E+06    -14.6467E+06     27.3172E+06    -24.7640E+06         29.7396
            2098     5.66289E-03     135.543E-03         3.83123        -3.10576        -4.28199        -3.07407         3.79954        -4.28199     116.696E-03     140.625E-03    -60.7398E-03    -79.8856E-03    -76.3796E-03     137.119E-03    -60.7398E-03    -52.4925E-03     35.4620E+06     13.5516E+06    -47.7192E+06    -13.7987E+06    -14.9481E+06     30.0411E+06    -29.6676E+06         30.9751
            2099     6.57534E-03     135.687E-03         3.67312        -2.66496        -4.15657        -2.62975         3.63792        -4.15657    -78.7503E-03     153.314E-03    -65.8554E-03    -87.4581E-03    -82.2532E-03     148.109E-03    -65.8554E-03    -63.1518E-03     42.0004E+06     13.7480E+06    -50.4993E+06    -24.0414E+06    -5.98875E+06     35.2792E+06    -30.4377E+06         32.3763
            2100     7.47755E-03     135.881E-03         3.46607        -2.21334        -4.02996        -2.17076         3.42349        -4.02996    -331.384E-03     165.881E-03    -71.6833E-03    -94.1973E-03    -86.5801E-03     158.263E-03    -71.6833E-03    -72.7888E-03     43.0536E+06     7.23899E+06    -56.2704E+06    -32.7911E+06    -9.66471E+06     36.4780E+06    -28.6959E+06         33.8914
            2101     8.36201E-03     136.135E-03         3.27214        -1.82199        -3.90721        -1.76527         3.21541        -3.90721    -628.054E-03     177.157E-03    -78.2146E-03    -98.9421E-03    -89.0660E-03     167.281E-03    -78.2146E-03    -77.7253E-03     43.8738E+06     2.18428E+06    -68.6156E+06    -39.6882E+06    -21.0816E+06     38.2124E+06    -29.4538E+06         35.4200
            2102     9.22423E-03     136.460E-03         3.09282        -1.48697        -3.79249        -1.40556         3.01141        -3.79249    -860.189E-03     184.352E-03    -83.4791E-03    -100.873E-03    -87.8171E-03     172.944E-03    -85.1271E-03    -74.5831E-03     44.8131E+06     4.80528E+06    -80.3654E+06    -42.8029E+06    -27.0958E+06     39.1517E+06    -36.5271E+06         36.8426
            2103     10.0828E-03     136.828E-03         2.89100        -1.16856        -3.68578        -1.06371         2.78615        -3.68578    -993.217E-03     187.790E-03    -81.8601E-03    -105.930E-03    -83.5603E-03     175.553E-03    -91.9932E-03    -62.9012E-03     50.4591E+06     8.02413E+06    -83.0983E+06    -45.7822E+06    -23.6831E+06     44.8502E+06    -38.4351E+06         38.0976
            2104     10.9288E-03     137.273E-03         2.70872    -885.048E-03        -3.58736    -766.803E-03         2.59047        -3.58736        -1.04398     189.758E-03    -74.0990E-03    -115.659E-03    -79.9719E-03     178.404E-03    -98.4321E-03    -43.7586E-03     49.3907E+06     16.3227E+06    -92.4468E+06    -48.2534E+06    -22.2617E+06     43.7818E+06    -43.1085E+06         39.1555
            2105     11.7726E-03     137.738E-03         2.59624    -674.612E-03        -3.49755    -556.791E-03         2.47842        -3.49755        -1.02060     187.607E-03    -63.3743E-03    -124.233E-03    -74.9277E-03     178.891E-03    -103.963E-03    -13.3239E-03     45.8752E+06     14.1681E+06    -110.939E+06    -57.1652E+06    -34.4179E+06     40.6875E+06    -39.6337E+06         40.0238
            2106     12.6189E-03     138.238E-03         2.52704    -490.676E-03        -3.41105    -388.797E-03         2.42516        -3.41105    -889.233E-03     179.251E-03    -53.8799E-03    -125.371E-03    -64.3682E-03     172.235E-03    -107.867E-03     19.5594E-03     87.4724E+06     30.1208E+06    -96.0906E+06    -58.3819E+06     4.35410E+06     75.5304E+06    -39.8984E+06         41.1160
            2107     13.5106E-03     138.690E-03         2.50859    -312.621E-03        -3.32411    -239.410E-03         2.43538        -3.32411    -734.998E-03     183.768E-03    -58.2306E-03    -125.538E-03    -66.1104E-03     176.467E-03    -110.357E-03     35.7775E-03     102.231E+06     28.3202E+06    -101.439E+06    -52.5190E+06    -13.8455E+06     95.4772E+06    -17.3295E+06         43.0461
            2108     14.3685E-03     139.170E-03         2.49488    -133.414E-03        -3.23517    -85.2604E-03         2.44673        -3.23517    -617.912E-03     192.096E-03    -59.5262E-03    -132.570E-03    -70.5500E-03     182.817E-03    -112.267E-03     47.8750E-03     115.259E+06     40.3755E+06    -81.6900E+06    -32.0525E+06    -9.26203E+06     115.259E+06    -9.88354E+06         45.3717
            2109     15.2553E-03     139.637E-03         2.30146     121.763E-03        -3.12907     149.871E-03         2.27336        -3.12907    -449.676E-03     176.016E-03    -39.1866E-03    -136.829E-03    -48.2177E-03     160.462E-03    -112.244E-03     83.5705E-03     105.584E+06     35.4779E+06    -82.1472E+06    -27.7697E+06     23.9817E+06     62.7024E+06    -16.6111E+06         47.0556


