********************************************************************************
Field Output Report, written Tue May  6 08:12:48 2025

Source 1
---------

   ODB: D:/AISI_1020/Vel_40/aisi_1020_2a_24_red_1500_cal_30_vel_40_fric_050.odb
   Step: Step-1
   Frame: Increment   2494764: Step Time =   0.3171

Loc 1 : Nodal values from source 1

Output sorted by column "Node Label".

Field Output reported at nodes for region: DIE_2A_24_D0_36-1.Region_1
   Computation algorithm: EXTRAPOLATE_COMPUTE_AVERAGE
   Averaged at nodes
   Averaging regions: ODB_REGIONS

      Node Label     COORD.COOR1     COORD.COOR2
                          @Loc 1          @Loc 1
-------------------------------------------------
               1     18.4810E-03     154.436E-03


Field Output reported at nodes for region: DIE_2A_24_D0_36-1.Region_2
   Computation algorithm: EXTRAPOLATE_COMPUTE_AVERAGE
   Averaged at nodes
   Averaging regions: ODB_REGIONS

      Node Label     COORD.COOR1     COORD.COOR2
                          @Loc 1          @Loc 1
-------------------------------------------------
               1     18.4810E-03     154.436E-03


Field Output reported at nodes for part: WIRE_1-1
   Computation algorithm: EXTRAPOLATE_COMPUTE_AVERAGE
   Averaged at nodes
   Averaging regions: ODB_REGIONS

      Node Label     COORD.COOR1     COORD.COOR2    ER.Max. Prin    ER.Mid. Prin    ER.Min. Prin         ER.ER11         ER.ER22         ER.ER33         ER.ER12    PE.Max. Prin    PE.Mid. Prin    PE.Min. Prin         PE.PE11         PE.PE22         PE.PE33         PE.PE12     S.Max. Prin     S.Mid. Prin     S.Min. Prin           S.S11           S.S22           S.S33           S.S12            TEMP
                          @Loc 1          @Loc 1          @Loc 1          @Loc 1          @Loc 1          @Loc 1          @Loc 1          @Loc 1          @Loc 1          @Loc 1          @Loc 1          @Loc 1          @Loc 1          @Loc 1          @Loc 1          @Loc 1          @Loc 1          @Loc 1          @Loc 1          @Loc 1          @Loc 1          @Loc 1          @Loc 1          @Loc 1
-----------------------------------------------------------------------------------------------------------------------------------------------------------------------------------------------------------------------------------------------------------------------------------------------------------------------------------------------------------------------------------------------------------------
               1     15.1783E-03     78.2661E-03         7.11502        -1.47702        -2.29893        -2.26620         7.08230        -1.47702        -1.10720     344.481E-03    -171.645E-03    -172.836E-03    -169.919E-03     341.564E-03    -171.645E-03     77.4621E-03     126.831E+06     97.0808E+06    -3.86771E+06    -3.86769E+06     97.0807E+06     126.831E+06    -7.05139E+03         70.6006
               2    -1.97893E-06     76.9756E-03         6.91295        -1.46656        -2.44503    -452.313E-03         5.44298        -1.98932        -6.44205     344.013E-03    -171.088E-03    -172.925E-03    -172.924E-03     344.012E-03    -171.088E-03     243.087E-06    -159.311E+06    -163.163E+06    -377.317E+06    -161.199E+06    -377.316E+06    -161.275E+06    -10.7558E+03         49.3013
               3     6.36663E-06    -305.311E-18         6.75540        -2.13241        -2.46807        -1.39759         6.02057        -2.46807        -4.89531     542.628E-03    -271.092E-03    -271.536E-03    -271.088E-03     542.624E-03    -271.536E-03     3.70510E-03    -89.7524E+06    -91.8795E+06    -305.557E+06    -91.9390E+06    -305.497E+06    -89.7524E+06     3.56286E+06         59.1073
               4     14.9109E-03    -305.311E-18         7.11889        -1.82287        -2.11921        -2.11248         7.11217        -1.82287     498.221E-03     509.436E-03    -182.629E-03    -326.807E-03    -310.524E-03     493.153E-03    -182.629E-03     231.094E-03     154.900E+06     84.5435E+06     10.7919E+06     10.7977E+06     84.5376E+06     154.900E+06     655.678E+03         70.0260
               5     15.3094E-03     156.208E-03     262.298E-03     76.3826E-03    -373.950E-03     77.4934E-03     261.187E-03    -373.950E-03    -28.6546E-03     265.408E-03    -101.153E-03    -164.255E-03    -100.706E-03     264.961E-03    -164.255E-03    -25.5792E-03     73.9240E+06     47.3877E+06    -55.8405E+06    -52.5202E+06     44.0674E+06     73.9240E+06    -18.2132E+06         74.8237
               6     4.24723E-06     151.951E-03         2.61649        -2.81893        -2.82820        -2.82179         2.61008        -2.81893    -373.509E-03     298.823E-03    -148.646E-03    -150.177E-03    -149.780E-03     298.426E-03    -148.646E-03    -26.6721E-03     83.8577E+06     82.0508E+06    -12.7235E+06     81.6802E+06    -12.3529E+06     83.8577E+06    -5.91487E+06         41.2966
               7     14.3346E-03     78.1617E-03         7.07544        -1.47425        -2.27684        -2.22824         7.02685        -1.47425     217.524E-03     351.472E-03    -171.611E-03    -179.861E-03    -171.460E-03     343.071E-03    -171.611E-03     124.631E-03     113.102E+06     88.5200E+06    -7.28765E+06    -7.28708E+06     88.5194E+06     113.102E+06    -130.064E+03         69.2379
               8     13.4891E-03     77.9344E-03         6.96616        -1.47147        -2.19807        -2.16478         6.93288        -1.47147     635.654E-03     352.105E-03    -171.578E-03    -180.527E-03    -171.280E-03     342.859E-03    -171.578E-03     134.628E-03     94.7085E+06     72.3179E+06    -13.9122E+06    -13.8904E+06     72.2961E+06     94.7085E+06    -863.410E+03         66.1108
               9     12.6451E-03     77.8072E-03         6.85340        -1.46695        -2.11592        -2.11447         6.85195        -1.46695    -54.6609E-03     347.037E-03    -171.580E-03    -175.457E-03    -170.041E-03     341.621E-03    -171.580E-03     105.551E-03     88.9064E+06     60.2868E+06    -21.3990E+06    -21.3676E+06     60.2555E+06     88.9064E+06    -620.949E+03         62.6423
              10     11.8054E-03     77.6640E-03         6.76761        -1.45843        -2.06013        -2.05758         6.76505        -1.45843    -111.628E-03     346.536E-03    -171.576E-03    -174.960E-03    -169.631E-03     341.207E-03    -171.576E-03     104.531E-03     84.7724E+06     54.8024E+06    -28.9479E+06    -28.9360E+06     54.7906E+06     84.7724E+06     386.656E+03         59.5818
              11     10.9588E-03     77.5427E-03         6.70343        -1.44957        -2.01862        -1.98223         6.66703        -1.44957    -956.654E-03     344.608E-03    -171.570E-03    -173.038E-03    -168.793E-03     340.362E-03    -171.570E-03     93.3479E-03     74.1907E+06     50.0804E+06    -36.7020E+06    -36.6987E+06     50.0772E+06     74.1907E+06     490.398E+03         57.2694
              12     10.1151E-03     77.4328E-03         6.61468        -1.44062        -1.95069        -1.89789         6.56189        -1.44062    -206.285E-03     344.196E-03    -171.593E-03    -172.603E-03    -168.813E-03     340.406E-03    -171.593E-03     88.1286E-03     63.6168E+06     43.7705E+06    -46.1616E+06    -46.1336E+06     43.7425E+06     63.6168E+06     233.119E+03         55.6682
              13     9.27236E-03     77.3329E-03         6.48818        -1.43277        -1.84912        -1.82073         6.45979        -1.43277     158.967E-03     343.444E-03    -171.330E-03    -172.114E-03    -168.676E-03     340.319E-03    -171.643E-03     79.8483E-03     55.8855E+06     36.1319E+06    -57.2426E+06    -57.2119E+06     36.1013E+06     55.8855E+06     -339.16E+03         54.5650
              14     8.42714E-03     77.2419E-03         6.38832        -1.42479        -1.78076        -1.75720         6.36476        -1.42479     71.5576E-03     343.109E-03    -171.265E-03    -171.844E-03    -169.059E-03     340.755E-03    -171.696E-03     69.2230E-03     43.4742E+06     5.43132E+06    -68.4970E+06    -68.4424E+06     5.37669E+06     43.4742E+06    -512.352E+03         53.7418
              15     7.58617E-03     77.1667E-03         6.28656        -1.41588        -1.70935        -1.69271         6.26993        -1.41588     259.422E-03     342.737E-03    -170.981E-03    -171.756E-03    -169.299E-03     341.034E-03    -171.736E-03     58.8461E-03     25.2338E+06    -49.5858E+06    -78.5645E+06    -78.4981E+06    -49.6521E+06     25.2338E+06        -65.3892         53.0483
              16     6.74296E-03     77.1022E-03         6.23676        -1.40578        -1.68274        -1.63157         6.18560        -1.40578        -1.07014     342.054E-03    -170.264E-03    -171.790E-03    -169.112E-03     340.903E-03    -171.790E-03     48.1604E-03     3.15135E+06    -87.0756E+06    -110.388E+06    -89.3786E+06    -108.085E+06     3.15135E+06     303.836E+03         52.4065
              17     5.89689E-03     77.0561E-03         6.24016        -1.39445        -1.70705        -1.56729         6.10041        -1.39445     324.903E-03     342.422E-03    -170.586E-03    -171.836E-03    -169.891E-03     341.727E-03    -171.836E-03     37.3588E-03    -19.3380E+06    -100.749E+06    -157.787E+06    -100.754E+06    -157.781E+06    -19.3380E+06     300.364E+03         51.7910
              18     5.05578E-03     77.0241E-03         6.15604        -1.38191        -1.64642        -1.51716         6.02679        -1.38191     444.079E-03     342.794E-03    -170.979E-03    -171.815E-03    -170.587E-03     342.402E-03    -171.815E-03     28.0008E-03    -42.1686E+06    -111.855E+06    -201.430E+06    -111.857E+06    -201.428E+06    -42.1686E+06     373.075E+03         51.2061
              19     4.21397E-03     76.9994E-03         6.17950        -1.36912        -1.69702        -1.46096         5.94344        -1.36912     984.168E-03     342.391E-03    -170.578E-03    -171.813E-03    -170.387E-03     342.200E-03    -171.813E-03     19.3367E-03    -66.5382E+06    -123.046E+06    -248.001E+06    -123.047E+06    -248.000E+06    -66.5382E+06     159.725E+03         50.6690
              20     3.36964E-03     76.9869E-03         6.33359        -1.35468        -1.88065        -1.43450         5.88745        -1.35468    -216.921E-03     342.548E-03    -170.664E-03    -171.884E-03    -170.588E-03     342.472E-03    -171.884E-03     12.1493E-03    -91.8947E+06    -134.357E+06    -290.389E+06    -134.357E+06    -290.389E+06    -91.8947E+06    -72.2674E+03         50.2008
              21     2.52696E-03     76.9807E-03         6.04718        -1.33115        -1.64345        -1.37542         5.78964        -1.34164        -1.99869     343.193E-03    -171.171E-03    -172.022E-03    -171.207E-03     343.166E-03    -171.959E-03     7.00689E-03    -116.634E+06    -144.614E+06    -325.862E+06    -144.614E+06    -325.862E+06    -116.634E+06    -147.155E+03         49.8198
              22     1.68421E-03     76.9769E-03         5.80187        -1.31076        -1.43637        -1.38573         5.76172        -1.32125    -222.240E-03     343.635E-03    -171.553E-03    -172.082E-03    -171.632E-03     343.629E-03    -171.997E-03     3.19082E-03    -138.585E+06      -153.2E+06    -352.292E+06    -153.207E+06    -352.286E+06    -138.585E+06    -155.617E+03         49.5385
              23     842.679E-06     76.9745E-03         6.40517        -1.38608        -1.99043    -963.637E-03         5.63975        -1.64745        -3.38553     343.920E-03    -171.432E-03    -172.488E-03    -172.371E-03     343.919E-03    -171.548E-03     937.686E-06    -153.973E+06    -160.231E+06    -369.764E+06    -159.256E+06    -369.758E+06    -154.955E+06    -28.9558E+03         49.3627
              24     2.13011E-06     75.5679E-03         9.99964        -2.50929        -4.23833        -1.05044         6.81175        -2.50929        -11.8581     341.859E-03    -170.840E-03    -171.019E-03    -170.939E-03     341.859E-03    -170.919E-03    -200.434E-06    -158.721E+06    -162.544E+06    -377.688E+06    -160.583E+06    -377.685E+06    -160.685E+06    -677.382E+03         49.3009
              25    -2.23578E-06     74.1640E-03         12.6180        -3.00711        -6.22933        -1.71001         8.09870        -3.00711        -16.0935     342.074E-03    -170.420E-03    -171.655E-03    -170.419E-03     342.073E-03    -171.655E-03     1.39824E-03    -159.129E+06    -164.556E+06    -377.853E+06    -161.008E+06    -377.833E+06    -162.697E+06     787.877E+03         49.3059
              26     256.473E-09     72.7547E-03         14.3203        -3.38585        -7.50899        -2.58571         9.39702        -3.38585        -18.2278     343.333E-03    -170.792E-03    -172.541E-03    -171.383E-03     343.331E-03    -171.948E-03     42.2840E-06    -156.293E+06    -161.946E+06    -374.194E+06    -158.400E+06    -374.172E+06    -159.861E+06     578.095E+03         49.3187
              27     771.492E-09     71.3482E-03         15.0067        -3.70396        -7.74835        -3.61287         10.8712        -3.70396        -17.4673     344.068E-03    -170.714E-03    -173.354E-03    -173.352E-03     344.066E-03    -170.714E-03     132.788E-06    -158.881E+06    -161.014E+06    -373.784E+06    -161.020E+06    -373.778E+06    -158.881E+06    -621.496E+03         49.3348
              28     2.68750E-06     69.9375E-03         14.9296        -3.85120        -7.56413        -4.81550         12.1810        -3.85120        -14.5777     344.010E-03    -170.916E-03    -173.094E-03    -172.962E-03     344.008E-03    -171.047E-03     259.636E-06    -161.811E+06    -162.484E+06    -376.633E+06    -161.865E+06    -376.628E+06    -162.435E+06    -539.457E+03         49.3488
              29    -2.91071E-06     68.5303E-03         14.9080        -3.74734        -7.67517        -6.19338         13.4262        -3.74734        -10.9404     343.312E-03    -170.872E-03    -172.440E-03    -170.870E-03     343.310E-03    -172.440E-03     404.911E-06    -159.327E+06    -160.288E+06    -376.469E+06    -159.685E+06    -376.449E+06    -159.951E+06     598.551E+03         49.3607
              30     502.710E-09     67.1208E-03         15.1983        -3.56359        -8.13240        -7.51095         14.5768        -3.56359        -7.21875     344.386E-03    -169.944E-03    -174.443E-03    -173.004E-03     344.385E-03    -171.381E-03     595.787E-06    -161.323E+06    -161.869E+06    -376.908E+06    -161.905E+06    -376.872E+06    -161.323E+06    -191.575E+03         49.3745
              31     4.66530E-06     65.7071E-03         15.5203        -3.34241        -8.89000        -8.68891         15.3192        -3.34241        -4.22006     343.203E-03    -169.747E-03    -173.457E-03    -172.806E-03     343.201E-03    -170.395E-03     849.539E-06    -159.949E+06    -161.679E+06    -374.289E+06    -160.223E+06    -374.223E+06    -161.472E+06     719.018E+03         49.3899
              32    -5.77194E-06     64.3094E-03         16.0495        -3.01595        -9.75582        -9.68153         15.9752        -3.01595        -2.73504     342.269E-03    -170.597E-03    -171.672E-03    -170.594E-03     342.266E-03    -171.672E-03     418.901E-06    -154.565E+06    -158.714E+06    -368.287E+06    -157.258E+06    -368.220E+06    -156.088E+06     704.781E+03         49.4023
              33     5.08094E-06     62.8959E-03         16.3857        -2.82547        -10.3810        -10.3355         16.3403        -2.82547        -2.19128     344.891E-03    -171.316E-03    -173.575E-03    -173.145E-03     344.888E-03    -171.743E-03     315.111E-06    -156.302E+06    -161.973E+06    -372.024E+06    -158.951E+06    -372.002E+06    -159.347E+06    -1.76625E+06         49.4093
              34    -2.02773E-06     61.4846E-03         16.4280        -2.87027        -10.6134        -10.5728         16.3873        -2.87027        -2.09199     344.616E-03    -171.340E-03    -173.276E-03    -173.273E-03     344.613E-03    -171.340E-03     374.628E-06    -157.493E+06    -163.774E+06    -372.904E+06    -160.737E+06    -372.897E+06    -160.537E+06     532.613E+03         49.4106
              35     2.24339E-06     60.0781E-03         16.3699        -2.90990        -10.5345        -10.4920         16.3275        -2.90990        -2.13556     343.084E-03    -171.391E-03    -171.692E-03    -171.690E-03     343.082E-03    -171.391E-03     185.217E-06    -155.977E+06    -162.512E+06    -371.014E+06    -159.228E+06    -371.000E+06    -159.275E+06    -119.851E+03         49.4103
              36    -1.94007E-06     58.6693E-03         15.9766        -3.10558        -10.1245        -10.0861         15.9382        -3.10558        -2.00075     343.071E-03    -171.277E-03    -171.794E-03    -171.473E-03     343.069E-03    -171.596E-03     673.344E-06    -155.439E+06    -160.553E+06    -369.593E+06    -157.280E+06    -369.568E+06    -158.738E+06     428.776E+03         49.4140
              37     1.42903E-06     57.2614E-03         15.3311        -3.44121        -9.33042        -9.29221         15.2929        -3.44121        -1.93913     342.570E-03    -170.930E-03    -171.640E-03    -171.320E-03     342.570E-03    -171.250E-03    -46.5838E-06    -157.568E+06    -159.681E+06    -368.050E+06    -159.422E+06    -368.011E+06    -157.866E+06    -157.810E+03         49.4237
              38    -767.170E-09     55.8565E-03         14.3284        -3.59392        -8.23592        -8.19766         14.2902        -3.59392        -1.85646     343.001E-03    -171.090E-03    -171.912E-03    -171.911E-03     343.001E-03    -171.090E-03     1.10511E-03    -158.667E+06    -159.522E+06    -369.464E+06    -158.702E+06    -369.429E+06    -159.522E+06    -287.240E+03         49.4367
              39     1.49794E-06     54.4451E-03         12.9192        -3.73926        -6.89724        -6.83366         12.8557        -3.73926        -2.16988     344.012E-03    -171.238E-03    -172.773E-03    -172.773E-03     344.011E-03    -171.238E-03     432.781E-06    -159.049E+06    -159.816E+06    -369.207E+06    -159.283E+06    -369.183E+06    -159.606E+06     174.053E+03         49.4482
              40     369.642E-09     53.0391E-03         11.4068        -3.95024        -5.32870        -5.16839         11.2464        -3.95024        -3.13629     344.256E-03    -171.030E-03    -173.226E-03    -172.132E-03     344.255E-03    -172.123E-03     916.603E-06    -159.333E+06    -160.288E+06    -368.423E+06    -159.574E+06    -368.392E+06    -160.078E+06      419.09E+03         49.4559
              41    -2.20924E-06     51.6275E-03         9.81589        -3.44561        -4.30729        -3.35465         9.49363        -4.07599        -4.02858     344.302E-03    -171.422E-03    -172.881E-03    -171.420E-03     344.301E-03    -172.881E-03     436.310E-06    -158.588E+06    -159.504E+06    -367.692E+06    -158.797E+06    -367.653E+06    -159.333E+06     77.5985E+03         49.4619
              42     1.60472E-06     50.2163E-03         8.14922        -2.08934        -4.19371        -1.47266         7.53254        -4.19371        -4.70739     342.718E-03    -170.424E-03    -172.295E-03    -171.928E-03     342.718E-03    -170.790E-03    -630.534E-06    -159.972E+06    -160.286E+06    -370.746E+06    -160.164E+06    -370.725E+06    -160.116E+06    -771.210E+03         49.4695
              43     938.964E-09     48.8164E-03         6.68656    -725.307E-03        -4.19297     493.837E-03         5.46742        -4.19297        -5.24691     341.986E-03    -169.853E-03    -172.133E-03    -171.357E-03     341.986E-03    -170.628E-03     1.01526E-03    -158.999E+06    -160.238E+06    -371.926E+06    -160.098E+06    -371.922E+06    -159.143E+06     919.154E+03         49.4803
              44    -2.22309E-06     47.4045E-03         5.63045     46.6371E-03        -3.97234         2.39276         3.28433        -3.97234        -5.14907     343.502E-03    -171.223E-03    -172.279E-03    -171.503E-03     343.501E-03    -171.998E-03     485.179E-06    -156.536E+06    -159.617E+06    -369.738E+06    -157.637E+06    -369.732E+06    -158.521E+06    -415.852E+03         49.4946
              45     2.68053E-06     45.9975E-03         5.47180    -375.117E-03        -3.57477         4.07861         1.01807        -3.57477        -4.66872     343.884E-03    -171.535E-03    -172.349E-03    -172.348E-03     343.884E-03    -171.535E-03     318.847E-06    -158.213E+06    -161.432E+06    -372.353E+06    -159.452E+06    -372.347E+06    -160.198E+06    -956.781E+03         49.5109
              46    -1.76152E-06     44.5875E-03         6.11068        -1.73659        -2.92691         5.47521        -1.11709        -2.91094        -4.12862     344.009E-03    -171.678E-03    -172.331E-03    -172.331E-03     344.009E-03    -171.678E-03     961.217E-06    -157.551E+06    -160.339E+06    -372.789E+06    -158.807E+06    -372.766E+06    -159.106E+06     1.30840E+06         49.5266
              47     1.95554E-06     43.1794E-03         6.73636        -2.02241        -3.34966         6.43801        -3.05131        -2.02241        -3.29823     344.156E-03    -171.366E-03    -172.790E-03    -172.789E-03     344.156E-03    -171.366E-03    -361.251E-06    -157.425E+06    -159.330E+06    -370.720E+06    -157.822E+06    -370.673E+06    -158.979E+06    -72.1535E+03         49.5395
              48     249.607E-09     41.7699E-03         7.00323    -961.017E-03        -4.89296         6.86477        -4.75450    -961.017E-03        -2.50900     343.393E-03    -170.767E-03    -172.627E-03    -172.067E-03     343.392E-03    -171.324E-03     543.975E-06    -158.600E+06    -159.317E+06    -369.484E+06    -159.001E+06    -369.433E+06    -158.966E+06      28.137E+03         49.5482
              49    -1.18453E-06     40.3626E-03         6.90356     343.783E-03        -6.15639         6.83742        -6.09025     343.783E-03        -1.78910     343.553E-03    -171.329E-03    -172.224E-03    -171.665E-03     343.552E-03    -171.887E-03     474.382E-06    -157.941E+06    -159.191E+06    -367.374E+06    -158.860E+06    -367.339E+06    -158.307E+06     663.806E+03         49.5531
              50     1.76924E-06     38.9526E-03         6.40453         1.83836        -7.28194         6.38706        -7.26446         1.83836    -756.513E-03     344.335E-03    -171.131E-03    -173.203E-03    -173.201E-03     344.333E-03    -171.131E-03     652.893E-06    -157.526E+06    -158.497E+06    -368.114E+06    -158.422E+06    -368.102E+06    -157.614E+06    -379.518E+03         49.5554
              51     1.15872E-06     37.5422E-03         5.45790         3.44407        -8.15886         5.45020        -8.15117         3.44407     370.866E-03     343.706E-03    -170.408E-03    -173.298E-03    -172.141E-03     343.704E-03    -171.563E-03     946.160E-06    -158.649E+06    -159.349E+06    -371.529E+06    -159.284E+06    -371.506E+06    -158.736E+06    -843.466E+03         49.5561
              52    -3.09035E-06     36.1381E-03         5.44761         3.79532        -8.55637         4.06049        -8.52314         5.14921         1.23001     342.400E-03    -170.180E-03    -172.220E-03    -171.065E-03     342.399E-03    -171.334E-03    -978.709E-06    -160.848E+06    -161.937E+06    -375.452E+06    -161.482E+06    -375.430E+06    -161.324E+06    -1.02039E+06         49.5572
              53     4.58204E-06     34.7285E-03         6.76674         2.41005        -8.70127         2.35367        -8.64489         6.76674         1.57359     343.663E-03    -170.601E-03    -173.063E-03    -173.058E-03     343.659E-03    -170.601E-03     1.47375E-03    -159.674E+06    -160.488E+06    -376.146E+06    -160.013E+06    -376.143E+06    -160.151E+06     766.948E+03         49.5603
              54    -1.92024E-06     33.3184E-03         8.24283     478.594E-03        -8.41898     446.674E-03        -8.38706         8.24283     928.971E-03     344.599E-03    -171.355E-03    -173.244E-03    -172.926E-03     344.593E-03    -171.668E-03     969.911E-06    -158.602E+06    -159.028E+06    -374.759E+06    -159.030E+06    -374.758E+06    -158.602E+06     72.4576E+03         49.5649
              55     1.39906E-06     31.9108E-03         9.56367        -1.41127        -7.87329        -1.50720        -7.77736         9.56367    -851.475E-03     343.354E-03    -171.406E-03    -171.947E-03    -171.631E-03     343.351E-03    -171.719E-03     186.958E-06    -160.233E+06    -160.619E+06    -376.474E+06    -160.622E+06    -376.471E+06    -160.233E+06    -745.780E+03         49.5703
              56    -1.00348E-06     30.5009E-03         10.4533        -2.44072        -7.93255        -3.34787        -7.02541         10.4533        -3.53566     342.284E-03    -170.879E-03    -171.405E-03    -171.403E-03     342.282E-03    -170.879E-03     712.595E-06    -158.345E+06    -159.403E+06    -376.867E+06    -158.653E+06    -376.855E+06    -159.107E+06     601.329E+03         49.5746
              57     1.50732E-06     29.0973E-03         10.9344        -2.13796        -8.77810        -4.99583        -5.92023         10.9344        -6.37107     342.416E-03    -170.727E-03    -171.689E-03    -171.685E-03     342.411E-03    -170.727E-03     1.45960E-03    -156.325E+06    -157.583E+06    -373.936E+06    -156.833E+06    -373.924E+06    -157.087E+06     687.553E+03         49.5731
              58    -377.234E-09     27.6876E-03         11.0471        -1.24664        -9.78925        -6.32372        -4.71218         11.0471        -8.33475     343.096E-03    -170.375E-03    -172.721E-03    -171.035E-03     343.092E-03    -172.057E-03     1.49533E-03    -155.040E+06    -158.474E+06    -373.675E+06    -155.537E+06    -373.673E+06    -157.978E+06    -462.305E+03         49.5602
              59    -2.48219E-06     26.2832E-03         10.6709    -447.590E-03        -10.3837        -7.29921        -3.53207         10.6709        -9.14723     343.054E-03    -169.858E-03    -173.196E-03    -171.514E-03     343.053E-03    -171.540E-03    -770.449E-06    -153.246E+06    -159.800E+06    -377.042E+06    -156.863E+06    -377.041E+06    -156.184E+06     194.531E+03         49.5285
              60     5.32058E-06     24.8727E-03         9.81825     90.6712E-03        -10.0853        -7.88887        -2.10574         9.81825        -8.26013     343.610E-03    -169.927E-03    -173.683E-03    -173.682E-03     343.609E-03    -169.927E-03     864.886E-06    -154.262E+06    -160.309E+06    -377.693E+06    -157.879E+06    -377.693E+06    -156.693E+06     339.004E+03         49.4645
              61    -1.80516E-06     23.4648E-03         8.59283     376.596E-03        -9.09019        -8.09232    -621.276E-03         8.59283        -5.52218     341.896E-03    -168.991E-03    -172.905E-03    -171.090E-03     341.894E-03    -170.805E-03     514.998E-06    -153.264E+06    -158.264E+06    -375.852E+06    -155.836E+06    -375.849E+06    -155.695E+06    -500.282E+03         49.3454
              62    -1.21990E-06     22.0618E-03         7.18151     946.339E-03        -8.21894        -8.00526     732.656E-03         7.18151        -2.17791     339.346E-03    -168.632E-03    -170.714E-03    -168.900E-03     339.346E-03    -170.446E-03    -352.213E-06    -152.963E+06    -158.346E+06    -377.389E+06    -155.536E+06    -377.385E+06    -155.777E+06    -926.663E+03         49.1382
              63     1.64754E-06     20.6598E-03         5.68308         2.00382        -7.69693        -7.65308         1.95997         5.68308     615.054E-03     339.177E-03    -168.811E-03    -170.367E-03    -170.366E-03     339.177E-03    -168.811E-03     274.711E-06    -154.006E+06    -159.210E+06    -378.803E+06    -156.402E+06    -378.796E+06    -156.820E+06     447.514E+03         48.7995
              64     562.914E-09     19.2571E-03         4.26066         2.95814        -7.18132        -7.02775         2.95771         4.10752         2.42017     336.112E-03    -167.213E-03    -168.900E-03    -168.500E-03     336.112E-03    -167.612E-03    -690.923E-06    -156.070E+06    -159.695E+06    -379.178E+06    -158.477E+06    -379.161E+06    -157.306E+06    -305.490E+03         48.2830
              65    -1.24639E-06     17.8636E-03         4.07056         2.51419        -6.43282        -6.21952         3.85726         2.51419         2.96113     328.147E-03    -163.451E-03    -164.696E-03    -164.291E-03     328.141E-03    -163.851E-03    -3.02827E-03    -155.217E+06    -158.177E+06    -377.984E+06    -155.262E+06    -377.940E+06    -158.177E+06     833.552E+03         47.5559
              66     2.66245E-06     16.4846E-03         4.86830         1.01658        -5.56292        -5.43422         4.73960         1.01658         2.20874     316.350E-03    -157.674E-03    -158.676E-03    -158.511E-03     316.342E-03    -157.831E-03    -3.94662E-03    -155.320E+06    -160.452E+06    -376.791E+06    -158.793E+06    -376.725E+06    -157.045E+06     94.3966E+03         46.6194
              67    -2.88795E-06     15.1221E-03         5.48656    -323.764E-03        -4.70605        -4.67660         5.45712    -323.764E-03     837.387E-03     300.830E-03    -150.094E-03    -150.736E-03    -150.564E-03     300.815E-03    -150.251E-03    -4.97572E-03    -157.465E+06    -164.115E+06    -380.268E+06    -160.906E+06    -380.233E+06    -160.709E+06    -1.29398E+06         45.5279
              68     3.68588E-06     13.7839E-03         6.02627        -1.36556        -4.02832        -4.02030         6.01825        -1.36556    -334.321E-03     281.102E-03    -139.631E-03    -141.472E-03    -141.445E-03     281.076E-03    -139.631E-03    -6.65538E-03    -156.540E+06    -162.568E+06    -379.086E+06    -159.352E+06    -379.058E+06    -159.784E+06     2.19119E+06         44.4021
              69    -1.28693E-06     12.4767E-03         6.43746        -2.02904        -3.57746        -3.54148         6.40148        -2.02904        -1.14370     256.186E-03    -127.294E-03    -128.892E-03    -128.607E-03     256.144E-03    -127.537E-03    -7.93904E-03    -160.668E+06    -164.016E+06    -372.802E+06    -163.478E+06    -372.777E+06    -161.231E+06     1.58759E+06         43.4281
              70     825.437E-09     11.2033E-03         6.67677        -2.39884        -3.27460        -3.19823         6.60040        -2.39884        -1.72102     230.581E-03    -114.682E-03    -115.900E-03    -115.601E-03     230.526E-03    -114.924E-03    -8.79848E-03    -166.725E+06    -167.495E+06    -369.830E+06    -166.933E+06    -369.829E+06    -167.288E+06    -363.919E+03         42.8292
              71     886.440E-09     9.96387E-03         6.76494        -2.50692        -3.06563        -2.94450         6.64381        -2.50692        -2.15612     211.342E-03    -105.036E-03    -106.306E-03    -106.258E-03     211.294E-03    -105.036E-03    -7.79157E-03    -169.394E+06    -171.208E+06    -368.847E+06    -169.602E+06    -368.846E+06    -171.001E+06    -213.554E+03         42.8166
              72    -416.774E-09     8.74096E-03         6.75166        -2.42382        -2.93461        -2.73714         6.55419        -2.42382        -2.71189     207.630E-03    -103.637E-03    -103.993E-03    -103.912E-03     207.610E-03    -103.698E-03    -3.80104E-03    -171.295E+06    -175.084E+06    -367.554E+06    -173.524E+06    -367.506E+06    -172.903E+06     2.22695E+06         43.5472
              73     374.064E-09     7.51037E-03         6.92943        -2.22004        -3.15660        -2.69162         6.46445        -2.22004        -4.11928     230.019E-03    -114.920E-03    -115.099E-03    -115.018E-03     229.999E-03    -114.980E-03     3.63107E-03    -165.599E+06    -169.594E+06    -358.627E+06    -167.828E+06    -358.579E+06    -167.412E+06     1.89433E+06         45.1062
              74    -63.0500E-09     6.22980E-03         7.55858        -2.03535        -3.80170        -2.67522         6.43210        -2.03535        -6.67522     282.861E-03    -141.029E-03    -141.833E-03    -141.742E-03     282.771E-03    -141.029E-03     12.0714E-03    -143.449E+06    -145.397E+06    -347.542E+06    -143.487E+06    -347.503E+06    -145.397E+06     1.79454E+06         47.4984
              75     1.44792E-06     4.86209E-03         8.51331        -1.97003        -4.68454        -2.50785         6.33662        -1.97003        -9.72258     362.036E-03    -179.390E-03    -182.647E-03    -182.484E-03     361.873E-03    -179.390E-03     18.8302E-03    -120.284E+06    -120.999E+06    -335.965E+06    -120.925E+06    -335.904E+06    -120.418E+06     3.59229E+06         50.6058
              76     2.98225E-06     3.35730E-03         8.95007        -2.08340        -4.89397        -2.12428         6.18039        -2.08340        -11.0755     448.407E-03    -221.700E-03    -226.706E-03    -224.112E-03     448.247E-03    -224.135E-03     20.5695E-03    -103.521E+06    -105.345E+06    -321.598E+06    -104.124E+06    -321.575E+06    -104.765E+06     1.54529E+06         54.1080
              77    -6.69785E-06     1.72597E-03         7.81085        -2.17038        -3.54157        -1.62729         6.06439        -2.33821        -7.88601     516.169E-03    -256.756E-03    -259.413E-03    -256.687E-03     516.099E-03    -259.413E-03     11.7847E-03    -92.1812E+06    -94.4884E+06    -310.622E+06    -93.2744E+06    -310.592E+06    -93.4248E+06     1.75986E+06         57.5048
              78     755.861E-06    -305.311E-18         6.20325        -1.94221        -2.14910        -1.51303         5.77407        -2.14910        -1.49930     537.892E-03    -267.633E-03    -270.260E-03    -267.599E-03     537.858E-03    -270.260E-03     9.00511E-03    -88.0268E+06    -91.1361E+06    -305.987E+06    -91.1673E+06    -305.956E+06    -88.0268E+06     2.18270E+06         58.9978
              79     1.52217E-03    -305.311E-18         5.77377        -1.77838        -1.88532        -1.76716         5.69467        -1.81744     428.412E-03     525.722E-03    -258.758E-03    -266.964E-03    -258.636E-03     525.600E-03    -266.964E-03     18.9369E-03    -85.0976E+06    -90.1461E+06    -304.965E+06    -90.1650E+06    -304.946E+06    -85.0976E+06     1.76598E+06         58.6864
              80     2.29209E-03    -305.311E-18         5.79595        -1.78449        -1.87612        -1.83070         5.77428        -1.80824    -265.360E-03     507.962E-03    -245.734E-03    -262.228E-03    -245.498E-03     507.726E-03    -262.228E-03     26.4563E-03    -81.4377E+06    -89.6031E+06    -301.967E+06    -89.6365E+06    -301.933E+06    -81.4377E+06     2.66442E+06         58.1989
              81     3.07862E-03    -305.311E-18         5.75069        -1.78708        -1.83522        -1.80474         5.74396        -1.81082     63.6817E-03     485.018E-03    -228.899E-03    -256.120E-03    -228.572E-03     484.692E-03    -256.120E-03     30.4737E-03    -76.1919E+06    -89.3093E+06    -298.552E+06    -89.3500E+06    -298.512E+06    -76.1919E+06     2.89800E+06         57.5611
              82     3.88046E-03    -305.311E-18         5.77602        -1.80649        -1.83586        -1.82800         5.77314        -1.81147    -104.048E-03     459.543E-03    -210.688E-03    -248.856E-03    -210.273E-03     459.129E-03    -248.856E-03     33.2178E-03    -71.8921E+06    -88.3211E+06    -279.121E+06    -88.3472E+06    -279.095E+06    -71.8921E+06     1.23627E+06         56.8137
              83     4.69608E-03    -305.311E-18         5.77467        -1.80805        -1.82049        -1.81442         5.77359        -1.81304    -7.36147E-03     433.662E-03    -192.790E-03    -240.872E-03    -192.313E-03     433.185E-03    -240.872E-03     34.5572E-03    -68.7300E+06    -84.1386E+06    -235.577E+06    -84.2589E+06    -235.457E+06    -68.7300E+06    -3.12396E+06         56.0133
              84     5.52940E-03    -305.311E-18         5.79954        -1.80613        -1.82036        -1.81299         5.79895        -1.81291    -82.6198E-03     408.128E-03    -175.576E-03    -232.551E-03    -175.084E-03     407.636E-03    -232.551E-03     33.8673E-03    -64.9675E+06    -75.9367E+06    -180.383E+06    -76.5186E+06    -179.801E+06    -64.9675E+06    -7.04743E+06         55.2339
              85     6.37579E-03    -305.311E-18         5.82257        -1.80547        -1.81276        -1.80581         5.82239        -1.81224    -38.8206E-03     384.169E-03    -160.008E-03    -224.161E-03    -159.458E-03     383.620E-03    -224.161E-03     34.5002E-03    -58.7346E+06    -63.8416E+06    -116.411E+06    -65.7499E+06     -113.43E+06    -59.8071E+06    -9.54853E+06         54.5683
              86     7.23203E-03    -305.311E-18         5.86925        -1.81181        -1.81522        -1.81503         5.86907        -1.81181    -66.5250E-03     362.694E-03    -146.723E-03    -215.970E-03    -146.123E-03     362.094E-03    -215.970E-03     34.9464E-03    -25.1993E+06    -49.1876E+06    -65.0952E+06    -53.1528E+06    -37.1416E+06    -49.1876E+06    -10.1539E+06         54.1356
              87     8.10571E-03    -305.311E-18         5.92457        -1.81265        -1.82827        -1.82809         5.92440        -1.81265    -65.3154E-03     344.477E-03    -136.200E-03    -208.276E-03    -135.652E-03     343.928E-03    -208.276E-03     32.4538E-03     11.8803E+06    -28.7965E+06    -42.9098E+06    -41.8747E+06     10.8452E+06    -28.7965E+06    -6.52798E+06         54.0841
              88     8.98172E-03    -305.311E-18         5.98747        -1.81440        -1.83666        -1.83636         5.98717        -1.81440    -97.0152E-03     329.922E-03    -128.688E-03    -201.234E-03    -128.104E-03     329.337E-03    -201.234E-03     32.6190E-03     26.4347E+06    -3.13841E+06    -33.7052E+06    -33.4765E+06     26.2060E+06    -3.13841E+06    -3.69493E+06         54.5849
              89     9.86296E-03    -305.311E-18         6.04707        -1.81599        -1.83058        -1.83014         6.04662        -1.81599    -116.118E-03     319.081E-03    -124.210E-03    -194.871E-03    -123.526E-03     318.397E-03    -194.871E-03     34.7842E-03     37.0728E+06     17.9543E+06    -26.8752E+06    -26.7399E+06     36.9375E+06     17.9543E+06    -1.85403E+06         55.8000
              90     10.7498E-03    -305.311E-18         6.10290        -1.80276        -1.82124        -1.80735         6.10242        -1.81618    -121.585E-03     311.629E-03    -122.335E-03    -189.293E-03    -121.612E-03     310.905E-03    -189.293E-03     35.3968E-03     47.7311E+06     32.1930E+06    -20.1535E+06    -20.1291E+06     39.4750E+06     40.4246E+06    -592.317E+03         57.8178
              91     11.6341E-03    -305.311E-18         6.16506        -1.77677        -1.81437        -1.77646         6.16475        -1.81437    -99.2948E-03     310.923E-03    -126.270E-03    -184.652E-03    -125.520E-03     310.172E-03    -184.652E-03     36.1864E-03     66.3119E+06     38.3890E+06    -15.2017E+06    -15.0848E+06     38.2722E+06     66.3119E+06     766.794E+03         60.5572
              92     12.5214E-03    -305.311E-18         6.27970        -1.77578        -1.81180        -1.77561         6.27953        -1.81180    -70.8814E-03     322.203E-03    -140.977E-03    -181.226E-03    -139.692E-03     320.918E-03    -181.226E-03     47.8127E-03     80.9765E+06     42.7803E+06    -13.2621E+06    -12.8387E+06     42.3569E+06     80.9765E+06     4.68455E+06         63.6967
              93     13.3580E-03    -305.311E-18         6.47967        -1.79939        -1.83602        -1.82415         6.47963        -1.81122    -26.6884E-03     346.758E-03    -165.214E-03    -181.544E-03    -164.096E-03     343.570E-03    -179.475E-03     79.2195E-03     95.0031E+06     57.0572E+06    -13.0741E+06    -12.2013E+06     56.1845E+06     95.0031E+06     7.76494E+06         66.7268
              94     14.1919E-03    -305.311E-18         6.86113        -1.81733        -1.99030        -1.98694         6.85777        -1.81733     247.285E-03     435.869E-03    -180.855E-03    -255.014E-03    -244.595E-03     425.450E-03    -180.855E-03     165.190E-03     130.469E+06     75.8498E+06    -1.27443E+06    -728.510E+03     75.3039E+06     130.469E+06     4.97114E+06         69.0847
              95     15.0236E-03     1.82860E-03         6.74739        -1.84573        -2.00048        -1.98876         6.73567        -1.84573     620.355E-03     459.136E-03    -180.504E-03    -278.632E-03    -260.752E-03     441.256E-03    -180.504E-03     225.420E-03     142.617E+06     80.4995E+06     -983.24E+03    -765.722E+03     80.2820E+06     142.617E+06     3.41436E+06         69.8169
              96     15.1114E-03     3.20042E-03         6.17144        -1.79551        -1.89988        -1.79131         6.16065        -1.89330     564.167E-03     382.335E-03    -176.768E-03    -205.567E-03    -189.287E-03     366.055E-03    -176.768E-03     192.626E-03     130.052E+06     82.4658E+06    -8.34519E+06    -7.93771E+06     82.0583E+06     130.052E+06     6.06558E+06         69.7602
              97     15.1473E-03     4.57456E-03         5.79088        -1.62295        -1.93855        -1.62003         5.78796        -1.93855     277.533E-03     360.644E-03    -173.780E-03    -186.864E-03    -178.741E-03     352.520E-03    -173.780E-03     124.673E-03     124.885E+06     85.7546E+06    -5.59251E+06    -5.39518E+06     85.5572E+06     124.885E+06     3.42711E+06         70.0951
              98     15.1704E-03     6.01197E-03         5.42319        -1.44436        -1.97682        -1.44381         5.42264        -1.97682     108.940E-03     370.451E-03    -171.793E-03    -198.658E-03    -195.344E-03     367.137E-03    -171.793E-03     86.6012E-03     124.744E+06     86.2557E+06    -3.89003E+06    -3.80236E+06     86.1680E+06     124.744E+06    -1.48545E+06         70.3885
              99     15.1752E-03     7.46821E-03         5.01464        -1.26493        -2.00654        -1.26487         5.01458        -2.00654     10.3706E-03     381.291E-03    -170.909E-03    -210.381E-03    -207.340E-03     378.249E-03    -170.909E-03     84.3537E-03     128.333E+06     86.1135E+06    -3.19753E+06    -3.11036E+06     86.0263E+06     128.333E+06    -2.35130E+06         70.5307
             100     15.1761E-03     8.96135E-03         4.53650        -1.06116        -2.02205        -1.06107         4.53641        -2.02205    -42.4468E-03     386.103E-03    -170.651E-03    -215.453E-03    -212.255E-03     382.906E-03    -170.651E-03     87.1046E-03     128.712E+06     84.1713E+06    -4.14147E+06    -4.13422E+06     84.1640E+06     128.712E+06    -36.0802E+03         70.5165
             101     15.1776E-03     10.4134E-03         3.98535    -853.060E-03        -2.01391    -852.726E-03         3.98501        -2.01391    -76.1888E-03     385.080E-03    -170.643E-03    -214.437E-03    -210.762E-03     381.405E-03    -170.643E-03     93.5824E-03     129.746E+06     84.7099E+06    -3.58376E+06    -3.57795E+06     84.7041E+06     129.746E+06     49.2674E+03         70.3648
             102     15.1770E-03     11.8929E-03         3.40036    -643.874E-03        -1.96727    -643.173E-03         3.39965        -1.96727    -104.674E-03     385.115E-03    -170.646E-03    -214.469E-03    -210.527E-03     381.173E-03    -170.646E-03     96.8059E-03     130.104E+06     84.5555E+06    -3.83337E+06    -3.83077E+06     84.5529E+06     130.104E+06    -266.382E+03         70.1042
             103     15.1770E-03     13.3514E-03         2.79495    -435.509E-03        -1.86970    -434.690E-03         2.79413        -1.86970    -102.845E-03     383.132E-03    -170.738E-03    -212.394E-03    -208.114E-03     378.852E-03    -170.738E-03     100.612E-03     130.083E+06     84.5168E+06    -3.82246E+06    -3.82045E+06     84.5148E+06     130.083E+06     357.343E+03         69.7715
             104     15.1762E-03     14.8160E-03         2.17141    -243.187E-03        -1.71638    -242.571E-03         2.17080        -1.71638    -77.1046E-03     378.318E-03    -170.891E-03    -207.426E-03    -202.939E-03     373.831E-03    -170.891E-03     102.088E-03     130.363E+06     84.6323E+06    -3.94056E+06    -3.93711E+06     84.6288E+06     130.363E+06     29.8052E+03         69.4188
             105     15.1772E-03     16.2563E-03         1.53884    -69.1558E-03        -1.50599    -68.8212E-03         1.53850        -1.50599    -46.1248E-03     371.477E-03    -171.076E-03    -200.400E-03    -195.887E-03     366.963E-03    -171.076E-03     101.196E-03     130.844E+06     85.3423E+06    -3.31470E+06    -3.31306E+06     85.3406E+06     130.844E+06    -327.438E+03         69.0982
             106     15.1764E-03     17.6966E-03     911.890E-03     86.0416E-03        -1.23862     86.1478E-03     911.784E-03        -1.23862    -11.3479E-03     363.643E-03    -171.278E-03    -192.365E-03    -187.944E-03     359.223E-03    -171.278E-03     98.7362E-03     129.670E+06     85.1676E+06    -3.56280E+06    -3.56262E+06     85.1674E+06     129.670E+06    -6.84089E+03         68.8484
             107     15.1776E-03     19.1140E-03     428.648E-03     98.1443E-03    -917.760E-03     203.843E-03     322.949E-03    -917.760E-03     17.8674E-03     356.764E-03    -171.453E-03    -185.311E-03    -181.184E-03     352.638E-03    -171.453E-03     94.1365E-03     128.921E+06     84.9470E+06    -3.84907E+06    -3.83907E+06     84.9370E+06     128.921E+06    -604.339E+03         68.6884
             108     15.1764E-03     20.5271E-03     286.054E-03    -158.060E-03    -614.548E-03     285.504E-03    -221.397E-03    -550.660E-03     24.5146E-03     350.615E-03    -171.592E-03    -179.024E-03    -175.501E-03     347.093E-03    -171.592E-03     86.0810E-03     128.599E+06     85.4894E+06    -3.23784E+06    -3.22788E+06     85.4794E+06     128.599E+06    -707.334E+03         68.6118
             109     15.1782E-03     21.9334E-03     340.085E-03    -146.192E-03    -740.274E-03     340.020E-03    -740.209E-03    -146.192E-03     11.5798E-03     347.301E-03    -171.690E-03    -175.611E-03    -172.321E-03     344.011E-03    -171.690E-03     82.6976E-03     127.598E+06     85.0850E+06    -3.69857E+06    -3.69831E+06     85.0847E+06     127.598E+06     56.2933E+03         68.5968
             110     15.1749E-03     23.3450E-03     436.332E-03     226.035E-03        -1.22138     374.345E-03        -1.22136     287.999E-03    -7.70314E-03     346.566E-03    -171.746E-03    -174.819E-03    -171.720E-03     343.466E-03    -171.746E-03     80.1380E-03     127.058E+06     85.0240E+06    -3.80082E+06    -3.79891E+06     85.0221E+06     127.058E+06     373.107E+03         68.6165
             111     15.1771E-03     24.7492E-03     740.203E-03     380.932E-03        -1.62919     380.652E-03        -1.62891     740.203E-03    -42.6720E-03     344.899E-03    -171.761E-03    -173.138E-03    -170.172E-03     341.933E-03    -171.761E-03     78.1701E-03     126.512E+06     85.5748E+06    -3.54990E+06    -3.54818E+06     85.5731E+06     126.512E+06     232.130E+03         68.6500
             112     15.1773E-03     26.1563E-03         1.19188     348.256E-03        -1.94756     347.001E-03        -1.94631         1.19188    -102.803E-03     343.833E-03    -171.727E-03    -172.106E-03    -169.100E-03     340.827E-03    -171.727E-03     78.5325E-03     126.765E+06     86.4864E+06    -3.43042E+06    -3.42800E+06     86.4839E+06     126.765E+06     287.382E+03         68.6875
             113     15.1785E-03     27.5663E-03         1.62275     287.305E-03        -2.17762     283.761E-03        -2.17407         1.62275    -182.523E-03     344.683E-03    -171.677E-03    -173.006E-03    -169.950E-03     341.628E-03    -171.677E-03     79.3102E-03     126.938E+06     86.8137E+06    -3.77746E+06    -3.77447E+06     86.8107E+06     126.938E+06     162.782E+03         68.7267
             114     15.1775E-03     28.9703E-03         2.01413     199.935E-03        -2.31215     192.649E-03        -2.30487         2.01413    -266.920E-03     345.655E-03    -171.646E-03    -174.009E-03    -171.132E-03     342.777E-03    -171.646E-03     77.0753E-03     127.949E+06     87.8121E+06    -3.20152E+06    -3.19732E+06     87.8079E+06     127.949E+06    -570.222E+03         68.7678
             115     15.1782E-03     30.3812E-03         2.34955     98.6291E-03        -2.35393     85.9019E-03        -2.34120         2.34955    -349.002E-03     345.201E-03    -171.657E-03    -173.543E-03    -170.728E-03     342.385E-03    -171.657E-03     76.2016E-03     128.107E+06     88.4872E+06    -3.12897E+06    -3.12198E+06     88.4802E+06     128.107E+06    -9.47738E+03         68.8102
             116     15.1778E-03     31.7922E-03         2.61132     2.70939E-03        -2.32141    -18.3726E-03        -2.30033         2.61132    -436.327E-03     345.124E-03    -171.680E-03    -173.444E-03    -170.454E-03     342.134E-03    -171.680E-03     78.5304E-03     126.901E+06     87.6758E+06    -4.45142E+06    -4.44651E+06     87.6709E+06     126.901E+06     659.182E+03         68.8539
             117     15.1771E-03     33.1983E-03         2.78302    -96.0904E-03        -2.20102    -127.583E-03        -2.16953         2.78302    -507.432E-03     345.614E-03    -171.680E-03    -173.933E-03    -171.010E-03     342.690E-03    -171.680E-03     77.7178E-03     126.956E+06     88.5455E+06    -4.15813E+06    -4.15607E+06     88.5434E+06     126.956E+06     103.333E+03         68.8984
             118     15.1778E-03     34.6074E-03         2.85473    -197.951E-03        -1.99245    -245.200E-03        -1.94520         2.85473    -566.953E-03     345.398E-03    -171.683E-03    -173.715E-03    -170.799E-03     342.482E-03    -171.683E-03     77.5845E-03     127.285E+06     89.8499E+06    -3.54549E+06    -3.54287E+06     89.8473E+06     127.285E+06     150.880E+03         68.9417
             119     15.1773E-03     36.0194E-03         2.82164    -288.766E-03        -1.69568    -362.618E-03        -1.62183         2.82164    -615.320E-03     345.388E-03    -171.705E-03    -173.683E-03    -170.717E-03     342.422E-03    -171.705E-03     78.2478E-03     127.326E+06     90.0994E+06    -3.66368E+06    -3.66159E+06     90.0973E+06     127.326E+06     339.233E+03         68.9829
             120     15.1766E-03     37.4247E-03         2.68267    -346.289E-03        -1.32975    -482.217E-03        -1.19383         2.68267    -643.424E-03     345.077E-03    -171.727E-03    -173.350E-03    -170.437E-03     342.163E-03    -171.727E-03     77.5051E-03     126.892E+06     90.5718E+06    -3.86801E+06    -3.86796E+06     90.5718E+06     126.892E+06     69.0797E+03         69.0226
             121     15.1775E-03     38.8333E-03         2.43820    -263.699E-03        -1.02148    -598.309E-03    -686.870E-03         2.43820    -679.494E-03     345.065E-03    -171.713E-03    -173.352E-03    -170.428E-03     342.140E-03    -171.713E-03     77.6529E-03     126.972E+06     91.7556E+06    -3.33080E+06    -3.32999E+06     91.7548E+06     126.972E+06    -151.265E+03         69.0633
             122     15.1771E-03     40.2425E-03         2.09150     74.2753E-03    -886.664E-03    -699.304E-03    -113.085E-03         2.09150    -710.560E-03     345.452E-03    -171.706E-03    -173.746E-03    -170.852E-03     342.558E-03    -171.706E-03     77.3131E-03     127.119E+06     92.1628E+06    -3.41244E+06    -3.41072E+06     92.1611E+06     127.119E+06     20.3182E+03         69.1045
             123     15.1767E-03     41.6525E-03         1.65169     617.178E-03    -886.855E-03    -789.834E-03     520.157E-03         1.65169    -715.033E-03     344.489E-03    -171.718E-03    -172.771E-03    -169.854E-03     341.573E-03    -171.718E-03     77.4530E-03     126.048E+06     92.3677E+06    -3.87747E+06    -3.87644E+06     92.3667E+06     126.048E+06     279.219E+03         69.1456
             124     15.1786E-03     43.0562E-03         1.51197     885.154E-03    -930.405E-03    -868.378E-03         1.20564         1.12945    -717.425E-03     343.866E-03    -171.692E-03    -172.174E-03    -169.180E-03     340.872E-03    -171.692E-03     78.3867E-03     125.701E+06     93.3026E+06    -3.60881E+06    -3.60842E+06     93.3022E+06     125.701E+06     187.704E+03         69.1899
             125     15.1778E-03     44.4668E-03         1.99425     536.872E-03    -996.303E-03    -950.949E-03         1.94889     536.872E-03    -723.082E-03     344.968E-03    -171.664E-03    -173.304E-03    -170.314E-03     341.978E-03    -171.664E-03     78.5061E-03     125.870E+06     93.8034E+06    -3.73935E+06    -3.73894E+06      93.803E+06     125.870E+06     194.598E+03         69.2371
             126     15.1773E-03     45.8750E-03         2.76738    -108.861E-03        -1.07230        -1.03646         2.73154    -108.861E-03    -735.043E-03     345.175E-03    -171.663E-03    -173.512E-03    -170.563E-03     342.227E-03    -171.663E-03     77.9938E-03     125.325E+06     94.0803E+06    -3.89823E+06    -3.89801E+06     94.0801E+06     125.325E+06        -933.922         69.2859
             127     15.1785E-03     47.2802E-03         3.56412    -785.721E-03        -1.14342        -1.11190         3.53261    -785.721E-03    -765.857E-03     344.933E-03    -171.664E-03    -173.269E-03    -170.380E-03     342.044E-03    -171.664E-03     77.1607E-03     125.757E+06     94.8984E+06    -3.30970E+06    -3.30951E+06     94.8982E+06     125.757E+06    -134.759E+03         69.3353
             128     15.1768E-03     48.6925E-03         4.38206        -1.19360        -1.49526        -1.19032         4.35379        -1.47026    -791.758E-03     345.252E-03    -171.670E-03    -173.582E-03    -170.651E-03     342.321E-03    -171.670E-03     77.7674E-03     125.051E+06     94.5293E+06    -4.17772E+06    -4.17641E+06     94.5280E+06     125.051E+06     186.988E+03         69.3834
             129     15.1781E-03     50.0998E-03         5.20935        -1.30486        -2.14168        -1.27920         5.18368        -2.14168    -815.009E-03     344.751E-03    -171.671E-03    -173.080E-03    -170.114E-03     341.785E-03    -171.671E-03     78.1619E-03     125.675E+06     95.5265E+06    -3.71920E+06    -3.71733E+06     95.5246E+06     125.675E+06     70.3853E+03         69.4323
             130     15.1782E-03     51.5054E-03         6.03269        -1.40252        -2.78127        -1.37687         6.00704        -2.78127    -871.825E-03     344.759E-03    -171.654E-03    -173.106E-03    -170.199E-03     341.853E-03    -171.654E-03     77.3795E-03     126.255E+06     95.9526E+06    -3.55364E+06    -3.55266E+06     95.9516E+06     126.255E+06    -307.359E+03         69.4838
             131     15.1777E-03     52.9167E-03         6.83344        -1.50572        -3.37213        -1.47915         6.80687        -3.37213    -939.663E-03     345.532E-03    -171.641E-03    -173.891E-03    -170.999E-03     342.641E-03    -171.641E-03     77.2943E-03     126.043E+06     96.0369E+06    -3.73964E+06    -3.73912E+06     96.0364E+06     126.043E+06    -225.226E+03         69.5371
             132     15.1779E-03     54.3238E-03         7.60662        -1.62407        -3.89835        -1.59811         7.58065        -3.89835    -977.073E-03     345.517E-03    -171.651E-03    -173.866E-03    -171.022E-03     342.672E-03    -171.651E-03     76.6611E-03     126.211E+06     96.2354E+06    -3.52643E+06    -3.52619E+06     96.2352E+06     126.211E+06    -151.127E+03         69.5907
             133     15.1775E-03     55.7347E-03         8.34501        -1.76334        -4.34486        -1.73733         8.31900        -4.34486        -1.02422     345.200E-03    -171.672E-03    -173.527E-03    -170.628E-03     342.301E-03    -171.672E-03     77.3266E-03     126.295E+06     96.4933E+06    -3.48181E+06    -3.48147E+06     96.4929E+06     126.295E+06    -173.861E+03         69.6430
             134     15.1777E-03     57.1437E-03         8.99225        -1.89309        -4.70196        -1.86618         8.96534        -4.70196        -1.08104     344.901E-03    -171.681E-03    -173.220E-03    -170.232E-03     341.913E-03    -171.681E-03     78.4674E-03     126.072E+06     96.8558E+06    -3.36815E+06    -3.36669E+06     96.8543E+06     126.072E+06     125.078E+03         69.6949
             135     15.1779E-03     58.5506E-03         9.53598        -2.01209        -4.96224        -1.98561         9.50949        -4.96224        -1.10450     345.244E-03    -171.675E-03    -173.569E-03    -170.592E-03     342.267E-03    -171.675E-03     78.3752E-03     125.858E+06     95.9764E+06    -3.82512E+06    -3.82380E+06     95.9751E+06     125.858E+06     326.313E+03         69.7482
             136     15.1771E-03     59.9605E-03         10.0018        -2.14005        -5.11925        -2.11436         9.97607        -5.11925        -1.11577     345.711E-03    -171.681E-03    -174.030E-03    -171.105E-03     342.785E-03    -171.681E-03     77.7633E-03     126.326E+06     96.0325E+06    -3.80143E+06    -3.79760E+06     96.0286E+06     126.326E+06     513.482E+03         69.8017
             137     15.1774E-03     61.3696E-03         10.3785        -2.26767        -5.17177        -2.24292         10.3537        -5.17177        -1.11756     344.752E-03    -171.709E-03    -173.043E-03    -170.132E-03     341.841E-03    -171.709E-03     77.4192E-03     126.715E+06     97.2712E+06    -2.87427E+06    -2.87051E+06     97.2674E+06     126.715E+06     370.352E+03         69.8530
             138     15.1775E-03     62.7760E-03         10.6581        -2.39501        -5.12379        -2.37072         10.6338        -5.12379        -1.12517     343.831E-03    -171.708E-03    -172.123E-03    -169.174E-03     340.882E-03    -171.708E-03     77.7907E-03     125.992E+06     96.9658E+06    -3.90350E+06    -3.90278E+06     96.9651E+06     125.992E+06    -240.924E+03         69.9052
             139     15.1786E-03     64.1806E-03         10.8348        -2.51544        -4.98516        -2.48967         10.8090        -4.98516        -1.17168     344.478E-03    -171.670E-03    -172.808E-03    -169.915E-03     341.585E-03    -171.670E-03     77.1445E-03     127.700E+06     98.0853E+06    -3.76345E+06    -3.76209E+06     98.0839E+06     127.700E+06    -371.764E+03         69.9620
             140     15.1776E-03     65.5919E-03         10.9136        -2.62644        -4.76708        -2.59921         10.8863        -4.76708        -1.21321     345.091E-03    -171.650E-03    -173.441E-03    -170.586E-03     342.236E-03    -171.650E-03     76.7371E-03     128.467E+06     98.3708E+06    -3.45123E+06    -3.45051E+06     98.3701E+06     128.467E+06    -178.641E+03         70.0218
             141     15.1788E-03     66.9993E-03         10.8856        -2.72106        -4.48093        -2.69215         10.8567        -4.48093        -1.25264     345.094E-03    -171.649E-03    -173.445E-03    -170.521E-03     342.170E-03    -171.649E-03     77.6550E-03     127.649E+06     97.3692E+06    -3.63687E+06    -3.63636E+06     97.3687E+06     127.649E+06     172.858E+03         70.0826
             142     15.1776E-03     68.4100E-03         10.7367        -2.77490        -4.14311        -2.74360         10.7054        -4.14311        -1.29892     345.367E-03    -171.651E-03    -173.716E-03    -170.791E-03     342.442E-03    -171.651E-03     77.7102E-03     127.771E+06     97.4486E+06    -4.11865E+06    -4.11780E+06     97.4478E+06     127.771E+06     30.0549E+03         70.1445
             143     15.1783E-03     69.8163E-03         10.4699        -2.79631        -3.77091        -2.76375         10.4374        -3.77091        -1.31282     344.996E-03    -171.660E-03    -173.336E-03    -170.474E-03     342.134E-03    -171.660E-03     76.8192E-03     128.090E+06     97.5513E+06    -3.84293E+06    -3.84234E+06     97.5507E+06     128.090E+06    -245.112E+03         70.2076
             144     15.1782E-03     71.2257E-03         10.1078        -2.79721        -3.37886        -2.76423         10.0748        -3.37886        -1.30298     344.669E-03    -171.668E-03    -173.001E-03    -170.093E-03     341.761E-03    -171.668E-03     77.3807E-03     128.159E+06     98.5311E+06    -2.90069E+06    -2.89750E+06     98.5279E+06     128.159E+06     273.727E+03         70.2704
             145     15.1778E-03     72.6351E-03         9.67173        -2.77059        -2.97730        -2.73861         9.63975        -2.97730        -1.25987     344.621E-03    -171.678E-03    -172.943E-03    -169.985E-03     341.664E-03    -171.678E-03     78.0268E-03     127.369E+06     98.8454E+06    -4.02101E+06    -4.01719E+06     98.8416E+06     127.369E+06     173.744E+03         70.3322
             146     15.1781E-03     74.0407E-03         9.15547        -2.56287        -2.72590        -2.68173         9.12415        -2.57571        -1.21766     344.708E-03    -171.678E-03    -173.030E-03    -170.057E-03     341.735E-03    -171.678E-03     78.2377E-03     128.427E+06     99.2022E+06    -3.38708E+06    -3.38617E+06     99.2013E+06     128.427E+06    -180.627E+03         70.3959
             147     15.1781E-03     75.4499E-03         8.54521        -2.18612        -2.60918        -2.57742         8.51345        -2.18612        -1.18842     344.893E-03    -171.662E-03    -173.231E-03    -170.298E-03     341.960E-03    -171.662E-03     77.7367E-03     128.280E+06     98.2746E+06    -3.30028E+06    -3.29915E+06     98.2734E+06     128.280E+06     270.420E+03         70.4630
             148     15.1784E-03     76.8578E-03         7.85254        -1.81764        -2.46599        -2.43430         7.82085        -1.81764        -1.14159     344.691E-03    -171.658E-03    -173.033E-03    -170.081E-03     341.739E-03    -171.658E-03     77.9571E-03     127.453E+06       97.21E+06    -3.65961E+06    -3.65849E+06     97.2089E+06     127.453E+06     212.236E+03         70.5312
             149     15.1791E-03     79.6700E-03         6.32560        -1.17022        -2.09772        -2.06216         6.29004        -1.17022        -1.09054     345.072E-03    -171.620E-03    -173.452E-03    -170.580E-03     342.200E-03    -171.620E-03     76.9631E-03     126.829E+06     98.0753E+06    -4.12544E+06    -4.12397E+06     98.0738E+06     126.829E+06    -256.790E+03         70.6740
             150     15.1780E-03     81.0855E-03         5.49357    -900.730E-03        -1.87368        -1.83285         5.45275    -900.730E-03        -1.09033     346.182E-03    -171.618E-03    -174.564E-03    -171.627E-03     343.245E-03    -171.618E-03     77.9992E-03     127.195E+06     97.9595E+06    -3.57549E+06    -3.57386E+06     97.9579E+06     127.195E+06    -179.518E+03         70.7503
             151     15.1780E-03     82.4934E-03         4.61823    -669.158E-03        -1.61625        -1.56773         4.56971    -669.158E-03        -1.09099     345.382E-03    -171.657E-03    -173.725E-03    -170.839E-03     342.496E-03    -171.657E-03     77.2000E-03     126.460E+06     96.8024E+06    -3.22665E+06    -3.22626E+06     96.8020E+06     126.460E+06    -6.84841E+03         70.8238
             152     15.1779E-03     83.8998E-03         3.70685    -470.570E-03        -1.33152        -1.27298         3.64831    -470.570E-03        -1.07330     344.096E-03    -171.698E-03    -172.398E-03    -169.504E-03     341.202E-03    -171.698E-03     77.0977E-03     125.558E+06     95.9030E+06    -3.34435E+06    -3.33899E+06     95.8976E+06     125.558E+06    -604.393E+03         70.8922
             153     15.1777E-03     85.3086E-03         2.79875    -298.028E-03        -1.05291    -974.848E-03         2.72069    -298.028E-03        -1.07007     344.476E-03    -171.676E-03    -172.800E-03    -169.803E-03     341.479E-03    -171.676E-03     78.5219E-03     125.446E+06     95.0222E+06    -3.32729E+06    -3.32184E+06     95.0168E+06     125.446E+06    -380.962E+03         70.9635
             154     15.1792E-03     86.7139E-03         1.90058    -147.412E-03    -768.318E-03    -646.893E-03         1.77915    -147.412E-03        -1.07865     345.030E-03    -171.625E-03    -173.405E-03    -170.526E-03     342.151E-03    -171.625E-03     77.0139E-03     125.082E+06     94.7291E+06    -3.70872E+06    -3.70784E+06     94.7282E+06     125.082E+06    -47.5489E+03         71.0421
             155     15.1781E-03     88.1244E-03         1.08827    -14.2116E-03    -556.430E-03    -321.031E-03     852.870E-03    -14.2116E-03        -1.07387     344.834E-03    -171.637E-03    -173.197E-03    -170.409E-03     342.046E-03    -171.637E-03     75.7941E-03     124.203E+06     94.2829E+06    -3.49898E+06    -3.49827E+06     94.2822E+06     124.203E+06    -249.939E+03         71.1228
             156     15.1780E-03     89.5331E-03     583.343E-03     108.216E-03    -640.499E-03    -27.6469E-03    -29.5088E-03     108.216E-03        -1.07960     344.698E-03    -171.668E-03    -173.030E-03    -170.082E-03     341.750E-03    -171.668E-03     77.8992E-03     123.554E+06     93.3107E+06    -4.08546E+06    -4.08447E+06     93.3097E+06     123.554E+06    -285.198E+03         71.2032
             157     15.1782E-03     90.9407E-03     509.510E-03     227.527E-03        -1.12278     268.354E-03    -881.624E-03     227.527E-03        -1.08349     345.072E-03    -171.654E-03    -173.418E-03    -170.428E-03     342.083E-03    -171.654E-03     78.5109E-03     124.308E+06     93.5038E+06    -3.19653E+06    -3.18677E+06     93.4940E+06     124.308E+06     448.693E+03         71.2859
             158     15.1784E-03     92.3498E-03     683.450E-03     349.552E-03        -1.84176     553.094E-03        -1.71140     349.552E-03        -1.09458     345.051E-03    -171.647E-03    -173.404E-03    -170.498E-03     342.145E-03    -171.647E-03     77.4134E-03     123.891E+06     93.7576E+06    -3.48532E+06    -3.47540E+06     93.7476E+06     123.891E+06     429.674E+03         71.3702
             159     15.1779E-03     93.7572E-03     916.579E-03     479.294E-03        -2.61942     823.731E-03        -2.52657     479.294E-03        -1.11833     344.497E-03    -171.648E-03    -172.849E-03    -169.960E-03     341.607E-03    -171.648E-03     77.1135E-03     123.068E+06     92.9284E+06    -3.84451E+06    -3.83673E+06     92.9206E+06     123.068E+06    -790.082E+03         71.4547
             160     15.1794E-03     95.1628E-03         1.15558     624.637E-03        -3.38325         1.08361        -3.31128     624.637E-03        -1.12732     344.723E-03    -171.617E-03    -173.105E-03    -170.192E-03     341.810E-03    -171.617E-03     77.4552E-03     123.491E+06     93.4147E+06    -3.56894E+06    -3.56157E+06     93.4074E+06     123.491E+06    -393.229E+03         71.5438
             161     15.1785E-03     96.5756E-03         1.37322     792.383E-03        -4.10257         1.31375        -4.04310     792.383E-03        -1.13118     345.377E-03    -171.614E-03    -173.763E-03    -170.881E-03     342.495E-03    -171.614E-03     77.1373E-03     124.648E+06     95.3440E+06    -3.34043E+06    -3.33785E+06     95.3414E+06     124.648E+06     484.804E+03         71.6380
             162     15.1781E-03     97.9820E-03         1.56081     985.671E-03        -4.75887         1.51026        -4.70831     985.671E-03        -1.12305     345.045E-03    -171.653E-03    -173.392E-03    -170.502E-03     342.154E-03    -171.653E-03     77.2036E-03     124.791E+06     95.8650E+06    -3.59421E+06    -3.59222E+06     95.8630E+06     124.791E+06     331.486E+03         71.7312
             163     15.1783E-03     99.3919E-03         1.70812         1.20478        -5.34766         1.66439        -5.30393         1.20478        -1.10571     344.530E-03    -171.666E-03    -172.864E-03    -169.868E-03     341.534E-03    -171.666E-03     78.5102E-03     124.201E+06     94.5538E+06    -4.07399E+06    -4.07398E+06     94.5538E+06     124.201E+06     13.4124E+03         71.8232
             164     15.1788E-03     100.799E-03         1.82477         1.44905        -5.87984         1.78582        -5.84088         1.44905        -1.09182     344.812E-03    -171.640E-03    -173.172E-03    -170.153E-03     341.793E-03    -171.640E-03     78.8602E-03     124.779E+06     93.7752E+06    -3.22277E+06    -3.22271E+06     93.7751E+06     124.779E+06     49.4704E+03         71.9190
             165     15.1789E-03     102.206E-03         1.91456         1.71644        -6.34317         1.87969        -6.30831         1.71644        -1.06980     345.420E-03    -171.617E-03    -173.804E-03    -170.855E-03     342.472E-03    -171.617E-03     78.0275E-03     125.426E+06     93.9833E+06    -3.45323E+06    -3.45162E+06     93.9817E+06     125.426E+06     330.699E+03         72.0183
             166     15.1785E-03     103.618E-03         2.04589         1.93229        -6.74849         1.94791        -6.71684         1.99862        -1.04868     345.284E-03    -171.639E-03    -173.645E-03    -170.735E-03     342.374E-03    -171.639E-03     77.5050E-03     125.975E+06     94.8928E+06    -3.38994E+06    -3.38433E+06     94.8872E+06     125.975E+06     723.205E+03         72.1173
             167     15.1782E-03     105.023E-03         2.28359         2.01383        -7.07812         1.98503        -7.04932         2.28359        -1.02103     343.721E-03    -171.293E-03    -172.428E-03    -169.193E-03     340.860E-03    -171.666E-03     76.6195E-03     125.736E+06     95.7306E+06    -3.85473E+06    -3.84948E+06     95.7254E+06     125.736E+06     204.360E+03         72.2145
             168     15.1800E-03     106.427E-03         2.56093         2.00479        -7.31665         1.97942        -7.29127         2.56093    -970.642E-03     343.228E-03    -171.241E-03    -171.987E-03    -168.677E-03     340.292E-03    -171.615E-03     77.5209E-03     126.888E+06     97.5824E+06    -3.40588E+06    -3.40436E+06     97.5808E+06     126.888E+06    -372.826E+03         72.3161
             169     15.1809E-03     107.837E-03         2.82271         1.96896        -7.47529         1.94702        -7.45335         2.82271    -908.543E-03     345.209E-03    -171.531E-03    -173.678E-03    -170.679E-03     342.210E-03    -171.531E-03     78.6624E-03     128.627E+06     99.4280E+06    -3.67082E+06    -3.66312E+06     99.4203E+06     128.627E+06     491.677E+03         72.4306
             170     15.1796E-03     109.249E-03         3.06104         1.91360        -7.55032         1.89513        -7.53185         3.06104    -834.523E-03     346.147E-03    -171.550E-03    -174.597E-03    -171.660E-03     343.210E-03    -171.550E-03     77.9951E-03     130.663E+06     102.916E+06    -3.40506E+06    -3.35608E+06     102.867E+06     130.663E+06     2.12088E+06         72.5503
             171     15.1789E-03     110.658E-03         3.26526         1.83112        -7.53705         1.81524        -7.52117         3.26526    -770.525E-03     344.650E-03    -171.603E-03    -173.047E-03    -170.119E-03     341.722E-03    -171.603E-03     77.6469E-03     131.758E+06     107.560E+06    -3.45317E+06    -3.41080E+06     107.517E+06     131.758E+06     1.70966E+06         72.6640
             172     15.1809E-03     112.059E-03         3.42510         1.72858        -7.42430         1.71507        -7.41079         3.42510    -701.929E-03     343.355E-03    -171.557E-03    -171.798E-03    -168.897E-03     340.454E-03    -171.557E-03     77.1037E-03     132.147E+06     110.172E+06    -4.05271E+06    -4.05035E+06     110.170E+06     132.147E+06     510.793E+03         72.7752
             173     15.1822E-03     113.469E-03         3.53177         1.60626        -7.21894         1.59539        -7.20807         3.53177    -618.517E-03     344.362E-03    -171.482E-03    -172.879E-03    -169.924E-03     341.407E-03    -171.482E-03     77.9654E-03     133.659E+06     113.416E+06    -4.06939E+06    -4.06554E+06     113.413E+06     133.659E+06     670.566E+03         72.8921
             174     15.1806E-03     114.881E-03         3.57718         1.46335        -6.91725         1.45427        -6.90818         3.57718    -551.166E-03     344.996E-03    -171.471E-03    -173.526E-03    -170.552E-03     342.023E-03    -171.471E-03     78.3083E-03     134.846E+06     115.762E+06    -3.97854E+06    -3.97614E+06     115.760E+06     134.846E+06     279.949E+03         73.0139
             175     15.1824E-03     116.283E-03         3.55327         1.31973        -6.53485         1.31137        -6.52649         3.55327    -512.065E-03     344.026E-03    -171.451E-03    -172.575E-03    -169.602E-03     341.053E-03    -171.451E-03     78.1508E-03     135.947E+06     116.831E+06    -3.07845E+06    -3.06136E+06     116.814E+06     135.947E+06     922.026E+03         73.1348
             176     15.1834E-03     117.693E-03         3.45368         1.17073        -6.09144         1.16201        -6.08272         3.45368    -502.301E-03     344.032E-03    -171.381E-03    -172.651E-03    -169.681E-03     341.062E-03    -171.381E-03     78.1099E-03     137.895E+06     120.888E+06    -3.86992E+06    -3.85039E+06     120.869E+06     137.895E+06     1.41836E+06         73.2526
             177     15.1840E-03     119.100E-03         3.27907         1.02924        -5.59636         1.01948        -5.58659         3.27907    -507.469E-03     343.459E-03    -171.279E-03    -172.181E-03    -169.200E-03     340.509E-03    -171.309E-03     77.7790E-03     139.146E+06     123.753E+06    -4.13730E+06    -4.13460E+06     123.750E+06     139.146E+06     500.951E+03         73.3696
             178     15.1871E-03     120.504E-03         3.03366     905.851E-03        -5.05141     894.373E-03        -5.03993         3.03366    -520.917E-03     342.461E-03    -171.167E-03    -171.294E-03    -168.261E-03     339.457E-03    -171.197E-03     78.3376E-03     139.861E+06     124.691E+06    -3.96649E+06    -3.96631E+06     124.690E+06     139.861E+06     40.8453E+03         73.4928
             179     15.1887E-03     121.909E-03         2.72005     790.403E-03        -4.45915     776.792E-03        -4.44554         2.72005    -532.510E-03     343.027E-03    -171.045E-03    -171.983E-03    -168.995E-03     340.040E-03    -171.045E-03     78.2227E-03     141.658E+06     127.267E+06    -4.00966E+06    -4.00650E+06     127.264E+06     141.658E+06     400.463E+03         73.6301
             180     15.1905E-03     123.318E-03         2.34182     681.268E-03        -3.82629     666.139E-03        -3.81116         2.34182    -520.527E-03     343.514E-03    -170.934E-03    -172.580E-03    -169.603E-03     340.537E-03    -170.934E-03     78.1620E-03     143.893E+06     131.111E+06    -3.61130E+06    -3.60033E+06     131.100E+06     143.893E+06     1.18789E+06         73.7724
             181     15.1912E-03     124.725E-03         1.90739     565.725E-03        -3.15211     549.218E-03        -3.13561         1.90739    -492.674E-03     342.090E-03    -170.433E-03    -171.657E-03    -168.207E-03     339.058E-03    -170.851E-03     78.6593E-03     144.762E+06     133.524E+06    -3.85652E+06    -3.83930E+06     133.507E+06     144.762E+06     1.53633E+06         73.8986
             182     15.1954E-03     126.125E-03         1.42946     458.067E-03        -2.44819     440.746E-03        -2.43087         1.42946    -446.374E-03     340.280E-03    -169.581E-03    -170.699E-03    -166.466E-03     337.165E-03    -170.699E-03     79.4596E-03     145.706E+06     134.476E+06    -4.54331E+06    -4.53285E+06     134.465E+06     145.706E+06     521.746E+03         73.9955
             183     15.1986E-03     127.526E-03     919.453E-03     362.861E-03        -1.73460     346.067E-03        -1.71780     919.453E-03    -372.528E-03     339.095E-03    -168.629E-03    -170.466E-03    -165.572E-03     336.037E-03    -170.466E-03     78.5564E-03     149.157E+06     135.731E+06    -3.73202E+06    -3.72126E+06     135.720E+06     149.157E+06     536.642E+03         74.0505
             184     15.2042E-03     128.924E-03     449.566E-03     216.466E-03        -1.04566     260.777E-03        -1.02834     387.933E-03    -296.440E-03     335.956E-03    -165.807E-03    -170.149E-03    -162.731E-03     332.879E-03    -170.149E-03     78.3116E-03     152.699E+06     137.274E+06    -4.16583E+06    -4.15481E+06     137.263E+06     152.699E+06     1.13114E+06         74.0327
             185     15.2143E-03     130.314E-03     218.889E-03     14.5911E-03    -565.291E-03     195.012E-03    -376.785E-03    -150.038E-03    -217.610E-03     330.035E-03    -160.437E-03    -169.598E-03    -157.075E-03     326.673E-03    -169.598E-03     80.9043E-03     157.376E+06     138.107E+06    -4.46785E+06    -4.46319E+06     138.103E+06     157.376E+06     795.009E+03         73.9234
             186     15.2321E-03     131.695E-03     359.266E-03     13.8421E-03    -676.353E-03     143.095E-03     230.013E-03    -676.353E-03    -119.489E-03     322.740E-03    -154.170E-03    -168.570E-03    -150.233E-03     318.804E-03    -168.570E-03     86.1459E-03     161.589E+06     136.660E+06    -4.56347E+06    -4.55036E+06     136.647E+06     161.589E+06    -354.469E+03         73.7980
             187     15.2604E-03     133.062E-03     795.455E-03     93.7167E-03        -1.17406     95.0898E-03     794.082E-03        -1.17406    -22.6945E-03     317.942E-03    -150.946E-03    -166.996E-03    -146.721E-03     313.717E-03    -166.996E-03     88.6058E-03     162.650E+06     131.483E+06    -4.48647E+06    -4.47618E+06     131.472E+06     162.650E+06    -1.00851E+06         73.8496
             188     15.2859E-03     134.430E-03         1.31326     43.9508E-03        -1.63012     44.6469E-03         1.31257        -1.63012     54.5701E-03     321.446E-03    -156.261E-03    -165.186E-03    -152.349E-03     317.535E-03    -165.186E-03     86.0441E-03     162.533E+06     129.499E+06    -3.37691E+06    -3.35710E+06     129.479E+06     162.533E+06     971.907E+03         74.4035
             189     15.3044E-03     135.816E-03         1.76734     3.39412E-03        -2.03357     5.12260E-03         1.76561        -2.03357     110.154E-03     336.678E-03    -162.334E-03    -174.344E-03    -169.634E-03     333.289E-03    -163.654E-03     82.6456E-03     165.073E+06     130.483E+06    -5.54291E+06    -5.52267E+06     130.462E+06     165.073E+06     1.39277E+06         75.8564
             190     15.3054E-03     137.240E-03         2.17100    -31.4288E-03        -2.37097    -27.5283E-03         2.16710        -2.37097     182.144E-03     356.925E-03    -162.725E-03    -194.200E-03    -191.258E-03     353.983E-03    -162.725E-03     80.2662E-03     162.744E+06     126.667E+06    -6.39350E+06    -6.37158E+06     126.646E+06     162.744E+06    -920.855E+03         78.1061
             191     15.3054E-03     138.688E-03         2.53377    -86.0400E-03        -2.62799    -79.5291E-03         2.52726        -2.62799     260.773E-03     372.372E-03    -162.259E-03    -210.113E-03    -207.045E-03     369.304E-03    -162.259E-03     84.2856E-03     153.805E+06     121.731E+06    -2.57237E+06    -2.54863E+06     121.707E+06     153.805E+06    -1.56936E+06         80.3631
             192     15.3056E-03     140.147E-03         2.81676    -139.232E-03        -2.79552    -131.627E-03         2.80915        -2.79552     299.484E-03     382.087E-03    -161.980E-03    -220.107E-03    -217.010E-03     378.990E-03    -161.980E-03     86.0851E-03     145.951E+06     116.011E+06    -4.88476E+06    -4.83223E+06     115.959E+06     145.951E+06    -2.15100E+06         82.0478
             193     15.3053E-03     141.614E-03         3.00762    -188.364E-03        -2.87070    -181.293E-03         3.00055        -2.87070     299.581E-03     388.549E-03    -161.802E-03    -226.746E-03    -223.678E-03     385.480E-03    -161.802E-03     86.6538E-03     141.180E+06     107.043E+06    -3.74552E+06    -3.69375E+06     106.991E+06     141.180E+06    -2.05980E+06         83.2397
             194     15.3058E-03     143.096E-03         3.10409    -242.604E-03        -2.85308    -237.187E-03         3.09868        -2.85308     267.977E-03     393.477E-03    -161.668E-03    -231.809E-03    -228.580E-03     390.248E-03    -161.668E-03     89.6359E-03     134.257E+06     92.4266E+06    -5.77176E+06    -5.35016E+06     92.0050E+06     134.257E+06    -4.82095E+06         84.2151
             195     15.3056E-03     144.574E-03         3.10232    -278.979E-03        -2.74445    -275.296E-03         3.09864        -2.74445     221.664E-03     397.753E-03    -161.548E-03    -236.205E-03    -233.064E-03     394.612E-03    -161.548E-03     89.0221E-03     133.124E+06     78.4802E+06    -1.84472E+06    -1.42501E+06     78.0605E+06     133.124E+06    -4.55496E+06         84.8537
             196     15.3065E-03     146.060E-03         3.01443    -307.447E-03        -2.55407    -305.739E-03         3.01272        -2.55407     141.046E-03     398.916E-03    -161.525E-03    -237.391E-03    -234.444E-03     395.969E-03    -161.525E-03     86.3853E-03     136.265E+06     66.0693E+06    -6.03407E+06    -5.56385E+06     65.5991E+06     136.265E+06    -4.39241E+06         85.0639
             197     15.3066E-03     147.552E-03         2.80966    -313.915E-03        -2.29729    -313.600E-03         2.80934        -2.29729     56.8255E-03     398.465E-03    -161.543E-03    -236.922E-03    -233.985E-03     395.527E-03    -161.543E-03     86.1925E-03     143.845E+06     51.4292E+06    -2.45043E+06    -1.97646E+06     50.9552E+06     143.845E+06    -4.12398E+06         85.0436
             198     15.3087E-03     149.023E-03         2.50470    -294.189E-03        -1.98953    -294.138E-03         2.50465        -1.98953     3.50338E-03     398.555E-03    -161.498E-03    -237.057E-03    -234.434E-03     395.932E-03    -161.498E-03     81.2123E-03     147.378E+06     35.8514E+06    -7.13302E+06    -6.50526E+06     35.2236E+06     147.378E+06    -4.04161E+06         84.6238
             199     15.3088E-03     150.519E-03         2.12377    -260.019E-03        -1.64673    -259.463E-03         2.12321        -1.64673    -58.1734E-03     394.829E-03    -161.516E-03    -233.313E-03    -231.189E-03     392.705E-03    -161.516E-03     72.9325E-03     156.335E+06     30.7277E+06    -7.85354E+06     263.934E+03     22.6102E+06     156.335E+06    -1.14660E+06         83.7189
             200     15.3130E-03     151.977E-03         1.64645    -192.599E-03        -1.28537    -191.143E-03         1.64499        -1.28537    -101.039E-03     382.676E-03    -161.700E-03    -220.976E-03    -219.459E-03     381.158E-03    -161.700E-03     59.5875E-03     159.031E+06     22.8975E+06    -16.4943E+06    -7.51030E+06     13.9135E+06     159.031E+06    -3.46755E+06         82.4443
             201     15.3136E-03     153.432E-03         1.10947    -103.577E-03    -917.039E-03    -100.279E-03         1.10617    -917.039E-03    -118.077E-03     373.512E-03    -161.770E-03    -211.742E-03    -210.122E-03     371.892E-03    -161.770E-03     60.1821E-03     168.060E+06     44.3574E+06    -8.82410E+06     8.90505E+06     26.6283E+06     168.060E+06     3.56223E+06         80.6270
             202     15.3189E-03     154.884E-03     548.696E-03     9.54726E-03    -552.996E-03     12.4811E-03     545.763E-03    -552.996E-03    -79.3066E-03     319.262E-03    -131.431E-03    -187.831E-03    -154.923E-03     317.905E-03    -162.982E-03     23.5460E-03     131.638E+06     62.1935E+06    -12.0023E+06     5.89651E+06     44.2947E+06     131.638E+06     1.04242E+06         77.1846
             203     14.3178E-03     156.072E-03     311.155E-03     99.8919E-03    -414.714E-03     106.510E-03     304.537E-03    -414.714E-03     37.8452E-03     254.706E-03    -88.6422E-03    -166.064E-03    -86.8408E-03     252.905E-03    -166.064E-03    -44.4181E-03     87.0559E+06      8.1149E+06    -60.6614E+06    -42.1259E+06    -10.4205E+06     87.0559E+06    -11.3070E+06         67.3209
             204     13.3691E-03     155.791E-03     387.150E-03     151.637E-03    -517.206E-03     171.746E-03     367.041E-03    -517.206E-03     128.305E-03     235.311E-03    -65.3735E-03    -169.938E-03    -60.7891E-03     230.727E-03    -169.938E-03    -72.3087E-03     129.308E+06     5.59376E+06    -43.5615E+06    -24.5733E+06    -13.3945E+06     129.308E+06    -10.1461E+06         55.9026
             205     12.4490E-03     155.470E-03     468.886E-03     194.486E-03    -656.233E-03     245.074E-03     418.298E-03    -656.233E-03     208.931E-03     225.819E-03    -51.5293E-03    -174.290E-03    -44.1942E-03     218.484E-03    -174.290E-03    -88.5602E-03     148.716E+06     16.7784E+06    -29.5875E+06    -14.8198E+06     2.01067E+06     148.716E+06    -12.6086E+06         50.2919
             206     11.5312E-03     155.127E-03     601.704E-03     199.262E-03    -823.135E-03     287.111E-03     513.856E-03    -823.135E-03     332.303E-03     230.093E-03    -51.2366E-03    -178.856E-03    -39.9017E-03     218.758E-03    -178.856E-03    -109.977E-03     145.902E+06     3.96506E+06    -25.4228E+06    -8.16587E+06    -13.2919E+06     145.902E+06    -11.5853E+06         47.9027
             207     10.6337E-03     154.781E-03     722.761E-03     206.242E-03        -1.01237     299.807E-03     629.196E-03        -1.01237     396.255E-03     244.990E-03    -62.0032E-03    -182.987E-03    -45.3789E-03     228.365E-03    -182.987E-03    -138.763E-03     151.129E+06     7.76177E+06    -15.2863E+06    -4.23657E+06    -3.28796E+06     151.129E+06    -10.1198E+06         47.0017
             208     9.75475E-03     154.424E-03     862.695E-03     159.151E-03        -1.21801     244.152E-03     777.694E-03        -1.21801     454.817E-03     264.543E-03    -78.6041E-03    -185.939E-03    -55.7792E-03     241.718E-03    -185.939E-03    -170.745E-03     151.612E+06     7.92152E+06    -13.1480E+06    -536.222E+03    -4.69025E+06     151.612E+06    -9.70586E+06         46.7994
             209     8.90231E-03     154.065E-03         1.00386     69.8291E-03        -1.43218     129.731E-03     943.956E-03        -1.43218     440.444E-03     284.731E-03    -97.4287E-03    -187.302E-03    -68.2135E-03     255.516E-03    -187.302E-03    -203.037E-03     146.268E+06     13.0828E+06    -13.7924E+06     4.49109E+06    -5.20074E+06     146.268E+06    -11.0735E+06         46.8636
             210     8.07349E-03     153.722E-03         1.17390    -97.6803E-03        -1.64581    -66.1527E-03         1.14237        -1.64581     390.748E-03     305.492E-03    -118.609E-03    -186.883E-03    -84.9550E-03     271.838E-03    -186.883E-03    -229.261E-03     138.893E+06     11.7632E+06    -12.2552E+06     7.53681E+06    -8.02886E+06     138.893E+06    -8.95066E+06         46.9455
             211     7.26512E-03     153.391E-03         1.35434    -330.185E-03        -1.85146    -314.775E-03         1.33893        -1.85146     270.063E-03     322.600E-03    -137.930E-03    -184.670E-03    -102.107E-03     286.777E-03    -184.670E-03    -246.680E-03     134.682E+06     17.1033E+06    -8.63890E+06     11.1653E+06    -2.70090E+06     134.682E+06    -10.8374E+06         46.8884
             212     6.47244E-03     153.092E-03         1.54940    -626.875E-03        -2.04372    -624.790E-03         1.54732        -2.04372     134.231E-03     333.242E-03    -152.155E-03    -181.087E-03    -117.706E-03     298.793E-03    -181.087E-03    -249.071E-03     130.096E+06     22.9776E+06    -12.2140E+06     16.8918E+06    -6.12825E+06     130.096E+06    -13.1645E+06         46.6093
             213     5.68306E-03     152.821E-03         1.76847    -991.917E-03        -2.21705    -987.725E-03         1.76427        -2.21705    -64.7070E-03     339.429E-03    -162.911E-03    -176.518E-03    -132.507E-03     309.026E-03    -176.518E-03    -239.326E-03     126.651E+06     30.3830E+06    -12.6397E+06     25.9070E+06    -8.16367E+06     126.651E+06    -12.9810E+06         46.1011
             214     4.89343E-03     152.591E-03         1.96397        -1.36153        -2.36909        -1.35708         1.95952        -2.36909    -234.868E-03     340.746E-03    -168.092E-03    -172.655E-03    -144.577E-03     315.781E-03    -171.204E-03    -219.602E-03     120.824E+06     40.3758E+06    -9.46530E+06     36.9056E+06    -5.99510E+06     120.824E+06    -12.6627E+06         45.3916
             215     4.10527E-03     152.393E-03         2.13874        -1.73302        -2.50003        -1.72529         2.13102        -2.50003    -326.392E-03     335.960E-03    -165.585E-03    -170.375E-03    -152.165E-03     317.750E-03    -165.585E-03    -187.725E-03     112.652E+06     49.1025E+06    -7.60387E+06     46.7372E+06    -5.23858E+06     112.652E+06    -10.9951E+06         44.5270
             216     3.30201E-03     152.238E-03         2.28411        -2.07249        -2.61006        -2.06426         2.27587        -2.61006    -358.396E-03     326.382E-03    -160.198E-03    -166.183E-03    -154.325E-03     314.523E-03    -160.198E-03    -149.972E-03     100.703E+06     55.8962E+06    -6.39590E+06     54.6863E+06    -5.18597E+06     100.703E+06    -8.54578E+06         43.5875
             217     2.49075E-03     152.107E-03         2.41508        -2.37988        -2.69712        -2.37423         2.40943        -2.69712    -324.492E-03     315.119E-03    -155.677E-03    -159.443E-03    -152.622E-03     308.298E-03    -155.677E-03    -111.657E-03     90.8364E+06     64.9994E+06    -4.33146E+06     63.7764E+06    -3.10844E+06     90.8364E+06    -9.11022E+06         42.6904
             218     1.66538E-03     152.026E-03         2.49265        -2.60304        -2.76285        -2.59922         2.48882        -2.76285    -196.189E-03     306.395E-03    -152.435E-03    -153.959E-03    -150.691E-03     303.127E-03    -152.435E-03    -75.4503E-03     87.5572E+06     73.9829E+06    -5.13825E+06     72.6897E+06    -3.84506E+06     87.5572E+06    -9.98754E+06         41.9571
             219     832.011E-06     151.965E-03         2.57169        -2.75830        -2.80980        -2.75973         2.56848        -2.80516    -188.081E-03     300.964E-03    -149.898E-03    -151.066E-03    -149.940E-03     299.837E-03    -149.898E-03    -42.3464E-03     85.7966E+06     79.8691E+06    -9.34138E+06     79.1202E+06    -8.59244E+06     85.7966E+06    -7.77985E+06         41.4710
             220    -2.52260E-06     150.595E-03         2.87014        -2.72496        -2.76643        -2.72497         2.86551        -2.76180    -59.1298E-03     246.887E-03    -122.786E-03    -124.101E-03    -123.315E-03     246.651E-03    -123.335E-03    -18.0539E-03     30.7352E+06     24.8653E+06    -33.6591E+06     24.7012E+06    -28.5285E+06     25.7687E+06    -10.3859E+06         39.2947
             221     1.75807E-06     149.391E-03         3.55186        -2.72048        -2.76410        -2.72561         3.55022        -2.75732     183.864E-03     165.585E-03    -82.4935E-03    -83.0913E-03    -82.4548E-03     165.546E-03    -83.0913E-03    -4.23126E-03    -59.5364E+06    -86.0933E+06    -99.0171E+06    -85.8838E+06    -72.6697E+06    -86.0933E+06    -13.9297E+06         35.1998
             222    -1.74755E-06     148.237E-03         4.51293        -2.97877        -3.01498        -3.01391         4.51186        -2.97877     173.380E-03     120.277E-03    -60.0615E-03    -60.2158E-03    -60.0211E-03     120.237E-03    -60.2158E-03     4.01568E-03    -122.670E+06    -188.828E+06    -190.645E+06    -187.785E+06    -125.530E+06    -188.828E+06    -12.7198E+06         31.8975
             223     1.47243E-06     147.137E-03         5.50109        -3.31996        -3.37576        -3.34853         5.50023        -3.34633     97.1584E-03     102.443E-03    -50.7961E-03    -51.6474E-03    -51.3676E-03     102.269E-03    -50.9015E-03     9.90814E-03    -179.139E+06    -287.996E+06    -291.419E+06    -289.690E+06    -180.868E+06    -287.996E+06    -13.7285E+06         30.4127
             224    -309.849E-09     146.029E-03         6.29310        -3.61669        -3.65809        -3.63082         6.29221        -3.64307     114.734E-03     109.299E-03    -54.1340E-03    -55.1648E-03    -54.5888E-03     109.008E-03    -54.4189E-03     13.8128E-03    -225.388E+06    -373.080E+06    -377.450E+06    -375.487E+06    -226.374E+06    -374.057E+06    -10.9566E+06         30.6259
             225    -554.506E-09     144.909E-03         6.95939        -3.84985        -3.89557        -3.89424         6.95807        -3.84985     33.8978E-03     135.350E-03    -67.4487E-03    -67.9009E-03    -67.1258E-03     135.027E-03    -67.9009E-03     16.1515E-03    -237.529E+06    -343.633E+06    -350.201E+06    -342.357E+06    -238.804E+06    -350.201E+06     1.49671E+06         32.1596
             226    -124.560E-09     143.744E-03         7.46378        -4.01081        -4.12706        -4.11835         7.45508        -4.01081    -543.328E-03     174.585E-03    -86.8118E-03    -87.7736E-03    -87.3101E-03     174.289E-03    -86.9791E-03     17.4764E-03    -193.548E+06    -221.676E+06    -244.130E+06    -222.642E+06    -214.872E+06     -221.84E+06     10.5102E+06         34.5572
             227     1.44395E-06     142.528E-03         7.79977        -4.09655        -4.27610        -4.22818         7.75185        -4.09655        -1.42623     214.954E-03    -107.059E-03    -107.895E-03    -107.640E-03     214.741E-03    -107.100E-03     16.3866E-03    -130.077E+06    -140.587E+06    -190.915E+06    -137.744E+06    -188.676E+06    -135.159E+06     3.24626E+06         37.3135
             228    -1.72565E-06     141.264E-03         7.98568        -4.11341        -4.34163        -4.20286         7.84691        -4.11341        -2.53737     248.685E-03    -124.031E-03    -124.655E-03    -123.882E-03     248.537E-03    -124.655E-03     14.7970E-03    -104.091E+06    -113.434E+06    -191.493E+06    -108.534E+06    -191.310E+06    -109.173E+06    -3.68727E+06         39.9871
             229     641.122E-09     139.964E-03         8.05343        -4.02784        -4.47096        -4.10687         7.68934        -4.02784        -4.09046     275.203E-03    -136.804E-03    -138.399E-03    -137.717E-03     275.104E-03    -137.387E-03     12.6207E-03    -98.4999E+06    -106.831E+06    -212.138E+06    -102.992E+06    -211.907E+06    -102.570E+06    -4.85864E+06         42.2938
             230     992.940E-09     138.628E-03         8.13032        -3.92659        -4.55422        -3.86370         7.43980        -3.92659        -5.71186     293.347E-03    -145.865E-03    -147.482E-03    -146.804E-03     293.274E-03    -146.470E-03     11.3078E-03    -97.4356E+06    -103.669E+06    -232.985E+06    -99.7918E+06    -232.792E+06    -101.506E+06    -4.02399E+06         44.1078
             231    -2.08471E-06     137.286E-03         7.87941        -3.79014        -4.47546        -3.45250         6.85646        -3.79014        -6.77042     305.976E-03    -151.945E-03    -154.031E-03    -153.380E-03     305.930E-03    -152.551E-03     8.45717E-03    -112.062E+06    -115.045E+06    -253.646E+06    -114.435E+06    -253.436E+06    -112.881E+06    -4.34504E+06         45.4324
             232     4.60036E-06     135.916E-03         7.26099        -3.47671        -4.16244        -2.88493         5.98347        -3.47671        -7.18495     314.798E-03    -155.978E-03    -158.820E-03    -158.792E-03     314.770E-03    -155.978E-03     7.06709E-03    -121.693E+06    -124.437E+06    -273.665E+06    -121.899E+06    -273.458E+06    -124.437E+06    -4.00788E+06         46.3431
             233    -2.33951E-06     134.548E-03         6.15200        -3.06001        -3.43195        -2.16023         4.88028        -3.06001        -6.49852     320.286E-03    -159.435E-03    -160.851E-03    -160.827E-03     320.263E-03    -159.435E-03     5.97405E-03    -130.800E+06    -134.714E+06    -291.102E+06    -132.935E+06    -290.956E+06    -132.726E+06    -3.54344E+06         46.9339
             234     2.45694E-06     133.167E-03         4.48095        -2.30485        -2.61130        -1.38397         3.50729        -2.55852        -4.77929     323.565E-03    -161.126E-03    -162.439E-03    -162.432E-03     323.559E-03    -161.126E-03     3.53438E-03    -149.331E+06    -153.445E+06    -311.325E+06    -151.476E+06    -311.169E+06    -151.457E+06    -4.29011E+06         47.3079
             235    -340.256E-09     131.784E-03         2.58831        -1.12109        -1.89713    -600.602E-03         2.06783        -1.89713        -2.57622     325.827E-03    -162.218E-03    -163.609E-03    -163.468E-03     325.817E-03    -162.350E-03     4.27857E-03    -157.987E+06    -162.511E+06    -329.685E+06    -160.493E+06    -329.578E+06    -160.113E+06    -3.83464E+06         47.5673
             236     145.413E-09     130.402E-03         1.06627    -408.647E-03        -1.13655     163.109E-03     494.512E-03        -1.13655    -629.249E-03     328.658E-03    -164.097E-03    -164.561E-03    -164.423E-03     328.652E-03    -164.228E-03     3.12850E-03    -171.373E+06    -176.724E+06    -345.933E+06    -173.868E+06    -345.836E+06    -174.326E+06    -2.94916E+06         47.7812
             237     393.104E-09     129.009E-03     939.953E-03    -123.638E-03        -1.39320     931.482E-03        -1.17919    -329.177E-03     261.770E-03     330.555E-03    -164.505E-03    -166.051E-03    -166.049E-03     330.553E-03    -164.505E-03     1.95123E-03    -179.656E+06    -185.632E+06    -359.664E+06    -182.749E+06    -359.593E+06    -182.609E+06    -2.59200E+06         47.9776
             238     1.70443E-06     127.623E-03         1.73552     522.108E-03        -2.91501         1.71434        -2.89383     522.108E-03    -250.224E-03     333.010E-03    -165.815E-03    -167.194E-03    -167.191E-03     333.006E-03    -165.815E-03     2.72131E-03    -184.628E+06    -190.145E+06    -380.281E+06    -187.759E+06    -380.172E+06    -187.122E+06    -4.51534E+06         48.1663
             239    -1.44398E-06     126.224E-03         2.71279         1.30841        -4.78473         2.53683        -4.60878         1.30841        -2.10852     336.270E-03    -167.910E-03    -168.360E-03    -168.357E-03     336.267E-03    -167.910E-03     1.25360E-03    -189.901E+06    -192.624E+06    -392.464E+06    -190.203E+06    -392.390E+06    -192.396E+06    -112.048E+03         48.3444
             240     1.93418E-06     124.826E-03         3.96725         1.94266        -6.80493         3.38784        -6.22552         1.94266        -4.79700     338.068E-03    -168.268E-03    -169.800E-03    -169.798E-03     338.066E-03    -168.268E-03     853.093E-06    -187.523E+06    -189.019E+06    -394.610E+06    -189.127E+06    -394.502E+06    -187.523E+06    -902.894E+03         48.5006
             241     196.178E-09     123.422E-03         5.25066         2.43219        -8.69544         4.22100        -7.66578         2.43219        -7.28690     339.452E-03    -168.965E-03    -170.487E-03    -170.485E-03     339.450E-03    -168.965E-03     1.58920E-03    -186.325E+06    -190.192E+06    -402.976E+06    -187.676E+06    -402.894E+06    -188.924E+06    -1.76999E+06         48.6282
             242     244.587E-09     122.022E-03         6.24749         2.74484        -10.1330         4.99230        -8.87785         2.74484        -8.71318     340.434E-03    -169.420E-03    -171.014E-03    -171.014E-03     340.434E-03    -169.420E-03    -68.8220E-06    -179.334E+06    -183.926E+06    -400.396E+06    -181.355E+06    -400.369E+06    -181.932E+06     2.41513E+06         48.7248
             243     2.01336E-06     120.616E-03         6.71853         2.88648        -10.8870         5.59830        -9.76676         2.88648        -8.56040     340.874E-03    -169.306E-03    -171.568E-03    -171.566E-03     340.873E-03    -169.306E-03     781.825E-06    -173.759E+06    -178.083E+06    -394.855E+06    -175.783E+06    -394.825E+06    -176.090E+06     288.724E+03         48.7938
             244    -446.529E-09     119.211E-03         6.66827         2.99670        -11.0836         6.01784        -10.4331         2.99670        -6.47150     340.807E-03    -168.737E-03    -172.070E-03    -169.676E-03     340.805E-03    -171.129E-03     1.61274E-03    -174.497E+06    -178.892E+06    -396.095E+06    -176.579E+06    -396.077E+06    -176.828E+06    -322.678E+03         48.8458
             245    -3.55986E-06     117.808E-03         6.42661         3.24829        -11.2185         6.23669        -11.0286         3.24829        -3.17973     341.040E-03    -168.599E-03    -172.441E-03    -170.047E-03     341.038E-03    -170.991E-03    -602.024E-06    -174.531E+06    -177.919E+06    -396.700E+06    -176.602E+06    -396.693E+06    -175.855E+06     433.179E+03         48.8907
             246     5.98954E-06     116.402E-03         6.15799         3.58339        -11.4160         6.13212        -11.3901         3.58339    -92.4405E-03     342.414E-03    -169.035E-03    -173.380E-03    -173.378E-03     342.412E-03    -169.035E-03     40.0495E-06    -171.630E+06    -173.062E+06    -393.960E+06    -171.745E+06    -393.953E+06    -172.954E+06     419.802E+03         48.9295
             247    -1.10250E-06     114.995E-03         5.78949         3.91090        -11.5128         5.71237        -11.4357         3.91090         2.12226     342.786E-03    -169.367E-03    -173.419E-03    -172.262E-03     342.785E-03    -170.523E-03     1.16739E-03    -165.789E+06    -167.447E+06    -387.586E+06    -167.456E+06    -387.577E+06    -165.789E+06     1.36265E+06         48.9584
             248    -821.306E-09     113.587E-03         5.23565         4.27386        -11.4453         5.10340        -11.3131         4.27386         2.95847     342.469E-03    -170.295E-03    -172.174E-03    -171.018E-03     342.469E-03    -171.451E-03     96.2432E-06    -163.433E+06    -168.042E+06    -385.424E+06    -164.989E+06    -385.418E+06    -166.492E+06     38.6212E+03         48.9831
             249     2.01298E-06     112.180E-03         4.87190         4.12781        -11.0563         4.26663        -10.9852         4.66199         1.83317     342.252E-03    -170.709E-03    -171.544E-03    -171.432E-03     342.252E-03    -170.820E-03     828.502E-06    -162.215E+06    -167.993E+06    -383.352E+06    -164.947E+06    -383.339E+06    -165.274E+06     499.335E+03         49.0103
             250    -2.16249E-06     110.774E-03         4.93369         3.37818        -10.4827         3.31854        -10.4231         4.93369    -827.127E-03     342.488E-03    -171.175E-03    -171.313E-03    -171.174E-03     342.487E-03    -171.313E-03     721.649E-06    -160.420E+06    -164.991E+06    -379.487E+06    -163.150E+06    -379.476E+06    -162.273E+06     734.841E+03         49.0375
             251     2.10241E-06     109.368E-03         5.00836         2.82056        -10.1106         2.44495        -9.73504         5.00836        -3.97718     343.792E-03    -170.532E-03    -173.260E-03    -173.233E-03     343.792E-03    -170.559E-03    -139.650E-06    -160.832E+06    -163.708E+06    -378.494E+06    -161.863E+06    -378.486E+06    -162.684E+06     565.893E+03         49.0602
             252     2.46650E-06     107.956E-03         5.07216         2.72658        -10.1212         1.63515        -9.02977         5.07216        -6.98407     343.478E-03    -170.063E-03    -173.415E-03    -172.763E-03     343.477E-03    -170.714E-03     1.02450E-03    -160.902E+06    -162.957E+06    -378.231E+06    -161.962E+06    -378.194E+06    -161.934E+06    -936.620E+03         49.0769
             253    -3.57095E-06     106.551E-03         5.06918         2.93826        -10.3650     969.269E-03        -8.39603         5.06918        -9.38530     342.562E-03    -170.849E-03    -171.713E-03    -171.060E-03     342.560E-03    -171.501E-03     113.262E-06    -163.532E+06    -166.200E+06    -380.930E+06    -165.205E+06    -380.893E+06    -164.564E+06    -926.596E+03         49.0899
             254     3.94820E-06     105.144E-03         4.74412         3.07325        -10.1883     384.583E-03        -7.49960         4.74412        -10.6257     343.092E-03    -170.556E-03    -172.536E-03    -172.535E-03     343.091E-03    -170.556E-03    -437.453E-06    -162.443E+06    -167.291E+06    -379.746E+06    -164.089E+06    -379.736E+06    -165.654E+06     1.45793E+06         49.1020
             255    -997.267E-09     103.736E-03         4.29266         2.86820        -9.45190    -168.499E-03        -6.41521         4.29266        -10.6083     343.645E-03    -170.694E-03    -172.951E-03    -172.462E-03     343.644E-03    -171.182E-03     1.34994E-03    -155.416E+06    -162.276E+06    -374.640E+06    -159.068E+06    -374.636E+06    -158.628E+06     337.630E+03         49.1130
             256     224.465E-09     102.324E-03         3.90541         2.47470        -8.60766    -531.767E-03        -5.60119         3.90541        -9.85309     344.095E-03    -171.364E-03    -172.730E-03    -172.242E-03     344.094E-03    -171.852E-03     889.899E-06    -156.121E+06    -161.830E+06    -375.235E+06    -159.776E+06    -375.227E+06    -158.182E+06    -1.12045E+06         49.1228
             257     1.23716E-06     100.918E-03         3.44364         2.08669        -7.65574    -717.103E-03        -4.85195         3.44364        -8.81931     343.545E-03    -171.199E-03    -172.346E-03    -172.077E-03     343.545E-03    -171.468E-03     154.842E-06    -158.900E+06    -162.097E+06    -376.507E+06    -158.917E+06    -376.490E+06    -162.097E+06     144.505E+03         49.1310
             258    -1.69566E-06     99.5093E-03         2.95650         1.76611        -6.66582    -793.652E-03        -4.10605         2.95650        -7.75314     342.564E-03    -171.121E-03    -171.442E-03    -171.173E-03     342.564E-03    -171.390E-03     104.101E-06    -159.255E+06    -162.962E+06    -375.558E+06    -161.844E+06    -375.540E+06    -160.391E+06     81.3218E+03         49.1409
             259     1.81972E-06     98.1023E-03         2.53731         1.58171        -5.87958    -876.056E-03        -3.42181         2.53731        -7.00652     343.172E-03    -170.232E-03    -172.940E-03    -172.940E-03     343.172E-03    -170.232E-03     242.786E-06    -160.748E+06    -165.366E+06    -376.792E+06    -163.331E+06    -376.780E+06    -162.795E+06    -326.490E+03         49.1558
             260     2.63890E-06     96.6943E-03         2.20768         1.73898        -5.49642    -903.057E-03        -2.78255         2.13586        -7.05452     343.725E-03    -170.400E-03    -173.325E-03    -173.325E-03     343.725E-03    -170.400E-03     870.219E-06    -158.669E+06    -160.845E+06    -373.714E+06    -158.804E+06    -373.708E+06    -160.716E+06     1.11677E+06         49.1697
             261    -2.17723E-06     95.2858E-03         2.43241         1.80195        -5.49684    -844.548E-03        -2.21988         1.80195        -7.80186     343.713E-03    -171.668E-03    -172.045E-03    -172.044E-03     343.712E-03    -171.668E-03     89.0239E-06    -159.578E+06    -160.812E+06    -373.087E+06    -160.861E+06    -373.038E+06    -159.578E+06    -1.71973E+06         49.1769
             262     2.37699E-06     93.8778E-03         3.29832         1.52574        -5.76261    -855.016E-03        -1.60927         1.52574        -9.01947     343.949E-03    -171.179E-03    -172.770E-03    -172.770E-03     343.948E-03    -171.179E-03     66.9057E-06    -161.059E+06    -165.676E+06    -377.861E+06    -162.246E+06    -377.778E+06    -164.571E+06    -242.202E+03         49.1808
             263     90.9303E-09     92.4649E-03         4.31558         1.27255        -6.19430    -803.073E-03        -1.07565         1.27255        -10.5054     342.742E-03    -170.317E-03    -172.425E-03    -171.800E-03     342.741E-03    -170.941E-03     1.16356E-03    -157.453E+06    -164.756E+06    -373.473E+06    -161.280E+06    -373.437E+06    -160.965E+06     2.12622E+06         49.1858
             264    -1.09284E-06     91.0629E-03         5.15927         1.03855        -6.45746    -665.691E-03    -632.500E-03         1.03855        -11.6152     342.297E-03    -170.583E-03    -171.715E-03    -171.090E-03     342.297E-03    -171.207E-03     563.169E-06    -158.123E+06    -164.121E+06    -373.075E+06    -161.941E+06    -373.048E+06    -160.330E+06    -1.57817E+06         49.1939
             265     1.93098E-06     89.6560E-03         5.50424     816.866E-03        -6.18861    -532.703E-03    -151.673E-03     816.866E-03        -11.6854     344.308E-03    -171.350E-03    -172.958E-03    -172.958E-03     344.307E-03    -171.350E-03     339.483E-06    -161.824E+06    -165.021E+06    -378.023E+06    -162.881E+06    -377.957E+06    -164.032E+06     327.917E+03         49.2043
             266    -57.4029E-09     88.2423E-03         5.11072     583.931E-03        -5.17164    -282.413E-03     221.497E-03     583.931E-03        -10.2700     344.327E-03    -171.286E-03    -173.041E-03    -172.387E-03     344.327E-03    -171.940E-03     366.934E-06    -159.872E+06    -161.648E+06    -373.662E+06    -160.904E+06    -373.620E+06    -160.658E+06     1.48190E+06         49.2160
             267    -1.04600E-06     86.8357E-03         3.99137     267.976E-03        -3.34468    -4.50420E-03     651.199E-03     267.976E-03        -7.29733     342.535E-03    -170.452E-03    -172.083E-03    -171.429E-03     342.535E-03    -171.107E-03     40.6695E-06    -159.522E+06    -161.714E+06    -373.339E+06    -160.934E+06    -373.332E+06    -160.308E+06    -1.22007E+06         49.2303
             268     2.71541E-06     85.4282E-03         2.41823     76.7247E-03        -1.21791     145.531E-03         1.19565    -64.1418E-03        -3.12366     342.605E-03    -170.125E-03    -172.480E-03    -172.479E-03     342.604E-03    -170.125E-03     698.387E-06    -157.827E+06    -162.729E+06    -376.409E+06    -159.237E+06    -376.405E+06    -161.323E+06    -468.465E+03         49.2449
             269    -425.248E-09     84.0241E-03         2.23134    -202.613E-03    -360.962E-03     287.527E-03         1.72372    -343.479E-03         1.08714     343.793E-03    -171.132E-03    -172.661E-03    -172.660E-03     343.792E-03    -171.132E-03    -9.69268E-06    -155.555E+06    -162.616E+06    -377.450E+06    -159.123E+06    -377.447E+06    -159.052E+06    -356.823E+03         49.2562
             270     725.933E-09     82.6128E-03         3.58435    -616.869E-03    -941.853E-03     418.662E-03         2.22384    -616.869E-03         4.14007     343.831E-03    -171.361E-03    -172.470E-03    -172.469E-03     343.830E-03    -171.361E-03    -372.841E-06    -160.884E+06    -167.351E+06    -379.378E+06    -164.453E+06    -379.374E+06    -163.786E+06    -127.382E+03         49.2649
             271     862.696E-09     81.2011E-03         4.38516    -851.979E-03        -1.27062     403.792E-03         2.71075    -851.979E-03         5.15255     342.963E-03    -170.342E-03    -172.621E-03    -171.297E-03     342.961E-03    -171.664E-03     1.72515E-03    -160.455E+06    -166.547E+06    -378.022E+06    -163.647E+06    -378.019E+06    -163.357E+06     698.990E+03         49.2752
             272    -3.04859E-06     79.7988E-03         4.33663    -511.170E-03        -1.21854     247.352E-03         3.46697        -1.10740         3.44940     343.966E-03    -170.753E-03    -173.213E-03    -171.888E-03     343.964E-03    -172.075E-03     642.592E-06    -156.114E+06    -162.537E+06    -376.458E+06    -159.306E+06    -376.456E+06    -159.347E+06    -39.2212E+03         49.2881
             273     4.93018E-06     78.3855E-03         4.76182    -391.776E-03        -1.51076    -2.88210E-03         4.37292        -1.51076    -813.206E-03     345.338E-03    -171.232E-03    -174.106E-03    -174.105E-03     345.336E-03    -171.232E-03     114.343E-06    -159.011E+06    -164.131E+06    -377.837E+06    -160.900E+06    -377.836E+06    -162.243E+06    -227.811E+03         49.2985
             274     14.3333E-03     76.7545E-03         7.83214        -1.82169        -2.46057        -2.41191         7.78347        -1.82169     247.211E-03     351.647E-03    -171.617E-03    -180.031E-03    -171.690E-03     343.306E-03    -171.617E-03     124.435E-03     113.811E+06     88.9988E+06    -7.18415E+06    -7.18086E+06     88.9956E+06     113.811E+06    -228.679E+03         69.1857
             275     13.4912E-03     76.5249E-03         7.75389        -1.83271        -2.40702        -2.37350         7.72037        -1.83271     699.426E-03     352.224E-03    -171.568E-03    -180.656E-03    -171.478E-03     343.046E-03    -171.568E-03     134.285E-03     95.3151E+06     72.7657E+06    -13.7853E+06    -13.7789E+06     72.7592E+06     95.3151E+06    -155.463E+03         66.0969
             276     12.6479E-03     76.4004E-03         7.65924        -1.84213        -2.33620        -2.33458         7.65762        -1.84213     15.2026E-03     346.543E-03    -171.580E-03    -174.963E-03    -169.477E-03     341.057E-03    -171.580E-03     106.081E-03     88.6629E+06     59.6847E+06    -20.9195E+06    -20.9111E+06     59.6763E+06     88.6629E+06     82.8231E+03         62.6614
             277     11.8008E-03     76.2529E-03         7.59123        -1.84808        -2.28892        -2.28648         7.58880        -1.84808    -38.2617E-03     346.107E-03    -171.616E-03    -174.491E-03    -169.092E-03     340.708E-03    -171.616E-03     105.087E-03     83.7757E+06     53.6702E+06    -28.7835E+06    -28.7775E+06     53.6642E+06     83.7757E+06    -38.8150E+03         59.6155
             278     10.9591E-03     76.1385E-03         7.55087        -1.85438        -2.26184        -2.23394         7.52297        -1.85438    -886.589E-03     344.653E-03    -171.639E-03    -173.014E-03    -168.783E-03     340.422E-03    -171.639E-03     93.1780E-03     73.8773E+06     49.6726E+06    -37.1333E+06    -37.1295E+06     49.6688E+06     73.8773E+06     391.054E+03         57.3028
             279     10.1136E-03     76.0236E-03         7.50283        -1.86052        -2.22872        -2.18408         7.45819        -1.86052    -122.158E-03     344.332E-03    -171.661E-03    -172.670E-03    -169.018E-03     340.679E-03    -171.661E-03     86.4896E-03     64.4573E+06     44.0501E+06    -46.1746E+06    -46.1584E+06     44.0339E+06     64.4573E+06     903.822E+03         55.6939
             280     9.27025E-03     75.9232E-03         7.42259        -1.86699        -2.16541        -2.14061         7.39779        -1.86699     243.993E-03     344.071E-03    -171.667E-03    -172.404E-03    -169.439E-03     341.107E-03    -171.667E-03     77.8941E-03     57.9814E+06     37.8724E+06    -55.1784E+06    -55.1642E+06     37.8582E+06     57.9814E+06     641.879E+03         54.5820
             281     8.42967E-03     75.8330E-03         7.36331        -1.87249        -2.12558        -2.10463         7.34237        -1.87249     172.615E-03     343.314E-03    -171.378E-03    -171.935E-03    -169.320E-03     340.986E-03    -171.666E-03     68.9279E-03     45.1763E+06     6.37241E+06    -65.7266E+06    -65.6916E+06     6.33742E+06     45.1763E+06    -447.039E+03         53.7516
             282     7.58547E-03     75.7567E-03         7.30566        -1.87598        -2.08642        -2.07034         7.28958        -1.87598     346.887E-03     342.470E-03    -170.751E-03    -171.719E-03    -169.051E-03     340.749E-03    -171.698E-03     59.0949E-03     25.0683E+06    -50.6378E+06    -77.8972E+06    -77.5362E+06    -50.9987E+06     25.0683E+06    -687.136E+03         53.0537
             283     6.74156E-03     75.6969E-03         7.28520        -1.87630        -2.07870        -2.04498         7.25149        -1.87630    -942.390E-03     341.965E-03    -170.196E-03    -171.769E-03    -169.035E-03     340.804E-03    -171.769E-03     48.3986E-03     2.99816E+06    -87.0758E+06    -110.479E+06    -88.8947E+06    -108.660E+06     2.99816E+06    -11.9775E+03         52.4105
             284     5.89943E-03     75.6481E-03         7.30517        -1.87310        -2.11312        -2.01145         7.20350        -1.87310     361.803E-03     342.189E-03    -170.352E-03    -171.837E-03    -169.643E-03     341.480E-03    -171.837E-03     37.7032E-03    -19.2754E+06    -100.246E+06    -157.820E+06    -100.252E+06    -157.814E+06    -19.2754E+06     91.1019E+03         51.7960
             285     5.05617E-03     75.6126E-03         7.23609        -1.86671        -2.06563        -1.97727         7.14773        -1.86671     560.852E-03     342.718E-03    -170.873E-03    -171.846E-03    -170.483E-03     342.328E-03    -171.846E-03     27.8792E-03    -42.4716E+06    -111.688E+06    -201.946E+06    -111.689E+06    -201.945E+06    -42.4716E+06     27.8931E+03         51.2130
             286     4.21298E-03     75.5933E-03         7.21087        -1.85932        -2.07050        -1.92607         7.06645        -1.85932     930.147E-03     342.785E-03    -170.967E-03    -171.818E-03    -170.778E-03     342.596E-03    -171.818E-03     19.3118E-03    -66.3244E+06    -122.830E+06    -247.790E+06    -122.833E+06    -247.787E+06    -66.3244E+06     311.788E+03         50.6778
             287     3.37023E-03     75.5790E-03         7.26617        -1.85257        -2.15616        -1.89557         7.00558        -1.85257    -39.6358E-03     342.919E-03    -171.139E-03    -171.780E-03    -171.061E-03     342.841E-03    -171.780E-03     12.2289E-03    -91.2488E+06    -134.513E+06    -289.998E+06    -134.515E+06    -289.996E+06    -91.2488E+06     333.824E+03         50.2099
             288     2.52789E-03     75.5714E-03         7.10717        -1.84165        -2.02398        -1.84876         6.94088        -1.85058        -2.24882     343.343E-03    -171.466E-03    -171.878E-03    -171.661E-03     343.317E-03    -171.656E-03     6.97065E-03    -115.936E+06    -145.196E+06    -326.088E+06    -145.201E+06    -326.084E+06    -115.936E+06     393.386E+03         49.8273
             289     1.68642E-03     75.5684E-03         7.06987        -1.83661        -1.97885        -1.87291         6.97286        -1.84553     295.816E-03     343.143E-03    -171.372E-03    -171.771E-03    -171.764E-03     343.137E-03    -171.372E-03     3.18760E-03    -138.585E+06    -153.147E+06    -352.441E+06    -153.158E+06    -352.430E+06    -138.585E+06     230.139E+03         49.5429
             290     842.896E-06     75.5675E-03         8.60100        -2.17420        -3.16370        -1.50413         6.94143        -2.17420        -4.92340     342.295E-03    -171.014E-03    -171.281E-03    -171.240E-03     342.294E-03    -171.054E-03     692.971E-06    -154.081E+06    -159.551E+06    -369.997E+06    -158.577E+06    -369.989E+06    -155.064E+06    -386.407E+03         49.3637
             291     14.3350E-03     75.3464E-03         8.54130        -2.19822        -2.61656        -2.56735         8.49208        -2.19822     265.815E-03     351.815E-03    -171.623E-03    -180.192E-03    -171.731E-03     343.353E-03    -171.623E-03     125.131E-03     114.562E+06     89.2574E+06    -6.76407E+06    -6.76131E+06     89.2546E+06     114.562E+06    -69.9645E+03         69.1337
             292     13.4899E-03     75.1157E-03         8.49396        -2.22563        -2.58921        -2.55534         8.46010        -2.22563     753.293E-03     352.226E-03    -171.583E-03    -180.643E-03    -171.323E-03     342.906E-03    -171.583E-03     135.199E-03     95.2326E+06     71.7665E+06    -14.0969E+06    -14.0912E+06     71.7607E+06     95.2326E+06     105.511E+03         66.0812
             293     12.6454E-03     74.9929E-03         8.43336        -2.25149        -2.54571        -2.54350         8.43115        -2.25149     83.4748E-03     346.508E-03    -171.604E-03    -174.904E-03    -169.431E-03     341.035E-03    -171.604E-03     105.971E-03     88.7589E+06     59.8891E+06    -20.8269E+06    -20.8218E+06     59.8840E+06     88.7589E+06     547.859E+03         62.6795
             294     11.8025E-03     74.8479E-03         8.40072        -2.27418        -2.52023        -2.51747         8.39797        -2.27418     38.2758E-03     346.165E-03    -171.634E-03    -174.530E-03    -169.248E-03     340.882E-03    -171.634E-03     103.883E-03     83.7069E+06     53.7472E+06    -28.6442E+06    -28.6399E+06     53.7430E+06     83.7069E+06     370.315E+03         59.6506
             295     10.9571E-03     74.7266E-03         8.39481        -2.29778        -2.51157        -2.49034         8.37358        -2.29778    -810.467E-03     345.104E-03    -171.624E-03    -173.480E-03    -169.397E-03     341.021E-03    -171.624E-03     91.6473E-03     73.5684E+06     48.8999E+06    -37.6607E+06    -37.6560E+06     48.8952E+06     73.5684E+06     147.499E+03         57.3382
             296     10.1164E-03     74.6173E-03         8.39610        -2.32108        -2.51171        -2.47451         8.35889        -2.32108    -51.0735E-03     344.751E-03    -171.592E-03    -173.158E-03    -169.567E-03     341.159E-03    -171.592E-03     85.8728E-03     64.9596E+06     44.5828E+06    -45.9968E+06    -45.9922E+06     44.5781E+06     64.9596E+06    -220.583E+03         55.7204
             297     9.27363E-03     74.5118E-03         8.36596        -2.34421        -2.48520        -2.46410         8.34485        -2.34421     314.500E-03     343.511E-03    -171.222E-03    -172.289E-03    -168.993E-03     340.581E-03    -171.587E-03     77.3613E-03     58.4150E+06     38.0997E+06    -55.0015E+06    -54.9978E+06     38.0959E+06     58.4150E+06    -4.50483E+03         54.5978
             298     8.42873E-03     74.4256E-03         8.35557        -2.36554        -2.48256        -2.46426         8.33727        -2.36554     262.141E-03     342.500E-03    -170.739E-03    -171.762E-03    -168.526E-03     340.166E-03    -171.640E-03     68.9832E-03     45.8114E+06     7.27473E+06    -65.0187E+06    -65.0091E+06     7.26514E+06     45.8114E+06     667.136E+03         53.7597
             299     7.58525E-03     74.3490E-03         8.35496        -2.38343        -2.48942        -2.47438         8.33992        -2.38343     430.209E-03     342.322E-03    -170.602E-03    -171.721E-03    -168.865E-03     340.586E-03    -171.721E-03     59.2663E-03     24.7756E+06    -50.5990E+06    -77.0357E+06    -76.6678E+06    -50.9669E+06     24.7756E+06     220.068E+03         53.0582
             300     6.74248E-03     74.2884E-03         8.36861        -2.39638        -2.50691        -2.48338         8.34508        -2.39638    -822.142E-03     342.417E-03    -170.641E-03    -171.777E-03    -169.482E-03     341.259E-03    -171.777E-03     48.4784E-03     2.23524E+06    -87.9938E+06    -110.269E+06    -88.5714E+06    -109.691E+06     2.23524E+06    -336.068E+03         52.4147
             301     5.89852E-03     74.2398E-03         8.41066        -2.40491        -2.55203        -2.47236         8.33099        -2.40491     414.009E-03     342.252E-03    -170.438E-03    -171.815E-03    -169.713E-03     341.528E-03    -171.815E-03     38.0774E-03    -19.1298E+06    -99.8466E+06    -157.659E+06    -99.8677E+06    -157.638E+06    -19.1298E+06     15.4005E+03         51.8009
             302     5.05480E-03     74.2059E-03         8.37732        -2.40997        -2.52576        -2.46028         8.31185        -2.40997     694.412E-03     342.232E-03    -170.371E-03    -171.862E-03    -169.985E-03     341.846E-03    -171.862E-03     27.7064E-03    -42.2560E+06    -111.681E+06    -201.947E+06    -111.687E+06    -201.942E+06    -42.2560E+06     231.147E+03         51.2188
             303     4.21266E-03     74.1825E-03         8.36475        -2.41269        -2.53175        -2.43942         8.27242        -2.41269     916.813E-03     343.008E-03    -171.146E-03    -171.862E-03    -170.956E-03     342.819E-03    -171.862E-03     19.3784E-03    -66.7157E+06    -123.968E+06    -248.749E+06    -123.971E+06    -248.746E+06    -66.7157E+06     484.761E+03         50.6847
             304     3.37128E-03     74.1712E-03         8.39185        -2.41299        -2.58999        -2.43708         8.23894        -2.41299     131.979E-03     343.552E-03    -171.600E-03    -171.952E-03    -171.755E-03     343.468E-03    -171.713E-03     12.7977E-03    -91.4113E+06    -135.024E+06    -289.919E+06    -135.032E+06    -289.910E+06    -91.4113E+06     992.225E+03         50.2176
             305     2.52859E-03     74.1628E-03         8.33477        -2.41255        -2.55368        -2.41703         8.19812        -2.41255        -2.39845     343.185E-03    -171.334E-03    -171.852E-03    -171.701E-03     343.156E-03    -171.455E-03     7.30428E-03    -115.131E+06    -144.323E+06    -324.809E+06    -144.336E+06    -324.797E+06    -115.131E+06     692.745E+03         49.8346
             306     1.68585E-03     74.1602E-03         8.45607        -2.40715        -2.66981        -2.43087         8.21713        -2.40715     742.097E-03     342.503E-03    -170.975E-03    -171.528E-03    -171.282E-03     342.496E-03    -171.214E-03     3.37134E-03    -137.559E+06    -153.117E+06    -352.099E+06    -153.131E+06    -352.086E+06    -137.559E+06     72.6757E+03         49.5491
             307     844.116E-06     74.1624E-03         10.6212        -2.70426        -4.52949        -2.09843         8.19018        -2.70426        -6.10786     342.123E-03    -170.585E-03    -171.538E-03    -170.738E-03     342.121E-03    -171.383E-03     1.72168E-03    -153.808E+06    -160.995E+06    -370.061E+06    -159.228E+06    -370.044E+06    -155.592E+06     377.644E+03         49.3690
             308     14.3332E-03     73.9387E-03         9.17827        -2.59075        -2.74663        -2.68911         9.12717        -2.59717     309.440E-03     351.668E-03    -171.645E-03    -180.024E-03    -171.541E-03     343.186E-03    -171.645E-03     125.365E-03     113.983E+06     88.8131E+06    -7.31646E+06    -7.31514E+06     88.8118E+06     113.983E+06     64.8375E+03         69.0820
             309     13.4895E-03     73.7076E-03         9.18066        -2.62296        -2.76652        -2.71014         9.14485        -2.64353     824.253E-03     352.197E-03    -171.613E-03    -180.584E-03    -171.301E-03     342.915E-03    -171.613E-03     134.794E-03     94.7535E+06     70.8483E+06    -14.3773E+06    -14.3762E+06     70.8472E+06     94.7535E+06     252.887E+03         66.0656
             310     12.6461E-03     73.5849E-03         9.17272        -2.64454        -2.77917        -2.73214         9.16960        -2.68845     160.890E-03     347.159E-03    -171.611E-03    -175.548E-03    -170.134E-03     341.745E-03    -171.611E-03     105.530E-03     88.6219E+06     60.1241E+06    -21.4573E+06    -21.4566E+06     60.1233E+06     88.6219E+06     238.786E+03         62.6988
             311     11.8027E-03     73.4376E-03         9.19671        -2.67953        -2.80263        -2.74890         9.19320        -2.72975     120.470E-03     346.876E-03    -171.588E-03    -175.287E-03    -170.061E-03     341.650E-03    -171.588E-03     103.465E-03     84.4484E+06     54.1818E+06    -28.8586E+06    -28.8558E+06     54.1790E+06     84.4484E+06     391.705E+03         59.6872
             312     10.9609E-03     73.3209E-03         9.23520        -2.72048        -2.82886        -2.76307         9.22030        -2.77137    -713.432E-03     345.021E-03    -171.545E-03    -173.476E-03    -169.354E-03     340.899E-03    -171.545E-03     92.0773E-03     74.7302E+06     49.7609E+06    -36.4899E+06    -36.4829E+06     49.7538E+06     74.7302E+06     400.008E+03         57.3731
             313     10.1159E-03     73.2043E-03         9.28138        -2.76195        -2.85996        -2.77935         9.25112        -2.81229     45.0791E-03     344.188E-03    -171.371E-03    -172.817E-03    -168.972E-03     340.503E-03    -171.531E-03     86.8578E-03     64.7352E+06     45.1472E+06    -45.5265E+06    -45.5187E+06     45.1394E+06     64.7352E+06     8.11168E+03         55.7444
             314     9.27296E-03     73.1063E-03         9.30631        -2.79536        -2.87915        -2.80366         9.28803        -2.85257     402.601E-03     342.982E-03    -171.020E-03    -171.962E-03    -168.375E-03     339.953E-03    -171.579E-03     78.6074E-03     57.1634E+06     37.2263E+06    -55.7813E+06    -55.7760E+06     37.2210E+06     57.1634E+06    -211.618E+03         54.6114
             315     8.42874E-03     73.0182E-03         9.35052        -2.83613        -2.91198        -2.84118         9.33415        -2.89055     368.668E-03     342.583E-03    -170.916E-03    -171.667E-03    -168.515E-03     340.181E-03    -171.667E-03     69.8875E-03     44.5838E+06     6.09974E+06    -66.5878E+06    -66.5781E+06     6.09010E+06     44.5838E+06     308.043E+03         53.7675
             316     7.58493E-03     72.9406E-03         9.39600        -2.86883        -2.94994        -2.87930         9.38160        -2.92507     538.445E-03     342.664E-03    -170.928E-03    -171.736E-03    -169.202E-03     340.938E-03    -171.736E-03     59.1325E-03     25.2344E+06    -49.8196E+06    -77.3524E+06    -77.2073E+06    -49.9646E+06     25.2344E+06     812.244E+03         53.0640
             317     6.74133E-03     72.8799E-03         9.44654        -2.90390        -2.98189        -2.91470         9.43048        -2.95503    -675.953E-03     342.552E-03    -170.793E-03    -171.758E-03    -169.658E-03     341.416E-03    -171.758E-03     47.9405E-03     2.30041E+06    -87.3351E+06    -110.196E+06    -88.7955E+06    -108.736E+06     2.30041E+06     345.496E+03         52.4201
             318     5.89933E-03     72.8313E-03         9.54194        -2.96121        -3.03425        -2.94858         9.47473        -2.97966     508.993E-03     342.258E-03    -170.485E-03    -171.772E-03    -169.795E-03     341.567E-03    -171.772E-03     37.1716E-03    -20.0412E+06    -100.794E+06    -158.295E+06    -100.817E+06    -158.272E+06    -20.0412E+06     45.6622E+03         51.8064
             319     5.05687E-03     72.7982E-03         9.56030        -2.99165        -3.04059        -2.97800         9.50452        -2.99847     802.561E-03     342.136E-03    -170.326E-03    -171.810E-03    -169.949E-03     341.758E-03    -171.810E-03     27.4733E-03    -42.6124E+06    -112.394E+06    -202.214E+06    -112.403E+06    -202.204E+06    -42.6124E+06     565.800E+03         51.2244
             320     4.21243E-03     72.7749E-03         9.58897        -3.00417        -3.07936        -3.00677         9.52320        -3.01099     911.045E-03     342.711E-03    -170.878E-03    -171.833E-03    -170.686E-03     342.519E-03    -171.833E-03     19.4659E-03    -67.0129E+06    -123.669E+06    -248.912E+06    -123.674E+06    -248.907E+06    -67.0129E+06     659.441E+03         50.6903
             321     3.36956E-03     72.7599E-03         9.63866        -3.01539        -3.14018        -3.03518         9.53366        -3.01539     194.347E-03     343.256E-03    -171.262E-03    -171.994E-03    -171.418E-03     343.173E-03    -171.755E-03     12.6832E-03    -91.5646E+06    -133.717E+06    -289.475E+06    -133.727E+06    -289.465E+06    -91.5646E+06     338.383E+03         50.2239
             322     2.52913E-03     72.7547E-03         9.64467        -3.01160        -3.16511        -3.03827         9.51783        -3.01160        -2.49882     343.023E-03    -171.152E-03    -171.871E-03    -171.358E-03     342.991E-03    -171.633E-03     7.78012E-03    -115.345E+06    -143.667E+06    -323.797E+06    -143.683E+06    -323.781E+06    -115.345E+06     216.310E+03         49.8424
             323     1.68600E-03     72.7546E-03         9.78984        -3.00293        -3.32912        -3.02338         9.48410        -3.00293     946.619E-03     342.812E-03    -171.182E-03    -171.630E-03    -171.201E-03     342.801E-03    -171.601E-03     4.12435E-03    -137.159E+06    -152.695E+06    -352.210E+06    -152.706E+06    -352.200E+06    -137.159E+06     447.175E+03         49.5590
             324     841.080E-06     72.7553E-03         12.1184        -3.19186        -5.48784        -2.80365         9.43420        -3.19186        -6.71585     343.134E-03    -171.025E-03    -172.109E-03    -171.348E-03     343.131E-03    -171.783E-03     1.23570E-03    -151.781E+06    -159.211E+06    -368.834E+06    -157.442E+06    -368.819E+06    -153.566E+06     630.662E+03         49.3809
             325     14.3337E-03     72.5294E-03         9.72318        -2.81627        -3.01021        -2.76532         9.67107        -3.00904     322.702E-03     351.473E-03    -171.649E-03    -179.823E-03    -171.425E-03     343.074E-03    -171.649E-03     124.753E-03     113.654E+06     88.5498E+06    -7.27117E+06    -7.26678E+06     88.5454E+06     113.654E+06     35.1059E+03         69.0333
             326     13.4896E-03     72.3003E-03         9.78400        -2.86007        -3.07739        -2.82485         9.74761        -3.07622     872.116E-03     352.430E-03    -171.613E-03    -180.817E-03    -171.563E-03     343.176E-03    -171.613E-03     134.857E-03     94.9575E+06     70.8862E+06    -13.9866E+06    -13.9838E+06     70.8834E+06     94.9575E+06    -57.8405E+03         66.0513
             327     12.6457E-03     72.1749E-03         9.84140        -2.89715        -3.14198        -2.89312         9.83737        -3.14198     230.040E-03     347.379E-03    -171.596E-03    -175.783E-03    -170.340E-03     341.936E-03    -171.596E-03     105.905E-03     88.7401E+06     60.0505E+06    -21.0284E+06    -21.0264E+06     60.0485E+06     88.7401E+06     232.511E+03         62.7160
             328     11.8038E-03     72.0277E-03         9.93319        -2.96226        -3.20345        -2.95799         9.92892        -3.20345     198.948E-03     346.828E-03    -171.568E-03    -175.260E-03    -169.978E-03     341.546E-03    -171.568E-03     104.090E-03     84.1928E+06     53.8667E+06    -28.5721E+06    -28.5693E+06     53.8639E+06     84.1928E+06     418.781E+03         59.7186
             329     10.9596E-03     71.9124E-03         10.0369        -3.03345        -3.26432        -3.02310         10.0266        -3.26432    -618.234E-03     344.922E-03    -171.539E-03    -173.383E-03    -169.133E-03     340.672E-03    -171.539E-03     93.4716E-03     74.6025E+06     49.8330E+06    -36.6854E+06    -36.6801E+06     49.8276E+06     74.6025E+06     565.327E+03         57.4031
             330     10.1168E-03     71.7975E-03         10.1498        -3.11644        -3.32333        -3.09092         10.1243        -3.32333     139.191E-03     343.597E-03    -171.349E-03    -172.248E-03    -168.288E-03     339.858E-03    -171.570E-03     87.3626E-03     65.3947E+06     45.7868E+06    -45.0670E+06    -45.0568E+06     45.7766E+06     65.3947E+06     846.465E+03         55.7660
             331     9.27086E-03     71.6996E-03         10.2367        -3.17553        -3.38075        -3.15902         10.2201        -3.38075     499.985E-03     343.158E-03    -171.391E-03    -171.767E-03    -168.473E-03     340.120E-03    -171.647E-03     78.7592E-03     57.6568E+06     38.0522E+06    -54.9566E+06    -54.9449E+06     38.0405E+06     57.6568E+06     583.549E+03         54.6252
             332     8.42790E-03     71.6082E-03         10.3295        -3.24224        -3.43559        -3.22735         10.3146        -3.43559     472.828E-03     343.266E-03    -171.445E-03    -171.821E-03    -169.180E-03     340.881E-03    -171.701E-03     69.7074E-03     44.5568E+06     5.57517E+06    -66.3937E+06    -66.3875E+06     5.56893E+06     44.5568E+06     162.324E+03         53.7769
             333     7.58553E-03     71.5331E-03         10.4227        -3.30741        -3.48706        -3.29334         10.4086        -3.48706     633.708E-03     342.889E-03    -171.165E-03    -171.724E-03    -169.442E-03     341.166E-03    -171.724E-03     59.1847E-03     25.1756E+06    -50.5066E+06    -77.7682E+06    -77.6785E+06    -50.5963E+06     25.1756E+06     387.212E+03         53.0713
             334     6.74327E-03     71.4700E-03         10.5228        -3.37792        -3.53365        -3.36512         10.5100        -3.53365    -582.013E-03     342.517E-03    -170.786E-03    -171.731E-03    -169.638E-03     341.368E-03    -171.731E-03     48.1198E-03     2.87038E+06    -86.6841E+06    -109.432E+06    -88.7373E+06    -107.379E+06     2.87038E+06     992.403E+03         52.4266
             335     5.89960E-03     71.4241E-03         10.6729        -3.49760        -3.58140        -3.44538         10.6124        -3.57318     567.405E-03     342.210E-03    -170.471E-03    -171.739E-03    -169.776E-03     341.514E-03    -171.739E-03     37.4466E-03    -20.5468E+06    -100.347E+06    -157.863E+06    -100.374E+06    -157.835E+06    -20.5468E+06     826.383E+03         51.8127
             336     5.05532E-03     71.3902E-03         10.7538        -3.56557        -3.61215        -3.52269         10.7027        -3.60394     851.731E-03     342.432E-03    -170.693E-03    -171.739E-03    -170.301E-03     342.040E-03    -171.739E-03     27.9482E-03    -43.8535E+06    -111.870E+06    -202.742E+06    -111.882E+06    -202.729E+06    -43.8535E+06     253.542E+03         51.2309
             337     4.21395E-03     71.3665E-03         10.8371        -3.59794        -3.67989        -3.59514         10.7784        -3.62404     954.586E-03     342.462E-03    -170.723E-03    -171.740E-03    -170.532E-03     342.272E-03    -171.740E-03     19.3834E-03    -66.7443E+06    -122.614E+06    -248.184E+06    -122.622E+06    -248.176E+06    -66.7443E+06     349.584E+03         50.6971
             338     3.37130E-03     71.3519E-03         10.9008        -3.63321        -3.72930        -3.63460         10.8061        -3.63321     196.951E-03     342.260E-03    -170.452E-03    -171.808E-03    -170.371E-03     342.180E-03    -171.808E-03     12.4036E-03    -91.4934E+06    -133.857E+06    -288.952E+06    -133.865E+06    -288.944E+06    -91.4934E+06     283.283E+03         50.2313
             339     2.52578E-03     71.3473E-03         10.9218        -3.63151        -3.76813        -3.65941         10.8130        -3.63151        -2.48295     342.845E-03    -170.887E-03    -171.958E-03    -170.858E-03     342.816E-03    -171.958E-03     7.22696E-03    -116.182E+06    -144.100E+06    -323.646E+06    -144.112E+06    -323.634E+06    -116.182E+06     572.057E+03         49.8518
             340     1.68332E-03     71.3459E-03         11.0098        -3.62847        -3.87166        -3.62603         10.7642        -3.62847     831.686E-03     343.738E-03    -171.643E-03    -172.094E-03    -171.663E-03     343.728E-03    -172.065E-03     3.89557E-03    -137.820E+06    -151.999E+06    -351.812E+06    -152.005E+06    -351.806E+06    -137.820E+06     273.933E+03         49.5714
             341     843.827E-06     71.3461E-03         13.0305        -3.66660        -5.83561        -3.59149         10.7864        -3.66660        -6.48937     344.075E-03    -171.325E-03    -172.749E-03    -172.672E-03     344.072E-03    -171.400E-03     1.33355E-03    -153.307E+06    -158.297E+06    -368.457E+06    -158.301E+06    -368.453E+06    -153.307E+06    -602.714E+03         49.3960
             342     14.3341E-03     71.1227E-03         10.1854        -2.85776        -3.42125        -2.80523         10.1329        -3.42125     320.567E-03     351.663E-03    -171.631E-03    -180.032E-03    -171.625E-03     343.256E-03    -171.631E-03     124.687E-03     114.028E+06      88.687E+06    -6.91004E+06    -6.90308E+06     88.6800E+06     114.028E+06     239.562E+03         68.9857
             343     13.4893E-03     70.8922E-03         10.3040        -2.93837        -3.51004        -2.90221         10.2678        -3.51004     916.606E-03     352.487E-03    -171.588E-03    -180.899E-03    -171.602E-03     343.190E-03    -171.588E-03     135.195E-03     95.0522E+06     71.0269E+06    -14.0996E+06    -14.0940E+06     71.0213E+06     95.0522E+06     94.6461E+03         66.0354
             344     12.6474E-03     70.7636E-03         10.4330        -3.02441        -3.59739        -3.01968         10.4283        -3.59739     298.552E-03     346.778E-03    -171.590E-03    -175.188E-03    -169.739E-03     341.330E-03    -171.590E-03     105.843E-03     88.5345E+06     59.4539E+06    -21.3692E+06    -21.3674E+06     59.4521E+06     88.5345E+06     197.305E+03         62.7283
             345     11.8020E-03     70.6224E-03         10.6046        -3.14851        -3.67965        -3.14364         10.5998        -3.67965     271.500E-03     346.333E-03    -171.605E-03    -174.728E-03    -169.376E-03     340.981E-03    -171.605E-03     104.739E-03     83.3804E+06     53.7024E+06    -29.5450E+06    -29.5399E+06     53.6974E+06     83.3804E+06     584.585E+03         59.7445
             346     10.9591E-03     70.5007E-03         10.7847        -3.27867        -3.75979        -3.27085         10.7769        -3.75979    -545.364E-03     344.915E-03    -171.602E-03    -173.313E-03    -169.100E-03     340.702E-03    -171.602E-03     93.0099E-03     73.8921E+06     50.1909E+06    -37.3232E+06    -37.3156E+06     50.1833E+06     73.8921E+06     186.562E+03         57.4298
             347     10.1143E-03     70.3934E-03         10.9678        -3.41585        -3.83621        -3.39405         10.9460        -3.83621     178.676E-03     344.092E-03    -171.554E-03    -172.539E-03    -168.834E-03     340.449E-03    -171.615E-03     86.3783E-03     65.0547E+06     45.4487E+06    -45.5744E+06    -45.5621E+06     45.4363E+06     65.0547E+06    -91.4255E+03         55.7874
             348     9.27164E-03     70.2893E-03         11.1144        -3.51839        -3.91013        -3.50376         11.0998        -3.91013     532.476E-03     343.514E-03    -171.425E-03    -172.088E-03    -168.849E-03     340.502E-03    -171.653E-03     78.4362E-03     58.0481E+06     38.2601E+06    -54.7839E+06    -54.7648E+06     38.2411E+06     58.0481E+06     807.468E+03         54.6399
             349     8.42895E-03     70.1998E-03         11.2609        -3.61996        -3.98112        -3.60691         11.2478        -3.98112     505.764E-03     343.056E-03    -171.241E-03    -171.815E-03    -169.000E-03     340.695E-03    -171.695E-03     69.3858E-03     44.7992E+06     6.44707E+06    -65.3053E+06    -65.2793E+06     6.42111E+06     44.7992E+06     1.10649E+06         53.7861
             350     7.58519E-03     70.1239E-03         11.4156        -3.72892        -4.04785        -3.71602         11.4027        -4.04785     694.623E-03     342.644E-03    -170.899E-03    -171.745E-03    -169.142E-03     340.887E-03    -171.745E-03     59.7454E-03     24.6214E+06    -50.5678E+06    -77.3902E+06    -77.1701E+06    -50.7879E+06     24.6214E+06     851.216E+03         53.0775
             351     6.74161E-03     70.0614E-03         11.5743        -3.84378        -4.10814        -3.83283         11.5633        -4.10814    -494.675E-03     342.475E-03    -170.691E-03    -171.783E-03    -169.505E-03     341.288E-03    -171.783E-03     48.9586E-03     2.28593E+06    -87.0592E+06    -109.472E+06    -88.8070E+06    -107.724E+06     2.28593E+06     1.00040E+06         52.4322
             352     5.89866E-03     70.0168E-03         11.7779        -4.01231        -4.15946        -3.95349         11.7191        -4.15946     662.538E-03     342.767E-03    -170.984E-03    -171.782E-03    -170.281E-03     342.052E-03    -171.771E-03     37.9147E-03    -20.3470E+06    -99.8082E+06    -156.680E+06    -99.8364E+06    -156.652E+06    -20.3470E+06     1.17643E+06         51.8193
             353     5.05728E-03     69.9805E-03         11.9019        -4.11265        -4.20017        -4.06115         11.8504        -4.20017     907.535E-03     342.631E-03    -170.903E-03    -171.728E-03    -170.524E-03     342.241E-03    -171.717E-03     27.9090E-03    -43.7889E+06    -111.218E+06    -201.541E+06    -111.237E+06    -201.523E+06    -43.7889E+06     741.195E+03         51.2390
             354     4.21387E-03     69.9584E-03         12.0168        -4.17715        -4.26782        -4.15707         11.9577        -4.22879         1.01911     342.114E-03    -170.382E-03    -171.732E-03    -170.188E-03     341.920E-03    -171.732E-03     19.5483E-03    -67.2463E+06    -122.929E+06    -248.313E+06    -122.937E+06    -248.305E+06    -67.2463E+06     294.388E+03         50.7065
             355     3.36938E-03     69.9465E-03         12.1071        -4.24737        -4.30764        -4.20459         12.0040        -4.24737     107.957E-03     342.246E-03    -170.397E-03    -171.848E-03    -170.313E-03     342.162E-03    -171.848E-03     12.7149E-03    -91.2947E+06    -133.587E+06    -288.716E+06    -133.591E+06    -288.712E+06    -91.2947E+06     524.247E+03         50.2420
             356     2.52760E-03     69.9390E-03         12.1396        -4.25670        -4.34040        -4.25264         12.0519        -4.25670        -2.36598     343.058E-03    -171.071E-03    -171.986E-03    -171.043E-03     343.030E-03    -171.986E-03     7.02060E-03    -115.462E+06    -143.423E+06    -323.166E+06    -143.427E+06    -323.161E+06    -115.462E+06     306.576E+03         49.8638
             357     1.68502E-03     69.9364E-03         12.1656        -4.25735        -4.37348        -4.23248         12.0348        -4.26754     530.422E-03     343.784E-03    -171.723E-03    -172.061E-03    -171.728E-03     343.778E-03    -172.050E-03     2.88948E-03    -136.681E+06    -151.927E+06    -350.800E+06    -151.933E+06    -350.795E+06    -136.681E+06     213.707E+03         49.5845
             358     840.119E-06     69.9367E-03         13.5374        -4.05372        -5.96385        -4.48897         12.0727        -4.06390        -5.63310     343.992E-03    -171.408E-03    -172.584E-03    -172.441E-03     343.990E-03    -171.548E-03     785.560E-06    -154.088E+06    -159.007E+06    -368.885E+06    -158.703E+06    -368.878E+06    -154.400E+06    -18.5256E+03         49.4098
             359     14.3337E-03     69.7164E-03         10.5811        -2.88172        -3.82358        -2.82869         10.5281        -3.82358     342.816E-03     351.958E-03    -171.615E-03    -180.342E-03    -171.913E-03     343.528E-03    -171.615E-03     124.723E-03     114.545E+06     89.0721E+06    -7.12545E+06    -7.11737E+06     89.0640E+06     114.545E+06     472.639E+03         68.9364
             360     13.4916E-03     69.4810E-03         10.7663        -3.00937        -3.93264        -2.97259         10.7295        -3.93264     974.947E-03     352.200E-03    -171.575E-03    -180.625E-03    -171.247E-03     342.821E-03    -171.575E-03     135.811E-03     95.1229E+06     71.2900E+06    -14.1116E+06    -14.0977E+06     71.2761E+06     95.1229E+06     990.110E+03         66.0165
             361     12.6454E-03     69.3592E-03         10.9629        -3.14209        -4.03988        -3.13659         10.9574        -4.03988     370.907E-03     346.557E-03    -171.599E-03    -174.958E-03    -169.491E-03     341.090E-03    -171.599E-03     106.011E-03     88.4043E+06     58.7413E+06    -21.0333E+06    -21.0269E+06     58.7349E+06     88.4043E+06     489.621E+03         62.7382
             362     11.8021E-03     69.2119E-03         11.2060        -3.32153        -4.14134        -3.31596         11.2004        -4.14134     343.085E-03     346.292E-03    -171.622E-03    -174.669E-03    -169.409E-03     341.031E-03    -171.622E-03     103.784E-03     84.4148E+06     54.4646E+06    -27.8813E+06    -27.8780E+06     54.4612E+06     84.4148E+06     208.135E+03         59.7701
             363     10.9580E-03     69.0939E-03         11.4558        -3.50954        -4.23930        -3.50359         11.4498        -4.23930    -471.282E-03     344.768E-03    -171.613E-03    -173.155E-03    -169.049E-03     340.662E-03    -171.613E-03     91.8177E-03     73.9437E+06     51.1643E+06    -36.2892E+06    -36.2816E+06     51.1567E+06     73.9437E+06    -36.0259E+03         57.4571
             364     10.1160E-03     68.9830E-03         11.7039        -3.69689        -4.33220        -3.67751         11.6846        -4.33220     230.506E-03     344.397E-03    -171.607E-03    -172.790E-03    -169.173E-03     340.780E-03    -171.607E-03     86.1439E-03     63.4069E+06     45.0800E+06    -46.1877E+06    -46.1739E+06     45.0662E+06     63.4069E+06    -15.6244E+03         55.8087
             365     9.27291E-03     68.8812E-03         11.9191        -3.84757        -4.42142        -3.83384         11.9053        -4.42142     582.929E-03     343.528E-03    -171.407E-03    -172.120E-03    -168.859E-03     340.489E-03    -171.630E-03     78.8050E-03     55.9905E+06     36.8756E+06    -56.3165E+06    -56.3005E+06     36.8596E+06     55.9905E+06     523.238E+03         54.6537
             366     8.42786E-03     68.7925E-03         12.1289        -3.99164        -4.50660        -3.97969         12.1169        -4.50660     552.348E-03     342.668E-03    -170.972E-03    -171.696E-03    -168.580E-03     340.276E-03    -171.696E-03     69.7850E-03     43.6303E+06     6.37042E+06    -66.6574E+06    -66.6203E+06     6.33338E+06     43.6303E+06     1.28027E+06         53.7938
             367     7.58479E-03     68.7145E-03         12.3374        -4.13701        -4.58670        -4.12452         12.3249        -4.58670     771.614E-03     342.406E-03    -170.620E-03    -171.786E-03    -168.881E-03     340.666E-03    -171.786E-03     59.3610E-03     24.1395E+06    -49.5702E+06    -77.7773E+06    -77.5020E+06    -49.8456E+06     24.1395E+06     1.51662E+06         53.0821
             368     6.74102E-03     68.6555E-03         12.5488        -4.29212        -4.65932        -4.28237         12.5391        -4.65932    -401.484E-03     342.546E-03    -170.700E-03    -171.846E-03    -169.536E-03     341.382E-03    -171.846E-03     48.5670E-03     2.15025E+06    -86.7149E+06    -109.696E+06    -88.5603E+06    -107.851E+06     2.15025E+06     970.001E+03         52.4365
             369     5.89882E-03     68.6040E-03         12.8076        -4.50748        -4.72076        -4.44857         12.7487        -4.72076     766.617E-03     342.764E-03    -170.900E-03    -171.864E-03    -170.182E-03     342.034E-03    -171.853E-03     38.3258E-03    -19.8068E+06    -100.276E+06    -156.532E+06    -100.297E+06    -156.511E+06    -19.8068E+06     1.07201E+06         51.8252
             370     5.05633E-03     68.5735E-03         12.9683        -4.63758        -4.76909        -4.58346         12.9142        -4.76909     935.266E-03     342.580E-03    -170.733E-03    -171.846E-03    -170.339E-03     342.174E-03    -171.835E-03     28.4688E-03    -43.0934E+06    -111.921E+06    -200.050E+06    -111.950E+06    -200.021E+06    -43.0934E+06     1.58180E+06         51.2475
             371     4.21256E-03     68.5516E-03         13.1027        -4.73221        -4.82472        -4.68757         13.0387        -4.80531         1.08042     342.613E-03    -170.772E-03    -171.841E-03    -170.573E-03     342.413E-03    -171.841E-03     19.8059E-03    -67.5440E+06    -123.040E+06    -247.026E+06    -123.055E+06    -247.011E+06    -67.5440E+06     964.800E+03         50.7178
             372     3.37059E-03     68.5383E-03         13.2311        -4.83427        -4.86160        -4.74210         13.1116        -4.83427     957.012E-06     343.002E-03    -171.169E-03    -171.833E-03    -171.088E-03     342.921E-03    -171.833E-03     12.4477E-03    -91.5359E+06    -133.704E+06    -288.553E+06    -133.704E+06    -288.552E+06    -91.5359E+06     216.237E+03         50.2555
             373     2.52696E-03     68.5305E-03         13.2719        -4.85343        -4.88382        -4.80305         13.1959        -4.85823        -2.20095     343.158E-03    -171.369E-03    -171.789E-03    -171.343E-03     343.131E-03    -171.789E-03     7.08969E-03    -115.832E+06    -143.818E+06    -322.543E+06    -143.820E+06    -322.541E+06    -115.832E+06     173.957E+03         49.8779
             374     1.68462E-03     68.5277E-03         13.2602        -4.84196        -4.90422        -4.81587         13.2164        -4.88655     155.652E-03     343.263E-03    -171.511E-03    -171.753E-03    -171.514E-03     343.256E-03    -171.741E-03     3.24889E-03    -138.037E+06    -152.378E+06    -349.992E+06    -152.390E+06    -349.980E+06    -138.037E+06    -39.4019E+03         49.5979
             375     844.875E-06     68.5281E-03         14.0640        -4.28616        -6.28987        -5.48172         13.2957        -4.32596        -4.57840     343.350E-03    -171.258E-03    -172.092E-03    -171.267E-03     343.348E-03    -172.080E-03     928.416E-06    -153.401E+06    -158.030E+06    -368.643E+06    -157.739E+06    -368.622E+06    -153.713E+06     191.378E+03         49.4222
             376     14.3354E-03     68.3042E-03         10.8876        -2.89046        -4.20503        -2.83792         10.8351        -4.20503     365.829E-03     351.926E-03    -171.603E-03    -180.323E-03    -171.958E-03     343.561E-03    -171.603E-03     124.517E-03     114.050E+06     88.5272E+06    -7.36938E+06    -7.36046E+06     88.5183E+06     114.050E+06     2.22870E+03         68.8869
             377     13.4889E-03     68.0777E-03         11.1488        -3.07206        -4.33189        -3.03511         11.1119        -4.33189         1.04214     352.023E-03    -171.557E-03    -180.465E-03    -171.225E-03     342.782E-03    -171.557E-03     134.720E-03     95.1133E+06     71.2426E+06    -13.5572E+06    -13.5427E+06     71.2281E+06     95.1133E+06     355.059E+03         65.9983
             378     12.6461E-03     67.9478E-03         11.4200        -3.25869        -4.45630        -3.25226         11.4136        -4.45630     463.092E-03     346.539E-03    -171.577E-03    -174.962E-03    -169.551E-03     341.128E-03    -171.577E-03     105.444E-03     89.0230E+06     59.1972E+06    -19.8828E+06    -19.8765E+06     59.1910E+06     89.0230E+06     422.372E+03         62.7499
             379     11.8036E-03     67.8044E-03         11.7253        -3.48156        -4.57451        -3.47514         11.7189        -4.57451     440.781E-03     346.113E-03    -171.599E-03    -174.514E-03    -169.273E-03     340.872E-03    -171.599E-03     103.562E-03     84.3633E+06     54.3727E+06    -27.4283E+06    -27.4223E+06     54.3666E+06     84.3633E+06     273.911E+03         59.7970
             380     10.9597E-03     67.6865E-03         12.0294        -3.70511        -4.68896        -3.70093         12.0252        -4.68896    -357.335E-03     344.533E-03    -171.605E-03    -172.927E-03    -168.734E-03     340.339E-03    -171.605E-03     92.7688E-03     73.0602E+06     50.7775E+06    -36.7176E+06    -36.6870E+06     50.7469E+06     73.0602E+06     1.08931E+06         57.4846
             381     10.1150E-03     67.5733E-03         12.3488        -3.94621        -4.79790        -3.92783         12.3304        -4.79790     324.876E-03     344.177E-03    -171.632E-03    -172.545E-03    -168.815E-03     340.447E-03    -171.632E-03     87.3981E-03     62.7221E+06     45.2788E+06    -46.2516E+06    -46.2092E+06     45.2365E+06     62.7221E+06     1.76636E+06         55.8294
             382     9.27098E-03     67.4739E-03         12.6380        -4.15553        -4.90131        -4.14126         12.6238        -4.90131     675.834E-03     343.705E-03    -171.615E-03    -172.090E-03    -168.961E-03     340.632E-03    -171.672E-03     79.2642E-03     55.5979E+06     37.1997E+06    -56.2227E+06    -56.1911E+06     37.1681E+06     55.5979E+06     1.46547E+06         54.6670
             383     8.42886E-03     67.3834E-03         12.9163        -4.35279        -4.99827        -4.34096         12.9044        -4.99827     632.197E-03     342.998E-03    -171.200E-03    -171.798E-03    -168.892E-03     340.615E-03    -171.722E-03     69.6696E-03     43.0143E+06     5.98232E+06    -67.3905E+06    -67.3612E+06     5.95296E+06     43.0143E+06     1.04130E+06         53.8018
             384     7.58430E-03     67.3085E-03         13.1867        -4.54650        -5.08768        -4.53341         13.1736        -5.08768     855.513E-03     342.542E-03    -170.752E-03    -171.790E-03    -169.028E-03     340.817E-03    -171.790E-03     59.1716E-03     24.1057E+06    -48.9414E+06    -78.2872E+06    -78.1757E+06    -49.0529E+06     24.1057E+06     993.749E+03         53.0871
             385     6.74195E-03     67.2441E-03         13.4373        -4.73224        -5.16759        -4.72303         13.4281        -5.16759    -326.644E-03     342.349E-03    -170.493E-03    -171.856E-03    -169.327E-03     341.183E-03    -171.856E-03     48.5573E-03     2.14922E+06    -86.6599E+06    -110.083E+06    -89.5411E+06    -107.202E+06     2.14922E+06     1.17025E+06         52.4405
             386     5.89804E-03     67.1986E-03         13.7160        -4.96056        -5.23581        -4.90256         13.6580        -5.23581     834.535E-03     342.120E-03    -170.189E-03    -171.931E-03    -169.470E-03     341.401E-03    -171.931E-03     37.9891E-03    -20.3295E+06    -101.074E+06    -156.482E+06    -101.109E+06    -156.447E+06    -20.3295E+06     1.08252E+06         51.8301
             387     5.05368E-03     67.1631E-03         13.8984        -5.10196        -5.29215        -5.04683         13.8432        -5.29215     934.002E-03     342.675E-03    -170.687E-03    -171.988E-03    -170.295E-03     342.283E-03    -171.988E-03     27.9290E-03    -42.9473E+06    -112.019E+06    -199.661E+06    -112.038E+06    -199.642E+06    -42.9473E+06     899.220E+03         51.2548
             388     4.21266E-03     67.1433E-03         14.0700        -5.23061        -5.34250        -5.16505         14.0001        -5.33807         1.14880     343.460E-03    -171.516E-03    -171.943E-03    -171.326E-03     343.269E-03    -171.943E-03     19.4426E-03    -67.0839E+06    -123.591E+06    -245.147E+06    -123.610E+06    -245.128E+06    -67.0839E+06     1.12204E+06         50.7283
             389     3.37012E-03     67.1282E-03         14.2442        -5.36946        -5.38433        -5.24053         14.1086        -5.37761    -73.6439E-03     343.416E-03    -171.610E-03    -171.805E-03    -171.529E-03     343.334E-03    -171.805E-03     12.5272E-03     -92.497E+06    -135.328E+06    -287.747E+06    -135.338E+06    -287.737E+06     -92.497E+06     828.417E+03         50.2684
             390     2.52904E-03     67.1235E-03         14.2945        -5.40300        -5.41323        -5.33033         14.2196        -5.41093        -2.01544     343.006E-03    -171.308E-03    -171.698E-03    -171.279E-03     342.977E-03    -171.698E-03     7.39376E-03    -116.444E+06    -144.644E+06    -322.371E+06    -144.647E+06    -322.368E+06    -116.444E+06     606.106E+03         49.8919
             391     1.68578E-03     67.1193E-03         14.2781        -5.37353        -5.44547        -5.36584         14.2704        -5.44547    -173.060E-03     342.830E-03    -171.069E-03    -171.761E-03    -171.060E-03     342.820E-03    -171.761E-03     4.11858E-03    -138.884E+06    -152.587E+06    -348.587E+06    -152.605E+06    -348.569E+06    -138.884E+06     565.913E+03         49.6120
             392     840.276E-06     67.1210E-03         14.7224        -4.44859        -6.79905        -6.41880         14.4082        -4.51465        -3.42902     343.627E-03    -170.479E-03    -173.148E-03    -172.007E-03     343.624E-03    -171.617E-03     1.64308E-03    -155.722E+06    -159.378E+06    -368.740E+06    -159.413E+06    -368.706E+06    -155.722E+06     35.8654E+03         49.4361
             393     14.3333E-03     66.8977E-03         11.0827        -2.86835        -4.55105        -2.81739         11.0317        -4.55105     392.728E-03     352.087E-03    -171.596E-03    -180.491E-03    -172.146E-03     343.742E-03    -171.596E-03     124.467E-03     114.214E+06     88.7548E+06    -6.78629E+06    -6.78157E+06     88.7500E+06     114.214E+06    -215.417E+03         68.8387
             394     13.4926E-03     66.6670E-03         11.4266        -3.10876        -4.69324        -3.07203         11.3899        -4.69324         1.09704     352.368E-03    -171.528E-03    -180.840E-03    -171.636E-03     343.164E-03    -171.528E-03     134.538E-03     94.8878E+06     71.2412E+06    -13.5081E+06    -13.5037E+06     71.2367E+06     94.8878E+06    -283.380E+03         65.9820
             395     12.6481E-03     66.5425E-03         11.7652        -3.34131        -4.83220        -3.33433         11.7582        -4.83220     534.565E-03     346.124E-03    -171.548E-03    -174.576E-03    -169.072E-03     340.620E-03    -171.548E-03     106.160E-03     87.7637E+06     58.3707E+06    -20.8200E+06    -20.8150E+06     58.3657E+06     87.7637E+06     321.761E+03         62.7628
             396     11.8018E-03     66.3956E-03         12.1341        -3.60906        -4.96495        -3.60222         12.1273        -4.96495     506.040E-03     345.696E-03    -171.609E-03    -174.088E-03    -168.709E-03     340.318E-03    -171.609E-03     104.755E-03     82.5601E+06     53.2228E+06    -29.0307E+06    -29.0142E+06     53.2063E+06     82.5601E+06     1.00260E+06         59.8243
             397     10.9580E-03     66.2790E-03         12.5013        -3.88018        -5.09301        -3.87674         12.4979        -5.09301    -285.917E-03     344.590E-03    -171.647E-03    -172.943E-03    -168.714E-03     340.361E-03    -171.647E-03     93.1607E-03     72.7663E+06     50.2431E+06    -37.4204E+06    -37.3782E+06     50.2009E+06     72.7663E+06     1.82069E+06         57.5132
             398     10.1140E-03     66.1663E-03         12.8831        -4.16670        -5.21436        -4.14919         12.8655        -5.21436     365.156E-03     344.324E-03    -171.678E-03    -172.646E-03    -168.919E-03     340.597E-03    -171.678E-03     87.3735E-03     63.5685E+06     45.5606E+06    -45.9286E+06    -45.8777E+06     45.5098E+06     63.5685E+06     2.09071E+06         55.8523
             399     9.27126E-03     66.0634E-03         13.2369        -4.42219        -5.32871        -4.40804         13.2228        -5.32871     700.713E-03     343.854E-03    -171.635E-03    -172.220E-03    -169.148E-03     340.854E-03    -171.706E-03     78.2965E-03     56.4947E+06     38.2816E+06    -55.3454E+06    -55.3017E+06     38.2379E+06     56.4947E+06     2.01467E+06         54.6823
             400     8.42729E-03     65.9755E-03         13.5800        -4.66756        -5.43464        -4.65588         13.5683        -5.43464     658.071E-03     343.195E-03    -171.383E-03    -171.812E-03    -169.124E-03     340.860E-03    -171.736E-03     69.0514E-03     44.2383E+06     7.56925E+06    -65.8724E+06    -65.8067E+06     7.50360E+06     44.2383E+06     1.81818E+06         53.8111
             401     7.58552E-03     65.8989E-03         13.9050        -4.90591        -5.53093        -4.89272         13.8918        -5.53093     898.703E-03     342.726E-03    -170.948E-03    -171.778E-03    -169.217E-03     340.995E-03    -171.778E-03     59.2626E-03     24.1866E+06    -48.6800E+06    -77.9139E+06    -77.7761E+06    -48.8178E+06     24.1866E+06     1.27879E+06         53.0928
             402     6.74107E-03     65.8375E-03         14.1893        -5.12204        -5.61598        -5.11393         14.1812        -5.61598    -266.415E-03     342.236E-03    -170.402E-03    -171.835E-03    -169.263E-03     341.098E-03    -171.835E-03     47.9224E-03     2.16076E+06    -86.6442E+06    -109.484E+06     -89.391E+06    -106.737E+06     2.16076E+06     1.08275E+06         52.4447
             403     5.89787E-03     65.7898E-03         14.4810        -5.36184        -5.68892        -5.30696         14.4261        -5.68892     882.855E-03     342.091E-03    -170.184E-03    -171.908E-03    -169.502E-03     341.410E-03    -171.908E-03     36.9758E-03    -19.5341E+06    -100.244E+06    -155.012E+06    -100.278E+06    -154.978E+06    -19.5341E+06     1.02694E+06         51.8344
             404     5.05552E-03     65.7561E-03         14.6804        -5.51219        -5.75114        -5.45870         14.6269        -5.75114     930.827E-03     342.444E-03    -170.470E-03    -171.973E-03    -170.093E-03     342.066E-03    -171.973E-03     27.5002E-03    -43.0805E+06    -112.152E+06    -199.217E+06    -112.167E+06    -199.202E+06    -43.0805E+06     751.027E+03         51.2602
             405     4.21194E-03     65.7311E-03         14.8797        -5.65851        -5.80425        -5.58855         14.8098        -5.80425         1.17692     343.016E-03    -171.015E-03    -172.001E-03    -170.822E-03     342.823E-03    -172.001E-03     19.5350E-03    -67.3518E+06    -123.617E+06    -245.161E+06    -123.633E+06    -245.146E+06    -67.3518E+06     604.358E+03         50.7356
             406     3.37061E-03     65.7210E-03         15.0973        -5.82590        -5.85342        -5.68506         14.9538        -5.85077    -177.096E-03     343.398E-03    -171.432E-03    -171.965E-03    -171.346E-03     343.311E-03    -171.965E-03     13.0871E-03    -91.5834E+06    -134.006E+06    -286.469E+06    -134.019E+06    -286.456E+06    -91.5834E+06     580.049E+03         50.2781
             407     2.52674E-03     65.7136E-03         15.1700        -5.86751        -5.89274        -5.79108         15.0910        -5.89009        -1.87778     343.443E-03    -171.524E-03    -171.919E-03    -171.511E-03     343.409E-03    -171.898E-03     7.89139E-03    -115.437E+06    -144.208E+06    -321.999E+06    -144.211E+06    -321.997E+06    -115.437E+06     552.693E+03         49.9041
             408     1.68422E-03     65.7142E-03         15.1620        -5.84952        -5.92838        -5.84458         15.1571        -5.92838    -439.008E-03     343.519E-03    -171.262E-03    -172.258E-03    -171.703E-03     343.510E-03    -171.807E-03     3.70172E-03    -137.043E+06    -152.904E+06    -348.312E+06    -152.915E+06    -348.301E+06    -137.043E+06     1.08628E+06         49.6260
             409     842.890E-06     65.7111E-03         15.3338        -4.58765        -7.41977        -7.25629         15.2287        -4.64598        -2.48453     343.399E-03    -170.367E-03    -173.032E-03    -172.325E-03     343.397E-03    -171.072E-03     1.43230E-03    -153.543E+06    -159.168E+06    -366.326E+06    -158.449E+06    -366.283E+06    -154.305E+06     1.16968E+06         49.4511
             410     14.3353E-03     65.4883E-03         11.1514        -2.80315        -4.84398        -2.75486         11.1031        -4.84398     389.013E-03     351.857E-03    -171.609E-03    -180.249E-03    -171.752E-03     343.361E-03    -171.609E-03     125.057E-03     114.029E+06     88.8197E+06    -7.32740E+06    -7.32689E+06     88.8192E+06     114.029E+06    -19.1611E+03         68.7903
             411     13.4897E-03     65.2571E-03         11.5703        -3.09879        -4.99857        -3.06376         11.5353        -4.99857         1.09940     352.219E-03    -171.572E-03    -180.646E-03    -171.199E-03     342.771E-03    -171.572E-03     136.192E-03     93.6113E+06     70.6173E+06    -14.6638E+06    -14.6631E+06     70.6166E+06     93.6113E+06    -35.8312E+03         65.9628
             412     12.6460E-03     65.1367E-03         11.9778        -3.38264        -5.14886        -3.37597         11.9711        -5.14886     549.020E-03     346.634E-03    -171.601E-03    -175.033E-03    -169.455E-03     341.056E-03    -171.601E-03     107.019E-03     86.4916E+06     57.6597E+06    -21.6498E+06    -21.6426E+06     57.6525E+06     86.4916E+06     391.350E+03         62.7740
             413     11.8022E-03     64.9890E-03         12.4188        -3.70635        -5.29204        -3.69993         12.4124        -5.29204     506.440E-03     346.063E-03    -171.646E-03    -174.417E-03    -169.037E-03     340.683E-03    -171.646E-03     104.821E-03     81.9850E+06     52.4491E+06    -29.2268E+06    -29.2020E+06     52.4242E+06     81.9850E+06     1.36333E+06         59.8539
             414     10.9579E-03     64.8703E-03         12.8543        -4.03281        -5.42864        -4.02915         12.8506        -5.42864    -288.879E-03     345.010E-03    -171.657E-03    -173.353E-03    -169.180E-03     340.837E-03    -171.657E-03     92.6214E-03     72.7190E+06       49.96E+06    -37.0488E+06    -37.0180E+06     49.9292E+06     72.7190E+06     1.61616E+06         57.5458
             415     10.1149E-03     64.7579E-03         13.2873        -4.35830        -5.55677        -4.34165         13.2707        -5.55677     336.165E-03     344.744E-03    -171.641E-03    -173.103E-03    -169.467E-03     341.108E-03    -171.641E-03     86.3725E-03     63.4080E+06     45.7716E+06    -45.4868E+06    -45.4602E+06     45.7451E+06     63.4080E+06     1.54496E+06         55.8786
             416     9.27148E-03     64.6537E-03         13.6815        -4.64217        -5.67677        -4.62906         13.6684        -5.67677     672.470E-03     343.532E-03    -171.450E-03    -172.082E-03    -168.967E-03     340.614E-03    -171.646E-03     77.1914E-03     56.2265E+06     38.5490E+06    -55.2710E+06    -55.2414E+06     38.5193E+06     56.2265E+06     1.65275E+06         54.6996
             417     8.42887E-03     64.5679E-03         14.0560        -4.90898        -5.78814        -4.89828         14.0453        -5.78814     627.832E-03     342.842E-03    -171.150E-03    -171.692E-03    -168.864E-03     340.556E-03    -171.692E-03     68.2725E-03     44.3464E+06     8.03870E+06    -65.9268E+06    -65.8562E+06     7.96807E+06     44.3464E+06     2.02418E+06         53.8211
             418     7.58414E-03     64.4893E-03         14.4078        -5.16402        -5.89032        -5.15199         14.3958        -5.89032     869.609E-03     342.543E-03    -170.794E-03    -171.749E-03    -169.095E-03     340.844E-03    -171.749E-03     58.6991E-03     25.0751E+06    -47.0766E+06    -77.0277E+06    -76.7862E+06    -47.3181E+06     25.0751E+06     1.90776E+06         53.0987
             419     6.74264E-03     64.4297E-03         14.7302        -5.40692        -5.98156        -5.39918         14.7225        -5.98156    -284.120E-03     342.341E-03    -170.543E-03    -171.798E-03    -169.409E-03     341.207E-03    -171.798E-03     47.8866E-03     3.09166E+06    -85.1869E+06    -108.420E+06    -88.1555E+06    -105.452E+06     3.09166E+06     1.15842E+06         52.4490
             420     5.89922E-03     64.3817E-03         15.0640        -5.67654        -6.05980        -5.62616         15.0137        -6.05980     844.212E-03     342.227E-03    -170.385E-03    -171.842E-03    -169.686E-03     341.528E-03    -171.842E-03     37.4550E-03    -19.2036E+06    -99.9152E+06    -154.507E+06    -99.9385E+06    -154.484E+06    -19.2036E+06     1.02326E+06         51.8383
             421     5.05551E-03     64.3476E-03         15.3035        -5.86154        -6.12493        -5.81254         15.2545        -6.12493     893.435E-03     342.064E-03    -170.149E-03    -171.915E-03    -169.757E-03     341.673E-03    -171.915E-03     27.9953E-03    -42.1543E+06    -111.020E+06    -197.969E+06    -111.037E+06    -197.952E+06    -42.1543E+06     853.281E+03         51.2644
             422     4.21216E-03     64.3247E-03         15.5098        -6.02040        -6.17898        -5.95491         15.4443        -6.17898         1.15459     342.378E-03    -170.337E-03    -172.041E-03    -170.139E-03     342.179E-03    -172.041E-03     19.7933E-03    -66.3470E+06    -122.036E+06    -244.554E+06    -122.049E+06    -244.541E+06    -66.3470E+06     462.894E+03         50.7405
             423     3.36771E-03     64.3103E-03         15.7333        -6.19116        -6.23446        -6.06061         15.5936        -6.22536    -245.705E-03     343.274E-03    -171.141E-03    -172.134E-03    -171.058E-03     343.192E-03    -172.134E-03     12.5145E-03    -91.1155E+06    -132.992E+06    -286.297E+06    -133.005E+06    -286.285E+06    -91.1155E+06     146.887E+03         50.2846
             424     2.52690E-03     64.3059E-03         15.8084        -6.22765        -6.27469        -6.15751         15.7291        -6.26558        -1.82175     344.068E-03    -171.833E-03    -172.235E-03    -171.963E-03     344.042E-03    -172.079E-03     6.99160E-03    -115.078E+06    -143.472E+06    -321.590E+06    -143.477E+06    -321.585E+06    -115.078E+06     205.524E+03         49.9128
             425     1.68535E-03     64.3028E-03         15.8335        -6.24170        -6.30229        -6.23218         15.8232        -6.30151    -631.127E-03     344.098E-03    -171.720E-03    -172.378E-03    -172.298E-03     344.090E-03    -171.792E-03     3.63820E-03    -136.763E+06    -152.211E+06    -348.302E+06    -152.213E+06    -348.301E+06    -136.763E+06     463.933E+03         49.6368
             426     844.257E-06     64.3031E-03         15.9596        -4.64558        -8.03817        -7.96889         15.9122        -4.66746        -2.04010     343.075E-03    -171.018E-03    -172.057E-03    -171.444E-03     343.072E-03    -171.628E-03     1.44287E-03    -150.552E+06    -157.194E+06    -363.186E+06    -156.466E+06    -363.152E+06    -151.313E+06     541.673E+03         49.4632
             427     14.3336E-03     64.0818E-03         11.0987        -2.70908        -5.06676        -2.66330         11.0529        -5.06676     380.727E-03     351.166E-03    -171.652E-03    -179.514E-03    -171.026E-03     342.678E-03    -171.652E-03     124.960E-03     113.372E+06     88.1785E+06    -7.24982E+06    -7.24760E+06     88.1763E+06     113.372E+06     45.5348E+03         68.7423
             428     13.4883E-03     63.8513E-03         11.5818        -3.05009        -5.22965        -3.01670         11.5484        -5.22965         1.08742     351.946E-03    -171.651E-03    -180.295E-03    -170.867E-03     342.517E-03    -171.651E-03     136.004E-03     93.0243E+06     69.9860E+06    -14.2412E+06    -14.2291E+06     69.9739E+06     93.0243E+06     572.823E+03         65.9439
             429     12.6446E-03     63.7250E-03         12.0633        -3.39374        -5.38692        -3.38753         12.0571        -5.38692     547.353E-03     347.309E-03    -171.670E-03    -175.639E-03    -170.164E-03     341.835E-03    -171.670E-03     106.242E-03     86.2061E+06     57.8166E+06    -21.3944E+06    -21.3803E+06     57.8026E+06     86.2061E+06     713.261E+03         62.7865
             430     11.8020E-03     63.5820E-03         12.5696        -3.77167        -5.53534        -3.76581         12.5638        -5.53534     493.677E-03     347.161E-03    -171.651E-03    -175.511E-03    -170.259E-03     341.910E-03    -171.651E-03     103.855E-03     82.7794E+06     52.8326E+06    -28.8501E+06    -28.8339E+06     52.8164E+06     82.7794E+06     1.00376E+06         59.8858
             431     10.9583E-03     63.4620E-03         13.0575        -4.13931        -5.67525        -4.13521         13.0534        -5.67525    -306.428E-03     345.351E-03    -171.594E-03    -173.757E-03    -169.614E-03     341.208E-03    -171.594E-03     92.3547E-03     72.9076E+06     49.7433E+06    -37.0016E+06    -36.9786E+06     49.7203E+06     72.9076E+06     1.30653E+06         57.5804
             432     10.1163E-03     63.3459E-03         13.5309        -4.49735        -5.80546        -4.48158         13.5151        -5.80546     285.149E-03     344.239E-03    -171.569E-03    -172.669E-03    -169.037E-03     340.606E-03    -171.569E-03     86.2622E-03     62.9466E+06     45.7181E+06    -45.5636E+06    -45.5262E+06     45.6807E+06     62.9466E+06     1.73020E+06         55.9049
             433     9.27326E-03     63.2488E-03         13.9489        -4.80098        -5.92663        -4.78909         13.9370        -5.92663     611.311E-03     343.279E-03    -171.478E-03    -171.801E-03    -168.666E-03     340.269E-03    -171.603E-03     78.3999E-03     55.8884E+06     38.8086E+06    -55.2243E+06    -55.1801E+06     38.7644E+06     55.8884E+06     1.94671E+06         54.7159
             434     8.42855E-03     63.1569E-03         14.3333        -5.07308        -6.03970        -5.06344         14.3236        -6.03970     566.466E-03     342.869E-03    -171.187E-03    -171.682E-03    -168.833E-03     340.497E-03    -171.664E-03     69.4744E-03     43.9480E+06     8.14773E+06    -66.0340E+06    -66.0009E+06     8.11470E+06     43.9480E+06     1.51060E+06         53.8305
             435     7.58661E-03     63.0838E-03         14.6967        -5.33406        -6.14489        -5.32345         14.6861        -6.14489     820.474E-03     342.431E-03    -170.700E-03    -171.731E-03    -168.978E-03     340.709E-03    -171.731E-03     59.1128E-03     25.5863E+06    -45.9757E+06    -77.0302E+06    -76.8187E+06    -46.1872E+06     25.5863E+06     1.48058E+06         53.1046
             436     6.74092E-03     63.0196E-03         15.0452        -5.59407        -6.24021        -5.58694         15.0380        -6.24021    -297.096E-03     342.215E-03    -170.420E-03    -171.795E-03    -169.261E-03     341.057E-03    -171.795E-03     48.3693E-03     3.73072E+06    -83.5155E+06    -107.878E+06    -87.5116E+06    -103.882E+06     3.73072E+06     1.45709E+06         52.4536
             437     5.89861E-03     62.9743E-03         15.4104        -5.88498        -6.32249        -5.83916         15.3646        -6.32249     805.077E-03     342.307E-03    -170.463E-03    -171.844E-03    -169.753E-03     341.597E-03    -171.844E-03     37.7573E-03    -18.7492E+06    -98.3767E+06    -153.659E+06    -98.3981E+06    -153.638E+06    -18.7492E+06     585.658E+03         51.8429
             438     5.05543E-03     62.9397E-03         15.6876        -6.10260        -6.38977        -6.05788         15.6429        -6.38977     841.786E-03     342.334E-03    -170.447E-03    -171.888E-03    -170.061E-03     341.949E-03    -171.888E-03     27.6819E-03    -41.4677E+06    -110.047E+06    -197.496E+06    -110.056E+06    -197.487E+06    -41.4677E+06     278.868E+03         51.2692
             439     4.21203E-03     62.9173E-03         15.9207        -6.28541        -6.44242        -6.22777         15.8631        -6.44242         1.06544     342.486E-03    -170.526E-03    -171.960E-03    -170.340E-03     342.301E-03    -171.960E-03     19.1471E-03    -65.1248E+06    -121.997E+06    -243.757E+06    -122.009E+06    -243.745E+06    -65.1248E+06     787.938E+03         50.7455
             440     3.37009E-03     62.9017E-03         16.1427        -6.45290        -6.49816        -6.33674         16.0129        -6.48455    -334.434E-03     343.037E-03    -171.017E-03    -172.020E-03    -170.941E-03     342.962E-03    -172.020E-03     11.9138E-03    -90.7846E+06    -133.386E+06    -285.339E+06    -133.408E+06    -285.317E+06    -90.7846E+06     900.464E+03         50.2895
             441     2.52650E-03     62.8953E-03         16.2025        -6.48942        -6.53337        -6.42589         16.1254        -6.51977        -1.84519     343.551E-03    -171.384E-03    -172.168E-03    -171.496E-03     343.528E-03    -172.033E-03     6.57800E-03    -115.414E+06    -143.184E+06    -320.949E+06    -143.202E+06    -320.930E+06    -115.414E+06     307.264E+03         49.9177
             442     1.68474E-03     62.8933E-03         16.2251        -6.50942        -6.54869        -6.49934         16.2142        -6.54791    -680.310E-03     343.613E-03    -171.388E-03    -172.225E-03    -171.515E-03     343.605E-03    -172.090E-03     3.66687E-03    -136.403E+06    -150.450E+06    -347.098E+06    -150.454E+06    -347.094E+06    -136.403E+06    -154.379E+03         49.6423
             443     840.509E-06     62.8969E-03         16.3274        -4.68465        -8.47131        -8.42962         16.2939        -4.69279        -1.79758     344.218E-03    -171.355E-03    -172.864E-03    -172.268E-03     344.215E-03    -171.947E-03     1.40536E-03    -151.200E+06    -157.671E+06    -364.129E+06    -156.161E+06    -364.117E+06    -152.722E+06    -943.069E+03         49.4696
             444     14.3324E-03     62.6728E-03         10.9502        -2.61024        -5.20723        -2.56609         10.9060        -5.20723     384.244E-03     351.340E-03    -171.684E-03    -179.656E-03    -171.283E-03     342.966E-03    -171.684E-03     124.590E-03     112.272E+06     87.8054E+06    -7.39684E+06    -7.39452E+06     87.8031E+06     112.272E+06    -58.7274E+03         68.6984
             445     13.4889E-03     62.4449E-03         11.4842        -2.99357        -5.37220        -2.96095         11.4515        -5.37220         1.08213     352.489E-03    -171.651E-03    -180.839E-03    -171.605E-03     343.255E-03    -171.651E-03     134.777E-03     92.5000E+06     70.0716E+06    -14.5832E+06    -14.5703E+06     70.0587E+06     92.5000E+06     641.427E+03         65.9306
             446     12.6447E-03     62.3153E-03         12.0087        -3.37287        -5.53034        -3.36706         12.0029        -5.53034     541.033E-03     347.208E-03    -171.640E-03    -175.567E-03    -170.191E-03     341.832E-03    -171.640E-03     105.255E-03     85.6200E+06     58.2005E+06    -21.6294E+06    -21.6162E+06     58.1872E+06     85.6200E+06     874.711E+03         62.8021
             447     11.8020E-03     62.1712E-03         12.5526        -3.78006        -5.67921        -3.77475         12.5473        -5.67921     469.626E-03     347.221E-03    -171.609E-03    -175.612E-03    -170.414E-03     342.023E-03    -171.609E-03     103.370E-03     82.0894E+06     52.4927E+06    -28.7871E+06    -28.7822E+06     52.4878E+06     82.0894E+06     613.116E+03         59.9159
             448     10.9616E-03     62.0517E-03         13.0760        -4.17576        -5.81850        -4.17126         13.0715        -5.81850    -329.873E-03     345.052E-03    -171.561E-03    -173.491E-03    -169.307E-03     340.868E-03    -171.561E-03     92.7660E-03     73.1162E+06     48.6102E+06    -36.8613E+06    -36.8422E+06     48.5911E+06     73.1162E+06     1.14564E+06         57.6107
             449     10.1157E-03     61.9415E-03         13.5753        -4.55292        -5.94763        -4.53798         13.5603        -5.94763     231.426E-03     343.690E-03    -171.580E-03    -172.110E-03    -168.365E-03     339.944E-03    -171.580E-03     87.5087E-03     63.6109E+06     45.4564E+06    -45.4967E+06    -45.4534E+06     45.4132E+06     63.6109E+06     1.86708E+06         55.9274
             450     9.27061E-03     61.8380E-03         14.0088        -4.86920        -6.06761        -4.85845         13.9980        -6.06761     540.096E-03     343.331E-03    -171.565E-03    -171.766E-03    -168.605E-03     340.253E-03    -171.648E-03     79.2528E-03     56.5273E+06     39.5346E+06    -54.7759E+06    -54.7296E+06     39.4882E+06     56.5273E+06     2.00513E+06         54.7301
             451     8.42848E-03     61.7506E-03         14.4051        -5.15213        -6.17979        -5.14319         14.3962        -6.17979     504.798E-03     343.037E-03    -171.308E-03    -171.729E-03    -168.930E-03     340.642E-03    -171.711E-03     69.8711E-03     44.6498E+06     10.0320E+06    -65.0540E+06    -65.0193E+06     9.99729E+06     44.6498E+06     1.58068E+06         53.8392
             452     7.58376E-03     61.6730E-03         14.7806        -5.42181        -6.28456        -5.41218         14.7710        -6.28456     778.067E-03     342.735E-03    -170.973E-03    -171.762E-03    -169.235E-03     340.997E-03    -171.762E-03     59.3644E-03     25.2633E+06    -45.6154E+06    -76.0474E+06    -75.9042E+06    -45.7585E+06     25.2633E+06     646.123E+03         53.1106
             453     6.74282E-03     61.6141E-03         15.1429        -5.69299        -6.37991        -5.68666         15.1366        -6.37991    -292.634E-03     342.406E-03    -170.600E-03    -171.806E-03    -169.452E-03     341.258E-03    -171.806E-03     48.1788E-03     4.00143E+06    -83.9057E+06    -106.403E+06    -86.6257E+06    -103.683E+06     4.00143E+06     460.562E+03         52.4590
             454     5.89811E-03     61.5643E-03         15.5222        -5.99825        -6.46207        -5.95607         15.4800        -6.46207     784.025E-03     342.324E-03    -170.479E-03    -171.845E-03    -169.780E-03     341.625E-03    -171.845E-03     37.4462E-03    -17.5203E+06    -97.9826E+06    -152.117E+06    -98.0309E+06    -152.069E+06    -17.5203E+06     1.02086E+06         51.8486
             455     5.05602E-03     61.5318E-03         15.8173        -6.23089        -6.52834        -6.18934         15.7757        -6.52834     801.537E-03     342.711E-03    -170.870E-03    -171.841E-03    -170.486E-03     342.327E-03    -171.841E-03     27.6937E-03    -41.7871E+06    -110.352E+06    -197.239E+06    -110.396E+06    -197.196E+06    -41.7871E+06     958.205E+03         51.2753
             456     4.21374E-03     61.5084E-03         16.0563        -6.41630        -6.57917        -6.36571         16.0058        -6.57917     975.356E-03     342.855E-03    -171.047E-03    -171.807E-03    -170.859E-03     342.666E-03    -171.807E-03     19.2519E-03    -65.2877E+06    -121.650E+06    -243.754E+06    -121.658E+06    -243.746E+06    -65.2877E+06     715.578E+03         50.7513
             457     3.37004E-03     61.4942E-03         16.2876        -6.58195        -6.64170        -6.48374         16.1658        -6.61809    -428.389E-03     342.575E-03    -170.761E-03    -171.814E-03    -170.683E-03     342.497E-03    -171.814E-03     12.3306E-03    -88.9410E+06    -132.215E+06    -284.002E+06    -132.233E+06    -283.984E+06    -88.9410E+06     816.447E+03         50.2940
             458     2.52803E-03     61.4864E-03         16.3496        -6.62112        -6.67225        -6.56858         16.2735        -6.64864        -1.91406     342.703E-03    -170.762E-03    -171.940E-03    -170.736E-03     342.677E-03    -171.940E-03     6.85781E-03    -114.154E+06    -142.036E+06    -319.241E+06    -142.060E+06    -319.217E+06    -114.154E+06     739.785E+03         49.9207
             459     1.68348E-03     61.4870E-03         16.3447        -6.63123        -6.67593        -6.62067         16.3342        -6.67593    -741.024E-03     343.570E-03    -171.289E-03    -172.280E-03    -171.428E-03     343.564E-03    -172.137E-03     2.98538E-03    -137.235E+06    -150.981E+06    -346.670E+06    -150.991E+06    -346.660E+06    -137.235E+06    -4.03037E+03         49.6442
             460     842.210E-06     61.4846E-03         16.4004        -4.76283        -8.65158        -8.60360         16.3696        -4.78001        -1.74000     344.377E-03    -171.479E-03    -172.898E-03    -172.589E-03     344.375E-03    -171.786E-03     1.01375E-03    -152.699E+06    -159.672E+06    -364.815E+06    -158.154E+06    -364.811E+06    -154.222E+06    -9.75915E+03         49.4710
             461     14.3325E-03     61.2657E-03         10.6892        -2.49917        -5.25384        -2.45623         10.6463        -5.25384     355.207E-03     352.020E-03    -171.659E-03    -180.361E-03    -172.034E-03     343.693E-03    -171.659E-03     124.316E-03     111.969E+06     87.6705E+06    -7.41706E+06    -7.40674E+06     87.6602E+06     111.969E+06     489.054E+03         68.6588
             462     13.4900E-03     61.0326E-03         11.2556        -2.91168        -5.41454        -2.88044         11.2244        -5.41454         1.05570     352.763E-03    -171.585E-03    -181.178E-03    -172.031E-03     343.616E-03    -171.585E-03     134.078E-03     92.0557E+06     70.4081E+06    -14.7104E+06    -14.7009E+06     70.3985E+06     92.0557E+06     500.107E+03         65.9192
             463     12.6475E-03     60.9101E-03         11.8003        -3.30833        -5.56789        -3.30294         11.7949        -5.56789     524.678E-03     346.845E-03    -171.570E-03    -175.275E-03    -169.821E-03     341.391E-03    -171.570E-03     105.793E-03     85.4095E+06     58.8005E+06    -21.4306E+06    -21.4272E+06     58.7971E+06     85.4095E+06     492.883E+03         62.8160
             464     11.8035E-03     60.7593E-03         12.3574        -3.72585        -5.71272        -3.72103         12.3526        -5.71272     443.752E-03     346.075E-03    -171.598E-03    -174.478E-03    -169.104E-03     340.701E-03    -171.598E-03     104.792E-03     80.4202E+06     51.2178E+06    -29.2978E+06    -29.2935E+06     51.2135E+06     80.4202E+06     431.288E+03         59.9411
             465     10.9575E-03     60.6454E-03         12.8916        -4.13164        -5.84790        -4.12645         12.8865        -5.84790    -359.924E-03     344.826E-03    -171.619E-03    -173.207E-03    -168.969E-03     340.588E-03    -171.619E-03     93.3097E-03     72.1217E+06     47.2738E+06    -36.6225E+06    -36.6074E+06     47.2587E+06     72.1217E+06     797.020E+03         57.6358
             466     10.1146E-03     60.5332E-03         13.3932        -4.51050        -5.97319        -4.49637         13.3791        -5.97319     154.255E-03     344.483E-03    -171.628E-03    -172.855E-03    -169.143E-03     340.770E-03    -171.628E-03     87.2150E-03     63.9950E+06     45.2465E+06    -44.8387E+06    -44.8172E+06     45.2250E+06     63.9950E+06     1.28673E+06         55.9478
             467     9.27217E-03     60.4306E-03         13.8363        -4.83488        -6.08958        -4.82533         13.8267        -6.08958     442.789E-03     343.398E-03    -171.369E-03    -172.029E-03    -168.757E-03     340.415E-03    -171.658E-03     78.0354E-03     57.4074E+06     40.1335E+06    -54.0756E+06    -54.0574E+06     40.1154E+06     57.4074E+06     1.22888E+06         54.7443
             468     8.42737E-03     60.3411E-03         14.2539        -5.13844        -6.19775        -5.13065         14.2461        -6.19775     403.269E-03     342.753E-03    -171.031E-03    -171.722E-03    -168.699E-03     340.421E-03    -171.722E-03     68.9321E-03     45.4843E+06     11.5547E+06    -63.8935E+06    -63.8718E+06     11.5331E+06     45.4843E+06     1.04088E+06         53.8478
             469     7.58557E-03     60.2654E-03         14.6422        -5.42176        -6.29757        -5.41395         14.6344        -6.29757     677.910E-03     342.698E-03    -170.913E-03    -171.785E-03    -169.199E-03     340.984E-03    -171.785E-03     58.9781E-03     25.5236E+06    -44.4975E+06    -75.6713E+06    -75.4260E+06    -44.7428E+06     25.5236E+06     755.898E+03         53.1163
             470     6.74087E-03     60.2035E-03         15.0093        -5.69812        -6.38767        -5.69189         15.0031        -6.38767    -347.476E-03     342.620E-03    -170.801E-03    -171.819E-03    -169.656E-03     341.474E-03    -171.819E-03     48.1516E-03     3.17299E+06    -84.7187E+06    -107.291E+06    -87.8603E+06    -104.150E+06     3.17299E+06     847.219E+03         52.4641
             471     5.89959E-03     60.1580E-03         15.3800        -5.99229        -6.46558        -5.95324         15.3410        -6.46558     711.069E-03     342.462E-03    -170.629E-03    -171.833E-03    -169.917E-03     341.750E-03    -171.833E-03     37.8722E-03    -18.6192E+06    -99.2767E+06    -152.388E+06    -99.3303E+06    -152.334E+06    -18.6192E+06     1.25537E+06         51.8541
             472     5.05527E-03     60.1220E-03         15.6593        -6.20841        -6.53050        -6.17014         15.6211        -6.53050     735.988E-03     342.691E-03    -170.870E-03    -171.822E-03    -170.468E-03     342.289E-03    -171.822E-03     28.3650E-03    -41.4258E+06    -109.812E+06    -195.857E+06    -109.862E+06    -195.807E+06    -41.4258E+06     1.32157E+06         51.2812
             473     4.21325E-03     60.0993E-03         15.8911        -6.38865        -6.58350        -6.34245         15.8449        -6.58350     895.899E-03     342.951E-03    -171.183E-03    -171.768E-03    -170.987E-03     342.756E-03    -171.768E-03     19.5675E-03    -65.7020E+06    -120.940E+06    -242.652E+06    -120.957E+06    -242.634E+06    -65.7020E+06     732.736E+03         50.7571
             474     3.37159E-03     60.0869E-03         16.1377        -6.57166        -6.64826        -6.47838         16.0216        -6.62537    -486.583E-03     342.651E-03    -170.921E-03    -171.730E-03    -170.843E-03     342.573E-03    -171.730E-03     12.3587E-03    -89.7642E+06    -131.981E+06    -284.015E+06    -131.994E+06    -284.003E+06    -89.7642E+06     395.808E+03         50.2991
             475     2.52639E-03     60.0804E-03         16.2259        -6.63064        -6.67940        -6.57824         16.1506        -6.65650        -1.97803     342.780E-03    -171.020E-03    -171.759E-03    -170.996E-03     342.753E-03    -171.757E-03     6.85388E-03    -113.982E+06    -142.719E+06    -318.696E+06    -142.735E+06    -318.681E+06    -113.982E+06     751.164E+03         49.9243
             476     1.68530E-03     60.0763E-03         16.2374        -6.64404        -6.68614        -6.64079         16.2269        -6.67895    -807.985E-03     343.327E-03    -171.443E-03    -171.884E-03    -171.583E-03     343.321E-03    -171.739E-03     3.03884E-03    -136.919E+06    -151.640E+06    -345.117E+06    -151.661E+06    -345.096E+06    -136.919E+06     1.18128E+06         49.6461
             477     842.999E-06     60.0762E-03         16.3214        -4.79012        -8.61866        -8.57834         16.2901        -4.79917        -1.74524     343.300E-03    -171.464E-03    -171.836E-03    -171.756E-03     343.298E-03    -171.542E-03     1.00837E-03    -151.739E+06    -158.791E+06    -363.013E+06    -157.163E+06    -362.992E+06    -153.388E+06     627.137E+03         49.4714
             478     14.3351E-03     59.8564E-03         10.3141        -2.37392        -5.19695        -2.33154         10.2717        -5.19695     324.173E-03     352.471E-03    -171.624E-03    -180.847E-03    -172.391E-03     344.016E-03    -171.624E-03     125.210E-03     113.066E+06     87.7542E+06    -6.53346E+06    -6.52313E+06     87.7438E+06     113.066E+06     782.899E+03         68.6186
             479     13.4908E-03     59.6247E-03         10.8828        -2.79023        -5.34791        -2.76008         10.8526        -5.34791         1.01385     352.538E-03    -171.553E-03    -180.985E-03    -171.678E-03     343.231E-03    -171.553E-03     135.176E-03     93.0250E+06     70.9606E+06    -13.2481E+06    -13.2327E+06     70.9452E+06     93.0250E+06     956.235E+03         65.9042
             480     12.6466E-03     59.5000E-03         11.4280        -3.18984        -5.49167        -3.18520         11.4234        -5.49167     479.683E-03     346.444E-03    -171.565E-03    -174.880E-03    -169.372E-03     340.937E-03    -171.565E-03     106.247E-03     85.3899E+06     58.6043E+06    -20.5759E+06    -20.5668E+06     58.5952E+06     85.3899E+06     698.015E+03         62.8252
             481     11.8013E-03     59.3556E-03         11.9837        -3.60858        -5.62766        -3.60451         11.9796        -5.62766     378.523E-03     345.818E-03    -171.617E-03    -174.201E-03    -168.850E-03     340.467E-03    -171.617E-03     104.462E-03     80.5879E+06     51.5798E+06    -27.9081E+06    -27.9056E+06     51.5773E+06     80.5879E+06     283.218E+03         59.9641
             482     10.9576E-03     59.2361E-03         12.5083        -4.00748        -5.75413        -4.00061         12.5014        -5.75413    -447.473E-03     344.979E-03    -171.634E-03    -173.345E-03    -169.204E-03     340.838E-03    -171.634E-03     92.2642E-03     70.9713E+06     46.9920E+06    -36.5024E+06    -36.5010E+06     46.9906E+06     70.9713E+06     181.105E+03         57.6614
             483     10.1157E-03     59.1220E-03         12.9989        -4.38076        -5.87146        -4.36680         12.9849        -5.87146     25.3753E-03     344.746E-03    -171.619E-03    -173.127E-03    -169.510E-03     341.129E-03    -171.619E-03     86.1601E-03     63.4127E+06     44.7385E+06    -44.9283E+06    -44.9232E+06     44.7334E+06     63.4127E+06     471.411E+03         55.9688
             484     9.27228E-03     59.0233E-03         13.4428        -4.71006        -5.97995        -4.70179         13.4345        -5.97995     303.187E-03     343.461E-03    -171.384E-03    -172.077E-03    -168.859E-03     340.487E-03    -171.628E-03     77.9832E-03     57.3341E+06     39.9719E+06    -54.0624E+06    -54.0546E+06     39.9641E+06     57.3341E+06     712.590E+03         54.7583
             485     8.42915E-03     58.9335E-03         13.8606        -5.01725        -6.08007        -5.01039         13.8537        -6.08007     269.256E-03     342.580E-03    -170.887E-03    -171.693E-03    -168.520E-03     340.213E-03    -171.693E-03     69.4133E-03     45.1467E+06     11.6802E+06    -65.0988E+06    -65.0571E+06     11.6386E+06     45.1467E+06     1.19410E+06         53.8559
             486     7.58396E-03     58.8566E-03         14.2477        -5.30641        -6.17164        -5.30045         14.2417        -6.17164     560.867E-03     342.363E-03    -170.579E-03    -171.784E-03    -168.845E-03     340.629E-03    -171.784E-03     59.2904E-03     25.2223E+06    -43.5892E+06    -77.1132E+06    -76.8915E+06    -43.8109E+06     25.2223E+06     1.61967E+06         53.1208
             487     6.74217E-03     58.7955E-03         14.6042        -5.57873        -6.25386        -5.57233         14.5978        -6.25386    -411.764E-03     342.535E-03    -170.692E-03    -171.843E-03    -169.536E-03     341.379E-03    -171.843E-03     48.3414E-03     2.26206E+06    -84.2271E+06    -107.694E+06    -88.5204E+06    -103.400E+06     2.26206E+06     1.14851E+06         52.4673
             488     5.89773E-03     58.7483E-03         14.9445        -5.84660        -6.32632        -5.80986         14.9077        -6.32632     630.454E-03     342.827E-03    -170.987E-03    -171.840E-03    -170.277E-03     342.117E-03    -171.840E-03     37.8136E-03    -19.7452E+06    -99.5213E+06    -152.276E+06    -99.5427E+06    -152.255E+06    -19.7452E+06     565.585E+03         51.8575
             489     5.05642E-03     58.7143E-03         15.2091        -6.04826        -6.38935        -6.01225         15.1731        -6.38935     650.703E-03     342.683E-03    -170.879E-03    -171.804E-03    -170.486E-03     342.291E-03    -171.804E-03     27.9827E-03    -41.7850E+06    -110.338E+06    -195.353E+06    -110.359E+06    -195.333E+06    -41.7850E+06     664.298E+03         51.2854
             490     4.21295E-03     58.6898E-03         15.4387        -6.22056        -6.44361        -6.17912         15.3972        -6.44361     769.818E-03     342.631E-03    -170.849E-03    -171.781E-03    -170.663E-03     342.444E-03    -171.781E-03     19.1117E-03    -65.8117E+06    -121.475E+06    -241.418E+06    -121.499E+06    -241.394E+06    -65.8117E+06     759.407E+03         50.7620
             491     3.36962E-03     58.6791E-03         15.6872        -6.41049        -6.49776        -6.30375         15.5741        -6.49134    -596.341E-03     343.112E-03    -171.264E-03    -171.848E-03    -171.323E-03     343.036E-03    -171.713E-03     12.0718E-03    -90.4743E+06    -132.719E+06    -284.168E+06    -132.736E+06    -284.151E+06    -90.4743E+06     993.263E+03         50.3046
             492     2.52963E-03     58.6718E-03         15.8003        -6.48905        -6.53937        -6.41736         15.7222        -6.53295        -2.05083     343.069E-03    -171.365E-03    -171.704E-03    -171.474E-03     343.042E-03    -171.568E-03     7.13947E-03    -114.411E+06    -143.300E+06    -318.719E+06    -143.314E+06    -318.705E+06    -114.411E+06     1.12530E+06         49.9300
             493     1.68578E-03     58.6689E-03         15.8432        -6.51331        -6.57259        -6.51079         15.8335        -6.56540    -829.116E-03     342.669E-03    -171.194E-03    -171.474E-03    -171.188E-03     342.660E-03    -171.473E-03     3.72501E-03    -135.540E+06    -151.375E+06    -342.765E+06    -151.401E+06    -342.739E+06    -135.540E+06     778.408E+03         49.6511
             494     842.302E-06     58.6691E-03         15.9345        -4.82652        -8.35892        -8.31520         15.9065        -4.84226        -1.62765     342.825E-03    -171.196E-03    -171.629E-03    -171.293E-03     342.823E-03    -171.530E-03     1.49138E-03    -149.937E+06    -157.398E+06    -360.659E+06    -155.780E+06    -360.628E+06    -151.586E+06     516.010E+03         49.4755
             495     14.3331E-03     58.4473E-03         9.83911        -2.24092        -5.03259        -2.19943         9.79762        -5.03259     289.861E-03     352.173E-03    -171.633E-03    -180.540E-03    -171.996E-03     343.629E-03    -171.633E-03     125.872E-03     112.222E+06     86.5815E+06    -7.29941E+06    -7.29540E+06     86.5775E+06     112.222E+06     24.6070E+03         68.5753
             496     13.4900E-03     58.2160E-03         10.3862        -2.64659        -5.16779        -2.61793         10.3576        -5.16779     947.376E-03     352.476E-03    -171.585E-03    -180.891E-03    -171.508E-03     343.093E-03    -171.585E-03     135.666E-03     92.9479E+06     69.9284E+06    -13.7638E+06    -13.7535E+06     69.9181E+06     92.9479E+06     272.359E+03         65.8859
             497     12.6459E-03     58.0932E-03         10.9041        -3.03073        -5.29609        -3.02717         10.9005        -5.29609     405.705E-03     346.858E-03    -171.588E-03    -175.270E-03    -169.858E-03     341.447E-03    -171.588E-03     105.504E-03     86.2558E+06     58.9388E+06    -20.2326E+06    -20.2158E+06     58.9220E+06     86.2558E+06     928.449E+03         62.8338
             498     11.8029E-03     57.9474E-03         11.4234        -3.42412        -5.41810        -3.42095         11.4202        -5.41810     278.345E-03     346.568E-03    -171.585E-03    -174.983E-03    -169.747E-03     341.332E-03    -171.585E-03     103.586E-03     80.8680E+06     52.4271E+06    -27.9709E+06    -27.9543E+06     52.4105E+06     80.8680E+06     953.817E+03         59.9897
             499     10.9601E-03     57.8270E-03         11.9201        -3.80539        -5.53157        -3.79683         11.9115        -5.53157    -546.778E-03     344.768E-03    -171.570E-03    -173.199E-03    -169.037E-03     340.607E-03    -171.570E-03     92.4696E-03     70.9285E+06     47.9852E+06    -36.4123E+06    -36.4047E+06     47.9776E+06     70.9285E+06     315.226E+03         57.6896
             500     10.1152E-03     57.7142E-03         12.3931        -4.16809        -5.63692        -4.15394         12.3790        -5.63692    -88.8856E-03     343.988E-03    -171.592E-03    -172.396E-03    -168.735E-03     340.326E-03    -171.592E-03     86.5540E-03     62.9875E+06      44.526E+06    -45.0455E+06    -45.0440E+06     44.5245E+06     62.9875E+06    -2.34798E+03         55.9902
             501     9.27184E-03     57.6139E-03         12.8162        -4.48584        -5.73393        -4.47851         12.8088        -5.73393     190.531E-03     343.522E-03    -171.592E-03    -171.930E-03    -168.913E-03     340.542E-03    -171.629E-03     78.0367E-03     56.3657E+06     39.0253E+06    -54.9631E+06    -54.9571E+06     39.0193E+06     56.3657E+06     625.212E+03         54.7714
             502     8.42796E-03     57.5262E-03         13.2132        -4.78099        -5.82349        -4.77444         13.2066        -5.82349     175.528E-03     342.824E-03    -171.084E-03    -171.740E-03    -168.808E-03     340.486E-03    -171.677E-03     69.0207E-03     44.6670E+06     11.1675E+06    -65.8244E+06    -65.7808E+06     11.1240E+06     44.6670E+06     1.32839E+06         53.8631
             503     7.58542E-03     57.4488E-03         13.5797        -5.05291        -5.90590        -5.04797         13.5747        -5.90590     481.237E-03     342.255E-03    -170.501E-03    -171.755E-03    -168.790E-03     340.544E-03    -171.755E-03     58.8944E-03     25.9626E+06    -42.4723E+06    -76.3908E+06    -76.2323E+06    -42.6307E+06     25.9626E+06     1.55707E+06         53.1242
             504     6.74035E-03     57.3870E-03         13.9202        -5.31467        -5.98069        -5.30744         13.9130        -5.98069    -466.040E-03     342.484E-03    -170.673E-03    -171.811E-03    -169.534E-03     341.345E-03    -171.811E-03     47.9564E-03     2.73537E+06    -83.1488E+06    -106.351E+06    -87.8429E+06    -101.657E+06     2.73537E+06     987.657E+03         52.4688
             505     5.89921E-03     57.3389E-03         14.2485        -5.57955        -6.04689        -5.54387         14.2128        -6.04689     543.883E-03     342.691E-03    -170.882E-03    -171.809E-03    -170.191E-03     342.000E-03    -171.809E-03     37.2985E-03    -19.9589E+06    -99.7320E+06    -151.619E+06    -99.7498E+06    -151.602E+06    -19.9589E+06     465.046E+03         51.8588
             506     5.05618E-03     57.3044E-03         14.5002        -5.77638        -6.10434        -5.74164         14.4655        -6.10434     568.621E-03     342.525E-03    -170.739E-03    -171.785E-03    -170.354E-03     342.140E-03    -171.785E-03     27.7387E-03    -42.6548E+06    -111.420E+06    -195.627E+06    -111.432E+06    -195.615E+06    -42.6548E+06     403.856E+03         51.2876
             507     4.21342E-03     57.2842E-03         14.7066        -5.92832        -6.15522        -5.88941         14.6677        -6.15522     664.333E-03     342.577E-03    -170.799E-03    -171.778E-03    -170.607E-03     342.386E-03    -171.778E-03     19.4342E-03    -66.3857E+06    -123.194E+06    -241.472E+06    -123.209E+06    -241.457E+06    -66.3857E+06     796.252E+03         50.7658
             508     3.37116E-03     57.2681E-03         14.9452        -6.10951        -6.20419        -5.99596         14.8316        -6.20419    -680.806E-03     342.904E-03    -171.019E-03    -171.885E-03    -171.072E-03     342.822E-03    -171.750E-03     12.5427E-03    -90.6105E+06    -133.903E+06    -283.712E+06    -133.913E+06    -283.701E+06    -90.6105E+06     1.00120E+06         50.3102
             509     2.52744E-03     57.2641E-03         15.0704        -6.18682        -6.25314        -6.10454         14.9881        -6.25314        -2.09606     343.120E-03    -171.243E-03    -171.877E-03    -171.431E-03     343.089E-03    -171.658E-03     7.71275E-03    -114.864E+06    -143.385E+06    -317.434E+06    -143.399E+06    -317.420E+06    -114.864E+06     476.090E+03         49.9373
             510     1.68540E-03     57.2624E-03         15.1374        -6.21541        -6.30146        -6.20439         15.1264        -6.30146    -887.594E-03     343.042E-03    -171.306E-03    -171.736E-03    -171.526E-03     343.032E-03    -171.506E-03     4.08347E-03    -136.649E+06    -150.920E+06    -341.439E+06    -150.939E+06    -341.419E+06    -136.649E+06    -93.8703E+03         49.6598
             511     842.935E-06     57.2614E-03         15.2678        -4.85193        -7.82799        -7.76789         15.2391        -4.88338        -1.60798     342.755E-03    -171.080E-03    -171.675E-03    -171.418E-03     342.753E-03    -171.335E-03     1.08997E-03    -152.089E+06    -156.942E+06    -359.847E+06    -156.820E+06    -359.820E+06    -152.238E+06    -252.639E+03         49.4850
             512     14.3337E-03     57.0387E-03         9.26826        -2.10587        -4.76220        -2.06464         9.22703        -4.76220     268.925E-03     351.773E-03    -171.646E-03    -180.127E-03    -171.678E-03     343.324E-03    -171.646E-03     125.239E-03     111.742E+06      86.519E+06    -7.35057E+06    -7.34582E+06     86.5143E+06     111.742E+06    -21.9186E+03         68.5325
             513     13.4890E-03     56.8081E-03         9.76667        -2.48243        -4.87644        -2.45419         9.73842        -4.87644     917.292E-03     352.484E-03    -171.603E-03    -180.881E-03    -171.611E-03     343.214E-03    -171.603E-03     134.911E-03     92.0722E+06     68.5414E+06    -14.3864E+06    -14.3790E+06     68.5341E+06     92.0722E+06    -293.475E+03         65.8686
             514     12.6461E-03     56.6833E-03         10.2341        -2.83276        -4.98473        -2.82948         10.2308        -4.98473     382.781E-03     347.401E-03    -171.585E-03    -175.816E-03    -170.404E-03     341.988E-03    -171.585E-03     105.613E-03     85.6965E+06     57.8373E+06    -21.0433E+06    -21.0299E+06     57.8239E+06     85.6965E+06     325.473E+03         62.8433
             515     11.8037E-03     56.5375E-03         10.7020        -3.19206        -5.08885        -3.18921         10.6991        -5.08885     235.234E-03     346.823E-03    -171.556E-03    -175.266E-03    -169.997E-03     341.554E-03    -171.556E-03     103.983E-03     81.6598E+06     53.2522E+06    -28.0472E+06    -28.0301E+06     53.2352E+06     81.6598E+06     1.00888E+06         60.0149
             516     10.9594E-03     56.4203E-03         11.1580        -3.55010        -5.18541        -3.54029         11.1482        -5.18541    -581.599E-03     344.572E-03    -171.537E-03    -173.035E-03    -168.851E-03     340.387E-03    -171.537E-03     92.6809E-03     71.9784E+06     49.4020E+06    -35.7404E+06    -35.7268E+06     49.3883E+06     71.9784E+06     689.776E+03         57.7168
             517     10.1156E-03     56.3068E-03         11.5845        -3.88243        -5.27466        -3.86816         11.5702        -5.27466    -164.092E-03     343.745E-03    -171.568E-03    -172.177E-03    -168.495E-03     340.063E-03    -171.568E-03     86.7592E-03     61.9243E+06     44.1363E+06    -45.4545E+06    -45.4461E+06     44.1279E+06     61.9243E+06     498.510E+03         56.0112
             518     9.27158E-03     56.2053E-03         11.9620        -4.16449        -5.35680        -4.15763         11.9552        -5.35680     101.717E-03     343.438E-03    -171.599E-03    -171.839E-03    -168.832E-03     340.452E-03    -171.620E-03     78.0725E-03     55.6097E+06     38.5026E+06    -55.3610E+06    -55.3566E+06     38.4982E+06     55.6097E+06     586.710E+03         54.7846
             519     8.42953E-03     56.1165E-03         12.3230        -4.43140        -5.43361        -4.42498         12.3166        -5.43361     96.4812E-03     343.154E-03    -171.403E-03    -171.751E-03    -169.192E-03     340.844E-03    -171.653E-03     68.6354E-03     44.5836E+06     11.1491E+06    -65.4437E+06    -65.4332E+06     11.1387E+06     44.5836E+06     703.210E+03         53.8700
             520     7.58516E-03     56.0423E-03         12.6551        -4.67929        -5.50543        -4.67518         12.6510        -5.50543     403.785E-03     342.625E-03    -170.911E-03    -171.713E-03    -169.257E-03     340.935E-03    -171.678E-03     58.5951E-03     25.6347E+06    -42.7859E+06    -76.8246E+06    -76.7028E+06    -42.9077E+06     25.6347E+06     1.13074E+06         53.1274
             521     6.74331E-03     55.9777E-03         12.9771        -4.93146        -5.57113        -4.92312         12.9687        -5.57113    -517.793E-03     342.173E-03    -170.460E-03    -171.713E-03    -169.318E-03     341.031E-03    -171.713E-03     48.0305E-03     3.59621E+06    -82.6742E+06    -105.319E+06    -87.8596E+06    -100.133E+06     3.59621E+06     1.41666E+06         52.4701
             522     5.89916E-03     55.9302E-03         13.2924        -5.18972        -5.62898        -5.15455         13.2573        -5.62898     453.263E-03     342.011E-03    -170.252E-03    -171.759E-03    -169.557E-03     341.316E-03    -171.759E-03     37.3102E-03    -19.8846E+06    -99.9853E+06    -150.862E+06    -100.018E+06    -150.830E+06    -19.8846E+06     872.347E+03         51.8595
             523     5.05558E-03     55.8976E-03         13.5254        -5.36920        -5.67952        -5.33486         13.4910        -5.67952     470.528E-03     342.189E-03    -170.382E-03    -171.807E-03    -169.995E-03     341.803E-03    -171.807E-03     27.8481E-03    -43.3015E+06    -111.910E+06    -195.770E+06    -111.920E+06    -195.759E+06    -43.3015E+06     615.464E+03         51.2890
             524     4.21299E-03     55.8737E-03         13.7130        -5.50341        -5.72604        -5.46585         13.6755        -5.72604     546.761E-03     342.570E-03    -170.720E-03    -171.849E-03    -170.519E-03     342.368E-03    -171.849E-03     19.9634E-03    -66.5635E+06    -122.936E+06    -241.392E+06    -122.941E+06    -241.386E+06    -66.5635E+06     535.353E+03         50.7691
             525     3.36979E-03     55.8623E-03         13.9509        -5.68288        -5.77953        -5.57650         13.8363        -5.77136    -745.566E-03     342.856E-03    -170.980E-03    -171.876E-03    -170.893E-03     342.768E-03    -171.876E-03     12.9822E-03    -90.7605E+06    -133.984E+06    -282.921E+06    -133.986E+06    -282.919E+06    -90.7605E+06     268.554E+03         50.3160
             526     2.52714E-03     55.8550E-03         14.0712        -5.76236        -5.82311        -5.68387         13.9846        -5.81494        -2.11590     343.330E-03    -171.396E-03    -171.934E-03    -171.451E-03     343.301E-03    -171.849E-03     7.43656E-03    -114.911E+06    -143.257E+06    -316.003E+06    -143.265E+06    -315.995E+06    -114.911E+06    -118.544E+03         49.9457
             527     1.68517E-03     55.8530E-03         14.1187        -5.78995        -5.85640        -5.78107         14.1075        -5.85406    -891.822E-03     343.500E-03    -171.556E-03    -171.945E-03    -171.777E-03     343.493E-03    -171.715E-03     3.61465E-03    -137.470E+06    -151.195E+06    -341.167E+06    -151.208E+06    -341.153E+06    -137.470E+06    -436.966E+03         49.6705
             528     843.195E-06     55.8544E-03         14.2544        -4.71734        -7.05638        -7.01251         14.2262        -4.73304        -1.52822     343.156E-03    -171.247E-03    -171.909E-03    -171.801E-03     343.155E-03    -171.354E-03     1.63895E-03    -153.295E+06    -157.314E+06    -360.347E+06    -156.911E+06    -360.321E+06    -153.723E+06    -300.174E+03         49.4973
             529     14.3335E-03     55.6308E-03         8.59292        -1.95774        -4.39307        -1.91642         8.55160        -4.39307     274.694E-03     351.983E-03    -171.626E-03    -180.357E-03    -171.979E-03     343.605E-03    -171.626E-03     124.531E-03     112.223E+06     87.2651E+06    -7.16769E+06    -7.16479E+06     87.2622E+06     112.223E+06     261.129E+03         68.4915
             530     13.4902E-03     55.4001E-03         9.02459        -2.28777        -4.48284        -2.25871         8.99554        -4.48284     917.215E-03     352.494E-03    -171.568E-03    -180.926E-03    -171.690E-03     343.258E-03    -171.568E-03     134.679E-03     92.0809E+06     68.8104E+06    -14.5090E+06    -14.5023E+06     68.8037E+06     92.0809E+06     208.040E+03         65.8528
             531     12.6465E-03     55.2733E-03         9.42794        -2.59434        -4.56793        -2.59113         9.42473        -4.56793     377.917E-03     346.916E-03    -171.558E-03    -175.357E-03    -169.967E-03     341.525E-03    -171.558E-03     105.300E-03     84.9414E+06     57.1319E+06    -21.7427E+06    -21.7245E+06     57.1138E+06     84.9414E+06    -568.759E+03         62.8520
             532     11.8026E-03     55.1291E-03         9.84861        -2.92597        -4.65029        -2.92341         9.84605        -4.65029     201.241E-03     346.413E-03    -171.557E-03    -174.856E-03    -169.605E-03     341.163E-03    -171.557E-03     103.714E-03     80.9242E+06     52.5600E+06    -29.0516E+06    -29.0349E+06     52.5434E+06     80.9242E+06    -518.685E+03         60.0374
             533     10.9600E-03     55.0117E-03         10.2527        -3.25283        -4.72522        -3.24064         10.2405        -4.72522    -622.887E-03     344.933E-03    -171.537E-03    -173.396E-03    -169.245E-03     340.783E-03    -171.537E-03     92.3714E-03     71.8349E+06     48.7491E+06    -36.5678E+06    -36.5528E+06     48.7341E+06     71.8349E+06     651.177E+03         57.7423
             534     10.1160E-03     54.9001E-03         10.6128        -3.53978        -4.79381        -3.52406         10.5971        -4.79381    -253.573E-03     344.019E-03    -171.536E-03    -172.483E-03    -168.827E-03     340.363E-03    -171.536E-03     86.5298E-03     62.4758E+06     44.7263E+06    -45.0384E+06    -45.0192E+06     44.7071E+06     62.4758E+06     1.25614E+06         56.0325
             535     9.27253E-03     54.7965E-03         10.9243        -3.77541        -4.85678        -3.76843         10.9173        -4.85678     8.57769E-03     343.058E-03    -171.330E-03    -171.728E-03    -168.466E-03     340.052E-03    -171.586E-03     78.2962E-03     55.2161E+06     38.5294E+06    -55.1945E+06    -55.1842E+06     38.5192E+06     55.2161E+06     864.966E+03         54.7986
             536     8.42780E-03     54.7083E-03         11.2242        -3.99706        -4.91656        -3.99055         11.2177        -4.91656    -2.65734E-03     342.999E-03    -171.317E-03    -171.681E-03    -168.986E-03     340.632E-03    -171.646E-03     69.4681E-03     43.6347E+06     10.5059E+06    -66.1910E+06    -66.1738E+06     10.4887E+06     43.6347E+06     976.355E+03         53.8777
             537     7.58691E-03     54.6316E-03         11.5082        -4.20971        -4.97389        -4.20654         11.5050        -4.97389     302.852E-03     342.997E-03    -171.296E-03    -171.701E-03    -169.587E-03     341.253E-03    -171.665E-03     59.5439E-03     24.9961E+06    -42.9190E+06    -77.3765E+06    -77.3321E+06    -42.9633E+06     24.9961E+06     1.01578E+06         53.1314
             538     6.74267E-03     54.5717E-03         11.7947        -4.43790        -5.02754        -4.42803         11.7848        -5.02754    -576.907E-03     342.155E-03    -170.470E-03    -171.684E-03    -169.298E-03     340.983E-03    -171.684E-03     48.6950E-03     3.35123E+06    -83.1489E+06    -105.511E+06    -88.5647E+06    -100.095E+06     3.35123E+06     961.201E+03         52.4726
             539     5.89898E-03     54.5224E-03         12.0717        -4.66541        -5.07595        -4.63007         12.0363        -5.07595     360.663E-03     341.726E-03    -169.972E-03    -171.753E-03    -169.256E-03     341.010E-03    -171.753E-03     37.8257E-03    -19.0697E+06    -99.7272E+06    -149.482E+06    -99.7550E+06    -149.454E+06    -19.0697E+06     1.03870E+06         51.8618
             540     5.05616E-03     54.4895E-03         12.2860        -4.83514        -5.11884        -4.80074         12.2516        -5.11884     375.260E-03     342.094E-03    -170.259E-03    -171.835E-03    -169.868E-03     341.703E-03    -171.835E-03     27.9414E-03    -42.8724E+06    -111.243E+06    -194.931E+06    -111.250E+06    -194.924E+06    -42.8724E+06     436.778E+03         51.2922
             541     4.21216E-03     54.4663E-03         12.4633        -4.96728        -5.15732        -4.93181         12.4278        -5.15732     411.950E-03     342.515E-03    -170.610E-03    -171.905E-03    -170.417E-03     342.322E-03    -171.905E-03     19.4146E-03    -66.4699E+06    -122.105E+06    -240.869E+06    -122.105E+06    -240.869E+06    -66.4699E+06     76.8516E+03         50.7737
             542     3.36951E-03     54.4530E-03         12.6878        -5.12346        -5.21659        -5.02931         12.5709        -5.19384    -830.866E-03     343.045E-03    -171.107E-03    -171.938E-03    -171.028E-03     342.966E-03    -171.938E-03     12.4086E-03    -90.7298E+06    -132.721E+06    -282.139E+06    -132.723E+06    -282.137E+06    -90.7298E+06    -279.369E+03         50.3224
             543     2.52752E-03     54.4461E-03         12.7854        -5.19023        -5.25219        -5.11827         12.6907        -5.22945        -2.18133     343.351E-03    -171.414E-03    -171.937E-03    -171.385E-03     343.322E-03    -171.937E-03     7.31827E-03    -113.767E+06    -143.124E+06    -316.071E+06    -143.128E+06    -316.067E+06    -113.767E+06    -349.031E+03         49.9538
             544     1.68467E-03     54.4446E-03         12.8096        -5.21355        -5.26276        -5.20578         12.7995        -5.26042    -836.948E-03     343.486E-03    -171.539E-03    -171.948E-03    -171.532E-03     343.479E-03    -171.948E-03     3.36422E-03    -135.955E+06    -151.892E+06    -341.508E+06    -151.902E+06    -341.498E+06    -135.955E+06    -81.3671E+03         49.6802
             545     841.315E-06     54.4466E-03         12.8941        -4.49896        -6.08793        -6.04277         12.8566        -4.50661        -1.53672     343.832E-03    -171.465E-03    -172.367E-03    -172.232E-03     343.831E-03    -171.599E-03     1.07882E-03    -153.372E+06    -157.864E+06    -360.753E+06    -157.606E+06    -360.733E+06    -153.651E+06    -31.6275E+03         49.5083
             546     14.3348E-03     54.2239E-03         7.81429        -1.78742        -3.93282        -1.74747         7.77435        -3.93282     242.767E-03     352.299E-03    -171.594E-03    -180.705E-03    -172.353E-03     343.947E-03    -171.594E-03     124.258E-03     112.580E+06     87.0914E+06    -7.01713E+06    -7.01434E+06     87.0886E+06     112.580E+06     267.155E+03         68.4498
             547     13.4908E-03     53.9901E-03         8.17284        -2.06516        -3.99469        -2.03740         8.14508        -3.99469     860.744E-03     352.344E-03    -171.527E-03    -180.817E-03    -171.555E-03     343.082E-03    -171.527E-03     134.945E-03     92.6813E+06     69.2390E+06    -13.8696E+06    -13.8663E+06     69.2357E+06     92.6813E+06     425.507E+03         65.8356
             548     12.6474E-03     53.8664E-03         8.50924        -2.32946        -4.05264        -2.32689         8.50666        -4.05264     328.067E-03     346.525E-03    -171.533E-03    -174.992E-03    -169.557E-03     341.090E-03    -171.533E-03     105.659E-03     85.3421E+06     57.7541E+06    -20.7228E+06    -20.7083E+06     57.7395E+06     85.3421E+06    -395.513E+03         62.8590
             549     11.8032E-03     53.7209E-03         8.85714        -2.61511        -4.10908        -2.61313         8.85516        -4.10908     130.699E-03     346.216E-03    -171.551E-03    -174.665E-03    -169.414E-03     340.965E-03    -171.551E-03     103.643E-03     80.2933E+06     51.6201E+06    -28.7064E+06    -28.6883E+06     51.6019E+06     80.2933E+06    -456.831E+03         60.0592
             550     10.9589E-03     53.6027E-03         9.19272        -2.89799        -4.15891        -2.88193         9.17665        -4.15891    -691.356E-03     344.821E-03    -171.542E-03    -173.280E-03    -169.114E-03     340.655E-03    -171.542E-03     92.5294E-03     70.3249E+06     47.2676E+06    -37.3243E+06    -37.3100E+06     47.2532E+06     70.3249E+06     139.507E+03         57.7678
             551     10.1169E-03     53.4908E-03         9.48693        -3.13941        -4.20364        -3.12083         9.46835        -4.20364    -359.551E-03     344.292E-03    -171.543E-03    -172.749E-03    -169.028E-03     340.571E-03    -171.543E-03     87.3335E-03     62.2373E+06     44.5787E+06    -45.2530E+06    -45.2352E+06     44.5610E+06     62.2373E+06     697.400E+03         56.0543
             552     9.27260E-03     53.3907E-03         9.73097        -3.32922        -4.24372        -3.32125         9.72300        -4.24372    -105.066E-03     343.393E-03    -171.339E-03    -172.054E-03    -168.782E-03     340.355E-03    -171.573E-03     78.7516E-03     55.5653E+06     38.7679E+06    -54.5744E+06    -54.5537E+06     38.7471E+06     55.5653E+06     1.34361E+06         54.8142
             553     8.42910E-03     53.2997E-03         9.95958        -3.50259        -4.28198        -3.49505         9.95204        -4.28198    -119.482E-03     342.619E-03    -170.912E-03    -171.707E-03    -168.625E-03     340.260E-03    -171.635E-03     69.2991E-03     43.8147E+06     10.6172E+06    -65.3428E+06    -65.3236E+06     10.5980E+06     43.8147E+06     1.08358E+06         53.8875
             554     7.58376E-03     53.2224E-03         10.1628        -3.65544        -4.32059        -3.65305         10.1604        -4.32059     200.081E-03     342.442E-03    -170.733E-03    -171.709E-03    -169.005E-03     340.715E-03    -171.709E-03     59.1780E-03     25.6344E+06    -42.4939E+06    -76.4236E+06    -76.3840E+06    -42.5335E+06     25.6344E+06     717.901E+03         53.1374
             555     6.74252E-03     53.1625E-03         10.3823        -3.83253        -4.36003        -3.82083         10.3706        -4.36003    -626.169E-03     342.426E-03    -170.674E-03    -171.751E-03    -169.517E-03     341.269E-03    -171.751E-03     48.3941E-03     3.40239E+06    -82.6721E+06    -105.384E+06    -87.9855E+06    -100.071E+06     3.40239E+06     574.171E+03         52.4773
             556     5.89931E-03     53.1165E-03         10.6167        -4.03031        -4.39796        -3.99318         10.5796        -4.39796     291.705E-03     342.193E-03    -170.410E-03    -171.783E-03    -169.692E-03     341.476E-03    -171.783E-03     37.9813E-03    -18.3203E+06    -98.9125E+06    -149.039E+06    -98.9199E+06    -149.032E+06    -18.3203E+06     376.362E+03         51.8668
             557     5.05504E-03     53.0805E-03         10.8067        -4.18494        -4.43189        -4.14967         10.7714        -4.43189     327.101E-03     342.285E-03    -170.467E-03    -171.818E-03    -170.077E-03     341.894E-03    -171.818E-03     27.8289E-03    -41.5061E+06    -110.109E+06    -193.502E+06    -110.116E+06    -193.495E+06    -41.5061E+06     440.452E+03         51.2979
             558     4.21329E-03     53.0587E-03         10.9678        -4.30768        -4.46153        -4.27305         10.9332        -4.46153     333.226E-03     342.689E-03    -170.856E-03    -171.833E-03    -170.674E-03     342.506E-03    -171.833E-03     18.9818E-03    -66.2660E+06    -122.107E+06    -240.289E+06    -122.113E+06    -240.283E+06    -66.2660E+06     115.425E+03         50.7801
             559     3.37017E-03     53.0442E-03         11.1799        -4.43637        -4.53426        -4.36230         11.0599        -4.48831    -852.461E-03     342.823E-03    -170.991E-03    -171.832E-03    -170.917E-03     342.749E-03    -171.832E-03     11.8996E-03    -90.9198E+06    -133.376E+06    -281.686E+06    -133.379E+06    -281.682E+06    -90.9198E+06    -348.357E+03         50.3291
             560     2.52698E-03     53.0379E-03         11.2544        -4.48846        -4.55997        -4.42997         11.1499        -4.51403        -2.25504     342.901E-03    -171.017E-03    -171.885E-03    -170.993E-03     342.878E-03    -171.885E-03     6.59013E-03    -115.127E+06    -143.426E+06    -316.658E+06     -143.43E+06    -316.654E+06    -115.127E+06    -590.299E+03         49.9607
             561     1.68418E-03     53.0365E-03         11.2376        -4.50448        -4.53798        -4.49297         11.2258        -4.53770    -796.991E-03     343.411E-03    -171.410E-03    -172.001E-03    -171.403E-03     343.405E-03    -172.001E-03     3.34206E-03    -137.201E+06    -152.309E+06    -342.597E+06    -152.315E+06    -342.591E+06    -137.201E+06    -273.243E+03         49.6874
             562     843.108E-06     53.0360E-03         11.3408        -4.24175        -4.93891        -4.84863         11.2581        -4.24940        -1.83717     344.039E-03    -171.393E-03    -172.646E-03    -171.942E-03     344.037E-03    -172.095E-03     1.54480E-03    -153.493E+06    -158.378E+06    -360.267E+06    -158.026E+06    -360.247E+06    -153.865E+06     302.505E+03         49.5159
             563     14.3344E-03     52.8117E-03         6.99092        -1.63447        -3.39082        -1.59523         6.95168        -3.39082     207.966E-03     352.168E-03    -171.590E-03    -180.578E-03    -172.163E-03     343.753E-03    -171.590E-03     124.765E-03     112.471E+06     87.0627E+06    -6.83339E+06    -6.82650E+06     87.0558E+06     112.471E+06    -304.096E+03         68.4059
             564     13.4915E-03     52.5844E-03         7.25403        -1.84759        -3.42087        -1.82071         7.22715        -3.42087     807.946E-03     352.303E-03    -171.534E-03    -180.769E-03    -171.414E-03     342.948E-03    -171.534E-03     135.711E-03     92.4594E+06     69.5427E+06    -13.2374E+06    -13.2304E+06     69.5357E+06     92.4594E+06    -307.337E+03         65.8154
             565     12.6461E-03     52.4576E-03         7.49380        -2.04473        -3.44811        -2.04257         7.49164        -3.44811     285.621E-03     346.744E-03    -171.544E-03    -175.200E-03    -169.675E-03     341.218E-03    -171.544E-03     106.593E-03     84.6688E+06     57.1387E+06    -20.3262E+06    -20.3222E+06     57.1347E+06     84.6688E+06     192.844E+03         62.8641
             566     11.8034E-03     52.3124E-03         7.74735        -2.26494        -3.47582        -2.26336         7.74576        -3.47582     71.7591E-03     346.288E-03    -171.563E-03    -174.725E-03    -169.416E-03     340.979E-03    -171.563E-03     104.225E-03     79.8210E+06     50.9061E+06    -27.8665E+06    -27.8602E+06     50.8998E+06     79.8210E+06     601.748E+03         60.0809
             567     10.9600E-03     52.1956E-03         8.00209        -2.49706        -3.49826        -2.47576         7.98079        -3.49826    -749.846E-03     344.705E-03    -171.563E-03    -173.143E-03    -168.945E-03     340.508E-03    -171.563E-03     92.8500E-03     69.8821E+06     47.2159E+06    -36.2611E+06    -36.2488E+06     47.2036E+06     69.8821E+06     392.371E+03         57.7941
             568     10.1140E-03     52.0826E-03         8.21296        -2.68462        -3.51665        -2.66165         8.18999        -3.51665    -455.243E-03     344.351E-03    -171.572E-03    -172.778E-03    -169.073E-03     340.645E-03    -171.572E-03     87.1303E-03     61.1932E+06     43.5535E+06    -45.5555E+06    -45.5435E+06     43.5416E+06     61.1932E+06     288.753E+03         56.0774
             569     9.27225E-03     51.9802E-03         8.37413        -2.81521        -3.53185        -2.80528         8.36420        -3.53185    -208.391E-03     343.755E-03    -171.588E-03    -172.167E-03    -169.140E-03     340.730E-03    -171.590E-03     78.6514E-03     56.0058E+06     38.5930E+06    -54.3167E+06    -54.3045E+06     38.5808E+06     56.0058E+06     753.896E+03         54.8313
             570     8.42947E-03     51.8926E-03         8.52259        -2.92875        -3.54780        -2.91895         8.51278        -3.54780    -210.261E-03     342.851E-03    -171.157E-03    -171.694E-03    -168.855E-03     340.478E-03    -171.622E-03     69.5391E-03     44.5323E+06     11.6953E+06    -64.7299E+06    -64.7113E+06     11.6767E+06     44.5323E+06     949.474E+03         53.8992
             571     7.58656E-03     51.8158E-03         8.65030        -3.02554        -3.56695        -3.02339         8.64814        -3.56695     132.344E-03     342.079E-03    -170.380E-03    -171.699E-03    -168.667E-03     340.366E-03    -171.699E-03     58.8461E-03     25.3341E+06    -42.2941E+06    -76.4710E+06    -76.4295E+06    -42.3356E+06     25.3341E+06     506.899E+03         53.1456
             572     6.74076E-03     51.7533E-03         8.80888        -3.16132        -3.58938        -3.14795         8.79550        -3.58938    -638.703E-03     342.096E-03    -170.311E-03    -171.785E-03    -169.178E-03     340.962E-03    -171.785E-03     47.8707E-03     3.89881E+06    -82.3271E+06    -104.488E+06    -87.2457E+06    -99.5694E+06     3.89881E+06     207.600E+03         52.4838
             573     5.89863E-03     51.7073E-03         8.99107        -3.32572        -3.61226        -3.28582         8.95117        -3.61226     252.460E-03     342.710E-03    -170.878E-03    -171.833E-03    -170.195E-03     341.998E-03    -171.803E-03     37.8962E-03    -18.4480E+06    -98.9396E+06    -149.034E+06    -98.9432E+06    -149.030E+06    -18.4480E+06     265.504E+03         51.8733
             574     5.05696E-03     51.6731E-03         9.13270        -3.44380        -3.63355        -3.40591         9.09481        -3.63355     287.370E-03     342.790E-03    -171.011E-03    -171.779E-03    -170.657E-03     342.406E-03    -171.749E-03     27.5855E-03    -41.6529E+06    -110.726E+06    -193.769E+06    -110.733E+06    -193.762E+06    -41.6529E+06     387.160E+03         51.3050
             575     4.21304E-03     51.6493E-03         9.24576        -3.52566        -3.65440        -3.49198         9.21208        -3.65440     234.007E-03     342.478E-03    -170.775E-03    -171.703E-03    -170.598E-03     342.302E-03    -171.703E-03     18.7186E-03    -66.0511E+06    -122.167E+06    -239.459E+06    -122.178E+06    -239.448E+06    -66.0511E+06     416.902E+03         50.7874
             576     3.37115E-03     51.6364E-03         9.44043        -3.62792        -3.73870        -3.56352         9.31325        -3.67592    -892.527E-03     342.460E-03    -170.748E-03    -171.712E-03    -170.672E-03     342.384E-03    -171.712E-03     12.1167E-03    -90.9454E+06    -133.058E+06    -281.221E+06    -133.066E+06    -281.214E+06    -90.9454E+06     25.0865E+03         50.3361
             577     2.52813E-03     51.6308E-03         9.51476        -3.68609        -3.76010        -3.62613         9.39202        -3.69732        -2.32801     342.726E-03    -170.957E-03    -171.769E-03    -170.931E-03     342.700E-03    -171.769E-03     6.94945E-03    -116.081E+06    -143.062E+06    -316.962E+06    -143.071E+06    -316.954E+06    -116.081E+06     162.655E+03         49.9674
             578     1.68503E-03     51.6280E-03         9.46875        -3.70240        -3.71816        -3.68814         9.44995        -3.71363    -716.766E-03     343.153E-03    -171.268E-03    -171.885E-03    -171.260E-03     343.145E-03    -171.885E-03     3.68824E-03    -138.707E+06    -151.909E+06    -343.075E+06    -151.919E+06    -343.065E+06    -138.707E+06     280.469E+03         49.6938
             579     840.982E-06     51.6272E-03         9.64951        -3.58253        -4.01790        -3.54092         9.48772        -3.89772        -2.05670     343.844E-03    -171.422E-03    -172.422E-03    -171.419E-03     343.842E-03    -172.422E-03     1.46185E-03    -153.454E+06    -157.605E+06    -359.994E+06    -157.254E+06    -359.972E+06    -153.827E+06    -27.8351E+03         49.5220
             580     14.3343E-03     51.4054E-03         6.14252        -1.50064        -2.78271        -1.46207         6.10395        -2.78271     197.563E-03     351.651E-03    -171.614E-03    -180.037E-03    -171.630E-03     343.244E-03    -171.614E-03     124.674E-03     111.552E+06     87.3030E+06    -7.49823E+06    -7.49183E+06     87.2966E+06     111.552E+06    -601.327E+03         68.3617
             581     13.4886E-03     51.1745E-03         6.29726        -1.64146        -2.77815        -1.61441         6.27021        -2.77815     777.241E-03     352.377E-03    -171.571E-03    -180.807E-03    -171.475E-03     343.045E-03    -171.571E-03     135.528E-03     90.8084E+06     69.4125E+06    -14.8751E+06    -14.8680E+06     69.4053E+06     90.8084E+06    -661.916E+03         65.7945
             582     12.6470E-03     51.0499E-03         6.42112        -1.75887        -2.77212        -1.75664         6.41888        -2.77212     268.127E-03     346.834E-03    -171.583E-03    -175.252E-03    -169.733E-03     341.316E-03    -171.583E-03     106.530E-03     83.5647E+06     56.1099E+06    -21.8706E+06    -21.8614E+06     56.1007E+06     83.5647E+06    -247.251E+03         62.8690
             583     11.8020E-03     50.9041E-03         6.56596        -1.90321        -2.76852        -1.90178         6.56454        -2.76852     32.4039E-03     346.446E-03    -171.598E-03    -174.848E-03    -169.529E-03     341.127E-03    -171.598E-03     104.354E-03     78.8332E+06     50.3070E+06    -29.2023E+06    -29.1940E+06     50.2986E+06     78.8332E+06    -6.01934E+03         60.1026
             584     10.9578E-03     50.7873E-03         6.72134        -2.06675        -2.76127        -2.03860         6.69318        -2.76127    -789.024E-03     345.304E-03    -171.570E-03    -173.734E-03    -169.586E-03     341.156E-03    -171.570E-03     92.3928E-03     69.3967E+06     47.1988E+06    -37.1858E+06    -37.1779E+06     47.1909E+06     69.3967E+06     232.244E+03         57.8213
             585     10.1172E-03     50.6737E-03         6.82692        -2.17830        -2.75249        -2.14891         6.79753        -2.75249    -519.578E-03     344.317E-03    -171.550E-03    -172.767E-03    -169.151E-03     340.700E-03    -171.550E-03     86.1027E-03     61.4164E+06     43.6827E+06    -45.6449E+06    -45.6346E+06     43.6725E+06     61.4164E+06     417.661E+03         56.1017
             586     9.27219E-03     50.5725E-03         6.88638        -2.23595        -2.74327        -2.22296         6.87339        -2.74327    -272.091E-03     343.147E-03    -171.390E-03    -171.757E-03    -168.576E-03     340.160E-03    -171.584E-03     78.0895E-03     55.2089E+06     37.5640E+06    -55.2404E+06    -55.2340E+06     37.5576E+06     55.2089E+06     580.822E+03         54.8490
             587     8.42824E-03     50.4832E-03         6.95820        -2.29807        -2.73698        -2.28506         6.94519        -2.73698    -267.927E-03     342.738E-03    -171.086E-03    -171.652E-03    -168.705E-03     340.356E-03    -171.652E-03     69.6565E-03     44.3068E+06     11.8963E+06    -65.6270E+06    -65.6140E+06     11.8832E+06     44.3068E+06     836.609E+03         53.9111
             588     7.58503E-03     50.4074E-03         7.02616        -2.35879        -2.73458        -2.35619         7.02356        -2.73458     64.8542E-03     342.517E-03    -170.800E-03    -171.717E-03    -169.042E-03     340.760E-03    -171.717E-03     59.6992E-03     25.6691E+06    -40.8824E+06    -76.2055E+06    -76.1891E+06    -40.8988E+06     25.6691E+06     320.819E+03         53.1541
             589     6.74299E-03     50.3475E-03         7.13054        -2.46358        -2.73490        -2.44605         7.11302        -2.73490    -679.468E-03     342.530E-03    -170.776E-03    -171.754E-03    -169.618E-03     341.372E-03    -171.754E-03     48.3395E-03     3.20992E+06    -82.7284E+06    -105.232E+06    -87.6162E+06    -100.344E+06     3.20992E+06    -87.6196E+03         52.4909
             590     5.89831E-03     50.2973E-03         7.23966        -2.57462        -2.73665        -2.53034         7.19538        -2.73665     172.479E-03     342.592E-03    -170.820E-03    -171.772E-03    -170.162E-03     341.904E-03    -171.742E-03     37.1503E-03    -18.7135E+06    -99.0579E+06    -149.068E+06    -99.0631E+06    -149.063E+06    -18.7135E+06     383.093E+03         51.8802
             591     5.05625E-03     50.2626E-03         7.30282        -2.63495        -2.74069        -2.59351         7.26138        -2.74069     214.254E-03     342.434E-03    -170.698E-03    -171.736E-03    -170.349E-03     342.056E-03    -171.707E-03     27.5147E-03    -42.2345E+06    -110.856E+06    -193.787E+06    -110.861E+06    -193.782E+06    -42.2345E+06     336.808E+03         51.3121
             592     4.21498E-03     50.2429E-03         7.35054        -2.66859        -2.74906        -2.63395         7.31591        -2.74906     122.418E-03     342.288E-03    -170.585E-03    -171.703E-03    -170.391E-03     342.094E-03    -171.703E-03     19.6142E-03    -66.7387E+06    -122.069E+06    -239.267E+06    -122.077E+06    -239.259E+06    -66.7387E+06     187.017E+03         50.7950
             593     3.37005E-03     50.2289E-03         7.50975        -2.73026        -2.84064        -2.65947         7.36251        -2.76419    -958.727E-03     342.460E-03    -170.714E-03    -171.746E-03    -170.628E-03     342.374E-03    -171.746E-03     12.9292E-03    -91.1523E+06    -132.504E+06    -281.655E+06    -132.521E+06    -281.638E+06    -91.1523E+06     520.256E+03         50.3443
             594     2.52730E-03     50.2227E-03         7.57996        -2.78169        -2.86336        -2.69805         7.41987        -2.78691        -2.41140     343.054E-03    -171.203E-03    -171.851E-03    -171.257E-03     343.023E-03    -171.766E-03     7.58429E-03    -114.526E+06    -143.206E+06    -317.348E+06    -143.223E+06    -317.331E+06    -114.526E+06     970.592E+03         49.9759
             595     1.68489E-03     50.2202E-03         7.53059        -2.79209        -2.81620        -2.76162         7.49588        -2.81195    -675.187E-03     343.367E-03    -171.378E-03    -171.989E-03    -171.706E-03     343.360E-03    -171.653E-03     3.56640E-03    -136.393E+06    -151.710E+06    -341.217E+06    -151.717E+06    -341.210E+06    -136.393E+06     810.250E+03         49.7022
             596     843.366E-06     50.2189E-03         7.84532        -2.44197        -3.51305        -2.13678         7.53588        -3.50880        -2.21953     343.020E-03    -170.846E-03    -172.175E-03    -171.848E-03     343.019E-03    -171.171E-03     630.810E-06    -153.476E+06    -157.628E+06    -360.707E+06    -157.567E+06    -360.695E+06    -153.549E+06    -199.263E+03         49.5299
             597     14.3328E-03     49.9962E-03         5.25826        -1.36327        -2.12528        -1.32485         5.21984        -2.12528     176.435E-03     351.803E-03    -171.625E-03    -180.178E-03    -171.860E-03     343.486E-03    -171.625E-03     124.392E-03     111.511E+06     87.2941E+06    -7.50736E+06    -7.50428E+06      87.291E+06     111.511E+06     132.617E+03         68.3203
             598     13.4908E-03     49.7671E-03         5.30112        -1.43096        -2.08524        -1.40371         5.27387        -2.08524     732.641E-03     352.206E-03    -171.572E-03    -180.634E-03    -171.482E-03     343.054E-03    -171.572E-03     134.168E-03     91.0620E+06     69.7521E+06    -14.6293E+06    -14.6250E+06     69.7479E+06     91.0620E+06    -188.429E+03         65.7772
             599     12.6450E-03     49.6406E-03         5.31491        -1.47508        -2.04478        -1.47285         5.31268        -2.04478     236.667E-03     346.566E-03    -171.583E-03    -174.983E-03    -169.579E-03     341.162E-03    -171.583E-03     105.359E-03     83.3741E+06     55.8589E+06    -21.8524E+06    -21.8456E+06     55.8521E+06     83.3741E+06    -648.705E+03         62.8762
             600     11.8021E-03     49.4973E-03         5.33785        -1.53483        -2.00820        -1.53349         5.33651        -2.00820    -12.9493E-03     346.607E-03    -171.593E-03    -175.013E-03    -169.757E-03     341.351E-03    -171.593E-03     103.800E-03     78.4816E+06     49.4662E+06    -29.9728E+06    -29.9679E+06     49.4613E+06     78.4816E+06    -357.429E+03         60.1252
             601     10.9604E-03     49.3755E-03         5.38041        -1.61835        -1.97025        -1.57930         5.34135        -1.97025    -824.907E-03     345.205E-03    -171.560E-03    -173.646E-03    -169.484E-03     341.044E-03    -171.560E-03     92.5340E-03     69.1903E+06     47.0111E+06    -37.9556E+06    -37.9541E+06     47.0097E+06     69.1903E+06    -169.017E+03         57.8483
             602     10.1159E-03     49.2661E-03         5.37347        -1.64720        -1.93402        -1.60767         5.33395        -1.93402    -593.964E-03     344.250E-03    -171.547E-03    -172.702E-03    -169.022E-03     340.569E-03    -171.547E-03     86.8494E-03     60.8741E+06     43.7764E+06    -46.3340E+06    -46.3295E+06     43.7719E+06     60.8741E+06    -37.2242E+03         56.1249
             603     9.27279E-03     49.1654E-03         5.33852        -1.64069        -1.89929        -1.62141         5.31923        -1.89929    -360.082E-03     343.217E-03    -171.324E-03    -171.892E-03    -168.587E-03     340.176E-03    -171.589E-03     78.7805E-03     54.7205E+06      37.354E+06    -55.6255E+06    -55.6136E+06     37.3421E+06     54.7205E+06     62.4558E+03         54.8661
             604     8.42878E-03     49.0755E-03         5.33478        -1.66048        -1.86753        -1.64111         5.31541        -1.86753    -354.602E-03     342.587E-03    -170.920E-03    -171.667E-03    -168.559E-03     340.226E-03    -171.667E-03     69.3014E-03     44.4555E+06     11.4702E+06    -65.1229E+06    -65.1131E+06     11.4604E+06     44.4555E+06    -51.4482E+03         53.9229
             605     7.58439E-03     48.9997E-03         5.31945        -1.66901        -1.83928        -1.66569         5.31613        -1.83928    -25.5834E-03     342.772E-03    -171.048E-03    -171.724E-03    -169.338E-03     341.062E-03    -171.724E-03     58.9247E-03     26.1262E+06    -40.5354E+06    -75.7696E+06    -75.7403E+06    -40.5647E+06     26.1262E+06     300.392E+03         53.1625
             606     6.74121E-03     48.9362E-03         5.34669        -1.71245        -1.82249        -1.69482         5.32161        -1.81504    -724.452E-03     342.911E-03    -171.199E-03    -171.712E-03    -170.050E-03     341.762E-03    -171.712E-03     48.2482E-03     2.97208E+06    -82.0906E+06    -105.874E+06    -87.6095E+06    -100.355E+06     2.97208E+06     171.319E+03         52.4980
             607     5.90163E-03     48.8892E-03         5.37869        -1.74991        -1.82025        -1.72002         5.32392        -1.79537     99.0288E-03     342.137E-03    -170.439E-03    -171.698E-03    -169.735E-03     341.433E-03    -171.698E-03     37.5734E-03    -19.4440E+06    -99.2293E+06    -150.072E+06    -99.2316E+06    -150.069E+06    -19.4440E+06     120.238E+03         51.8870
             608     5.05645E-03     48.8568E-03         5.36454        -1.75172        -1.80600        -1.72497         5.31348        -1.78170     150.152E-03     341.673E-03    -169.907E-03    -171.766E-03    -169.511E-03     341.277E-03    -171.766E-03     28.0878E-03    -42.0941E+06    -109.829E+06    -192.828E+06    -109.833E+06    -192.824E+06    -42.0941E+06     171.218E+03         51.3195
             609     4.21131E-03     48.8332E-03         5.34075        -1.74875        -1.78333        -1.71371         5.29883        -1.77645     45.3050E-03     342.413E-03    -170.547E-03    -171.867E-03    -170.343E-03     342.209E-03    -171.867E-03     20.0653E-03    -65.7275E+06    -120.951E+06    -240.334E+06    -120.960E+06    -240.324E+06    -65.7275E+06     161.470E+03         50.8038
             610     3.37057E-03     48.8223E-03         5.49111        -1.76809        -1.91367        -1.71160         5.30218        -1.78124    -983.171E-03     343.267E-03    -171.223E-03    -172.043E-03    -171.316E-03     343.179E-03    -171.863E-03     13.0693E-03    -89.3751E+06    -132.340E+06    -282.811E+06    -132.357E+06    -282.794E+06    -89.3751E+06     986.225E+03         50.3547
             611     2.52746E-03     48.8134E-03         5.55523        -1.79441        -1.95728        -1.73232         5.33056        -1.79469        -2.43231     343.520E-03    -171.466E-03    -172.054E-03    -171.787E-03     343.492E-03    -171.705E-03     7.11434E-03    -113.147E+06    -142.459E+06    -315.645E+06    -142.470E+06    -315.634E+06    -113.147E+06     590.449E+03         49.9873
             612     1.68582E-03     48.8113E-03         5.44116        -1.79867        -1.84545        -1.76504         5.37737        -1.81530    -641.089E-03     343.184E-03    -171.341E-03    -171.842E-03    -171.756E-03     343.179E-03    -171.422E-03     3.08306E-03    -135.323E+06    -150.797E+06    -340.306E+06    -150.798E+06    -340.305E+06    -135.323E+06    -238.210E+03         49.7136
             613     843.401E-06     48.8111E-03         6.05246        -1.26001        -3.01019    -644.951E-03         5.43740        -3.01019        -2.37294     342.419E-03    -170.473E-03    -171.945E-03    -171.475E-03     342.417E-03    -170.942E-03     1.45255E-03    -152.212E+06    -157.291E+06    -360.940E+06    -157.221E+06    -360.938E+06    -152.284E+06     400.893E+03         49.5409
             614     14.3344E-03     48.5864E-03         4.37256        -1.18998        -1.48498        -1.19802         4.33150        -1.43588     150.451E-03     352.045E-03    -171.623E-03    -180.422E-03    -172.030E-03     343.653E-03    -171.623E-03     124.746E-03     111.747E+06     86.9537E+06    -7.23269E+06    -7.22878E+06     86.9498E+06     111.747E+06     104.020E+03         68.2811
             615     13.4902E-03     48.3580E-03         4.29246        -1.15851        -1.42899        -1.19861         4.26386        -1.36029     680.922E-03     352.477E-03    -171.561E-03    -180.916E-03    -171.695E-03     343.256E-03    -171.561E-03     134.525E-03     91.8226E+06     70.2431E+06    -14.2008E+06    -14.1955E+06     70.2378E+06     91.8226E+06    -25.8953E+03         65.7608
             616     12.6474E-03     48.2352E-03         4.17653        -1.11582        -1.35308        -1.18127         4.17459        -1.28569     187.169E-03     346.853E-03    -171.555E-03    -175.298E-03    -169.878E-03     341.433E-03    -171.555E-03     105.523E-03     83.7825E+06     55.9049E+06    -21.5141E+06    -21.5009E+06     55.8918E+06     83.7825E+06     344.971E+03         62.8837
             617     11.8036E-03     48.0858E-03         4.07584        -1.08108        -1.29113        -1.15336         4.07374        -1.21676    -77.0377E-03     346.278E-03    -171.570E-03    -174.708E-03    -169.375E-03     340.945E-03    -171.570E-03     104.501E-03     79.1371E+06     49.2070E+06    -28.6688E+06    -28.6575E+06     49.1957E+06     79.1371E+06     461.746E+03         60.1473
             618     10.9585E-03     47.9697E-03         4.02341        -1.06275        -1.26557        -1.12127         3.96464        -1.14827    -879.722E-03     344.602E-03    -171.577E-03    -173.025E-03    -168.819E-03     340.396E-03    -171.577E-03     92.9123E-03     69.4775E+06     47.1077E+06    -37.0823E+06    -37.0820E+06     47.1074E+06     69.4775E+06     15.5503E+03         57.8732
             619     10.1148E-03     47.8567E-03         3.91594        -1.01720        -1.20899        -1.08598         3.85839        -1.08267    -673.618E-03     344.083E-03    -171.603E-03    -172.480E-03    -168.792E-03     340.395E-03    -171.603E-03     86.9017E-03     60.9348E+06     44.0661E+06    -46.0068E+06    -45.9979E+06     44.0572E+06     60.9348E+06    -613.498E+03         56.1463
             620     9.27171E-03     47.7566E-03         3.77934    -960.119E-03        -1.12849        -1.03792         3.74764        -1.01899    -450.910E-03     343.736E-03    -171.566E-03    -172.170E-03    -169.049E-03     340.687E-03    -171.638E-03     78.9624E-03     55.0826E+06     37.5354E+06    -55.2308E+06    -55.2117E+06     37.5164E+06     55.0826E+06    -1.23986E+06         54.8822
             621     8.42841E-03     47.6681E-03         3.67215    -921.296E-03        -1.05622    -985.545E-03         3.63967    -959.489E-03    -419.879E-03     343.340E-03    -171.427E-03    -171.913E-03    -169.305E-03     340.963E-03    -171.657E-03     69.6462E-03     43.6695E+06     10.2863E+06    -65.9261E+06    -65.9145E+06     10.2747E+06     43.6695E+06    -890.346E+03         53.9346
             622     7.58626E-03     47.5902E-03         3.54150    -874.093E-03    -969.046E-03    -930.969E-03         3.53554    -906.204E-03    -80.0973E-03     342.754E-03    -171.020E-03    -171.733E-03    -169.350E-03     341.023E-03    -171.674E-03     59.2839E-03     25.0043E+06    -42.1220E+06    -77.2798E+06    -77.2504E+06    -42.1513E+06     25.0043E+06     82.9270E+03         53.1711
             623     6.74410E-03     47.5276E-03         3.48865    -848.105E-03    -943.294E-03    -889.368E-03         3.44756    -860.939E-03    -727.336E-03     341.938E-03    -170.213E-03    -171.724E-03    -169.046E-03     340.770E-03    -171.724E-03     48.5260E-03     3.20315E+06    -81.9535E+06    -105.471E+06    -87.6932E+06    -99.7317E+06     3.20315E+06     471.016E+03         52.5050
             624     5.89730E-03     47.4817E-03         3.46378    -823.672E-03    -948.452E-03    -863.153E-03         3.37848    -823.672E-03     77.7032E-03     341.795E-03    -169.977E-03    -171.817E-03    -169.246E-03     341.064E-03    -171.817E-03     38.3454E-03    -19.3285E+06    -98.7825E+06    -149.683E+06    -98.8012E+06    -149.665E+06    -19.3285E+06    -176.958E+03         51.8941
             625     5.05539E-03     47.4494E-03         3.39263    -794.079E-03    -910.895E-03    -827.167E-03         3.30890    -794.079E-03     111.659E-03     342.385E-03    -170.492E-03    -171.893E-03    -170.082E-03     341.975E-03    -171.893E-03     28.5402E-03    -42.7655E+06    -111.175E+06    -193.945E+06    -111.194E+06    -193.925E+06    -42.7655E+06    -172.472E+03         51.3283
             626     4.21301E-03     47.4266E-03         3.30949    -770.923E-03    -852.236E-03    -781.469E-03         3.24152    -773.717E-03    -16.1725E-03     342.979E-03    -171.067E-03    -171.912E-03    -170.876E-03     342.788E-03    -171.912E-03     19.4187E-03    -65.6273E+06    -122.889E+06    -241.646E+06    -122.902E+06    -241.633E+06    -65.6273E+06     739.292E+03         50.8146
             627     3.36889E-03     47.4105E-03         3.50371    -761.967E-03        -1.05708    -744.201E-03         3.19363    -764.761E-03        -1.00310     343.421E-03    -171.421E-03    -172.000E-03    -171.524E-03     343.344E-03    -171.820E-03     12.1086E-03    -89.7326E+06    -133.636E+06    -282.204E+06    -133.643E+06    -282.198E+06    -89.7326E+06     700.907E+03         50.3671
             628     2.52890E-03     47.4051E-03         3.57951    -765.683E-03        -1.13127    -742.184E-03         3.19042    -765.683E-03        -2.39832     343.193E-03    -171.272E-03    -171.921E-03    -171.510E-03     343.166E-03    -171.657E-03     7.13256E-03    -115.377E+06    -143.450E+06    -313.839E+06    -143.452E+06    -313.837E+06    -115.377E+06    -47.5267E+03         50.0005
             629     1.68593E-03     47.4031E-03         3.32909    -770.712E-03    -883.826E-03    -753.992E-03         3.20095    -772.406E-03    -580.305E-03     342.818E-03    -171.133E-03    -171.684E-03    -171.209E-03     342.809E-03    -171.600E-03     3.91099E-03    -137.693E+06    -151.597E+06    -341.447E+06    -151.599E+06    -341.445E+06    -137.693E+06    -304.349E+03         49.7274
             630     842.193E-06     47.4063E-03         4.43061    -363.395E-03        -2.38109     819.255E-03         3.24144        -2.37458        -2.24921     343.160E-03    -171.209E-03    -171.950E-03    -171.348E-03     343.157E-03    -171.810E-03     1.46135E-03    -151.927E+06    -157.361E+06    -361.319E+06    -156.372E+06    -361.316E+06    -152.919E+06    -309.736E+03         49.5550
             631     14.3336E-03     47.1811E-03         3.49389    -734.086E-03        -1.12401        -1.07919         3.44907    -734.086E-03     125.117E-03     351.833E-03    -171.623E-03    -180.210E-03    -171.785E-03     343.408E-03    -171.623E-03     124.757E-03     111.456E+06     86.3444E+06    -7.30642E+06    -7.30135E+06     86.3393E+06     111.456E+06     22.8643E+03         68.2413
             632     13.4892E-03     46.9476E-03         3.28318    -624.554E-03        -1.02338    -992.374E-03         3.25217    -624.554E-03     631.867E-03     352.561E-03    -171.572E-03    -180.988E-03    -171.704E-03     343.277E-03    -171.572E-03     134.957E-03     91.6100E+06     69.5528E+06    -14.9843E+06    -14.9786E+06     69.5470E+06     91.6100E+06     201.330E+03         65.7420
             633     12.6467E-03     46.8250E-03         3.03807    -517.816E-03    -891.012E-03    -888.857E-03         3.03592    -517.816E-03     162.867E-03     347.041E-03    -171.564E-03    -175.476E-03    -170.038E-03     341.602E-03    -171.564E-03     105.742E-03     84.4434E+06     56.2260E+06    -21.4777E+06    -21.4617E+06     56.2100E+06     84.4434E+06     275.821E+03         62.8883
             634     11.8023E-03     46.6807E-03         2.82585    -418.523E-03    -788.929E-03    -785.495E-03         2.82242    -418.523E-03    -107.155E-03     346.076E-03    -171.579E-03    -174.496E-03    -169.149E-03     340.728E-03    -171.579E-03     104.595E-03     79.0814E+06     48.9219E+06    -28.2708E+06    -28.2549E+06     48.9059E+06     79.0814E+06     314.399E+03         60.1671
             635     10.9589E-03     46.5601E-03         2.70261    -320.299E-03    -776.448E-03    -683.704E-03         2.60986    -320.299E-03    -893.193E-03     344.435E-03    -171.603E-03    -172.832E-03    -168.623E-03     340.226E-03    -171.603E-03     92.9020E-03     69.6924E+06     47.4011E+06    -36.1100E+06    -36.1090E+06     47.4000E+06     69.6924E+06     147.157E+03         57.8975
             636     10.1154E-03     46.4500E-03         2.49182    -225.351E-03    -672.444E-03    -582.076E-03         2.40145    -225.351E-03    -684.226E-03     344.198E-03    -171.636E-03    -172.561E-03    -168.883E-03     340.519E-03    -171.636E-03     86.8034E-03     61.4233E+06     44.9550E+06    -44.7883E+06    -44.7798E+06     44.9465E+06     61.4233E+06    -433.920E+03         56.1679
             637     9.27088E-03     46.3474E-03         2.24496    -133.528E-03    -523.689E-03    -459.490E-03         2.18077    -133.528E-03    -462.350E-03     343.862E-03    -171.665E-03    -172.196E-03    -169.168E-03     340.833E-03    -171.665E-03     78.7153E-03     54.7465E+06     37.0437E+06    -54.9890E+06    -54.9745E+06     37.0292E+06     54.7465E+06    -594.280E+03         54.8985
             638     8.42891E-03     46.2576E-03         2.02673    -48.5980E-03    -391.719E-03    -322.970E-03         1.95798    -48.5980E-03    -406.597E-03     343.354E-03    -171.411E-03    -171.942E-03    -169.277E-03     340.961E-03    -171.684E-03     69.8972E-03     43.2141E+06     9.38490E+06    -66.0338E+06    -66.0246E+06     9.37572E+06     43.2141E+06    -446.415E+03         53.9459
             639     7.58583E-03     46.1817E-03         1.77491     26.4732E-03    -216.096E-03    -193.125E-03         1.75194     26.4732E-03    -71.9722E-03     342.395E-03    -170.598E-03    -171.797E-03    -168.868E-03     340.605E-03    -171.737E-03     60.2840E-03     24.9227E+06    -43.2593E+06    -77.0382E+06    -76.9849E+06    -43.3126E+06     24.9227E+06    -614.045E+03         53.1793
             640     6.74043E-03     46.1212E-03         1.71835     90.5492E-03    -225.863E-03    -87.0029E-03         1.57949     90.5492E-03    -694.472E-03     341.918E-03    -170.081E-03    -171.837E-03    -168.880E-03     340.718E-03    -171.837E-03     49.1555E-03     3.31614E+06    -83.1904E+06    -105.192E+06    -87.8371E+06    -100.545E+06     3.31614E+06    -380.178E+03         52.5123
             641     5.89846E-03     46.0753E-03         1.74366     144.256E-03    -309.496E-03    -2.01096E-03         1.43618     144.256E-03     81.7735E-03     342.356E-03    -170.435E-03    -171.921E-03    -169.726E-03     341.646E-03    -171.921E-03     37.7108E-03    -19.1042E+06    -99.5860E+06    -149.541E+06    -99.6305E+06    -149.496E+06    -19.1042E+06     30.8727E+03         51.9024
             642     5.05430E-03     46.0386E-03         1.68221     188.314E-03    -297.280E-03     73.1197E-03         1.31181     188.314E-03     101.697E-03     342.975E-03    -171.053E-03    -171.922E-03    -170.672E-03     342.594E-03    -171.922E-03     27.5790E-03    -42.5345E+06    -111.790E+06    -194.975E+06    -111.825E+06    -194.940E+06    -42.5345E+06     486.352E+03         51.3383
             643     4.21296E-03     46.0171E-03         1.60018     223.264E-03    -255.467E-03     136.260E-03         1.20845     223.264E-03    -31.8359E-03     343.187E-03    -171.335E-03    -171.852E-03    -171.141E-03     342.993E-03    -171.852E-03     19.6884E-03    -66.6319E+06    -123.292E+06    -241.487E+06    -123.298E+06    -241.480E+06    -66.6319E+06     585.367E+03         50.8261
             644     3.37236E-03     46.0023E-03         1.95623     248.116E-03    -640.811E-03     201.324E-03         1.11410     248.116E-03        -1.01747     342.833E-03    -171.039E-03    -171.794E-03    -170.951E-03     342.744E-03    -171.794E-03     12.8880E-03    -91.4085E+06    -134.297E+06    -281.470E+06    -134.300E+06    -281.467E+06    -91.4085E+06    -172.196E+03         50.3798
             645     2.52698E-03     45.9972E-03         2.10277     262.285E-03    -799.917E-03     242.732E-03         1.06012     262.285E-03        -2.35143     342.804E-03    -170.972E-03    -171.832E-03    -170.943E-03     342.775E-03    -171.832E-03     7.35067E-03    -115.671E+06    -144.037E+06    -314.716E+06    -144.042E+06    -314.711E+06    -115.671E+06     26.7406E+03         50.0144
             646     1.68359E-03     45.9967E-03         1.68406     265.956E-03    -387.560E-03     270.863E-03         1.02564     265.956E-03    -634.225E-03     343.391E-03    -171.429E-03    -171.962E-03    -171.473E-03     343.382E-03    -171.910E-03     3.50867E-03    -137.672E+06    -151.380E+06    -341.735E+06    -151.383E+06    -341.732E+06    -137.672E+06     171.429E+03         49.7424
             647     842.027E-06     45.9955E-03         3.48533    -55.0603E-03        -1.89095         2.18613         1.00808        -1.65489        -2.08685     343.801E-03    -171.605E-03    -172.196E-03    -172.063E-03     343.800E-03    -171.737E-03     973.756E-06    -153.051E+06    -157.951E+06    -362.616E+06    -156.962E+06    -362.613E+06    -154.044E+06    -685.467E+03         49.5710
             648     14.3337E-03     45.7704E-03         2.62967    -41.8692E-03        -1.00875    -954.519E-03         2.57543    -41.8692E-03     119.979E-03     351.887E-03    -171.618E-03    -180.269E-03    -171.950E-03     343.568E-03    -171.618E-03     124.328E-03     111.850E+06     85.8310E+06    -7.32588E+06    -7.32003E+06     85.8251E+06     111.850E+06     50.2521E+03         68.2010
             649     13.4909E-03     45.5414E-03         2.28853     97.2525E-03    -818.416E-03    -778.677E-03         2.24879     97.2525E-03     619.877E-03     351.863E-03    -171.582E-03    -180.280E-03    -171.074E-03     342.657E-03    -171.582E-03     134.596E-03     93.0762E+06     69.3229E+06    -13.5528E+06    -13.5425E+06     69.3126E+06     93.0762E+06     330.875E+03         65.7228
             650     12.6456E-03     45.4151E-03         1.92773     232.305E-03    -605.779E-03    -601.454E-03         1.92340     232.305E-03     186.686E-03     346.524E-03    -171.613E-03    -174.912E-03    -169.392E-03     341.005E-03    -171.613E-03     106.445E-03     84.8125E+06     56.0845E+06    -20.7490E+06    -20.7339E+06     56.0694E+06     84.8125E+06     340.260E+03         62.8908
             651     11.8034E-03     45.2725E-03         1.61638     359.065E-03    -439.389E-03    -433.309E-03         1.61029     359.065E-03    -73.1588E-03     346.672E-03    -171.634E-03    -175.038E-03    -169.661E-03     341.295E-03    -171.634E-03     104.982E-03     78.7497E+06     49.2953E+06    -28.9539E+06    -28.9390E+06     49.2804E+06     78.7497E+06    -85.5634E+03         60.1853
             652     10.9582E-03     45.1540E-03         1.48045     483.897E-03    -448.112E-03    -264.420E-03         1.29676     483.897E-03    -830.867E-03     344.999E-03    -171.627E-03    -173.372E-03    -169.152E-03     340.779E-03    -171.627E-03     93.1191E-03     70.2991E+06     47.5863E+06    -36.2708E+06    -36.2631E+06     47.5786E+06     70.2991E+06    -361.248E+03         57.9223
             653     10.1139E-03     45.0400E-03         1.40284     412.307E-03    -316.265E-03    -84.1342E-03     978.627E-03     604.386E-03    -632.318E-03     344.472E-03    -171.628E-03    -172.845E-03    -169.182E-03     340.809E-03    -171.628E-03     86.6565E-03     61.8582E+06     44.6239E+06    -44.4391E+06    -44.4348E+06     44.6196E+06     61.8582E+06    -65.7480E+03         56.1907
             654     9.27243E-03     44.9390E-03         1.31082     412.830E-03    -236.022E-03     114.378E-03     653.771E-03     719.478E-03    -423.382E-03     343.573E-03    -171.368E-03    -172.205E-03    -168.930E-03     340.582E-03    -171.652E-03     78.1810E-03     55.2525E+06     36.9734E+06    -54.1986E+06    -54.1920E+06     36.9668E+06     55.2525E+06     12.1856E+03         54.9154
             655     8.42777E-03     44.8488E-03         1.23514     569.403E-03    -324.076E-03     312.074E-03     342.761E-03     825.633E-03    -360.144E-03     342.417E-03    -170.681E-03    -171.735E-03    -168.316E-03     340.049E-03    -171.733E-03     69.4235E-03     44.2628E+06     9.21207E+06    -64.5092E+06    -64.4989E+06     9.20173E+06     44.2628E+06    -498.879E+03         53.9571
             656     7.58338E-03     44.7746E-03         1.13304     670.653E-03    -328.275E-03     502.902E-03     51.9094E-03     920.605E-03    -35.0564E-03     342.319E-03    -170.470E-03    -171.848E-03    -168.726E-03     340.574E-03    -171.848E-03     59.4314E-03     25.5631E+06    -44.0017E+06    -75.9115E+06    -75.8539E+06    -44.0593E+06     25.5631E+06    -608.006E+03         53.1873
             657     6.74096E-03     44.7133E-03         1.16615     819.494E-03    -514.402E-03     670.105E-03    -201.893E-03         1.00303    -611.919E-03     342.724E-03    -170.808E-03    -171.916E-03    -169.655E-03     341.572E-03    -171.916E-03     48.2927E-03     3.24825E+06    -84.4353E+06    -105.789E+06    -88.4504E+06    -101.774E+06     3.24825E+06    -42.4209E+03         52.5198
             658     5.89787E-03     44.6642E-03         1.25438     951.112E-03    -741.280E-03     803.177E-03    -412.567E-03         1.07360     136.280E-03     342.788E-03    -170.866E-03    -171.922E-03    -170.156E-03     342.078E-03    -171.922E-03     37.8043E-03    -19.3976E+06    -100.534E+06    -150.387E+06    -100.590E+06    -150.330E+06    -19.3976E+06     545.073E+03         51.9106
             659     5.05695E-03     44.6316E-03         1.27448         1.04504    -860.832E-03     922.375E-03    -596.949E-03         1.13326     127.674E-03     342.766E-03    -170.858E-03    -171.908E-03    -170.451E-03     342.359E-03    -171.908E-03     28.5330E-03    -42.7170E+06    -111.200E+06    -195.290E+06    -111.219E+06    -195.270E+06    -42.7170E+06     451.514E+03         51.3475
             660     4.21280E-03     44.6069E-03         1.27259         1.10977    -927.810E-03         1.02307    -750.967E-03         1.18245    -33.4268E-03     342.797E-03    -170.889E-03    -171.908E-03    -170.683E-03     342.591E-03    -171.908E-03     19.9860E-03    -66.6591E+06    -121.906E+06    -241.127E+06    -121.908E+06    -241.125E+06    -66.6591E+06    -57.8609E+03         50.8364
             661     3.36830E-03     44.5952E-03         1.64642         1.19015        -1.38823         1.10921    -882.711E-03         1.22185        -1.05581     342.836E-03    -170.893E-03    -171.943E-03    -170.809E-03     342.752E-03    -171.943E-03     12.6516E-03    -91.0106E+06    -133.193E+06    -281.540E+06    -133.200E+06    -281.533E+06    -91.0106E+06    -203.849E+03         50.3915
             662     2.52696E-03     44.5898E-03         1.78486         1.25401        -1.59569         1.17392    -984.756E-03         1.25401        -2.30712     343.282E-03    -171.283E-03    -171.999E-03    -171.253E-03     343.252E-03    -171.999E-03     7.34431E-03    -114.576E+06    -143.020E+06    -315.600E+06    -143.032E+06    -315.587E+06    -114.576E+06    -224.071E+03         50.0275
             663     1.68556E-03     44.5860E-03         1.43904         1.27285        -1.26887         1.24510        -1.07938         1.27730    -720.596E-03     343.748E-03    -171.683E-03    -172.065E-03    -171.727E-03     343.739E-03    -172.012E-03     3.57007E-03    -136.983E+06    -151.530E+06    -342.035E+06    -151.539E+06    -342.026E+06    -136.983E+06    -77.3014E+03         49.7569
             664     842.915E-06     44.5882E-03         3.71446    -229.869E-03        -2.03836         3.38506        -1.12623    -812.597E-03        -1.95132     343.921E-03    -171.704E-03    -172.218E-03    -172.080E-03     343.919E-03    -171.839E-03     1.54335E-03    -152.773E+06    -158.047E+06    -362.883E+06    -157.283E+06    -362.870E+06    -153.551E+06     765.779E+03         49.5864
             665     14.3345E-03     44.3603E-03         1.80807     616.755E-03    -903.549E-03    -826.617E-03         1.73114     616.755E-03     128.843E-03     351.557E-03    -171.636E-03    -179.921E-03    -171.458E-03     343.094E-03    -171.636E-03     125.246E-03     112.397E+06     85.5238E+06    -7.09589E+06    -7.09081E+06     85.5187E+06     112.397E+06    -365.105E+03         68.1604
             666     13.4898E-03     44.1345E-03         1.50140     632.021E-03    -638.845E-03    -575.338E-03         1.28942     780.488E-03     640.711E-03     351.923E-03    -171.624E-03    -180.299E-03    -170.949E-03     342.573E-03    -171.624E-03     135.536E-03     93.1028E+06     67.8733E+06    -13.6523E+06    -13.6429E+06     67.8639E+06     93.1028E+06    -139.552E+03         65.7029
             667     12.6449E-03     44.0096E-03         1.32978     494.837E-03    -355.062E-03    -328.508E-03     858.723E-03     939.342E-03     247.413E-03     346.682E-03    -171.662E-03    -175.020E-03    -169.484E-03     341.146E-03    -171.662E-03     106.648E-03     85.4222E+06     55.6740E+06    -20.4785E+06    -20.4664E+06     55.6619E+06     85.4222E+06     828.104E+03         62.8940
             668     11.7992E-03     43.8610E-03         1.23034     469.409E-03    -254.056E-03    -90.4815E-03     446.774E-03         1.08940    -393.078E-06     346.756E-03    -171.678E-03    -175.078E-03    -169.775E-03     341.453E-03    -171.678E-03     104.193E-03     80.0142E+06     51.1872E+06    -28.3171E+06    -28.3055E+06     51.1756E+06     80.0142E+06     336.789E+03         60.2046
             669     10.9589E-03     43.7452E-03         1.24946     678.071E-03    -505.754E-03     144.618E-03     41.2898E-03         1.23587    -746.776E-03     345.627E-03    -171.641E-03    -173.986E-03    -169.821E-03     341.462E-03    -171.641E-03     92.6466E-03     70.6443E+06     47.6819E+06    -37.1933E+06    -37.1844E+06     47.6730E+06     70.6443E+06    -627.266E+03         57.9476
             670     10.1164E-03     43.6319E-03         1.38141     683.932E-03    -665.292E-03     387.572E-03    -364.119E-03         1.37659    -574.255E-03     344.489E-03    -171.514E-03    -172.975E-03    -169.189E-03     340.803E-03    -171.615E-03     86.9211E-03     62.0299E+06     43.2520E+06    -45.7129E+06    -45.6973E+06     43.2364E+06     62.0299E+06    -779.412E+03         56.2139
             671     9.27187E-03     43.5290E-03         1.51065     726.767E-03    -853.138E-03     645.423E-03    -771.794E-03         1.51065    -388.964E-03     343.078E-03    -171.152E-03    -171.926E-03    -168.405E-03     340.065E-03    -171.660E-03     78.3968E-03     55.4772E+06     36.5118E+06    -54.2762E+06    -54.2611E+06     36.4967E+06     55.4772E+06    -572.066E+03         54.9326
             672     8.42818E-03     43.4445E-03         1.63487     977.852E-03        -1.24057     898.557E-03        -1.16127         1.63487    -319.172E-03     342.572E-03    -170.815E-03    -171.757E-03    -168.457E-03     340.214E-03    -171.757E-03     69.2507E-03         44.E+06     8.71754E+06    -64.9081E+06    -64.8973E+06     8.70672E+06         44.E+06    -215.250E+03         53.9689
             673     7.58396E-03     43.3650E-03         1.74743         1.15293        -1.53667         1.14275        -1.52649         1.74743    -15.6936E-03     342.575E-03    -170.726E-03    -171.849E-03    -169.012E-03     340.861E-03    -171.849E-03     58.9630E-03     24.8398E+06    -44.6492E+06    -76.8638E+06    -76.8294E+06    -44.6835E+06     24.8398E+06     347.159E+03         53.1960
             674     6.74135E-03     43.3035E-03         1.84686         1.38733        -1.87602         1.35783        -1.84652         1.84686    -547.963E-03     342.580E-03    -170.670E-03    -171.910E-03    -169.515E-03     341.425E-03    -171.910E-03     48.3622E-03     2.80460E+06    -84.1184E+06    -106.829E+06    -88.3820E+06    -102.565E+06     2.80460E+06     569.653E+03         52.5269
             675     5.89853E-03     43.2566E-03         1.93403         1.59977        -2.18477         1.53051        -2.11552         1.93403     173.204E-03     342.521E-03    -170.568E-03    -171.953E-03    -169.847E-03     341.800E-03    -171.953E-03     38.0917E-03    -18.9156E+06    -99.0502E+06    -150.599E+06    -99.0940E+06    -150.555E+06    -18.9156E+06     453.706E+03         51.9172
             676     5.05346E-03     43.2220E-03         2.01010         1.75915        -2.42872         1.69173        -2.36130         2.01010     140.930E-03     342.658E-03    -170.671E-03    -171.986E-03    -170.258E-03     342.244E-03    -171.986E-03     28.7916E-03    -42.6543E+06    -110.815E+06    -195.292E+06    -110.827E+06    -195.280E+06    -42.6543E+06     132.779E+03         51.3545
             677     4.21224E-03     43.1988E-03         2.07438         1.88034        -2.62086         1.83929        -2.57981         2.07438    -25.1403E-03     342.949E-03    -170.933E-03    -172.016E-03    -170.731E-03     342.747E-03    -172.016E-03     19.7040E-03    -66.8796E+06    -122.747E+06    -241.858E+06    -122.754E+06    -241.851E+06    -66.8796E+06     43.1269E+03         50.8446
             678     3.37050E-03     43.1875E-03         2.29060         2.04478        -3.00754         1.97467        -2.77199         2.12516        -1.08564     343.253E-03    -171.237E-03    -172.017E-03    -171.162E-03     343.178E-03    -172.017E-03     12.0513E-03    -91.5669E+06    -133.580E+06    -281.313E+06    -133.590E+06    -281.302E+06    -91.5669E+06     78.3688E+03         50.4010
             679     2.52701E-03     43.1793E-03         2.35293         2.16338        -3.18793         2.07315        -2.90815         2.16338        -2.24691     343.476E-03    -171.469E-03    -172.007E-03    -171.442E-03     343.449E-03    -172.007E-03     7.05839E-03    -115.954E+06    -143.377E+06    -316.323E+06    -143.387E+06    -316.312E+06    -115.954E+06    -483.495E+03         50.0384
             680     1.68356E-03     43.1790E-03         2.21645         2.18622        -3.08265         2.14897        -3.01962         2.19066    -779.434E-03     343.664E-03    -171.629E-03    -172.035E-03    -171.635E-03     343.656E-03    -172.021E-03     3.45746E-03    -137.704E+06    -151.678E+06    -343.278E+06    -151.686E+06    -343.271E+06    -137.704E+06    -81.1620E+03         49.7688
             681     841.106E-06     43.1775E-03         4.47059     85.0783E-03        -3.21893         4.31642        -3.06921     89.5248E-03        -1.66185     343.992E-03    -171.565E-03    -172.426E-03    -172.289E-03     343.989E-03    -171.700E-03     880.623E-06    -152.782E+06    -157.493E+06    -361.845E+06    -156.741E+06    -361.820E+06    -153.560E+06     339.274E+03         49.5990
             682     14.3324E-03     42.9565E-03         1.45739     830.430E-03    -838.433E-03    -709.053E-03     938.576E-03         1.21986     143.746E-03     351.088E-03    -171.683E-03    -179.405E-03    -170.892E-03     342.575E-03    -171.683E-03     125.498E-03     112.121E+06     85.2234E+06    -7.46259E+06    -7.45935E+06     85.2202E+06     112.121E+06    -43.2631E+03         68.1209
             683     13.4870E-03     42.7240E-03         1.44987     535.093E-03    -568.887E-03    -389.641E-03     402.114E-03         1.40361     672.465E-03     352.590E-03    -171.674E-03    -180.916E-03    -171.582E-03     343.256E-03    -171.674E-03     135.285E-03     92.6172E+06     66.8174E+06    -14.8496E+06    -14.8406E+06     66.8084E+06     92.6172E+06    -438.557E+03         65.6842
             684     12.6457E-03     42.6009E-03         1.58129     248.554E-03    -447.034E-03    -79.1178E-03    -119.362E-03         1.58129     318.535E-03     347.440E-03    -171.664E-03    -175.777E-03    -170.373E-03     342.037E-03    -171.664E-03     105.526E-03     85.5552E+06     55.1293E+06    -21.4407E+06    -21.4320E+06     55.1206E+06     85.5552E+06    -306.967E+03         62.9000
             685     11.8038E-03     42.4540E-03         1.74941     290.992E-03    -689.329E-03     222.215E-03    -620.552E-03         1.74941     82.8754E-03     346.557E-03    -171.650E-03    -174.907E-03    -169.666E-03     341.316E-03    -171.650E-03     103.624E-03     80.9542E+06     52.1062E+06    -28.4337E+06    -28.4298E+06     52.1023E+06     80.9542E+06     213.975E+03         60.2266
             686     10.9576E-03     42.3345E-03         1.91284     615.224E-03        -1.20524     519.155E-03        -1.10917         1.91284    -665.913E-03     344.922E-03    -171.639E-03    -173.283E-03    -169.108E-03     340.747E-03    -171.639E-03     92.6291E-03     71.1764E+06     48.4009E+06    -36.3834E+06    -36.3806E+06     48.3980E+06     71.1764E+06     10.7923E+03         57.9733
             687     10.1151E-03     42.2220E-03         2.06931     908.043E-03        -1.67997     813.927E-03        -1.58585         2.06931    -522.208E-03     344.074E-03    -171.560E-03    -172.514E-03    -168.691E-03     340.351E-03    -171.661E-03     87.3042E-03     61.3833E+06     42.8770E+06    -45.5099E+06    -45.4982E+06     42.8653E+06     61.3833E+06    -765.437E+03         56.2362
             688     9.27081E-03     42.1251E-03         2.21845         1.14932        -2.09078         1.11913        -2.06060         2.21845    -366.109E-03     343.436E-03    -171.498E-03    -171.939E-03    -168.642E-03     340.363E-03    -171.721E-03     79.2221E-03     53.8019E+06     34.8796E+06    -55.6164E+06    -55.6053E+06     34.8686E+06     53.8019E+06    -633.051E+03         54.9496
             689     8.42699E-03     42.0320E-03         2.35738         1.45493        -2.55203         1.42285        -2.51995         2.35738    -282.954E-03     343.390E-03    -171.513E-03    -171.877E-03    -169.231E-03     341.006E-03    -171.775E-03     69.7265E-03     42.6492E+06     7.57318E+06    -66.0516E+06    -66.0469E+06     7.56844E+06     42.6492E+06     163.552E+03         53.9812
             690     7.58559E-03     41.9589E-03         2.48420         1.70990        -2.94690         1.70450        -2.94150         2.48420     16.2228E-03     342.754E-03    -170.934E-03    -171.820E-03    -169.215E-03     341.035E-03    -171.820E-03     59.0957E-03     24.8383E+06    -44.7882E+06    -76.7376E+06    -76.6991E+06    -44.8266E+06     24.8383E+06     360.779E+03         53.2047
             691     6.74050E-03     41.8948E-03         2.59842         1.96767        -3.32798         1.95458        -3.31489         2.59842    -476.938E-03     342.226E-03    -170.338E-03    -171.887E-03    -169.185E-03     341.072E-03    -171.887E-03     48.2609E-03     2.62807E+06    -84.1771E+06    -106.385E+06    -87.9637E+06    -102.598E+06     2.62807E+06     86.5941E+03         52.5331
             692     5.89711E-03     41.8481E-03         2.69996         2.21746        -3.68720         2.18155        -3.65129         2.69996     217.934E-03     342.526E-03    -170.579E-03    -171.947E-03    -169.881E-03     341.828E-03    -171.947E-03     37.4209E-03    -19.4071E+06    -99.5725E+06    -151.429E+06    -99.5925E+06    -151.409E+06    -19.4071E+06     181.392E+03         51.9223
             693     5.05606E-03     41.8135E-03         2.78753         2.43300        -3.99676         2.39651        -3.96027         2.78753     173.184E-03     342.656E-03    -170.679E-03    -171.977E-03    -170.303E-03     342.280E-03    -171.977E-03     27.4009E-03    -41.5525E+06    -110.350E+06    -195.017E+06    -110.374E+06    -194.992E+06    -41.5525E+06     643.902E+03         51.3595
             694     4.21151E-03     41.7900E-03         2.85950         2.61044        -4.25350         2.58773        -4.23079         2.85950     18.5960E-03     342.790E-03    -170.779E-03    -172.010E-03    -170.597E-03     342.608E-03    -172.010E-03     18.9086E-03    -66.4479E+06    -122.112E+06    -242.088E+06    -122.141E+06    -242.059E+06    -66.4479E+06     163.912E+03         50.8500
             695     3.36880E-03     41.7771E-03         3.00606         2.81692        -4.61602         2.75651        -4.46316         2.91361        -1.06235     343.327E-03    -171.312E-03    -172.015E-03    -171.235E-03     343.250E-03    -172.015E-03     12.2485E-03    -91.0437E+06    -132.676E+06    -281.736E+06    -132.694E+06    -281.719E+06    -91.0437E+06    -492.921E+03         50.4073
             696     2.52731E-03     41.7722E-03         3.05038         2.94876        -4.79431         2.87769        -4.62162         2.94876        -2.13027     343.639E-03    -171.595E-03    -172.044E-03    -171.658E-03     343.612E-03    -171.954E-03     6.94819E-03    -114.896E+06    -142.577E+06    -316.875E+06    -142.579E+06    -316.872E+06    -114.896E+06    -216.027E+03         50.0456
             697     1.68548E-03     41.7690E-03         2.98986         2.96370        -4.75430         2.95701        -4.72145         2.96370    -827.081E-03     343.622E-03    -171.670E-03    -171.952E-03    -171.769E-03     343.616E-03    -171.847E-03     3.05136E-03    -136.649E+06    -151.200E+06    -344.636E+06    -151.201E+06    -344.636E+06    -136.649E+06     208.230E+03         49.7768
             698     843.589E-06     41.7693E-03         5.00144         1.00233        -4.83356         4.93056        -4.76267         1.00233        -1.40896     343.477E-03    -171.257E-03    -172.220E-03    -171.920E-03     343.475E-03    -171.555E-03     1.11767E-03    -152.205E+06    -156.621E+06    -361.133E+06    -156.464E+06    -361.108E+06    -152.388E+06     209.693E+03         49.6075
             699     14.3323E-03     41.5477E-03         1.74995     471.705E-03    -859.560E-03    -605.226E-03     217.372E-03         1.74995     159.966E-03     351.640E-03    -171.685E-03    -179.955E-03    -171.615E-03     343.301E-03    -171.685E-03     124.305E-03     112.848E+06     85.6699E+06    -7.39108E+06    -7.38875E+06     85.6675E+06     112.848E+06     414.620E+03         68.0859
             700     13.4898E-03     41.3168E-03         1.94832     178.111E-03    -803.523E-03    -229.142E-03    -396.271E-03         1.94832     697.929E-03     352.441E-03    -171.649E-03    -180.792E-03    -171.577E-03     343.226E-03    -171.649E-03     134.652E-03     93.2856E+06     67.5113E+06    -14.2478E+06    -14.2385E+06     67.5020E+06     93.2856E+06     114.235E+03         65.6703
             701     12.6454E-03     41.1885E-03         2.13961     188.662E-03        -1.04290     142.394E-03    -996.632E-03         2.13961     377.012E-03     347.151E-03    -171.645E-03    -175.506E-03    -170.058E-03     341.702E-03    -171.645E-03     105.904E-03     85.0368E+06     54.3862E+06    -21.6804E+06    -21.6672E+06     54.3730E+06     85.0368E+06    -614.147E+03         62.9072
             702     11.8015E-03     41.0468E-03         2.32031     513.152E-03        -1.58475     500.283E-03        -1.57188         2.32031     154.694E-03     346.657E-03    -171.646E-03    -175.012E-03    -169.677E-03     341.323E-03    -171.646E-03     104.615E-03     80.8212E+06     51.1470E+06    -28.7755E+06    -28.7616E+06     51.1330E+06     80.8212E+06    -722.215E+03         60.2476
             703     10.9597E-03     40.9262E-03         2.49488     892.086E-03        -2.17278     849.116E-03        -2.12981         2.49488    -568.345E-03     344.448E-03    -171.657E-03    -172.790E-03    -168.580E-03     340.237E-03    -171.657E-03     92.9226E-03     71.1239E+06     47.5262E+06    -36.2655E+06    -36.2572E+06     47.5178E+06     71.1239E+06    -246.884E+03         57.9986
             704     10.1131E-03     40.8168E-03         2.66156         1.23533        -2.71264         1.19157        -2.66887         2.66156    -424.113E-03     344.021E-03    -171.700E-03    -172.321E-03    -168.673E-03     340.373E-03    -171.700E-03     86.3938E-03     61.0594E+06     42.7070E+06    -45.1385E+06    -45.1369E+06     42.7054E+06     61.0594E+06     92.9060E+03         56.2588
             705     9.27015E-03     40.7130E-03         2.81994         1.55282        -3.21200         1.53634        -3.19553         2.81994    -281.898E-03     343.859E-03    -171.621E-03    -172.238E-03    -169.144E-03     340.885E-03    -171.742E-03     77.9752E-03     54.3607E+06     34.8693E+06    -54.9984E+06    -54.9952E+06     34.8661E+06     54.3607E+06     73.1400E+03         54.9672
             706     8.42816E-03     40.6253E-03         2.96784         1.88739        -3.71193         1.86864        -3.69318         2.96784    -180.114E-03     343.134E-03    -171.250E-03    -171.884E-03    -169.004E-03     340.786E-03    -171.782E-03     69.2261E-03     43.0091E+06     6.89429E+06    -65.6351E+06    -65.6257E+06     6.88491E+06     43.0091E+06    -303.678E+03         53.9933
             707     7.58358E-03     40.5472E-03         3.10365         2.18820        -4.16288         2.18397        -4.15864         3.10365     117.831E-03     342.943E-03    -171.115E-03    -171.827E-03    -169.388E-03     341.216E-03    -171.827E-03     59.1972E-03     24.5900E+06    -46.0676E+06    -76.8158E+06    -76.7951E+06    -46.0882E+06     24.5900E+06    -342.496E+03         53.2123
             708     6.74236E-03     40.4894E-03         3.22612         2.48093        -4.58854         2.47578        -4.58339         3.22612    -330.123E-03     342.849E-03    -171.009E-03    -171.840E-03    -169.871E-03     341.710E-03    -171.840E-03     48.0172E-03     3.12862E+06    -84.8565E+06    -106.005E+06    -88.2047E+06    -102.657E+06     3.12862E+06     237.234E+03         52.5382
             709     5.89885E-03     40.4378E-03         3.33480         2.76410        -4.99202         2.73877        -4.96669         3.33480     335.399E-03     342.455E-03    -170.616E-03    -171.840E-03    -169.931E-03     341.771E-03    -171.840E-03     37.0258E-03    -19.0095E+06    -99.5170E+06    -151.606E+06    -99.5236E+06    -151.599E+06    -19.0095E+06     106.458E+03         51.9260
             710     5.05515E-03     40.4049E-03         3.42761         3.02076        -5.35085         2.99363        -5.32372         3.42761     257.524E-03     342.354E-03    -170.495E-03    -171.860E-03    -170.125E-03     341.985E-03    -171.860E-03     27.1865E-03    -42.0624E+06    -110.528E+06    -196.112E+06    -110.554E+06    -196.087E+06    -42.0624E+06    -112.322E+03         51.3625
             711     4.21346E-03     40.3826E-03         3.50121         3.23686        -5.64803         3.22176        -5.63292         3.50121     79.2041E-03     342.503E-03    -170.594E-03    -171.910E-03    -170.409E-03     342.319E-03    -171.910E-03     19.0334E-03    -65.6073E+06    -120.869E+06    -241.173E+06    -120.910E+06    -241.132E+06    -65.6073E+06    -107.518E+03         50.8529
             712     3.36991E-03     40.3687E-03         3.61726         3.45729        -5.99515         3.40510        -5.87927         3.55356        -1.03210     342.928E-03    -170.963E-03    -171.965E-03    -170.887E-03     342.852E-03    -171.965E-03     12.1058E-03    -90.2213E+06    -132.399E+06    -282.706E+06    -132.417E+06    -282.688E+06    -90.2213E+06    -220.278E+03         50.4104
             713     2.52705E-03     40.3616E-03         3.65093         3.57671        -6.15248         3.51698        -6.02857         3.58675        -1.99464     343.502E-03    -171.442E-03    -172.060E-03    -171.505E-03     343.475E-03    -171.970E-03     7.21307E-03    -113.820E+06    -142.908E+06    -317.902E+06    -142.912E+06    -317.898E+06    -113.820E+06     309.993E+03         50.0493
             714     1.68498E-03     40.3611E-03         3.62085         3.59247        -6.13231         3.59023        -6.11174         3.60252    -828.667E-03     343.674E-03    -171.690E-03    -171.984E-03    -171.772E-03     343.666E-03    -171.894E-03     3.93414E-03    -136.209E+06    -151.483E+06    -344.912E+06    -151.487E+06    -344.908E+06    -136.209E+06     344.869E+03         49.7810
             715     841.703E-06     40.3614E-03         5.27251         1.97477        -6.15869         5.23577        -6.12195         1.97477        -1.16157     343.579E-03    -171.549E-03    -172.030E-03    -171.715E-03     343.577E-03    -171.862E-03     1.51852E-03    -152.658E+06    -157.509E+06    -361.325E+06    -157.344E+06    -361.308E+06    -152.841E+06     309.096E+03         49.6123
             716     14.3345E-03     40.1396E-03         2.19411     72.4774E-03        -1.01010    -494.885E-03    -442.735E-03         2.19411     164.553E-03     352.156E-03    -171.660E-03    -180.497E-03    -172.052E-03     343.711E-03    -171.660E-03     124.951E-03     113.721E+06     85.5646E+06    -6.66957E+06    -6.66037E+06     85.5554E+06     113.721E+06     576.890E+03         68.0532
             717     13.4899E-03     39.9077E-03         2.39997     115.167E-03        -1.30323    -77.9856E-03        -1.11007         2.39997     716.873E-03     352.306E-03    -171.617E-03    -180.689E-03    -171.314E-03     342.931E-03    -171.617E-03     135.782E-03     93.4953E+06     68.2991E+06    -13.6679E+06    -13.6579E+06     68.2891E+06     93.4953E+06     742.723E+03         65.6570
             718     12.6453E-03     39.7834E-03         2.59799     365.458E-03        -1.79456     341.154E-03        -1.77026         2.59799     446.446E-03     346.620E-03    -171.647E-03    -174.973E-03    -169.473E-03     341.120E-03    -171.647E-03     106.318E-03     85.8307E+06     55.1096E+06    -20.3511E+06    -20.3443E+06     55.1028E+06     85.8307E+06    -238.688E+03         62.9136
             719     11.8020E-03     39.6347E-03         2.78451     762.239E-03        -2.41712     750.333E-03        -2.40522         2.78451     253.676E-03     346.369E-03    -171.677E-03    -174.692E-03    -169.407E-03     341.084E-03    -171.677E-03     103.998E-03     80.4859E+06     49.5320E+06    -28.1802E+06    -28.1652E+06     49.5170E+06     80.4859E+06    -1.01353E+06         60.2674
             720     10.9567E-03     39.5212E-03         2.96289         1.16324        -3.03337         1.14178        -3.01192         2.96289    -432.249E-03     345.152E-03    -171.667E-03    -173.485E-03    -169.360E-03     341.028E-03    -171.667E-03     92.0965E-03     70.4043E+06     45.7129E+06    -37.0943E+06    -37.0837E+06     45.7022E+06     70.4043E+06    -692.381E+03         58.0241
             721     10.1152E-03     39.4064E-03         3.13229         1.54141        -3.61451         1.51823        -3.59133         3.13229    -290.953E-03     344.538E-03    -171.654E-03    -172.884E-03    -169.276E-03     340.930E-03    -171.654E-03     86.0203E-03     61.7375E+06     42.1152E+06    -45.3440E+06    -45.3419E+06     42.1131E+06     61.7375E+06     40.8272E+03         56.2829
             722     9.27249E-03     39.3047E-03         3.29271         1.89537        -4.15354         1.88641        -4.14457         3.29271    -150.256E-03     343.560E-03    -171.532E-03    -172.028E-03    -168.952E-03     340.624E-03    -171.672E-03     77.4438E-03     55.3797E+06     35.0417E+06    -54.2945E+06    -54.2924E+06     35.0396E+06     55.3797E+06     306.215E+03         54.9852
             723     8.42747E-03     39.2169E-03         3.44252         2.24898        -4.67563         2.23741        -4.66407         3.44252    -38.8346E-03     342.877E-03    -171.155E-03    -171.722E-03    -168.873E-03     340.594E-03    -171.722E-03     68.2005E-03     44.2333E+06     6.88948E+06    -64.8403E+06    -64.8221E+06     6.87119E+06     44.2333E+06     217.697E+03         54.0046
             724     7.58448E-03     39.1400E-03         3.58034         2.58218        -5.16025         2.57760        -5.15568         3.58034     236.057E-03     342.746E-03    -170.979E-03    -171.766E-03    -169.305E-03     341.071E-03    -171.766E-03     58.2897E-03     24.9027E+06    -46.5792E+06    -76.7018E+06    -76.6310E+06    -46.6501E+06     24.9027E+06    -138.114E+03         53.2187
             725     6.74117E-03     39.0763E-03         3.70435         2.89777        -5.60981         2.89584        -5.60788         3.70435    -199.934E-03     342.791E-03    -171.019E-03    -171.772E-03    -169.899E-03     341.671E-03    -171.772E-03     47.6340E-03     3.16140E+06    -84.6898E+06    -107.097E+06    -87.9590E+06    -103.828E+06     3.16140E+06    -512.761E+03         52.5415
             726     5.90005E-03     39.0318E-03         3.81376         3.20068        -6.03554         3.18039        -6.01525         3.81376     412.964E-03     342.282E-03    -170.512E-03    -171.770E-03    -169.815E-03     341.585E-03    -171.770E-03     37.4439E-03    -18.2213E+06    -98.4139E+06    -151.938E+06    -98.4313E+06    -151.920E+06    -18.2213E+06    -310.402E+03         51.9277
             727     5.05644E-03     38.9967E-03         3.90752         3.46742        -6.40982         3.44471        -6.38711         3.90752     297.875E-03     342.028E-03    -170.213E-03    -171.815E-03    -169.819E-03     341.634E-03    -171.815E-03     28.0027E-03    -41.7430E+06    -109.958E+06    -196.532E+06    -109.970E+06    -196.521E+06    -41.7430E+06    -378.570E+03         51.3636
             728     4.21235E-03     38.9742E-03         3.98332         3.69154        -6.71693         3.67905        -6.70444         3.98332     123.720E-03     342.571E-03    -170.696E-03    -171.875E-03    -170.498E-03     342.372E-03    -171.875E-03     19.8148E-03    -65.8244E+06    -121.887E+06    -242.283E+06    -121.905E+06    -242.266E+06    -65.8244E+06     149.522E+03         50.8540
             729     3.37014E-03     38.9607E-03         4.07474         3.93205        -7.05479         3.86771        -6.95516         4.03945        -1.01121     342.932E-03    -171.034E-03    -171.898E-03    -170.951E-03     342.849E-03    -171.898E-03     12.6113E-03    -90.5961E+06    -132.498E+06    -282.838E+06    -132.509E+06    -282.826E+06    -90.5961E+06     825.160E+03         50.4118
             730     2.52695E-03     38.9539E-03         4.11389         4.05131        -7.21370         3.98595        -7.11306         4.07861        -1.87432     343.082E-03    -171.135E-03    -171.947E-03    -171.109E-03     343.056E-03    -171.947E-03     6.88825E-03    -114.855E+06    -142.616E+06    -318.498E+06    -142.633E+06    -318.482E+06    -114.855E+06     91.3158E+03         50.0509
             731     1.68380E-03     38.9514E-03         4.11342         4.07635        -7.24974         4.06866        -7.23229         4.10365    -871.199E-03     343.548E-03    -171.499E-03    -172.049E-03    -171.493E-03     343.542E-03    -172.049E-03     3.22468E-03    -136.373E+06    -151.599E+06    -345.270E+06    -151.610E+06    -345.259E+06    -136.373E+06    -366.801E+03         49.7829
             732     842.717E-06     38.9527E-03         5.26831         2.97546        -7.30098         5.25133        -7.28399         2.97546    -804.159E-03     344.114E-03    -171.461E-03    -172.654E-03    -172.495E-03     344.113E-03    -171.618E-03     1.21084E-03    -152.140E+06    -157.009E+06    -361.702E+06    -156.972E+06    -361.696E+06    -152.184E+06    -369.214E+03         49.6143
             733     14.3328E-03     38.7309E-03         2.54131    -103.749E-03        -1.30723    -373.739E-03        -1.03724         2.54131     194.486E-03     352.106E-03    -171.671E-03    -180.435E-03    -171.943E-03     343.614E-03    -171.671E-03     125.356E-03     113.284E+06     84.6286E+06    -7.10546E+06    -7.09784E+06     84.6210E+06     113.284E+06     244.353E+03         68.0194
             734     13.4887E-03     38.5005E-03         2.74651     192.706E-03        -1.85343     79.5330E-03        -1.74026         2.74651     758.501E-03     352.560E-03    -171.624E-03    -180.936E-03    -171.576E-03     343.200E-03    -171.624E-03     135.551E-03     93.4745E+06     69.1147E+06    -13.8938E+06    -13.8838E+06     69.1046E+06     93.4745E+06     89.0572E+03         65.6424
             735     12.6461E-03     38.3732E-03         2.94287     551.812E-03        -2.45156     528.772E-03        -2.42852         2.94287     522.006E-03     346.628E-03    -171.643E-03    -174.985E-03    -169.520E-03     341.164E-03    -171.643E-03     105.929E-03     85.7300E+06     55.1501E+06    -20.6607E+06    -20.6569E+06     55.1464E+06     85.7300E+06    -341.469E+03         62.9201
             736     11.8009E-03     38.2299E-03         3.12775     975.819E-03        -3.10279     962.987E-03        -3.08995         3.12775     348.140E-03     346.492E-03    -171.669E-03    -174.823E-03    -169.529E-03     341.198E-03    -171.669E-03     104.083E-03     80.5897E+06     48.6147E+06    -28.1655E+06    -28.1603E+06     48.6096E+06     80.5897E+06    -118.209E+03         60.2882
             737     10.9592E-03     38.1086E-03         3.30376         1.38949        -3.73350         1.37680        -3.72082         3.30376    -319.577E-03     345.545E-03    -171.635E-03    -173.910E-03    -169.805E-03     341.440E-03    -171.635E-03     91.9500E-03     70.7551E+06     45.6559E+06    -36.5760E+06    -36.5710E+06     45.6508E+06     70.7551E+06    -126.104E+03         58.0496
             738     10.1162E-03     37.9984E-03         3.47024         1.78572        -4.33157         1.77101        -4.31686         3.47024    -195.600E-03     344.623E-03    -171.595E-03    -173.028E-03    -169.422E-03     341.016E-03    -171.595E-03     86.0447E-03     61.8131E+06     41.1115E+06    -45.4827E+06    -45.4813E+06     41.1102E+06     61.8131E+06    -249.613E+03         56.3057
             739     9.27130E-03     37.8971E-03         3.62721         2.16268        -4.89088         2.15655        -4.88475         3.62721    -62.8459E-03     343.566E-03    -171.579E-03    -171.987E-03    -168.999E-03     340.597E-03    -171.598E-03     77.8819E-03     55.1945E+06     33.9379E+06    -54.8770E+06    -54.8760E+06     33.9370E+06     55.1945E+06    -190.560E+03         55.0015
             740     8.42969E-03     37.8074E-03         3.77304         2.53576        -5.42559         2.52719        -5.41702         3.77304     44.6941E-03     343.178E-03    -171.485E-03    -171.693E-03    -169.269E-03     340.886E-03    -171.617E-03     68.3671E-03     44.3368E+06     6.45789E+06    -65.2012E+06    -65.1900E+06     6.44670E+06     44.3368E+06     186.123E+03         54.0147
             741     7.58677E-03     37.7320E-03         3.90649         2.88106        -5.91698         2.87629        -5.91221         3.90649     298.825E-03     342.482E-03    -170.820E-03    -171.663E-03    -169.174E-03     340.812E-03    -171.638E-03     58.2363E-03     25.9050E+06    -45.8562E+06    -75.7445E+06    -75.6434E+06    -45.9573E+06     25.9050E+06     215.861E+03         53.2240
             742     6.74322E-03     37.6688E-03         4.02677         3.19679        -6.36656         3.19578        -6.36554         4.02677    -120.054E-03     341.713E-03    -170.014E-03    -171.699E-03    -168.893E-03     340.592E-03    -171.699E-03     47.5368E-03     3.16525E+06    -83.9980E+06    -106.774E+06    -86.8192E+06    -103.953E+06     3.16525E+06    -468.070E+03         52.5437
             743     5.89821E-03     37.6226E-03         4.13349         3.50117        -6.79300         3.48315        -6.77498         4.13349     464.480E-03     341.949E-03    -170.164E-03    -171.785E-03    -169.466E-03     341.251E-03    -171.785E-03     37.4901E-03    -19.0423E+06    -98.9152E+06    -153.595E+06    -98.9336E+06    -153.577E+06    -19.0423E+06    -577.350E+03         51.9286
             744     5.05549E-03     37.5898E-03         4.22605         3.76507        -7.16246         3.74449        -7.14188         4.22605     320.265E-03     342.373E-03    -170.540E-03    -171.833E-03    -170.143E-03     341.976E-03    -171.833E-03     28.0969E-03    -41.8073E+06    -110.900E+06    -197.378E+06    -110.905E+06    -197.374E+06    -41.8073E+06     237.248E+03         51.3644
             745     4.21278E-03     37.5660E-03         4.30412         3.97793        -7.45807         3.96585        -7.44599         4.30412     164.534E-03     342.572E-03    -170.709E-03    -171.863E-03    -170.514E-03     342.377E-03    -171.863E-03     19.6399E-03    -66.0423E+06    -122.354E+06    -243.559E+06    -122.357E+06    -243.556E+06    -66.0423E+06     389.276E+03         50.8551
             746     3.36990E-03     37.5512E-03         4.37613         4.23789        -7.79314         4.15304        -7.69949         4.36732    -996.911E-03     343.060E-03    -171.206E-03    -171.854E-03    -171.124E-03     342.978E-03    -171.854E-03     12.4855E-03    -90.8089E+06    -133.019E+06    -283.247E+06    -133.024E+06    -283.241E+06    -90.8089E+06     270.949E+03         50.4130
             747     2.52800E-03     37.5462E-03         4.42513         4.37150        -7.97704         4.29099        -7.88772         4.41633        -1.75265     343.252E-03    -171.423E-03    -171.829E-03    -171.436E-03     343.228E-03    -171.793E-03     6.50624E-03    -115.196E+06    -142.870E+06    -317.606E+06    -142.888E+06    -317.588E+06    -115.196E+06     166.216E+03         50.0521
             748     1.68529E-03     37.5434E-03         4.47589         4.40239        -8.06970         4.40931        -8.04795         4.44721    -969.706E-03     343.176E-03    -171.375E-03    -171.801E-03    -171.407E-03     343.172E-03    -171.765E-03     2.81587E-03    -137.409E+06    -151.731E+06    -345.661E+06    -151.746E+06    -345.646E+06    -137.409E+06    -496.190E+03         49.7839
             749     841.273E-06     37.5431E-03         4.98603         3.95044        -8.16715         4.96462        -8.14574         3.95044    -474.238E-03     343.460E-03    -170.924E-03    -172.536E-03    -171.790E-03     343.459E-03    -171.669E-03     1.28937E-03    -153.072E+06    -157.523E+06    -363.509E+06    -157.492E+06    -363.495E+06    -153.116E+06    -826.294E+03         49.6151
             750     14.3328E-03     37.3235E-03         2.78274    -106.383E-03        -1.69274    -247.303E-03        -1.55182         2.78274     217.657E-03     352.110E-03    -171.680E-03    -180.430E-03    -172.026E-03     343.706E-03    -171.680E-03     124.793E-03     113.443E+06     84.6521E+06    -7.47136E+06     -7.4709E+06     84.6516E+06     113.443E+06    -105.123E+03         67.9862
             751     13.4905E-03     37.0895E-03         2.98027     310.251E-03        -2.35069     227.901E-03        -2.26834         2.98027     780.382E-03     352.520E-03    -171.624E-03    -180.895E-03    -171.609E-03     343.233E-03    -171.624E-03     135.141E-03     93.2638E+06     69.2990E+06    -14.4143E+06    -14.4109E+06     69.2956E+06     93.2638E+06    -335.585E+03         65.6276
             752     12.6453E-03     36.9681E-03         3.16828     713.149E-03        -2.98195     691.116E-03        -2.95992         3.16828     567.796E-03     347.026E-03    -171.624E-03    -175.401E-03    -169.967E-03     341.591E-03    -171.624E-03     105.761E-03     85.0291E+06     54.6135E+06    -21.7611E+06    -21.7576E+06     54.6100E+06     85.0291E+06    -276.731E+03         62.9258
             753     11.8026E-03     36.8193E-03         3.34540         1.14247        -3.62955         1.12937        -3.61644         3.34540     396.556E-03     346.655E-03    -171.626E-03    -175.029E-03    -169.754E-03     341.381E-03    -171.626E-03     104.003E-03     80.2244E+06     47.8706E+06    -29.2720E+06    -29.2681E+06     47.8668E+06     80.2244E+06    -36.2871E+03         60.3076
             754     10.9587E-03     36.7000E-03         3.51366         1.55386        -4.25073         1.54543        -4.24230         3.51366    -244.094E-03     345.044E-03    -171.604E-03    -173.440E-03    -169.260E-03     340.864E-03    -171.604E-03     92.7198E-03     70.6868E+06     45.0291E+06    -36.7675E+06    -36.7627E+06     45.0243E+06     70.6868E+06    -115.781E+03         58.0725
             755     10.1151E-03     36.5893E-03         3.67254         1.95261        -4.84415         1.94205        -4.83359         3.67254    -119.848E-03     344.798E-03    -171.578E-03    -173.220E-03    -169.581E-03     341.159E-03    -171.578E-03     86.4211E-03     62.0000E+06     40.9097E+06    -45.1777E+06    -45.1753E+06     40.9073E+06     62.0000E+06    -163.831E+03         56.3250
             756     9.27383E-03     36.4883E-03         3.82140         2.34170        -5.40603         2.33682        -5.40115         3.82140     2.82658E-03     343.884E-03    -171.514E-03    -172.370E-03    -169.369E-03     340.926E-03    -171.556E-03     77.8233E-03     55.5508E+06     33.7456E+06    -54.3549E+06    -54.3535E+06     33.7442E+06     55.5508E+06    -135.117E+03         55.0153
             757     8.42918E-03     36.3989E-03         3.95825         2.72950        -5.94364         2.72185        -5.93598         3.95825     121.109E-03     342.745E-03    -171.094E-03    -171.651E-03    -168.807E-03     340.382E-03    -171.575E-03     69.4144E-03     43.8780E+06     5.60984E+06    -64.5571E+06    -64.5554E+06     5.60818E+06     43.8780E+06    -296.634E+03         54.0229
             758     7.58649E-03     36.3222E-03         4.08158         3.08506        -6.43320         3.07946        -6.42760         4.08158     373.352E-03     342.270E-03    -170.605E-03    -171.665E-03    -168.862E-03     340.502E-03    -171.640E-03     59.8672E-03     25.4894E+06    -46.9699E+06    -75.5911E+06    -75.5493E+06    -47.0118E+06     25.4894E+06     64.5365E+03         53.2284
             759     6.74261E-03     36.2640E-03         4.19148         3.39136        -6.86281         3.39081        -6.86226         4.19148    -8.85805E-03     342.129E-03    -170.428E-03    -171.702E-03    -169.256E-03     340.957E-03    -171.702E-03     48.6099E-03     3.53327E+06    -84.3487E+06    -106.587E+06    -87.0132E+06    -103.922E+06     3.53327E+06     621.583E+03         52.5464
             760     5.89895E-03     36.2150E-03         4.29016         3.66680        -7.25470         3.64860        -7.23650         4.29016     563.396E-03     342.210E-03    -170.475E-03    -171.735E-03    -169.791E-03     341.526E-03    -171.735E-03     36.9781E-03    -19.2603E+06    -99.0328E+06    -153.933E+06    -99.0584E+06    -153.907E+06    -19.2603E+06     523.442E+03         51.9309
             761     5.05601E-03     36.1801E-03         4.37919         3.90304        -7.59470         3.88264        -7.57429         4.37919     391.849E-03     342.352E-03    -170.613E-03    -171.739E-03    -170.256E-03     341.995E-03    -171.739E-03     26.6570E-03    -42.3214E+06    -111.018E+06    -198.667E+06    -111.030E+06    -198.655E+06    -42.3214E+06     87.3458E+03         51.3666
             762     4.21350E-03     36.1583E-03         4.45676         4.11836        -7.89367         4.10661        -7.88191         4.45676     234.419E-03     342.391E-03    -170.643E-03    -171.749E-03    -170.462E-03     342.211E-03    -171.749E-03     18.9722E-03    -65.4597E+06    -122.159E+06    -243.790E+06    -122.168E+06    -243.781E+06    -65.4597E+06     233.422E+03         50.8572
             763     3.37017E-03     36.1435E-03         4.52286         4.38956        -8.23523         4.30533        -8.14735         4.51922    -943.263E-03     342.578E-03    -170.803E-03    -171.775E-03    -170.721E-03     342.496E-03    -171.775E-03     12.5670E-03    -90.1594E+06    -133.812E+06    -283.771E+06    -133.818E+06    -283.765E+06    -90.1594E+06     345.968E+03         50.4149
             764     2.52767E-03     36.1358E-03         4.57000         4.52225        -8.41753         4.44583        -8.33747         4.56636        -1.60145     343.124E-03    -171.332E-03    -171.792E-03    -171.341E-03     343.097E-03    -171.756E-03     7.19415E-03    -115.589E+06    -144.703E+06    -317.691E+06    -144.712E+06    -317.683E+06    -115.589E+06     394.717E+03         50.0537
             765     1.68573E-03     36.1372E-03         4.62460         4.55321        -8.49907         4.55413        -8.47271         4.59732    -993.387E-03     343.390E-03    -171.552E-03    -171.838E-03    -171.789E-03     343.381E-03    -171.593E-03     3.85215E-03    -138.140E+06    -151.990E+06    -344.972E+06    -152.000E+06    -344.962E+06    -138.140E+06     308.843E+03         49.7854
             766     844.211E-06     36.1341E-03         5.05514         4.20173        -8.57234         4.33664        -8.53079         4.87867    -196.065E-03     342.846E-03    -170.796E-03    -172.050E-03    -171.445E-03     342.844E-03    -171.399E-03     819.253E-06    -154.589E+06    -158.337E+06    -365.717E+06    -158.113E+06    -365.703E+06    -154.828E+06    -527.621E+03         49.6164
             767     14.3339E-03     35.9110E-03         2.91556    -32.4443E-03        -2.06564    -123.383E-03        -1.97470         2.91556     214.583E-03     351.864E-03    -171.660E-03    -180.204E-03    -171.859E-03     343.520E-03    -171.660E-03     124.512E-03     113.594E+06     84.3124E+06    -7.47975E+06    -7.47830E+06     84.3109E+06     113.594E+06     34.9638E+03         67.9534
             768     13.4884E-03     35.6852E-03         3.09938     420.368E-03        -2.74035     357.111E-03        -2.67709         3.09938     781.778E-03     352.412E-03    -171.607E-03    -180.805E-03    -171.581E-03     343.188E-03    -171.607E-03     134.798E-03     93.4583E+06     69.0689E+06    -14.5466E+06    -14.5428E+06     69.0651E+06     93.4583E+06     156.945E+03         65.6120
             769     12.6460E-03     35.5555E-03         3.27323     841.901E-03        -3.37285     819.091E-03        -3.35004         3.27323     618.111E-03     347.316E-03    -171.596E-03    -175.720E-03    -170.287E-03     341.883E-03    -171.596E-03     105.840E-03     85.5271E+06     54.6193E+06    -21.5119E+06    -21.5076E+06     54.6150E+06     85.5271E+06     108.131E+03         62.9293
             770     11.8037E-03     35.4117E-03         3.43663         1.26600        -3.99836         1.25141        -3.98377         3.43663     464.656E-03     346.544E-03    -171.583E-03    -174.961E-03    -169.723E-03     341.306E-03    -171.583E-03     103.633E-03     80.3407E+06     47.6091E+06    -29.1511E+06    -29.1485E+06     47.6066E+06     80.3407E+06    -431.704E+03         60.3240
             771     10.9587E-03     35.2940E-03         3.59097         1.66243        -4.58898         1.65672        -4.58327         3.59097    -141.781E-03     344.787E-03    -171.566E-03    -173.221E-03    -169.065E-03     340.631E-03    -171.566E-03     92.4041E-03     70.7194E+06     44.7344E+06    -37.0497E+06    -37.0465E+06     44.7312E+06     70.7194E+06    -474.068E+03         58.0923
             772     10.1157E-03     35.1776E-03         3.73615         2.05306        -5.15909         2.04496        -5.15099         3.73615    -19.6156E-03     344.241E-03    -171.412E-03    -172.829E-03    -169.033E-03     340.599E-03    -171.567E-03     86.3762E-03     61.4732E+06     40.3317E+06    -45.6401E+06    -45.6326E+06     40.3242E+06     61.4732E+06    -470.344E+03         56.3416
             773     9.27246E-03     35.0793E-03         3.87094         2.43990        -5.70119         2.43538        -5.69667         3.87094     94.2197E-03     343.499E-03    -171.396E-03    -172.103E-03    -168.874E-03     340.467E-03    -171.593E-03     78.7451E-03     54.9389E+06     32.7399E+06    -54.7089E+06    -54.7028E+06     32.7338E+06     54.9389E+06    -321.239E+03         55.0263
             774     8.42996E-03     34.9918E-03         3.99321         2.82351        -6.21783         2.81543        -6.20975         3.99321     228.637E-03     342.835E-03    -171.165E-03    -171.670E-03    -168.771E-03     340.417E-03    -171.646E-03     70.1579E-03     43.7440E+06     5.18402E+06    -65.1060E+06    -65.1030E+06     5.18107E+06     43.7440E+06     67.5039E+03         54.0294
             775     7.58386E-03     34.9161E-03         4.10183         3.16915        -6.68153         3.16150        -6.67388         4.10183     478.698E-03     342.609E-03    -170.892E-03    -171.717E-03    -169.181E-03     340.881E-03    -171.701E-03     59.1298E-03     24.7816E+06    -48.2202E+06    -77.0227E+06    -77.0087E+06    -48.2342E+06     24.7816E+06     251.127E+03         53.2324
             776     6.74141E-03     34.8528E-03         4.19821         3.44892        -7.07053         3.44817        -7.06978         4.19821     122.676E-03     342.720E-03    -171.014E-03    -171.706E-03    -169.889E-03     341.595E-03    -171.706E-03     47.6761E-03     2.93244E+06    -86.1778E+06    -107.593E+06    -88.6254E+06    -105.145E+06     2.93244E+06     475.231E+03         52.5496
             777     5.90081E-03     34.8066E-03         4.28539         3.70422        -7.42940         3.68541        -7.41059         4.28539     660.793E-03     342.488E-03    -170.818E-03    -171.670E-03    -170.119E-03     341.789E-03    -171.670E-03     37.5383E-03    -19.2181E+06    -99.8218E+06    -153.872E+06    -99.8484E+06    -153.845E+06    -19.2181E+06     865.679E+03         51.9342
             778     5.05775E-03     34.7726E-03         4.36454         3.92364        -7.74082         3.90345        -7.72062         4.36454     472.154E-03     342.284E-03    -170.648E-03    -171.636E-03    -170.259E-03     341.895E-03    -171.636E-03     27.7230E-03    -42.0311E+06    -111.026E+06    -198.323E+06    -111.051E+06    -198.298E+06    -42.0311E+06     807.570E+03         51.3700
             779     4.21392E-03     34.7507E-03         4.43306         4.12619        -8.01285         4.11548        -8.00214         4.43306     296.875E-03     342.234E-03    -170.605E-03    -171.630E-03    -170.420E-03     342.049E-03    -171.630E-03     19.1537E-03    -65.5134E+06    -122.575E+06    -243.986E+06    -122.596E+06    -243.964E+06    -65.5134E+06     541.216E+03         50.8607
             780     3.37136E-03     34.7356E-03         4.49761         4.37453        -8.32400         4.30486        -8.24306         4.48634    -879.797E-03     342.095E-03    -170.409E-03    -171.686E-03    -170.327E-03     342.013E-03    -171.686E-03     12.5960E-03    -90.1757E+06    -133.007E+06    -284.441E+06    -133.013E+06    -284.435E+06    -90.1757E+06     373.930E+03         50.4182
             781     2.52688E-03     34.7301E-03         4.53406         4.49722        -8.48976         4.43597        -8.41725         4.52279        -1.50505     342.645E-03    -170.838E-03    -171.807E-03    -170.808E-03     342.615E-03    -171.807E-03     7.56945E-03    -115.003E+06    -142.949E+06    -318.215E+06    -142.952E+06    -318.213E+06    -115.003E+06    -79.9793E+03         50.0568
             782     1.68427E-03     34.7248E-03         4.56269         4.52016        -8.56272         4.51061        -8.53621         4.54573    -968.622E-03     343.443E-03    -171.359E-03    -172.083E-03    -171.559E-03     343.433E-03    -171.875E-03     3.86674E-03    -136.747E+06    -151.916E+06    -345.156E+06    -151.919E+06    -345.153E+06    -136.747E+06    -88.3999E+03         49.7883
             783     841.973E-06     34.7297E-03         5.67755         3.48225        -8.66997         3.44535        -8.61611         5.66060    -35.4503E-03     343.657E-03    -170.980E-03    -172.677E-03    -172.416E-03     343.653E-03    -171.238E-03     1.79527E-03    -153.006E+06    -157.968E+06    -366.015E+06    -157.733E+06    -366.012E+06    -153.244E+06     517.993E+03         49.6194
             784     14.3335E-03     34.5059E-03         2.93948     60.0653E-03        -2.35266    -8.63059E-03        -2.28396         2.93948     230.542E-03     352.076E-03    -171.630E-03    -180.446E-03    -172.162E-03     343.792E-03    -171.630E-03     124.038E-03     114.006E+06     83.8670E+06    -7.02077E+06    -7.01487E+06     83.8610E+06     114.006E+06     319.268E+03         67.9195
             785     13.4909E-03     34.2748E-03         3.10361     519.889E-03        -3.01114     464.247E-03        -2.95550         3.10361     805.113E-03     352.391E-03    -171.565E-03    -180.826E-03    -171.646E-03     343.211E-03    -171.565E-03     134.518E-03     94.2270E+06     68.6385E+06    -14.0471E+06    -14.0392E+06     68.6305E+06     94.2270E+06     530.729E+03         65.5954
             786     12.6473E-03     34.1473E-03         3.25734     944.179E-03        -3.62149     918.103E-03        -3.59541         3.25734     687.540E-03     346.800E-03    -171.565E-03    -175.235E-03    -169.767E-03     341.332E-03    -171.565E-03     106.036E-03     86.0546E+06     54.5735E+06    -20.8550E+06    -20.8492E+06     54.5677E+06     86.0546E+06     392.459E+03         62.9305
             787     11.8021E-03     34.0036E-03         3.40098         1.35092        -4.20721         1.33323        -4.18953         3.40098     556.359E-03     346.747E-03    -171.565E-03    -175.182E-03    -169.899E-03     341.463E-03    -171.565E-03     104.073E-03     81.1468E+06     47.8348E+06    -28.1621E+06    -28.1593E+06     47.8319E+06     81.1468E+06     2.72917E+03         60.3373
             788     10.9610E-03     33.8836E-03         3.53534         1.72101        -4.74878         1.71633        -4.74411         3.53534    -23.4457E-03     344.982E-03    -171.531E-03    -173.451E-03    -169.292E-03     340.823E-03    -171.531E-03     92.4740E-03     71.4773E+06     44.7379E+06    -36.4224E+06    -36.4213E+06     44.7368E+06     71.4773E+06    -46.9642E+03         58.1103
             789     10.1166E-03     33.7727E-03         3.66074         2.09237        -5.27605         2.08512        -5.26881         3.66074     87.9792E-03     343.421E-03    -171.355E-03    -172.066E-03    -168.202E-03     339.757E-03    -171.555E-03     86.5075E-03     61.6832E+06     40.0365E+06    -45.3005E+06    -45.2942E+06     40.0303E+06     61.6832E+06    -246.968E+03         56.3572
             790     9.27069E-03     33.6709E-03         3.77584         2.45471        -5.77107         2.44955        -5.76590         3.77584     188.636E-03     343.008E-03    -171.360E-03    -171.648E-03    -168.373E-03     340.013E-03    -171.641E-03     78.0956E-03     54.2354E+06     31.2917E+06    -55.5576E+06    -55.5517E+06     31.2858E+06     54.2354E+06    -415.795E+03         55.0365
             791     8.42635E-03     33.5826E-03         3.87960         2.80090        -6.22756         2.79163        -6.21829         3.87960     324.321E-03     343.369E-03    -171.609E-03    -171.760E-03    -169.352E-03     341.042E-03    -171.689E-03     68.9003E-03     43.0248E+06     3.75745E+06    -66.7255E+06    -66.7185E+06     3.75042E+06     43.0248E+06     308.056E+03         54.0355
             792     7.58709E-03     33.5063E-03         3.97223         3.10816        -6.63404         3.09814        -6.62403         3.97223     559.225E-03     343.099E-03    -171.354E-03    -171.745E-03    -169.719E-03     341.401E-03    -171.682E-03     58.7453E-03     24.5368E+06     -48.292E+06    -77.9639E+06    -77.8961E+06    -48.3598E+06     24.5368E+06     815.144E+03         53.2363
             793     6.74417E-03     33.4449E-03         4.05528         3.36077        -6.98223         3.35919        -6.98064         4.05528     235.920E-03     342.339E-03    -170.663E-03    -171.676E-03    -169.527E-03     341.204E-03    -171.676E-03     47.8890E-03     2.50517E+06    -86.5351E+06    -108.620E+06    -89.2737E+06    -105.881E+06     2.50517E+06     466.224E+03         52.5525
             794     5.89853E-03     33.3984E-03         4.13009         3.60765        -7.32011         3.58881        -7.30126         4.13009     726.197E-03     342.049E-03    -170.349E-03    -171.700E-03    -169.640E-03     341.340E-03    -171.700E-03     37.7556E-03    -19.2748E+06    -100.721E+06    -154.639E+06    -100.729E+06    -154.632E+06    -19.2748E+06     497.850E+03         51.9368
             795     5.05576E-03     33.3642E-03         4.19581         3.82197        -7.60900         3.80288        -7.58991         4.19581     521.222E-03     342.310E-03    -170.598E-03    -171.712E-03    -170.186E-03     341.898E-03    -171.712E-03     28.7185E-03    -42.2959E+06    -111.736E+06    -197.797E+06    -111.759E+06    -197.773E+06    -42.2959E+06     687.077E+03         51.3733
             796     4.21451E-03     33.3418E-03         4.25010         4.00232        -7.84057         3.99409        -7.83234         4.25010     304.580E-03     342.624E-03    -170.920E-03    -171.704E-03    -170.725E-03     342.417E-03    -171.691E-03     20.1254E-03    -66.1641E+06    -122.344E+06    -243.771E+06    -122.364E+06    -243.752E+06    -66.1641E+06     49.4209E+03         50.8648
             797     3.37044E-03     33.3305E-03         4.30443         4.20445        -8.08925         4.14630        -8.01790         4.29123    -832.652E-03     342.661E-03    -171.000E-03    -171.661E-03    -170.930E-03     342.577E-03    -171.647E-03     12.7271E-03    -90.7247E+06    -133.211E+06    -285.224E+06    -133.213E+06    -285.222E+06    -90.7247E+06    -120.488E+03         50.4231
             798     2.52823E-03     33.3210E-03         4.33158         4.30776        -8.22391         4.25503        -8.15798         4.31837        -1.48211     342.504E-03    -170.839E-03    -171.665E-03    -170.812E-03     342.476E-03    -171.664E-03     7.17674E-03    -115.281E+06    -142.977E+06    -318.146E+06    -142.978E+06    -318.145E+06    -115.281E+06     128.366E+03         50.0619
             799     1.68481E-03     33.3187E-03         4.34459         4.32252        -8.27057         4.31246        -8.24937         4.33346    -911.038E-03     342.818E-03    -170.968E-03    -171.850E-03    -170.962E-03     342.812E-03    -171.850E-03     2.99051E-03    -137.922E+06    -151.709E+06    -345.888E+06    -151.710E+06    -345.887E+06    -137.922E+06    -190.717E+03         49.7932
             800     841.407E-06     33.3184E-03         6.30182         2.40824        -8.36610         2.38438        -8.33110         6.29068    -222.930E-03     343.911E-03    -171.292E-03    -172.619E-03    -172.077E-03     343.908E-03    -171.831E-03     1.15390E-03    -153.604E+06    -157.649E+06     -366.54E+06    -157.650E+06    -366.538E+06    -153.604E+06    -191.436E+03         49.6241
             801     14.3346E-03     33.0966E-03         2.85589     153.781E-03        -2.54112     98.5560E-03        -2.48590         2.85589     248.710E-03     352.522E-03    -171.618E-03    -180.904E-03    -172.528E-03     344.146E-03    -171.618E-03     124.749E-03     114.100E+06     83.3811E+06    -7.37897E+06    -7.36990E+06     83.3721E+06     114.100E+06     76.3306E+03         67.8833
             802     13.4912E-03     32.8651E-03         2.99519     600.145E-03        -3.15765     547.598E-03        -3.10511         2.99519     833.360E-03     352.601E-03    -171.540E-03    -181.061E-03    -171.820E-03     343.360E-03    -171.540E-03     134.862E-03     94.8471E+06     68.4655E+06    -14.0607E+06    -14.0493E+06     68.4541E+06     94.8471E+06     308.467E+03         65.5766
             803     12.6460E-03     32.7426E-03         3.12411         1.00478        -3.71814     975.172E-03        -3.68853         3.12411     744.929E-03     346.746E-03    -171.532E-03    -175.214E-03    -169.763E-03     341.296E-03    -171.532E-03     105.837E-03     86.4382E+06     54.7177E+06    -21.0885E+06    -21.0813E+06     54.7105E+06     86.4382E+06     665.971E+03         62.9307
             804     11.8037E-03     32.5919E-03         3.24347         1.38953        -4.25199         1.36903        -4.23149         3.24347     630.902E-03     346.348E-03    -171.542E-03    -174.806E-03    -169.516E-03     341.058E-03    -171.542E-03     104.066E-03     80.7776E+06     47.4177E+06    -28.4871E+06    -28.4804E+06     47.4110E+06     80.7776E+06     140.319E+03         60.3503
             805     10.9593E-03     32.4760E-03         3.35323         1.72927        -4.73433         1.72391        -4.72897         3.35323     79.0198E-03     344.589E-03    -171.538E-03    -173.051E-03    -168.919E-03     340.456E-03    -171.538E-03     92.0994E-03     71.4457E+06     43.8742E+06    -36.2261E+06    -36.2220E+06     43.8701E+06     71.4457E+06    -12.4858E+03         58.1275
             806     10.1153E-03     32.3658E-03         3.45458         2.05856        -5.19127         2.05067        -5.18337         3.45458     175.620E-03     343.954E-03    -171.508E-03    -172.446E-03    -168.760E-03     340.314E-03    -171.554E-03     86.3230E-03     62.5761E+06     40.1552E+06    -44.7460E+06    -44.7384E+06     40.1477E+06     62.5761E+06     636.583E+03         56.3729
             807     9.27277E-03     32.2636E-03         3.54696         2.36975        -5.60719         2.36311        -5.60055         3.54696     266.690E-03     343.383E-03    -171.462E-03    -171.921E-03    -168.824E-03     340.413E-03    -171.589E-03     77.8365E-03     54.4023E+06     31.0971E+06    -55.1791E+06    -55.1597E+06     31.0776E+06     54.4023E+06     857.016E+03         55.0481
             808     8.43053E-03     32.1733E-03         3.63072         2.66358        -5.98511         2.65153        -5.97306         3.63072     412.828E-03     342.754E-03    -171.060E-03    -171.694E-03    -168.795E-03     340.434E-03    -171.639E-03     68.7486E-03     42.5375E+06     2.57726E+06    -66.0971E+06    -66.0798E+06     2.56003E+06     42.5375E+06     700.628E+03         54.0421
             809     7.58470E-03     32.0965E-03         3.70638         2.93002        -6.32882         2.91662        -6.31542         3.70638     627.653E-03     342.395E-03    -170.640E-03    -171.755E-03    -168.941E-03     340.648E-03    -171.708E-03     59.5278E-03     24.8731E+06    -49.1418E+06    -76.9612E+06    -76.8839E+06    -49.2192E+06     24.8731E+06     663.953E+03         53.2390
             810     6.74134E-03     32.0376E-03         3.77459         3.15324        -6.63121         3.15028        -6.62826         3.77459     333.249E-03     342.532E-03    -170.781E-03    -171.751E-03    -169.595E-03     341.346E-03    -171.751E-03     48.9691E-03     3.30495E+06    -85.8316E+06    -108.212E+06    -88.1759E+06    -105.868E+06     3.30495E+06     889.941E+03         52.5536
             811     5.90016E-03     31.9903E-03         3.83614         3.37442        -6.92822         3.35552        -6.90932         3.83614     771.315E-03     342.471E-03    -170.719E-03    -171.752E-03    -170.017E-03     341.768E-03    -171.752E-03     37.4461E-03    -18.7591E+06    -99.5082E+06    -154.434E+06    -99.5289E+06    -154.414E+06    -18.7591E+06     434.661E+03         51.9382
             812     5.05624E-03     31.9571E-03         3.89047         3.56150        -7.17543         3.54386        -7.15779         3.89047     571.476E-03     342.108E-03    -170.343E-03    -171.764E-03    -169.968E-03     341.732E-03    -171.764E-03     27.4406E-03    -41.7049E+06    -110.514E+06    -197.731E+06    -110.526E+06    -197.719E+06    -41.7049E+06    -230.740E+03         51.3757
             813     4.21135E-03     31.9328E-03         3.93345         3.73511        -7.38521         3.72992        -7.38003         3.93345     299.189E-03     342.607E-03    -170.810E-03    -171.797E-03    -170.628E-03     342.413E-03    -171.784E-03     19.5290E-03    -66.2175E+06    -122.362E+06    -244.427E+06    -122.368E+06    -244.421E+06    -66.2175E+06    -244.152E+03         50.8684
             814     3.37136E-03     31.9206E-03         3.97815         3.90463        -7.59047         3.86720        -7.53655         3.96165    -728.423E-03     343.291E-03    -171.504E-03    -171.787E-03    -171.521E-03     343.209E-03    -171.688E-03     12.6743E-03    -91.2536E+06    -134.164E+06    -285.827E+06    -134.165E+06    -285.826E+06    -91.2536E+06     251.508E+03         50.4279
             815     2.52881E-03     31.9142E-03         4.00820         3.97419        -7.69697         3.94957        -7.63991         3.97577        -1.47250     342.876E-03    -171.262E-03    -171.614E-03    -171.320E-03     342.848E-03    -171.528E-03     7.20527E-03    -115.592E+06    -143.776E+06    -318.384E+06    -143.777E+06    -318.382E+06    -115.592E+06     496.296E+03         50.0675
             816     1.68547E-03     31.9123E-03         4.00235         3.95643        -7.67974         3.95752        -7.66490         3.98641    -673.336E-03     342.532E-03    -171.029E-03    -171.503E-03    -171.022E-03     342.525E-03    -171.503E-03     3.81206E-03    -138.224E+06    -151.797E+06    -345.800E+06    -151.801E+06    -345.796E+06    -138.224E+06     561.121E+03         49.7990
             817     843.208E-06     31.9090E-03         6.77850         1.26263        -7.76003         1.20792        -7.70532         6.77850    -688.782E-03     343.014E-03    -171.268E-03    -171.746E-03    -171.378E-03     343.010E-03    -171.632E-03     1.61728E-03    -154.469E+06    -158.009E+06    -367.198E+06    -158.015E+06    -367.192E+06    -154.469E+06        -985.594         49.6297
             818     14.3334E-03     31.6843E-03         2.67029     234.682E-03        -2.62538     188.222E-03        -2.57892         2.67029     270.483E-03     352.152E-03    -171.632E-03    -180.520E-03    -172.087E-03     343.719E-03    -171.632E-03     125.252E-03     114.316E+06     82.6824E+06    -7.36862E+06    -7.36205E+06     82.6758E+06     114.316E+06     143.139E+03         67.8450
             819     13.4900E-03     31.4586E-03         2.78106     648.842E-03        -3.17257     596.136E-03        -3.11986         2.78106     863.924E-03     353.065E-03    -171.554E-03    -181.510E-03    -172.253E-03     343.808E-03    -171.554E-03     134.996E-03     95.2244E+06     68.3459E+06    -13.8995E+06    -13.8911E+06     68.3375E+06     95.2244E+06    -74.8384E+03         65.5554
             820     12.6488E-03     31.3311E-03         2.88204         1.01763        -3.65991     984.032E-03        -3.62631         2.88204     788.377E-03     347.267E-03    -171.515E-03    -175.752E-03    -170.303E-03     341.817E-03    -171.515E-03     105.917E-03     86.9446E+06     54.7618E+06    -21.0050E+06    -20.9983E+06     54.7551E+06     86.9446E+06     401.639E+03         62.9301
             821     11.8040E-03     31.1872E-03         2.97460         1.36373        -4.12077         1.34086        -4.09790         2.97460     677.986E-03     345.890E-03    -171.518E-03    -174.372E-03    -169.074E-03     340.592E-03    -171.518E-03     104.049E-03     80.9255E+06     47.1698E+06    -28.3356E+06    -28.3199E+06     47.1542E+06     80.9255E+06     506.498E+03         60.3637
             822     10.9592E-03     31.0675E-03         3.05783         1.66206        -4.53065         1.65497        -4.52356         3.05783     148.783E-03     344.324E-03    -171.535E-03    -172.790E-03    -168.666E-03     340.201E-03    -171.535E-03     91.9454E-03     70.3405E+06     42.8804E+06    -36.7513E+06    -36.7373E+06     42.8665E+06     70.3405E+06     320.079E+03         58.1456
             823     10.1165E-03     30.9572E-03         3.13376         1.93946        -4.90608         1.92962        -4.89624         3.13376     237.079E-03     344.297E-03    -171.549E-03    -172.748E-03    -169.091E-03     340.640E-03    -171.549E-03     86.5998E-03     61.3851E+06     38.5357E+06    -45.7813E+06    -45.7658E+06     38.5202E+06     61.3851E+06     894.313E+03         56.3896
             824     9.27311E-03     30.8541E-03         3.20249         2.19723        -5.23755         2.18838        -5.22870         3.20249     326.988E-03     343.491E-03    -171.396E-03    -172.095E-03    -168.847E-03     340.422E-03    -171.575E-03     79.1882E-03     54.9214E+06     30.9122E+06    -54.7714E+06    -54.7408E+06     30.8815E+06     54.9214E+06     1.57360E+06         55.0600
             825     8.42837E-03     30.7663E-03         3.26450         2.44837        -5.54284         2.43182        -5.52629         3.26450     492.756E-03     342.566E-03    -170.917E-03    -171.649E-03    -168.528E-03     340.170E-03    -171.641E-03     69.8164E-03     43.6722E+06     3.55244E+06    -64.8744E+06    -64.8479E+06     3.52601E+06     43.6722E+06     1.17338E+06         54.0484
             826     7.58505E-03     30.6908E-03         3.32012         2.67071        -5.81573         2.65262        -5.79763         3.32012     685.103E-03     342.348E-03    -170.621E-03    -171.726E-03    -168.915E-03     340.641E-03    -171.726E-03     58.7526E-03     25.2076E+06    -49.6622E+06    -76.2062E+06    -75.9811E+06    -49.8873E+06     25.2076E+06     355.681E+03         53.2409
             827     6.74138E-03     30.6275E-03         3.37073         2.84397        -6.04534         2.83874        -6.04011         3.37073     416.017E-03     342.369E-03    -170.589E-03    -171.779E-03    -169.480E-03     341.260E-03    -171.779E-03     47.3393E-03     3.71547E+06    -86.0677E+06    -107.140E+06    -86.9861E+06    -106.222E+06     3.71547E+06     167.110E+03         52.5531
             828     5.89830E-03     30.5803E-03         3.41768         3.02582        -6.28716         3.00603        -6.26736         3.41768     804.146E-03     342.480E-03    -170.688E-03    -171.792E-03    -169.999E-03     341.791E-03    -171.792E-03     37.2571E-03    -17.9891E+06    -98.0944E+06    -153.751E+06    -98.1140E+06    -153.731E+06    -17.9891E+06     93.1797E+03         51.9371
             829     5.05690E-03     30.5496E-03         3.45958         3.18575        -6.49309         3.16890        -6.47624         3.45958     645.663E-03     342.737E-03    -170.820E-03    -171.918E-03    -170.589E-03     342.348E-03    -171.760E-03     27.8637E-03    -41.0016E+06    -110.015E+06    -198.518E+06    -110.023E+06    -198.510E+06    -41.0016E+06     268.546E+03         51.3754
             830     4.21473E-03     30.5262E-03         3.49152         3.33479        -6.66164         3.33152        -6.65837         3.49152     316.058E-03     342.611E-03    -170.737E-03    -171.874E-03    -170.709E-03     342.425E-03    -171.715E-03     19.0817E-03    -64.7631E+06    -121.373E+06    -245.197E+06    -121.387E+06    -245.183E+06    -64.7631E+06     1.03965E+06         50.8694
             831     3.36942E-03     30.5102E-03         3.52485         3.46888        -6.80923         3.45179        -6.77679         3.50950    -554.806E-03     342.517E-03    -170.730E-03    -171.786E-03    -170.742E-03     342.443E-03    -171.701E-03     11.9211E-03    -89.7722E+06    -132.127E+06    -285.390E+06    -132.140E+06    -285.376E+06    -89.7722E+06     471.893E+03         50.4299
             832     2.52797E-03     30.5064E-03         3.57971         3.51206        -6.90690         3.52435        -6.85154         3.51206        -1.48099     343.002E-03    -171.203E-03    -171.800E-03    -171.303E-03     342.973E-03    -171.670E-03     7.52195E-03    -114.104E+06    -142.528E+06    -319.489E+06    -142.531E+06    -319.486E+06    -114.104E+06    -127.119E+03         50.0704
             833     1.68604E-03     30.5049E-03         3.56589         3.48412        -6.89325         3.49911        -6.85455         3.51220    -323.117E-03     343.206E-03    -171.418E-03    -171.787E-03    -171.684E-03     343.193E-03    -171.510E-03     4.69920E-03    -135.271E+06    -150.614E+06    -345.896E+06    -150.619E+06    -345.891E+06    -135.271E+06     585.714E+03         49.8027
             834     842.251E-06     30.5029E-03         6.98560     509.124E-03        -7.38524     43.7377E-03        -6.91846         6.98421        -1.38944     342.675E-03    -171.048E-03    -171.627E-03    -171.541E-03     342.671E-03    -171.131E-03     1.98977E-03    -151.718E+06    -156.662E+06    -365.954E+06    -156.292E+06    -365.944E+06    -152.099E+06     823.027E+03         49.6338
             835     14.3338E-03     30.2804E-03         2.39330     298.458E-03        -2.60257     259.978E-03        -2.56409         2.39330     284.496E-03     351.898E-03    -171.613E-03    -180.286E-03    -171.932E-03     343.545E-03    -171.613E-03     124.044E-03     114.733E+06     81.8151E+06    -6.84933E+06    -6.84080E+06     81.8065E+06     114.733E+06     406.856E+03         67.8081
             836     13.4901E-03     30.0447E-03         2.47318     665.014E-03        -3.05755     612.275E-03        -3.00481         2.47318     867.237E-03     352.407E-03    -171.556E-03    -180.851E-03    -171.580E-03     343.137E-03    -171.556E-03     134.939E-03     94.6749E+06     67.1456E+06    -13.9818E+06    -13.9757E+06     67.1395E+06     94.6749E+06     329.132E+03         65.5345
             837     12.6465E-03     29.9237E-03         2.54436     986.614E-03        -3.45663     949.444E-03        -3.41946         2.54436     805.028E-03     346.937E-03    -171.553E-03    -175.384E-03    -169.886E-03     341.439E-03    -171.553E-03     106.301E-03     86.3410E+06     53.8126E+06    -20.8570E+06    -20.8548E+06     53.8105E+06     86.3410E+06    -73.9670E+03         62.9270
             838     11.8036E-03     29.7784E-03         2.60904         1.27019        -3.81837         1.24517        -3.79335         2.60904     696.492E-03     346.432E-03    -171.565E-03    -174.866E-03    -169.462E-03     341.027E-03    -171.565E-03     105.208E-03     81.1842E+06     46.9851E+06    -28.1874E+06    -28.1667E+06     46.9644E+06     81.1842E+06     880.846E+03         60.3746
             839     10.9602E-03     29.6616E-03         2.66575         1.50921        -4.13478         1.49973        -4.12531         2.66575     190.651E-03     344.813E-03    -171.560E-03    -173.252E-03    -169.010E-03     340.571E-03    -171.560E-03     93.3392E-03     70.5123E+06     43.1182E+06    -36.4924E+06    -36.4570E+06     43.0828E+06     70.5123E+06     1.41999E+06         58.1630
             840     10.1154E-03     29.5473E-03         2.71662         1.73934        -4.42933         1.72570        -4.41569         2.71662     289.739E-03     344.211E-03    -171.574E-03    -172.638E-03    -168.905E-03     340.479E-03    -171.574E-03     87.4588E-03     60.9116E+06     37.6173E+06    -45.5019E+06    -45.4776E+06     37.5930E+06     60.9116E+06     993.699E+03         56.4056
             841     9.27164E-03     29.4475E-03         2.76150         1.95042        -4.68347         1.93775        -4.67081         2.76150     375.312E-03     343.621E-03    -171.429E-03    -172.193E-03    -168.999E-03     340.606E-03    -171.607E-03     78.4209E-03     55.1056E+06     30.3193E+06    -54.8162E+06    -54.8008E+06     30.3039E+06     55.1056E+06     988.290E+03         55.0705
             842     8.42836E-03     29.3579E-03         2.80085         2.16030        -4.91905         2.13823        -4.89699         2.80085     539.804E-03     343.087E-03    -171.276E-03    -171.811E-03    -169.159E-03     340.792E-03    -171.633E-03     68.4192E-03     44.3054E+06     3.96342E+06    -64.9873E+06    -64.9697E+06     3.94582E+06     44.3054E+06     968.654E+03         54.0528
             843     7.58594E-03     29.2810E-03         2.83492         2.34064        -5.12157         2.31711        -5.09803         2.83492     714.783E-03     342.622E-03    -170.966E-03    -171.656E-03    -169.288E-03     340.943E-03    -171.656E-03     58.3522E-03     25.7120E+06    -48.4562E+06    -76.1186E+06    -75.8903E+06    -48.6845E+06     25.7120E+06     436.538E+03         53.2403
             844     6.74384E-03     29.2199E-03         2.86585         2.46402        -5.27695         2.45547        -5.26840         2.86585     478.954E-03     341.920E-03    -170.219E-03    -171.701E-03    -169.114E-03     340.815E-03    -171.701E-03     47.1960E-03     3.61153E+06    -85.8719E+06    -107.778E+06    -87.2219E+06    -106.428E+06     3.61153E+06    -47.8507E+03         52.5489
             845     5.89889E-03     29.1746E-03         2.89536         2.60019        -5.45082         2.57909        -5.42973         2.89536     807.250E-03     341.893E-03    -170.122E-03    -171.770E-03    -169.444E-03     341.214E-03    -171.770E-03     36.9143E-03    -18.3832E+06    -98.8024E+06    -154.461E+06    -98.8068E+06    -154.456E+06    -18.3832E+06      88.692E+03         51.9309
             846     5.05469E-03     29.1378E-03         2.92213         2.71878        -5.59609         2.70175        -5.57905         2.92213     691.271E-03     342.664E-03    -170.719E-03    -171.945E-03    -170.490E-03     342.277E-03    -171.787E-03     27.8606E-03    -41.2697E+06    -110.220E+06    -199.471E+06    -110.223E+06    -199.467E+06    -41.2697E+06     351.963E+03         51.3688
             847     4.21382E-03     29.1173E-03         2.94261         2.82778        -5.71249         2.82408        -5.70879         2.94261     294.976E-03     342.847E-03    -170.951E-03    -171.896E-03    -170.910E-03     342.648E-03    -171.738E-03     19.8616E-03    -64.2818E+06    -121.231E+06    -245.946E+06    -121.246E+06    -245.931E+06    -64.2818E+06     580.677E+03         50.8636
             848     3.37247E-03     29.1053E-03         2.95732         2.92381        -5.80269         2.91259        -5.78790         2.95376    -405.787E-03     342.469E-03    -170.749E-03    -171.720E-03    -170.666E-03     342.385E-03    -171.720E-03     12.5096E-03    -87.8034E+06    -131.181E+06    -284.021E+06    -131.203E+06    -283.998E+06    -87.8034E+06     612.174E+03         50.4254
             849     2.52643E-03     29.0983E-03         3.04159         2.95271        -5.90864         2.96624        -5.83426         2.95367        -1.50169     342.902E-03    -171.123E-03    -171.779E-03    -171.139E-03     342.875E-03    -171.735E-03     7.08129E-03    -113.073E+06    -141.605E+06    -319.341E+06    -141.615E+06    -319.331E+06    -113.073E+06     177.945E+03         50.0671
             850     1.68418E-03     29.0945E-03         3.07577         2.95001        -5.94962         2.95053        -5.82438         2.95001    -12.5342E-03     343.408E-03    -171.523E-03    -171.885E-03    -171.792E-03     343.399E-03    -171.607E-03     3.44078E-03    -135.774E+06    -150.435E+06    -347.243E+06    -150.435E+06    -347.243E+06    -135.774E+06    -31.5296E+03         49.8004
             851     844.185E-06     29.0961E-03         6.98338     405.781E-03        -7.34468        -1.04668        -5.85082         6.94198        -2.18566     342.872E-03    -171.056E-03    -171.817E-03    -171.767E-03     342.869E-03    -171.102E-03     1.54832E-03    -150.934E+06    -155.514E+06    -364.823E+06    -155.139E+06    -364.817E+06    -151.315E+06     371.106E+03         49.6321
             852     14.3363E-03     28.8714E-03         2.04171     362.020E-03        -2.49871     332.261E-03        -2.46896         2.04171     272.243E-03     352.188E-03    -171.593E-03    -180.594E-03    -172.194E-03     343.787E-03    -171.593E-03     124.600E-03     114.683E+06     81.4131E+06    -6.79499E+06    -6.78831E+06     81.4065E+06     114.683E+06     41.9437E+03         67.7726
             853     13.4912E-03     28.6403E-03         2.08918     666.723E-03        -2.84275     616.143E-03        -2.79217         2.08918     833.735E-03     351.755E-03    -171.553E-03    -180.202E-03    -170.895E-03     342.448E-03    -171.553E-03     135.138E-03     94.7782E+06     66.3938E+06    -13.6480E+06    -13.6307E+06     66.3765E+06     94.7782E+06     862.069E+03         65.5148
             854     12.6457E-03     28.5141E-03         2.12928     922.046E-03        -3.13042     881.476E-03        -3.08985         2.12928     798.440E-03     346.059E-03    -171.601E-03    -174.458E-03    -169.009E-03     340.611E-03    -171.601E-03     105.701E-03     85.8052E+06     53.0780E+06    -20.9245E+06    -20.9083E+06     53.0618E+06     85.8052E+06     681.710E+03         62.9236
             855     11.8013E-03     28.3709E-03         2.16500         1.13272        -3.37940         1.10465        -3.35133         2.16500     703.237E-03     346.499E-03    -171.645E-03    -174.854E-03    -169.493E-03     341.138E-03    -171.645E-03     104.860E-03     80.3768E+06     45.9343E+06    -28.6605E+06    -28.6470E+06     45.9209E+06     80.3768E+06     684.242E+03         60.3832
             856     10.9581E-03     28.2505E-03         2.19479         1.29937        -3.58830         1.28629        -3.57522         2.19479     227.342E-03     345.421E-03    -171.628E-03    -173.793E-03    -169.568E-03     341.195E-03    -171.628E-03     93.2339E-03     70.9261E+06     42.3952E+06    -36.5565E+06    -36.5287E+06     42.3674E+06     70.9261E+06     1.31587E+06         58.1766
             857     10.1154E-03     28.1421E-03         2.22120         1.46532        -3.78675         1.44720        -3.76864         2.22120     321.531E-03     344.760E-03    -171.596E-03    -173.164E-03    -169.499E-03     341.095E-03    -171.596E-03     86.7639E-03     61.9133E+06     38.3034E+06    -44.7593E+06    -44.7212E+06     38.2653E+06     61.9133E+06     1.44962E+06         56.4170
             858     9.27244E-03     28.0355E-03         2.24349         1.62561        -3.95925         1.60851        -3.94215         2.24349     395.479E-03     343.974E-03    -171.580E-03    -172.394E-03    -169.417E-03     340.997E-03    -171.580E-03     77.9868E-03     55.3528E+06     30.5251E+06    -54.2242E+06    -54.1997E+06     30.5006E+06     55.3528E+06     1.06259E+06         55.0751
             859     8.43070E-03     27.9506E-03         2.26187         1.79285        -4.12159         1.76465        -4.09339         2.26187     548.501E-03     343.113E-03    -171.303E-03    -171.810E-03    -169.226E-03     340.806E-03    -171.580E-03     68.6444E-03     44.6904E+06     4.03221E+06    -64.6145E+06    -64.6096E+06     4.02729E+06     44.6904E+06     513.501E+03         54.0494
             860     7.58660E-03     27.8719E-03         2.27616         1.93711        -4.26097         1.90782        -4.23168         2.27616     702.017E-03     342.304E-03    -170.689E-03    -171.615E-03    -168.977E-03     340.592E-03    -171.615E-03     58.8694E-03     26.7948E+06    -47.9257E+06    -75.3173E+06    -75.2289E+06    -48.0141E+06     26.7948E+06     399.973E+03         53.2302
             861     6.74165E-03     27.8137E-03         2.28794         2.02331        -4.35606         2.01063        -4.34338         2.28794     501.740E-03     342.224E-03    -170.572E-03    -171.652E-03    -169.459E-03     341.111E-03    -171.652E-03     47.3913E-03     4.61602E+06    -85.3159E+06    -107.661E+06    -86.6808E+06    -106.296E+06     4.61602E+06     494.716E+03         52.5343
             862     5.89986E-03     27.7652E-03         2.30036         2.10313        -4.45250         2.08015        -4.42952         2.30036     769.438E-03     342.103E-03    -170.439E-03    -171.664E-03    -169.772E-03     341.436E-03    -171.664E-03     36.5647E-03    -17.8170E+06    -98.2395E+06    -154.972E+06    -98.2423E+06    -154.969E+06    -17.8170E+06     294.605E+03         51.9142
             863     5.05745E-03     27.7319E-03         2.31465         2.16335        -4.52444         2.14576        -4.50686         2.31465     671.033E-03     341.706E-03    -169.992E-03    -171.714E-03    -169.625E-03     341.340E-03    -171.714E-03     27.0460E-03    -40.9250E+06    -109.647E+06    -199.651E+06    -109.647E+06    -199.651E+06    -40.9250E+06     72.4064E+03         51.3512
             864     4.21186E-03     27.7076E-03         2.32811         2.23531        -4.59368         2.22829        -4.58665         2.32811     207.480E-03     342.272E-03    -170.474E-03    -171.797E-03    -170.292E-03     342.089E-03    -171.797E-03     18.7940E-03    -64.6683E+06    -121.061E+06    -246.489E+06    -121.063E+06    -246.486E+06    -64.6683E+06    -420.515E+03         50.8460
             865     3.36868E-03     27.6968E-03         2.33755         2.30831        -4.65435         2.30296        -4.64736         2.33591    -363.663E-03     343.261E-03    -171.241E-03    -172.020E-03    -171.433E-03     343.184E-03    -171.752E-03     12.1312E-03    -89.5606E+06    -132.910E+06    -285.298E+06    -132.923E+06    -285.285E+06    -89.5606E+06    -219.935E+03         50.4089
             866     2.52944E-03     27.6904E-03         2.46234         2.33474        -4.79970         2.34170        -4.68002         2.33570        -1.55080     343.248E-03    -171.410E-03    -171.838E-03    -171.657E-03     343.221E-03    -171.564E-03     6.88552E-03    -113.067E+06    -142.064E+06    -318.846E+06    -142.084E+06    -318.826E+06    -113.067E+06     857.605E+03         50.0522
             867     1.68656E-03     27.6863E-03         2.60221         2.33545        -4.94396         2.32709        -4.66885         2.33545     228.094E-03     342.614E-03    -171.178E-03    -171.436E-03    -171.178E-03     342.609E-03    -171.430E-03     2.60635E-03    -135.629E+06    -149.837E+06    -346.908E+06    -149.847E+06    -346.898E+06    -135.629E+06     498.639E+03         49.7866
             868     841.064E-06     27.6893E-03         6.83395     545.333E-03        -7.37648        -2.01293        -4.67645         6.69219        -2.67827     342.738E-03    -170.675E-03    -172.063E-03    -171.005E-03     342.736E-03    -171.731E-03     1.23151E-03    -151.296E+06    -156.499E+06    -365.515E+06    -155.031E+06    -365.514E+06    -152.765E+06    -394.784E+03         49.6190
             869     14.3322E-03     27.4578E-03         1.63381     414.888E-03        -2.30589     391.196E-03        -2.28220         1.63381     267.301E-03     351.763E-03    -171.646E-03    -180.117E-03    -171.620E-03     343.265E-03    -171.646E-03     125.779E-03     113.987E+06     80.6063E+06    -7.10693E+06    -7.09798E+06     80.5973E+06     113.987E+06    -298.551E+03         67.7367
             870     13.4906E-03     27.2344E-03         1.64856     653.327E-03        -2.53693     601.991E-03        -2.48559         1.64856     800.572E-03     352.449E-03    -171.613E-03    -180.837E-03    -171.462E-03     343.074E-03    -171.613E-03     135.935E-03     94.8123E+06     65.6721E+06    -13.4751E+06    -13.4518E+06     65.6488E+06     94.8123E+06     346.098E+03         65.4937
             871     12.6460E-03     27.1075E-03         1.65751     833.240E-03        -2.70523     788.504E-03        -2.66049         1.65751     775.985E-03     346.816E-03    -171.627E-03    -175.189E-03    -169.708E-03     341.335E-03    -171.627E-03     106.228E-03     86.9922E+06     53.5620E+06    -20.0160E+06    -19.9913E+06     53.5373E+06     86.9922E+06     1.28968E+06         62.9196
             872     11.8020E-03     26.9626E-03         1.66436     963.048E-03        -2.83243     931.838E-03        -2.80122         1.66436     683.084E-03     346.572E-03    -171.637E-03    -174.935E-03    -169.711E-03     341.348E-03    -171.637E-03     103.447E-03     80.7079E+06     45.3404E+06    -27.9311E+06    -27.9102E+06     45.3196E+06     80.7079E+06     1.12777E+06         60.3895
             873     10.9581E-03     26.8420E-03         1.66790         1.05028        -2.92453         1.03212        -2.90638         1.66790     221.038E-03     345.423E-03    -171.596E-03    -173.827E-03    -169.771E-03     341.367E-03    -171.596E-03     91.3832E-03     70.6183E+06     40.8965E+06    -36.0460E+06    -36.0285E+06     40.8789E+06     70.6183E+06     1.03455E+06         58.1833
             874     10.1161E-03     26.7298E-03         1.67127         1.14191        -3.01719         1.11970        -2.99498         1.67127     281.499E-03     344.691E-03    -171.546E-03    -173.145E-03    -169.594E-03     341.140E-03    -171.546E-03     85.4104E-03     62.2292E+06     38.1828E+06    -44.2759E+06    -44.2502E+06     38.1570E+06     62.2292E+06     1.10047E+06         56.4163
             875     9.27323E-03     26.6296E-03         1.67315         1.24498        -3.10350         1.22438        -3.08290         1.67315     344.114E-03     343.499E-03    -171.383E-03    -172.116E-03    -168.972E-03     340.515E-03    -171.543E-03     78.1124E-03     56.4274E+06     31.4253E+06    -53.0776E+06    -53.0556E+06     31.4033E+06     56.4274E+06     903.177E+03         55.0633
             876     8.42852E-03     26.5391E-03         1.67274         1.37081        -3.19992         1.33557        -3.16469         1.67274     497.797E-03     342.954E-03    -171.269E-03    -171.686E-03    -169.050E-03     340.623E-03    -171.573E-03     68.8756E-03     45.8746E+06     4.30001E+06    -63.2102E+06    -63.2024E+06     4.29220E+06     45.8746E+06     598.872E+03         54.0269
             877     7.58575E-03     26.4671E-03         1.67011         1.46497        -3.26716         1.42973        -3.23193         1.67011     640.834E-03     342.769E-03    -171.124E-03    -171.645E-03    -169.529E-03     341.112E-03    -171.582E-03     57.9851E-03     27.4307E+06    -48.3317E+06    -74.7363E+06    -74.5734E+06    -48.4946E+06     27.4307E+06     755.349E+03         53.1998
             878     6.74383E-03     26.4028E-03         1.66757         1.50155        -3.29132         1.48460        -3.27436         1.66757     468.839E-03     342.298E-03    -170.727E-03    -171.571E-03    -169.649E-03     341.218E-03    -171.569E-03     46.6902E-03     5.73066E+06    -84.6433E+06    -107.521E+06    -85.9460E+06    -106.219E+06     5.73066E+06     594.860E+03         52.4991
             879     5.90100E-03     26.3576E-03         1.66872         1.53934        -3.33087         1.51339        -3.30492         1.66872     697.001E-03     342.057E-03    -170.508E-03    -171.549E-03    -169.852E-03     341.402E-03    -171.549E-03     36.3296E-03    -16.5180E+06    -97.2959E+06    -154.611E+06    -97.2987E+06    -154.608E+06    -16.5180E+06     359.638E+03         51.8764
             880     5.05659E-03     26.3250E-03         1.67448         1.56870        -3.35921         1.54946        -3.33998         1.67448     607.962E-03     341.922E-03    -170.388E-03    -171.534E-03    -170.030E-03     341.564E-03    -171.534E-03     26.5605E-03    -40.1450E+06    -109.092E+06    -199.416E+06    -109.094E+06    -199.415E+06    -40.1450E+06     136.554E+03         51.3128
             881     4.21448E-03     26.3017E-03         1.68209         1.61369        -3.39006         1.60102        -3.37739         1.68209     133.935E-03     341.892E-03    -170.340E-03    -171.552E-03    -170.181E-03     341.733E-03    -171.552E-03     17.5221E-03    -64.6438E+06    -120.505E+06    -246.545E+06    -120.507E+06    -246.543E+06    -64.6438E+06    -66.8777E+03         50.8082
             882     3.37150E-03     26.2871E-03         1.68930         1.66239        -3.41726         1.65819        -3.41069         1.68693    -357.295E-03     342.400E-03    -170.581E-03    -171.819E-03    -170.786E-03     342.337E-03    -171.551E-03     11.0599E-03    -89.6407E+06    -131.189E+06    -286.479E+06    -131.195E+06    -286.473E+06    -89.6407E+06    -631.930E+03         50.3722
             883     2.52798E-03     26.2798E-03         1.86889         1.68703        -3.61321         1.68741        -3.43172         1.68703        -1.56390     342.671E-03    -170.896E-03    -171.776E-03    -171.146E-03     342.648E-03    -171.502E-03     6.59366E-03    -112.594E+06    -141.283E+06    -320.741E+06    -141.305E+06    -320.719E+06    -112.594E+06    -574.212E+03         50.0170
             884     1.68548E-03     26.2827E-03         2.11777         1.68573        -3.88764         1.68677        -3.45664         1.68573     301.444E-03     342.600E-03    -171.091E-03    -171.509E-03    -171.117E-03     342.592E-03    -171.475E-03     3.77632E-03    -132.474E+06    -148.630E+06    -345.812E+06    -148.653E+06    -345.789E+06    -132.474E+06     419.895E+03         49.7530
             885     844.229E-06     26.2800E-03         6.43069     618.912E-03        -7.18211        -2.80736        -3.50329         6.17815        -2.89728     342.865E-03    -170.499E-03    -172.365E-03    -171.353E-03     342.862E-03    -171.509E-03     1.09205E-03    -147.759E+06    -155.627E+06    -365.651E+06    -154.163E+06    -365.646E+06    -149.228E+06     468.489E+03         49.5868
             886     14.3336E-03     26.0547E-03         1.18715     433.726E-03        -2.00923     414.725E-03        -1.99023         1.18715     254.875E-03     351.523E-03    -171.712E-03    -179.811E-03    -171.220E-03     342.932E-03    -171.712E-03     126.151E-03     113.749E+06     80.0419E+06    -7.01720E+06    -6.99752E+06     80.0222E+06     113.749E+06     230.880E+03         67.7020
             887     13.4866E-03     25.8214E-03         1.17109     600.913E-03        -2.12340     546.627E-03        -2.06912         1.17109     751.069E-03     353.118E-03    -171.675E-03    -181.443E-03    -172.119E-03     343.794E-03    -171.675E-03     134.972E-03     94.0086E+06     64.9154E+06    -13.9724E+06    -13.9278E+06     64.8708E+06     94.0086E+06    -315.691E+03         65.4703
             888     12.6456E-03     25.6999E-03         1.15175     700.020E-03        -2.16978     650.798E-03        -2.12056         1.15175     720.332E-03     347.984E-03    -171.630E-03    -176.353E-03    -170.950E-03     342.581E-03    -171.630E-03     105.475E-03     86.4450E+06     52.1237E+06    -20.6575E+06    -20.6197E+06     52.0859E+06     86.4450E+06     244.962E+03         62.9091
             889     11.8033E-03     25.5520E-03         1.13316     748.806E-03        -2.17863     717.409E-03        -2.14724         1.13316     600.011E-03     347.431E-03    -171.567E-03    -175.864E-03    -170.624E-03     342.190E-03    -171.567E-03     103.655E-03     81.6570E+06     45.3209E+06    -27.5138E+06    -27.4858E+06     45.2929E+06     81.6570E+06     1.40791E+06         60.3843
             890     10.9615E-03     25.4344E-03         1.11350     776.606E-03        -2.17727     753.079E-03        -2.15375         1.11350     153.719E-03     345.238E-03    -171.488E-03    -173.750E-03    -169.699E-03     341.187E-03    -171.488E-03     91.3310E-03     71.6197E+06     41.6743E+06    -34.9809E+06    -34.9554E+06     41.6488E+06     71.6197E+06     1.35759E+06         58.1719
             891     10.1170E-03     25.3205E-03         1.09548     808.271E-03        -2.17870     781.709E-03        -2.15214         1.09548     182.994E-03     344.287E-03    -171.445E-03    -172.843E-03    -169.302E-03     340.746E-03    -171.445E-03     85.1374E-03     62.8969E+06     38.1575E+06    -43.5442E+06    -43.5351E+06     38.1484E+06     62.8969E+06     571.347E+03         56.3908
             892     9.27306E-03     25.2224E-03         1.07790     847.905E-03        -2.17760     824.579E-03        -2.15427         1.07790     246.173E-03     343.360E-03    -171.275E-03    -172.085E-03    -169.112E-03     340.547E-03    -171.434E-03     75.7830E-03     56.7231E+06     31.2299E+06    -53.0796E+06    -53.0782E+06     31.2286E+06     56.7231E+06     154.669E+03         55.0217
             893     8.42975E-03     25.1317E-03         1.06064     914.682E-03        -2.19485     870.247E-03        -2.15041         1.06064     397.538E-03     342.602E-03    -171.014E-03    -171.588E-03    -168.967E-03     340.413E-03    -171.445E-03     66.7309E-03     46.0747E+06     3.52190E+06    -63.2906E+06    -63.2834E+06     3.51470E+06     46.0747E+06     494.893E+03         53.9712
             894     7.58768E-03     25.0552E-03         1.04439     949.471E-03        -2.18384     906.951E-03        -2.14132         1.04439     547.196E-03     342.396E-03    -170.881E-03    -171.516E-03    -169.356E-03     340.809E-03    -171.452E-03     56.7576E-03     28.0416E+06    -48.3152E+06    -74.3860E+06    -74.0652E+06    -48.6359E+06     28.0416E+06     867.025E+03         53.1334
             895     6.74474E-03     24.9964E-03         1.03155     943.924E-03        -2.15129     920.555E-03        -2.12792         1.03155     408.788E-03     342.027E-03    -170.586E-03    -171.441E-03    -169.524E-03     340.964E-03    -171.440E-03     46.3733E-03     6.50108E+06    -83.8024E+06    -106.937E+06    -85.1769E+06    -105.563E+06     6.50108E+06     889.647E+03         52.4264
             896     5.89996E-03     24.9505E-03         1.02371     966.000E-03        -2.15897     929.906E-03        -2.12288         1.02371     637.944E-03     341.947E-03    -170.540E-03    -171.407E-03    -169.894E-03     341.301E-03    -171.407E-03     35.9467E-03    -15.9089E+06    -97.0855E+06    -154.374E+06    -97.0957E+06    -154.363E+06    -15.9089E+06     563.176E+03         51.8010
             897     5.05919E-03     24.9149E-03         1.02556     977.545E-03        -2.16063     955.145E-03        -2.13260         1.01992     567.905E-03     342.049E-03    -170.716E-03    -171.333E-03    -170.374E-03     341.706E-03    -171.333E-03     26.0768E-03    -39.8060E+06    -108.921E+06    -199.556E+06    -108.924E+06    -199.553E+06    -39.8060E+06     329.161E+03         51.2374
             898     4.21616E-03     24.8956E-03         1.02406     992.579E-03        -2.15194     978.637E-03        -2.13236         1.01842     130.909E-03     341.786E-03    -170.526E-03    -171.261E-03    -170.355E-03     341.616E-03    -171.261E-03     18.3903E-03    -63.5912E+06    -119.906E+06    -245.890E+06    -119.909E+06    -245.887E+06    -63.5912E+06     61.1309E+03         50.7345
             899     3.37249E-03     24.8800E-03         1.03299         1.00552        -2.14928         1.00857        -2.13587         1.01652    -372.525E-03     341.394E-03    -170.120E-03    -171.274E-03    -170.046E-03     341.319E-03    -171.274E-03     11.8649E-03    -88.0745E+06    -130.441E+06    -285.996E+06    -130.446E+06    -285.992E+06    -88.0745E+06    -141.476E+03         50.3008
             900     2.52837E-03     24.8753E-03         1.25703         1.01577        -2.37493         1.00505        -2.12295         1.01577        -1.49548     341.642E-03    -170.227E-03    -171.415E-03    -170.206E-03     341.621E-03    -171.415E-03     6.00295E-03    -113.599E+06    -140.970E+06    -321.013E+06    -140.984E+06    -320.999E+06    -113.599E+06    -1.13291E+06         49.9479
             901     1.68462E-03     24.8725E-03         1.55653         1.01357        -2.68221         1.02481        -2.15048         1.01357     188.703E-03     342.560E-03    -170.920E-03    -171.639E-03    -170.943E-03     342.554E-03    -171.611E-03     3.21167E-03    -134.506E+06    -149.079E+06    -347.333E+06    -149.099E+06    -347.313E+06    -134.506E+06    -1.02999E+06         49.6863
             902     841.112E-06     24.8738E-03         5.73258     550.609E-03        -6.43185        -3.40959        -2.15348         5.41440        -2.65265     343.315E-03    -170.593E-03    -172.723E-03    -172.496E-03     343.312E-03    -170.816E-03     1.88345E-03    -148.476E+06    -156.032E+06    -367.307E+06    -154.825E+06    -367.298E+06    -149.691E+06     172.474E+03         49.5220
             903     14.3304E-03     24.6487E-03     721.495E-03     415.100E-03        -1.61898     400.266E-03        -1.60415     721.495E-03     222.761E-03     352.486E-03    -171.715E-03    -180.771E-03    -172.262E-03     343.976E-03    -171.715E-03     125.739E-03     113.868E+06     80.4266E+06    -6.92514E+06    -6.91313E+06     80.4146E+06     113.868E+06     545.654E+03         67.6686
             904     13.4902E-03     24.4096E-03     695.504E-03     482.687E-03        -1.60957     441.843E-03        -1.55214     678.920E-03     661.425E-03     353.281E-03    -171.631E-03    -181.650E-03    -172.489E-03     344.120E-03    -171.631E-03     133.625E-03     93.9054E+06     65.3335E+06    -14.1654E+06    -14.1287E+06     65.2968E+06     93.9054E+06     2.57143E+03         65.4450
             905     12.6462E-03     24.2914E-03     663.358E-03     498.165E-03        -1.54679     471.123E-03        -1.49229     635.894E-03     631.054E-03     347.961E-03    -171.561E-03    -176.400E-03    -171.130E-03     342.691E-03    -171.561E-03     104.139E-03     85.2664E+06     49.9633E+06    -21.3992E+06    -21.3639E+06     49.9279E+06     85.2664E+06    -361.740E+03         62.8870
             906     11.8039E-03     24.1395E-03     629.945E-03     478.351E-03        -1.46105     480.950E-03        -1.42943     595.727E-03     485.968E-03     347.491E-03    -171.474E-03    -176.017E-03    -170.879E-03     342.352E-03    -171.474E-03     102.600E-03     80.8115E+06     44.0101E+06    -28.2919E+06    -28.2767E+06     43.9949E+06     80.8115E+06     297.261E+03         60.3561
             907     10.9607E-03     24.0267E-03     599.383E-03     457.508E-03        -1.39081     469.479E-03        -1.35889     555.491E-03     76.7312E-03     345.383E-03    -171.362E-03    -174.021E-03    -170.080E-03     341.442E-03    -171.362E-03     90.1122E-03     71.8632E+06     42.4217E+06    -35.3921E+06    -35.3807E+06     42.4103E+06     71.8632E+06     498.768E+03         58.1283
             908     10.1177E-03     23.9127E-03     559.939E-03     436.840E-03        -1.31270     443.395E-03        -1.27692     517.598E-03     80.9017E-03     344.525E-03    -171.266E-03    -173.258E-03    -169.827E-03     341.094E-03    -171.266E-03     83.8193E-03     63.2191E+06     38.4944E+06    -43.4818E+06    -43.4720E+06     38.4845E+06     63.2191E+06     541.863E+03         56.3259
             909     9.27671E-03     23.8113E-03     514.385E-03     418.074E-03        -1.22023     419.785E-03        -1.18966     482.100E-03     149.141E-03     343.394E-03    -171.194E-03    -172.200E-03    -169.501E-03     340.695E-03    -171.194E-03     74.2967E-03     56.6292E+06     31.0390E+06    -53.0573E+06    -53.0525E+06     31.0341E+06     56.6292E+06     438.642E+03         54.9343
             910     8.43420E-03     23.7263E-03     508.936E-03     413.463E-03        -1.17379     399.824E-03        -1.10138     450.160E-03     294.267E-03     342.152E-03    -170.665E-03    -171.488E-03    -168.852E-03     340.020E-03    -171.168E-03     65.8553E-03     46.0882E+06     3.27102E+06    -63.3000E+06    -63.2983E+06     3.26930E+06     46.0882E+06     286.694E+03         53.8639
             911     7.58850E-03     23.6472E-03     479.152E-03     399.243E-03        -1.09621     390.278E-03        -1.02987     421.782E-03     457.114E-03     341.295E-03    -170.097E-03    -171.198E-03    -168.557E-03     339.756E-03    -171.198E-03     55.7405E-03     27.9087E+06    -48.9000E+06    -74.4935E+06    -74.1856E+06    -49.2080E+06     27.9087E+06     85.8789E+03         53.0111
             912     6.74439E-03     23.5898E-03     448.773E-03     376.254E-03        -1.02222     379.441E-03    -974.219E-03     397.591E-03     352.046E-03     341.691E-03    -170.489E-03    -171.203E-03    -169.490E-03     340.693E-03    -171.203E-03     44.8593E-03     6.22101E+06    -84.1554E+06    -106.646E+06    -85.1647E+06    -105.637E+06     6.22101E+06     346.696E+03         52.2948
             913     5.90387E-03     23.5404E-03     456.340E-03     372.926E-03        -1.01602     360.877E-03    -926.503E-03     378.872E-03     580.328E-03     341.507E-03    -170.357E-03    -171.150E-03    -169.765E-03     340.916E-03    -171.150E-03     34.3702E-03    -15.5344E+06    -96.0835E+06    -154.226E+06    -96.0972E+06    -154.213E+06    -15.5344E+06     762.854E+03         51.6656
             914     5.05876E-03     23.5102E-03     430.736E-03     362.727E-03    -967.496E-03     357.859E-03    -897.201E-03     365.309E-03     492.153E-03     340.972E-03    -169.846E-03    -171.126E-03    -169.517E-03     340.643E-03    -171.126E-03     25.6780E-03    -38.5719E+06    -107.317E+06    -199.081E+06    -107.323E+06    -199.075E+06    -38.5719E+06     705.546E+03         51.1018
             915     4.21546E-03     23.4864E-03     397.735E-03     352.903E-03    -902.842E-03     359.222E-03    -866.357E-03     354.930E-03     114.994E-03     341.362E-03    -170.236E-03    -171.126E-03    -170.063E-03     341.189E-03    -171.126E-03     18.3736E-03    -62.4313E+06    -119.045E+06    -245.425E+06    -119.051E+06    -245.419E+06    -62.4313E+06     475.761E+03         50.6012
             916     3.37274E-03     23.4762E-03     469.959E-03     341.814E-03    -938.810E-03     377.228E-03    -848.106E-03     343.841E-03    -451.971E-03     341.528E-03    -170.439E-03    -171.089E-03    -170.371E-03     341.460E-03    -171.089E-03     11.3223E-03    -87.8394E+06    -130.718E+06    -285.848E+06    -130.724E+06    -285.843E+06    -87.8394E+06     236.025E+03         50.1714
             917     2.52931E-03     23.4679E-03     767.069E-03     334.005E-03        -1.21011     347.818E-03    -790.864E-03     334.005E-03        -1.33964     341.529E-03    -170.450E-03    -171.079E-03    -170.446E-03     341.510E-03    -171.064E-03     5.72040E-03    -114.039E+06    -140.812E+06    -319.931E+06    -140.819E+06    -319.924E+06    -114.039E+06     39.7370E+03         49.8226
             918     1.68608E-03     23.4677E-03     959.202E-03     320.330E-03        -1.38999     359.919E-03    -790.705E-03     320.330E-03    -63.0091E-03     341.881E-03    -170.576E-03    -171.304E-03    -170.826E-03     341.878E-03    -171.051E-03     2.12392E-03    -136.922E+06    -149.711E+06    -349.099E+06    -149.723E+06    -349.087E+06    -136.922E+06    -794.991E+03         49.5643
             919     843.238E-06     23.4639E-03         4.77060     343.306E-03        -5.23330        -3.83422    -736.605E-03         4.45142        -1.82313     342.000E-03    -169.791E-03    -172.209E-03    -171.078E-03     341.999E-03    -170.921E-03     734.090E-06    -149.995E+06    -156.147E+06    -368.766E+06    -154.939E+06    -368.759E+06    -151.210E+06    -997.964E+03         49.4021
             920     14.3352E-03     23.2336E-03     408.207E-03     212.525E-03        -1.14743     350.737E-03        -1.13521     257.765E-03     180.578E-03     353.461E-03    -171.658E-03    -181.802E-03    -173.401E-03     345.059E-03    -171.658E-03     125.728E-03     113.693E+06     80.2208E+06    -7.51062E+06    -7.50919E+06     80.2193E+06     113.693E+06     221.917E+03         67.6374
             921     13.4903E-03     23.0052E-03     396.937E-03     179.198E-03        -1.04091     315.384E-03    -973.615E-03     193.457E-03     554.901E-03     353.860E-03    -171.507E-03    -182.354E-03    -173.330E-03     344.837E-03    -171.507E-03     133.134E-03     94.3659E+06     65.6183E+06    -13.8253E+06    -13.8216E+06     65.6146E+06     94.3659E+06     165.254E+03         65.4159
             922     12.6482E-03     22.8773E-03     356.477E-03     130.332E-03    -898.219E-03     289.687E-03    -831.429E-03     130.332E-03     524.305E-03     347.932E-03    -171.385E-03    -176.547E-03    -171.479E-03     342.863E-03    -171.385E-03     102.339E-03     85.8112E+06     49.6287E+06    -20.1811E+06    -20.1739E+06     49.6215E+06     85.8112E+06    -165.500E+03         62.8519
             923     11.8064E-03     22.7329E-03     295.252E-03     70.7865E-03    -736.945E-03     252.980E-03    -694.673E-03     70.7865E-03     368.022E-03     347.030E-03    -171.259E-03    -175.771E-03    -170.950E-03     342.208E-03    -171.259E-03     99.4297E-03     79.9607E+06     42.9986E+06    -27.5575E+06    -27.5532E+06     42.9943E+06     79.9607E+06    -357.297E+03         60.3028
             924     10.9635E-03     22.6161E-03     283.669E-03     20.0961E-03    -646.666E-03     186.243E-03    -541.147E-03     12.0025E-03    -4.48115E-03     345.450E-03    -171.098E-03    -174.352E-03    -170.655E-03     341.752E-03    -171.098E-03     87.3461E-03     70.7769E+06     41.6667E+06    -35.3701E+06    -35.3695E+06     41.6660E+06     70.7769E+06    -104.220E+03         58.0469
             925     10.1232E-03     22.5025E-03     273.246E-03     2.59843E-03    -594.929E-03     97.8131E-03    -374.262E-03    -42.6364E-03    -24.2601E-03     344.256E-03    -170.944E-03    -173.312E-03    -170.111E-03     341.054E-03    -170.944E-03     81.0383E-03     62.5752E+06     38.0574E+06    -43.6388E+06    -43.6346E+06     38.0532E+06     62.5752E+06     283.740E+03         56.2113
             926     9.27801E-03     22.4059E-03     288.303E-03    -22.1232E-03    -553.669E-03     17.8620E-03    -212.811E-03    -92.5409E-03     46.2324E-03     342.652E-03    -170.845E-03    -171.807E-03    -169.232E-03     340.077E-03    -170.845E-03     72.4588E-03     57.2564E+06     31.4600E+06    -52.1705E+06    -52.1651E+06     31.4545E+06     57.2564E+06     578.667E+03         54.7860
             927     8.43468E-03     22.3150E-03     384.135E-03    -85.5941E-03    -548.181E-03    -44.4776E-03    -67.9906E-03    -137.172E-03     172.625E-03     341.878E-03    -170.548E-03    -171.329E-03    -169.120E-03     339.900E-03    -170.780E-03     63.3142E-03     46.3209E+06     3.80339E+06    -62.6492E+06    -62.6467E+06     3.80092E+06     46.3209E+06     400.349E+03         53.6866
             928     7.59256E-03     22.2462E-03     430.940E-03    -126.654E-03    -518.304E-03    -92.8139E-03     55.8014E-03    -177.006E-03     324.316E-03     341.214E-03    -170.187E-03    -171.027E-03    -169.120E-03     339.836E-03    -170.717E-03     52.7142E-03     27.6111E+06    -48.8705E+06    -74.6324E+06    -74.1853E+06    -49.3176E+06     27.6111E+06     148.522E+03         52.8123
             929     6.74926E-03     22.1782E-03     464.596E-03    -163.719E-03    -487.106E-03    -142.121E-03     167.305E-03    -211.413E-03     218.525E-03     340.301E-03    -169.609E-03    -170.692E-03    -168.751E-03     339.424E-03    -170.673E-03     41.8885E-03     5.48042E+06    -84.4185E+06    -106.776E+06    -85.3880E+06    -105.806E+06     5.48042E+06    -150.293E+03         52.0812
             930     5.90451E-03     22.1364E-03     543.832E-03    -215.721E-03    -497.465E-03    -194.692E-03     263.809E-03    -238.471E-03     438.869E-03     339.958E-03    -169.287E-03    -170.672E-03    -168.777E-03     339.449E-03    -170.672E-03     31.8054E-03    -16.5689E+06    -96.7116E+06    -155.039E+06    -96.7213E+06    -155.030E+06    -16.5689E+06     125.582E+03         51.4436
             931     5.06117E-03     22.1040E-03     545.148E-03    -232.460E-03    -467.206E-03    -218.642E-03     323.238E-03    -259.114E-03     318.166E-03     340.126E-03    -169.448E-03    -170.678E-03    -169.179E-03     339.857E-03    -170.678E-03     22.9513E-03    -38.9425E+06    -108.167E+06    -198.723E+06    -108.174E+06    -198.716E+06    -38.9425E+06     671.942E+03         50.8773
             932     4.21670E-03     22.0816E-03     533.272E-03    -235.922E-03    -431.167E-03    -223.371E-03     367.278E-03    -277.723E-03     37.0195E-03     340.270E-03    -169.586E-03    -170.684E-03    -169.462E-03     340.146E-03    -170.684E-03     15.3386E-03    -62.9164E+06    -119.320E+06    -244.607E+06    -119.329E+06    -244.598E+06    -62.9164E+06     419.166E+03         50.3780
             933     3.37339E-03     22.0673E-03     676.275E-03    -277.378E-03    -508.237E-03    -216.517E-03     406.807E-03    -299.630E-03    -568.190E-03     340.736E-03    -170.081E-03    -170.655E-03    -170.035E-03     340.690E-03    -170.655E-03     9.20667E-03    -87.7388E+06    -129.691E+06    -286.085E+06    -129.700E+06    -286.076E+06    -87.7388E+06     286.084E+03         49.9518
             934     2.53077E-03     22.0642E-03     936.844E-03    -323.238E-03    -699.971E-03    -262.617E-03     499.490E-03    -323.238E-03        -1.16423     341.157E-03    -170.419E-03    -170.738E-03    -170.636E-03     341.143E-03    -170.507E-03     5.02516E-03    -111.600E+06    -139.546E+06    -320.152E+06    -139.553E+06    -320.145E+06    -111.600E+06     776.719E+03         49.6076
             935     1.68776E-03     22.0595E-03     963.802E-03    -332.327E-03    -728.655E-03    -289.596E-03     542.073E-03    -349.658E-03    -409.152E-03     340.863E-03    -170.192E-03    -170.671E-03    -170.668E-03     340.860E-03    -170.192E-03     2.03221E-03    -134.228E+06    -148.301E+06    -348.457E+06    -148.307E+06    -348.451E+06    -134.228E+06     516.512E+03         49.3533
             936     845.000E-06     22.0613E-03         4.02677     307.999E-03        -4.43943        -4.13167     618.746E-03         3.40826    -844.777E-03     339.911E-03    -169.312E-03    -170.600E-03    -169.692E-03     339.911E-03    -170.218E-03     132.189E-06    -149.222E+06    -155.289E+06    -368.643E+06    -153.886E+06    -368.639E+06    -150.630E+06    -461.339E+03         49.1939
             937     14.3325E-03     21.8243E-03     302.758E-03    -136.238E-03    -679.367E-03     288.691E-03    -615.382E-03    -186.156E-03     144.324E-03     354.514E-03    -171.560E-03    -182.954E-03    -174.701E-03     346.261E-03    -171.560E-03     125.717E-03     114.266E+06     80.2346E+06    -7.12404E+06    -7.12052E+06     80.2311E+06     114.266E+06    -137.567E+03         67.6179
             938     13.4933E-03     21.5920E-03     312.469E-03    -138.406E-03    -621.923E-03     199.539E-03    -378.443E-03    -268.956E-03     456.327E-03     354.822E-03    -171.309E-03    -183.513E-03    -174.845E-03     346.154E-03    -171.309E-03     130.672E-03     94.6849E+06     64.8658E+06    -13.6137E+06    -13.6068E+06     64.8589E+06     94.6849E+06    -25.1762E+03         65.3928
             939     12.6533E-03     21.4669E-03     312.235E-03    -123.907E-03    -577.227E-03     118.471E-03    -157.986E-03    -349.384E-03     416.502E-03     348.465E-03    -171.079E-03    -177.386E-03    -172.597E-03     343.676E-03    -171.079E-03     99.6511E-03     85.9023E+06     49.8679E+06    -20.3131E+06    -20.3079E+06     49.8627E+06     85.9023E+06     270.295E+03         62.8134
             940     11.8103E-03     21.3252E-03     326.564E-03    -149.280E-03    -519.836E-03     22.3358E-03     60.1956E-03    -425.083E-03     239.277E-03     347.602E-03    -170.836E-03    -176.766E-03    -172.286E-03     343.122E-03    -170.836E-03     95.9109E-03     79.6632E+06     43.4606E+06    -28.0941E+06    -28.0910E+06     43.4575E+06     79.6632E+06    -20.2251E+03         60.2340
             941     10.9697E-03     21.2040E-03     472.006E-03    -259.605E-03    -521.765E-03    -102.444E-03     291.138E-03    -498.058E-03    -102.497E-03     345.082E-03    -170.565E-03    -174.517E-03    -171.226E-03     341.790E-03    -170.565E-03     82.2959E-03     70.2377E+06     40.6655E+06    -35.9765E+06    -35.9705E+06     40.6595E+06     70.2377E+06    -417.314E+03         57.9351
             942     10.1253E-03     21.0972E-03     614.498E-03    -330.171E-03    -564.773E-03    -242.935E-03     527.262E-03    -564.773E-03    -153.950E-03     343.286E-03    -170.330E-03    -172.957E-03    -170.194E-03     340.524E-03    -170.330E-03     75.0440E-03     62.2956E+06     37.4443E+06    -43.5473E+06    -43.5323E+06     37.4294E+06     62.2956E+06    -681.827E+03         56.0493
             943     9.28482E-03     20.9959E-03     772.852E-03    -395.501E-03    -625.167E-03    -363.536E-03     740.888E-03    -625.167E-03    -99.3739E-03     341.861E-03    -170.143E-03    -171.718E-03    -169.586E-03     339.729E-03    -170.143E-03     65.7116E-03     56.4854E+06     30.4434E+06    -52.7085E+06    -52.6975E+06     30.4325E+06     56.4854E+06    -287.830E+03         54.5748
             944     8.44111E-03     20.9130E-03     972.850E-03    -502.351E-03    -679.194E-03    -465.027E-03     935.526E-03    -679.194E-03     3.52975E-03     340.904E-03    -169.967E-03    -170.937E-03    -169.353E-03     339.320E-03    -169.967E-03     56.5789E-03     45.9513E+06     4.22267E+06    -63.0425E+06    -63.0344E+06     4.21456E+06     45.9513E+06     507.700E+03         53.4320
             945     7.59861E-03     20.8325E-03         1.13031    -572.831E-03    -726.792E-03    -551.242E-03         1.10872    -726.792E-03     138.984E-03     339.931E-03    -169.651E-03    -170.279E-03    -169.040E-03     338.838E-03    -169.798E-03     46.6842E-03     27.9898E+06    -47.7732E+06    -73.8246E+06    -73.4516E+06    -48.1462E+06     27.9898E+06     610.068E+03         52.5227
             946     6.75568E-03     20.7802E-03         1.26339    -635.617E-03    -767.220E-03    -630.267E-03         1.25804    -767.220E-03     48.3841E-03     338.413E-03    -168.706E-03    -169.707E-03    -168.059E-03     337.746E-03    -169.688E-03     36.2604E-03     5.95869E+06    -84.4987E+06    -105.877E+06    -84.8730E+06    -105.503E+06     5.95869E+06     573.712E+03         51.7658
             947     5.90932E-03     20.7306E-03         1.39355    -713.159E-03    -800.188E-03    -699.972E-03         1.38036    -800.188E-03     275.622E-03     337.955E-03    -168.303E-03    -169.651E-03    -167.934E-03     337.586E-03    -169.651E-03     26.6679E-03    -16.8664E+06    -97.3149E+06    -155.222E+06    -97.3530E+06    -155.184E+06    -16.8664E+06     453.201E+03         51.1107
             948     5.06587E-03     20.6990E-03         1.46996    -744.563E-03    -827.816E-03    -735.214E-03         1.46061    -827.816E-03     139.035E-03     338.374E-03    -168.780E-03    -169.595E-03    -168.609E-03     338.204E-03    -169.595E-03     17.9679E-03    -40.4302E+06    -109.316E+06    -198.311E+06    -109.329E+06    -198.298E+06    -40.4302E+06    -154.309E+03         50.5342
             949     4.22264E-03     20.6779E-03         1.53242    -758.815E-03    -853.775E-03    -757.874E-03         1.53148    -853.775E-03    -63.7101E-03     338.186E-03    -168.651E-03    -169.535E-03    -168.584E-03     338.119E-03    -169.535E-03     11.0762E-03    -63.6483E+06    -120.009E+06    -243.909E+06    -120.031E+06    -243.886E+06    -63.6483E+06    -56.2170E+03         50.0309
             950     3.37687E-03     20.6649E-03         1.69098    -835.047E-03    -915.140E-03    -777.018E-03         1.59967    -881.858E-03    -696.488E-03     338.137E-03    -168.610E-03    -169.528E-03    -168.588E-03     338.116E-03    -169.528E-03     5.91574E-03    -88.0542E+06    -131.273E+06    -286.888E+06    -131.286E+06    -286.874E+06    -88.0542E+06     563.289E+03         49.6043
             951     2.53230E-03     20.6572E-03         1.83495    -909.564E-03    -965.852E-03    -839.223E-03         1.70832    -909.564E-03        -1.03960     338.590E-03    -168.864E-03    -169.726E-03    -169.075E-03     338.584E-03    -169.510E-03     2.82998E-03    -112.582E+06    -141.186E+06    -320.121E+06    -141.190E+06    -320.117E+06    -112.582E+06     455.457E+03         49.2620
             952     1.68922E-03     20.6566E-03         1.83810    -916.790E-03    -962.580E-03    -886.791E-03         1.77964    -934.120E-03    -698.292E-03     338.683E-03    -168.974E-03    -169.709E-03    -169.198E-03     338.681E-03    -169.483E-03     1.15304E-03    -134.247E+06    -148.510E+06    -347.465E+06    -148.513E+06    -347.463E+06    -134.247E+06     215.555E+03         49.0108
             953     843.646E-06     20.6591E-03         3.74930     546.210E-03        -4.32695        -4.26478         1.86483         2.36851    -19.1147E-03     338.877E-03    -168.946E-03    -169.932E-03    -169.733E-03     338.877E-03    -169.145E-03     355.691E-06    -149.167E+06    -155.595E+06    -368.892E+06    -154.194E+06    -368.886E+06    -150.574E+06     340.530E+03         48.8541
             954     14.3375E-03     20.4088E-03     302.606E-03    -125.782E-03    -630.458E-03     215.571E-03    -70.6902E-03    -598.514E-03     124.889E-03     356.795E-03    -171.368E-03    -185.427E-03    -177.548E-03     348.915E-03    -171.368E-03     124.501E-03     114.880E+06     80.5426E+06    -7.10585E+06    -7.08916E+06     80.5259E+06     114.880E+06    -170.605E+03         67.6336
             955     13.4988E-03     20.1779E-03     440.359E-03    -131.145E-03    -695.843E-03     81.5273E-03     227.686E-03    -695.843E-03     369.479E-03     355.820E-03    -170.937E-03    -184.883E-03    -176.933E-03     347.869E-03    -170.937E-03     125.195E-03     93.8267E+06     63.8222E+06    -14.9530E+06    -14.9350E+06     63.8042E+06     93.8267E+06     175.856E+03         65.4026
             956     12.6563E-03     20.0590E-03     623.432E-03    -157.253E-03    -789.286E-03    -59.3058E-03     525.485E-03    -789.286E-03     325.379E-03     349.706E-03    -170.519E-03    -179.187E-03    -174.939E-03     345.458E-03    -170.519E-03     94.0539E-03     84.9665E+06     49.3349E+06    -21.8031E+06    -21.7946E+06     49.3264E+06     84.9665E+06     53.8377E+03         62.8001
             957     11.8194E-03     19.9083E-03     830.940E-03    -226.136E-03    -876.130E-03    -218.170E-03     822.975E-03    -876.130E-03     117.213E-03     348.272E-03    -170.065E-03    -178.207E-03    -174.419E-03     344.484E-03    -170.065E-03     87.9548E-03     80.1048E+06     44.3549E+06    -28.2365E+06    -28.2231E+06     44.3415E+06     80.1048E+06    -521.807E+03         60.1780
             958     10.9793E-03     19.7997E-03         1.13510    -410.321E-03    -957.869E-03    -387.552E-03         1.11233    -957.869E-03    -202.132E-03     344.793E-03    -169.584E-03    -175.209E-03    -172.601E-03     342.185E-03    -169.584E-03     73.2823E-03     71.0400E+06     41.0337E+06    -35.4489E+06    -35.4316E+06     41.0163E+06     71.0400E+06    -1.06174E+06         57.8193
             959     10.1396E-03     19.6870E-03         1.41065    -582.023E-03        -1.03227    -561.638E-03         1.39027        -1.03227    -280.184E-03     342.577E-03    -169.140E-03    -173.437E-03    -171.334E-03     340.473E-03    -169.140E-03     65.3219E-03     61.7482E+06     36.8287E+06    -43.7846E+06    -43.7627E+06     36.8068E+06     61.7482E+06    -604.696E+03         55.8640
             960     9.29597E-03     19.5928E-03         1.65429    -725.416E-03        -1.09962    -715.111E-03         1.64399        -1.09962    -244.934E-03     340.652E-03    -168.735E-03    -171.918E-03    -170.383E-03     339.118E-03    -168.735E-03     55.6189E-03     54.9921E+06     29.3803E+06    -53.4641E+06    -53.4481E+06     29.3643E+06     54.9921E+06    -165.264E+03         54.3191
             961     8.45498E-03     19.5042E-03         1.88541    -856.206E-03        -1.15981    -844.933E-03         1.87413        -1.15981    -137.810E-03     338.684E-03    -168.374E-03    -170.310E-03    -169.215E-03     337.589E-03    -168.374E-03     46.4549E-03     45.6929E+06     4.42037E+06    -63.4233E+06    -63.4130E+06     4.41015E+06     45.6929E+06     68.3107E+03         53.1112
             962     7.61075E-03     19.4339E-03         2.07885    -955.455E-03        -1.21318    -952.908E-03         2.07630        -1.21318     6.98989E-03     336.623E-03    -167.945E-03    -168.677E-03    -167.852E-03     335.943E-03    -168.092E-03     36.1482E-03     28.2510E+06    -47.0284E+06    -74.3435E+06    -74.1427E+06    -47.2292E+06     28.2510E+06     482.992E+03         52.1456
             963     6.76498E-03     19.3746E-03         2.25156        -1.04778        -1.25990        -1.04666         2.25044        -1.25990    -43.7412E-03     335.752E-03    -167.622E-03    -168.130E-03    -167.517E-03     335.376E-03    -167.859E-03     26.4133E-03     5.60442E+06    -85.1496E+06    -106.715E+06    -86.2323E+06    -105.633E+06     5.60442E+06     963.412E+03         51.3433
             964     5.92283E-03     19.3327E-03         2.40043        -1.13639        -1.30008        -1.13313         2.39717        -1.30008     167.953E-03     334.820E-03    -166.973E-03    -167.847E-03    -166.981E-03     334.640E-03    -167.659E-03     17.9508E-03    -16.2121E+06    -96.8928E+06    -153.040E+06    -96.9255E+06    -153.007E+06    -16.2121E+06     718.999E+03         50.6538
             965     5.07550E-03     19.2973E-03         2.52174        -1.20595        -1.33424        -1.20161         2.51740        -1.33424     39.6020E-03     333.981E-03    -166.440E-03    -167.541E-03    -166.367E-03     333.908E-03    -167.541E-03     10.8782E-03    -39.4980E+06    -107.635E+06    -196.755E+06    -107.646E+06    -196.744E+06    -39.4980E+06    -256.869E+03         50.0520
             966     4.22949E-03     19.2777E-03         2.63025        -1.26259        -1.36304        -1.26117         2.62882        -1.36304    -124.125E-03     334.192E-03    -166.705E-03    -167.486E-03    -166.683E-03     334.169E-03    -167.486E-03     5.23340E-03    -63.7481E+06    -120.179E+06    -245.590E+06    -120.197E+06    -245.572E+06    -63.7481E+06     82.6032E+03         49.5316
             967     3.38472E-03     19.2659E-03         2.78774        -1.34532        -1.41450        -1.30331         2.71967        -1.38843    -768.667E-03     334.079E-03    -166.626E-03    -167.453E-03    -166.620E-03     334.074E-03    -167.453E-03     1.60419E-03    -87.2764E+06    -130.895E+06    -285.885E+06    -130.903E+06    -285.877E+06    -87.2764E+06     513.692E+03         49.0952
             968     2.53796E-03     19.2585E-03         2.89541        -1.40864        -1.43923        -1.36602         2.82220        -1.40864    -935.659E-03     333.920E-03    -166.372E-03    -167.548E-03    -166.369E-03     333.917E-03    -167.548E-03    -847.866E-06    -112.086E+06    -140.505E+06    -318.931E+06    -140.505E+06    -318.930E+06    -112.086E+06    -167.380E+03         48.7478
             969     1.68955E-03     19.2575E-03         2.93540        -1.42356        -1.45791        -1.39622         2.87371        -1.42356    -890.435E-03     334.742E-03    -166.953E-03    -167.789E-03    -166.948E-03     334.736E-03    -167.789E-03    -2.13299E-03    -134.152E+06    -148.576E+06    -347.938E+06    -148.577E+06    -347.937E+06    -134.152E+06    -420.039E+03         48.4945
             970     844.856E-06     19.2571E-03         3.61679     763.778E-03        -4.33578        -4.20252         2.90884         1.33847     509.436E-03     335.771E-03    -167.357E-03    -168.414E-03    -167.997E-03     335.767E-03    -167.770E-03    -1.55606E-03    -149.769E+06    -155.619E+06    -369.173E+06    -155.011E+06    -369.164E+06    -150.386E+06    -361.994E+03         48.3375
             971     14.3415E-03     18.9846E-03     565.735E-03     50.0090E-03    -970.537E-03     112.679E-03     503.066E-03    -970.537E-03     98.5498E-03     361.049E-03    -171.067E-03    -189.982E-03    -182.647E-03     353.714E-03    -171.067E-03     123.032E-03     115.272E+06     79.6412E+06    -7.40724E+06    -7.39233E+06     79.6263E+06     115.272E+06    -24.2626E+03         67.7134
             972     13.5056E-03     18.7682E-03     887.952E-03    -93.8590E-03        -1.07619    -64.6629E-03     858.756E-03        -1.07619     281.758E-03     358.829E-03    -170.291E-03    -188.537E-03    -181.652E-03     351.944E-03    -170.291E-03     117.361E-03     94.9001E+06     64.4452E+06    -13.8807E+06    -13.8657E+06     64.4302E+06     94.9001E+06     218.888E+03         65.4810
             973     12.6721E-03     18.6392E-03         1.22795    -266.376E-03        -1.17662    -246.052E-03         1.20763        -1.17662     245.119E-03     351.804E-03    -169.520E-03    -182.284E-03    -178.839E-03     348.358E-03    -169.520E-03     85.3233E-03     86.1639E+06     50.4718E+06    -20.1094E+06    -20.0962E+06     50.4586E+06     86.1639E+06    -523.600E+03         62.8546
             974     11.8350E-03     18.4995E-03         1.55058    -440.430E-03        -1.26974    -439.097E-03         1.54925        -1.26974     20.6855E-03     348.523E-03    -168.743E-03    -179.781E-03    -176.925E-03     345.667E-03    -168.743E-03     76.5162E-03     80.6827E+06     44.6073E+06    -26.9690E+06    -26.9510E+06     44.5893E+06     80.6827E+06    -874.162E+03         60.1803
             975     10.9967E-03     18.3881E-03         1.88921    -650.131E-03        -1.35689    -638.303E-03         1.87738        -1.35689    -281.260E-03     344.844E-03    -167.943E-03    -176.901E-03    -175.027E-03     342.970E-03    -167.943E-03     61.9260E-03     70.7007E+06     41.0155E+06    -35.4489E+06    -35.4374E+06     41.0040E+06     70.7007E+06    -569.321E+03         57.7459
             976     10.1574E-03     18.2813E-03         2.20371    -854.202E-03        -1.43633    -840.363E-03         2.18987        -1.43633    -372.806E-03     342.134E-03    -167.141E-03    -174.993E-03    -173.610E-03     340.751E-03    -167.141E-03     52.4185E-03     60.9769E+06     36.1166E+06    -44.6745E+06    -44.6592E+06     36.1013E+06     60.9769E+06    -234.360E+03         55.7009
             977     9.31873E-03     18.1885E-03         2.48008        -1.02563        -1.50825        -1.01603         2.47048        -1.50825    -353.923E-03     338.591E-03    -166.385E-03    -172.206E-03    -171.304E-03     337.689E-03    -166.385E-03     41.9050E-03     54.9572E+06     29.3652E+06    -53.2287E+06    -53.2146E+06     29.3511E+06     54.9572E+06    -203.792E+03         54.0611
             978     8.47600E-03     18.1026E-03         2.72571        -1.16707        -1.57322        -1.15956         2.71820        -1.57322    -245.042E-03     335.124E-03    -165.738E-03    -169.386E-03    -168.831E-03     334.569E-03    -165.738E-03     31.9770E-03     45.7583E+06     4.77961E+06    -63.0950E+06    -63.0911E+06     4.77579E+06     45.7583E+06    -241.151E+03         52.7608
             979     7.63234E-03     18.0372E-03         2.93635        -1.27944        -1.63236        -1.27810         2.93501        -1.63236    -108.941E-03     332.513E-03    -165.207E-03    -167.307E-03    -167.022E-03     332.229E-03    -165.207E-03     22.4678E-03     28.2046E+06    -46.9362E+06    -75.0403E+06    -74.6816E+06    -47.2949E+06     28.2046E+06     607.279E+03         51.7109
             980     6.78797E-03     17.9778E-03         3.13859        -1.39278        -1.68595        -1.39158         3.13739        -1.68595    -123.811E-03     330.714E-03    -164.750E-03    -165.964E-03    -165.835E-03     330.585E-03    -164.750E-03     13.8363E-03     6.09259E+06    -84.2378E+06    -104.939E+06    -85.7086E+06    -103.468E+06     6.09259E+06     718.614E+03         50.8353
             981     5.93991E-03     17.9365E-03         3.32681        -1.50938        -1.73246        -1.50823         3.32566        -1.73246     53.3255E-03     329.093E-03    -164.168E-03    -164.925E-03    -164.671E-03     329.048E-03    -164.377E-03     6.06411E-03    -15.9749E+06    -96.7719E+06    -150.677E+06    -96.7721E+06    -150.677E+06    -15.9749E+06         347.360         50.0842
             982     5.09339E-03     17.9070E-03         3.48317        -1.61007        -1.77100        -1.60764         3.48074        -1.77100    -38.9647E-03     327.706E-03    -163.387E-03    -164.320E-03    -163.543E-03     327.683E-03    -164.140E-03     623.322E-06    -39.3382E+06    -108.541E+06    -197.021E+06    -108.559E+06    -197.003E+06    -39.3382E+06     795.620E+03         49.4330
             983     4.24361E-03     17.8845E-03         3.61755        -1.69599        -1.80157        -1.69427         3.61582        -1.80157    -172.872E-03     327.160E-03    -163.119E-03    -164.040E-03    -163.097E-03     327.138E-03    -164.040E-03    -3.61310E-03    -64.1241E+06    -120.286E+06    -244.490E+06    -120.315E+06    -244.461E+06    -64.1241E+06     138.184E+03         48.8740
             984     3.39446E-03     17.8727E-03         3.77186        -1.78425        -1.84962        -1.76068         3.72269        -1.82402    -785.823E-03     327.314E-03    -163.311E-03    -164.004E-03    -163.278E-03     327.282E-03    -164.004E-03    -6.00614E-03    -88.2357E+06    -130.812E+06    -284.918E+06    -130.829E+06    -284.901E+06    -88.2357E+06    -1.13351E+06         48.4092
             985     2.54547E-03     17.8686E-03         3.85886        -1.83297        -1.86791        -1.81175         3.80813        -1.83840    -879.802E-03     327.411E-03    -163.372E-03    -164.039E-03    -163.379E-03     327.381E-03    -164.002E-03    -6.51089E-03    -111.587E+06    -139.980E+06    -318.568E+06    -139.990E+06    -318.558E+06    -111.587E+06    -208.847E+03         48.0426
             986     1.69800E-03     17.8637E-03         3.91461        -1.84024        -1.90617        -1.83845         3.85233        -1.84568    -975.321E-03     327.702E-03    -163.632E-03    -164.070E-03    -163.650E-03     327.683E-03    -164.033E-03    -5.79797E-03    -134.593E+06    -149.156E+06    -347.665E+06    -149.161E+06    -347.661E+06    -134.593E+06     197.903E+03         47.7770
             987     848.939E-06     17.8636E-03         4.02324     333.181E-03        -4.19692        -4.02983         3.85615     333.181E-03     649.980E-03     328.037E-03    -163.663E-03    -164.374E-03    -164.076E-03     328.027E-03    -163.951E-03    -4.11229E-03    -150.517E+06    -155.933E+06    -369.109E+06    -154.476E+06    -369.086E+06    -151.997E+06     346.458E+03         47.6128
             988     14.3459E-03     17.5505E-03         1.11562    -25.4420E-03        -1.29320    -23.3159E-03         1.11349        -1.29320     68.0729E-03     366.991E-03    -170.677E-03    -196.314E-03    -189.516E-03     360.192E-03    -170.677E-03     121.137E-03     116.190E+06     79.1597E+06    -7.03691E+06    -7.03093E+06     79.1537E+06     116.190E+06    -476.619E+03         67.8801
             989     13.5214E-03     17.3480E-03         1.51038    -238.997E-03        -1.40108    -232.344E-03         1.50373        -1.40108     194.828E-03     364.265E-03    -169.429E-03    -194.836E-03    -188.768E-03     358.197E-03    -169.429E-03     111.901E-03     95.9866E+06     64.7981E+06    -13.4790E+06    -13.4700E+06     64.7892E+06     95.9866E+06    -442.238E+03         65.6530
             990     12.6894E-03     17.2170E-03         1.87318    -432.140E-03        -1.50297    -427.164E-03         1.86820        -1.50297     165.337E-03     355.894E-03    -168.147E-03    -187.747E-03    -184.891E-03     353.038E-03    -168.147E-03     78.4872E-03     86.8793E+06     51.7574E+06    -20.1409E+06    -20.1297E+06     51.7462E+06     86.8793E+06    -222.248E+03         63.0089
             991     11.8579E-03     17.0893E-03         2.22278    -630.980E-03        -1.59823    -628.927E-03         2.22073        -1.59823    -55.3538E-03     350.886E-03    -166.862E-03    -184.024E-03    -181.915E-03     348.776E-03    -166.862E-03     66.0216E-03     80.2757E+06     44.4882E+06    -28.3178E+06    -28.3067E+06     44.4771E+06     80.2757E+06    -479.685E+03         60.2847
             992     11.0235E-03     16.9757E-03         2.57889    -856.415E-03        -1.68786    -846.005E-03         2.56848        -1.68786    -353.565E-03     345.883E-03    -165.545E-03    -180.338E-03    -179.154E-03     344.699E-03    -165.545E-03     49.0697E-03     70.4626E+06     40.3941E+06    -36.2824E+06    -36.2714E+06     40.3831E+06     70.4626E+06    -596.764E+03         57.7693
             993     10.1890E-03     16.8765E-03         2.91498        -1.07826        -1.76987        -1.06402         2.90074        -1.76987    -467.846E-03     341.090E-03    -164.242E-03    -176.848E-03    -176.129E-03     340.371E-03    -164.242E-03     37.7186E-03     61.5013E+06     36.1232E+06    -44.0094E+06    -43.9932E+06     36.1070E+06     61.5013E+06    -743.956E+03         55.6195
             994     9.35076E-03     16.7844E-03         3.21158        -1.26821        -1.84432        -1.25486         3.19823        -1.84432    -485.520E-03     336.088E-03    -163.017E-03    -173.071E-03    -172.674E-03     335.691E-03    -163.017E-03     27.1888E-03     54.5184E+06     28.8752E+06    -53.4705E+06    -53.4619E+06     28.8665E+06     54.5184E+06    -495.069E+03         53.8624
             995     8.50972E-03     16.7114E-03         3.47414        -1.42608        -1.91186        -1.41667         3.46472        -1.91186    -389.467E-03     331.367E-03    -161.915E-03    -169.453E-03    -169.278E-03     331.192E-03    -161.915E-03     16.4624E-03     44.7139E+06     5.23210E+06    -64.0183E+06    -64.0020E+06     5.21578E+06     44.7139E+06     435.796E+03         52.4427
             996     7.66485E-03     16.6423E-03         3.70459        -1.55689        -1.97358        -1.55272         3.70043        -1.97358    -283.687E-03     327.260E-03    -160.953E-03    -166.306E-03    -166.237E-03     327.191E-03    -160.953E-03     6.86233E-03     27.6965E+06    -44.8217E+06    -74.9454E+06    -74.6521E+06    -45.1151E+06     27.6965E+06     461.858E+03         51.2780
             997     6.81807E-03     16.5925E-03         3.92226        -1.68593        -2.02975        -1.68262         3.91895        -2.02975    -252.464E-03     323.701E-03    -160.143E-03    -163.558E-03    -163.509E-03     323.652E-03    -160.143E-03    -1.43982E-03     6.17240E+06    -83.6032E+06    -102.938E+06    -85.7361E+06    -100.805E+06     6.17240E+06    -18.8241E+03         50.2958
             998     5.96955E-03     16.5510E-03         4.12329        -1.81616        -2.07879        -1.81519         4.12232        -2.07879    -104.297E-03     320.983E-03    -159.493E-03    -161.491E-03    -161.413E-03     320.906E-03    -159.493E-03    -8.55699E-03    -16.5398E+06    -97.4468E+06    -149.822E+06    -97.4645E+06    -149.805E+06    -16.5398E+06     581.519E+03         49.4492
             999     5.11819E-03     16.5245E-03         4.29489        -1.93090        -2.11967        -1.92910         4.29308        -2.11967    -156.663E-03     319.033E-03    -158.873E-03    -160.160E-03    -159.917E-03     318.913E-03    -158.996E-03    -12.9761E-03    -40.3721E+06    -109.329E+06    -196.674E+06    -109.363E+06    -196.640E+06    -40.3721E+06     1.24338E+06         48.7152
            1000     4.26696E-03     16.5046E-03         4.43755        -2.02151        -2.15339        -2.01805         4.43408        -2.15339    -287.960E-03     317.332E-03    -158.243E-03    -159.089E-03    -158.513E-03     317.187E-03    -158.674E-03    -15.1766E-03    -65.1270E+06    -120.721E+06    -240.044E+06    -120.762E+06    -240.003E+06    -65.1270E+06     787.139E+03         48.0872
            1001     3.41317E-03     16.4932E-03         4.59007        -2.11563        -2.19282        -2.09294         4.55521        -2.18065    -811.434E-03     316.666E-03    -158.129E-03    -158.537E-03    -158.002E-03     316.527E-03    -158.525E-03    -15.5435E-03    -90.7574E+06    -132.656E+06    -284.034E+06    -132.687E+06    -284.004E+06    -90.7574E+06    -305.286E+03         47.5670
            1002     2.56060E-03     16.4863E-03         4.68836        -2.17752        -2.21375        -2.15129         4.64997        -2.20158    -924.339E-03     316.805E-03    -158.315E-03    -158.490E-03    -158.296E-03     316.701E-03    -158.404E-03    -13.5558E-03    -115.798E+06    -143.324E+06    -320.265E+06    -143.337E+06    -320.252E+06    -115.798E+06    -239.105E+03         47.1585
            1003     1.70655E-03     16.4851E-03         4.76969        -2.19878        -2.25805        -2.20266         4.72903        -2.21350    -940.928E-03     316.565E-03    -158.185E-03    -158.380E-03    -158.245E-03     316.504E-03    -158.259E-03    -10.0147E-03    -137.321E+06    -151.029E+06    -346.722E+06    -151.035E+06    -346.716E+06    -137.321E+06     195.362E+03         46.8640
            1004     853.056E-06     16.4830E-03         4.85621    -599.957E-03        -3.93425        -3.83472         4.75668    -599.957E-03     425.325E-03     316.332E-03    -157.861E-03    -158.472E-03    -158.296E-03     316.309E-03    -158.014E-03    -5.93142E-03    -150.908E+06    -157.490E+06    -368.362E+06    -156.661E+06    -368.329E+06    -151.770E+06     127.613E+03         46.6824
            1005     14.3547E-03     16.1180E-03         1.74494    -185.496E-03        -1.55965    -184.366E-03         1.74381        -1.55965     39.7827E-03     373.745E-03    -170.245E-03    -203.500E-03    -196.969E-03     367.213E-03    -170.245E-03     120.618E-03     117.003E+06     79.8388E+06    -7.25443E+06    -7.24673E+06     79.8310E+06     117.003E+06    -259.436E+03         68.1387
            1006     13.5297E-03     15.9080E-03         2.13686    -401.868E-03        -1.66507    -400.177E-03         2.13517        -1.66507     111.251E-03     370.220E-03    -168.505E-03    -201.715E-03    -196.132E-03     364.637E-03    -168.505E-03     108.213E-03     95.5859E+06     64.8574E+06    -14.7166E+06    -14.6999E+06     64.8407E+06     95.5859E+06    -641.971E+03         65.9238
            1007     12.7101E-03     15.7933E-03         2.49794    -602.643E-03        -1.76431    -601.747E-03         2.49705        -1.76431     76.5996E-03     362.154E-03    -166.640E-03    -195.514E-03    -193.084E-03     359.724E-03    -166.640E-03     73.3423E-03     86.1464E+06     51.5281E+06    -21.7579E+06     -21.744E+06     51.5141E+06     86.1464E+06    -691.827E+03         63.2739
            1008     11.8851E-03     15.6657E-03         2.84987    -811.207E-03        -1.85731    -807.513E-03         2.84618        -1.85731    -137.758E-03     356.078E-03    -164.680E-03    -191.398E-03    -189.737E-03     354.416E-03    -164.680E-03     59.2673E-03     80.7681E+06     44.9724E+06    -28.2666E+06    -28.2566E+06     44.9624E+06     80.7681E+06    -612.551E+03         60.5144
            1009     11.0593E-03     15.5640E-03         3.20108        -1.03379        -1.94515        -1.02233         3.18962        -1.94515    -433.014E-03     348.699E-03    -162.667E-03    -186.031E-03    -185.213E-03     347.881E-03    -162.667E-03     41.2296E-03     71.2766E+06     40.5426E+06    -35.4455E+06    -35.4316E+06     40.5287E+06     71.2766E+06    -842.468E+03         57.9271
            1010     10.2268E-03     15.4697E-03         3.53875        -1.25931        -2.02621        -1.24256         3.52200        -2.02621    -565.294E-03     341.501E-03    -160.694E-03    -180.808E-03    -180.420E-03     341.113E-03    -160.694E-03     27.3110E-03     61.3247E+06     35.7414E+06    -44.1372E+06    -44.1292E+06     35.7334E+06     61.3247E+06    -339.239E+03         55.6724
            1011     9.39018E-03     15.3900E-03         3.84325        -1.46039        -2.10021        -1.44180         3.82466        -2.10021    -626.585E-03     334.607E-03    -158.809E-03    -175.799E-03    -175.661E-03     334.470E-03    -158.809E-03     13.9536E-03     53.3976E+06     28.4088E+06    -53.5043E+06    -53.5015E+06     28.4060E+06     53.3976E+06     210.900E+03         53.7889
            1012     8.55119E-03     15.3164E-03         4.11843        -1.63559        -2.16719        -1.62261         4.10545        -2.16719    -523.679E-03     328.205E-03    -157.034E-03    -171.171E-03    -171.123E-03     328.157E-03    -157.034E-03     1.54770E-03     43.8252E+06     6.21258E+06    -63.7216E+06    -63.6979E+06     6.18883E+06     43.8252E+06     368.854E+03         52.2323
            1013     7.70924E-03     15.2628E-03         4.36480        -1.78850        -2.22743        -1.78019         4.35649        -2.22743    -448.184E-03     321.877E-03    -155.410E-03    -166.467E-03    -166.378E-03     321.789E-03    -155.410E-03    -9.31138E-03     27.4317E+06    -40.8243E+06    -74.7413E+06    -74.5461E+06    -41.0195E+06     27.4317E+06     276.578E+03         50.9280
            1014     6.86102E-03     15.2133E-03         4.58391        -1.92509        -2.28145        -1.91883         4.57766        -2.28145    -376.812E-03     315.959E-03    -153.998E-03    -161.961E-03    -161.738E-03     315.735E-03    -153.998E-03    -18.3802E-03     5.25706E+06    -81.0070E+06    -103.773E+06    -86.0769E+06    -98.7029E+06     5.25706E+06     136.487E+03         49.8088
            1015     6.00962E-03     15.1813E-03         4.77558        -2.05056        -2.32911        -2.04807         4.77309        -2.32911    -252.531E-03     311.097E-03    -152.837E-03    -158.260E-03    -157.895E-03     310.732E-03    -152.837E-03    -24.6545E-03    -17.6066E+06    -97.7365E+06    -149.494E+06    -97.7688E+06    -149.462E+06    -17.6066E+06     1.08742E+06         48.8321
            1016     5.15561E-03     15.1551E-03         4.93982        -2.16061        -2.37039        -2.15801         4.93722        -2.37039    -261.762E-03     307.286E-03    -151.924E-03    -155.362E-03    -154.912E-03     306.836E-03    -151.924E-03    -27.7420E-03    -41.7633E+06    -109.331E+06    -194.050E+06    -109.384E+06    -193.997E+06    -41.7633E+06     1.83285E+06         47.9789
            1017     4.29851E-03     15.1409E-03         5.08041        -2.24569        -2.40722        -2.23960         5.07432        -2.40722    -398.627E-03     304.355E-03    -151.264E-03    -153.091E-03    -152.640E-03     303.904E-03    -151.264E-03    -27.8432E-03    -66.6221E+06    -120.971E+06    -237.491E+06    -121.011E+06    -237.452E+06    -66.6221E+06     1.85665E+06         47.2462
            1018     3.44013E-03     15.1306E-03         5.22439        -2.33550        -2.44207        -2.30991         5.19881        -2.44207    -823.502E-03     302.348E-03    -150.813E-03    -151.536E-03    -151.122E-03     301.980E-03    -150.858E-03    -25.1010E-03    -90.8964E+06    -131.847E+06    -280.775E+06    -131.873E+06    -280.750E+06    -90.8964E+06     1.75011E+06         46.6378
            1019     2.57958E-03     15.1246E-03         5.35502        -2.42002        -2.47420        -2.38643         5.32143        -2.47420        -1.00265     301.404E-03    -150.583E-03    -150.821E-03    -150.508E-03     301.150E-03    -150.642E-03    -20.8071E-03    -115.040E+06    -142.519E+06    -319.808E+06    -142.530E+06    -319.797E+06    -115.040E+06     649.519E+03         46.1593
            1020     1.72067E-03     15.1224E-03         5.46743        -2.47550        -2.51305        -2.46706         5.44269        -2.49676    -855.183E-03     301.062E-03    -150.467E-03    -150.594E-03    -150.416E-03     300.926E-03    -150.510E-03    -15.0587E-03    -137.280E+06    -151.326E+06    -346.366E+06    -151.332E+06    -346.359E+06    -137.280E+06     437.203E+03         45.8143
            1021     860.784E-06     15.1228E-03         5.50915        -1.41405        -3.62148        -3.59486         5.48254        -1.41405     8.09885E-03     300.875E-03    -150.244E-03    -150.630E-03    -150.476E-03     300.828E-03    -150.352E-03    -8.35987E-03    -152.475E+06    -159.380E+06    -368.101E+06    -157.778E+06    -368.080E+06    -154.097E+06    -166.307E+03         45.6017
            1022     14.3581E-03     14.6628E-03         2.36902    -357.659E-03        -1.76702    -356.897E-03         2.36826        -1.76702     13.0888E-03     380.072E-03    -169.851E-03    -210.221E-03    -203.849E-03     373.700E-03    -169.851E-03     120.644E-03     117.439E+06     80.6182E+06    -7.01923E+06    -7.01332E+06     80.6123E+06     117.439E+06     26.5353E+03         68.4702
            1023     13.5464E-03     14.4711E-03         2.75014    -576.442E-03        -1.86597    -575.834E-03         2.74953        -1.86597     34.5947E-03     376.516E-03    -167.649E-03    -208.867E-03    -203.505E-03     371.154E-03    -167.649E-03     107.200E-03     96.4247E+06     65.9451E+06    -13.6843E+06    -13.6715E+06     65.9323E+06     96.4247E+06    -372.254E+03         66.2758
            1024     12.7268E-03     14.3482E-03         3.10194    -780.935E-03        -1.95860    -780.751E-03         3.10175        -1.95860    -19.5597E-03     368.633E-03    -165.225E-03    -203.408E-03    -201.139E-03     366.364E-03    -165.225E-03     71.8447E-03     86.9370E+06     51.6625E+06    -20.5052E+06    -20.4841E+06     51.6413E+06     86.9370E+06    -1.03420E+06         63.6365
            1025     11.9123E-03     14.2382E-03         3.43518    -983.218E-03        -2.04531    -977.701E-03         3.42966        -2.04531    -228.666E-03     362.089E-03    -162.602E-03    -199.487E-03    -197.970E-03     360.572E-03    -162.602E-03     57.3284E-03     81.3602E+06     44.6652E+06    -27.6731E+06    -27.6572E+06     44.6493E+06     81.3602E+06    -783.823E+03         60.8626
            1026     11.0892E-03     14.1428E-03         3.75889        -1.18941        -2.12761        -1.17593         3.74540        -2.12761    -514.485E-03     353.788E-03    -159.826E-03    -193.962E-03    -193.284E-03     353.111E-03    -159.826E-03     37.4962E-03     70.7402E+06     40.0969E+06    -35.9408E+06    -35.9373E+06     40.0934E+06     70.7402E+06    -98.7290E+03         58.2263
            1027     10.2652E-03     14.0627E-03         4.07648        -1.40322        -2.20446        -1.38463         4.05790        -2.20446    -636.460E-03     345.116E-03    -156.997E-03    -188.119E-03    -187.884E-03     344.880E-03    -156.997E-03     20.7719E-03     60.2177E+06     35.3416E+06    -44.7378E+06    -44.7376E+06     35.3414E+06     60.2177E+06    -20.4607E+03         55.8871
            1028     9.43710E-03     13.9902E-03         4.37536        -1.60593        -2.27516        -1.58340         4.35283        -2.27516    -732.608E-03     335.844E-03    -154.197E-03    -181.647E-03    -181.602E-03     335.799E-03    -154.197E-03     4.60746E-03     52.3393E+06     27.9292E+06    -53.5335E+06    -53.5269E+06     27.9226E+06     52.3393E+06     456.016E+03         53.8891
            1029     8.60135E-03     13.9327E-03         4.64687        -1.78606        -2.33927        -1.77027         4.63108        -2.33927    -610.448E-03     326.311E-03    -151.509E-03    -174.802E-03    -174.724E-03     326.232E-03    -151.509E-03    -9.95177E-03     42.3990E+06     8.42467E+06    -63.9494E+06    -63.9196E+06     8.39484E+06     42.3990E+06     786.608E+03         52.1963
            1030     7.75935E-03     13.8829E-03         4.89351        -1.95045        -2.39650        -1.93879         4.88185        -2.39650    -556.437E-03     317.446E-03    -148.994E-03    -168.452E-03    -168.156E-03     317.151E-03    -148.994E-03    -22.4076E-03     25.2704E+06    -37.6749E+06    -75.8204E+06    -75.7284E+06    -37.7669E+06     25.2704E+06     738.011E+03         50.7429
            1031     6.91388E-03     13.8505E-03         5.11065        -2.09446        -2.44707        -2.08544         5.10163        -2.44707    -463.601E-03     308.729E-03    -146.717E-03    -162.011E-03    -161.422E-03     308.140E-03    -146.717E-03    -32.4078E-03     3.13959E+06    -80.3878E+06    -103.165E+06    -87.3018E+06    -96.2511E+06     3.13959E+06     1.64563E+06         49.4697
            1032     6.06027E-03     13.8232E-03         5.28859        -2.21020        -2.49196        -2.20565         5.28404        -2.49196    -356.572E-03     300.544E-03    -144.779E-03    -155.765E-03    -154.920E-03     299.699E-03    -144.779E-03    -38.5967E-03    -19.9620E+06    -99.3972E+06    -148.128E+06    -99.6669E+06    -147.858E+06    -19.9620E+06     2.17944E+06         48.3393
            1033     5.20178E-03     13.8073E-03         5.43383        -2.30376        -2.53314        -2.29966         5.42974        -2.53314    -330.386E-03     293.802E-03    -143.237E-03    -150.565E-03    -149.587E-03     292.824E-03    -143.237E-03    -41.0616E-03    -43.4181E+06    -111.224E+06    -191.754E+06    -111.296E+06    -191.682E+06    -43.4181E+06     2.40350E+06         47.3386
            1034     4.33896E-03     13.7962E-03         5.56789        -2.38662        -2.57287        -2.37831         5.55959        -2.57287    -454.929E-03     288.691E-03    -142.078E-03    -146.613E-03    -145.680E-03     287.757E-03    -142.078E-03    -39.6939E-03    -67.6976E+06    -121.981E+06    -234.201E+06    -122.055E+06    -234.128E+06    -67.6976E+06     2.73575E+06         46.4701
            1035     3.47355E-03     13.7906E-03         5.71150        -2.47878        -2.61196        -2.45904         5.69176        -2.61196    -791.172E-03     285.006E-03    -141.259E-03    -143.747E-03    -143.003E-03     284.262E-03    -141.259E-03    -35.0885E-03    -92.5811E+06    -133.221E+06    -277.283E+06    -133.265E+06    -277.239E+06    -92.5811E+06     2.30739E+06         45.7434
            1036     2.60661E-03     13.7866E-03         5.85753        -2.57484        -2.64884        -2.54430         5.82699        -2.64884        -1.00179     282.437E-03    -140.750E-03    -141.688E-03    -141.174E-03     281.938E-03    -140.763E-03    -28.4713E-03    -116.077E+06    -143.778E+06    -317.023E+06    -143.798E+06    -317.003E+06    -116.077E+06     1.79064E+06         45.1679
            1037     1.73676E-03     13.7848E-03         5.97965        -2.64931        -2.68180        -2.63237         5.95874        -2.67783    -743.274E-03     281.200E-03    -140.505E-03    -140.694E-03    -140.380E-03     280.931E-03    -140.551E-03    -20.3905E-03    -138.116E+06    -152.060E+06    -344.976E+06    -152.071E+06    -344.964E+06    -138.116E+06     1.24704E+06         44.7504
            1038     867.769E-06     13.7852E-03         6.03042        -2.02357        -3.36276        -3.35236         6.02386        -2.02741    -351.828E-03     281.023E-03    -140.035E-03    -140.988E-03    -140.863E-03     280.930E-03    -140.067E-03    -11.3061E-03    -152.652E+06    -158.958E+06    -366.564E+06    -157.354E+06    -366.547E+06    -154.274E+06     1.53066E+06         44.4919
            1039     14.3651E-03     13.2149E-03         2.98360    -547.568E-03        -1.91536    -546.945E-03         2.98297        -1.91536    -13.8497E-03     384.790E-03    -169.545E-03    -215.245E-03    -208.888E-03     378.433E-03    -169.545E-03     121.209E-03     117.293E+06     80.7921E+06    -6.95133E+06    -6.94743E+06     80.7882E+06     117.293E+06    -170.278E+03         68.8342
            1040     13.5500E-03     13.0083E-03         3.34549    -763.221E-03        -2.00408    -762.408E-03         3.34468        -2.00408    -32.8212E-03     381.707E-03    -167.001E-03    -214.706E-03    -209.200E-03     376.202E-03    -167.001E-03     109.756E-03     96.9621E+06     67.0054E+06    -13.3904E+06    -13.3840E+06     66.9991E+06     96.9621E+06    -590.243E+03         66.6667
            1041     12.7446E-03     12.9056E-03         3.66926    -957.005E-03        -2.08681    -956.212E-03         3.66847        -2.08681    -109.843E-03     374.559E-03    -164.133E-03    -210.427E-03    -208.069E-03     372.201E-03    -164.133E-03     74.0570E-03     87.2191E+06     51.8545E+06    -20.5294E+06    -20.5131E+06     51.8381E+06     87.2191E+06    -377.286E+03         64.0549
            1042     11.9290E-03     12.7942E-03         3.96962        -1.14414        -2.16441        -1.13688         3.96235        -2.16441    -314.362E-03     368.369E-03    -160.926E-03    -207.443E-03    -205.911E-03     366.838E-03    -160.926E-03     58.1352E-03     81.1214E+06     43.5842E+06    -28.5275E+06    -28.5141E+06     43.5708E+06     81.1214E+06    -34.8626E+03         61.2940
            1043     11.1193E-03     12.7148E-03         4.25742        -1.33146        -2.23835        -1.31515         4.24111        -2.23835    -602.177E-03     360.303E-03    -157.403E-03    -202.900E-03    -202.254E-03     359.657E-03    -157.403E-03     37.1654E-03     70.5318E+06     39.6488E+06    -36.6075E+06    -36.6069E+06     39.6482E+06     70.5318E+06     156.257E+03         58.6425
            1044     10.3016E-03     12.6447E-03         4.53536        -1.51837        -2.30822        -1.49817         4.51516        -2.30822    -697.898E-03     350.549E-03    -153.675E-03    -196.875E-03    -196.665E-03     350.339E-03    -153.675E-03     19.5391E-03     59.5421E+06     35.1564E+06    -44.8822E+06    -44.8703E+06     35.1445E+06     59.5421E+06     484.095E+03         56.2530
            1045     9.47865E-03     12.5883E-03         4.80920        -1.70739        -2.37345        -1.68198         4.78379        -2.37345    -810.885E-03     339.186E-03    -149.885E-03    -189.301E-03    -189.264E-03     339.149E-03    -149.885E-03     1.96525E-03     50.3107E+06     26.5184E+06    -54.7065E+06    -54.6469E+06     26.4588E+06     50.3107E+06     1.65511E+06         54.1701
            1046     8.64980E-03     12.5463E-03         5.06080        -1.88077        -2.43320        -1.86227         5.04230        -2.43320    -680.770E-03     327.226E-03    -146.135E-03    -181.091E-03    -180.962E-03     327.097E-03    -146.135E-03    -14.1741E-03     39.5321E+06     10.7513E+06    -65.5906E+06    -65.4947E+06     10.6554E+06     39.5321E+06     2.52353E+06         52.3644
            1047     7.81327E-03     12.5130E-03         5.28770        -2.03797        -2.48718        -2.02322         5.27294        -2.48718    -640.136E-03     314.967E-03    -142.548E-03    -172.420E-03    -171.946E-03     314.493E-03    -142.548E-03    -29.2201E-03     22.4231E+06    -33.9164E+06    -77.8816E+06    -77.4568E+06    -34.3413E+06     22.4231E+06     2.63812E+06         50.7779
            1048     6.96691E-03     12.4927E-03         5.49255        -2.18145        -2.53545        -2.16953         5.48064        -2.53545    -537.829E-03     302.905E-03    -139.234E-03    -163.671E-03    -162.751E-03     301.985E-03    -139.234E-03    -40.9644E-03     516.063E+03    -81.7159E+06    -102.419E+06    -90.1847E+06    -93.9500E+06     516.063E+03     3.27219E+06         49.3579
            1049     6.11463E-03     12.4827E-03         5.65951        -2.29376        -2.57888        -2.28623         5.65198        -2.57888    -454.015E-03     291.368E-03    -136.297E-03    -155.071E-03    -153.777E-03     290.074E-03    -136.297E-03    -47.7230E-03    -21.3934E+06    -101.396E+06    -144.086E+06    -101.782E+06    -143.700E+06    -21.3934E+06     3.19404E+06         48.0743
            1050     5.25304E-03     12.4768E-03         5.79756        -2.38249        -2.61984        -2.37564         5.79071        -2.61984    -410.067E-03     280.978E-03    -133.842E-03    -147.137E-03    -145.646E-03     279.488E-03    -133.842E-03    -50.2638E-03    -44.8694E+06    -113.371E+06    -189.737E+06    -113.479E+06    -189.630E+06    -44.8694E+06     2.78884E+06         46.9200
            1051     4.38560E-03     12.4756E-03         5.92723        -2.46251        -2.66081        -2.45204         5.91675        -2.66081    -504.063E-03     272.628E-03    -131.889E-03    -140.739E-03    -139.310E-03     271.199E-03    -131.889E-03    -48.3192E-03    -69.7187E+06    -125.122E+06    -231.580E+06    -125.234E+06    -231.468E+06    -69.7187E+06     3.42772E+06         45.9044
            1052     3.51296E-03     12.4752E-03         6.06663        -2.55368        -2.70215        -2.53694         6.04990        -2.70215    -751.227E-03     266.221E-03    -130.397E-03    -135.824E-03    -134.654E-03     265.051E-03    -130.397E-03    -42.9749E-03    -95.2516E+06    -136.219E+06    -273.256E+06    -136.339E+06    -273.136E+06    -95.2516E+06     3.77441E+06         45.0443
            1053     2.63687E-03     12.4763E-03         6.21689        -2.65932        -2.74102        -2.63091         6.18848        -2.74102    -963.442E-03     261.497E-03    -129.324E-03    -132.172E-03    -131.374E-03     260.699E-03    -129.324E-03    -34.8951E-03    -120.009E+06    -146.660E+06    -312.625E+06    -146.729E+06    -312.556E+06    -120.009E+06     2.80100E+06         44.3561
            1054     1.75944E-03     12.4773E-03         6.34388        -2.74282        -2.77404        -2.72367         6.32190        -2.77121    -629.060E-03     258.423E-03    -128.617E-03    -129.806E-03    -129.379E-03     257.999E-03    -128.620E-03    -25.0183E-03    -141.349E+06    -155.769E+06    -342.554E+06    -155.780E+06    -342.543E+06    -141.349E+06     1.20727E+06         43.8522
            1055     880.188E-06     12.4764E-03         6.41730        -2.40222        -3.18311        -3.16091         6.39894        -2.40606    -578.895E-03     256.740E-03    -127.820E-03    -128.920E-03    -128.647E-03     256.591E-03    -127.944E-03    -13.8677E-03    -155.746E+06    -162.046E+06    -363.701E+06    -161.778E+06    -363.687E+06    -156.027E+06     1.07300E+06         43.5379
            1056     14.3654E-03     11.7480E-03         3.57347    -747.484E-03        -2.00639    -747.087E-03         3.57307        -2.00639    -43.8588E-03     387.318E-03    -169.380E-03    -217.938E-03    -211.330E-03     380.710E-03    -169.380E-03     123.029E-03     116.917E+06     80.6018E+06    -7.22354E+06    -7.21970E+06     80.5980E+06     116.917E+06    -87.8307E+03         69.1769
            1057     13.5599E-03     11.5546E-03         3.89721    -940.620E-03        -2.08236    -939.470E-03         3.89606        -2.08236    -97.2542E-03     385.480E-03    -166.649E-03    -218.831E-03    -212.849E-03     379.497E-03    -166.649E-03     114.641E-03     96.4391E+06     67.1376E+06    -14.2531E+06    -14.2367E+06     67.1212E+06     96.4391E+06     237.474E+03         67.0384
            1058     12.7471E-03     11.4418E-03         4.17784        -1.11382        -2.15356        -1.11202         4.17604        -2.15356    -190.927E-03     379.207E-03    -163.480E-03    -215.727E-03    -213.209E-03     376.689E-03    -163.480E-03     77.1921E-03     86.9159E+06     51.8993E+06    -21.2983E+06    -21.2786E+06     51.8796E+06     86.9159E+06     274.014E+03         64.4676
            1059     11.9471E-03     11.3469E-03         4.43822        -1.28526        -2.22068        -1.27732         4.43028        -2.22068    -377.827E-03     373.743E-03    -159.837E-03    -213.906E-03    -212.157E-03     371.994E-03    -159.837E-03     62.9709E-03     80.8112E+06     43.1459E+06    -28.5721E+06    -28.5657E+06     43.1396E+06     80.8112E+06     184.742E+03         61.7431
            1060     11.1357E-03     11.2726E-03         4.69179        -1.45718        -2.28464        -1.43960         4.67420        -2.28464    -654.602E-03     365.946E-03    -155.744E-03    -210.202E-03    -209.378E-03     365.123E-03    -155.744E-03     42.5324E-03     70.1288E+06     38.9599E+06    -36.6791E+06    -36.6406E+06     38.9214E+06     70.1288E+06     992.942E+03         59.1076
            1061     10.3274E-03     11.2178E-03         4.93264        -1.62261        -2.34534        -1.60227         4.91230        -2.34534    -728.247E-03     355.719E-03    -151.314E-03    -204.405E-03    -204.090E-03     355.404E-03    -151.314E-03     24.9074E-03     58.0647E+06     33.7771E+06    -45.8500E+06    -45.7379E+06     33.6650E+06     58.0647E+06     2.49430E+06         56.7052
            1062     9.51153E-03     11.1812E-03         5.16434        -1.78548        -2.40270        -1.75859         5.13745        -2.40270    -856.240E-03     343.850E-03    -146.673E-03    -197.177E-03    -197.103E-03     343.776E-03    -146.673E-03     7.27913E-03     47.8015E+06     24.9439E+06    -56.0434E+06    -55.8171E+06     24.7176E+06     47.8015E+06     4.02825E+06         54.5801
            1063     8.68822E-03     11.1542E-03         5.37494        -1.93510        -2.45645        -1.91431         5.35415        -2.45645    -731.291E-03     330.219E-03    -141.932E-03    -188.287E-03    -188.186E-03     330.118E-03    -141.932E-03    -10.5811E-03     37.6069E+06     12.1907E+06    -67.1577E+06    -66.8119E+06     11.8449E+06     37.6069E+06     4.98801E+06         52.7067
            1064     7.85712E-03     11.1435E-03         5.56934        -2.07637        -2.50630        -2.05834         5.55131        -2.50630    -709.525E-03     314.990E-03    -137.284E-03    -177.706E-03    -177.299E-03     314.583E-03    -137.284E-03    -26.7809E-03     21.2558E+06    -29.7865E+06    -79.8589E+06    -79.0151E+06    -30.6304E+06     21.2558E+06     5.19410E+06         51.0310
            1065     7.01600E-03     11.1439E-03         5.74876        -2.20637        -2.55223        -2.19097         5.73337        -2.55223    -611.699E-03     299.534E-03    -132.905E-03    -166.629E-03    -165.765E-03     298.670E-03    -132.905E-03    -39.3639E-03    -189.992E+03    -79.6662E+06    -100.907E+06    -90.9052E+06    -89.6682E+06    -189.992E+03     4.48834E+06         49.5050
            1066     6.16309E-03     11.1508E-03         5.90652        -2.31591        -2.59455        -2.30455         5.89517        -2.59455    -551.752E-03     284.830E-03    -128.907E-03    -155.923E-03    -154.641E-03     283.548E-03    -128.907E-03    -47.1587E-03    -22.0294E+06    -101.830E+06    -140.349E+06    -102.414E+06    -139.766E+06    -22.0294E+06     3.79659E+06         48.1036
            1067     5.30188E-03     11.1641E-03         6.04304        -2.40740        -2.63452        -2.39679         6.03243        -2.63452    -503.452E-03     271.337E-03    -125.366E-03    -145.971E-03    -144.436E-03     269.801E-03    -125.366E-03    -50.4298E-03    -46.0877E+06    -114.699E+06    -187.665E+06    -114.984E+06    -187.380E+06    -46.0877E+06     4.35640E+06         46.8253
            1068     4.43066E-03     11.1753E-03         6.16409        -2.48300        -2.67454        -2.46969         6.15078        -2.67454    -566.435E-03     259.246E-03    -122.345E-03    -136.902E-03    -135.350E-03     257.695E-03    -122.345E-03    -49.4715E-03    -71.8868E+06    -127.673E+06    -229.882E+06    -127.948E+06    -229.606E+06    -71.8868E+06     5.04714E+06         45.6850
            1069     3.55311E-03     11.1857E-03         6.29103        -2.57068        -2.71510        -2.55380         6.27415        -2.71510    -740.095E-03     249.227E-03    -119.890E-03    -129.337E-03    -128.008E-03     247.897E-03    -119.890E-03    -44.7399E-03    -97.3864E+06    -139.285E+06    -269.890E+06    -139.503E+06    -269.671E+06    -97.3864E+06     5.18369E+06         44.7063
            1070     2.66955E-03     11.1944E-03         6.43418        -2.67985        -2.75244        -2.64979         6.40412        -2.75244    -959.202E-03     241.493E-03    -117.964E-03    -123.530E-03    -122.584E-03     240.548E-03    -117.964E-03    -36.8623E-03    -121.813E+06    -149.742E+06    -306.777E+06    -149.887E+06    -306.631E+06    -121.813E+06     4.37497E+06         43.9136
            1071     1.78192E-03     11.1993E-03         6.55425        -2.75875        -2.78425        -2.73461         6.52727        -2.78142    -563.223E-03     235.701E-03    -116.520E-03    -119.181E-03    -118.671E-03     235.191E-03    -116.520E-03    -26.2971E-03    -144.764E+06    -159.544E+06    -338.150E+06    -159.601E+06    -338.094E+06    -144.764E+06     2.11967E+06         43.3272
            1072     891.885E-06     11.2038E-03         6.63707        -2.58905        -3.03673        -2.99056         6.59788        -2.59603    -733.395E-03     231.930E-03    -115.300E-03    -116.630E-03    -116.330E-03     231.751E-03    -115.421E-03    -14.6486E-03    -161.108E+06    -165.786E+06    -361.165E+06    -165.506E+06    -361.164E+06    -161.390E+06     117.297E+03         42.9584
            1073     14.3676E-03     10.2996E-03         4.12205    -935.111E-03        -2.04608    -934.907E-03         4.12185        -2.04608    -56.5461E-03     388.595E-03    -169.342E-03    -219.252E-03    -212.492E-03     381.834E-03    -169.342E-03     124.047E-03     116.271E+06     79.9444E+06    -6.96694E+06    -6.96140E+06     79.9389E+06     116.271E+06     65.6734E+03         69.4453
            1074     13.5533E-03     10.0772E-03         4.38650        -1.09784        -2.10871        -1.09680         4.38546        -2.10871    -123.664E-03     386.661E-03    -166.547E-03    -220.115E-03    -213.805E-03     380.352E-03    -166.547E-03     117.856E-03     96.4058E+06     66.7609E+06    -13.1387E+06    -13.1219E+06     66.7441E+06     96.4058E+06     228.534E+03         67.3316
            1075     12.7569E-03     9.98514E-03         4.62306        -1.25247        -2.16789        -1.25030         4.62089        -2.16789    -224.162E-03     380.000E-03    -163.321E-03    -216.679E-03    -213.775E-03     377.096E-03    -163.321E-03     82.8518E-03     87.2386E+06     52.2533E+06    -19.7404E+06    -19.7013E+06     52.2142E+06     87.2386E+06     635.635E+03         64.7974
            1076     11.9448E-03     9.88590E-03         4.84264        -1.40493        -2.22398        -1.39777         4.83548        -2.22398    -395.427E-03     376.172E-03    -159.567E-03    -216.605E-03    -214.285E-03     373.852E-03    -159.567E-03     72.8761E-03     79.6738E+06     41.9981E+06    -27.9559E+06    -27.8722E+06     41.9145E+06     79.6738E+06     1.54046E+06         62.1106
            1077     11.1462E-03     9.82415E-03         5.06237        -1.56302        -2.27732        -1.54637         5.04571        -2.27732    -656.996E-03     369.021E-03    -155.251E-03    -213.770E-03    -212.509E-03     367.760E-03    -155.251E-03     53.1298E-03     67.8846E+06     36.1982E+06    -36.7195E+06    -36.5379E+06     36.0166E+06     67.8846E+06     3.19911E+06         59.5056
            1078     10.3359E-03     9.78614E-03         5.26625        -1.71175        -2.32781        -1.69291         5.24741        -2.32781    -721.377E-03     359.386E-03    -150.484E-03    -208.902E-03    -208.227E-03     358.711E-03    -150.484E-03     37.5528E-03     56.4354E+06     31.5846E+06    -45.9684E+06    -45.5717E+06     31.1880E+06     56.4354E+06     5.25070E+06         57.1210
            1079     9.52489E-03     9.76130E-03         5.45912        -1.85550        -2.37557        -1.82892         5.43255        -2.37557    -864.286E-03     347.620E-03    -145.374E-03    -202.247E-03    -201.970E-03     347.344E-03    -145.374E-03     21.4696E-03     47.2606E+06     23.9973E+06    -56.2742E+06    -55.6148E+06     23.3380E+06     47.2606E+06     6.97535E+06         55.0004
            1080     8.70891E-03     9.75885E-03         5.62060        -1.97507        -2.42118        -1.95325         5.59878        -2.42118    -753.207E-03     332.724E-03    -140.061E-03    -192.663E-03    -192.558E-03     332.619E-03    -140.061E-03     4.80200E-03     37.7934E+06     13.5989E+06    -67.7134E+06    -66.9236E+06     12.8091E+06     37.7934E+06     7.85032E+06         53.1192
            1081     7.88092E-03     9.77138E-03         5.77198        -2.08984        -2.46502        -2.06954         5.75168        -2.46502    -748.688E-03     316.006E-03    -134.771E-03    -181.235E-03    -181.076E-03     315.847E-03    -134.771E-03    -9.73817E-03     21.5242E+06    -25.4819E+06    -79.8798E+06    -78.5817E+06    -26.7800E+06     21.5242E+06     7.35143E+06         51.4245
            1082     7.04261E-03     9.79582E-03         5.91775        -2.19832        -2.50694        -2.18036         5.89979        -2.50694    -652.469E-03     299.173E-03    -129.655E-03    -169.518E-03    -169.155E-03     298.810E-03    -129.655E-03    -21.3237E-03    -654.520E+03    -76.6875E+06    -99.3537E+06    -90.3821E+06    -85.6591E+06    -654.520E+03      6.1105E+06         49.8697
            1083     6.19333E-03     9.82788E-03         6.05067        -2.29238        -2.54692        -2.27827         6.03657        -2.54692    -602.063E-03     282.770E-03    -124.799E-03    -157.972E-03    -157.343E-03     282.141E-03    -124.799E-03    -30.1348E-03    -22.7941E+06    -101.951E+06    -139.050E+06    -103.281E+06    -137.719E+06    -22.7941E+06     5.85959E+06         48.4292
            1084     5.33249E-03     9.85833E-03         6.17710        -2.38243        -2.58506        -2.36897         6.16364        -2.58506    -556.349E-03     267.024E-03    -120.283E-03    -146.741E-03    -145.882E-03     266.165E-03    -120.283E-03    -35.6170E-03    -46.2030E+06    -115.602E+06    -186.329E+06    -116.237E+06    -185.694E+06    -46.2030E+06     6.43735E+06         47.1012
            1085     4.46345E-03     9.89049E-03         6.28929        -2.46261        -2.62187        -2.44639         6.27307        -2.62187    -615.052E-03     252.202E-03    -116.197E-03    -136.005E-03    -135.045E-03     251.242E-03    -116.197E-03    -37.1011E-03    -70.8578E+06    -128.507E+06    -227.354E+06    -129.022E+06    -226.839E+06    -70.8578E+06     7.04948E+06         45.9020
            1086     3.58266E-03     9.91573E-03         6.39871        -2.54491        -2.65710        -2.52675         6.38054        -2.65710    -732.763E-03     238.812E-03    -112.655E-03    -126.157E-03    -125.265E-03     237.920E-03    -112.655E-03    -35.1114E-03    -97.5594E+06    -141.845E+06    -266.888E+06    -142.293E+06    -266.440E+06    -97.5594E+06     7.16377E+06         44.8594
            1087     2.69518E-03     9.93550E-03         6.51763        -2.63780        -2.69151        -2.60944         6.48559        -2.68784    -945.244E-03     227.551E-03    -109.759E-03    -117.792E-03    -117.113E-03     226.872E-03    -109.759E-03    -29.9137E-03    -123.772E+06    -153.650E+06    -300.818E+06    -153.905E+06    -300.562E+06    -123.772E+06     5.31730E+06         44.0042
            1088     1.80076E-03     9.95106E-03         6.60903        -2.69991        -2.71932        -2.67623         6.57677        -2.71073    -522.300E-03     219.027E-03    -107.572E-03    -111.455E-03    -111.065E-03     218.637E-03    -107.572E-03    -21.9693E-03    -146.816E+06    -161.930E+06    -331.997E+06    -162.001E+06    -331.926E+06    -146.816E+06     2.72368E+06         43.3646
            1089     901.337E-06     9.95906E-03         6.69756        -2.60643        -2.89768        -2.82752         6.63438        -2.61341    -860.677E-03     213.424E-03    -105.848E-03    -107.576E-03    -107.431E-03     213.279E-03    -105.848E-03    -12.6493E-03    -163.503E+06    -168.174E+06    -358.757E+06    -167.386E+06    -358.742E+06    -164.307E+06     769.609E+03         42.9593
            1090     14.3637E-03     8.82297E-03         4.63410        -1.12295        -2.04726        -1.12287         4.63402        -2.04726    -38.7299E-03     387.296E-03    -169.396E-03    -217.900E-03    -210.946E-03     380.342E-03    -169.396E-03     123.435E-03     116.325E+06     79.8097E+06    -5.77162E+06    -5.75957E+06     79.7977E+06     116.325E+06    -553.225E+03         69.5970
            1091     13.5639E-03     8.62115E-03         4.82972        -1.25281        -2.09635        -1.25226         4.82917        -2.09635    -95.6710E-03     383.532E-03    -166.778E-03    -216.754E-03    -209.610E-03     376.388E-03    -166.778E-03     125.473E-03     95.7063E+06     65.7867E+06    -11.2384E+06    -11.2175E+06     65.7658E+06     95.7063E+06    -402.054E+03         67.4838
            1092     12.7418E-03     8.52262E-03         5.01748        -1.38776        -2.14291        -1.38609         5.01581        -2.14291    -200.743E-03     377.658E-03    -163.819E-03    -213.840E-03    -210.113E-03     373.931E-03    -163.819E-03     93.2659E-03      84.868E+06     49.6446E+06    -19.2729E+06    -19.1642E+06     49.5358E+06      84.868E+06     1.84640E+06         64.9543
            1093     11.9427E-03     8.42574E-03         5.19721        -1.52379        -2.18684        -1.51826         5.19168        -2.18684    -366.616E-03     374.136E-03    -160.346E-03    -213.790E-03    -210.563E-03     370.909E-03    -160.346E-03     85.9617E-03     77.8680E+06     39.7239E+06    -27.6412E+06    -27.2901E+06     39.3728E+06     77.8680E+06      4.5255E+06         62.2773
            1094     11.1301E-03     8.37444E-03         5.37604        -1.66193        -2.22827        -1.64757         5.36168        -2.22827    -621.908E-03     368.434E-03    -156.293E-03    -212.141E-03    -210.011E-03     366.304E-03    -156.293E-03     69.1711E-03     67.0075E+06     34.2918E+06    -36.6613E+06    -36.0506E+06     33.6811E+06     67.0075E+06     6.27880E+06         59.6890
            1095     10.3257E-03     8.34586E-03         5.53352        -1.78202        -2.26781        -1.76508         5.51658        -2.26781    -699.123E-03     359.386E-03    -151.741E-03    -207.644E-03    -206.181E-03     357.922E-03    -151.741E-03     56.3041E-03     56.6081E+06     29.7588E+06    -46.2980E+06    -45.4768E+06     28.9376E+06     56.6081E+06     7.70431E+06         57.3341
            1096     9.51456E-03     8.34065E-03         5.68462        -1.90118        -2.30591        -1.87613         5.65957        -2.30591    -848.915E-03     346.411E-03    -146.898E-03    -199.512E-03    -198.447E-03     345.345E-03    -146.898E-03     45.3345E-03     48.7531E+06      23.426E+06    -55.8622E+06    -54.8767E+06     22.4406E+06     48.7531E+06     8.77520E+06         55.2580
            1097     8.69441E-03     8.35907E-03         5.80221        -1.99490        -2.34317        -1.97383         5.78115        -2.34317    -743.642E-03     331.896E-03    -141.923E-03    -189.973E-03    -189.211E-03     331.135E-03    -141.923E-03     34.7689E-03     40.4921E+06     14.7396E+06    -65.5826E+06    -64.5015E+06     13.6585E+06     40.4921E+06     9.23824E+06         53.4372
            1098     7.86816E-03     8.39783E-03         5.91027        -2.08512        -2.38002        -2.06507         5.89021        -2.38002    -741.865E-03     316.951E-03    -136.901E-03    -180.050E-03    -179.448E-03     316.348E-03    -136.901E-03     25.8579E-03     24.9055E+06    -22.8177E+06    -77.7479E+06    -75.4932E+06    -25.0724E+06     24.9055E+06     9.33869E+06         51.8183
            1099     7.03100E-03     8.44697E-03         6.01228        -2.16713        -2.41641        -2.14935         5.99450        -2.41641    -631.666E-03     302.267E-03    -131.840E-03    -170.428E-03    -169.929E-03     301.768E-03    -131.840E-03     17.4166E-03     2.09651E+06    -73.1413E+06    -99.9600E+06    -88.3806E+06    -84.7207E+06     2.09651E+06     9.21577E+06         50.3475
            1100     6.18572E-03     8.49962E-03         6.11517        -2.24283        -2.45233        -2.22757         6.09991        -2.45233    -602.115E-03     287.223E-03    -126.762E-03    -160.462E-03    -160.065E-03     286.827E-03    -126.762E-03     8.06940E-03    -19.9413E+06    -98.9241E+06    -139.900E+06    -101.809E+06    -137.014E+06    -19.9413E+06     8.99626E+06         48.9890
            1101     5.33073E-03     8.55646E-03         6.21925        -2.31942        -2.48742        -2.30468         6.20450        -2.48742    -541.137E-03     271.399E-03    -121.789E-03    -149.610E-03    -149.271E-03     271.060E-03    -121.789E-03    -156.752E-06    -41.9292E+06    -113.842E+06    -185.574E+06    -114.986E+06    -184.430E+06    -41.9292E+06     8.71232E+06         47.7306
            1102     4.46270E-03     8.60671E-03         6.31874        -2.39661        -2.52096        -2.37788         6.30000        -2.52096    -615.873E-03     255.773E-03    -117.077E-03    -138.696E-03    -138.396E-03     255.474E-03    -117.077E-03    -5.99060E-03    -65.9891E+06    -127.703E+06    -226.582E+06    -128.509E+06    -225.777E+06    -65.9891E+06     8.75211E+06         46.5831
            1103     3.58794E-03     8.65253E-03         6.40575        -2.47004        -2.55169        -2.45062         6.38634        -2.55169    -673.145E-03     240.922E-03    -112.789E-03    -128.133E-03    -127.860E-03     240.649E-03    -112.789E-03    -9.37780E-03    -92.1473E+06    -140.945E+06    -262.260E+06    -141.517E+06    -261.689E+06    -92.1473E+06     8.05830E+06         45.5727
            1104     2.70035E-03     8.68945E-03         6.50406        -2.53649        -2.59533        -2.51971         6.46920        -2.57726    -889.244E-03     227.622E-03    -109.130E-03    -118.492E-03    -118.278E-03     227.408E-03    -109.130E-03    -10.2927E-03    -119.695E+06    -152.378E+06    -294.091E+06    -152.627E+06    -293.842E+06    -119.695E+06     5.08782E+06         44.7330
            1105     1.80534E-03     8.71556E-03         6.59135        -2.59026        -2.62928        -2.58785         6.54992        -2.59026    -431.471E-03     217.151E-03    -106.311E-03    -110.841E-03    -110.716E-03     217.027E-03    -106.311E-03    -8.81774E-03    -144.561E+06    -162.419E+06    -327.617E+06    -162.470E+06    -327.566E+06    -144.561E+06     2.51427E+06         44.0976
            1106     905.128E-06     8.73327E-03         6.67492        -2.50797        -2.78432        -2.67814         6.56874        -2.50797        -1.00025     210.188E-03    -104.384E-03    -105.804E-03    -105.722E-03     210.137E-03    -104.414E-03    -5.62668E-03    -163.392E+06    -171.143E+06    -356.131E+06    -170.379E+06    -356.091E+06    -164.196E+06     2.14003E+06         43.6910
            1107     14.3716E-03     7.37846E-03         5.09434        -1.32003        -2.02475        -1.31995         5.09427        -2.02475     18.6008E-03     383.145E-03    -169.837E-03    -213.308E-03    -205.266E-03     375.103E-03    -169.837E-03     129.674E-03     113.865E+06     79.1100E+06    -6.95012E+06    -6.89759E+06     79.0575E+06     113.865E+06    -1.38392E+06         69.5938
            1108     13.5361E-03     7.16315E-03         5.25290        -1.43234        -2.05956        -1.43211         5.25267        -2.05956    -31.8849E-03     379.621E-03    -167.637E-03    -211.984E-03    -203.211E-03     370.848E-03    -167.637E-03     138.484E-03      90.932E+06     61.5640E+06    -14.8483E+06    -14.7868E+06     61.5025E+06      90.932E+06     1.05837E+06         67.4386
            1109     12.7363E-03     7.06278E-03         5.39422        -1.54156        -2.09180        -1.54053         5.39320        -2.09180    -153.675E-03     372.957E-03    -165.194E-03    -207.763E-03    -202.845E-03     368.040E-03    -165.194E-03     105.927E-03     80.9048E+06     45.6647E+06    -22.4066E+06    -22.2189E+06     45.4770E+06     80.9048E+06     3.37283E+06         64.8581
            1110     11.9121E-03     6.97966E-03         5.51788        -1.64538        -2.12207        -1.64145         5.51395        -2.12207    -319.326E-03     369.061E-03    -162.349E-03    -206.712E-03    -202.214E-03     364.563E-03    -162.349E-03     100.519E-03     75.9556E+06     37.2221E+06    -29.4949E+06    -29.0093E+06     36.7365E+06     75.9556E+06     5.51703E+06         62.1339
            1111     11.1031E-03     6.92191E-03         5.63900        -1.74900        -2.15097        -1.73749         5.62749        -2.15097    -565.456E-03     361.342E-03    -159.130E-03    -202.212E-03    -198.898E-03     358.028E-03    -159.130E-03     85.4285E-03     67.4247E+06     32.8826E+06    -37.3795E+06    -36.5299E+06     32.0330E+06     67.4247E+06     7.65252E+06         59.5222
            1112     10.2874E-03     6.91140E-03         5.73503        -1.82894        -2.17986        -1.81485         5.72093        -2.17986    -647.370E-03     350.711E-03    -155.727E-03    -194.984E-03    -191.869E-03     347.595E-03    -155.727E-03     80.3989E-03     58.3093E+06     29.5249E+06    -45.6758E+06    -44.6550E+06     28.5040E+06     58.3093E+06     8.69755E+06         57.1879
            1113     9.46512E-03     6.92715E-03         5.83513        -1.91637        -2.20916        -1.89522         5.81397        -2.20916    -784.613E-03     339.436E-03    -152.306E-03    -187.129E-03    -183.879E-03     336.185E-03    -152.306E-03     79.5963E-03     51.8506E+06     23.8356E+06    -54.4043E+06    -53.4003E+06     22.8315E+06     51.8506E+06     8.80228E+06         55.1907
            1114     8.63734E-03     6.96553E-03         5.90794        -1.98339        -2.23895        -1.96531         5.88986        -2.23895    -694.364E-03     328.728E-03    -148.860E-03    -179.868E-03    -176.620E-03     325.480E-03    -148.860E-03     76.9713E-03     45.3977E+06     13.6283E+06    -64.3418E+06    -63.1572E+06     12.4438E+06     45.3977E+06     9.47550E+06         53.5104
            1115     7.80168E-03     7.02448E-03         5.98598        -2.06011        -2.26886        -2.04229         5.96816        -2.26886    -700.344E-03     319.660E-03    -145.268E-03    -174.392E-03    -171.226E-03     316.494E-03    -145.268E-03     74.2633E-03     31.0884E+06    -25.1620E+06    -77.2364E+06    -73.9088E+06    -28.4895E+06     31.0884E+06     10.4781E+06         52.0822
            1116     6.96444E-03     7.08943E-03         6.05172        -2.12098        -2.29857        -2.10545         6.03619        -2.29857    -566.319E-03     310.308E-03    -141.396E-03    -168.912E-03    -166.051E-03     307.447E-03    -141.396E-03     68.9635E-03     9.90734E+06    -71.9606E+06    -101.015E+06    -85.7504E+06    -87.2250E+06     9.90734E+06     11.0740E+06         50.8326
            1117     6.12162E-03     7.16327E-03         6.12371        -2.17887        -2.32860        -2.16360         6.10844        -2.32860    -570.162E-03     299.499E-03    -137.263E-03    -162.236E-03    -159.783E-03     297.046E-03    -137.263E-03     61.2884E-03    -10.6146E+06    -94.2851E+06    -140.096E+06    -97.6593E+06    -136.722E+06    -10.6146E+06     10.3073E+06         49.7036
            1118     5.27195E-03     7.23889E-03         6.19180        -2.22775        -2.35948        -2.21266         6.17670        -2.35948    -472.770E-03     288.023E-03    -132.950E-03    -155.073E-03    -153.048E-03     285.999E-03    -132.950E-03     52.8003E-03    -30.9988E+06    -108.708E+06    -185.716E+06    -109.826E+06    -184.598E+06    -30.9988E+06     8.73834E+06         48.6644
            1119     4.41626E-03     7.31159E-03         6.26672        -2.28477        -2.39166        -2.26138         6.24333        -2.39166    -604.038E-03     275.408E-03    -128.557E-03    -146.851E-03    -145.377E-03     273.934E-03    -128.557E-03     42.2949E-03    -53.2848E+06    -120.820E+06    -225.263E+06    -121.487E+06    -224.595E+06    -53.2848E+06     7.86148E+06         47.7111
            1120     3.54703E-03     7.37604E-03         6.34102        -2.34928        -2.42337        -2.32529         6.31703        -2.42337    -570.158E-03     262.098E-03    -124.329E-03    -137.770E-03    -136.860E-03     261.189E-03    -124.329E-03     31.1774E-03    -78.2167E+06    -132.352E+06    -256.834E+06    -132.672E+06    -256.514E+06    -78.2167E+06     5.48806E+06         46.8603
            1121     2.67233E-03     7.43041E-03         6.43734        -2.40135        -2.48710        -2.39204         6.39180        -2.45087    -831.220E-03     249.620E-03    -120.565E-03    -129.055E-03    -128.546E-03     249.111E-03    -120.565E-03     21.4986E-03    -107.798E+06    -144.360E+06    -290.255E+06    -144.484E+06    -290.131E+06    -107.798E+06     4.06965E+06         46.1419
            1122     1.78741E-03     7.47193E-03         6.55677        -2.46399        -2.54058        -2.46720         6.48339        -2.46399    -212.485E-03     239.209E-03    -117.588E-03    -121.621E-03    -121.383E-03     238.971E-03    -117.588E-03     13.1813E-03    -137.627E+06    -155.925E+06    -326.123E+06    -156.064E+06    -325.984E+06    -137.627E+06     4.33672E+06         45.5901
            1123     894.666E-06     7.49776E-03         6.75064        -2.34248        -2.85113        -2.59006         6.48957        -2.34248        -1.37823     232.347E-03    -115.630E-03    -116.716E-03    -116.615E-03     232.275E-03    -115.661E-03     6.51592E-03    -158.409E+06    -165.613E+06    -350.968E+06    -164.803E+06    -350.871E+06    -159.316E+06     2.99687E+06         45.2331
            1124     14.3365E-03     5.92845E-03         5.49897        -1.50485        -1.98836        -1.50436         5.49848        -1.98836     108.188E-03     376.509E-03    -171.057E-03    -205.452E-03    -195.519E-03     366.576E-03    -171.057E-03     140.824E-03     109.489E+06     77.7172E+06    -9.12558E+06    -9.05922E+06     77.6509E+06     109.489E+06     98.1416E+03         69.4126
            1125     13.5333E-03     5.70891E-03         5.63877        -1.61878        -2.00886        -1.61851         5.63851        -2.00886     51.0046E-03     377.209E-03    -169.495E-03    -207.714E-03    -196.115E-03     365.610E-03    -169.495E-03     158.276E-03     86.8611E+06     58.1542E+06    -17.9752E+06    -17.8825E+06     58.0614E+06     86.8611E+06     2.38265E+06         67.1610
            1126     12.6936E-03     5.62528E-03         5.74233        -1.70704        -2.02595        -1.70635         5.74164        -2.02595    -101.399E-03     369.604E-03    -167.675E-03    -201.929E-03    -195.390E-03     363.066E-03    -167.675E-03     120.849E-03     78.8690E+06     42.9333E+06    -24.2247E+06    -23.9704E+06     42.6791E+06     78.8690E+06     3.94987E+06         64.4657
            1127     11.8801E-03     5.52570E-03         5.80112        -1.76020        -2.04230        -1.75715         5.79807        -2.04230    -289.247E-03     359.433E-03    -165.751E-03    -193.682E-03    -188.028E-03     353.779E-03    -165.751E-03     110.761E-03     75.0742E+06     34.7782E+06    -30.5499E+06    -30.1442E+06     34.3725E+06     75.0742E+06     5.03741E+06         61.6369
            1128     11.0518E-03     5.49598E-03         5.84585        -1.80674        -2.05991        -1.79742         5.83653        -2.05991    -516.385E-03     345.602E-03    -163.445E-03    -182.157E-03    -176.371E-03     340.497E-03    -164.126E-03     102.166E-03     67.6061E+06     30.3460E+06    -37.3318E+06    -36.7619E+06     29.7761E+06     67.6061E+06     6.07556E+06         58.9605
            1129     10.2118E-03     5.50098E-03         5.87883        -1.84884        -2.07980        -1.83719         5.86719        -2.07980    -596.145E-03     336.025E-03    -159.830E-03    -176.195E-03    -167.442E-03     330.380E-03    -162.938E-03     105.435E-03     60.8848E+06     29.2319E+06    -43.9899E+06    -43.1639E+06     28.4060E+06     60.8848E+06     7.67705E+06         56.6434
            1130     9.36985E-03     5.52747E-03         5.92858        -1.91278        -2.10103        -1.89621         5.91202        -2.10103    -701.997E-03     330.142E-03    -156.847E-03    -173.295E-03    -161.721E-03     323.772E-03    -162.051E-03     110.775E-03     58.4162E+06     25.3727E+06    -52.1802E+06    -51.3685E+06     24.5610E+06     58.4162E+06     7.75341E+06         54.7714
            1131     8.52509E-03     5.58330E-03         5.96225        -1.96064        -2.12285        -1.94659         5.94820        -2.12285    -618.143E-03     327.644E-03    -156.607E-03    -171.038E-03    -159.355E-03     320.556E-03    -161.201E-03     116.170E-03     54.6265E+06     9.69749E+06    -61.8023E+06    -60.8658E+06     8.76100E+06     54.6265E+06     7.86564E+06         53.3189
            1132     7.68341E-03     5.64444E-03         6.01284        -2.02327        -2.14453        -2.00886         5.99842        -2.14453    -631.018E-03     326.519E-03    -156.576E-03    -169.944E-03    -158.997E-03     319.119E-03    -160.122E-03     118.415E-03     41.6751E+06    -32.5577E+06    -74.2707E+06    -70.6067E+06    -36.2217E+06     41.6751E+06     8.70112E+06         52.1964
            1133     6.84208E-03     5.72173E-03         6.04531        -2.05940        -2.16638        -2.04706         6.03297        -2.16638    -490.709E-03     324.536E-03    -156.156E-03    -168.380E-03    -158.578E-03     317.257E-03    -158.678E-03     116.853E-03     24.2121E+06    -72.4853E+06    -97.7870E+06    -80.2643E+06    -90.0081E+06     24.2121E+06     7.84120E+06         51.3002
            1134     5.99887E-03     5.80749E-03         6.09081        -2.09966        -2.19254        -2.08847         6.07620        -2.18913    -536.586E-03     321.885E-03    -156.017E-03    -165.868E-03    -158.367E-03     315.178E-03    -156.811E-03     111.819E-03     5.65242E+06    -88.1875E+06    -137.589E+06    -89.6464E+06    -136.130E+06     5.65242E+06     4.85595E+06         50.5438
            1135     5.15452E-03     5.89393E-03         6.11278        -2.11409        -2.21792        -2.10259         6.09787        -2.21451    -408.062E-03     317.941E-03    -154.506E-03    -163.436E-03    -157.732E-03     312.238E-03    -154.506E-03     102.805E-03    -15.7995E+06    -97.7355E+06    -186.621E+06    -98.2266E+06    -186.130E+06    -15.7995E+06     1.57593E+06         49.8712
            1136     4.30750E-03     5.97848E-03         6.16478        -2.15140        -2.25069        -2.12738         6.13470        -2.24463    -624.787E-03     312.312E-03    -151.810E-03    -160.503E-03    -156.012E-03     307.821E-03    -151.810E-03     90.2762E-03    -38.6737E+06    -105.533E+06    -225.350E+06    -105.837E+06    -225.047E+06    -38.6737E+06    -40.3734E+03         49.2568
            1137     3.46031E-03     6.05983E-03         6.22244        -2.19685        -2.28496        -2.16779         6.18731        -2.27889    -432.755E-03     305.077E-03    -148.896E-03    -156.182E-03    -153.014E-03     301.910E-03    -148.896E-03     74.4250E-03    -64.5545E+06    -114.050E+06    -257.257E+06    -114.183E+06    -257.124E+06    -64.5545E+06     587.813E+03         48.6995
            1138     2.60179E-03     6.12807E-03         6.34317        -2.24044        -2.38478        -2.23339         6.26501        -2.31367    -846.868E-03     297.062E-03    -146.102E-03    -150.960E-03    -149.058E-03     295.160E-03    -146.102E-03     56.4881E-03    -92.1356E+06    -124.222E+06    -294.094E+06    -124.306E+06    -294.011E+06    -92.1356E+06     3.41761E+06         48.2171
            1139     1.73908E-03     6.18191E-03         6.54239        -2.33590        -2.49319        -2.32398         6.37318        -2.33590     137.785E-03     289.963E-03    -143.756E-03    -146.207E-03    -145.305E-03     289.061E-03    -143.756E-03     37.8738E-03    -117.847E+06    -134.522E+06    -324.555E+06    -134.698E+06    -324.380E+06    -117.847E+06     5.67552E+06         47.8377
            1140     871.729E-06     6.21658E-03         7.06744        -2.18837        -3.15773        -2.49796         6.40767        -2.18837        -2.07856     284.849E-03    -141.877E-03    -142.972E-03    -142.679E-03     284.557E-03    -141.877E-03     20.3227E-03    -136.793E+06    -142.370E+06    -342.088E+06    -141.518E+06    -341.966E+06    -137.767E+06     3.98646E+06         47.5880
            1141     14.3258E-03     4.48841E-03         5.87002        -1.68816        -1.94312        -1.68584         5.86770        -1.94312     248.940E-03     375.334E-03    -173.368E-03    -201.966E-03    -188.107E-03     361.475E-03    -173.368E-03     169.628E-03     108.747E+06     76.8462E+06    -10.6852E+06    -10.5071E+06     76.6681E+06     108.747E+06     3.48171E+06         69.0649
            1142     13.4641E-03     4.27350E-03         5.99339        -1.78857        -1.94939        -1.78767         5.99249        -1.94939     106.099E-03     380.635E-03    -172.261E-03    -208.375E-03    -195.456E-03     367.717E-03    -172.261E-03     165.557E-03     85.5835E+06     56.7056E+06    -17.8415E+06    -17.7348E+06     56.5989E+06     85.5835E+06     2.54749E+06         66.6963
            1143     12.6596E-03     4.16159E-03         6.03265        -1.82716        -1.95340        -1.82630         6.03179        -1.95340    -116.515E-03     360.286E-03    -168.045E-03    -192.241E-03    -182.925E-03     354.018E-03    -171.093E-03     115.551E-03     77.1498E+06     40.2515E+06    -23.5128E+06    -23.3523E+06     40.0910E+06     77.1498E+06     2.57699E+06         63.8656
            1144     11.8232E-03     4.11048E-03         6.01023        -1.82792        -1.95947        -1.82485         6.00716        -1.95947    -300.363E-03     340.465E-03    -161.337E-03    -179.128E-03    -163.361E-03     334.097E-03    -170.735E-03     113.079E-03     73.5050E+06     32.9168E+06    -30.4694E+06    -30.1631E+06     32.6105E+06     73.5050E+06     4.14465E+06         60.9016
            1145     10.9653E-03     4.10188E-03         5.98696        -1.83742        -1.96858        -1.82991         5.97945        -1.96858    -473.265E-03     328.351E-03    -155.608E-03    -172.743E-03    -150.064E-03     321.504E-03    -171.440E-03     114.158E-03     67.9838E+06     29.8178E+06    -37.7441E+06    -37.3975E+06     29.4712E+06     67.9838E+06     4.75502E+06         58.1529
            1146     10.1071E-03     4.11094E-03         5.96924        -1.85483        -1.98042        -1.84554         5.95995        -1.98042    -535.800E-03     324.078E-03    -151.139E-03    -172.938E-03    -143.632E-03     316.571E-03    -172.938E-03     118.347E-03     63.9774E+06     28.8349E+06    -44.7237E+06    -44.3379E+06     28.4492E+06     63.9774E+06     4.19327E+06         55.8855
            1147     9.24284E-03     4.15326E-03         5.97979        -1.89880        -1.99338        -1.88692         5.96790        -1.99338    -599.135E-03     325.067E-03    -150.122E-03    -174.945E-03    -141.839E-03     316.784E-03    -174.945E-03     124.253E-03     66.1550E+06     27.0522E+06    -50.7623E+06    -50.4453E+06     26.7352E+06     66.1550E+06     3.59899E+06         54.1965
            1148     8.38207E-03     4.19619E-03         5.98760        -1.93503        -2.00610        -1.92536         5.97792        -2.00610    -518.492E-03     330.202E-03    -153.063E-03    -177.139E-03    -144.018E-03     321.157E-03    -177.139E-03     130.969E-03     62.0358E+06     4.80384E+06    -58.3759E+06    -57.9761E+06     4.40404E+06     62.0358E+06     2.66770E+06         53.0413
            1149     7.52779E-03     4.25998E-03         6.00744        -1.97155        -2.02552        -1.96859         5.99703        -2.01807    -539.433E-03     336.860E-03    -157.627E-03    -179.233E-03    -148.238E-03     327.470E-03    -179.233E-03     134.958E-03     46.3609E+06    -38.5194E+06    -69.4522E+06    -65.1944E+06    -42.7773E+06     46.3609E+06     419.641E+03         52.3015
            1150     6.67678E-03     4.33542E-03         5.99773        -1.98121        -2.03799        -1.97997         5.98904        -2.03054    -411.720E-03     344.290E-03    -163.264E-03    -181.026E-03    -153.905E-03     334.932E-03    -181.026E-03     136.461E-03     28.0191E+06    -65.5690E+06    -94.5770E+06    -70.0470E+06    -90.0990E+06     28.0191E+06    -3.58156E+06         51.8435
            1151     5.83500E-03     4.41486E-03         6.00690        -2.00210        -2.05429        -1.99801         5.99332        -2.04479    -509.243E-03     351.538E-03    -169.127E-03    -182.411E-03    -160.360E-03     342.719E-03    -182.359E-03     134.238E-03     7.86368E+06    -72.6155E+06    -141.230E+06    -74.3123E+06    -139.533E+06     7.86368E+06    -7.52203E+06         51.5528
            1152     4.99964E-03     4.50228E-03         5.98727        -1.98564        -2.07316        -1.98077         5.97290        -2.06366    -350.249E-03     357.174E-03    -173.673E-03    -183.501E-03    -166.261E-03     349.406E-03    -183.145E-03     127.366E-03    -14.7505E+06     -78.632E+06    -192.651E+06    -79.5101E+06    -191.773E+06    -14.7505E+06    -9.10691E+06         51.3468
            1153     4.16592E-03     4.58877E-03         6.03263        -2.01045        -2.11261        -2.00036         5.99841        -2.08847    -623.855E-03     360.901E-03    -176.454E-03    -184.447E-03    -171.191E-03     354.597E-03    -183.406E-03     115.527E-03    -38.7432E+06    -86.0603E+06    -233.897E+06    -86.5495E+06    -233.408E+06    -38.7432E+06    -7.91524E+06         51.1749
            1154     3.33134E-03     4.67092E-03         6.08008        -2.03982        -2.14358        -2.01472         6.03085        -2.11944    -249.432E-03     363.306E-03    -178.569E-03    -184.737E-03    -175.484E-03     358.692E-03    -183.208E-03     99.1896E-03    -60.8263E+06    -94.8259E+06    -270.752E+06    -94.9574E+06    -270.620E+06    -60.8263E+06    -2.50795E+06         51.0141
            1155     2.50285E-03     4.74682E-03         6.24422        -2.07274        -2.29144        -2.08457         6.11698        -2.15237    -895.573E-03     364.054E-03    -180.236E-03    -183.818E-03    -178.538E-03     361.147E-03    -182.609E-03     78.5500E-03    -81.1641E+06    -103.906E+06    -301.703E+06    -103.989E+06    -301.620E+06    -81.1641E+06     3.50320E+06         50.8623
            1156     1.66992E-03     4.80445E-03         6.52814        -2.17634        -2.48685        -2.15534         6.19664        -2.17634     535.701E-03     363.176E-03    -180.622E-03    -182.554E-03    -179.857E-03     361.726E-03    -181.869E-03     54.7592E-03    -98.4076E+06    -111.542E+06    -320.041E+06    -111.673E+06    -319.910E+06    -98.4076E+06     5.17850E+06         50.7315
            1157     835.585E-06     4.84363E-03         7.54515        -2.07748        -3.60617        -2.29766         6.23664        -2.07748        -2.93870     362.277E-03    -179.926E-03    -182.351E-03    -181.327E-03     361.781E-03    -180.454E-03     30.6175E-03    -112.916E+06    -117.796E+06    -331.223E+06    -117.812E+06    -331.140E+06    -112.983E+06     4.14661E+06         50.6397
            1158     14.2350E-03     3.03301E-03         6.24669        -1.82443        -1.91823        -1.84551         6.24048        -1.89092     390.720E-03     390.627E-03    -176.140E-03    -214.487E-03    -200.001E-03     376.141E-03    -176.140E-03     179.691E-03     116.308E+06     77.2056E+06    -8.74376E+06    -8.48153E+06     76.9434E+06     116.308E+06     4.13748E+06         68.7222
            1159     13.4584E-03     2.79166E-03         6.29368        -1.86174        -1.91063        -1.88551         6.29273        -1.88591     65.1496E-03     372.679E-03    -168.090E-03    -204.589E-03    -189.226E-03     364.282E-03    -175.057E-03     129.163E-03     90.8334E+06     58.1930E+06    -12.7036E+06    -12.4655E+06     57.9549E+06     90.8334E+06     2.81741E+06         66.3068
            1160     12.6129E-03     2.75460E-03         6.21585        -1.85220        -1.88401        -1.85187         6.21480        -1.88330    -164.630E-03     336.666E-03    -155.931E-03    -180.735E-03    -156.496E-03     331.647E-03    -175.150E-03     98.7362E-03     75.4351E+06     37.8224E+06    -21.3327E+06    -20.9832E+06     37.4728E+06     75.4351E+06     3.58469E+06         63.3592
            1161     11.7389E-03     2.72986E-03         6.12541        -1.82763        -1.88512        -1.82478         6.12257        -1.88512    -294.487E-03     322.616E-03    -145.703E-03    -176.913E-03    -139.785E-03     316.698E-03    -176.913E-03     104.400E-03     69.9900E+06     32.0192E+06    -29.8410E+06    -29.5246E+06     31.7028E+06     69.9900E+06     4.00965E+06         60.2731
            1162     10.8679E-03     2.72462E-03         6.06087        -1.83137        -1.88958        -1.82629         6.05579        -1.88958    -392.312E-03     317.078E-03    -137.246E-03    -179.832E-03    -131.240E-03     311.072E-03    -179.832E-03     103.171E-03     63.9198E+06     33.1797E+06    -36.5083E+06    -36.2827E+06     32.9541E+06     63.9198E+06     2.44236E+06         57.4964
            1163     9.98669E-03     2.74588E-03         6.01839        -1.84951        -1.89630        -1.84533         6.01292        -1.89501    -403.785E-03     318.458E-03    -134.834E-03    -183.624E-03    -128.531E-03     312.155E-03    -183.624E-03     105.263E-03     55.4331E+06     31.6644E+06    -42.6709E+06    -42.5425E+06     31.5360E+06     55.4331E+06    -827.676E+03         55.3251
            1164     9.11210E-03     2.77213E-03         6.00148        -1.87439        -1.90825        -1.87670         5.99537        -1.89983    -422.740E-03     325.786E-03    -137.745E-03    -188.041E-03    -131.052E-03     319.093E-03    -188.041E-03     109.423E-03     49.7020E+06     26.3187E+06    -48.4906E+06    -48.2809E+06     27.0923E+06     48.7187E+06    -2.32997E+06         53.8512
            1165     8.24229E-03     2.81123E-03         5.97807        -1.88999        -1.91267        -1.89404         5.97322        -1.90376    -359.878E-03     336.048E-03    -143.201E-03    -192.847E-03    -136.343E-03     329.189E-03    -192.847E-03     112.307E-03     37.0142E+06     3.74150E+06    -54.6541E+06    -53.5853E+06     3.65599E+06     36.0309E+06    -5.00328E+06         53.0082
            1166     7.37527E-03     2.85971E-03         5.95963        -1.89870        -1.92419        -1.90997         5.95399        -1.90728    -383.313E-03     349.056E-03    -151.198E-03    -197.858E-03    -144.402E-03     342.259E-03    -197.858E-03     113.898E-03     16.8326E+06    -30.9401E+06    -68.7831E+06    -57.5032E+06    -42.2200E+06     16.8326E+06    -11.8069E+06         52.6529
            1167     6.52326E-03     2.91449E-03         5.91744        -1.89144        -1.92687        -1.90195         5.91281        -1.91172    -283.684E-03     364.277E-03    -161.426E-03    -202.850E-03    -154.775E-03     357.626E-03    -202.850E-03     115.493E-03    -1.72240E+06    -51.1617E+06    -102.383E+06    -59.7555E+06    -93.7893E+06    -1.72240E+06    -16.8137E+06         52.6297
            1168     5.67868E-03     2.98067E-03         5.89690        -1.89790        -1.93232        -1.90285         5.88772        -1.91818    -393.646E-03     380.012E-03    -172.375E-03    -207.636E-03    -166.027E-03     373.663E-03    -207.636E-03     115.604E-03    -18.1882E+06    -59.9147E+06    -156.204E+06    -63.2175E+06    -152.901E+06    -18.1882E+06    -16.1273E+06         52.8039
            1169     4.84322E-03     3.04886E-03         5.86290        -1.87515        -1.94305        -1.87895         5.85257        -1.92891    -236.051E-03     395.755E-03    -183.736E-03    -212.019E-03    -177.961E-03     389.979E-03    -212.019E-03     112.614E-03    -33.2177E+06    -68.1639E+06    -207.941E+06    -69.4099E+06    -206.695E+06    -33.2177E+06    -12.2241E+06         53.0718
            1170     4.02072E-03     3.12303E-03         5.90235        -1.88975        -1.98200        -1.90021         5.87433        -1.94351    -513.987E-03     410.509E-03    -194.692E-03    -215.817E-03    -189.882E-03     405.699E-03    -215.817E-03     105.093E-03    -47.9819E+06    -77.3748E+06    -252.238E+06    -77.7954E+06    -251.817E+06    -47.9819E+06    -6.13965E+06         53.3608
            1171     3.20755E-03     3.19330E-03         5.92939        -1.90624        -2.00121        -1.89532         5.87998        -1.96272    -60.7298E-03     423.266E-03    -204.319E-03    -218.946E-03    -200.743E-03     419.690E-03    -218.946E-03     92.3368E-03    -63.5105E+06    -87.1154E+06    -288.658E+06    -87.2281E+06    -288.545E+06    -63.5105E+06     708.898E+03         53.6246
            1172     2.39755E-03     3.25524E-03         6.08936        -1.92515        -2.15375        -1.95760         5.94969        -1.98164    -814.731E-03     433.836E-03    -212.487E-03    -221.350E-03    -210.170E-03     431.520E-03    -221.350E-03     75.1284E-03    -80.4802E+06    -94.7277E+06    -305.455E+06    -94.8473E+06    -305.336E+06    -80.4802E+06     4.66246E+06         53.8372
            1173     1.59674E-03     3.31091E-03         6.38622        -1.99979        -2.38341        -1.96638         5.96918        -1.99979     825.013E-03     441.869E-03    -218.844E-03    -223.026E-03    -217.633E-03     440.659E-03    -223.026E-03     54.1159E-03    -93.0253E+06    -99.6754E+06    -313.854E+06    -99.7982E+06    -313.731E+06    -93.0253E+06     5.09746E+06         53.9874
            1174     796.594E-06     3.34507E-03         7.69913        -2.04706        -3.66386        -1.97906         6.01434        -2.04706        -3.30948     446.767E-03    -221.572E-03    -225.195E-03    -222.426E-03     446.335E-03    -223.909E-03     31.5452E-03    -100.486E+06    -103.507E+06    -319.921E+06    -102.949E+06    -319.857E+06    -101.108E+06     3.14681E+06         54.0772
            1175     14.2622E-03     1.46068E-03         6.65252        -1.84019        -1.95398        -1.94797         6.64652        -1.84019     344.189E-03     419.299E-03    -179.145E-03    -240.154E-03    -228.810E-03     407.956E-03    -179.145E-03     165.342E-03     127.024E+06     77.2225E+06    -3.14276E+06    -2.76250E+06     76.8422E+06     127.024E+06     4.02568E+06         68.8380
            1176     13.4237E-03     1.40688E-03         6.44884        -1.82672        -1.86975        -1.86357         6.44857        -1.83263    -7.19604E-03     353.642E-03    -163.800E-03    -189.842E-03    -171.796E-03     349.693E-03    -177.897E-03     90.0160E-03     96.0084E+06     59.0739E+06    -9.99353E+06    -9.37840E+06     58.4588E+06     96.0084E+06     5.47948E+06         66.4544
            1177     12.5381E-03     1.37706E-03         6.27438        -1.80679        -1.83183        -1.80690         6.27378        -1.83112    -121.866E-03     322.267E-03    -142.986E-03    -179.282E-03    -139.842E-03     319.124E-03    -179.282E-03     71.8724E-03     77.7414E+06     39.4999E+06    -16.6002E+06    -16.0509E+06     38.9506E+06     77.7414E+06     5.40218E+06         63.4385
            1178     11.6688E-03     1.35878E-03         6.16300        -1.79554        -1.83297        -1.79421         6.16167        -1.83297    -185.072E-03     313.834E-03    -131.415E-03    -182.419E-03    -128.464E-03     310.882E-03    -182.419E-03     66.1140E-03     67.4382E+06     35.2975E+06    -21.7127E+06    -21.4542E+06     35.0390E+06     67.4382E+06     2.67097E+06         60.3007
            1179     10.7817E-03     1.36496E-03         6.09167        -1.80918        -1.83798        -1.80972         6.08967        -1.83545    -227.066E-03     312.396E-03    -125.741E-03    -186.655E-03    -123.080E-03     309.735E-03    -186.655E-03     62.5681E-03     53.7770E+06     34.0208E+06    -27.0715E+06    -26.9923E+06     37.5948E+06     50.1238E+06    -153.179E+03         57.5444
            1180     9.89872E-03     1.37527E-03         6.04181        -1.82958        -1.84542        -1.83633         6.03997        -1.83684    -216.312E-03     318.198E-03    -126.384E-03    -191.814E-03    -123.736E-03     315.550E-03    -191.814E-03     62.5089E-03     41.3037E+06     26.1611E+06    -32.9476E+06    -32.8072E+06     35.5800E+06     31.7444E+06    -2.54136E+06         55.4788
            1181     9.01551E-03     1.38963E-03         5.99716        -1.83656        -1.85610        -1.85431         5.99537        -1.83656    -207.991E-03     328.455E-03    -130.753E-03    -197.702E-03    -128.084E-03     325.787E-03    -197.702E-03     62.8092E-03     28.1895E+06     10.8483E+06    -40.1745E+06    -39.8630E+06     26.3067E+06     12.4197E+06    -4.42803E+06         54.1889
            1182     8.13793E-03     1.41101E-03         5.94356        -1.83566        -1.85238        -1.85107         5.94226        -1.83566    -161.974E-03     342.146E-03    -137.972E-03    -204.174E-03    -135.353E-03     339.527E-03    -204.174E-03     63.4009E-03     11.1987E+06    -12.0028E+06    -47.6008E+06    -46.0995E+06     7.81757E+06    -10.1230E+06    -7.85701E+06         53.5922
            1183     7.27378E-03     1.43571E-03         5.89595        -1.83529        -1.84646        -1.84495         5.89444        -1.83529    -170.206E-03     359.084E-03    -147.930E-03    -211.153E-03    -145.398E-03     356.552E-03    -211.153E-03     64.7085E-03    -17.7366E+06    -35.6932E+06    -67.3116E+06    -52.5884E+06    -38.4223E+06    -29.7307E+06    -14.0087E+06         53.5309
            1184     6.41305E-03     1.46775E-03         5.84595        -1.82490        -1.84421        -1.83155         5.84464        -1.83626    -118.877E-03     378.713E-03    -160.226E-03    -218.487E-03    -157.763E-03     376.250E-03    -218.487E-03     65.3751E-03    -42.3794E+06     -54.013E+06    -113.024E+06    -60.7977E+06    -105.703E+06    -42.9157E+06    -15.7303E+06         53.8374
            1185     5.56726E-03     1.50224E-03         5.82192        -1.82685        -1.84999        -1.83559         5.81889        -1.83821    -189.090E-03     400.529E-03    -174.609E-03    -225.920E-03    -172.273E-03     398.192E-03    -225.920E-03     65.3856E-03    -50.9983E+06    -67.3567E+06    -173.256E+06    -69.3461E+06    -171.267E+06    -50.9983E+06    -12.1177E+06         54.3664
            1186     4.73634E-03     1.54238E-03         5.79403        -1.82003        -1.85300        -1.82793         5.79016        -1.84123    -82.5290E-03     423.506E-03    -190.327E-03    -233.179E-03    -188.237E-03     421.415E-03    -233.179E-03     64.2588E-03    -56.5883E+06    -76.4088E+06    -226.551E+06    -76.9326E+06    -226.027E+06    -56.5883E+06    -6.81836E+06         55.0024
            1187     3.91704E-03     1.58203E-03         5.81009        -1.82323        -1.87704        -1.84389         5.79813        -1.84443    -264.329E-03     446.693E-03    -206.717E-03    -239.975E-03    -204.917E-03     444.893E-03    -239.975E-03     61.4625E-03    -61.8077E+06    -83.3740E+06    -271.330E+06    -83.4552E+06    -271.249E+06    -61.8077E+06    -591.995E+03         55.6580
            1188     3.11303E-03     1.62370E-03         5.80014        -1.81733        -1.88245        -1.82522         5.77542        -1.84984     46.3472E-03     468.400E-03    -222.400E-03    -245.999E-03    -220.995E-03     466.994E-03    -245.999E-03     55.6744E-03    -71.0011E+06     -88.324E+06    -297.467E+06    -88.3942E+06    -297.397E+06    -71.0011E+06     3.43549E+06         56.2672
            1189     2.32300E-03     1.66442E-03         5.89030        -1.82130        -1.97006        -1.86297         5.81571        -1.85381    -494.718E-03     487.370E-03    -236.316E-03    -251.053E-03    -235.390E-03     486.444E-03    -251.053E-03     46.3414E-03    -82.1349E+06    -91.0099E+06    -303.740E+06    -91.1034E+06    -303.646E+06    -82.1349E+06     4.17587E+06         56.7824
            1190     1.53990E-03     1.69244E-03         6.01820        -1.84655        -2.08427        -1.81945         5.77291        -1.86608     669.964E-03     502.835E-03    -247.899E-03    -254.937E-03    -247.413E-03     502.350E-03    -254.937E-03     33.5330E-03    -88.2747E+06    -92.3226E+06    -307.758E+06    -92.3928E+06    -307.688E+06    -88.2747E+06     3.44392E+06         57.1718
            1191     769.787E-06     1.71555E-03         6.90065        -2.00497        -2.81204        -1.65105         5.84310        -2.10842        -2.35740     512.834E-03    -254.856E-03    -257.978E-03    -254.680E-03     512.658E-03    -257.978E-03     18.9939E-03    -91.1308E+06    -93.6907E+06    -310.232E+06    -93.1148E+06    -310.186E+06    -91.7527E+06     2.36577E+06         57.4183
            1192     840.698E-06     78.3858E-03         4.93000    -617.692E-03        -1.44469    -509.310E-03         4.55412        -1.17719        -1.74690     344.876E-03    -171.580E-03    -173.295E-03    -173.015E-03     344.873E-03    -171.858E-03     1.36041E-03    -153.678E+06    -160.495E+06    -369.577E+06    -158.882E+06    -369.573E+06    -155.295E+06    -501.499E+03         49.3589
            1193     1.68347E-03     78.3857E-03         4.90185    -863.087E-03        -1.17955    -949.867E-03         4.67373    -864.649E-03    -723.523E-03     343.850E-03    -171.498E-03    -172.351E-03    -171.489E-03     343.841E-03    -172.351E-03     3.99035E-03    -138.615E+06    -153.318E+06    -352.243E+06    -153.323E+06    -352.238E+06    -138.615E+06    -607.190E+03         49.5326
            1194     2.52677E-03     78.3882E-03         5.17839    -895.439E-03        -1.43079    -968.910E-03         4.71807    -897.002E-03        -1.70842     342.880E-03    -170.786E-03    -172.093E-03    -170.758E-03     342.852E-03    -172.093E-03     7.32217E-03    -116.680E+06    -144.836E+06    -325.659E+06    -144.838E+06    -325.658E+06    -116.680E+06    -208.203E+03         49.8118
            1195     3.37036E-03     78.3948E-03         5.54514    -921.581E-03        -1.74982        -1.03912         4.83444    -921.581E-03    -382.704E-03     342.573E-03    -170.656E-03    -171.917E-03    -170.577E-03     342.494E-03    -171.917E-03     12.3375E-03    -91.7895E+06    -134.665E+06    -290.066E+06    -134.666E+06    -290.066E+06    -91.7895E+06    -54.3937E+03         50.1917
            1196     4.21212E-03     78.4072E-03         5.27570    -944.401E-03        -1.43353        -1.06617         4.90834    -944.401E-03         1.02568     342.389E-03    -170.556E-03    -171.833E-03    -170.357E-03     342.190E-03    -171.833E-03     19.7296E-03    -67.1983E+06    -123.771E+06    -248.524E+06    -123.772E+06    -248.523E+06    -67.1983E+06     28.2468E+03         50.6600
            1197     5.05634E-03     78.4323E-03         5.18397    -963.257E-03        -1.30899        -1.12231         4.99728    -963.257E-03     296.449E-03     342.043E-03    -170.271E-03    -171.771E-03    -169.864E-03     341.635E-03    -171.771E-03     28.5232E-03    -43.0718E+06    -112.563E+06    -201.975E+06    -112.581E+06    -201.957E+06    -43.0718E+06     726.140E+03         51.1986
            1198     5.90080E-03     78.4653E-03         5.27154    -981.571E-03        -1.37339        -1.18311         5.08127    -981.571E-03     242.319E-03     342.605E-03    -170.745E-03    -171.860E-03    -170.131E-03     341.891E-03    -171.760E-03     37.9510E-03    -19.2641E+06    -101.044E+06    -157.145E+06    -101.066E+06    -157.124E+06    -19.2641E+06     845.234E+03         51.7857
            1199     6.74046E-03     78.5106E-03         5.26706    -999.845E-03        -1.34257        -1.26383         5.18832    -999.845E-03        -1.21935     343.045E-03    -171.149E-03    -171.896E-03    -170.083E-03     341.879E-03    -171.796E-03     48.5780E-03     2.92089E+06    -87.9282E+06    -109.854E+06    -89.6112E+06    -108.171E+06     2.92089E+06     478.261E+03         52.4020
            1200     7.58376E-03     78.5746E-03         5.31159        -1.01794        -1.35614        -1.33946         5.29490        -1.01794     151.513E-03     342.620E-03    -170.835E-03    -171.786E-03    -169.088E-03     340.873E-03    -171.786E-03     59.5473E-03     24.9180E+06    -50.1639E+06    -78.3731E+06    -78.2769E+06    -50.2600E+06     24.9180E+06     857.008E+03         53.0424
            1201     8.42892E-03     78.6517E-03         5.43903        -1.03571        -1.44905        -1.42272         5.41270        -1.03571    -44.7768E-03     342.462E-03    -170.761E-03    -171.701E-03    -168.420E-03     340.121E-03    -171.701E-03     69.0240E-03     44.6372E+06     6.93946E+06    -66.9565E+06    -66.9310E+06     6.91395E+06     44.6372E+06     550.917E+03         53.7323
            1202     9.27251E-03     78.7369E-03         5.57345        -1.05385        -1.54844        -1.51601         5.54102        -1.05385     63.8910E-03     342.825E-03    -171.174E-03    -171.651E-03    -168.213E-03     339.811E-03    -171.598E-03     78.3021E-03     56.4931E+06     37.1766E+06    -56.7808E+06    -56.7554E+06     37.1512E+06     56.4931E+06    -936.215E+03         54.5492
            1203     10.1182E-03     78.8430E-03         5.73611        -1.07286        -1.68154        -1.61695         5.67152        -1.07286    -321.693E-03     343.961E-03    -171.485E-03    -172.476E-03    -168.776E-03     340.312E-03    -171.536E-03     86.4389E-03     64.0511E+06     43.8890E+06    -46.9730E+06    -46.9345E+06     43.8506E+06     64.0511E+06    -1.53093E+06         55.6435
            1204     10.9601E-03     78.9519E-03         5.84490        -1.09312        -1.76464        -1.71416         5.79442        -1.09312        -1.06676     345.268E-03    -171.550E-03    -173.718E-03    -169.619E-03     341.170E-03    -171.550E-03     91.8404E-03     73.7144E+06     48.9449E+06    -37.8338E+06    -37.8058E+06     48.9170E+06     73.7144E+06    -886.385E+03         57.2351
            1205     11.8012E-03     79.0702E-03         5.91465        -1.11313        -1.80692        -1.80299         5.91072        -1.11313    -223.547E-03     346.444E-03    -171.586E-03    -174.858E-03    -169.579E-03     341.165E-03    -171.586E-03     103.933E-03     83.9367E+06     54.3066E+06     -28.828E+06    -28.8132E+06     54.2918E+06     83.9367E+06     32.5589E+03         59.5449
            1206     12.6470E-03     79.2200E-03         6.02251        -1.13271        -1.88108        -1.87896         6.02039        -1.13271    -163.254E-03     346.362E-03    -171.566E-03    -174.796E-03    -169.306E-03     340.872E-03    -171.566E-03     106.154E-03     89.2109E+06     61.0959E+06    -20.3701E+06    -20.3417E+06     61.0675E+06     89.2109E+06    -297.272E+03         62.6223
            1207     13.4910E-03     79.3381E-03         6.15401        -1.14849        -1.97743        -1.94303         6.11961        -1.14849     551.828E-03     352.197E-03    -171.537E-03    -180.660E-03    -171.227E-03     342.764E-03    -171.537E-03     136.057E-03     94.7810E+06     71.5099E+06    -13.9409E+06    -13.9198E+06     71.4887E+06     94.7810E+06    -593.758E+03         66.1281
            1208     14.3341E-03     79.5734E-03         6.27744        -1.16223        -2.06740        -2.01724         6.22728        -1.16223     182.744E-03     351.954E-03    -171.577E-03    -180.377E-03    -171.871E-03     343.448E-03    -171.577E-03     125.214E-03     113.245E+06     88.2347E+06    -7.55423E+06    -7.55349E+06     88.2340E+06     113.245E+06    -141.608E+03         69.2945
            1209     842.648E-06     79.7955E-03         4.51786    -498.543E-03        -1.40276    -174.934E-03         3.58815    -796.660E-03    -509.601E-03     343.938E-03    -171.220E-03    -172.718E-03    -171.892E-03     343.935E-03    -172.043E-03     1.76492E-03    -152.747E+06    -159.966E+06    -369.459E+06    -158.353E+06    -369.456E+06    -154.363E+06     325.088E+03         49.3490
            1210     1.68456E-03     79.7949E-03         4.33539    -503.985E-03        -1.22203    -576.650E-03         3.69002    -503.985E-03        -1.10994     343.699E-03    -171.580E-03    -172.120E-03    -171.675E-03     343.689E-03    -172.013E-03     4.33964E-03    -138.654E+06    -153.957E+06    -352.546E+06    -153.963E+06    -352.540E+06    -138.654E+06     461.553E+03         49.5239
            1211     2.52678E-03     79.7960E-03         4.51809    -536.112E-03        -1.38137    -623.143E-03         3.75987    -536.112E-03        -1.50275     343.179E-03    -171.199E-03    -171.980E-03    -171.172E-03     343.152E-03    -171.980E-03     7.37385E-03    -115.956E+06    -145.088E+06    -325.641E+06    -145.093E+06    -325.637E+06    -115.956E+06    -4.48403E+03         49.8039
            1212     3.36992E-03     79.8016E-03         4.89720    -565.616E-03        -1.71584    -698.454E-03         3.87981    -565.616E-03    -530.742E-03     342.698E-03    -170.791E-03    -171.907E-03    -170.708E-03     342.615E-03    -171.907E-03     12.5451E-03    -91.5914E+06    -134.583E+06    -289.871E+06    -134.586E+06    -289.868E+06    -91.5914E+06     82.7605E+03         50.1842
            1213     4.21359E-03     79.8171E-03         4.49848    -593.967E-03        -1.27077    -743.439E-03         3.97115    -593.967E-03         1.02199     342.347E-03    -170.510E-03    -171.837E-03    -170.318E-03     342.155E-03    -171.837E-03     19.5445E-03    -67.3017E+06    -124.220E+06    -248.692E+06    -124.224E+06    -248.688E+06    -67.3017E+06     382.023E+03         50.6529
            1214     5.05622E-03     79.8372E-03         4.33418    -619.029E-03        -1.06634    -802.787E-03         4.07063    -619.029E-03     153.024E-03     341.998E-03    -170.228E-03    -171.769E-03    -169.844E-03     341.613E-03    -171.769E-03     27.6426E-03    -43.2706E+06    -112.700E+06    -202.558E+06    -112.728E+06    -202.530E+06    -43.2706E+06     293.862E+03         51.1919
            1215     5.89922E-03     79.8739E-03         4.41819    -642.830E-03        -1.12083    -868.706E-03         4.16606    -642.830E-03     171.283E-03     342.255E-03    -170.422E-03    -171.833E-03    -169.808E-03     341.541E-03    -171.733E-03     37.8503E-03    -19.5267E+06    -100.745E+06    -157.210E+06    -100.782E+06    -157.174E+06    -19.5267E+06     433.902E+03         51.7799
            1216     6.74308E-03     79.9228E-03         4.38552    -666.272E-03        -1.06192    -947.806E-03         4.27141    -666.272E-03        -1.34091     342.887E-03    -171.043E-03    -171.844E-03    -169.961E-03     341.704E-03    -171.744E-03     48.9278E-03     2.91948E+06    -87.8972E+06    -109.738E+06    -89.3841E+06    -108.251E+06     2.91948E+06     581.124E+03         52.3969
            1217     7.58503E-03     79.9816E-03         4.40239    -689.777E-03        -1.04737        -1.02940         4.38442    -689.777E-03     49.7992E-03     342.776E-03    -171.033E-03    -171.742E-03    -169.274E-03     341.017E-03    -171.742E-03     59.7761E-03     25.2741E+06    -50.3402E+06    -77.5309E+06    -77.4520E+06    -50.4190E+06     25.2741E+06     327.817E+03         53.0371
            1218     8.42849E-03     80.0584E-03         4.55023    -713.644E-03        -1.15642        -1.12476         4.51857    -713.644E-03    -160.492E-03     342.818E-03    -171.127E-03    -171.691E-03    -168.779E-03     340.470E-03    -171.691E-03     69.1919E-03     45.7787E+06     7.92720E+06    -65.4286E+06    -65.4236E+06     7.92224E+06     45.7787E+06     190.803E+03         53.7243
            1219     9.27155E-03     80.1472E-03         4.69981    -738.668E-03        -1.26958        -1.23111         4.66134    -738.668E-03    -42.7050E-03     343.567E-03    -171.527E-03    -172.040E-03    -168.970E-03     340.614E-03    -171.644E-03     77.6772E-03     58.7594E+06     39.4325E+06    -54.6718E+06    -54.6507E+06     39.4115E+06     58.7594E+06     296.883E+03         54.5344
            1220     10.1139E-03     80.2470E-03         4.87997    -764.824E-03        -1.41690        -1.33747         4.80053    -764.824E-03    -435.231E-03     344.041E-03    -171.563E-03    -172.478E-03    -168.834E-03     340.449E-03    -171.614E-03     85.7545E-03     65.2402E+06     44.9020E+06    -45.7574E+06    -45.7196E+06     44.8642E+06     65.2402E+06    -403.690E+03         55.6179
            1221     10.9591E-03     80.3635E-03         4.99999    -791.781E-03        -1.50689        -1.43771         4.93082    -791.781E-03        -1.17804     344.639E-03    -171.595E-03    -173.044E-03    -168.901E-03     340.496E-03    -171.595E-03     92.2091E-03     73.7891E+06     48.2369E+06    -37.4039E+06    -37.3696E+06     48.2027E+06     73.7891E+06    -1.31975E+06         57.1994
            1222     11.8024E-03     80.4802E-03         5.05892    -818.475E-03        -1.54026        -1.53342         5.05208    -818.475E-03    -333.988E-03     345.962E-03    -171.579E-03    -174.384E-03    -169.071E-03     340.649E-03    -171.579E-03     104.213E-03     83.5963E+06     53.7212E+06    -28.6380E+06    -28.5943E+06     53.6774E+06     83.5963E+06    -1.62406E+06         59.5087
            1223     12.6474E-03     80.6212E-03         5.17412    -844.844E-03        -1.62650        -1.62277         5.17040    -844.844E-03    -261.773E-03     345.960E-03    -171.527E-03    -174.433E-03    -168.949E-03     340.476E-03    -171.527E-03     106.024E-03     88.0524E+06     60.5691E+06    -21.1196E+06    -21.0885E+06     60.5380E+06     88.0524E+06    -701.735E+03         62.6046
            1224     13.4919E-03     80.7519E-03         5.31728    -867.922E-03        -1.74193        -1.70502         5.28037    -867.922E-03     471.436E-03     351.930E-03    -171.492E-03    -180.438E-03    -171.137E-03     342.628E-03    -171.492E-03     135.209E-03     94.3968E+06     71.1149E+06    -14.2209E+06    -14.2196E+06     71.1136E+06     94.3968E+06     76.4884E+03         66.1482
            1225     14.3365E-03     80.9771E-03         5.44486    -889.196E-03        -1.84167        -1.78790         5.39109    -889.196E-03     144.481E-03     352.446E-03    -171.555E-03    -180.891E-03    -172.484E-03     344.038E-03    -171.555E-03     124.924E-03     113.612E+06     88.3616E+06    -7.04662E+06    -7.04534E+06     88.3604E+06     113.612E+06    -190.270E+03         69.3541
            1226     843.058E-06     81.2048E-03         4.32456    -543.338E-03        -1.51017     74.0287E-03         2.74036    -543.338E-03    -10.6912E-03     343.135E-03    -170.910E-03    -172.225E-03    -171.493E-03     343.134E-03    -171.640E-03     1.56951E-03    -155.277E+06    -162.569E+06    -370.485E+06    -161.121E+06    -370.481E+06    -156.728E+06     594.915E+03         49.3370
            1227     1.68556E-03     81.2028E-03         3.82373    -244.006E-03        -1.28471    -281.503E-03         2.82053    -244.006E-03        -1.22386     343.317E-03    -171.527E-03    -171.790E-03    -171.626E-03     343.310E-03    -171.684E-03     3.26712E-03    -139.674E+06    -154.632E+06    -352.004E+06    -154.639E+06    -351.997E+06    -139.674E+06     264.799E+03         49.5140
            1228     2.52800E-03     81.2054E-03         3.96179    -265.699E-03        -1.37521    -341.882E-03         2.92846    -265.699E-03        -1.38996     343.284E-03    -171.485E-03    -171.799E-03    -171.458E-03     343.257E-03    -171.799E-03     7.13964E-03    -116.520E+06    -145.682E+06    -325.188E+06    -145.690E+06    -325.181E+06    -116.520E+06     131.959E+03         49.7966
            1229     3.36970E-03     81.2099E-03         4.33610    -292.080E-03        -1.70968    -410.882E-03         3.03730    -292.080E-03    -577.317E-03     342.908E-03    -171.058E-03    -171.850E-03    -170.975E-03     342.825E-03    -171.850E-03     12.5950E-03    -91.5916E+06    -135.519E+06    -290.302E+06    -135.523E+06    -290.297E+06    -91.5916E+06     344.893E+03         50.1787
            1230     4.21266E-03     81.2237E-03         3.83188    -320.493E-03        -1.17171    -480.350E-03         3.14053    -320.493E-03         1.01394     342.533E-03    -170.693E-03    -171.840E-03    -170.499E-03     342.339E-03    -171.840E-03     19.6082E-03     -66.709E+06    -124.056E+06    -248.416E+06    -124.062E+06    -248.410E+06     -66.709E+06     168.570E+03         50.6482
            1231     5.05576E-03     81.2470E-03         3.58752    -348.721E-03    -893.394E-03    -543.597E-03         3.23773    -348.721E-03     63.8703E-03     342.525E-03    -170.701E-03    -171.825E-03    -170.312E-03     342.137E-03    -171.825E-03     27.8412E-03    -42.6929E+06    -111.894E+06    -202.303E+06    -111.913E+06    -202.284E+06    -42.6929E+06    -187.355E+03         51.1870
            1232     5.89875E-03     81.2807E-03         3.66329    -375.839E-03    -935.959E-03    -610.705E-03         3.33804    -375.839E-03     113.203E-03     342.165E-03    -170.361E-03    -171.804E-03    -169.653E-03     341.457E-03    -171.804E-03     37.6981E-03    -19.8600E+06    -100.494E+06    -157.734E+06    -100.520E+06    -157.709E+06    -19.8600E+06     104.995E+03         51.7739
            1233     6.74245E-03     81.3301E-03         3.60908    -402.663E-03    -848.505E-03    -690.956E-03         3.45153    -402.663E-03        -1.43359     341.938E-03    -170.195E-03    -171.743E-03    -169.052E-03     340.795E-03    -171.743E-03     48.0578E-03     3.08219E+06    -87.3967E+06    -109.520E+06    -88.8068E+06    -108.110E+06     3.08219E+06     185.125E+03         52.3904
            1234     7.58604E-03     81.3921E-03         3.59645    -430.047E-03    -801.249E-03    -779.045E-03         3.57424    -430.047E-03    -25.4111E-03     342.622E-03    -170.935E-03    -171.688E-03    -169.221E-03     340.909E-03    -171.688E-03     58.9567E-03     25.8284E+06    -49.5943E+06    -77.0134E+06    -77.0097E+06    -49.5981E+06     25.8284E+06    -177.198E+03         53.0301
            1235     8.42840E-03     81.4661E-03         3.74319    -458.111E-03    -913.758E-03    -873.888E-03         3.70332    -458.111E-03    -234.635E-03     343.435E-03    -171.557E-03    -171.878E-03    -169.390E-03     341.057E-03    -171.667E-03     69.6695E-03     45.8004E+06     8.17029E+06    -65.9028E+06    -65.9007E+06     8.16824E+06     45.8004E+06    -192.073E+03         53.7150
            1236     9.27204E-03     81.5566E-03         3.87667    -486.608E-03        -1.01390    -966.377E-03         3.82915    -486.608E-03    -116.884E-03     343.963E-03    -171.655E-03    -172.308E-03    -169.288E-03     340.950E-03    -171.662E-03     78.5578E-03     58.1866E+06     39.4388E+06    -55.3024E+06    -55.2819E+06     39.4184E+06     58.1866E+06     42.5524E+03         54.5193
            1237     10.1149E-03     81.6577E-03         4.05195    -515.371E-03        -1.16176        -1.06314         3.95333    -515.371E-03    -507.716E-03     344.112E-03    -171.638E-03    -172.474E-03    -168.780E-03     340.418E-03    -171.638E-03     86.9343E-03     64.9164E+06     45.3932E+06    -44.8348E+06    -44.8147E+06     45.3732E+06     64.9164E+06     289.555E+03         55.5937
            1238     10.9580E-03     81.7677E-03         4.17029    -544.702E-03        -1.25760        -1.16581         4.07851    -544.702E-03        -1.25415     343.853E-03    -171.581E-03    -172.272E-03    -168.005E-03     339.586E-03    -171.581E-03     93.4451E-03     74.7120E+06     49.6751E+06    -35.5947E+06    -35.5866E+06     49.6670E+06     74.7120E+06    -63.4564E+03         57.1675
            1239     11.8049E-03     81.8878E-03         4.21555    -574.133E-03        -1.28107        -1.26994         4.20443    -574.133E-03    -407.358E-03     345.792E-03    -171.526E-03    -174.266E-03    -168.897E-03     340.423E-03    -171.526E-03     104.779E-03     84.5204E+06     54.1955E+06    -28.3832E+06    -28.3435E+06     54.1559E+06     84.5204E+06    -817.134E+03         59.4782
            1240     12.6465E-03     82.0314E-03         4.33644    -603.866E-03        -1.37747        -1.37060         4.32956    -603.866E-03    -340.960E-03     346.990E-03    -171.505E-03    -175.485E-03    -170.045E-03     341.550E-03    -171.505E-03     105.747E-03     88.1624E+06     60.4442E+06    -21.6083E+06    -21.5565E+06     60.3924E+06     88.1624E+06    -1.08687E+06         62.5900
            1241     13.4913E-03     82.1550E-03         4.47202    -631.021E-03        -1.49420        -1.45322         4.43105    -631.021E-03     378.276E-03     352.497E-03    -171.525E-03    -180.972E-03    -171.780E-03     343.306E-03    -171.525E-03     134.384E-03     93.8007E+06     71.1589E+06    -14.2918E+06    -14.2705E+06     71.1376E+06     93.8007E+06    -800.790E+03         66.1656
            1242     14.3341E-03     82.3900E-03         4.57948    -656.083E-03        -1.58725        -1.52837         4.52060    -656.083E-03     99.3710E-03     352.152E-03    -171.601E-03    -180.551E-03    -172.217E-03     343.818E-03    -171.601E-03     124.268E-03     112.640E+06     87.4412E+06    -6.82348E+06    -6.82139E+06     87.4391E+06     112.640E+06    -282.375E+03         69.4095
            1243     841.926E-06     82.6110E-03         3.60598    -344.826E-03        -1.25103     199.560E-03         2.15539    -344.826E-03    -299.263E-03     343.515E-03    -171.377E-03    -172.138E-03    -171.930E-03     343.514E-03    -171.584E-03     698.401E-06    -154.980E+06    -162.278E+06    -370.281E+06    -160.830E+06    -370.278E+06    -156.431E+06    -372.423E+03         49.3271
            1244     1.68480E-03     82.6118E-03         3.19179    -73.9075E-03        -1.12249    -78.5370E-03         2.14784    -73.9075E-03        -1.11144     343.041E-03    -171.276E-03    -171.764E-03    -171.271E-03     343.035E-03    -171.764E-03     2.98265E-03    -138.914E+06    -153.454E+06    -351.134E+06    -153.457E+06    -351.131E+06    -138.914E+06    -721.242E+03         49.5052
            1245     2.52753E-03     82.6127E-03         3.38116    -84.4115E-03        -1.30357    -141.892E-03         2.21948    -84.4115E-03        -1.45263     342.933E-03    -171.202E-03    -171.731E-03    -171.175E-03     342.906E-03    -171.731E-03     6.94032E-03    -116.682E+06    -145.406E+06    -325.359E+06    -145.411E+06    -325.353E+06    -116.682E+06    -357.088E+03         49.7898
            1246     3.37097E-03     82.6192E-03         3.77340    -103.634E-03        -1.67078    -186.486E-03         2.28911    -103.634E-03    -596.625E-03     343.085E-03    -171.300E-03    -171.784E-03    -171.221E-03     343.005E-03    -171.784E-03     12.4379E-03    -91.5207E+06    -135.138E+06    -289.846E+06    -135.141E+06    -289.843E+06    -91.5207E+06    -48.7598E+03         50.1740
            1247     4.21319E-03     82.6315E-03         3.20820    -125.100E-03        -1.07037    -251.812E-03         2.38964    -125.100E-03     940.004E-03     342.970E-03    -171.117E-03    -171.854E-03    -170.923E-03     342.777E-03    -171.854E-03     19.4400E-03    -66.7148E+06    -123.641E+06    -247.813E+06    -123.644E+06    -247.809E+06    -66.7148E+06    -238.956E+03         50.6443
            1248     5.05596E-03     82.6556E-03         2.92615    -149.474E-03    -756.999E-03    -322.985E-03         2.49214    -149.474E-03     10.9432E-03     342.637E-03    -170.756E-03    -171.880E-03    -170.369E-03     342.249E-03    -171.880E-03     27.8643E-03    -43.0191E+06    -112.391E+06    -202.255E+06    -112.405E+06    -202.241E+06    -43.0191E+06    -167.477E+03         51.1826
            1249     5.89824E-03     82.6899E-03         3.00254    -176.220E-03    -804.469E-03    -406.356E-03         2.60443    -176.220E-03     54.0205E-03     342.321E-03    -170.456E-03    -171.865E-03    -169.755E-03     341.620E-03    -171.865E-03     37.4916E-03    -19.7711E+06    -100.425E+06    -157.973E+06    -100.437E+06    -157.961E+06    -19.7711E+06    -164.396E+03         51.7683
            1250     6.74125E-03     82.7367E-03         2.92300    -204.740E-03    -695.589E-03    -489.199E-03         2.71661    -204.740E-03        -1.49025     341.931E-03    -170.133E-03    -171.798E-03    -168.981E-03     340.780E-03    -171.798E-03     48.2160E-03     3.10731E+06    -86.5950E+06    -109.819E+06    -88.3820E+06    -108.032E+06     3.10731E+06    -18.5738E+03         52.3831
            1251     7.58582E-03     82.7992E-03         2.85643    -233.852E-03    -599.586E-03    -570.133E-03         2.82697    -233.852E-03    -102.089E-03     342.219E-03    -170.510E-03    -171.709E-03    -168.789E-03     340.498E-03    -171.709E-03     59.0515E-03     25.7747E+06    -49.1458E+06    -77.4096E+06    -77.3783E+06    -49.1771E+06     25.7747E+06     172.882E+03         53.0208
            1252     8.42947E-03     82.8767E-03         2.97916    -262.461E-03    -694.545E-03    -641.875E-03         2.92649    -262.461E-03    -303.025E-03     343.002E-03    -171.151E-03    -171.851E-03    -168.978E-03     340.618E-03    -171.640E-03     69.6969E-03     44.9673E+06     8.06946E+06    -66.7227E+06    -66.7197E+06     8.06643E+06     44.9673E+06     86.2766E+03         53.7034
            1253     9.27103E-03     82.9657E-03         3.09289    -290.273E-03    -782.070E-03    -719.545E-03         3.03037    -290.273E-03    -174.419E-03     343.344E-03    -171.419E-03    -171.926E-03    -168.684E-03     340.272E-03    -171.589E-03     79.1873E-03     57.3155E+06     39.3995E+06    -56.0172E+06    -56.0093E+06     39.3915E+06     57.3155E+06    -392.282E+03         54.5043
            1254     10.1157E-03     83.0645E-03         3.26791    -318.123E-03    -936.187E-03    -810.999E-03         3.14272    -318.123E-03    -557.774E-03     343.867E-03    -171.538E-03    -172.330E-03    -168.592E-03     340.130E-03    -171.538E-03     87.4417E-03     64.3527E+06     45.1788E+06    -46.1763E+06    -46.1572E+06     45.1596E+06     64.3527E+06    -836.385E+03         55.5735
            1255     10.9608E-03     83.1759E-03         3.38199    -346.939E-03        -1.03603    -914.983E-03         3.26094    -346.939E-03        -1.30299     344.647E-03    -171.517E-03    -173.130E-03    -168.941E-03     340.457E-03    -171.517E-03     92.7526E-03     74.4333E+06     50.2556E+06    -36.6100E+06    -36.5959E+06     50.2415E+06     74.4333E+06    -500.003E+03         57.1405
            1256     11.8036E-03     83.2922E-03         3.39475    -376.392E-03        -1.03650        -1.02041         3.37866    -376.392E-03    -447.927E-03     346.248E-03    -171.526E-03    -174.722E-03    -169.443E-03     340.969E-03    -171.526E-03     103.914E-03     84.8808E+06     54.9444E+06    -27.9845E+06    -27.9795E+06     54.9394E+06     84.8808E+06     116.557E+03         59.4485
            1257     12.6490E-03     83.4439E-03         3.49758    -406.259E-03        -1.12677        -1.11654         3.48735    -406.259E-03    -383.425E-03     347.230E-03    -171.538E-03    -175.692E-03    -170.318E-03     341.856E-03    -171.538E-03     105.115E-03     89.3431E+06     61.1501E+06    -20.4821E+06    -20.4607E+06     61.1287E+06     89.3431E+06    -396.504E+03         62.5724
            1258     13.4889E-03     83.5639E-03         3.61785    -433.539E-03        -1.24058        -1.18932         3.56659    -433.539E-03     340.535E-03     353.260E-03    -171.584E-03    -181.676E-03    -172.447E-03     344.031E-03    -171.584E-03     134.595E-03     94.3890E+06     71.5059E+06    -14.0576E+06    -14.0370E+06     71.4853E+06     94.3890E+06    -696.087E+03         66.1787
            1259     14.3327E-03     83.7984E-03         3.69285    -458.110E-03        -1.31646        -1.24527         3.62166    -458.110E-03     98.6176E-03     351.856E-03    -171.659E-03    -180.197E-03    -171.774E-03     343.433E-03    -171.659E-03     124.834E-03     111.862E+06     86.4866E+06    -7.41305E+06    -7.40867E+06     86.4823E+06     111.862E+06    -402.807E+03         69.4601
            1260     842.316E-06     84.0195E-03         2.46538    -90.4353E-03    -717.565E-03     204.778E-03         1.61347    -160.869E-03        -1.21207     343.574E-03    -171.331E-03    -172.243E-03    -172.094E-03     343.573E-03    -171.479E-03     1.14224E-03    -152.327E+06    -159.555E+06    -368.933E+06    -157.810E+06    -368.930E+06    -154.076E+06    -293.707E+03         49.3186
            1261     1.68487E-03     84.0197E-03         2.37962     24.7697E-03    -755.422E-03     36.8305E-03         1.58737     24.7697E-03    -852.299E-03     343.228E-03    -171.416E-03    -171.813E-03    -171.410E-03     343.223E-03    -171.813E-03     3.14890E-03    -138.098E+06    -152.823E+06    -351.028E+06    -152.824E+06    -351.027E+06    -138.098E+06    -89.0616E+03         49.4975
            1262     2.52821E-03     84.0196E-03         2.75828     20.3795E-03        -1.13147    -24.8919E-03         1.65170     20.3795E-03        -1.60636     343.088E-03    -171.284E-03    -171.804E-03    -171.258E-03     343.063E-03    -171.804E-03     6.69920E-03    -115.584E+06    -144.192E+06    -325.000E+06    -144.193E+06    -324.998E+06    -115.584E+06    -250.364E+03         49.7828
            1263     3.37015E-03     84.0283E-03         3.22300     7.34517E-03        -1.58193    -40.0369E-03         1.68110     7.34517E-03    -547.564E-03     343.154E-03    -171.310E-03    -171.844E-03    -171.234E-03     343.078E-03    -171.844E-03     12.1733E-03    -92.0771E+06    -134.410E+06    -289.349E+06    -134.412E+06    -289.347E+06    -92.0771E+06    -207.859E+03         50.1677
            1264     4.21236E-03     84.0408E-03         2.64464    -5.96227E-03    -981.572E-03    -88.5353E-03         1.75160    -5.96227E-03     842.589E-03     343.103E-03    -171.193E-03    -171.910E-03    -171.005E-03     342.915E-03    -171.910E-03     19.1617E-03    -67.4128E+06    -123.996E+06    -247.403E+06    -124.001E+06    -247.397E+06    -67.4128E+06    -139.115E+03         50.6387
            1265     5.05464E-03     84.0643E-03         2.32859    -22.9141E-03    -642.989E-03    -145.165E-03         1.83077    -22.9141E-03    -31.5503E-03     342.529E-03    -170.603E-03    -171.926E-03    -170.218E-03     342.144E-03    -171.926E-03     27.7589E-03    -43.0240E+06    -112.452E+06    -202.028E+06    -112.463E+06    -202.017E+06    -43.0240E+06    -409.612E+03         51.1775
            1266     5.89862E-03     84.0976E-03         2.40756    -43.9827E-03    -702.692E-03    -229.260E-03         1.93413    -43.9827E-03    -43.4900E-03     342.043E-03    -170.171E-03    -171.872E-03    -169.463E-03     341.335E-03    -171.872E-03     37.6397E-03    -20.0985E+06    -100.811E+06    -157.890E+06    -100.820E+06    -157.881E+06    -20.0985E+06    -376.779E+03         51.7632
            1267     6.74217E-03     84.1452E-03         2.30614    -68.7329E-03    -584.720E-03    -309.079E-03         2.03050    -68.7329E-03        -1.54616     342.222E-03    -170.424E-03    -171.799E-03    -169.250E-03     341.049E-03    -171.799E-03     48.6861E-03     2.17004E+06    -87.6156E+06    -110.031E+06    -89.4530E+06    -108.194E+06     2.17004E+06    -146.196E+03         52.3773
            1268     7.58464E-03     84.2064E-03         2.16342    -94.4100E-03    -421.467E-03    -374.449E-03         2.11640    -94.4100E-03    -184.574E-03     342.359E-03    -170.631E-03    -171.728E-03    -168.875E-03     340.603E-03    -171.728E-03     59.6762E-03     24.7801E+06    -49.6714E+06    -78.0021E+06    -77.9498E+06    -49.7237E+06     24.7801E+06     403.963E+03         53.0133
            1269     8.42830E-03     84.2849E-03         2.27054    -119.251E-03    -505.346E-03    -431.388E-03         2.19658    -119.251E-03    -361.326E-03     342.112E-03    -170.490E-03    -171.622E-03    -168.110E-03     339.732E-03    -171.622E-03     69.5389E-03     44.9519E+06     8.46037E+06    -66.6228E+06    -66.6172E+06     8.45470E+06     44.9519E+06     325.163E+03         53.6934
            1270     9.27478E-03     84.3724E-03         2.36617    -143.341E-03    -583.132E-03    -498.170E-03         2.28121    -143.341E-03    -240.330E-03     342.600E-03    -170.928E-03    -171.672E-03    -168.073E-03     339.578E-03    -171.506E-03     78.4229E-03     57.8279E+06     40.3116E+06    -55.5612E+06    -55.5602E+06     40.3106E+06     57.8279E+06    -194.894E+03         54.4910
            1271     10.1183E-03     84.4730E-03         2.53123    -167.489E-03    -738.150E-03    -576.239E-03         2.36932    -167.489E-03    -604.506E-03     344.265E-03    -171.461E-03    -172.804E-03    -169.138E-03     340.599E-03    -171.461E-03     86.6825E-03     65.4042E+06     46.3757E+06    -45.8649E+06    -45.8517E+06     46.3624E+06     65.4042E+06    -802.649E+03         55.5544
            1272     10.9599E-03     84.5844E-03         2.63107    -192.631E-03    -834.573E-03    -672.962E-03         2.46946    -192.631E-03        -1.32397     345.797E-03    -171.517E-03    -174.280E-03    -170.189E-03     341.706E-03    -171.517E-03     91.8775E-03     74.6151E+06     50.3594E+06    -37.7544E+06    -37.7313E+06     50.3363E+06     74.6151E+06    -1.29666E+06         57.1119
            1273     11.8021E-03     84.7036E-03         2.58263    -218.614E-03    -790.083E-03    -767.719E-03         2.56026    -218.614E-03    -454.540E-03     347.022E-03    -171.600E-03    -175.422E-03    -170.266E-03     341.866E-03    -171.600E-03     102.850E-03     83.9090E+06     54.7728E+06    -29.2934E+06    -29.2753E+06     54.7546E+06     83.9090E+06    -1.05311E+06         59.4125
            1274     12.6444E-03     84.8474E-03         2.64458    -244.530E-03    -857.418E-03    -843.253E-03         2.63041    -244.530E-03    -386.183E-03     346.750E-03    -171.619E-03    -175.132E-03    -169.738E-03     341.356E-03    -171.619E-03     105.339E-03     88.1577E+06     60.4463E+06    -21.1147E+06    -21.1023E+06     60.4339E+06     88.1577E+06    -67.5046E+03         62.5462
            1275     13.4907E-03     84.9789E-03         2.74212    -267.425E-03    -967.403E-03    -898.955E-03         2.67367    -267.425E-03     334.710E-03     352.239E-03    -171.610E-03    -180.629E-03    -171.347E-03     342.957E-03    -171.610E-03     135.045E-03     94.2083E+06     71.2617E+06    -13.7305E+06    -13.7230E+06     71.2543E+06     94.2083E+06     203.022E+03         66.1879
            1276     14.3331E-03     85.2035E-03         2.79781    -287.718E-03        -1.04308    -948.670E-03         2.70340    -287.718E-03     99.6826E-03     351.592E-03    -171.644E-03    -179.948E-03    -171.510E-03     343.154E-03    -171.644E-03     125.181E-03     112.431E+06     86.8823E+06    -6.67851E+06    -6.67332E+06     86.8771E+06     112.431E+06    -334.135E+03         69.5121
            1277     842.786E-06     85.4294E-03         1.95663     86.4272E-03    -780.459E-03     176.775E-03         1.06983     15.9940E-03        -2.39721     343.040E-03    -170.835E-03    -172.205E-03    -172.193E-03     343.039E-03    -170.845E-03     1.43717E-03    -153.107E+06    -159.718E+06    -368.492E+06    -157.972E+06    -368.490E+06    -154.856E+06    -158.634E+03         49.3079
            1278     1.68515E-03     85.4266E-03         1.41928     98.0996E-03    -252.289E-03     105.859E-03         1.06113     98.0996E-03    -376.124E-03     343.691E-03    -171.670E-03    -172.021E-03    -171.973E-03     343.685E-03    -171.711E-03     3.40033E-03    -138.616E+06    -152.999E+06    -351.267E+06    -152.999E+06    -351.267E+06    -138.616E+06     251.614E+03         49.4877
            1279     2.52652E-03     85.4298E-03         2.10127     90.6938E-03    -913.617E-03     33.8091E-03         1.15384     90.6938E-03        -1.73804     343.637E-03    -171.592E-03    -172.045E-03    -171.694E-03     343.612E-03    -171.918E-03     6.81810E-03    -116.879E+06    -144.791E+06    -324.688E+06    -144.793E+06    -324.686E+06    -116.879E+06     353.735E+03         49.7734
            1280     3.36965E-03     85.4354E-03         2.67634     74.5776E-03        -1.47482     19.0799E-03         1.18243     74.5776E-03    -418.385E-03     343.036E-03    -171.069E-03    -171.968E-03    -170.988E-03     342.955E-03    -171.968E-03     12.4309E-03    -92.6455E+06    -134.966E+06    -288.836E+06    -134.971E+06    -288.831E+06    -92.6455E+06    -23.9164E+03         50.1587
            1281     4.21261E-03     85.4509E-03         2.14763     60.0771E-03    -930.357E-03    -20.5648E-03         1.23783     60.0771E-03     772.040E-03     342.491E-03    -170.568E-03    -171.923E-03    -170.369E-03     342.292E-03    -171.923E-03     19.7942E-03    -67.5044E+06    -123.757E+06    -247.118E+06    -123.775E+06    -247.100E+06    -67.5044E+06    -29.3611E+03         50.6309
            1282     5.05563E-03     85.4720E-03         1.82068     45.7255E-03    -586.927E-03    -39.1750E-03         1.27292     45.7255E-03    -5.34743E-03     342.296E-03    -170.433E-03    -171.863E-03    -170.026E-03     341.889E-03    -171.863E-03     28.4828E-03    -43.2009E+06    -112.927E+06    -201.497E+06    -112.943E+06    -201.482E+06    -43.2009E+06     227.308E+03         51.1720
            1283     5.89851E-03     85.5053E-03         1.89000     31.7895E-03    -643.566E-03    -82.2454E-03         1.32868     31.7895E-03    -86.8910E-03     342.410E-03    -170.580E-03    -171.831E-03    -169.866E-03     341.697E-03    -171.831E-03     37.9420E-03    -20.2598E+06    -101.770E+06    -157.093E+06    -101.783E+06    -157.080E+06    -20.2598E+06    -394.641E+03         51.7598
            1284     6.74206E-03     85.5526E-03         1.75017     16.2821E-03    -494.898E-03    -134.832E-03         1.39010     16.2821E-03        -1.55144     342.407E-03    -170.605E-03    -171.802E-03    -169.457E-03     341.259E-03    -171.802E-03     48.1587E-03     1.82902E+06    -88.3683E+06    -109.711E+06    -89.8034E+06    -108.276E+06     1.82902E+06    -814.347E+03         52.3748
            1285     7.58557E-03     85.6164E-03         1.53787    -707.149E-06    -274.229E-03    -192.679E-03         1.45632    -707.149E-06    -235.857E-03     342.146E-03    -170.410E-03    -171.736E-03    -168.692E-03     340.428E-03    -171.736E-03     58.9758E-03     24.3947E+06    -50.6235E+06    -77.8986E+06    -77.7774E+06    -50.7447E+06     24.3947E+06    -402.756E+03         53.0102
            1286     8.42959E-03     85.6902E-03         1.63012    -18.6173E-03    -360.074E-03    -248.617E-03         1.51867    -18.6173E-03    -381.911E-03     342.161E-03    -170.521E-03    -171.641E-03    -168.210E-03     339.839E-03    -171.629E-03     68.7086E-03     45.8161E+06     9.06047E+06    -65.5621E+06    -65.5532E+06     9.05161E+06     45.8161E+06    -28.7212E+03         53.6878
            1287     9.27252E-03     85.7793E-03         1.70618    -36.9540E-03    -431.926E-03    -307.105E-03         1.58136    -36.9540E-03    -275.476E-03     342.939E-03    -171.131E-03    -171.808E-03    -168.481E-03     340.019E-03    -171.539E-03     77.1829E-03     58.9424E+06     41.5825E+06    -54.8067E+06    -54.8056E+06     41.5814E+06     58.9424E+06    -195.772E+03         54.4792
            1288     10.1164E-03     85.8812E-03         1.85702    -55.5108E-03    -586.596E-03    -366.936E-03         1.63736    -55.5108E-03    -619.133E-03     344.365E-03    -171.512E-03    -172.853E-03    -169.243E-03     340.755E-03    -171.512E-03     85.9985E-03     65.6289E+06     47.2027E+06    -45.3931E+06    -45.3892E+06     47.1987E+06     65.6289E+06    -156.235E+03         55.5316
            1289     10.9593E-03     85.9965E-03         1.91666    -74.3959E-03    -657.933E-03    -433.161E-03         1.69189    -74.3959E-03        -1.33350     345.547E-03    -171.552E-03    -173.995E-03    -169.832E-03     341.384E-03    -171.552E-03     92.6172E-03     74.6259E+06     51.0701E+06    -37.1751E+06    -37.1631E+06     51.0580E+06     74.6259E+06    -322.899E+03         57.0767
            1290     11.8017E-03     86.1125E-03         1.77936    -93.3223E-03    -536.506E-03    -500.571E-03         1.74343    -93.3223E-03    -466.373E-03     347.306E-03    -171.621E-03    -175.685E-03    -170.374E-03     341.995E-03    -171.621E-03     104.425E-03     83.9118E+06     54.6935E+06    -29.3949E+06    -29.3782E+06     54.6768E+06     83.9118E+06    -825.733E+03         59.3715
            1291     12.6453E-03     86.2577E-03         1.80978    -111.953E-03    -586.606E-03    -560.632E-03         1.78381    -111.953E-03    -414.422E-03     346.921E-03    -171.638E-03    -175.284E-03    -169.781E-03     341.418E-03    -171.638E-03     106.383E-03     87.6596E+06     60.0798E+06    -21.3801E+06    -21.3532E+06     60.0529E+06     87.6596E+06    -678.998E+03         62.5178
            1292     13.4887E-03     86.3818E-03         1.89183    -127.782E-03    -701.258E-03    -598.855E-03         1.78943    -127.782E-03     288.200E-03     351.492E-03    -171.595E-03    -179.896E-03    -170.461E-03     342.056E-03    -171.595E-03     135.820E-03     92.9421E+06     70.7188E+06    -14.0567E+06    -14.0346E+06     70.6967E+06     92.9421E+06    -331.679E+03         66.1977
            1293     14.3355E-03     86.6148E-03         1.91818    -140.870E-03    -767.796E-03    -628.924E-03         1.77930    -140.870E-03     77.6797E-03     351.441E-03    -171.596E-03    -179.846E-03    -171.326E-03     342.922E-03    -171.596E-03     125.131E-03     111.422E+06     86.3423E+06    -7.12550E+06    -7.12227E+06     86.3391E+06     111.422E+06    -130.388E+03         69.5693
            1294     843.437E-06     86.8347E-03         2.39296     217.256E-03        -1.70796     116.009E-03     568.983E-03     217.256E-03        -3.55825     342.894E-03    -170.924E-03    -171.971E-03    -171.592E-03     342.893E-03    -171.300E-03     1.39178E-03    -153.848E+06    -158.634E+06    -367.422E+06    -158.247E+06    -367.416E+06    -154.241E+06    -1.01321E+06         49.2934
            1295     1.68521E-03     86.8377E-03     785.008E-03     161.217E-03    -50.1812E-03     139.862E-03     594.965E-03     161.217E-03     96.2254E-03     343.459E-03    -171.526E-03    -171.933E-03    -171.828E-03     343.450E-03    -171.623E-03     4.10644E-03    -138.888E+06    -152.547E+06    -352.002E+06    -152.550E+06    -351.999E+06    -138.888E+06    -453.638E+03         49.4737
            1296     2.52741E-03     86.8383E-03         1.53578     141.472E-03    -779.470E-03     54.5987E-03     701.709E-03     141.472E-03        -1.87942     343.499E-03    -171.551E-03    -171.948E-03    -171.646E-03     343.466E-03    -171.820E-03     7.84315E-03    -117.508E+06    -144.915E+06    -325.008E+06    -144.917E+06    -325.006E+06    -117.508E+06     215.590E+03         49.7606
            1297     3.36920E-03     86.8447E-03         2.16850     117.058E-03        -1.39036     36.3331E-03     741.802E-03     117.058E-03    -289.231E-03     342.914E-03    -171.027E-03    -171.887E-03    -170.938E-03     342.825E-03    -171.887E-03     13.2221E-03    -92.1611E+06    -134.873E+06    -288.309E+06    -134.886E+06    -288.296E+06    -92.1611E+06     488.928E+03         50.1476
            1298     4.21277E-03     86.8571E-03         1.70297     99.6908E-03    -909.186E-03     23.8422E-03     769.939E-03     99.6908E-03     705.037E-03     342.295E-03    -170.450E-03    -171.845E-03    -170.253E-03     342.099E-03    -171.845E-03     19.7331E-03    -66.9577E+06    -124.067E+06    -246.966E+06    -124.095E+06    -246.938E+06    -66.9577E+06     312.299E+03         50.6224
            1299     5.05702E-03     86.8798E-03         1.39510     88.0079E-03    -596.121E-03     31.6803E-03     767.296E-03     88.0079E-03     53.1870E-03     342.373E-03    -170.574E-03    -171.799E-03    -170.182E-03     341.981E-03    -171.799E-03     27.9274E-03    -42.6239E+06    -112.332E+06    -201.040E+06    -112.350E+06    -201.022E+06    -42.6239E+06     144.852E+03         51.1664
            1300     5.89949E-03     86.9150E-03         1.45888     79.8830E-03    -658.947E-03     17.5901E-03     782.347E-03     79.8830E-03    -69.1842E-03     342.780E-03    -170.965E-03    -171.815E-03    -170.260E-03     342.075E-03    -171.815E-03     37.6981E-03    -19.1806E+06    -100.562E+06    -156.028E+06    -100.580E+06    -156.009E+06    -19.1806E+06     12.6811E+03         51.7572
            1301     6.74065E-03     86.9620E-03         1.27609     71.8391E-03    -477.327E-03    -10.3052E-03     809.072E-03     71.8391E-03        -1.49574     342.452E-03    -170.633E-03    -171.819E-03    -169.495E-03     341.313E-03    -171.819E-03     47.9867E-03     2.47491E+06    -87.6176E+06    -109.723E+06    -89.8144E+06    -107.527E+06     2.47491E+06    -289.217E+03         52.3743
            1302     7.58454E-03     87.0220E-03     996.330E-03     62.7345E-03    -199.730E-03    -48.4987E-03     845.099E-03     62.7345E-03    -234.407E-03     342.060E-03    -170.313E-03    -171.748E-03    -168.602E-03     340.349E-03    -171.748E-03     58.8404E-03     24.3594E+06    -49.9641E+06    -78.9111E+06    -78.8024E+06    -50.0728E+06     24.3594E+06    -912.291E+03         53.0103
            1303     8.42856E-03     87.0987E-03         1.06501     52.7318E-03    -274.216E-03    -85.5930E-03     876.385E-03     52.7318E-03    -362.433E-03     342.668E-03    -171.003E-03    -171.666E-03    -168.665E-03     340.319E-03    -171.654E-03     69.1614E-03     44.6828E+06     8.53967E+06    -67.3228E+06    -67.2989E+06     8.51569E+06     44.6828E+06    -1.07759E+06         53.6851
            1304     9.27212E-03     87.1880E-03         1.11942     42.1291E-03    -340.337E-03    -130.492E-03     909.571E-03     42.1291E-03    -262.157E-03     343.785E-03    -171.593E-03    -172.192E-03    -169.167E-03     340.778E-03    -171.611E-03     78.4142E-03     58.1999E+06     41.3668E+06    -55.7167E+06    -55.7094E+06     41.3594E+06     58.1999E+06    -366.239E+03         54.4678
            1305     10.1149E-03     87.2895E-03         1.26484     30.9310E-03    -503.722E-03    -177.797E-03     938.918E-03     30.9310E-03    -585.162E-03     344.375E-03    -171.600E-03    -172.775E-03    -169.114E-03     340.714E-03    -171.600E-03     86.6370E-03     64.9797E+06     47.4585E+06    -45.7177E+06    -45.7132E+06     47.4541E+06     64.9797E+06     35.1169E+03         55.5059
            1306     10.9595E-03     87.4039E-03         1.28492     19.3786E-03    -549.637E-03    -223.681E-03     958.961E-03     19.3786E-03        -1.31042     344.522E-03    -171.588E-03    -172.934E-03    -168.778E-03     340.366E-03    -171.588E-03     92.3439E-03     74.2420E+06     51.0968E+06    -36.7398E+06    -36.7357E+06     51.0927E+06     74.2420E+06     59.3739E+03         57.0368
            1307     11.8041E-03     87.5222E-03         1.02349     8.32775E-03    -321.323E-03    -260.242E-03     962.409E-03     8.32775E-03    -454.826E-03     346.137E-03    -171.577E-03    -174.560E-03    -169.216E-03     340.792E-03    -171.577E-03     104.512E-03     84.3664E+06     54.5195E+06    -28.1967E+06    -28.1951E+06     54.5178E+06     84.3664E+06     164.987E+03         59.3288
            1308     12.6459E-03     87.6683E-03         1.00820    -1.67537E-03    -343.462E-03    -288.988E-03     953.720E-03    -1.67537E-03    -424.615E-03     346.756E-03    -171.552E-03    -175.204E-03    -169.678E-03     341.230E-03    -171.552E-03     106.550E-03     88.2877E+06     60.4412E+06    -20.9773E+06    -20.9615E+06     60.4254E+06     88.2877E+06    -444.369E+03         62.4939
            1309     13.4910E-03     87.7869E-03         1.11466    -8.50262E-03    -497.843E-03    -304.373E-03     921.186E-03    -8.50262E-03     263.519E-03     352.504E-03    -171.544E-03    -180.960E-03    -171.525E-03     343.069E-03    -171.544E-03     136.089E-03     93.4522E+06     71.1412E+06    -14.0956E+06    -14.0787E+06     71.1243E+06     93.4522E+06    -629.207E+03         66.2140
            1310     14.3346E-03     88.0220E-03         1.13307    -12.3768E-03    -572.915E-03    -313.582E-03     873.739E-03    -12.3768E-03     73.3496E-03     351.975E-03    -171.593E-03    -180.382E-03    -171.905E-03     343.498E-03    -171.593E-03     124.745E-03     111.029E+06     85.8102E+06    -7.05778E+06    -7.05494E+06     85.8074E+06     111.029E+06    -214.608E+03         69.6300
            1311     841.761E-06     88.2432E-03         3.00578     377.893E-03        -2.86287    -34.3995E-03     177.310E-03     377.893E-03        -4.41052     343.585E-03    -171.142E-03    -172.443E-03    -171.691E-03     343.584E-03    -171.893E-03     1.12403E-03    -154.077E+06    -160.058E+06    -367.390E+06    -159.691E+06    -367.364E+06    -154.470E+06     762.259E+03         49.2785
            1312     1.68544E-03     88.2446E-03     730.155E-03     168.395E-03    -380.360E-03     154.610E-03     195.185E-03     168.395E-03     386.400E-03     342.716E-03    -170.978E-03    -171.738E-03    -170.970E-03     342.708E-03    -171.738E-03     3.65881E-03    -138.230E+06    -154.318E+06    -351.593E+06    -154.324E+06    -351.587E+06    -138.230E+06    -82.7111E+03         49.4583
            1313     2.52842E-03     88.2472E-03         1.19472     155.009E-03    -836.413E-03     95.4692E-03     262.839E-03     155.009E-03        -1.97864     342.693E-03    -171.064E-03    -171.629E-03    -171.034E-03     342.663E-03    -171.629E-03     7.52414E-03    -116.186E+06    -144.995E+06    -325.202E+06    -144.996E+06    -325.201E+06    -116.186E+06    -276.172E+03         49.7462
            1314     3.37154E-03     88.2528E-03         1.73969     137.812E-03        -1.36820     79.2277E-03     292.263E-03     137.812E-03    -191.948E-03     342.861E-03    -171.188E-03    -171.672E-03    -171.102E-03     342.775E-03    -171.672E-03     12.8520E-03    -91.1401E+06    -134.290E+06    -288.872E+06    -134.300E+06    -288.862E+06    -91.1401E+06     300.207E+03         50.1357
            1315     4.21362E-03     88.2652E-03         1.33711     125.779E-03    -956.827E-03     76.7265E-03     303.560E-03     125.779E-03     628.893E-03     343.069E-03    -171.258E-03    -171.811E-03    -171.108E-03     342.874E-03    -171.766E-03     19.7044E-03    -66.7182E+06    -123.443E+06    -246.717E+06    -123.466E+06    -246.695E+06    -66.7182E+06     477.739E+03         50.6132
            1316     5.05494E-03     88.2884E-03         1.04263     118.728E-03    -665.946E-03     88.1474E-03     288.532E-03     118.728E-03     40.5098E-03     342.740E-03    -170.858E-03    -171.882E-03    -170.519E-03     342.356E-03    -171.837E-03     27.7218E-03    -42.6827E+06    -112.153E+06    -200.688E+06    -112.168E+06    -200.672E+06    -42.6827E+06     265.053E+03         51.1596
            1317     5.89801E-03     88.3237E-03         1.11642     115.213E-03    -751.852E-03     92.0383E-03     272.528E-03     115.213E-03    -118.640E-03     341.988E-03    -170.166E-03    -171.822E-03    -169.450E-03     341.271E-03    -171.822E-03     37.8399E-03    -19.0089E+06    -100.684E+06    -155.840E+06    -100.694E+06    -155.830E+06    -19.0089E+06     559.249E+03         51.7532
            1318     6.74262E-03     88.3709E-03     934.840E-03     113.063E-03    -584.870E-03     87.0792E-03     262.891E-03     113.063E-03        -1.46786     342.109E-03    -170.359E-03    -171.751E-03    -169.186E-03     340.937E-03    -171.751E-03     48.7061E-03     3.11247E+06    -86.9943E+06    -109.123E+06    -89.3906E+06    -106.727E+06     3.11247E+06     653.954E+03         52.3738
            1319     7.58569E-03     88.4293E-03     599.390E-03     111.127E-03    -262.542E-03     73.1236E-03     263.725E-03     111.127E-03    -215.270E-03     342.823E-03    -171.023E-03    -171.800E-03    -169.372E-03     341.079E-03    -171.707E-03     59.5022E-03     25.2137E+06    -47.9475E+06    -78.3674E+06    -78.1802E+06    -48.1347E+06     25.2137E+06     223.467E+03         53.0112
            1320     8.42891E-03     88.5072E-03     641.703E-03     109.025E-03    -320.220E-03     56.0446E-03     265.439E-03     109.025E-03    -313.303E-03     343.167E-03    -171.396E-03    -171.771E-03    -169.135E-03     340.813E-03    -171.678E-03     69.3156E-03     44.5748E+06     9.69961E+06    -67.6666E+06    -67.6377E+06     9.67072E+06     44.5748E+06    -875.030E+03         53.6825
            1321     9.27216E-03     88.5963E-03     673.811E-03     106.563E-03    -375.765E-03     30.7853E-03     267.260E-03     106.563E-03    -227.506E-03     343.781E-03    -171.592E-03    -172.189E-03    -169.100E-03     340.751E-03    -171.651E-03     78.6696E-03     56.8776E+06     40.2131E+06    -57.0958E+06    -57.0673E+06     40.1846E+06     56.8776E+06    -1.26923E+06         54.4565
            1322     10.1148E-03     88.7004E-03     816.577E-03     103.685E-03    -552.165E-03     5.15155E-03     259.261E-03     103.685E-03    -549.772E-03     344.313E-03    -171.630E-03    -172.683E-03    -169.021E-03     340.651E-03    -171.630E-03     86.6681E-03     64.0454E+06     46.5116E+06    -46.6345E+06    -46.6151E+06     46.4922E+06     64.0454E+06    -665.296E+03         55.4814
            1323     10.9577E-03     88.8091E-03     812.428E-03     100.622E-03    -589.808E-03    -22.4253E-03     245.045E-03     100.622E-03        -1.27878     344.236E-03    -171.602E-03    -172.634E-03    -168.432E-03     340.034E-03    -171.602E-03     92.7503E-03     74.1276E+06     50.8399E+06    -36.9754E+06    -36.9729E+06     50.8374E+06     74.1276E+06    -213.516E+03         56.9991
            1324     11.8019E-03     88.9303E-03     457.514E-03     80.8899E-03    -266.966E-03    -41.0272E-03     214.252E-03     98.2125E-03    -425.436E-03     345.334E-03    -171.548E-03    -173.786E-03    -168.443E-03     339.991E-03    -171.548E-03     104.453E-03     84.0340E+06     54.1237E+06    -28.5229E+06    -28.5168E+06     54.1176E+06     84.0340E+06    -219.061E+03         59.2879
            1325     12.6499E-03     89.0728E-03     423.529E-03     80.0070E-03    -286.815E-03    -41.7700E-03     161.162E-03     97.3297E-03    -407.878E-03     346.543E-03    -171.499E-03    -175.044E-03    -169.630E-03     341.129E-03    -171.499E-03     105.444E-03     88.5040E+06     60.8785E+06    -20.5970E+06    -20.5903E+06     60.8718E+06     88.5040E+06    -10.1826E+03         62.4709
            1326     13.4916E-03     89.2007E-03     587.285E-03     100.027E-03    -531.179E-03    -30.6944E-03     86.8006E-03     100.027E-03     266.576E-03     353.040E-03    -171.527E-03    -181.513E-03    -172.351E-03     343.877E-03    -171.527E-03     134.443E-03     94.2527E+06     71.9894E+06    -13.5029E+06    -13.5001E+06     71.9867E+06     94.2527E+06    -53.6668E+03         66.2298
            1327     14.3330E-03     89.4290E-03     634.228E-03     105.485E-03    -653.080E-03    -26.0393E-03     7.18778E-03     105.485E-03     78.7147E-03     352.076E-03    -171.617E-03    -180.459E-03    -172.145E-03     343.762E-03    -171.617E-03     124.393E-03     111.075E+06     85.5964E+06    -7.29151E+06    -7.28911E+06     85.5940E+06     111.075E+06    -331.810E+03         69.6899
            1328     841.441E-06     89.6530E-03         3.29294     484.152E-03        -3.64628    -181.639E-03    -171.696E-03     484.152E-03        -4.76649     343.843E-03    -171.287E-03    -172.556E-03    -172.180E-03     343.842E-03    -171.662E-03     959.419E-06    -155.061E+06    -161.328E+06    -368.988E+06    -160.261E+06    -368.951E+06    -156.165E+06     739.663E+03         49.2666
            1329     1.68442E-03     89.6500E-03     787.349E-03     151.421E-03    -810.850E-03     151.408E-03    -174.909E-03     151.421E-03     600.040E-03     342.897E-03    -170.949E-03    -171.948E-03    -171.032E-03     342.890E-03    -171.858E-03     3.41053E-03    -137.140E+06    -153.751E+06    -350.355E+06    -153.755E+06    -350.351E+06    -137.140E+06     726.148E+03         49.4459
            1330     2.52820E-03     89.6549E-03     997.191E-03     148.807E-03        -1.02049     133.286E-03    -156.584E-03     148.807E-03        -1.97839     342.518E-03    -170.829E-03    -171.689E-03    -170.804E-03     342.494E-03    -171.689E-03     6.89332E-03    -115.509E+06    -145.426E+06    -325.096E+06    -145.428E+06    -325.094E+06    -115.509E+06     95.8155E+03         49.7336
            1331     3.37092E-03     89.6599E-03         1.42424     144.298E-03        -1.44766     128.875E-03    -152.296E-03     144.298E-03    -155.965E-03     342.888E-03    -171.208E-03    -171.681E-03    -171.133E-03     342.813E-03    -171.681E-03     11.9353E-03    -92.0766E+06    -134.961E+06    -289.758E+06    -134.965E+06    -289.754E+06    -92.0766E+06     142.702E+03         50.1237
            1332     4.21337E-03     89.6757E-03         1.06950     141.613E-03        -1.09830     133.001E-03    -161.801E-03     141.613E-03     565.766E-03     342.917E-03    -171.109E-03    -171.808E-03    -170.959E-03     342.723E-03    -171.764E-03     19.5192E-03    -66.8127E+06    -123.484E+06    -246.540E+06    -123.493E+06    -246.531E+06    -66.8127E+06     639.743E+03         50.6027
            1333     5.05557E-03     89.6983E-03     803.952E-03     141.665E-03    -842.113E-03     148.818E-03    -186.979E-03     141.665E-03     24.7160E-03     342.361E-03    -170.523E-03    -171.839E-03    -170.163E-03     341.957E-03    -171.794E-03     28.3817E-03    -42.6270E+06    -112.274E+06    -200.310E+06    -112.283E+06    -200.301E+06    -42.6270E+06     423.534E+03         51.1517
            1334     5.89929E-03     89.7294E-03     884.222E-03     144.447E-03    -938.213E-03     165.594E-03    -219.585E-03     144.447E-03    -147.601E-03     341.887E-03    -170.134E-03    -171.753E-03    -169.415E-03     341.169E-03    -171.753E-03     37.9977E-03    -19.3566E+06    -100.511E+06    -156.734E+06    -100.534E+06    -156.711E+06    -19.3566E+06     470.905E+03         51.7487
            1335     6.74348E-03     89.7773E-03     731.121E-03     148.653E-03    -808.268E-03     173.287E-03    -250.434E-03     148.653E-03        -1.44723     342.215E-03    -170.516E-03    -171.699E-03    -169.363E-03     341.062E-03    -171.699E-03     48.2776E-03     3.23239E+06    -86.1134E+06    -109.607E+06    -88.7870E+06    -106.933E+06     3.23239E+06     873.214E+03         52.3720
            1336     7.58594E-03     89.8407E-03     415.692E-03     153.200E-03    -520.375E-03     176.616E-03    -281.299E-03     153.200E-03    -231.510E-03     343.127E-03    -171.342E-03    -171.785E-03    -169.728E-03     341.420E-03    -171.692E-03     58.9420E-03     25.9707E+06    -46.9758E+06    -77.2731E+06    -77.0975E+06    -47.1514E+06     25.9707E+06     743.178E+03         53.0099
            1337     8.42750E-03     89.9157E-03     449.298E-03     158.092E-03    -584.516E-03     182.537E-03    -317.754E-03     158.092E-03    -313.041E-03     343.598E-03    -171.643E-03    -171.955E-03    -169.551E-03     341.257E-03    -171.706E-03     69.1358E-03     46.2301E+06     11.5644E+06    -65.6775E+06    -65.6629E+06     11.5498E+06     46.2301E+06     342.832E+03         53.6783
            1338     9.27078E-03     90.0051E-03     478.114E-03     163.515E-03    -649.692E-03     184.953E-03    -356.531E-03     163.515E-03    -237.714E-03     343.413E-03    -171.428E-03    -171.985E-03    -168.701E-03     340.383E-03    -171.682E-03     78.6316E-03     58.5869E+06     41.5726E+06    -55.9079E+06    -55.8822E+06     41.5468E+06     58.5869E+06    -545.020E+03         54.4453
            1339     10.1152E-03     90.1081E-03     611.761E-03     169.533E-03    -829.338E-03     187.612E-03    -405.189E-03     169.533E-03    -552.264E-03     343.623E-03    -171.398E-03    -172.226E-03    -168.301E-03     339.912E-03    -171.611E-03     87.0958E-03     64.4033E+06     45.4200E+06    -46.9045E+06    -46.8723E+06     45.3878E+06     64.4033E+06    -1.02552E+06         55.4605
            1340     10.9599E-03     90.2177E-03     617.366E-03     176.245E-03    -889.924E-03     189.053E-03    -461.611E-03     176.245E-03        -1.27221     344.497E-03    -171.561E-03    -172.936E-03    -168.727E-03     340.288E-03    -171.561E-03     92.8895E-03     73.7388E+06     50.1113E+06    -37.4440E+06    -37.4277E+06     50.0950E+06     73.7388E+06    -713.838E+03         56.9674
            1341     11.8050E-03     90.3356E-03     311.726E-03     166.740E-03    -630.148E-03     191.494E-03    -527.239E-03     184.063E-03    -424.907E-03     346.266E-03    -171.559E-03    -174.707E-03    -169.458E-03     341.017E-03    -171.559E-03     103.675E-03     84.2397E+06     55.0144E+06    -28.7689E+06    -28.7630E+06     55.0085E+06     84.2397E+06    -568.428E+03         59.2498
            1342     12.6454E-03     90.4819E-03     300.747E-03     175.844E-03    -686.493E-03     199.562E-03    -602.630E-03     193.167E-03    -413.564E-03     346.946E-03    -171.559E-03    -175.387E-03    -170.006E-03     341.565E-03    -171.559E-03     105.235E-03     88.0310E+06     60.2521E+06    -20.9884E+06    -20.9812E+06     60.2448E+06     88.0310E+06    -398.800E+03         62.4432
            1343     13.4893E-03     90.6104E-03     465.689E-03     205.229E-03    -948.090E-03     220.677E-03    -703.078E-03     205.229E-03     253.411E-03     352.192E-03    -171.566E-03    -180.626E-03    -171.456E-03     343.021E-03    -171.566E-03     134.248E-03     93.2559E+06     71.1239E+06    -13.6814E+06    -13.6788E+06     71.1213E+06     93.2559E+06    -19.3111E+03         66.2397
            1344     14.3346E-03     90.8374E-03     536.233E-03     220.004E-03        -1.10691     252.109E-03    -822.788E-03     220.004E-03     82.0404E-03     351.583E-03    -171.614E-03    -179.969E-03    -171.628E-03     343.242E-03    -171.614E-03     124.516E-03     111.171E+06     86.0531E+06    -6.70109E+06    -6.69619E+06     86.0482E+06     111.171E+06     251.832E+03         69.7493
            1345     843.777E-06     91.0611E-03         3.06183     604.933E-03        -3.91804    -262.305E-03    -593.907E-03     604.933E-03        -4.69431     342.970E-03    -171.055E-03    -171.915E-03    -171.601E-03     342.969E-03    -171.367E-03     1.39314E-03    -154.353E+06    -160.435E+06    -368.225E+06    -159.351E+06    -368.205E+06    -155.456E+06    -1.13380E+06         49.2569
            1346     1.68488E-03     91.0599E-03     677.461E-03     167.483E-03        -1.08507     152.143E-03    -559.751E-03     167.483E-03     663.888E-03     343.610E-03    -171.431E-03    -172.179E-03    -171.926E-03     343.603E-03    -171.677E-03     3.61794E-03    -138.848E+06    -153.058E+06    -351.842E+06    -153.068E+06    -351.831E+06    -138.848E+06     232.857E+03         49.4369
            1347     2.52722E-03     91.0603E-03     840.594E-03     162.516E-03        -1.24133     155.346E-03    -556.087E-03     162.516E-03        -1.89498     343.285E-03    -171.224E-03    -172.061E-03    -171.406E-03     343.258E-03    -171.852E-03     7.13805E-03    -115.497E+06    -144.742E+06    -325.062E+06    -144.748E+06    -325.057E+06    -115.497E+06     848.264E+03         49.7241
            1348     3.37001E-03     91.0702E-03         1.23804     161.886E-03        -1.64565     164.895E-03    -572.506E-03     161.886E-03    -113.190E-03     342.647E-03    -170.800E-03    -171.847E-03    -170.718E-03     342.566E-03    -171.847E-03     12.5074E-03    -91.5486E+06    -134.780E+06    -289.448E+06    -134.783E+06    -289.445E+06    -91.5486E+06     494.043E+03         50.1134
            1349     4.21243E-03     91.0830E-03     916.908E-03     165.590E-03        -1.34489     195.086E-03    -623.073E-03     165.590E-03     586.641E-03     342.000E-03    -170.235E-03    -171.765E-03    -170.039E-03     341.804E-03    -171.765E-03     19.6593E-03    -66.4240E+06    -123.245E+06    -246.532E+06    -123.247E+06    -246.530E+06    -66.4240E+06     255.243E+03         50.5931
            1350     5.05760E-03     91.1047E-03     672.493E-03     172.992E-03        -1.12752     218.299E-03    -673.326E-03     172.992E-03     53.2895E-03     342.091E-03    -170.395E-03    -171.697E-03    -170.004E-03     341.701E-03    -171.697E-03     27.9470E-03    -42.4141E+06    -111.652E+06    -200.804E+06    -111.672E+06    -200.785E+06    -42.4141E+06     450.551E+03         51.1447
            1351     5.90003E-03     91.1389E-03     749.263E-03     181.275E-03        -1.23168     229.489E-03    -711.909E-03     181.275E-03    -127.454E-03     342.693E-03    -170.976E-03    -171.717E-03    -170.297E-03     342.014E-03    -171.717E-03     37.0286E-03    -19.4757E+06    -100.371E+06    -157.571E+06    -100.411E+06    -157.531E+06    -19.4757E+06     821.492E+03         51.7441
            1352     6.74127E-03     91.1853E-03     624.569E-03     189.095E-03        -1.13407     234.568E-03    -744.073E-03     189.095E-03        -1.41692     342.690E-03    -170.936E-03    -171.754E-03    -169.792E-03     341.546E-03    -171.754E-03     48.0033E-03     3.45847E+06    -85.2608E+06    -110.358E+06    -88.7916E+06    -106.827E+06     3.45847E+06     761.574E+03         52.3680
            1353     7.58495E-03     91.2494E-03     392.267E-03     197.477E-03    -930.938E-03     259.024E-03    -797.694E-03     197.477E-03    -236.045E-03     342.654E-03    -170.917E-03    -171.737E-03    -169.181E-03     340.918E-03    -171.737E-03     59.3939E-03     26.1718E+06    -46.6480E+06    -77.5041E+06    -77.4322E+06    -46.7199E+06     26.1718E+06     415.542E+03         53.0052
            1354     8.42897E-03     91.3255E-03     440.242E-03     208.198E-03        -1.01649     297.513E-03    -873.759E-03     208.198E-03    -304.883E-03     343.128E-03    -171.279E-03    -171.849E-03    -169.042E-03     340.735E-03    -171.694E-03     69.8160E-03     46.6452E+06     11.3359E+06    -66.0513E+06    -66.0449E+06     11.3295E+06     46.6452E+06     590.496E+03         53.6716
            1355     9.27127E-03     91.4147E-03     490.903E-03     221.697E-03        -1.11710     338.501E-03    -964.703E-03     221.697E-03    -233.301E-03     343.278E-03    -171.318E-03    -171.960E-03    -168.612E-03     340.253E-03    -171.641E-03     78.6106E-03     59.6174E+06     43.2011E+06    -55.2076E+06    -55.1990E+06     43.1926E+06     59.6174E+06     867.282E+03         54.4344
            1356     10.1162E-03     91.5115E-03     613.979E-03     237.586E-03        -1.30201     373.950E-03        -1.06198     237.586E-03    -528.492E-03     343.799E-03    -171.369E-03    -172.431E-03    -168.534E-03     340.115E-03    -171.582E-03     86.7665E-03     66.0060E+06     47.0337E+06    -45.6313E+06    -45.6123E+06     47.0148E+06     66.0060E+06    -54.1623E+03         55.4414
            1357     10.9601E-03     91.6283E-03     638.243E-03     254.748E-03        -1.39759     391.704E-03        -1.15105     254.748E-03        -1.22868     345.037E-03    -171.569E-03    -173.468E-03    -169.354E-03     340.923E-03    -171.569E-03     91.9907E-03     74.5810E+06     49.8075E+06    -36.9883E+06    -36.9683E+06     49.7875E+06     74.5810E+06    -768.524E+03         56.9367
            1358     11.8006E-03     91.7434E-03     451.787E-03     272.586E-03        -1.28803     406.194E-03        -1.24244     272.586E-03    -391.785E-03     346.823E-03    -171.606E-03    -175.217E-03    -169.987E-03     341.594E-03    -171.606E-03     103.422E-03     84.3727E+06     55.1904E+06    -28.6078E+06    -28.6021E+06     55.1847E+06     84.3727E+06    -227.338E+03         59.2104
            1359     12.6460E-03     91.8927E-03     468.633E-03     291.151E-03        -1.38615     428.046E-03        -1.34557     291.151E-03    -399.080E-03     346.722E-03    -171.604E-03    -175.119E-03    -169.584E-03     341.188E-03    -171.604E-03     106.659E-03     87.5705E+06     60.0797E+06    -21.5424E+06    -21.5385E+06     60.0758E+06     87.5705E+06     21.9842E+03         62.4142
            1360     13.4902E-03     92.0155E-03     599.146E-03     312.593E-03        -1.60937     470.127E-03        -1.48035     312.593E-03     231.670E-03     351.843E-03    -171.574E-03    -180.269E-03    -170.960E-03     342.535E-03    -171.574E-03     135.286E-03     92.1427E+06     69.8935E+06    -14.9598E+06    -14.9522E+06     69.8859E+06     92.1427E+06    -480.872E+03         66.2504
            1361     14.3345E-03     92.2459E-03     680.434E-03     337.083E-03        -1.79008     526.498E-03        -1.63614     337.083E-03     65.8791E-03     351.667E-03    -171.606E-03    -180.061E-03    -171.682E-03     343.288E-03    -171.606E-03     124.481E-03     110.507E+06     85.8746E+06    -7.34960E+06    -7.33880E+06     85.8638E+06     110.507E+06    -134.581E+03         69.8103
            1362     842.816E-06     92.4683E-03         2.50471     743.120E-03        -3.84634    -316.357E-03        -1.02528     743.120E-03        -4.33518     342.895E-03    -170.724E-03    -172.171E-03    -171.669E-03     342.894E-03    -171.225E-03     1.37538E-03    -152.313E+06    -161.765E+06    -367.795E+06    -160.040E+06    -367.764E+06    -154.069E+06     1.12799E+06         49.2488
            1363     1.68601E-03     92.4686E-03     512.354E-03     212.014E-03        -1.32018     205.156E-03        -1.01298     212.014E-03     595.696E-03     343.355E-03    -171.326E-03    -172.028E-03    -171.730E-03     343.347E-03    -171.616E-03     3.51786E-03    -137.646E+06    -153.916E+06    -352.078E+06    -153.938E+06    -352.057E+06    -137.646E+06      50.248E+03         49.4290
            1364     2.52681E-03     92.4713E-03     754.677E-03     212.042E-03        -1.57148     221.543E-03        -1.03834     212.042E-03        -1.78206     343.418E-03    -171.417E-03    -172.000E-03    -171.591E-03     343.384E-03    -171.792E-03     7.96608E-03    -115.825E+06    -144.192E+06    -325.869E+06    -144.201E+06    -325.859E+06    -115.825E+06     220.568E+03         49.7168
            1365     3.36945E-03     92.4763E-03         1.14223     214.919E-03        -1.96788     222.200E-03        -1.04785     214.919E-03    -93.9774E-03     342.671E-03    -170.836E-03    -171.835E-03    -170.752E-03     342.587E-03    -171.835E-03     12.8688E-03    -91.0731E+06    -133.913E+06    -289.382E+06    -133.915E+06    -289.380E+06    -91.0731E+06     348.538E+03         50.1067
            1366     4.21476E-03     92.4898E-03     849.438E-03     219.645E-03        -1.69251     250.499E-03        -1.09357     219.645E-03     615.564E-03     342.223E-03    -170.444E-03    -171.779E-03    -170.262E-03     342.041E-03    -171.779E-03     18.9425E-03    -66.4179E+06    -123.052E+06    -246.887E+06    -123.059E+06    -246.879E+06    -66.4179E+06     547.402E+03         50.5870
            1367     5.05614E-03     92.5127E-03     624.101E-03     227.456E-03        -1.49883     270.120E-03        -1.14485     227.456E-03     73.2215E-03     342.302E-03    -170.557E-03    -171.745E-03    -170.177E-03     341.921E-03    -171.745E-03     27.4789E-03    -42.1463E+06    -111.821E+06    -201.156E+06    -111.847E+06    -201.131E+06    -42.1463E+06     894.982E+03         51.1389
            1368     5.89859E-03     92.5489E-03     689.953E-03     236.658E-03        -1.59729     291.940E-03        -1.19928     236.658E-03    -73.1505E-03     342.563E-03    -170.804E-03    -171.759E-03    -170.098E-03     341.856E-03    -171.759E-03     37.6662E-03    -18.7172E+06    -100.026E+06    -157.391E+06    -100.054E+06    -157.363E+06    -18.7172E+06     709.788E+03         51.7383
            1369     6.74201E-03     92.5945E-03     587.614E-03     247.332E-03        -1.52786     316.594E-03        -1.25684     247.332E-03        -1.34063     342.768E-03    -170.992E-03    -171.776E-03    -169.822E-03     341.598E-03    -171.776E-03     48.6257E-03     3.79084E+06    -85.2052E+06    -109.864E+06    -88.2189E+06    -106.850E+06     3.79084E+06     574.587E+03         52.3620
            1370     7.58504E-03     92.6567E-03     438.902E-03     260.410E-03        -1.41617     357.907E-03        -1.33518     260.410E-03    -174.326E-03     342.478E-03    -170.730E-03    -171.748E-03    -168.979E-03     340.727E-03    -171.748E-03     59.5964E-03     26.4154E+06    -47.3359E+06    -76.8996E+06    -76.7904E+06    -47.4451E+06     26.4154E+06     993.468E+03         52.9982
            1371     8.42840E-03     92.7338E-03     503.342E-03     277.301E-03        -1.52591     418.207E-03        -1.44078     277.301E-03    -236.107E-03     342.343E-03    -170.686E-03    -171.657E-03    -168.311E-03     339.967E-03    -171.657E-03     69.5047E-03     46.6585E+06     10.8817E+06    -66.0035E+06    -65.9576E+06     10.8357E+06     46.6585E+06     1.28519E+06         53.6631
            1372     9.27365E-03     92.8222E-03     570.578E-03     298.161E-03        -1.65308     479.748E-03        -1.56225     298.161E-03    -170.508E-03     343.457E-03    -171.220E-03    -172.237E-03    -168.892E-03     340.475E-03    -171.583E-03     78.0889E-03     59.4818E+06     43.6181E+06    -55.2867E+06    -55.2760E+06     43.6074E+06     59.4818E+06     927.689E+03         54.4222
            1373     10.1153E-03     92.9214E-03     686.712E-03     321.895E-03        -1.84367     532.192E-03        -1.68915     321.895E-03    -465.720E-03     344.734E-03    -171.582E-03    -173.152E-03    -169.519E-03     341.100E-03    -171.582E-03     86.3505E-03     66.2521E+06     48.6439E+06    -45.2556E+06    -45.2494E+06     48.6377E+06     66.2521E+06     720.895E+03         55.4201
            1374     10.9578E-03     93.0359E-03     721.110E-03     346.945E-03        -1.96062     566.637E-03        -1.80614     346.945E-03        -1.15698     344.935E-03    -171.602E-03    -173.334E-03    -169.128E-03     340.729E-03    -171.602E-03     92.9594E-03     74.8991E+06     50.3334E+06    -36.7014E+06    -36.6945E+06     50.3265E+06     74.8991E+06     260.247E+03         56.9021
            1375     11.8033E-03     93.1546E-03     617.509E-03     372.472E-03        -1.94628     591.220E-03        -1.91999     372.472E-03    -342.035E-03     346.364E-03    -171.603E-03    -174.762E-03    -169.375E-03     340.978E-03    -171.603E-03     105.000E-03     84.2089E+06     53.9303E+06    -28.6781E+06    -28.6725E+06     53.9246E+06     84.2089E+06     162.611E+03         59.1692
            1376     12.6460E-03     93.2976E-03     662.445E-03     398.693E-03        -2.08614     634.250E-03        -2.05795     398.693E-03    -383.396E-03     346.714E-03    -171.579E-03    -175.135E-03    -169.624E-03     341.203E-03    -171.579E-03     106.386E-03     88.5347E+06     61.1055E+06    -20.6101E+06    -20.6064E+06     61.1018E+06     88.5347E+06     505.596E+03         62.3863
            1377     13.4910E-03     93.4245E-03     793.135E-03     428.578E-03        -2.32123     706.180E-03        -2.23427     428.578E-03     209.332E-03     352.222E-03    -171.567E-03    -180.655E-03    -171.374E-03     342.940E-03    -171.567E-03     135.040E-03     93.4257E+06     71.0084E+06    -13.7320E+06    -13.7180E+06     70.9944E+06     93.4257E+06     218.808E+03         66.2619
            1378     14.3336E-03     93.6548E-03     891.266E-03     462.216E-03        -2.53507     786.033E-03        -2.42983     462.216E-03     47.9313E-03     351.694E-03    -171.609E-03    -180.085E-03    -171.695E-03     343.304E-03    -171.609E-03     124.543E-03     110.221E+06     85.0082E+06    -7.36868E+06    -7.35189E+06     84.9914E+06     110.221E+06    -368.827E+03         69.8713
            1379     841.655E-06     93.8753E-03         1.90357     918.528E-03        -3.75681    -296.664E-03        -1.55658     918.528E-03        -3.83459     343.532E-03    -171.237E-03    -172.295E-03    -172.031E-03     343.530E-03    -171.499E-03     1.18403E-03    -153.849E+06    -160.644E+06    -368.959E+06    -158.937E+06    -368.910E+06    -155.605E+06     253.929E+03         49.2432
            1380     1.68442E-03     93.8764E-03     424.554E-03     299.214E-03        -1.66272     285.246E-03        -1.53036     306.163E-03     532.723E-03     342.927E-03    -171.170E-03    -171.756E-03    -171.162E-03     342.919E-03    -171.756E-03     3.66372E-03    -137.089E+06    -152.730E+06    -351.680E+06    -152.748E+06    -351.662E+06    -137.089E+06     409.886E+03         49.4227
            1381     2.52914E-03     93.8789E-03     739.822E-03     293.060E-03        -1.98380     292.959E-03        -1.54389     300.009E-03        -1.65629     342.831E-03    -171.139E-03    -171.693E-03    -171.109E-03     342.802E-03    -171.693E-03     7.31645E-03    -115.589E+06    -144.605E+06    -326.109E+06    -144.616E+06    -326.098E+06    -115.589E+06     303.393E+03         49.7108
            1382     3.37138E-03     93.8856E-03         1.10209     299.253E-03        -2.36068     298.464E-03        -1.55705     299.253E-03    -114.071E-03     343.029E-03    -171.290E-03    -171.740E-03    -171.210E-03     342.949E-03    -171.740E-03     12.4228E-03    -91.4191E+06    -134.527E+06    -289.897E+06    -134.529E+06    -289.895E+06    -91.4191E+06     534.924E+03         50.1018
            1383     4.21135E-03     93.8974E-03     838.445E-03     302.914E-03        -2.11222     330.747E-03        -1.60453     302.914E-03     629.246E-03     342.954E-03    -171.136E-03    -171.818E-03    -170.940E-03     342.758E-03    -171.818E-03     19.5205E-03    -66.6529E+06    -123.702E+06    -247.513E+06    -123.710E+06    -247.506E+06    -66.6529E+06     667.666E+03         50.5825
            1384     5.05542E-03     93.9220E-03     656.039E-03     311.361E-03        -1.95644     359.061E-03        -1.65947     311.361E-03     103.935E-03     342.441E-03    -170.597E-03    -171.843E-03    -170.209E-03     342.052E-03    -171.843E-03     27.8693E-03    -41.8897E+06    -111.585E+06    -201.222E+06    -111.595E+06    -201.211E+06    -41.8897E+06     526.906E+03         51.1335
            1385     5.89987E-03     93.9547E-03     708.874E-03     323.073E-03        -2.04488     394.445E-03        -1.73045     323.073E-03     11.3126E-03     342.174E-03    -170.359E-03    -171.815E-03    -169.655E-03     341.470E-03    -171.815E-03     37.5391E-03    -18.6841E+06    -99.8375E+06    -157.648E+06    -99.8520E+06    -157.633E+06    -18.6841E+06     582.189E+03         51.7318
            1386     6.74254E-03     94.0054E-03     611.741E-03     337.550E-03        -1.98837     427.959E-03        -1.80459     337.550E-03        -1.23657     342.300E-03    -170.531E-03    -171.769E-03    -169.389E-03     341.158E-03    -171.769E-03     48.0878E-03     3.39017E+06    -85.7365E+06    -110.298E+06    -88.6607E+06    -107.373E+06     3.39017E+06     1.07350E+06         52.3548
            1387     7.58482E-03     94.0645E-03     521.531E-03     354.848E-03        -1.94312     476.571E-03        -1.89816     354.848E-03    -116.791E-03     342.429E-03    -170.713E-03    -171.717E-03    -168.978E-03     340.695E-03    -171.717E-03     59.2352E-03     25.7741E+06    -48.5600E+06    -77.7008E+06    -77.4025E+06    -48.8584E+06     25.7741E+06     1.51220E+06         52.9906
            1388     8.42927E-03     94.1409E-03     601.169E-03     376.266E-03        -2.07559     547.047E-03        -2.02147     376.266E-03    -209.772E-03     342.676E-03    -170.955E-03    -171.721E-03    -168.679E-03     340.326E-03    -171.647E-03     69.2252E-03     46.5046E+06     10.7393E+06    -65.9238E+06    -65.8681E+06     10.6836E+06     46.5046E+06     1.76156E+06         53.6536
            1389     9.27235E-03     94.2293E-03     672.723E-03     401.828E-03        -2.21348     614.387E-03        -2.15514     401.828E-03    -148.142E-03     343.424E-03    -171.270E-03    -172.154E-03    -168.832E-03     340.422E-03    -171.590E-03     78.2565E-03     59.7390E+06     44.1568E+06    -55.1047E+06    -55.0797E+06     44.1318E+06     59.7390E+06     1.43519E+06         54.4071
            1390     10.1153E-03     94.3345E-03     776.152E-03     429.968E-03        -2.39583     668.436E-03        -2.28812     429.968E-03    -436.058E-03     344.303E-03    -171.496E-03    -172.807E-03    -169.041E-03     340.604E-03    -171.563E-03     87.0743E-03     66.1561E+06     48.7092E+06    -45.4415E+06    -45.4282E+06     48.6959E+06     66.1561E+06     943.068E+03         55.3953
            1391     10.9592E-03     94.4409E-03     823.426E-03     459.336E-03        -2.53194     714.606E-03        -2.42312     459.336E-03        -1.10517     344.911E-03    -171.564E-03    -173.348E-03    -169.103E-03     340.667E-03    -171.564E-03     93.3748E-03     75.4562E+06     51.5654E+06    -36.3334E+06    -36.3250E+06     51.5570E+06     75.4562E+06     785.344E+03         56.8656
            1392     11.8035E-03     94.5621E-03     788.164E-03     490.234E-03        -2.59645     768.731E-03        -2.57702     490.234E-03    -307.599E-03     346.410E-03    -171.574E-03    -174.836E-03    -169.520E-03     341.094E-03    -171.574E-03     104.430E-03     84.9951E+06     54.3948E+06    -28.0869E+06    -28.0726E+06     54.3805E+06     84.9951E+06     110.423E+03         59.1263
            1393     12.6471E-03     94.7084E-03     862.990E-03     523.241E-03        -2.77551     839.777E-03        -2.75230     523.241E-03    -369.315E-03     346.779E-03    -171.566E-03    -175.214E-03    -169.815E-03     341.381E-03    -171.566E-03     105.373E-03     88.4718E+06     59.8645E+06    -20.2645E+06    -20.2518E+06     59.8518E+06     88.4718E+06     63.8457E+03         62.3561
            1394     13.4892E-03     94.8312E-03     999.942E-03     561.008E-03        -3.02980     931.262E-03        -2.96112     561.008E-03     200.239E-03     352.193E-03    -171.557E-03    -180.636E-03    -171.251E-03     342.808E-03    -171.557E-03     135.582E-03     93.8555E+06     71.0743E+06    -12.8392E+06    -12.8211E+06     71.0562E+06     93.8555E+06     1.16538E+06         66.2724
            1395     14.3345E-03     95.0642E-03         1.11543     603.212E-03        -3.27706         1.03368        -3.19531     603.212E-03     49.1579E-03     351.579E-03    -171.586E-03    -179.992E-03    -171.478E-03     343.065E-03    -171.586E-03     125.317E-03     111.054E+06     85.9715E+06    -6.47002E+06    -6.45174E+06     85.9532E+06     111.054E+06     604.171E+03         69.9351
            1396     842.901E-06     95.2846E-03         1.46362         1.12792        -3.85292    -220.385E-03        -2.16891         1.12792        -3.43891     343.697E-03    -171.706E-03    -171.991E-03    -171.915E-03     343.695E-03    -171.781E-03     1.12493E-03    -154.381E+06    -158.375E+06    -368.491E+06    -158.401E+06    -368.466E+06    -154.381E+06    -1.16373E+06         49.2393
            1397     1.68530E-03     95.2839E-03     465.606E-03     436.255E-03        -2.15714     409.813E-03        -2.11022     445.135E-03     494.862E-03     343.448E-03    -171.534E-03    -171.913E-03    -171.551E-03     343.442E-03    -171.891E-03     3.19560E-03    -138.647E+06    -152.614E+06    -353.446E+06    -152.621E+06    -353.439E+06    -138.647E+06     52.1292E+03         49.4183
            1398     2.52671E-03     95.2861E-03     774.311E-03     421.515E-03        -2.45181     392.948E-03        -2.07933     430.395E-03        -1.49391     342.900E-03    -171.046E-03    -171.854E-03    -171.023E-03     342.877E-03    -171.854E-03     6.48078E-03    -115.293E+06    -144.602E+06    -326.269E+06    -144.611E+06    -326.260E+06    -115.293E+06     824.638E+03         49.7057
            1399     3.37016E-03     95.2938E-03         1.09657     421.502E-03        -2.78588     393.725E-03        -2.08303     421.502E-03    -75.1134E-03     342.689E-03    -170.885E-03    -171.804E-03    -170.807E-03     342.611E-03    -171.804E-03     12.1509E-03    -90.5377E+06    -134.408E+06    -289.602E+06    -134.411E+06    -289.599E+06    -90.5377E+06     525.716E+03         50.0962
            1400     4.21455E-03     95.3074E-03     876.363E-03     421.316E-03        -2.58456     439.173E-03        -2.14737     421.316E-03     679.980E-03     342.832E-03    -171.023E-03    -171.809E-03    -170.824E-03     342.632E-03    -171.809E-03     19.7533E-03    -66.7640E+06    -123.382E+06    -248.031E+06    -123.385E+06    -248.029E+06    -66.7640E+06     262.832E+03         50.5769
            1401     5.05580E-03     95.3295E-03     725.424E-03     430.125E-03        -2.46682     486.193E-03        -2.22759     430.125E-03     126.487E-03     342.803E-03    -170.953E-03    -171.850E-03    -170.555E-03     342.405E-03    -171.850E-03     28.1944E-03    -42.6351E+06    -112.056E+06    -202.515E+06    -112.075E+06    -202.496E+06    -42.6351E+06     931.481E+03         51.1279
            1402     5.89723E-03     95.3639E-03     784.033E-03     444.486E-03        -2.56338     532.091E-03        -2.31144     444.486E-03     41.5449E-03     342.339E-03    -170.483E-03    -171.857E-03    -169.772E-03     341.629E-03    -171.857E-03     37.7424E-03    -19.1057E+06    -100.684E+06    -157.992E+06    -100.725E+06    -157.951E+06    -19.1057E+06     1.35778E+06         51.7258
            1403     6.74123E-03     95.4118E-03     704.077E-03     462.152E-03        -2.52676     568.377E-03        -2.39106     462.152E-03        -1.17776     341.909E-03    -170.119E-03    -171.791E-03    -168.970E-03     340.761E-03    -171.791E-03     48.1616E-03     3.15897E+06    -86.8571E+06    -110.701E+06    -89.3185E+06    -108.240E+06     3.15897E+06     1.43287E+06         52.3485
            1404     7.58654E-03     95.4727E-03     643.544E-03     482.580E-03        -2.51460     617.175E-03        -2.48823     482.580E-03    -84.8115E-03     342.388E-03    -170.678E-03    -171.709E-03    -168.967E-03     340.676E-03    -171.709E-03     58.8958E-03     25.5888E+06    -49.2561E+06    -78.0955E+06    -77.7482E+06    -49.6034E+06     25.5888E+06     1.84618E+06         52.9837
            1405     8.42856E-03     95.5498E-03     716.794E-03     506.754E-03        -2.64405     682.561E-03        -2.60981     506.754E-03    -171.562E-03     343.031E-03    -171.302E-03    -171.729E-03    -169.025E-03     340.681E-03    -171.656E-03     69.2034E-03     46.0946E+06     10.3460E+06    -66.7267E+06    -66.6478E+06     10.2671E+06     46.0946E+06     2.06434E+06         53.6438
            1406     9.27136E-03     95.6387E-03     785.362E-03     534.570E-03        -2.78015     746.663E-03        -2.74145     534.570E-03    -98.6578E-03     343.101E-03    -171.409E-03    -171.692E-03    -168.478E-03     340.079E-03    -171.601E-03     78.4963E-03     59.9933E+06     44.5389E+06    -55.6771E+06    -55.6434E+06     44.5053E+06     59.9933E+06     1.79161E+06         54.3912
            1407     10.1172E-03     95.7388E-03     887.876E-03     565.284E-03        -2.96475     812.153E-03        -2.88903     565.284E-03    -383.480E-03     343.718E-03    -171.472E-03    -172.246E-03    -168.506E-03     340.045E-03    -171.540E-03     86.6726E-03     67.1494E+06     49.1447E+06    -45.5697E+06    -45.5516E+06     49.1266E+06     67.1494E+06     1.22496E+06         55.3699
            1408     10.9609E-03     95.8525E-03     952.153E-03     598.347E-03        -3.12544     875.706E-03        -3.04899     598.347E-03        -1.02664     345.139E-03    -171.532E-03    -173.607E-03    -169.429E-03     340.961E-03    -171.532E-03     92.7047E-03     76.1036E+06     52.0999E+06    -36.7467E+06    -36.7368E+06     52.0901E+06     76.1036E+06     790.926E+03         56.8283
            1409     11.8017E-03     95.9707E-03     963.846E-03     634.145E-03        -3.24309     948.913E-03        -3.22816     634.145E-03    -246.180E-03     346.653E-03    -171.566E-03    -175.087E-03    -169.770E-03     341.336E-03    -171.566E-03     104.395E-03     85.4175E+06     55.4132E+06    -28.5403E+06    -28.5171E+06     55.3900E+06     85.4175E+06     375.482E+03         59.0819
            1410     12.6458E-03     96.1150E-03         1.06222     673.115E-03        -3.45426         1.04313        -3.43517     673.115E-03    -322.086E-03     346.388E-03    -171.551E-03    -174.837E-03    -169.357E-03     340.908E-03    -171.551E-03     106.066E-03     88.0849E+06     58.8709E+06    -21.3448E+06    -21.3239E+06     58.8501E+06     88.0849E+06     272.448E+03         62.3256
            1411     13.4916E-03     96.2408E-03         1.20990     717.915E-03        -3.72836         1.15340        -3.67187     717.915E-03     212.856E-03     351.971E-03    -171.521E-03    -180.450E-03    -171.075E-03     342.596E-03    -171.521E-03     135.622E-03     92.8843E+06     69.7546E+06    -14.4337E+06    -14.4234E+06     69.7443E+06     92.8843E+06     709.568E+03         66.2863
            1412     14.3359E-03     96.4689E-03         1.33130     767.446E-03        -3.98943         1.26324        -3.92137     767.446E-03     57.0911E-03     351.981E-03    -171.564E-03    -180.416E-03    -171.958E-03     343.522E-03    -171.564E-03     124.945E-03     111.194E+06     86.7781E+06    -7.10099E+06    -7.09199E+06     86.7691E+06     111.194E+06     716.389E+03         70.0040
            1413     841.983E-06     96.6929E-03         1.42093         1.17441        -4.13691    -155.550E-03        -2.75887         1.37285        -3.15224     343.729E-03    -171.084E-03    -172.646E-03    -172.567E-03     343.727E-03    -171.161E-03     1.48348E-03    -153.088E+06    -159.801E+06    -368.753E+06    -158.785E+06    -368.746E+06    -154.111E+06     970.265E+03         49.2323
            1414     1.68392E-03     96.6935E-03     617.937E-03     601.976E-03        -2.75554     589.255E-03        -2.73065     605.765E-03     531.685E-03     343.584E-03    -171.628E-03    -171.955E-03    -171.643E-03     343.576E-03    -171.933E-03     3.65036E-03    -137.052E+06    -153.508E+06    -353.515E+06    -153.513E+06    -353.510E+06    -137.052E+06     232.193E+03         49.4121
            1415     2.52709E-03     96.6947E-03     875.843E-03     593.027E-03        -3.01250     565.752E-03        -2.70620     596.816E-03        -1.35870     343.318E-03    -171.365E-03    -171.953E-03    -171.345E-03     343.288E-03    -171.943E-03     7.45030E-03    -115.217E+06    -143.667E+06    -327.780E+06    -143.670E+06    -327.778E+06    -115.217E+06     153.639E+03         49.7000
            1416     3.37004E-03     96.7004E-03         1.14063     588.075E-03        -3.28372     551.404E-03        -2.69450     588.075E-03    -39.8113E-03     342.968E-03    -171.029E-03    -171.939E-03    -170.961E-03     342.890E-03    -171.929E-03     12.3892E-03    -91.3616E+06    -134.065E+06    -290.442E+06    -134.079E+06    -290.428E+06    -91.3616E+06     934.222E+03         50.0902
            1417     4.21212E-03     96.7157E-03     950.983E-03     584.989E-03        -3.10872     580.286E-03        -2.73802     584.989E-03     709.082E-03     342.534E-03    -170.636E-03    -171.898E-03    -170.456E-03     342.355E-03    -171.898E-03     18.8216E-03    -66.3298E+06    -123.524E+06    -248.373E+06    -123.541E+06    -248.355E+06    -66.3298E+06     1.16344E+06         50.5702
            1418     5.05594E-03     96.7388E-03     831.539E-03     591.040E-03        -3.02079     631.446E-03        -2.82070     591.040E-03     165.926E-03     342.284E-03    -170.432E-03    -171.852E-03    -170.037E-03     341.889E-03    -171.852E-03     27.9074E-03    -42.1873E+06    -112.059E+06    -203.883E+06    -112.083E+06    -203.858E+06    -42.1873E+06     1.34721E+06         51.1216
            1419     5.89946E-03     96.7732E-03     892.953E-03     604.970E-03        -3.11984     688.668E-03        -2.91555     604.970E-03     116.746E-03     342.267E-03    -170.455E-03    -171.813E-03    -169.734E-03     341.547E-03    -171.813E-03     38.0905E-03    -18.7810E+06    -100.237E+06    -158.253E+06    -100.290E+06    -158.200E+06    -18.7810E+06     1.64167E+06         51.7207
            1420     6.74266E-03     96.8179E-03     836.279E-03     624.407E-03        -3.10723     739.091E-03        -3.01005     624.407E-03        -1.06757     342.434E-03    -170.653E-03    -171.781E-03    -169.490E-03     341.271E-03    -171.781E-03     48.4732E-03     3.59086E+06    -87.1078E+06    -110.950E+06    -88.9686E+06    -109.090E+06     3.59086E+06     1.83855E+06         52.3444
            1421     7.58441E-03     96.8821E-03     807.516E-03     647.728E-03        -3.12986     790.282E-03        -3.11262     647.728E-03     4.76848E-03     342.510E-03    -170.775E-03    -171.735E-03    -169.054E-03     340.789E-03    -171.735E-03     59.1155E-03     25.2930E+06    -50.3401E+06    -78.8154E+06    -78.0114E+06    -51.1441E+06     25.2930E+06     2.34187E+06         52.9789
            1422     8.42853E-03     96.9577E-03     866.373E-03     674.358E-03        -3.24623     845.204E-03        -3.22506     674.358E-03    -65.3256E-03     342.532E-03    -170.875E-03    -171.657E-03    -168.513E-03     340.170E-03    -171.657E-03     69.2926E-03     45.9127E+06     10.1087E+06    -66.8521E+06    -66.7510E+06     10.0076E+06     45.9127E+06     2.49516E+06         53.6363
            1423     9.27335E-03     97.0465E-03     930.330E-03     704.009E-03        -3.38114     904.919E-03        -3.35573     704.009E-03     8.41862E-03     343.084E-03    -171.278E-03    -171.807E-03    -168.503E-03     340.081E-03    -171.578E-03     78.3039E-03     59.8940E+06     44.9093E+06    -55.7998E+06    -55.7519E+06     44.8614E+06     59.8940E+06     2.10986E+06         54.3780
            1424     10.1153E-03     97.1463E-03         1.02970     736.956E-03        -3.56743     977.145E-03        -3.51488     736.956E-03    -276.014E-03     344.197E-03    -171.537E-03    -172.660E-03    -168.963E-03     340.500E-03    -171.537E-03     86.9854E-03     66.8754E+06     49.8096E+06    -46.2465E+06    -46.2046E+06     49.7678E+06     66.8754E+06     1.87653E+06         55.3465
            1425     10.9584E-03     97.2612E-03         1.10302     773.171E-03        -3.73927         1.05342        -3.68967     773.171E-03    -908.356E-03     344.844E-03    -171.535E-03    -173.309E-03    -169.092E-03     340.628E-03    -171.535E-03     93.0809E-03     75.6327E+06     52.3017E+06    -38.0555E+06    -38.0187E+06     52.2649E+06     75.6327E+06     1.53843E+06         56.7918
            1426     11.8045E-03     97.3792E-03         1.14941     812.876E-03        -3.89456         1.13798        -3.88313     812.876E-03    -161.858E-03     346.050E-03    -171.538E-03    -174.512E-03    -169.212E-03     340.750E-03    -171.538E-03     104.086E-03     85.2145E+06     55.3595E+06    -29.9598E+06    -29.9310E+06     55.3307E+06     85.2145E+06     1.26550E+06         59.0391
            1427     12.6478E-03     97.5235E-03         1.25300     856.014E-03        -4.11540         1.23627        -4.09867     856.014E-03    -263.341E-03     346.590E-03    -171.518E-03    -175.072E-03    -169.622E-03     341.140E-03    -171.518E-03     105.786E-03     88.9017E+06     60.0040E+06    -22.0986E+06    -22.0870E+06     59.9924E+06     88.9017E+06     713.310E+03         62.2973
            1428     13.4914E-03     97.6461E-03         1.39795     905.155E-03        -4.38830         1.34887        -4.33922     905.155E-03     234.004E-03     352.505E-03    -171.524E-03    -180.981E-03    -171.769E-03     343.293E-03    -171.524E-03     134.614E-03     93.3982E+06     69.9327E+06    -14.8481E+06    -14.8458E+06     69.9303E+06     93.3982E+06    -59.6246E+03         66.2999
            1429     14.3339E-03     97.8810E-03         1.51949     958.854E-03        -4.64782         1.45994        -4.58827     958.854E-03     75.8770E-03     352.061E-03    -171.597E-03    -180.464E-03    -172.126E-03     343.723E-03    -171.597E-03     124.302E-03     111.145E+06     86.3342E+06    -7.42192E+06    -7.41882E+06     86.3310E+06     111.145E+06     21.3691E+03         70.0712
            1430     842.563E-06     98.1022E-03         1.69355         1.20162        -4.66073    -38.5153E-03        -3.40647         1.67942        -3.04040     343.087E-03    -170.823E-03    -172.263E-03    -172.176E-03     343.085E-03    -170.909E-03     1.51766E-03    -155.445E+06    -161.041E+06    -369.677E+06    -160.039E+06    -369.655E+06    -156.468E+06    -432.256E+03         49.2192
            1431     1.68566E-03     98.1012E-03     829.134E-03     803.815E-03        -3.41020     788.473E-03        -3.38074     815.008E-03     643.230E-03     343.152E-03    -171.388E-03    -171.764E-03    -171.502E-03     343.142E-03    -171.641E-03     4.26291E-03    -139.223E+06    -153.415E+06    -353.997E+06    -153.435E+06    -353.977E+06    -139.223E+06     148.925E+03         49.4008
            1432     2.52808E-03     98.1028E-03         1.00949     792.302E-03        -3.59766     770.974E-03        -3.37033     803.495E-03        -1.23454     343.547E-03    -171.619E-03    -171.928E-03    -171.729E-03     343.514E-03    -171.785E-03     7.96976E-03    -116.362E+06    -145.281E+06    -329.389E+06    -145.294E+06    -329.376E+06    -116.362E+06     1.05934E+06         49.6907
            1433     3.36922E-03     98.1110E-03         1.22952     796.135E-03        -3.83705     770.296E-03        -3.37782     796.135E-03     57.6313E-03     343.452E-03    -171.504E-03    -171.948E-03    -171.438E-03     343.365E-03    -171.928E-03     13.0133E-03    -91.2507E+06    -134.756E+06    -291.713E+06    -134.777E+06    -291.692E+06    -91.2507E+06     1.43024E+06         50.0825
            1434     4.21207E-03     98.1232E-03         1.09991     796.149E-03        -3.71582     804.547E-03        -3.42046     796.149E-03     760.328E-03     342.639E-03    -170.683E-03    -171.956E-03    -170.487E-03     342.443E-03    -171.956E-03     19.6759E-03    -65.6489E+06    -123.318E+06    -248.987E+06    -123.341E+06    -248.965E+06    -65.6489E+06     1.53767E+06         50.5635
            1435     5.05544E-03     98.1457E-03         1.00951     804.434E-03        -3.65161     845.126E-03        -3.48723     804.434E-03     265.808E-03     341.995E-03    -170.117E-03    -171.878E-03    -169.729E-03     341.607E-03    -171.878E-03     27.8531E-03    -41.7834E+06    -111.773E+06    -204.354E+06    -111.792E+06    -204.335E+06    -41.7834E+06     1.31628E+06         51.1159
            1436     5.89947E-03     98.1802E-03         1.04657     818.405E-03        -3.73133     881.244E-03        -3.56601     818.405E-03     236.351E-03     342.133E-03    -170.330E-03    -171.803E-03    -169.638E-03     341.440E-03    -171.803E-03     37.2995E-03    -19.3454E+06    -100.348E+06    -160.108E+06    -100.430E+06    -160.026E+06    -19.3454E+06     1.76993E+06         51.7168
            1437     6.74159E-03     98.2287E-03     983.480E-03     836.354E-03        -3.71560     919.879E-03        -3.65200     836.354E-03    -908.828E-03     342.398E-03    -170.632E-03    -171.766E-03    -169.479E-03     341.245E-03    -171.766E-03     48.2255E-03     3.03574E+06    -87.1578E+06    -113.051E+06    -89.3443E+06    -110.864E+06     3.03574E+06     2.94579E+06         52.3420
            1438     7.58530E-03     98.2895E-03     976.957E-03     857.910E-03        -3.75806     964.577E-03        -3.74568     857.910E-03     128.425E-03     342.386E-03    -170.672E-03    -171.714E-03    -168.915E-03     340.629E-03    -171.714E-03     59.6751E-03     25.4023E+06    -50.1666E+06    -79.8706E+06    -78.3647E+06    -51.6726E+06     25.4023E+06     3.03281E+06         52.9771
            1439     8.42918E-03     98.3649E-03         1.04918     883.856E-03        -3.88489         1.03339        -3.86910     883.856E-03     41.9745E-03     342.638E-03    -170.990E-03    -171.648E-03    -168.639E-03     340.273E-03    -171.634E-03     69.4309E-03     45.6149E+06     9.98149E+06    -67.3578E+06    -67.2665E+06     9.89014E+06     45.6149E+06     2.42508E+06         53.6331
            1440     9.27221E-03     98.4543E-03         1.13077     914.924E-03        -4.03481         1.11204        -4.01607     914.924E-03     102.009E-03     343.239E-03    -171.395E-03    -171.844E-03    -168.690E-03     340.260E-03    -171.570E-03     77.9750E-03     59.0902E+06     44.3960E+06    -56.4753E+06    -56.4153E+06     44.3360E+06     59.0902E+06     2.44769E+06         54.3691
            1441     10.1169E-03     98.5556E-03         1.22212     950.463E-03        -4.21208         1.18448        -4.17444     950.463E-03    -170.216E-03     344.217E-03    -171.540E-03    -172.676E-03    -168.966E-03     340.507E-03    -171.540E-03     87.1364E-03     66.6122E+06     49.8015E+06    -46.7415E+06    -46.6610E+06     49.7210E+06     66.6122E+06     2.75341E+06         55.3262
            1442     10.9605E-03     98.6694E-03         1.28255     988.987E-03        -4.37275         1.25077        -4.34097     988.987E-03    -788.393E-03     344.693E-03    -171.538E-03    -173.155E-03    -168.970E-03     340.508E-03    -171.538E-03     92.7129E-03     76.6139E+06     53.2749E+06    -37.8357E+06    -37.7694E+06     53.2086E+06     76.6139E+06     2.32642E+06         56.7573
            1443     11.8027E-03     98.7859E-03         1.33486         1.03043        -4.53621         1.32557        -4.52692         1.03043    -69.7038E-03     345.984E-03    -171.542E-03    -174.442E-03    -169.240E-03     340.782E-03    -171.542E-03     103.133E-03     86.6556E+06     55.9024E+06    -28.9033E+06    -28.8677E+06     55.8668E+06     86.6556E+06     1.57948E+06         58.9957
            1444     12.6477E-03     98.9311E-03         1.42788         1.07471        -4.74400         1.41248        -4.72860         1.07471    -199.727E-03     347.059E-03    -171.541E-03    -175.517E-03    -170.146E-03     341.687E-03    -171.541E-03     105.144E-03     90.2586E+06     61.0494E+06    -21.0717E+06    -21.0474E+06     61.0251E+06     90.2586E+06     1.20317E+06         62.2639
            1445     13.4894E-03     99.0584E-03         1.55628         1.12446        -4.99567         1.51361        -4.95301         1.12446     244.314E-03     352.704E-03    -171.570E-03    -181.134E-03    -171.946E-03     343.516E-03    -171.570E-03     134.397E-03     94.6732E+06     71.4507E+06    -14.2084E+06    -14.1967E+06     71.4389E+06     94.6732E+06     204.912E+03         66.3066
            1446     14.3338E-03     99.2865E-03         1.66912         1.17818        -5.24178         1.61688        -5.18954         1.17818     84.0428E-03     351.607E-03    -171.630E-03    -179.977E-03    -171.592E-03     343.222E-03    -171.630E-03     124.859E-03     111.496E+06     86.0627E+06    -7.34401E+06    -7.34164E+06     86.0603E+06     111.496E+06    -297.194E+03         70.1347
            1447     843.227E-06     99.5089E-03         2.06404         1.42362        -5.45194     143.847E-03        -4.12694         2.01881        -3.18686     342.692E-03    -171.250E-03    -171.443E-03    -171.298E-03     342.691E-03    -171.393E-03     997.858E-06    -153.792E+06    -159.869E+06    -368.910E+06    -159.332E+06    -368.880E+06    -154.359E+06    -12.2368E+03         49.2043
            1448     1.68584E-03     99.5084E-03         1.12107         1.05525        -4.16359         1.05383        -4.11694         1.07585     795.525E-03     343.155E-03    -171.499E-03    -171.656E-03    -171.637E-03     343.147E-03    -171.509E-03     3.67598E-03    -139.380E+06    -154.212E+06    -355.090E+06    -154.238E+06    -355.064E+06    -139.380E+06     167.061E+03         49.3860
            1449     2.52760E-03     99.5128E-03         1.19429         1.04395        -4.23670         1.02506        -4.08808         1.06454        -1.14284     343.274E-03    -171.439E-03    -171.835E-03    -171.540E-03     343.242E-03    -171.702E-03     7.78092E-03    -117.024E+06    -146.154E+06    -330.747E+06    -146.169E+06    -330.732E+06    -117.024E+06     614.653E+03         49.6766
            1450     3.37064E-03     99.5195E-03         1.36964         1.05676        -4.43844         1.03434        -4.10314         1.05676     185.904E-03     342.858E-03    -171.058E-03    -171.800E-03    -170.980E-03     342.770E-03    -171.791E-03     13.0841E-03    -91.1056E+06    -134.925E+06    -293.114E+06    -134.944E+06    -293.095E+06    -91.1056E+06     1.07349E+06         50.0706
            1451     4.21324E-03     99.5317E-03         1.29808         1.05814        -4.38214         1.07107        -4.15513         1.05814     794.312E-03     342.761E-03    -170.948E-03    -171.813E-03    -170.743E-03     342.556E-03    -171.813E-03     20.1033E-03    -66.5063E+06    -123.302E+06    -250.611E+06    -123.328E+06    -250.586E+06    -66.5063E+06     1.64383E+06         50.5553
            1452     5.05575E-03     99.5539E-03         1.23220         1.06733        -4.34645         1.10502        -4.21927         1.06733     344.126E-03     342.706E-03    -170.866E-03    -171.839E-03    -170.467E-03     342.306E-03    -171.839E-03     28.3247E-03    -42.7208E+06    -112.578E+06    -205.436E+06    -112.673E+06    -205.341E+06    -42.7208E+06     2.41063E+06         51.1112
            1453     5.89794E-03     99.5883E-03         1.25465         1.08057        -4.40681         1.12348        -4.27564         1.08057     302.294E-03     342.165E-03    -170.336E-03    -171.829E-03    -169.620E-03     341.449E-03    -171.829E-03     37.8980E-03    -20.1074E+06    -102.019E+06    -161.847E+06    -102.176E+06    -161.690E+06    -20.1074E+06     2.72717E+06         51.7144
            1454     6.74240E-03     99.6365E-03         1.17979         1.09574        -4.37527         1.13600        -4.33148         1.09574    -777.231E-03     341.891E-03    -170.134E-03    -171.757E-03    -168.977E-03     340.733E-03    -171.757E-03     48.3671E-03     2.18957E+06    -88.5193E+06    -114.265E+06    -90.1700E+06    -112.614E+06     2.18957E+06     2.81353E+06         52.3416
            1455     7.58643E-03     99.6963E-03         1.18250         1.11381        -4.42433         1.17198        -4.41381         1.11381     233.995E-03     342.446E-03    -170.763E-03    -171.684E-03    -169.037E-03     340.721E-03    -171.684E-03     59.1456E-03     25.3359E+06    -50.6549E+06    -79.7436E+06    -77.9729E+06    -52.4256E+06     25.3359E+06     3.42469E+06         52.9781
            1456     8.42901E-03     99.7751E-03         1.26374         1.13772        -4.55738         1.25117        -4.54481         1.13772     146.539E-03     342.959E-03    -171.311E-03    -171.648E-03    -168.996E-03     340.630E-03    -171.634E-03     68.9403E-03     46.3699E+06     10.2189E+06    -66.9903E+06    -66.7978E+06     10.0264E+06     46.3699E+06     3.40514E+06         53.6326
            1457     9.27242E-03     99.8617E-03         1.35364         1.16859        -4.71127         1.33828        -4.69591         1.16859     207.336E-03     343.560E-03    -171.493E-03    -172.067E-03    -168.989E-03     340.592E-03    -171.603E-03     77.8615E-03     59.7481E+06     44.3361E+06    -56.9382E+06    -56.8505E+06     44.2484E+06     59.7481E+06     2.91549E+06         54.3623
            1458     10.1154E-03     99.9636E-03         1.44523         1.20496        -4.88421         1.41659        -4.85558         1.20496    -62.8646E-03     344.192E-03    -171.585E-03    -172.607E-03    -168.983E-03     340.569E-03    -171.585E-03     86.1721E-03     66.7250E+06     49.3778E+06    -47.3120E+06    -47.2392E+06     49.3049E+06     66.7250E+06     2.48620E+06         55.3073
            1459     10.9587E-03     100.078E-03         1.49182         1.24423        -5.02866         1.47181        -5.00864         1.24423    -670.038E-03     344.387E-03    -171.576E-03    -172.811E-03    -168.734E-03     340.310E-03    -171.576E-03     91.4571E-03     77.3835E+06     53.8645E+06    -37.1249E+06    -37.0733E+06     53.8130E+06     77.3835E+06     1.93199E+06         56.7220
            1460     11.8040E-03     100.194E-03         1.52265         1.28518        -5.16630         1.51474        -5.15839         1.28518     21.6603E-03     346.319E-03    -171.578E-03    -174.741E-03    -169.482E-03     341.060E-03    -171.578E-03     103.690E-03     87.4029E+06     56.0694E+06    -28.8251E+06    -28.7827E+06     56.0270E+06     87.4029E+06     1.82693E+06         58.9477
            1461     12.6453E-03     100.341E-03         1.58949         1.32741        -5.34134         1.57536        -5.32720         1.32741    -133.911E-03     347.049E-03    -171.574E-03    -175.474E-03    -169.966E-03     341.541E-03    -171.574E-03     106.470E-03     90.8488E+06     61.5170E+06    -21.2492E+06    -21.2139E+06     61.4817E+06     90.8488E+06     1.64270E+06         62.2240
            1462     13.4902E-03     100.467E-03         1.69447         1.37422        -5.56039         1.65712        -5.52304         1.37422     263.410E-03     352.180E-03    -171.570E-03    -180.611E-03    -171.280E-03     342.850E-03    -171.570E-03     135.425E-03     95.6905E+06     73.3113E+06    -13.6479E+06    -13.6347E+06     73.2980E+06     95.6905E+06     735.328E+03         66.3108
            1463     14.3341E-03     100.695E-03         1.79092         1.42442        -5.78168         1.74401        -5.73477         1.42442     90.2958E-03     351.615E-03    -171.605E-03    -180.011E-03    -171.538E-03     343.143E-03    -171.605E-03     125.447E-03     112.046E+06     86.4317E+06    -6.89896E+06    -6.89726E+06     86.4300E+06     112.046E+06     95.4371E+03         70.2006
            1464     842.355E-06     100.915E-03         2.48551         1.72776        -6.34571     330.467E-03        -4.86914         2.40623        -3.43338     343.584E-03    -171.464E-03    -172.120E-03    -171.926E-03     343.583E-03    -171.657E-03     923.006E-06    -153.041E+06    -159.524E+06    -370.613E+06    -157.944E+06    -370.595E+06    -154.640E+06     804.486E+03         49.1931
            1465     1.68473E-03     100.918E-03         1.44471         1.34688        -4.93860         1.35096        -4.86340         1.36543     948.780E-03     343.240E-03    -171.386E-03    -171.854E-03    -171.402E-03     343.232E-03    -171.830E-03     3.47243E-03    -135.813E+06    -152.281E+06    -354.750E+06    -152.293E+06    -354.738E+06    -135.813E+06     708.266E+03         49.3722
            1466     2.52768E-03     100.921E-03         1.45002         1.33930        -4.95318         1.32959        -4.85131         1.35786        -1.15761     342.573E-03    -170.823E-03    -171.750E-03    -170.794E-03     342.543E-03    -171.750E-03     7.42961E-03    -114.241E+06    -143.153E+06    -331.683E+06    -143.159E+06    -331.677E+06    -114.241E+06     148.387E+03         49.6614
            1467     3.37086E-03     100.926E-03         1.58079         1.35334        -5.11360         1.34157        -4.87438         1.35334     199.138E-03     342.425E-03    -170.757E-03    -171.668E-03    -170.673E-03     342.341E-03    -171.668E-03     12.7652E-03    -91.7728E+06    -133.645E+06    -296.127E+06    -133.667E+06    -296.105E+06    -91.7728E+06     1.29671E+06         50.0564
            1468     4.21417E-03     100.940E-03         1.53521         1.35648        -5.08499         1.37044        -4.92022         1.35648     748.614E-03     342.687E-03    -171.003E-03    -171.684E-03    -170.803E-03     342.487E-03    -171.684E-03     19.8909E-03    -67.2602E+06    -123.573E+06    -252.373E+06    -123.625E+06    -252.321E+06    -67.2602E+06     2.48999E+06         50.5442
            1469     5.05621E-03     100.964E-03         1.50227         1.36609        -5.07917         1.40138        -4.97828         1.36609     401.812E-03     342.668E-03    -170.924E-03    -171.743E-03    -170.522E-03     342.265E-03    -171.743E-03     28.3892E-03    -42.9417E+06    -112.518E+06    -207.543E+06    -112.636E+06    -207.425E+06    -42.9417E+06     2.99324E+06         51.1045
            1470     5.89920E-03     100.996E-03         1.51565         1.37926        -5.12858         1.41373        -5.02666         1.37926     388.182E-03     342.393E-03    -170.621E-03    -171.772E-03    -169.908E-03     341.680E-03    -171.772E-03     37.8813E-03    -19.0655E+06    -100.190E+06    -162.760E+06    -100.378E+06    -162.572E+06    -19.0655E+06     3.11421E+06         51.7119
            1471     6.74251E-03     101.042E-03         1.44443         1.39391        -5.09937         1.41635        -5.07129         1.39391    -624.822E-03     342.427E-03    -170.670E-03    -171.757E-03    -169.521E-03     341.278E-03    -171.757E-03     48.2148E-03     2.87758E+06    -87.6191E+06    -114.757E+06    -89.0047E+06    -113.371E+06     2.87758E+06     3.09639E+06         52.3416
            1472     7.58490E-03     101.107E-03         1.45460         1.41127        -5.15364         1.44509        -5.14412         1.41127     322.983E-03     342.604E-03    -170.880E-03    -171.724E-03    -169.174E-03     340.898E-03    -171.724E-03     58.8597E-03     25.0888E+06    -52.1026E+06    -80.3817E+06    -78.1686E+06    -54.3156E+06     25.0888E+06     3.63002E+06         52.9779
            1473     8.42851E-03     101.182E-03         1.52070         1.43412        -5.26700         1.51010        -5.25640         1.43412     225.834E-03     342.882E-03    -171.165E-03    -171.716E-03    -168.885E-03     340.561E-03    -171.676E-03     68.7693E-03     46.9981E+06     9.30835E+06    -67.1719E+06    -66.9145E+06     9.05096E+06     46.9981E+06     4.17609E+06         53.6297
            1474     9.27225E-03     101.271E-03         1.59665         1.46333        -5.40197         1.58338        -5.38869         1.46333     285.200E-03     343.693E-03    -171.528E-03    -172.165E-03    -169.053E-03     340.692E-03    -171.638E-03     78.3144E-03     61.0166E+06     45.0833E+06    -56.3518E+06    -56.1994E+06     44.9309E+06     61.0166E+06     3.89072E+06         54.3532
            1475     10.1145E-03     101.374E-03         1.67106         1.49748        -5.55290         1.64849        -5.53033         1.49748     24.2249E-03     344.225E-03    -171.617E-03    -172.608E-03    -168.934E-03     340.551E-03    -171.617E-03     86.7557E-03     68.2351E+06     50.5606E+06    -46.0915E+06    -46.0037E+06     50.4728E+06     68.2351E+06     2.72947E+06         55.2868
            1476     10.9588E-03     101.483E-03         1.69727         1.53378        -5.66969         1.68481        -5.65723         1.53378    -553.780E-03     344.574E-03    -171.600E-03    -172.974E-03    -168.800E-03     340.400E-03    -171.600E-03     92.5535E-03     77.3413E+06     53.3551E+06    -37.4796E+06    -37.4158E+06     53.2913E+06     77.3413E+06     2.26655E+06         56.6854
            1477     11.8021E-03     101.603E-03         1.71872         1.57124        -5.78794         1.71179        -5.78101         1.57124     110.090E-03     346.234E-03    -171.592E-03    -174.642E-03    -169.287E-03     340.880E-03    -171.592E-03     104.642E-03     87.4734E+06     56.1765E+06    -29.2285E+06    -29.1666E+06     56.1146E+06     87.4734E+06     2.28275E+06         58.8984
            1478     12.6474E-03     101.750E-03         1.76033         1.60920        -5.92781         1.74764        -5.91512         1.60920    -69.0795E-03     346.423E-03    -171.560E-03    -174.863E-03    -169.343E-03     340.903E-03    -171.560E-03     106.436E-03     91.5957E+06     62.3429E+06    -20.9670E+06    -20.9384E+06     62.3144E+06     91.5957E+06     1.39253E+06         62.1849
            1479     13.4913E-03     101.873E-03         1.83163         1.65090        -6.10085         1.79816        -6.06737         1.65090     298.673E-03     351.877E-03    -171.526E-03    -180.351E-03    -171.010E-03     342.536E-03    -171.526E-03     135.374E-03     95.8382E+06     73.8284E+06    -13.9420E+06    -13.9351E+06     73.8215E+06     95.8382E+06     765.336E+03         66.3180
            1480     14.3357E-03     102.105E-03         1.89816         1.69513        -6.27331         1.85495        -6.23011         1.69513     108.047E-03     351.929E-03    -171.568E-03    -180.361E-03    -171.900E-03     343.468E-03    -171.568E-03     125.185E-03     112.723E+06     87.5158E+06    -6.98034E+06    -6.97627E+06     87.5118E+06     112.723E+06     548.958E+03         70.2702
            1481     841.796E-06     102.327E-03         2.89668         2.08021        -7.21704     575.373E-03        -5.61109         2.79556        -3.68473     343.965E-03    -171.588E-03    -172.376E-03    -172.025E-03     343.962E-03    -171.937E-03     1.74806E-03    -152.667E+06    -158.216E+06    -370.944E+06    -157.201E+06    -370.929E+06    -153.698E+06    -1.31658E+06         49.1845
            1482     1.68394E-03     102.325E-03         1.78409         1.67510        -5.72244         1.67159        -5.61781         1.68297         1.08046     343.311E-03    -171.355E-03    -171.956E-03    -171.348E-03     343.303E-03    -171.956E-03     3.65359E-03    -137.798E+06    -150.634E+06    -356.717E+06    -150.650E+06    -356.701E+06    -137.798E+06    -101.161E+03         49.3626
            1483     2.52796E-03     102.327E-03         1.74510         1.67134        -5.70401         1.66947        -5.63625         1.67921        -1.13711     342.646E-03    -170.825E-03    -171.821E-03    -170.800E-03     342.621E-03    -171.821E-03     6.84351E-03    -114.939E+06    -142.929E+06    -333.571E+06    -142.945E+06    -333.555E+06    -114.939E+06     1.61449E+06         49.6503
            1484     3.37131E-03     102.334E-03         1.85526         1.67998        -5.84189         1.68327        -5.66990         1.67998     289.430E-03     342.480E-03    -170.753E-03    -171.727E-03    -170.675E-03     342.401E-03    -171.727E-03     12.2350E-03    -91.6620E+06    -134.119E+06    -298.525E+06    -134.148E+06    -298.496E+06    -91.6620E+06     2.13033E+06         50.0441
            1485     4.21329E-03     102.349E-03         1.83598         1.68682        -5.83655         1.71344        -5.71401         1.68682     778.169E-03     342.269E-03    -170.576E-03    -171.692E-03    -170.382E-03     342.075E-03    -171.692E-03     19.5257E-03    -66.7762E+06    -123.160E+06    -254.000E+06    -123.213E+06    -253.947E+06    -66.7762E+06     2.54605E+06         50.5319
            1486     5.05692E-03     102.371E-03         1.81742         1.69867        -5.84184         1.73707        -5.76148         1.69867     498.973E-03     342.212E-03    -170.531E-03    -171.681E-03    -170.138E-03     341.819E-03    -171.681E-03     28.0281E-03    -42.2684E+06    -111.042E+06    -208.969E+06    -111.122E+06    -208.889E+06    -42.2684E+06     2.68678E+06         51.0941
            1487     5.90002E-03     102.405E-03         1.81751         1.71232        -5.88065         1.73666        -5.79980         1.71232     484.507E-03     342.719E-03    -171.008E-03    -171.711E-03    -170.303E-03     342.014E-03    -171.711E-03     37.6812E-03    -19.6267E+06    -99.7532E+06    -165.356E+06    -100.018E+06    -165.091E+06    -19.6267E+06     3.61286E+06         51.7047
            1488     6.74150E-03     102.452E-03         1.75554         1.72449        -5.85861         1.73655        -5.84170         1.72658    -490.014E-03     342.866E-03    -171.107E-03    -171.759E-03    -169.947E-03     341.707E-03    -171.759E-03     48.4348E-03     3.34875E+06    -87.2703E+06    -116.108E+06    -89.0137E+06    -114.365E+06     3.34875E+06     4.28316E+06         52.3364
            1489     7.58495E-03     102.514E-03         1.76504         1.74103        -5.90888         1.75358        -5.89951         1.74312     391.733E-03     342.561E-03    -170.813E-03    -171.747E-03    -169.073E-03     340.821E-03    -171.747E-03     59.4216E-03     25.9770E+06    -53.2203E+06    -80.4578E+06    -77.5871E+06    -56.0910E+06     25.9770E+06     4.28766E+06         52.9726
            1490     8.42873E-03     102.590E-03         1.80946         1.76418        -5.99649         1.79951        -5.98654         1.76418     286.741E-03     342.824E-03    -171.105E-03    -171.719E-03    -168.744E-03     340.422E-03    -171.679E-03     69.9169E-03     47.0150E+06     7.66858E+06    -67.1145E+06    -66.7506E+06     7.30476E+06     47.0150E+06     4.71500E+06         53.6220
            1491     9.27123E-03     102.681E-03         1.86395         1.79049        -6.10016         1.85209        -6.08830         1.79049     331.867E-03     343.294E-03    -171.513E-03    -171.781E-03    -168.599E-03     340.209E-03    -171.610E-03     79.3572E-03     61.8202E+06     45.8131E+06    -55.7826E+06    -55.5988E+06     45.6293E+06     61.8202E+06     4.29259E+06         54.3405
            1492     10.1164E-03     102.780E-03         1.90529         1.82029        -6.20803         1.88697        -6.18971         1.82029     88.8420E-03     344.016E-03    -171.563E-03    -172.453E-03    -168.729E-03     340.292E-03    -171.563E-03     87.3284E-03     69.6453E+06     51.0829E+06    -45.5530E+06    -45.3841E+06     50.9139E+06     69.6453E+06     3.94354E+06         55.2653
            1493     10.9598E-03     102.893E-03         1.91160         1.84407        -6.28750         1.89682        -6.27961         1.85095    -450.061E-03     345.066E-03    -171.558E-03    -173.508E-03    -169.277E-03     340.836E-03    -171.558E-03     93.2679E-03     79.0500E+06     54.1987E+06    -37.2414E+06    -37.0916E+06     54.0489E+06     79.0500E+06     3.57984E+06         56.6508
            1494     11.8030E-03     103.011E-03         1.92991         1.86030        -6.37773         1.90190        -6.37142         1.88200     188.640E-03     346.496E-03    -171.579E-03    -174.917E-03    -169.572E-03     341.152E-03    -171.579E-03     104.665E-03     88.8221E+06     57.6194E+06    -28.8943E+06    -28.8256E+06     57.5507E+06     88.8221E+06     2.27158E+06         58.8528
            1495     12.6467E-03     103.156E-03         1.96005         1.88164        -6.48305         1.91725        -6.47156         1.91295    -16.1451E-03     346.339E-03    -171.560E-03    -174.779E-03    -169.366E-03     340.926E-03    -171.560E-03     105.357E-03     92.2965E+06     62.9047E+06    -20.9677E+06    -20.9455E+06     62.8824E+06     92.2965E+06     1.21528E+06         62.1481
            1496     13.4912E-03     103.282E-03         2.00138         1.91249        -6.60519         1.93808        -6.57640         1.94700     307.412E-03     351.886E-03    -171.537E-03    -180.349E-03    -171.148E-03     342.685E-03    -171.537E-03     134.252E-03     96.6872E+06     74.0349E+06    -13.9303E+06    -13.9206E+06     74.0252E+06     96.6872E+06     890.667E+03         66.3245
            1497     14.3350E-03     103.511E-03         2.03810         1.93111        -6.71246         1.94833        -6.67387         1.98228     101.372E-03     351.921E-03    -171.588E-03    -180.333E-03    -171.963E-03     343.551E-03    -171.588E-03     124.509E-03     113.583E+06     88.2343E+06    -6.80229E+06    -6.79550E+06     88.2275E+06     113.583E+06     789.108E+03         70.3385
            1498     842.872E-06     103.734E-03         3.30936         2.46880        -8.09096     956.919E-03        -6.45075         3.18104        -3.83870     343.396E-03    -171.044E-03    -172.352E-03    -171.926E-03     343.393E-03    -171.468E-03     1.84455E-03    -151.258E+06    -159.453E+06    -371.274E+06    -157.872E+06    -371.249E+06    -152.863E+06     188.542E+03         49.1755
            1499     1.68565E-03     103.734E-03         2.19714         2.06256        -6.60860         2.06600        -6.48372         2.06882         1.23807     343.332E-03    -171.481E-03    -171.850E-03    -171.550E-03     343.324E-03    -171.774E-03     3.62510E-03    -138.452E+06    -153.139E+06    -359.863E+06    -153.167E+06    -359.835E+06    -138.452E+06     563.359E+03         49.3551
            1500     2.52687E-03     103.734E-03         2.09066         2.05791        -6.52119         2.04161        -6.47925         2.06502        -1.03657     343.316E-03    -171.402E-03    -171.914E-03    -171.450E-03     343.287E-03    -171.837E-03     7.21927E-03    -116.606E+06    -144.805E+06    -335.972E+06    -144.820E+06    -335.957E+06    -116.606E+06     1.51931E+06         49.6433
            1501     3.36922E-03     103.742E-03         2.16220         2.05931        -6.60576         2.03439        -6.47881         2.06017     423.072E-03     342.759E-03    -170.901E-03    -171.859E-03    -170.820E-03     342.679E-03    -171.859E-03     12.4900E-03    -91.2115E+06    -134.412E+06    -299.773E+06    -134.436E+06    -299.750E+06    -91.2115E+06     1.92336E+06         50.0357
            1502     4.21366E-03     103.755E-03         2.15250         2.05478        -6.59826         2.04966        -6.50077         2.06012     832.436E-03     342.260E-03    -170.456E-03    -171.804E-03    -170.274E-03     342.078E-03    -171.804E-03     18.9741E-03    -66.6234E+06    -122.893E+06    -256.232E+06    -122.940E+06    -256.185E+06    -66.6234E+06     2.33271E+06         50.5211
            1503     5.05692E-03     103.779E-03         2.13988         2.06062        -6.60360         2.06914        -6.53820         2.06596     587.337E-03     342.043E-03    -170.296E-03    -171.747E-03    -169.923E-03     341.670E-03    -171.747E-03     27.2102E-03    -42.3291E+06    -111.631E+06    -210.824E+06    -111.761E+06    -210.693E+06    -42.3291E+06     3.35507E+06         51.0815
            1504     5.89934E-03     103.814E-03         2.14222         2.07500        -6.64262         2.07478        -6.57591         2.07573     559.974E-03     342.153E-03    -170.437E-03    -171.716E-03    -169.716E-03     341.431E-03    -171.716E-03     37.9519E-03    -18.8693E+06    -99.9733E+06    -167.583E+06    -100.227E+06    -167.330E+06    -18.8693E+06     3.80594E+06         51.6919
            1505     6.74267E-03     103.862E-03         2.09601         2.07296        -6.62192         2.07058        -6.61098         2.08745    -375.250E-03     342.454E-03    -170.757E-03    -171.698E-03    -169.575E-03     341.273E-03    -171.698E-03     48.9416E-03     3.64323E+06    -86.6812E+06    -118.824E+06    -88.5038E+06    -117.001E+06     3.64323E+06     4.41537E+06         52.3253
            1506     7.58569E-03     103.921E-03         2.10704         2.08332        -6.66417         2.07892        -6.65418         2.10144     467.084E-03     342.651E-03    -170.976E-03    -171.675E-03    -169.214E-03     340.889E-03    -171.675E-03     59.7782E-03     26.0092E+06    -53.8935E+06    -81.8109E+06    -77.4549E+06    -58.2495E+06     26.0092E+06     5.37726E+06         52.9633
            1507     8.42886E-03     103.999E-03         2.13093         2.10188        -6.72243         2.10352        -6.71242         2.11927     357.619E-03     342.643E-03    -171.029E-03    -171.614E-03    -168.606E-03     340.220E-03    -171.614E-03     70.2280E-03     47.8232E+06     7.46193E+06    -66.7095E+06    -66.2293E+06     6.98171E+06     47.8232E+06     5.31510E+06         53.6126
            1508     9.27402E-03     104.087E-03         2.16023         2.11610        -6.78348         2.12382        -6.77169         2.14072     397.808E-03     343.109E-03    -171.254E-03    -171.855E-03    -168.505E-03     340.047E-03    -171.542E-03     79.0524E-03     62.8770E+06     46.2844E+06    -55.7639E+06    -55.5443E+06     46.0648E+06     62.8770E+06     4.69898E+06         54.3277
            1509     10.1168E-03     104.189E-03         2.18346         2.12647        -6.84602         2.12945        -6.82962         2.16408     162.581E-03     344.233E-03    -171.509E-03    -172.725E-03    -169.049E-03     340.558E-03    -171.509E-03     86.8006E-03     69.6716E+06     50.1536E+06    -46.3558E+06    -46.1410E+06     49.9388E+06     69.6716E+06     4.49674E+06         55.2441
            1510     10.9600E-03     104.301E-03         2.19298         2.10843        -6.88291         2.10923        -6.87777         2.18705    -364.232E-03     345.004E-03    -171.525E-03    -173.480E-03    -169.314E-03     340.838E-03    -171.525E-03     92.5519E-03     79.8550E+06     55.0042E+06    -36.9244E+06    -36.7145E+06     54.7943E+06     79.8550E+06     4.33314E+06         56.6162
            1511     11.8034E-03     104.420E-03         2.20900         2.08416        -6.92656         2.07832        -6.92073         2.20900     243.912E-03     346.538E-03    -171.557E-03    -174.980E-03    -169.654E-03     341.211E-03    -171.557E-03     104.454E-03     90.8203E+06     60.1358E+06    -28.4387E+06    -28.3140E+06     60.0111E+06     90.8203E+06     3.03580E+06         58.8074
            1512     12.6461E-03     104.565E-03         2.22942         2.06664        -6.97564         2.05587        -6.96487         2.22942     7.40261E-03     346.990E-03    -171.563E-03    -175.427E-03    -169.970E-03     341.533E-03    -171.563E-03     105.924E-03     93.7186E+06     63.9632E+06    -21.1091E+06    -21.0631E+06     63.9172E+06     93.7186E+06     1.75932E+06         62.1104
            1513     13.4901E-03     104.687E-03         2.25177         2.06694        -7.03675         2.04203        -7.01184         2.25177     289.998E-03     352.721E-03    -171.579E-03    -181.142E-03    -171.874E-03     343.453E-03    -171.579E-03     134.984E-03     97.6866E+06     74.5843E+06    -13.9901E+06    -13.9602E+06     74.5545E+06     97.6866E+06     1.53629E+06         66.3270
            1514     14.3335E-03     104.922E-03         2.27411         2.04494        -7.07743         2.01088        -7.04338         2.27411     87.4888E-03     351.528E-03    -171.446E-03    -180.083E-03    -171.511E-03     343.143E-03    -171.633E-03     124.422E-03     113.709E+06     88.9651E+06    -7.35472E+06    -7.33576E+06     88.9461E+06     113.709E+06     896.897E+03         70.4030
            1515     842.035E-06     105.142E-03         3.72806         2.80475        -8.90672         1.43045        -7.44455         3.64019        -3.77446     343.050E-03    -170.943E-03    -172.107E-03    -171.971E-03     343.048E-03    -171.077E-03     741.705E-06    -154.060E+06    -162.977E+06    -374.279E+06    -161.390E+06    -374.261E+06    -155.666E+06     1.76728E+06         49.1649
            1516     1.68516E-03     105.141E-03         2.60815         2.48814        -7.48743         2.45550        -7.36691         2.52028         1.31065     343.156E-03    -171.391E-03    -171.765E-03    -171.498E-03     343.148E-03    -171.649E-03     3.72073E-03    -135.996E+06    -154.514E+06    -361.052E+06    -154.529E+06    -361.037E+06    -135.996E+06     1.41570E+06         49.3457
            1517     2.52812E-03     105.145E-03         2.49029         2.43376        -7.33797         2.40211        -7.30631         2.49029    -976.325E-03     343.353E-03    -171.513E-03    -171.841E-03    -171.559E-03     343.323E-03    -171.765E-03     7.55815E-03    -114.857E+06    -144.758E+06    -337.737E+06    -144.763E+06    -337.732E+06    -114.857E+06     874.928E+03         49.6352
            1518     3.37066E-03     105.149E-03         2.50166         2.44239        -7.36946         2.37880        -7.27100         2.46678     413.738E-03     343.224E-03    -171.358E-03    -171.867E-03    -171.272E-03     343.139E-03    -171.867E-03     12.8092E-03    -90.6376E+06    -133.695E+06    -301.849E+06    -133.720E+06    -301.824E+06    -90.6376E+06     1.68656E+06         50.0280
            1519     4.21214E-03     105.165E-03         2.48974         2.44635        -7.36697         2.40449        -7.29022         2.45486     786.706E-03     342.708E-03    -170.813E-03    -171.895E-03    -170.622E-03     342.517E-03    -171.895E-03     19.4474E-03    -66.2126E+06    -123.054E+06    -258.912E+06    -123.119E+06    -258.848E+06    -66.2126E+06     2.78737E+06         50.5122
            1520     5.05466E-03     105.186E-03         2.49234         2.44581        -7.37922         2.42864        -7.32403         2.45431     594.202E-03     341.919E-03    -170.081E-03    -171.838E-03    -169.695E-03     341.533E-03    -171.838E-03     27.6549E-03    -41.6658E+06    -111.383E+06    -212.869E+06    -111.498E+06    -212.754E+06    -41.6658E+06     3.19261E+06         51.0706
            1521     5.89966E-03     105.221E-03         2.49816         2.44987        -7.40934         2.43312        -7.35457         2.46014     605.950E-03     341.537E-03    -169.804E-03    -171.733E-03    -169.074E-03     340.808E-03    -171.733E-03     38.1630E-03    -17.8907E+06    -99.1208E+06    -169.596E+06    -99.4006E+06    -169.317E+06    -17.8907E+06     3.75276E+06         51.6801
            1522     6.74387E-03     105.269E-03         2.46826         2.42025        -7.37336         2.41298        -7.36609         2.46826    -273.420E-03     341.953E-03    -170.311E-03    -171.642E-03    -169.145E-03     340.787E-03    -171.642E-03     48.5939E-03     3.61478E+06    -86.8211E+06    -122.127E+06    -88.4597E+06    -120.488E+06     3.61478E+06     4.90712E+06         52.3148
            1523     7.58661E-03     105.331E-03         2.47730         2.40671        -7.38687         2.39693        -7.37709         2.47730     518.228E-03     342.524E-03    -170.926E-03    -171.598E-03    -169.199E-03     340.798E-03    -171.598E-03     59.1551E-03     26.0764E+06    -54.3117E+06    -83.5580E+06    -77.4142E+06    -60.4555E+06     26.0764E+06     5.92928E+06         52.9549
            1524     8.43004E-03     105.406E-03         2.48874         2.41064        -7.41295         2.40122        -7.40353         2.48874     394.145E-03     342.873E-03    -171.160E-03    -171.713E-03    -168.950E-03     340.515E-03    -171.565E-03     69.3455E-03     48.6980E+06     7.42600E+06    -67.0856E+06    -66.4262E+06     6.76659E+06     48.6980E+06     6.22530E+06         53.6045
            1525     9.27289E-03     105.495E-03         2.50292         2.40889        -7.43800         2.39762        -7.42673         2.50292     435.511E-03     343.373E-03    -171.342E-03    -172.032E-03    -168.847E-03     340.379E-03    -171.532E-03     78.1958E-03     63.6342E+06     46.5137E+06    -56.6085E+06    -56.2543E+06     46.1594E+06     63.6342E+06     5.97696E+06         54.3152
            1526     10.1164E-03     105.598E-03         2.51779         2.38312        -7.45386         2.36842        -7.43915         2.51779     208.498E-03     344.110E-03    -171.512E-03    -172.598E-03    -168.937E-03     340.449E-03    -171.512E-03     86.5978E-03     70.4612E+06     50.7213E+06    -46.9309E+06    -46.6681E+06     50.4585E+06     70.4612E+06     4.98133E+06         55.2210
            1527     10.9597E-03     105.709E-03         2.53046         2.30830        -7.43243         2.30472        -7.42885         2.53046    -295.787E-03     344.931E-03    -171.518E-03    -173.413E-03    -169.224E-03     340.742E-03    -171.518E-03     92.7938E-03     79.8755E+06     54.3032E+06    -37.8286E+06    -37.6428E+06     54.1174E+06     79.8755E+06     4.11103E+06         56.5776
            1528     11.8035E-03     105.828E-03         2.54028         2.23682        -7.41322         2.23173        -7.40813         2.54028     274.762E-03     346.428E-03    -171.548E-03    -174.881E-03    -169.610E-03     341.157E-03    -171.548E-03     103.943E-03     91.5647E+06     61.2228E+06    -29.1053E+06    -28.9285E+06     61.0460E+06     91.5647E+06     3.95830E+06         58.7555
            1529     12.6484E-03     105.973E-03         2.54717         2.17739        -7.39814         2.16778        -7.38853         2.54717     14.5117E-03     347.069E-03    -171.560E-03    -175.509E-03    -170.084E-03     341.644E-03    -171.560E-03     105.684E-03     95.3413E+06     66.0797E+06    -21.6389E+06    -21.5162E+06     65.9571E+06     95.3413E+06     3.17578E+06         62.0647
            1530     13.4902E-03     106.099E-03         2.55450         2.12778        -7.38663         2.10630        -7.36515         2.55450     269.077E-03     352.663E-03    -171.572E-03    -181.091E-03    -171.714E-03     343.286E-03    -171.572E-03     135.737E-03     97.9253E+06     74.8837E+06    -15.0907E+06    -15.0322E+06     74.8252E+06     97.9253E+06     2.09354E+06         66.3256
            1531     14.3330E-03     106.330E-03         2.56014         2.05793        -7.35214         2.02836        -7.32257         2.56014     79.1299E-03     350.941E-03    -171.412E-03    -179.529E-03    -170.846E-03     342.445E-03    -171.599E-03     125.205E-03     114.280E+06     90.3120E+06    -7.52579E+06    -7.50841E+06     90.2946E+06     114.280E+06     627.604E+03         70.4697
            1532     843.521E-06     106.549E-03         4.03326         2.94414        -9.34589         1.89936        -8.28028         4.01243        -3.36925     342.946E-03    -171.190E-03    -171.756E-03    -171.428E-03     342.943E-03    -171.516E-03     1.23646E-03    -155.956E+06    -161.641E+06    -375.622E+06    -161.145E+06    -375.602E+06    -156.472E+06    -130.184E+03         49.1529
            1533     1.68523E-03     106.550E-03         2.95210         2.89410        -8.24275         2.83266        -8.16049         2.93127         1.21081     343.283E-03    -171.506E-03    -171.777E-03    -171.645E-03     343.276E-03    -171.630E-03     3.73665E-03    -136.626E+06    -153.247E+06    -362.054E+06    -153.251E+06    -362.051E+06    -136.626E+06     842.857E+03         49.3335
            1534     2.52788E-03     106.552E-03         2.89021         2.81441        -8.12366         2.78639        -8.09564         2.89021    -874.778E-03     343.182E-03    -171.403E-03    -171.779E-03    -171.389E-03     343.155E-03    -171.766E-03     7.12497E-03    -114.023E+06    -144.656E+06    -339.317E+06    -144.666E+06    -339.307E+06    -114.023E+06     1.18565E+06         49.6230
            1535     3.36993E-03     106.560E-03         2.88532         2.82060        -8.13251         2.75853        -8.04719         2.86207     368.163E-03     342.934E-03    -171.119E-03    -171.815E-03    -171.035E-03     342.850E-03    -171.815E-03     12.6881E-03    -91.0563E+06    -134.537E+06    -305.082E+06    -134.568E+06    -305.052E+06    -91.0563E+06     1.97250E+06         50.0169
            1536     4.21298E-03     106.572E-03         2.87087         2.83488        -8.13468         2.79296        -8.06951         2.84762     747.782E-03     342.436E-03    -170.626E-03    -171.810E-03    -170.420E-03     342.230E-03    -171.810E-03     20.1732E-03    -66.0826E+06    -123.178E+06    -261.447E+06    -123.247E+06    -261.378E+06    -66.0826E+06     2.95293E+06         50.5035
            1537     5.05689E-03     106.594E-03         2.87293         2.83319        -8.14350         2.81371        -8.09701         2.84592     551.182E-03     342.165E-03    -170.394E-03    -171.771E-03    -169.991E-03     341.762E-03    -171.771E-03     28.4053E-03    -41.5904E+06    -111.672E+06    -215.032E+06    -111.822E+06    -214.882E+06    -41.5904E+06     3.54772E+06         51.0644
            1538     5.89941E-03     106.627E-03         2.87653         2.81963        -8.15520         2.80182        -8.11038         2.84952     602.763E-03     342.012E-03    -170.282E-03    -171.730E-03    -169.559E-03     341.289E-03    -171.730E-03     38.0797E-03    -18.8552E+06    -100.781E+06    -172.091E+06    -101.127E+06    -171.746E+06    -18.8552E+06     4.37072E+06         51.6752
            1539     6.74244E-03     106.678E-03         2.85314         2.75796        -8.09231         2.75238        -8.08673         2.85314    -224.337E-03     341.855E-03    -170.186E-03    -171.670E-03    -169.027E-03     340.696E-03    -171.670E-03     48.4150E-03     3.42248E+06    -88.4263E+06    -124.417E+06    -89.6273E+06    -123.216E+06     3.42248E+06     5.05060E+06         52.3099
            1540     7.58674E-03     106.738E-03         2.85538         2.71567        -8.06489         2.70665        -8.05587         2.85538     533.849E-03     342.375E-03    -170.765E-03    -171.610E-03    -169.068E-03     340.678E-03    -171.610E-03     58.6859E-03     25.8888E+06    -56.3862E+06    -85.5684E+06    -78.0032E+06    -63.9515E+06     25.8888E+06     6.30658E+06         52.9494
            1541     8.42973E-03     106.815E-03         2.85824         2.68965        -8.04541         2.68112        -8.03688         2.85824     402.113E-03     343.040E-03    -171.316E-03    -171.723E-03    -169.140E-03     340.716E-03    -171.576E-03     68.8286E-03     48.3668E+06     5.84166E+06    -68.1769E+06    -67.1905E+06     4.85529E+06     48.3668E+06     7.72405E+06         53.5966
            1542     9.27248E-03     106.904E-03         2.86257         2.66252        -8.02815         2.65232        -8.01795         2.86257     440.297E-03     343.369E-03    -171.448E-03    -171.921E-03    -168.815E-03     340.364E-03    -171.549E-03     78.3245E-03     63.6737E+06     46.7031E+06    -57.3967E+06    -56.8243E+06     46.1307E+06     63.6737E+06     7.64971E+06         54.3010
            1543     10.1165E-03     107.005E-03         2.86653         2.60415        -7.99499         2.59113        -7.98198         2.86653     220.876E-03     343.885E-03    -171.517E-03    -172.368E-03    -168.683E-03     340.201E-03    -171.517E-03     86.8295E-03     71.3619E+06     52.3011E+06    -47.6122E+06    -47.2060E+06     51.8948E+06     71.3619E+06     6.24573E+06         55.1950
            1544     10.9609E-03     107.118E-03         2.86703         2.49069        -7.91706         2.48783        -7.91420         2.86703    -247.253E-03     344.929E-03    -171.517E-03    -173.412E-03    -169.191E-03     340.708E-03    -171.517E-03     93.1400E-03     81.4109E+06     55.3272E+06    -39.1497E+06    -38.8934E+06     55.0710E+06     81.4109E+06     4.82739E+06         56.5347
            1545     11.8033E-03     107.237E-03         2.86313         2.37371        -7.83449         2.36920        -7.82998         2.86313     298.880E-03     346.801E-03    -171.556E-03    -175.245E-03    -169.996E-03     341.552E-03    -171.556E-03     103.863E-03     91.9551E+06     61.2624E+06    -31.1128E+06    -30.9349E+06     61.0845E+06     91.9551E+06     3.89153E+06         58.6967
            1546     12.6454E-03     107.380E-03         2.85459         2.26367        -7.74666         2.25554        -7.73853         2.85459     34.5316E-03     346.648E-03    -171.565E-03    -175.083E-03    -169.660E-03     341.225E-03    -171.565E-03     105.650E-03     95.6976E+06     66.8572E+06    -21.9440E+06    -21.8249E+06     66.7381E+06     95.6976E+06     3.16978E+06         62.0116
            1547     13.4905E-03     107.509E-03         2.84450         2.15891        -7.65207         2.14073        -7.63389         2.84450     263.738E-03     351.026E-03    -171.519E-03    -179.507E-03    -170.115E-03     341.633E-03    -171.519E-03     135.578E-03     99.7493E+06     76.3729E+06    -13.3589E+06    -13.2933E+06     76.3073E+06     99.7493E+06     2.19694E+06         66.3247
            1548     14.3379E-03     107.733E-03         2.83138         2.04025        -7.54200         2.01473        -7.51648         2.83138     76.5587E-03     350.979E-03    -171.507E-03    -179.472E-03    -170.971E-03     342.478E-03    -171.507E-03     125.317E-03     116.377E+06     92.2652E+06    -6.61067E+06    -6.59619E+06     92.2507E+06     116.377E+06     921.896E+03         70.5467
            1549     842.285E-06     107.957E-03         4.18607         2.99511        -9.51102         2.41236        -8.92827         4.18607        -2.58307     343.306E-03    -170.654E-03    -172.651E-03    -172.098E-03     343.304E-03    -171.206E-03     1.51487E-03    -156.173E+06    -160.541E+06    -375.492E+06    -160.048E+06    -375.469E+06    -156.689E+06     -837.37E+03         49.1392
            1550     1.68521E-03     107.958E-03         3.29581         3.26026        -8.91503         3.23062        -8.87589         3.28631         1.06945     343.210E-03    -171.374E-03    -171.836E-03    -171.473E-03     343.201E-03    -171.729E-03     3.79056E-03    -139.199E+06    -153.641E+06    -364.327E+06    -153.649E+06    -364.319E+06    -139.199E+06     208.870E+03         49.3188
            1551     2.52708E-03     107.960E-03         3.27482         3.23787        -8.89927         3.21752        -8.86942         3.26532    -656.717E-03     343.021E-03    -171.234E-03    -171.786E-03    -171.217E-03     342.990E-03    -171.774E-03     7.58713E-03    -114.389E+06    -144.487E+06    -341.669E+06    -144.499E+06    -341.657E+06    -114.389E+06     1.42580E+06         49.6082
            1552     3.37075E-03     107.967E-03         3.28148         3.23083        -8.90648         3.17870        -8.82326         3.25040     342.741E-03     342.344E-03    -170.601E-03    -171.742E-03    -170.519E-03     342.262E-03    -171.742E-03     12.5982E-03    -90.5621E+06    -134.512E+06    -307.768E+06    -134.543E+06    -307.736E+06    -90.5621E+06     2.13963E+06         50.0040
            1553     4.21441E-03     107.979E-03         3.27114         3.21770        -8.88626         3.18691        -8.82438         3.24006     767.870E-03     342.060E-03    -170.390E-03    -171.670E-03    -170.194E-03     341.864E-03    -171.670E-03     19.6288E-03    -66.2819E+06    -123.368E+06    -264.373E+06    -123.455E+06    -264.286E+06    -66.2819E+06     3.27713E+06         50.4949
            1554     5.05689E-03     108.002E-03         3.24729         3.20715        -8.85896         3.17509        -8.81585         3.23624     548.733E-03     342.486E-03    -170.817E-03    -171.668E-03    -170.416E-03     342.084E-03    -171.668E-03     28.3113E-03    -41.4961E+06    -112.237E+06    -217.634E+06    -112.457E+06    -217.414E+06    -41.4961E+06     4.57060E+06         51.0606
            1555     5.89918E-03     108.037E-03         3.24493         3.16657        -8.83250         3.13745        -8.79234         3.23388     658.872E-03     342.580E-03    -170.863E-03    -171.717E-03    -170.152E-03     341.869E-03    -171.717E-03     37.8659E-03    -18.3939E+06    -101.013E+06    -174.292E+06    -101.426E+06    -173.879E+06    -18.3939E+06     5.21185E+06         51.6741
            1556     6.74292E-03     108.083E-03         3.22958         3.06856        -8.73750         3.06420        -8.73314         3.22958    -138.740E-03     342.292E-03    -170.570E-03    -171.721E-03    -169.411E-03     341.133E-03    -171.721E-03     48.3735E-03     3.14371E+06    -89.0559E+06    -128.016E+06    -90.6901E+06    -126.382E+06     3.14371E+06     5.96563E+06         52.3083
            1557     7.58593E-03     108.148E-03         3.22291         3.00469        -8.67582         2.99567        -8.66680         3.22291     577.420E-03     342.376E-03    -170.704E-03    -171.672E-03    -168.984E-03     340.657E-03    -171.672E-03     59.0856E-03     24.5622E+06    -59.2743E+06    -88.9837E+06    -80.0837E+06    -68.1743E+06     24.5622E+06     7.17699E+06         52.9449
            1558     8.42888E-03     108.223E-03         3.21565         2.94728        -8.61261         2.93915        -8.60448         3.21565     421.999E-03     342.608E-03    -171.007E-03    -171.601E-03    -168.667E-03     340.268E-03    -171.601E-03     69.0046E-03     47.1033E+06     3.30499E+06    -69.4719E+06    -68.3824E+06     2.21549E+06     47.1033E+06     7.98095E+06         53.5876
            1559     9.27346E-03     108.312E-03         3.20813         2.88215        -8.54161         2.87214        -8.53160         3.20813     463.987E-03     343.160E-03    -171.317E-03    -171.843E-03    -168.614E-03     340.154E-03    -171.540E-03     78.3249E-03     63.5199E+06     46.1648E+06    -57.2551E+06    -56.6419E+06     45.5517E+06     63.5199E+06     7.91887E+06         54.2855
            1560     10.1166E-03     108.413E-03         3.19895         2.79114        -8.45329         2.77898        -8.44112         3.19895     258.681E-03     344.199E-03    -171.518E-03    -172.681E-03    -169.013E-03     340.531E-03    -171.518E-03     86.6957E-03     72.4159E+06     52.8931E+06    -47.2531E+06    -46.6485E+06     52.2885E+06     72.4159E+06     7.66379E+06         55.1678
            1561     10.9595E-03     108.525E-03         3.18560         2.64737        -8.32254         2.64505        -8.32021         3.18560    -169.434E-03     344.831E-03    -171.528E-03    -173.303E-03    -169.099E-03     340.627E-03    -171.528E-03     92.9352E-03     83.2700E+06     58.0512E+06    -38.3401E+06    -37.8470E+06     57.5582E+06     83.2700E+06     6.71700E+06         56.4893
            1562     11.8039E-03     108.647E-03         3.16670         2.48703        -8.17407         2.48243        -8.16947         3.16670     353.164E-03     346.209E-03    -171.536E-03    -174.674E-03    -169.291E-03     340.826E-03    -171.536E-03     104.940E-03     93.9240E+06     63.0719E+06    -29.1149E+06    -28.8974E+06     62.8544E+06     93.9240E+06     4.24468E+06         58.6371
            1563     12.6471E-03     108.791E-03         3.14115         2.31799        -8.00348         2.31108        -7.99658         3.14115     83.4816E-03     346.139E-03    -171.501E-03    -174.638E-03    -169.103E-03     340.603E-03    -171.501E-03     106.526E-03     97.3936E+06     67.5513E+06    -20.5928E+06    -20.5164E+06     67.4749E+06     97.3936E+06     2.50346E+06         61.9643
            1564     13.4928E-03     108.911E-03         3.11199         2.16128        -7.83109         2.14596        -7.81577         3.11199     280.617E-03     351.233E-03    -171.453E-03    -179.780E-03    -170.495E-03     341.948E-03    -171.453E-03     134.912E-03     101.047E+06     77.2865E+06    -13.2318E+06    -13.1896E+06     77.2444E+06     101.047E+06     1.84154E+06         66.3314
            1565     14.3374E-03     109.142E-03         3.07932         2.00419        -7.65229         1.98210        -7.63020         3.07932     84.9366E-03     351.919E-03    -171.492E-03    -180.427E-03    -172.036E-03     343.528E-03    -171.492E-03     124.668E-03     117.750E+06     94.0056E+06    -6.63602E+06    -6.59915E+06     93.9688E+06     117.750E+06     1.81410E+06         70.6289
            1566     841.749E-06     109.366E-03         4.34095         3.20120        -9.82105         3.00411        -9.62396         4.34095        -1.62246     343.455E-03    -170.931E-03    -172.524E-03    -172.283E-03     343.454E-03    -171.171E-03     1.10642E-03    -155.228E+06    -161.050E+06    -375.234E+06    -160.135E+06    -375.222E+06    -156.154E+06     245.820E+03         49.1223
            1567     1.68489E-03     109.365E-03         3.68104         3.61649        -9.59414         3.61643        -9.57538         3.66234     849.880E-03     342.873E-03    -171.144E-03    -171.729E-03    -171.137E-03     342.863E-03    -171.726E-03     4.24912E-03    -139.426E+06    -155.260E+06    -365.555E+06    -155.271E+06    -365.544E+06    -139.426E+06     73.2370E+03         49.3020
            1568     2.52860E-03     109.369E-03         3.66575         3.64177        -9.63272         3.61882        -9.59107         3.64706    -436.669E-03     342.594E-03    -170.938E-03    -171.656E-03    -170.908E-03     342.564E-03    -171.656E-03     7.67750E-03    -115.698E+06    -145.860E+06    -345.129E+06    -145.876E+06    -345.113E+06    -115.698E+06     1.11435E+06         49.5933
            1569     3.37073E-03     109.373E-03         3.67119         3.63152        -9.63828         3.57705        -9.54943         3.63681     305.352E-03     342.474E-03    -170.833E-03    -171.641E-03    -170.756E-03     342.397E-03    -171.641E-03     12.2290E-03    -90.2697E+06    -134.795E+06    -310.741E+06    -134.838E+06    -310.697E+06    -90.2697E+06     2.57950E+06         49.9924
            1570     4.21388E-03     109.386E-03         3.66133         3.59364        -9.59028         3.56450        -9.52676         3.62696     803.416E-03     342.419E-03    -170.766E-03    -171.652E-03    -170.575E-03     342.227E-03    -171.652E-03     19.3828E-03    -66.3194E+06    -124.313E+06    -267.646E+06    -124.416E+06    -267.542E+06    -66.3194E+06     3.70977E+06         50.4864
            1571     5.05713E-03     109.411E-03         3.61856         3.55834        -9.51577         3.51490        -9.47233         3.61856     553.157E-03     342.424E-03    -170.743E-03    -171.682E-03    -170.350E-03     342.032E-03    -171.682E-03     28.0135E-03    -41.9509E+06    -112.669E+06    -221.431E+06    -112.964E+06    -221.136E+06    -41.9509E+06     5.22559E+06         51.0545
            1572     5.90021E-03     109.445E-03         3.60714         3.47728        -9.43691         3.43835        -9.39798         3.60714     732.153E-03     342.592E-03    -170.866E-03    -171.725E-03    -170.169E-03     341.895E-03    -171.725E-03     37.4762E-03    -18.5187E+06    -101.340E+06    -177.841E+06    -101.995E+06    -177.186E+06    -18.5187E+06     6.72193E+06         51.6698
            1573     6.74179E-03     109.492E-03         3.59139         3.34089        -9.29980         3.33700        -9.29591         3.59139    -46.1137E-03     342.618E-03    -170.869E-03    -171.749E-03    -169.716E-03     341.465E-03    -171.749E-03     48.2541E-03     3.14951E+06    -89.1346E+06    -131.418E+06    -91.1242E+06    -129.429E+06     3.14951E+06     7.52658E+06         52.3043
            1574     7.58511E-03     109.555E-03         3.57214         3.24777        -9.19606         3.23821        -9.18649         3.57214     641.471E-03     342.239E-03    -170.536E-03    -171.703E-03    -168.793E-03     340.496E-03    -171.703E-03     59.4473E-03     24.5821E+06    -60.1092E+06    -90.3551E+06    -79.7042E+06    -70.7601E+06     24.5821E+06     7.72870E+06         52.9391
            1575     8.42989E-03     109.631E-03         3.55152         3.16195        -9.08558         3.15394        -9.07757         3.55152     454.449E-03     342.311E-03    -170.711E-03    -171.600E-03    -168.342E-03     339.942E-03    -171.600E-03     69.4188E-03     46.8520E+06     1.32890E+06    -69.6904E+06    -68.5523E+06     190.768E+03     46.8520E+06     7.90962E+06         53.5787
            1576     9.27288E-03     109.720E-03         3.53026         3.07221        -8.96932         3.06210        -8.95920         3.53026     500.979E-03     343.186E-03    -171.281E-03    -171.905E-03    -168.628E-03     340.151E-03    -171.523E-03     78.6933E-03     63.1381E+06     44.9130E+06    -58.5355E+06    -57.9042E+06     44.2817E+06     63.1381E+06     8.03453E+06         54.2707
            1577     10.1167E-03     109.822E-03         3.50670         2.94562        -8.82561         2.93409        -8.81408         3.50670     309.743E-03     344.369E-03    -171.503E-03    -172.865E-03    -169.138E-03     340.641E-03    -171.503E-03     87.4144E-03     71.4647E+06     51.9082E+06    -48.4799E+06    -47.8233E+06     51.2516E+06     71.4647E+06     8.02929E+06         55.1416
            1578     10.9598E-03     109.935E-03         3.47741         2.75528        -8.62506         2.75331        -8.62309         3.47741    -72.8604E-03     344.580E-03    -171.507E-03    -173.073E-03    -168.854E-03     340.361E-03    -171.507E-03     93.0673E-03     83.3814E+06     60.3144E+06    -38.3911E+06    -37.8625E+06     59.7858E+06     83.3814E+06     7.05965E+06         56.4463
            1579     11.8039E-03     110.052E-03         3.44063         2.54647        -8.40095         2.54136        -8.39583         3.44063     420.988E-03     345.291E-03    -171.483E-03    -173.808E-03    -168.422E-03     339.905E-03    -171.483E-03     104.745E-03     95.4800E+06     66.4581E+06    -29.1642E+06    -28.9033E+06     66.1971E+06     95.4800E+06     4.90161E+06         58.5822
            1580     12.6507E-03     110.199E-03         3.39611         2.33723        -8.16285         2.33106        -8.15668         3.39611     131.673E-03     345.900E-03    -171.428E-03    -174.472E-03    -169.061E-03     340.489E-03    -171.428E-03     105.127E-03     98.8951E+06     68.8224E+06    -21.8055E+06    -21.7092E+06     68.7260E+06     98.8951E+06     2.76351E+06         61.9218
            1581     13.4930E-03     110.319E-03         3.34715         2.14012        -7.92286         2.12748        -7.91022         3.34715     284.433E-03     352.822E-03    -171.438E-03    -181.384E-03    -172.200E-03     343.637E-03    -171.438E-03     134.103E-03     101.688E+06     77.4249E+06    -15.2449E+06    -15.1719E+06     77.3520E+06     101.688E+06     2.28772E+06         66.3373
            1582     14.3345E-03     110.552E-03         3.29389         1.94087        -7.67260         1.92190        -7.65362         3.29389     80.3295E-03     352.439E-03    -171.537E-03    -180.902E-03    -172.465E-03     344.002E-03    -171.537E-03     125.203E-03     118.218E+06     95.8093E+06    -7.76088E+06    -7.68296E+06     95.7314E+06     118.218E+06     2.29268E+06         70.7053
            1583     843.524E-06     110.774E-03         4.49783         3.66187        -10.3448         3.62618        -10.3091         4.49783    -679.902E-03     342.922E-03    -171.347E-03    -171.575E-03    -171.504E-03     342.920E-03    -171.416E-03     1.59903E-03    -155.126E+06    -162.275E+06    -376.392E+06    -161.358E+06    -376.383E+06    -156.052E+06     683.940E+03         49.1009
            1584     1.68533E-03     110.773E-03         4.06727         3.98749        -10.2729         3.98004        -10.2438         4.04571     537.664E-03     342.930E-03    -171.212E-03    -171.718E-03    -171.364E-03     342.923E-03    -171.559E-03     3.59264E-03    -139.696E+06    -155.661E+06    -366.292E+06    -155.678E+06    -366.275E+06    -139.696E+06     854.603E+03         49.2834
            1585     2.52804E-03     110.775E-03         4.04173         4.00349        -10.2866         3.96099        -10.2226         4.02017    -269.542E-03     342.425E-03    -170.841E-03    -171.584E-03    -170.812E-03     342.396E-03    -171.584E-03     7.19540E-03    -116.916E+06    -147.617E+06    -348.210E+06    -147.645E+06    -348.183E+06    -116.916E+06     1.68522E+06         49.5778
            1586     3.37181E-03     110.782E-03         4.01865         3.98349        -10.2496         3.90425        -10.1519         4.00016     195.256E-03     342.746E-03    -171.130E-03    -171.616E-03    -171.056E-03     342.668E-03    -171.612E-03     12.4054E-03    -91.2767E+06    -136.901E+06    -315.114E+06    -136.958E+06    -315.058E+06    -91.2767E+06     2.96425E+06         49.9798
            1587     4.21361E-03     110.795E-03         4.00053         3.93308        -10.1782         3.88618        -10.1128         3.98204     780.514E-03     342.852E-03    -171.147E-03    -171.705E-03    -170.961E-03     342.661E-03    -171.700E-03     19.3641E-03    -66.4409E+06    -125.245E+06    -270.890E+06    -125.388E+06    -270.747E+06    -66.4409E+06     4.32677E+06         50.4755
            1588     5.05594E-03     110.819E-03         3.96609         3.86602        -10.0762         3.82264        -10.0328         3.96609     492.987E-03     342.357E-03    -170.611E-03    -171.747E-03    -170.215E-03     341.961E-03    -171.747E-03     28.1126E-03    -42.8666E+06    -114.161E+06    -226.120E+06    -114.494E+06    -225.787E+06    -42.8666E+06     5.74813E+06         51.0439
            1589     5.89898E-03     110.853E-03         3.94605         3.75788        -9.96003         3.72090        -9.92305         3.94605     738.875E-03     342.188E-03    -170.450E-03    -171.739E-03    -169.730E-03     341.469E-03    -171.739E-03     37.9930E-03    -19.3963E+06    -101.657E+06    -182.038E+06    -102.370E+06    -181.326E+06    -19.3963E+06     7.17155E+06         51.6600
            1590     6.74277E-03     110.902E-03         3.91941         3.58662        -9.77593         3.58250        -9.77181         3.91941    -15.7859E-03     342.199E-03    -170.494E-03    -171.705E-03    -169.315E-03     341.021E-03    -171.705E-03     48.8031E-03     3.33818E+06    -88.2947E+06    -133.460E+06    -90.2580E+06    -131.497E+06     3.33818E+06     7.97134E+06         52.2964
            1591     7.58606E-03     110.961E-03         3.88685         3.45472        -9.61636         3.44566        -9.60730         3.88685     654.318E-03     342.285E-03    -170.638E-03    -171.646E-03    -168.863E-03     340.509E-03    -171.646E-03     59.9713E-03     25.3029E+06    -60.9223E+06    -91.2672E+06    -78.9588E+06    -73.2307E+06     25.3029E+06     8.59695E+06         52.9331
            1592     8.42928E-03     111.039E-03         3.85149         3.33608        -9.45433         3.32895        -9.44720         3.85149     436.593E-03     342.528E-03    -170.966E-03    -171.563E-03    -168.555E-03     340.118E-03    -171.563E-03     70.0573E-03     47.5512E+06    -449.749E+03    -70.4300E+06    -68.5989E+06    -2.28083E+06     47.5512E+06     9.68705E+06         53.5718
            1593     9.27387E-03     111.128E-03         3.81481         3.21746        -9.28563         3.20804        -9.27621         3.81481     490.451E-03     343.256E-03    -171.315E-03    -171.941E-03    -168.689E-03     340.184E-03    -171.495E-03     79.1850E-03     63.0321E+06     44.7537E+06    -59.9389E+06    -58.9817E+06     43.7965E+06     63.0321E+06     9.87899E+06         54.2583
            1594     10.1170E-03     111.231E-03         3.77478         3.05183        -9.07744         3.04122        -9.06684         3.77478     313.092E-03     343.964E-03    -171.459E-03    -172.505E-03    -168.756E-03     340.215E-03    -171.459E-03     87.6032E-03     70.6954E+06     52.5630E+06    -49.9527E+06    -49.2788E+06     51.8890E+06     70.6954E+06     8.18683E+06         55.1183
            1595     10.9609E-03     111.343E-03         3.72740         2.81650        -8.80732         2.81440        -8.80521         3.72740    -24.9489E-03     344.276E-03    -171.448E-03    -172.828E-03    -168.634E-03     340.082E-03    -171.448E-03     92.7464E-03     83.5204E+06     61.2012E+06    -39.7505E+06    -39.3423E+06     60.7929E+06     83.5204E+06     6.38067E+06         56.4081
            1596     11.8055E-03     111.458E-03         3.67131         2.56937        -8.52230         2.56429        -8.51722         3.67131     443.295E-03     345.779E-03    -171.450E-03    -174.329E-03    -169.037E-03     340.487E-03    -171.450E-03     103.968E-03     97.1617E+06     69.3321E+06    -30.3530E+06    -30.0565E+06     69.0356E+06     97.1617E+06     5.40032E+06         58.5295
            1597     12.6478E-03     111.605E-03         3.60730         2.32627        -8.22481         2.32098        -8.21952         3.60730     149.020E-03     346.563E-03    -171.442E-03    -175.121E-03    -169.730E-03     341.172E-03    -171.442E-03     105.155E-03     100.455E+06     71.2755E+06    -22.3462E+06    -22.1646E+06     71.0939E+06     100.455E+06     3.92656E+06         61.8712
            1598     13.4923E-03     111.729E-03         3.53827         2.09529        -7.91799         2.08495        -7.90765         3.53827     272.411E-03     352.792E-03    -171.466E-03    -181.326E-03    -172.029E-03     343.495E-03    -171.466E-03     134.949E-03     102.768E+06     78.1052E+06    -14.9322E+06    -14.8091E+06     77.9822E+06     102.768E+06     3.19184E+06         66.3305
            1599     14.3351E-03     111.964E-03         3.46416         1.85830        -7.59643         1.84233        -7.58046         3.46416     72.1995E-03     351.451E-03    -171.525E-03    -179.926E-03    -171.441E-03     342.965E-03    -171.525E-03     125.194E-03     119.106E+06     97.6095E+06    -7.59160E+06    -7.52298E+06     97.5408E+06     119.106E+06     1.97655E+06         70.7752
            1600     842.703E-06     112.180E-03         4.63767         4.22554        -10.9325         4.27409        -10.8761         4.53272     141.222E-03     342.363E-03    -170.814E-03    -171.548E-03    -171.328E-03     342.359E-03    -171.031E-03     2.06959E-03    -156.382E+06    -164.483E+06    -379.212E+06    -162.981E+06    -379.184E+06    -157.912E+06     1.19763E+06         49.0750
            1601     1.68526E-03     112.182E-03         4.39411         4.34044        -10.8359         4.29459        -10.7777         4.38174     286.716E-03     342.687E-03    -171.054E-03    -171.633E-03    -171.345E-03     342.679E-03    -171.334E-03     4.00830E-03    -140.480E+06    -156.795E+06    -368.378E+06    -156.829E+06    -368.345E+06    -140.480E+06     1.56240E+06         49.2607
            1602     2.52830E-03     112.180E-03         4.35555         4.31169        -10.7989         4.23916        -10.7140         4.34319    -128.614E-03     342.814E-03    -171.155E-03    -171.659E-03    -171.277E-03     342.782E-03    -171.505E-03     7.56561E-03    -116.907E+06    -147.475E+06    -351.097E+06    -147.514E+06    -351.058E+06    -116.907E+06     2.10559E+06         49.5579
            1603     3.37081E-03     112.190E-03         4.31093         4.26672        -10.7184         4.16668        -10.6170         4.30958     73.9358E-03     342.635E-03    -171.012E-03    -171.623E-03    -170.936E-03     342.545E-03    -171.609E-03     13.2295E-03    -91.7526E+06    -137.434E+06    -319.025E+06    -137.527E+06    -318.932E+06    -91.7526E+06     3.82079E+06         49.9618
            1604     4.21330E-03     112.204E-03         4.28153         4.19823        -10.6147         4.13613        -10.5512         4.28018     733.836E-03     342.596E-03    -170.930E-03    -171.666E-03    -170.725E-03     342.387E-03    -171.662E-03     20.2618E-03    -67.1601E+06    -125.913E+06    -274.800E+06    -126.087E+06    -274.625E+06    -67.1601E+06     4.97877E+06         50.4593
            1605     5.05660E-03     112.226E-03         4.25467         4.10995        -10.4977         4.06850        -10.4563         4.25467     429.087E-03     342.386E-03    -170.688E-03    -171.698E-03    -170.268E-03     341.966E-03    -171.698E-03     28.9833E-03    -42.7992E+06    -113.463E+06    -229.777E+06    -113.801E+06    -229.439E+06    -42.7992E+06     5.97139E+06         51.0301
            1606     5.89994E-03     112.261E-03         4.22583         3.98559        -10.3522         3.95192        -10.3185         4.22583     732.070E-03     341.787E-03    -170.114E-03    -171.673E-03    -169.379E-03     341.052E-03    -171.673E-03     38.4368E-03    -20.1125E+06    -101.685E+06    -185.555E+06    -102.312E+06    -184.928E+06    -20.1125E+06     6.93746E+06         51.6489
            1607     6.74354E-03     112.308E-03         4.18913         3.78835        -10.1273         3.78460        -10.1236         4.18913     436.597E-06     341.735E-03    -170.133E-03    -171.602E-03    -168.942E-03     340.544E-03    -171.602E-03     49.0071E-03     2.52339E+06    -88.7873E+06    -136.907E+06    -90.7729E+06    -134.921E+06     2.52339E+06     8.08424E+06         52.2891
            1608     7.58737E-03     112.370E-03         4.14472         3.62700        -9.92248         3.61931        -9.91479         4.14472     621.142E-03     342.412E-03    -170.864E-03    -171.547E-03    -169.096E-03     340.643E-03    -171.547E-03     59.9191E-03     24.9341E+06    -62.6686E+06    -94.4087E+06    -79.9654E+06    -77.1119E+06     24.9341E+06     9.86227E+06         52.9293
            1609     8.43076E-03     112.446E-03         4.09598         3.47556        -9.71104         3.46977        -9.70525         4.09598     384.277E-03     343.039E-03    -171.326E-03    -171.713E-03    -169.133E-03     340.648E-03    -171.515E-03     69.8369E-03     47.3278E+06    -3.49525E+06    -71.7833E+06    -69.2390E+06    -6.03949E+06     47.3278E+06     11.2740E+06         53.5678
            1610     9.27354E-03     112.536E-03         4.04367         3.30667        -9.47411         3.29805        -9.46549         4.04367     456.661E-03     343.234E-03    -171.328E-03    -171.906E-03    -168.727E-03     340.208E-03    -171.482E-03     78.6014E-03     64.1813E+06     45.1721E+06    -59.3753E+06    -58.0944E+06     43.8912E+06     64.1813E+06     11.4722E+06         54.2481
            1611     10.1173E-03     112.639E-03         3.98572         3.09698        -9.19700         3.08731        -9.18732         3.98572     306.374E-03     343.379E-03    -171.341E-03    -172.038E-03    -168.264E-03     339.699E-03    -171.435E-03     86.6945E-03     73.7966E+06     57.1903E+06    -49.0029E+06    -48.0996E+06     56.2870E+06     73.7966E+06     9.60568E+06         55.0964
            1612     10.9621E-03     112.749E-03         3.91978         2.83704        -8.87249         2.83468        -8.87013         3.91978     12.8402E-03     344.367E-03    -171.414E-03    -172.953E-03    -168.772E-03     340.186E-03    -171.414E-03     92.6249E-03     85.5318E+06     63.1000E+06    -40.1152E+06    -39.6334E+06     62.6182E+06     85.5318E+06     6.92909E+06         56.3692
            1613     11.8045E-03     112.869E-03         3.84539         2.56776        -8.53487         2.56287        -8.52999         3.84539     449.637E-03     346.423E-03    -171.444E-03    -174.979E-03    -169.741E-03     341.185E-03    -171.444E-03     103.621E-03     97.5282E+06     69.4624E+06    -31.5140E+06    -31.2208E+06     69.1693E+06     97.5282E+06     5.39716E+06         58.4714
            1614     12.6491E-03     113.012E-03         3.76315         2.29447        -8.17959         2.29024        -8.17536         3.76315     164.021E-03     346.870E-03    -171.467E-03    -175.403E-03    -169.943E-03     341.409E-03    -171.467E-03     106.055E-03     101.336E+06     73.1563E+06    -22.4487E+06    -22.2290E+06     72.9366E+06     101.336E+06     4.55043E+06         61.8107
            1615     13.4911E-03     113.141E-03         3.67487         2.02652        -7.81145         2.01831        -7.80325         3.67487     264.894E-03     351.593E-03    -171.455E-03    -180.138E-03    -170.763E-03     342.219E-03    -171.455E-03     135.637E-03     103.300E+06     79.3963E+06    -14.9177E+06    -14.7969E+06     79.2755E+06     103.300E+06     3.20336E+06         66.3174
            1616     14.3374E-03     113.367E-03         3.58071         1.75307        -7.42437         1.74008        -7.41139         3.58071     69.5055E-03     350.739E-03    -171.462E-03    -179.277E-03    -170.824E-03     342.285E-03    -171.462E-03     124.881E-03     119.744E+06     99.5826E+06    -8.00372E+06    -7.97529E+06     99.5542E+06     119.744E+06     1.47048E+06         70.8474
            1617     842.954E-06     113.587E-03         4.95119         4.45205        -11.3562         4.84503        -11.2624         4.46443     544.185E-03     342.091E-03    -170.456E-03    -171.634E-03    -170.815E-03     342.088E-03    -171.273E-03     1.30349E-03    -158.822E+06    -164.922E+06    -382.213E+06    -163.421E+06    -382.185E+06    -160.352E+06     601.330E+03         49.0478
            1618     1.68738E-03     113.587E-03         4.64140         4.61996        -11.2412         4.55712        -11.1724         4.63554     201.161E-03     342.098E-03    -170.814E-03    -171.284E-03    -170.948E-03     342.088E-03    -171.140E-03     4.12209E-03    -142.829E+06    -158.094E+06    -371.430E+06    -158.163E+06    -371.362E+06    -142.829E+06     1.90855E+06         49.2335
            1619     2.52884E-03     113.591E-03         4.59551         4.55440        -11.1542         4.46981        -11.0696         4.59551    -23.4680E-03     342.596E-03    -171.144E-03    -171.452E-03    -171.262E-03     342.560E-03    -171.298E-03     8.17590E-03     -118.27E+06    -149.170E+06    -354.318E+06    -149.240E+06    -354.248E+06     -118.27E+06     2.82575E+06         49.5316
            1620     3.37104E-03     113.596E-03         4.55370         4.46955        -11.0411         4.37706        -10.9486         4.55370     64.3496E-03     342.390E-03    -170.938E-03    -171.453E-03    -170.847E-03     342.289E-03    -171.442E-03     13.9918E-03    -92.9867E+06    -138.005E+06    -322.434E+06    -138.086E+06    -322.353E+06    -92.9867E+06     3.57185E+06         49.9373
            1621     4.21554E-03     113.611E-03         4.51338         4.36686        -10.8929         4.30889        -10.8350         4.51338     702.732E-03     342.208E-03    -170.713E-03    -171.495E-03    -170.493E-03     341.987E-03    -171.495E-03     20.9476E-03    -68.8436E+06    -126.501E+06    -278.321E+06    -126.671E+06    -278.151E+06    -68.8436E+06     4.83591E+06         50.4383
            1622     5.05741E-03     113.635E-03         4.47519         4.26069        -10.7433         4.22353        -10.7062         4.47519     392.560E-03     342.161E-03    -170.627E-03    -171.534E-03    -170.212E-03     341.745E-03    -171.534E-03     28.8361E-03    -44.6327E+06    -114.873E+06    -234.071E+06    -115.233E+06    -233.712E+06    -44.6327E+06     6.24364E+06         51.0145
            1623     5.90031E-03     113.668E-03         4.43462         4.12899        -10.5717         4.09953        -10.5423         4.43462     719.686E-03     341.880E-03    -170.332E-03    -171.548E-03    -169.609E-03     341.157E-03    -171.548E-03     38.1197E-03    -20.7689E+06    -102.817E+06    -188.401E+06    -103.522E+06    -187.696E+06    -20.7689E+06     7.35816E+06         51.6393
            1624     6.74441E-03     113.715E-03         4.38776         3.93443        -10.3349         3.93111        -10.3316         4.38776     42.6259E-03     341.969E-03    -170.441E-03    -171.528E-03    -169.262E-03     340.791E-03    -171.528E-03     48.7649E-03     1.42326E+06    -90.3135E+06    -141.276E+06    -92.2101E+06    -139.379E+06     1.42326E+06     8.53759E+06         52.2843
            1625     7.58747E-03     113.778E-03         4.33329         3.74889        -10.0930         3.74127        -10.0854         4.33329     627.859E-03     342.615E-03    -171.032E-03    -171.583E-03    -169.356E-03     340.870E-03    -171.513E-03     59.5773E-03     23.2305E+06    -64.6996E+06    -98.5397E+06    -81.1776E+06    -82.0617E+06     23.2305E+06     10.1698E+06         52.9264
            1626     8.43021E-03     113.855E-03         4.27182         3.54786        -9.81577         3.54224        -9.81015         4.27182     392.875E-03     343.084E-03    -171.312E-03    -171.772E-03    -169.215E-03     340.719E-03    -171.504E-03     69.4449E-03     46.5511E+06    -6.77511E+06    -72.1493E+06    -69.4473E+06    -9.47710E+06     46.5511E+06     11.1980E+06         53.5631
            1627     9.27291E-03     113.946E-03         4.20363         3.33359        -9.51301         3.32529        -9.50471         4.20363     458.350E-03     343.012E-03    -171.232E-03    -171.780E-03    -168.538E-03     340.010E-03    -171.472E-03     78.2653E-03     64.6438E+06     43.2229E+06    -59.3904E+06    -57.9704E+06     41.8029E+06     64.6438E+06     11.9763E+06         54.2372
            1628     10.1178E-03     114.043E-03         4.12838         3.09577        -9.18514         3.08669        -9.17605         4.12838     318.842E-03     343.602E-03    -171.332E-03    -172.269E-03    -168.508E-03     339.935E-03    -171.427E-03     86.5722E-03     75.4180E+06     60.9391E+06    -49.1714E+06    -47.8861E+06     59.6538E+06     75.4180E+06     11.7349E+06         55.0731
            1629     10.9613E-03     114.158E-03         4.04521         2.81518        -8.81553         2.81271        -8.81306         4.04521     56.7495E-03     344.415E-03    -171.416E-03    -172.999E-03    -168.824E-03     340.240E-03    -171.416E-03     92.5677E-03     86.7501E+06     67.2744E+06    -40.5842E+06    -39.7854E+06     66.4755E+06     86.7501E+06     9.02739E+06         56.3254
            1630     11.8053E-03     114.276E-03         3.95367         2.52661        -8.43107         2.52153        -8.42600         3.95367     463.109E-03     346.078E-03    -171.432E-03    -174.645E-03    -169.311E-03     340.743E-03    -171.432E-03     104.409E-03     97.8976E+06     70.1982E+06    -32.1136E+06    -31.7352E+06     69.8198E+06     97.8976E+06     6.05583E+06         58.4066
            1631     12.6472E-03     114.421E-03         3.85432         2.23080        -8.02609         2.22695        -8.02224         3.85432     174.973E-03     346.419E-03    -171.420E-03    -174.999E-03    -169.416E-03     340.835E-03    -171.420E-03     107.085E-03     101.352E+06     73.6245E+06    -23.6569E+06    -23.4232E+06     73.3908E+06     101.352E+06     4.73866E+06         61.7493
            1632     13.4934E-03     114.546E-03         3.74804         1.93262        -7.60084         1.92566        -7.59388         3.74804     251.780E-03     351.443E-03    -171.393E-03    -180.050E-03    -170.726E-03     342.120E-03    -171.393E-03     135.424E-03     104.030E+06     82.2481E+06    -16.1318E+06    -16.0076E+06     82.1239E+06     104.030E+06     3.08249E+06         66.3089
            1633     14.3386E-03     114.772E-03         3.63525         1.62534        -7.15188         1.61429        -7.14083         3.63525     69.8878E-03     351.322E-03    -171.427E-03    -179.894E-03    -171.500E-03     342.928E-03    -171.427E-03     124.726E-03     121.306E+06     103.172E+06    -8.05519E+06    -8.03929E+06     103.157E+06     121.306E+06     958.889E+03         70.9245
            1634     842.910E-06     114.993E-03         5.31408         4.36011        -11.5086         5.25994        -11.4544         4.36011     388.343E-03     342.559E-03    -170.186E-03    -172.373E-03    -171.633E-03     342.558E-03    -170.925E-03     1.20726E-03    -160.940E+06    -165.417E+06    -384.777E+06    -165.433E+06    -384.761E+06    -160.940E+06     849.363E+03         49.0222
            1635     1.68494E-03     114.993E-03         4.81072         4.77507        -11.4394         4.74256        -11.3922         4.79604     327.211E-03     342.025E-03    -170.748E-03    -171.278E-03    -170.740E-03     342.017E-03    -171.278E-03     3.44635E-03    -145.820E+06    -159.612E+06    -374.996E+06    -159.666E+06    -374.942E+06    -145.820E+06     1.67032E+06         49.2058
            1636     2.52982E-03     114.997E-03         4.76073         4.69172        -11.3136         4.62725        -11.2491         4.76073    -15.8384E-03     341.820E-03    -170.583E-03    -171.236E-03    -170.554E-03     341.791E-03    -171.236E-03     7.43689E-03    -121.114E+06    -150.961E+06    -356.748E+06    -151.026E+06    -356.684E+06    -121.114E+06     2.88113E+06         49.5026
            1637     3.37337E-03     115.003E-03         4.71425         4.58635        -11.1753         4.51532        -11.1042         4.71425     68.3333E-03     342.059E-03    -170.780E-03    -171.279E-03    -170.688E-03     341.967E-03    -171.279E-03     13.1345E-03    -94.8779E+06    -140.310E+06    -324.992E+06    -140.372E+06    -324.930E+06    -94.8779E+06     3.19045E+06         49.9094
            1638     4.21433E-03     115.019E-03         4.66570         4.46293        -11.0040         4.41738        -10.9585         4.66570     610.238E-03     341.986E-03    -170.642E-03    -171.344E-03    -170.426E-03     341.770E-03    -171.344E-03     20.7138E-03    -70.4698E+06    -128.471E+06    -282.304E+06    -128.610E+06    -282.165E+06    -70.4698E+06     4.32390E+06         50.4141
            1639     5.05855E-03     115.042E-03         4.61729         4.34483        -10.8333         4.31350        -10.8020         4.61729     372.563E-03     341.717E-03    -170.336E-03    -171.381E-03    -169.927E-03     341.309E-03    -171.381E-03     28.5887E-03    -46.1647E+06    -116.570E+06    -238.359E+06    -116.868E+06    -238.061E+06    -46.1647E+06     5.73838E+06         50.9962
            1640     5.90195E-03     115.076E-03         4.56636         4.19981        -10.6339         4.17514        -10.6092         4.56636     703.508E-03     342.061E-03    -170.648E-03    -171.413E-03    -169.910E-03     341.323E-03    -171.413E-03     38.4493E-03    -22.3290E+06    -104.039E+06    -192.132E+06    -104.779E+06    -191.393E+06    -22.3290E+06     7.53459E+06         51.6277
            1641     6.74372E-03     115.123E-03         4.50904         3.99524        -10.3658         3.99240        -10.3629         4.50904     100.662E-03     342.716E-03    -171.077E-03    -171.639E-03    -170.045E-03     341.522E-03    -171.477E-03     49.2164E-03    -11.9865E+03    -91.2713E+06    -145.137E+06    -93.0807E+06    -143.327E+06    -11.9865E+03     9.01226E+06         52.2770
            1642     7.58709E-03     115.185E-03         4.44248         3.77548        -10.0702         3.76811        -10.0628         4.44248     621.113E-03     342.694E-03    -170.946E-03    -171.748E-03    -169.412E-03     340.929E-03    -171.516E-03     59.8744E-03     22.0000E+06    -66.7976E+06    -100.747E+06    -81.3116E+06    -86.2326E+06     22.0000E+06     9.83431E+06         52.9191
            1643     8.42984E-03     115.265E-03         4.36658         3.54281        -9.74639         3.53753        -9.74112         4.36658     376.060E-03     342.428E-03    -170.883E-03    -171.545E-03    -168.544E-03     340.020E-03    -171.475E-03     70.0037E-03     45.3618E+06    -10.8260E+06    -72.6781E+06    -69.8126E+06    -13.6915E+06     45.3618E+06     11.4027E+06         53.5536
            1644     9.27500E-03     115.350E-03         4.28298         3.30701        -9.40560         3.29979        -9.39838         4.28298     421.070E-03     343.185E-03    -171.204E-03    -171.981E-03    -168.733E-03     340.154E-03    -171.421E-03     78.6849E-03     63.4226E+06     40.2331E+06    -61.4424E+06    -59.7898E+06     38.5805E+06     63.4226E+06     12.7508E+06         54.2234
            1645     10.1177E-03     115.453E-03         4.19233         3.05149        -9.04031         3.04357        -9.03240         4.19233     293.537E-03     344.034E-03    -171.398E-03    -172.636E-03    -168.955E-03     340.354E-03    -171.398E-03     86.8068E-03     73.6917E+06     61.3133E+06    -51.6135E+06    -50.2496E+06     59.9494E+06     73.6917E+06     12.2663E+06         55.0483
            1646     10.9604E-03     115.565E-03         4.09377         2.75253        -8.62813         2.75017        -8.62578         4.09377     61.2334E-03     344.060E-03    -171.392E-03    -172.668E-03    -168.437E-03     339.829E-03    -171.392E-03     93.0968E-03     86.5558E+06     71.3161E+06    -40.8008E+06    -39.8659E+06     70.3812E+06     86.5558E+06     10.1028E+06         56.2808
            1647     11.8055E-03     115.682E-03         3.98655         2.44342        -8.19903         2.43887        -8.19448         3.98655     433.856E-03     345.493E-03    -171.378E-03    -174.115E-03    -168.669E-03     340.047E-03    -171.378E-03     105.383E-03     99.6940E+06     73.6902E+06    -30.5840E+06    -30.0034E+06     73.1097E+06     99.6940E+06     7.68543E+06         58.3426
            1648     12.6517E-03     115.831E-03         3.87140         2.12652        -7.75030         2.12315        -7.74694         3.87140     150.542E-03     346.189E-03    -171.348E-03    -174.842E-03    -169.313E-03     340.660E-03    -171.348E-03     106.385E-03     103.888E+06     76.1172E+06    -22.0666E+06    -21.7382E+06     75.7888E+06     103.888E+06     5.45947E+06         61.6888
            1649     13.4948E-03     115.951E-03         3.74862         1.80977        -7.28112         1.80391        -7.27527         3.74862     212.463E-03     352.101E-03    -171.347E-03    -180.754E-03    -171.486E-03     342.833E-03    -171.347E-03     134.794E-03     107.235E+06     86.5798E+06    -13.8039E+06    -13.6888E+06     86.4648E+06     107.235E+06     3.06298E+06         66.2980
            1650     14.3359E-03     116.186E-03         3.61925         1.48819        -6.79015         1.47862        -6.78058         3.61925     49.5772E-03     351.425E-03    -171.407E-03    -180.018E-03    -171.567E-03     342.973E-03    -171.407E-03     125.185E-03     123.173E+06     105.705E+06    -6.47721E+06    -6.44692E+06     105.675E+06     123.173E+06     1.43477E+06         70.9987
            1651     842.220E-06     116.401E-03         5.52356         4.22374        -11.4395         5.50733        -11.4233         4.22374    -194.864E-03     342.439E-03    -170.074E-03    -172.364E-03    -172.279E-03     342.436E-03    -170.157E-03     1.29620E-03    -163.649E+06    -169.489E+06    -388.689E+06    -168.841E+06    -388.675E+06    -164.311E+06     1.25848E+06         48.9934
            1652     1.68585E-03     116.400E-03         4.86247         4.80053        -11.3744         4.79342        -11.3548         4.84995     552.004E-03     342.194E-03    -170.883E-03    -171.311E-03    -170.907E-03     342.183E-03    -171.276E-03     4.24965E-03    -146.118E+06    -162.360E+06    -377.401E+06    -162.385E+06    -377.376E+06    -146.118E+06     1.91683E+06         49.1774
            1653     2.52821E-03     116.402E-03         4.81198         4.70573        -11.2401         4.66917        -11.2035         4.81198    -87.8759E-03     341.917E-03    -170.641E-03    -171.276E-03    -170.606E-03     341.882E-03    -171.276E-03     8.06142E-03    -122.817E+06    -153.114E+06    -359.199E+06    -153.154E+06    -359.158E+06    -122.817E+06     2.46502E+06         49.4744
            1654     3.37141E-03     116.411E-03         4.76391         4.61586        -11.1083         4.57033        -11.0628         4.76391     93.0015E-03     341.738E-03    -170.458E-03    -171.279E-03    -170.369E-03     341.648E-03    -171.279E-03     13.1044E-03    -96.5123E+06    -142.032E+06    -326.343E+06    -142.086E+06    -326.288E+06    -96.5123E+06     2.98473E+06         49.8816
            1655     4.21644E-03     116.425E-03         4.71466         4.49555        -10.9344         4.46503        -10.9039         4.71466     484.370E-03     341.422E-03    -170.155E-03    -171.268E-03    -169.944E-03     341.211E-03    -171.268E-03     20.3188E-03    -72.1156E+06    -130.487E+06    -286.166E+06    -130.572E+06    -286.081E+06    -72.1156E+06     3.39855E+06         50.3884
            1656     5.05882E-03     116.449E-03         4.66269         4.36394        -10.7469         4.34067        -10.7236         4.66269     333.123E-03     341.623E-03    -170.352E-03    -171.271E-03    -169.942E-03     341.213E-03    -171.271E-03     28.6775E-03    -48.1127E+06    -117.842E+06    -242.523E+06    -118.071E+06    -242.295E+06    -48.1127E+06     4.99196E+06         50.9742
            1657     5.90215E-03     116.482E-03         4.60391         4.18054        -10.5009         4.16201        -10.4824         4.60391     613.896E-03     342.145E-03    -170.818E-03    -171.328E-03    -170.087E-03     341.415E-03    -171.328E-03     38.2807E-03    -24.8448E+06    -105.252E+06    -196.209E+06    -105.774E+06    -195.687E+06    -24.8448E+06     6.53420E+06         51.6093
            1658     6.74561E-03     116.533E-03         4.53400         3.93718        -10.1818         3.93513        -10.1798         4.53400     90.2291E-03     342.483E-03    -170.919E-03    -171.564E-03    -169.858E-03     341.260E-03    -171.402E-03     49.7021E-03    -2.38709E+06    -92.3394E+06    -149.498E+06    -93.9011E+06    -147.936E+06    -2.38709E+06     8.28187E+06         52.2608
            1659     7.58635E-03     116.595E-03         4.45278         3.70217        -9.85111         3.69657        -9.84551         4.45278     532.849E-03     342.414E-03    -170.776E-03    -171.638E-03    -169.189E-03     340.617E-03    -171.427E-03     60.4469E-03     20.3919E+06    -68.9601E+06    -103.337E+06    -82.5149E+06    -89.7825E+06     20.3919E+06     10.0524E+06         52.9044
            1660     8.43222E-03     116.668E-03         4.36338         3.47646        -9.51401         3.47238        -9.50993         4.36338     292.255E-03     342.430E-03    -170.940E-03    -171.490E-03    -168.620E-03     340.007E-03    -171.387E-03     70.2133E-03     43.1674E+06    -16.0046E+06    -75.0770E+06    -71.6479E+06    -19.4337E+06     43.1674E+06     12.2657E+06         53.5391
            1661     9.27482E-03     116.761E-03         4.26772         3.23689        -9.15288         3.23130        -9.14729         4.26772     330.840E-03     343.145E-03    -171.267E-03    -171.878E-03    -168.710E-03     340.048E-03    -171.338E-03     79.5066E-03     61.7860E+06     37.8684E+06    -62.7918E+06    -60.8377E+06     35.9143E+06     61.7860E+06     13.7521E+06         54.2062
            1662     10.1172E-03     116.861E-03         4.16517         2.96523        -8.75437         2.95896        -8.74810         4.16517     235.304E-03     343.820E-03    -171.310E-03    -172.510E-03    -168.763E-03     340.073E-03    -171.310E-03     87.5664E-03     73.5425E+06     63.2644E+06    -51.6846E+06    -50.3808E+06     61.9606E+06     73.5425E+06     12.0003E+06         55.0229
            1663     10.9633E-03     116.971E-03         4.05435         2.64915        -8.30759         2.64704        -8.30548         4.05435     40.5011E-03     344.380E-03    -171.319E-03    -173.061E-03    -168.829E-03     340.148E-03    -171.319E-03     93.1788E-03     87.1682E+06     74.2193E+06    -41.3005E+06    -40.4743E+06     73.3931E+06     87.1682E+06     9.71811E+06         56.2390
            1664     11.8069E-03     117.091E-03         3.93430         2.32136        -7.84058         2.31757        -7.83678         3.93430     387.356E-03     345.686E-03    -171.345E-03    -174.341E-03    -169.046E-03     340.391E-03    -171.345E-03     104.033E-03     100.664E+06     77.1895E+06    -31.6086E+06    -31.0184E+06     76.5993E+06     100.664E+06     7.87470E+06         58.2790
            1665     12.6497E-03     117.235E-03         3.80596         1.98815        -7.35525         1.98509        -7.35218         3.80596     111.279E-03     345.940E-03    -171.333E-03    -174.607E-03    -169.164E-03     340.497E-03    -171.333E-03     105.626E-03     105.618E+06     79.3907E+06    -22.1054E+06    -21.8061E+06     79.0913E+06     105.618E+06     5.23566E+06         61.6203
            1666     13.4928E-03     117.363E-03         3.66920         1.66010        -6.85745         1.65526        -6.85261         3.66920     154.663E-03     351.652E-03    -171.313E-03    -180.338E-03    -170.951E-03     342.264E-03    -171.313E-03     135.576E-03     108.421E+06     88.4267E+06    -14.6191E+06    -14.4976E+06     88.3053E+06     108.421E+06     3.50154E+06         66.2766
            1667     14.3398E-03     117.589E-03         3.52603         1.33579        -6.34977         1.32724        -6.34122         3.52603     9.56890E-03     351.045E-03    -171.345E-03    -179.699E-03    -171.177E-03     342.523E-03    -171.345E-03     125.482E-03     124.261E+06     108.039E+06    -7.87038E+06    -7.81147E+06     107.980E+06     124.261E+06     2.32211E+06         71.0673
            1668     844.238E-06     117.806E-03         5.63745         4.00872        -11.2028         5.52863        -11.0939         4.00872        -1.05533     341.350E-03    -169.670E-03    -171.680E-03    -170.481E-03     341.348E-03    -170.866E-03     1.17838E-03    -166.373E+06    -173.585E+06    -391.916E+06    -172.937E+06    -391.902E+06    -167.035E+06     1.27615E+06         48.9558
            1669     1.68643E-03     117.807E-03         4.80092         4.70902        -11.0767         4.73048        -11.0586         4.76135     809.351E-03     341.866E-03    -170.839E-03    -171.027E-03    -170.987E-03     341.854E-03    -170.867E-03     4.55549E-03    -147.305E+06    -165.256E+06    -379.977E+06    -165.282E+06    -379.950E+06    -147.305E+06     2.22153E+06         49.1428
            1670     2.52983E-03     117.809E-03         4.73451         4.63518        -10.9416         4.62205        -10.9285         4.73451    -233.039E-03     341.990E-03    -170.851E-03    -171.139E-03    -170.878E-03     341.946E-03    -171.068E-03     9.04235E-03    -124.766E+06    -156.265E+06    -360.553E+06    -156.289E+06    -360.528E+06    -124.766E+06     1.97197E+06         49.4433
            1671     3.37258E-03     117.818E-03         4.69374         4.54728        -10.8213         4.52405        -10.7981         4.69374     140.334E-03     341.693E-03    -170.529E-03    -171.164E-03    -170.429E-03     341.594E-03    -171.164E-03     14.0743E-03    -100.237E+06    -144.795E+06    -327.748E+06    -144.812E+06    -327.731E+06    -100.237E+06     1.64153E+06         49.8536
            1672     4.21492E-03     117.830E-03         4.64590         4.41188        -10.6358         4.39418        -10.6181         4.64590     333.848E-03     341.399E-03    -170.209E-03    -171.190E-03    -169.997E-03     341.187E-03    -171.190E-03     20.3862E-03    -74.9628E+06    -132.275E+06    -288.242E+06    -132.319E+06    -288.198E+06    -74.9628E+06     2.24141E+06         50.3622
            1673     5.05998E-03     117.856E-03         4.58926         4.25678        -10.4154         4.24117        -10.3998         4.58926     278.324E-03     341.601E-03    -170.388E-03    -171.213E-03    -169.962E-03     341.175E-03    -171.213E-03     29.1632E-03    -51.2819E+06    -119.890E+06    -246.130E+06    -120.009E+06    -246.011E+06    -51.2819E+06     3.49484E+06         50.9487
            1674     5.90157E-03     117.892E-03         4.52187         4.04987        -10.1306         4.03728        -10.1180         4.52187     498.715E-03     341.943E-03    -170.677E-03    -171.267E-03    -169.920E-03     341.187E-03    -171.267E-03     38.9817E-03    -28.0474E+06    -107.335E+06    -200.802E+06    -107.660E+06    -200.476E+06    -28.0474E+06     5.13942E+06         51.5841
            1675     6.74419E-03     117.939E-03         4.44241         3.81048        -9.80116         3.80911        -9.79980         4.44241     71.2222E-03     341.727E-03    -170.428E-03    -171.298E-03    -169.206E-03     340.505E-03    -171.298E-03     49.6481E-03    -5.05307E+06    -94.2858E+06    -153.554E+06    -95.3897E+06    -152.450E+06    -5.05307E+06     7.11234E+06         52.2370
            1676     7.59108E-03     118.003E-03         4.35269         3.57880        -9.46501         3.57463        -9.46084         4.35269     448.282E-03     342.092E-03    -170.715E-03    -171.377E-03    -169.019E-03     340.304E-03    -171.286E-03     60.2398E-03     17.3894E+06    -72.6086E+06    -106.610E+06    -83.6083E+06    -95.6099E+06     17.3894E+06     9.76189E+06         52.8839
            1677     8.43110E-03     118.077E-03         4.25531         3.34762        -9.11535         3.34438        -9.11211         4.25531     233.108E-03     342.801E-03    -171.273E-03    -171.528E-03    -169.105E-03     340.378E-03    -171.273E-03     70.2634E-03     40.4137E+06    -21.3363E+06    -76.7740E+06    -72.2664E+06    -25.8439E+06     40.4137E+06     12.5905E+06         53.5206
            1678     9.27553E-03     118.167E-03         4.15131         3.09944        -8.73509         3.09523        -8.73088         4.15131     256.899E-03     342.764E-03    -171.245E-03    -171.519E-03    -168.429E-03     339.674E-03    -171.245E-03     79.3529E-03     60.7314E+06     36.4962E+06    -62.7323E+06    -60.7760E+06     34.5399E+06     60.7314E+06     13.5357E+06         54.1853
            1679     10.1219E-03     118.268E-03         4.04004         2.82413        -8.32005         2.81935        -8.31526         4.04004     185.957E-03     343.671E-03    -171.213E-03    -172.458E-03    -168.748E-03     339.962E-03    -171.213E-03     87.1219E-03     73.9533E+06     66.2061E+06    -51.6377E+06    -50.2850E+06     64.8535E+06     73.9533E+06     12.4179E+06         54.9938
            1680     10.9624E-03     118.381E-03         3.92044         2.50170        -7.85345         2.49997        -7.85172         3.92044     22.6320E-03     344.706E-03    -171.249E-03    -173.457E-03    -169.282E-03     340.531E-03    -171.249E-03     92.6187E-03     87.2699E+06     76.3323E+06    -42.1698E+06    -41.2386E+06     75.4010E+06     87.2699E+06     10.3902E+06         56.1923
            1681     11.8049E-03     118.498E-03         3.79129         2.16567        -7.36300         2.16226        -7.35959         3.79129     351.068E-03     345.791E-03    -171.300E-03    -174.491E-03    -169.085E-03     340.385E-03    -171.300E-03     104.992E-03     101.528E+06     80.7256E+06    -33.0039E+06    -32.4187E+06     80.1403E+06     101.528E+06     8.02701E+06         58.2088
            1682     12.6499E-03     118.643E-03         3.65380         1.82942        -6.86117         1.82605        -6.85781         3.65380     79.9545E-03     345.998E-03    -171.285E-03    -174.713E-03    -169.046E-03     340.331E-03    -171.285E-03     107.764E-03     106.019E+06     82.5589E+06    -25.1483E+06    -24.7847E+06     82.1953E+06     106.019E+06     6.11394E+06         61.5444
            1683     13.4969E-03     118.768E-03         3.50748         1.49998        -6.35236         1.49501        -6.34739         3.50748     115.045E-03     351.331E-03    -171.257E-03    -180.074E-03    -170.703E-03     341.961E-03    -171.257E-03     135.771E-03     108.747E+06     90.3184E+06    -17.2980E+06    -17.1128E+06     90.1332E+06     108.747E+06     4.01821E+06         66.2475
            1684     14.3394E-03     118.999E-03         3.35532         1.18472        -5.84721         1.17587        -5.83837         3.35532    -11.1543E-03     350.487E-03    -171.265E-03    -179.222E-03    -170.798E-03     342.078E-03    -171.280E-03     124.615E-03     125.812E+06     111.285E+06    -8.36805E+06    -8.33085E+06     111.247E+06     125.812E+06     1.56021E+06         71.1317
            1685     843.170E-06     119.211E-03         5.69949         3.77039        -10.8967         5.31657        -10.5138         3.77039        -1.96309     340.933E-03    -169.581E-03    -171.351E-03    -170.104E-03     340.930E-03    -170.826E-03     2.07963E-03    -169.114E+06    -175.818E+06    -393.724E+06    -174.671E+06    -393.706E+06    -170.279E+06     230.614E+03         48.9115
            1686     1.68751E-03     119.212E-03         4.63673         4.50872        -10.5713         4.54175        -10.5111         4.54342         1.09578     341.302E-03    -170.550E-03    -170.752E-03    -170.664E-03     341.291E-03    -170.627E-03     4.30018E-03    -151.642E+06    -167.647E+06    -382.857E+06    -167.663E+06    -382.841E+06    -151.642E+06     1.20946E+06         49.1006
            1687     2.52987E-03     119.215E-03         4.52861         4.45199        -10.4033         4.44699        -10.3983         4.52861    -416.504E-03     341.333E-03    -170.475E-03    -170.857E-03    -170.507E-03     341.294E-03    -170.787E-03     8.54636E-03    -127.663E+06    -157.691E+06    -359.373E+06    -157.699E+06    -359.366E+06    -127.663E+06     860.923E+03         49.4051
            1688     3.37342E-03     119.223E-03         4.49428         4.35049        -10.2741         4.34207        -10.2657         4.49428     165.652E-03     341.405E-03    -170.507E-03    -170.898E-03    -170.398E-03     341.297E-03    -170.898E-03     14.4859E-03    -102.592E+06    -146.210E+06    -327.578E+06    -146.222E+06    -327.566E+06    -102.592E+06     9.55303E+03         49.8202
            1689     4.21705E-03     119.238E-03         4.44743         4.20720        -10.0820         4.19940        -10.0742         4.44743     184.943E-03     341.836E-03    -170.742E-03    -171.094E-03    -170.579E-03     341.607E-03    -171.028E-03     21.3734E-03    -77.9051E+06    -133.925E+06    -290.931E+06    -133.944E+06    -290.912E+06    -77.9051E+06     739.027E+03         50.3320
            1690     5.05824E-03     119.261E-03         4.38884         4.05101        -9.85847         4.03993        -9.84739         4.38884     283.402E-03     341.511E-03    -170.318E-03    -171.193E-03    -169.940E-03     341.067E-03    -171.127E-03     29.7284E-03    -54.6118E+06    -122.190E+06    -248.327E+06    -122.226E+06    -248.291E+06    -54.6118E+06     1.82313E+06         50.9190
            1691     5.90367E-03     119.299E-03         4.31894         3.85213        -9.57679         3.84275        -9.56741         4.31894     472.996E-03     341.314E-03    -170.160E-03    -171.154E-03    -169.380E-03     340.534E-03    -171.154E-03     39.6009E-03    -31.7690E+06    -109.721E+06    -204.553E+06    -109.878E+06    -204.396E+06    -31.7690E+06     3.03251E+06         51.5550
            1692     6.74718E-03     119.347E-03         4.23743         3.62312        -9.24865         3.62210        -9.24762         4.23743     122.651E-03     341.689E-03    -170.508E-03    -171.181E-03    -169.316E-03     340.481E-03    -171.165E-03     49.4388E-03    -9.38606E+06    -96.6133E+06    -157.780E+06    -97.2821E+06    -157.111E+06    -9.38606E+06     5.30079E+06         52.2102
            1693     7.58795E-03     119.407E-03         4.14497         3.38571        -8.89825         3.38229        -8.89483         4.14497     397.101E-03     341.981E-03    -170.751E-03    -171.230E-03    -168.993E-03     340.165E-03    -171.172E-03     60.5883E-03     13.3071E+06    -78.1930E+06    -108.618E+06    -84.7849E+06    -102.026E+06     13.3071E+06     7.79103E+06         52.8595
            1694     8.43428E-03     119.488E-03         4.04305         3.14279        -8.53167         3.14010        -8.52898         4.04305     177.581E-03     342.523E-03    -171.033E-03    -171.489E-03    -168.933E-03     340.094E-03    -171.161E-03     70.3971E-03     36.5508E+06    -29.2983E+06    -77.2204E+06    -72.6710E+06    -33.8477E+06     36.5508E+06     11.2513E+06         53.4975
            1695     9.27665E-03     119.573E-03         3.93333         2.88889        -8.14354         2.88593        -8.14058         3.93333     175.072E-03     343.161E-03    -171.158E-03    -172.003E-03    -168.971E-03     340.129E-03    -171.158E-03     78.6628E-03     58.6413E+06     34.7801E+06    -64.0038E+06    -61.8668E+06     32.6432E+06     58.6413E+06     14.0313E+06         54.1596
            1696     10.1183E-03     119.677E-03         3.81590         2.61346        -7.72477         2.61014        -7.72145         3.81590     135.328E-03     343.540E-03    -171.151E-03    -172.390E-03    -168.644E-03     339.795E-03    -171.151E-03     87.4842E-03     72.3461E+06     68.0479E+06    -54.0310E+06    -52.5534E+06     66.7327E+06     72.1836E+06     13.1640E+06         54.9570
            1697     10.9637E-03     119.790E-03         3.69043         2.30313        -7.26085         2.30191        -7.25963         3.69043     3.10142E-03     343.799E-03    -171.152E-03    -172.646E-03    -168.388E-03     339.541E-03    -171.152E-03     93.3669E-03     86.2623E+06     78.0465E+06    -43.5919E+06    -42.6238E+06     77.2409E+06     86.0998E+06     10.7476E+06         56.1363
            1698     11.8094E-03     119.904E-03         3.55636         1.98733        -6.78073         1.98417        -6.77757         3.55636     313.440E-03     345.670E-03    -171.181E-03    -174.490E-03    -169.049E-03     340.229E-03    -171.181E-03     105.364E-03     102.595E+06     83.8560E+06    -33.5419E+06    -32.8303E+06     83.1445E+06     102.595E+06     9.09719E+06         58.1314
            1699     12.6538E-03     120.051E-03         3.41517         1.66916        -6.29087         1.66523        -6.28694         3.41517     58.8035E-03     346.340E-03    -171.194E-03    -175.146E-03    -169.565E-03     340.759E-03    -171.194E-03     106.961E-03     108.531E+06     86.5555E+06    -24.6047E+06    -24.1211E+06     86.0719E+06     108.531E+06     7.19805E+06         61.4628
            1700     13.4941E-03     120.176E-03         3.26558         1.35550        -5.79320         1.34982        -5.78751         3.26558     93.8940E-03     351.269E-03    -171.188E-03    -180.081E-03    -170.659E-03     341.847E-03    -171.188E-03     135.680E-03     111.592E+06     95.1004E+06    -15.5732E+06    -15.3821E+06     94.9093E+06     111.592E+06     4.08531E+06         66.2140
            1701     14.3402E-03     120.404E-03         3.11075         1.05510        -5.29817         1.04510        -5.28817         3.11075    -20.9078E-03     349.848E-03    -171.173E-03    -178.675E-03    -170.085E-03     341.273E-03    -171.188E-03     125.674E-03     127.244E+06     113.911E+06    -7.53954E+06    -7.51435E+06     113.885E+06     127.244E+06     1.16889E+06         71.1976
            1702     843.662E-06     120.616E-03         5.59057         3.56459        -10.4387         4.92248        -9.77063         3.56459        -2.53823     340.867E-03    -169.844E-03    -171.023E-03    -170.970E-03     340.863E-03    -169.892E-03     2.09192E-03    -170.520E+06    -176.123E+06    -393.814E+06    -174.974E+06    -393.798E+06    -171.685E+06    -198.028E+03         48.8598
            1703     1.68642E-03     120.616E-03         4.34407         4.20707        -9.83447         4.20128        -9.71873         4.23412         1.28717     340.865E-03    -170.346E-03    -170.520E-03    -170.332E-03     340.852E-03    -170.520E-03     4.99327E-03    -155.753E+06    -169.800E+06    -383.205E+06    -169.817E+06    -383.188E+06    -155.753E+06    -546.441E+03         49.0504
            1704     2.53072E-03     120.621E-03         4.20932         4.12487        -9.61739         4.11686        -9.60938         4.20932    -496.572E-03     340.996E-03    -170.288E-03    -170.708E-03    -170.344E-03     340.959E-03    -170.616E-03     8.43755E-03    -131.669E+06    -159.751E+06    -356.990E+06    -159.778E+06    -356.962E+06    -131.669E+06    -1.06839E+06         49.3576
            1705     3.37470E-03     120.627E-03         4.17232         4.02242        -9.47705         4.01966        -9.47429         4.17232     216.092E-03     341.156E-03    -170.326E-03    -170.830E-03    -170.316E-03     341.054E-03    -170.738E-03     13.9644E-03    -106.441E+06    -148.669E+06    -326.608E+06    -148.689E+06    -326.588E+06    -106.441E+06    -1.70183E+06         49.7758
            1706     4.21706E-03     120.646E-03         4.12630         3.90449        -9.30869         3.90121        -9.30540         4.12630     117.632E-03     341.226E-03    -170.308E-03    -170.918E-03    -170.145E-03     340.996E-03    -170.852E-03     21.3480E-03    -82.3393E+06    -137.209E+06    -292.955E+06    -137.254E+06    -292.910E+06    -82.3393E+06    -1.41661E+06         50.2909
            1707     5.06076E-03     120.668E-03         4.07082         3.76442        -9.10496         3.75617        -9.09670         4.07082     294.732E-03     341.309E-03    -170.253E-03    -171.056E-03    -169.922E-03     340.855E-03    -170.933E-03     30.0555E-03    -59.4232E+06    -124.739E+06    -249.915E+06    -124.778E+06    -249.876E+06    -59.4232E+06    -572.473E+03         50.8818
            1708     5.90293E-03     120.703E-03         4.00405         3.57960        -8.84050         3.57211        -8.83301         4.00405     433.398E-03     341.220E-03    -170.175E-03    -171.044E-03    -169.436E-03     340.423E-03    -170.987E-03     40.0146E-03    -36.8607E+06    -112.376E+06    -206.833E+06    -112.390E+06    -206.818E+06    -36.8607E+06     643.793E+03         51.5216
            1709     6.74654E-03     120.754E-03         3.92389         3.34472        -8.50823         3.34382        -8.50733         3.92389     142.431E-03     341.448E-03    -170.418E-03    -171.030E-03    -169.195E-03     340.210E-03    -171.014E-03     50.0269E-03    -14.8884E+06     -99.946E+06    -162.010E+06    -100.195E+06    -161.761E+06    -14.8884E+06     2.44735E+06         52.1802
            1710     7.59162E-03     120.815E-03         3.83054         3.10408        -8.14979         3.10146        -8.14717         3.83054     337.745E-03     341.979E-03    -170.777E-03    -171.202E-03    -169.103E-03     340.139E-03    -171.036E-03     61.0303E-03     7.74897E+06    -83.5313E+06    -112.569E+06    -88.0779E+06    -108.022E+06     7.74897E+06     5.33963E+06         52.8317
            1711     8.43332E-03     120.893E-03         3.72670         2.86662        -7.78282         2.86461        -7.78081         3.72670     116.483E-03     342.306E-03    -170.909E-03    -171.396E-03    -168.791E-03     339.827E-03    -171.036E-03     71.0421E-03     30.5258E+06    -39.0633E+06    -80.4685E+06    -76.5887E+06    -42.9431E+06     30.5258E+06     9.21993E+06         53.4696
            1712     9.27718E-03     120.984E-03         3.61468         2.61736        -7.39590         2.61548        -7.39402         3.61468     97.6235E-03     342.962E-03    -171.023E-03    -171.938E-03    -168.795E-03     339.818E-03    -171.023E-03     80.0498E-03     53.2328E+06     28.3430E+06    -66.9640E+06    -64.9829E+06     26.3619E+06     53.2328E+06     13.3926E+06         54.1280
            1713     10.1213E-03     121.083E-03         3.49511         2.35170        -6.98512         2.34970        -6.98311         3.49511     89.7601E-03     343.340E-03    -171.009E-03    -172.331E-03    -168.501E-03     339.510E-03    -171.009E-03     88.4719E-03     72.7397E+06     68.1976E+06    -55.2235E+06    -53.6701E+06     69.3464E+06     70.0376E+06     13.6963E+06         54.9163
            1714     10.9663E-03     121.194E-03         3.36836         2.06604        -6.54696         2.06526        -6.54618         3.36836    -7.43400E-03     343.803E-03    -171.025E-03    -172.778E-03    -168.526E-03     339.551E-03    -171.025E-03     93.3307E-03     88.0943E+06     79.0148E+06    -44.8120E+06    -43.8945E+06     80.7995E+06     85.3921E+06     10.6545E+06         56.0780
            1715     11.8092E-03     121.313E-03         3.23423         1.78312        -6.10057         1.77965        -6.09710         3.23423     292.252E-03     345.812E-03    -171.085E-03    -174.727E-03    -169.378E-03     340.463E-03    -171.085E-03     104.547E-03     102.371E+06     85.4841E+06    -34.7902E+06    -34.1307E+06     84.8246E+06     102.371E+06     8.84461E+06         58.0497
            1716     12.6505E-03     121.460E-03         3.09470         1.50041        -5.64468         1.49528        -5.63955         3.09470     49.7589E-03     345.647E-03    -171.104E-03    -174.542E-03    -168.967E-03     340.071E-03    -171.104E-03     106.884E-03     110.396E+06     90.7351E+06    -24.4713E+06    -24.0737E+06     90.3374E+06     110.396E+06     6.49265E+06         61.3759
            1717     13.4987E-03     121.582E-03         2.94753         1.21870        -5.17689         1.21199        -5.17018         2.94753     71.8002E-03     350.331E-03    -171.054E-03    -179.277E-03    -169.675E-03     340.729E-03    -171.054E-03     136.815E-03     113.512E+06     99.3945E+06    -15.9489E+06    -15.8228E+06     99.2683E+06     113.512E+06     3.62577E+06         66.1832
            1718     14.3442E-03     121.810E-03         2.79545     935.789E-03        -4.70054     924.312E-03        -4.68906         2.79545    -29.6571E-03     349.819E-03    -171.030E-03    -178.789E-03    -170.105E-03     341.135E-03    -171.030E-03     126.232E-03     128.510E+06     116.347E+06    -8.19246E+06    -8.16067E+06     116.316E+06     128.510E+06     1.51774E+06         71.2753
            1719     843.631E-06     122.019E-03         5.13216         3.28921        -9.56947         4.37931        -8.81661         3.28921        -2.56825     340.405E-03    -169.772E-03    -170.633E-03    -170.566E-03     340.402E-03    -169.836E-03     1.81725E-03    -174.094E+06    -180.783E+06    -394.218E+06    -179.498E+06    -394.204E+06    -175.393E+06     1.24112E+06         48.7916
            1720     1.68793E-03     122.022E-03         3.90889         3.79834        -8.86124         3.75421        -8.72548         3.81726         1.27729     340.418E-03    -170.128E-03    -170.290E-03    -170.115E-03     340.403E-03    -170.288E-03     5.25909E-03    -159.572E+06    -174.064E+06    -379.045E+06    -174.087E+06    -379.023E+06    -159.572E+06    -1.46411E+06         48.9843
            1721     2.53107E-03     122.024E-03         3.78306         3.69340        -8.62441         3.68289        -8.61390         3.78306    -488.155E-03     340.686E-03    -170.197E-03    -170.489E-03    -170.243E-03     340.637E-03    -170.395E-03     9.45777E-03    -138.410E+06    -165.170E+06    -353.860E+06    -165.236E+06    -353.794E+06    -138.410E+06    -3.39474E+06         49.2942
            1722     3.37276E-03     122.036E-03         3.74262         3.58083        -8.46536         3.57948        -8.46402         3.74262     197.487E-03     340.694E-03    -170.078E-03    -170.616E-03    -170.047E-03     340.572E-03    -170.524E-03     15.3216E-03    -114.223E+06    -154.296E+06    -324.901E+06    -154.429E+06    -324.768E+06    -114.223E+06    -4.11457E+06         49.7157
            1723     4.21751E-03     122.048E-03         3.69506         3.48345        -8.31423         3.48135        -8.31213         3.69506     42.9969E-03     340.524E-03    -169.915E-03    -170.609E-03    -169.657E-03     340.265E-03    -170.609E-03     22.5674E-03    -89.0384E+06    -141.940E+06    -291.992E+06    -142.105E+06    -291.827E+06    -89.0384E+06    -4.46187E+06         50.2361
            1724     5.06181E-03     122.075E-03         3.64059         3.35816        -8.12448         3.35123        -8.11755         3.64059     241.184E-03     340.884E-03    -170.152E-03    -170.732E-03    -169.738E-03     340.413E-03    -170.675E-03     30.7321E-03    -65.1107E+06    -128.837E+06    -250.488E+06    -129.020E+06    -250.305E+06    -65.1107E+06    -4.09082E+06         50.8346
            1725     5.90500E-03     122.111E-03         3.57594         3.19260        -7.88201         3.18644        -7.87584         3.57594     357.848E-03     341.048E-03    -170.236E-03    -170.813E-03    -169.482E-03     340.237E-03    -170.756E-03     40.3166E-03    -42.3558E+06    -116.137E+06    -209.517E+06    -116.288E+06    -209.366E+06    -42.3558E+06    -2.60181E+06         51.4822
            1726     6.74886E-03     122.159E-03         3.49913         2.98896        -7.58378         2.98798        -7.58279         3.49913     125.955E-03     341.204E-03    -170.331E-03    -170.873E-03    -169.096E-03     339.902E-03    -170.807E-03     51.2530E-03    -20.2728E+06    -103.577E+06    -165.474E+06    -103.633E+06    -165.417E+06    -20.2728E+06    -759.693E+03         52.1470
            1727     7.59101E-03     122.223E-03         3.41007         2.77180        -7.25560         2.76981        -7.25361         3.41007     280.337E-03     341.838E-03    -170.710E-03    -171.128E-03    -169.120E-03     339.961E-03    -170.841E-03     61.7198E-03     1.32723E+06    -89.1204E+06    -117.338E+06    -91.4327E+06    -115.026E+06     1.32723E+06     2.37593E+06         52.8025
            1728     8.43541E-03     122.300E-03         3.31047         2.54397        -6.90341         2.54273        -6.90217         3.31047     75.2872E-03     342.104E-03    -170.857E-03    -171.247E-03    -168.726E-03     339.583E-03    -170.857E-03     71.5992E-03     23.8181E+06    -47.8364E+06    -84.4942E+06    -79.5415E+06    -52.7891E+06     23.8181E+06     7.33893E+06         53.4407
            1729     9.27983E-03     122.389E-03         3.20186         2.30541        -6.52802         2.30427        -6.52688         3.20186     59.8856E-03     342.294E-03    -170.833E-03    -171.461E-03    -168.287E-03     339.120E-03    -170.833E-03     80.4206E-03     47.8249E+06     20.8864E+06    -69.5382E+06    -68.0431E+06     19.3913E+06     47.8249E+06     11.1160E+06         54.0960
            1730     10.1238E-03     122.491E-03         3.08563         2.06069        -6.13981         2.05958        -6.13870         3.08563     70.6755E-03     343.386E-03    -170.819E-03    -172.567E-03    -168.793E-03     339.612E-03    -170.819E-03     87.8649E-03     73.1940E+06     64.1068E+06    -57.7072E+06    -56.5197E+06     70.0335E+06     66.0798E+06     12.1830E+06         54.8765
            1731     10.9658E-03     122.601E-03         2.96293         1.80020        -5.73190         1.79983        -5.73153         2.96293    -3.87690E-03     344.360E-03    -170.886E-03    -173.474E-03    -169.187E-03     340.073E-03    -170.886E-03     93.7971E-03     90.0337E+06     78.7317E+06    -46.5776E+06    -45.6429E+06     84.9112E+06     82.9195E+06     10.9979E+06         56.0207
            1732     11.8091E-03     122.722E-03         2.83353         1.54757        -5.32155         1.54385        -5.31783         2.83353     264.613E-03     345.068E-03    -170.959E-03    -174.109E-03    -168.588E-03     339.547E-03    -170.959E-03     106.049E-03     101.105E+06     88.1004E+06    -36.6873E+06    -36.1498E+06     87.5630E+06     101.105E+06     7.57145E+06         57.9689
            1733     12.6566E-03     122.864E-03         2.69985         1.30464        -4.91068         1.29819        -4.90423         2.69985     31.7370E-03     344.746E-03    -170.934E-03    -173.812E-03    -168.108E-03     339.042E-03    -170.934E-03     107.884E-03     110.561E+06     93.7143E+06    -26.0677E+06    -25.8747E+06     93.5213E+06     110.561E+06     4.27153E+06         61.2938
            1734     13.5002E-03     122.987E-03         2.55896         1.05862        -4.48450         1.05080        -4.47668         2.55896     42.4445E-03     350.231E-03    -170.881E-03    -179.350E-03    -169.869E-03     340.750E-03    -170.881E-03     136.209E-03     115.299E+06     102.236E+06    -15.8157E+06    -15.7337E+06     102.153E+06     115.299E+06     3.01027E+06         66.1588
            1735     14.3459E-03     123.215E-03         2.41353     809.494E-03        -4.04748     797.015E-03        -4.03500         2.41353    -34.4327E-03     350.061E-03    -170.896E-03    -179.164E-03    -170.631E-03     341.528E-03    -170.896E-03     125.353E-03     130.669E+06     119.244E+06    -7.50833E+06    -7.47190E+06     119.208E+06     130.669E+06     1.93190E+06         71.3581
            1736     843.895E-06     123.424E-03         4.31918         2.85472        -8.19454         3.70087        -7.57623         2.85472        -2.14479     339.529E-03    -169.322E-03    -170.207E-03    -170.139E-03     339.524E-03    -169.386E-03     2.80827E-03    -180.598E+06    -186.037E+06    -393.450E+06    -184.781E+06    -393.407E+06    -181.897E+06    -1.05671E+06         48.6964
            1737     1.68749E-03     123.424E-03         3.32301         3.25793        -7.60778         3.20701        -7.49644         3.26260         1.09098     339.581E-03    -169.669E-03    -169.912E-03    -169.712E-03     339.561E-03    -169.849E-03     6.03112E-03    -165.030E+06    -178.296E+06    -373.211E+06    -178.335E+06    -373.171E+06    -165.030E+06    -2.02510E+06         48.8925
            1738     2.53152E-03     123.430E-03         3.23929         3.16357        -7.42476         3.16071        -7.41670         3.23409    -441.641E-03     339.488E-03    -169.566E-03    -169.923E-03    -169.505E-03     339.426E-03    -169.921E-03     10.8886E-03    -143.622E+06    -169.997E+06    -348.186E+06    -170.139E+06    -348.044E+06    -143.622E+06    -4.74405E+06         49.2076
            1739     3.37736E-03     123.438E-03         3.19918         3.05406        -7.26767         3.05287        -7.26648         3.19918     106.471E-03     339.725E-03    -169.623E-03    -170.102E-03    -169.572E-03     339.585E-03    -170.012E-03     16.6332E-03    -119.360E+06    -159.179E+06    -320.150E+06    -159.490E+06    -319.839E+06    -119.360E+06    -6.84876E+06         49.6373
            1740     4.22026E-03     123.454E-03         3.15446         2.96569        -7.12234         2.96313        -7.11977         3.15446    -32.5455E-03     340.100E-03    -169.864E-03    -170.237E-03    -169.662E-03     339.809E-03    -170.147E-03     23.9604E-03    -94.4924E+06    -146.509E+06    -288.990E+06    -147.081E+06    -288.418E+06    -94.4924E+06    -8.37694E+06         50.1680
            1741     5.06241E-03     123.480E-03         3.10327         2.85960        -6.95208         2.85192        -6.94440         3.10327     169.636E-03     340.222E-03    -169.954E-03    -170.268E-03    -169.415E-03     339.683E-03    -170.268E-03     32.8067E-03    -70.3836E+06    -133.269E+06    -250.056E+06    -133.948E+06    -249.377E+06    -70.3836E+06    -8.35120E+06         50.7780
            1742     5.90648E-03     123.516E-03         3.04380         2.72732        -6.74956         2.72115        -6.74339         3.04380     310.050E-03     340.822E-03    -170.081E-03    -170.742E-03    -169.561E-03     339.947E-03    -170.386E-03     41.9599E-03    -47.4286E+06    -119.703E+06    -210.714E+06    -120.467E+06    -209.950E+06    -47.4286E+06    -7.63593E+06         51.4380
            1743     6.74978E-03     123.565E-03         2.97435         2.55950        -6.49732         2.55805        -6.49587         2.97435     122.132E-03     341.403E-03    -170.387E-03    -171.016E-03    -169.553E-03     340.064E-03    -170.511E-03     52.0212E-03    -25.9491E+06    -105.783E+06    -169.131E+06    -106.620E+06    -168.293E+06    -25.9491E+06    -6.16671E+06         52.1135
            1744     7.59429E-03     123.630E-03         2.89394         2.37810        -6.21317         2.37620        -6.21128         2.89394     245.895E-03     341.635E-03    -170.604E-03    -171.032E-03    -169.121E-03     339.725E-03    -170.604E-03     62.2757E-03    -4.27976E+06    -91.6909E+06    -122.365E+06    -92.4173E+06    -121.639E+06    -4.27976E+06    -2.91133E+06         52.7760
            1745     8.43716E-03     123.706E-03         2.80355         2.17979        -5.89762         2.17915        -5.89698         2.80355     47.0864E-03     342.026E-03    -170.649E-03    -171.377E-03    -168.879E-03     339.528E-03    -170.649E-03     71.3331E-03     18.1270E+06    -56.2218E+06    -85.7316E+06    -78.2233E+06    -63.7302E+06     18.1270E+06     2.31514E+06         53.4177
            1746     9.28040E-03     123.796E-03         2.70421         1.96814        -5.55909         1.96763        -5.55857         2.70421     27.0079E-03     342.453E-03    -170.667E-03    -171.785E-03    -168.648E-03     339.315E-03    -170.667E-03     79.9644E-03     44.1681E+06     12.1893E+06    -65.7037E+06    -64.6296E+06     11.1152E+06     44.1681E+06     8.38126E+06         54.0709
            1747     10.1244E-03     123.897E-03         2.59676         1.74445        -5.20289         1.74398        -5.20242         2.59676     39.0376E-03     342.994E-03    -170.676E-03    -172.318E-03    -168.496E-03     339.171E-03    -170.676E-03     88.3498E-03     72.1064E+06     62.3622E+06    -54.6315E+06    -53.3778E+06     67.4436E+06     65.7713E+06     12.1821E+06         54.8407
            1748     10.9684E-03     124.012E-03         2.48277         1.51036        -4.83187         1.51024        -4.83175         2.48277    -18.1644E-03     343.332E-03    -170.699E-03    -172.634E-03    -168.256E-03     338.955E-03    -170.699E-03     94.6133E-03     90.0647E+06     81.6833E+06    -45.4074E+06    -44.3676E+06     87.7988E+06     82.9094E+06     11.4211E+06         55.9663
            1749     11.8136E-03     124.125E-03         2.36276         1.29542        -4.46940         1.29160        -4.46558         2.36276     216.804E-03     344.633E-03    -170.741E-03    -173.892E-03    -168.387E-03     339.129E-03    -170.741E-03     105.932E-03     103.143E+06     93.7084E+06    -34.8370E+06    -34.4106E+06     94.1022E+06     102.323E+06     6.68935E+06         57.8940
            1750     12.6576E-03     124.270E-03         2.23917         1.08844        -4.10503         1.08102        -4.09761         2.23917     14.9026E-03     345.244E-03    -170.763E-03    -174.481E-03    -168.921E-03     339.684E-03    -170.763E-03     106.624E-03     112.851E+06     97.5946E+06    -24.6620E+06    -24.5705E+06     97.5030E+06     112.851E+06     3.22906E+06         61.2137
            1751     13.5027E-03     124.394E-03         2.10830     874.239E-03        -3.72098     864.936E-03        -3.71167         2.10830     30.5328E-03     350.667E-03    -170.778E-03    -179.889E-03    -170.666E-03     341.444E-03    -170.778E-03     134.425E-03     116.313E+06     103.765E+06    -16.2569E+06    -16.1993E+06     103.708E+06     116.313E+06     2.53043E+06         66.1227
            1752     14.3464E-03     124.621E-03         1.97338     667.599E-03        -3.33916     653.686E-03        -3.32525         1.97338    -27.8182E-03     349.418E-03    -170.612E-03    -178.806E-03    -170.214E-03     341.035E-03    -170.821E-03     124.561E-03     131.523E+06     121.224E+06    -7.94185E+06    -7.90878E+06     121.191E+06     131.523E+06     1.90197E+06         71.4229
            1753     844.980E-06     124.824E-03         3.30576         2.26922        -6.46520         2.94797        -6.11558         2.27739        -1.39124     338.062E-03    -168.567E-03    -169.494E-03    -169.388E-03     338.055E-03    -168.667E-03     2.82269E-03    -183.342E+06    -187.220E+06    -388.154E+06    -187.315E+06    -388.059E+06    -183.342E+06    -2.10360E+06         48.5707
            1754     1.68947E-03     124.828E-03         2.62393         2.59145        -6.11129         2.55322        -6.04876         2.59962     830.091E-03     338.038E-03    -168.878E-03    -169.160E-03    -168.919E-03     338.013E-03    -169.094E-03     6.80412E-03    -169.054E+06    -181.168E+06    -367.588E+06    -181.305E+06    -367.450E+06    -169.054E+06     -4.4704E+06         48.7725
            1755     2.53440E-03     124.830E-03         2.58695         2.53576        -6.02587         2.53988        -6.02176         2.57872    -317.365E-03     338.166E-03    -168.926E-03    -169.240E-03    -168.916E-03     338.097E-03    -169.181E-03     11.5088E-03    -146.464E+06    -172.031E+06    -340.303E+06    -172.320E+06    -340.014E+06    -146.464E+06    -6.69602E+06         49.0981
            1756     3.37750E-03     124.842E-03         2.55486         2.46284        -5.91337         2.45886        -5.90939         2.55486     52.3716E-03     338.670E-03    -169.190E-03    -169.480E-03    -169.173E-03     338.509E-03    -169.336E-03     17.6602E-03    -120.896E+06    -160.719E+06    -312.090E+06    -161.381E+06    -311.428E+06    -120.896E+06    -9.44195E+06         49.5420
            1757     4.22150E-03     124.858E-03         2.52083         2.39266        -5.79435         2.38712        -5.78882         2.52083    -23.5538E-03     339.201E-03    -169.410E-03    -169.791E-03    -169.353E-03     338.889E-03    -169.536E-03     24.8401E-03    -96.3947E+06    -148.005E+06    -283.271E+06    -149.150E+06    -282.127E+06    -96.3947E+06    -12.0944E+06         50.0889
            1758     5.06743E-03     124.883E-03         2.47944         2.30751        -5.65014         2.29667        -5.63931         2.47944     129.254E-03     339.666E-03    -169.600E-03    -170.066E-03    -169.387E-03     339.112E-03    -169.725E-03     33.2501E-03    -74.0589E+06    -134.481E+06    -248.249E+06    -136.209E+06    -246.521E+06    -74.0589E+06    -13.2870E+06         50.7154
            1759     5.91083E-03     124.922E-03         2.42935         2.19977        -5.48203         2.19172        -5.47398         2.42935     286.063E-03     340.551E-03    -169.914E-03    -170.637E-03    -169.711E-03     339.630E-03    -169.920E-03     43.0421E-03    -52.4051E+06    -120.590E+06    -209.872E+06    -122.928E+06    -207.533E+06    -52.4051E+06    -13.6399E+06         51.3907
            1760     6.75241E-03     124.973E-03         2.36951         2.05830        -5.27026         2.05589        -5.26784         2.36951     113.317E-03     341.338E-03    -170.127E-03    -171.211E-03    -169.827E-03     339.954E-03    -170.127E-03     52.9752E-03    -31.2698E+06    -105.871E+06    -172.068E+06    -109.138E+06    -168.801E+06    -31.2698E+06    -13.5019E+06         52.0804
            1761     7.59472E-03     125.034E-03         2.29944         1.91153        -5.03440         1.90914        -5.03200         2.29944     229.483E-03     341.639E-03    -170.290E-03    -171.349E-03    -169.370E-03     339.661E-03    -170.290E-03     63.3284E-03    -10.3282E+06    -90.0907E+06    -130.871E+06    -94.3885E+06    -126.574E+06    -10.3282E+06    -11.5000E+06         52.7549
            1762     8.43857E-03     125.115E-03         2.22018         1.75399        -4.77107         1.75370        -4.77078         2.22018     34.2446E-03     342.248E-03    -170.393E-03    -171.855E-03    -169.247E-03     339.640E-03    -170.393E-03     72.9220E-03     11.3919E+06    -61.1598E+06    -91.7382E+06    -79.4607E+06    -73.4374E+06     11.3919E+06    -6.90214E+06         53.4047
            1763     9.28208E-03     125.201E-03         2.13289         1.58343        -4.48329         1.58330        -4.48317         2.13289     5.78968E-03     342.822E-03    -170.470E-03    -172.352E-03    -169.129E-03     339.599E-03    -170.470E-03     81.1301E-03     36.7588E+06    -3.74948E+06    -65.7892E+06    -64.7714E+06    -4.76722E+06     36.7588E+06     2.04096E+06         54.0582
            1764     10.1254E-03     125.306E-03         2.03842         1.40049        -4.18048         1.40038        -4.18037         2.03842     12.2170E-03     342.603E-03    -170.501E-03    -172.102E-03    -168.281E-03     338.781E-03    -170.501E-03     88.3098E-03     69.3983E+06     51.4277E+06    -53.1545E+06    -51.9135E+06     58.9047E+06     60.6804E+06     11.5275E+06         54.8176
            1765     10.9716E-03     125.413E-03         1.93823         1.21279        -3.87151         1.21273        -3.87146         1.93823    -27.8982E-03     342.787E-03    -170.519E-03    -172.268E-03    -168.035E-03     338.554E-03    -170.519E-03     92.9676E-03     94.7562E+06     82.0611E+06    -42.9380E+06    -41.8320E+06     93.6502E+06     82.0611E+06     11.8009E+06         55.9215
            1766     11.8161E-03     125.534E-03         1.83243         1.03561        -3.56468         1.03089        -3.55997         1.83243     188.479E-03     344.915E-03    -170.603E-03    -174.313E-03    -169.053E-03     339.656E-03    -170.603E-03     103.614E-03     107.097E+06     97.5959E+06    -33.4723E+06    -33.0429E+06     101.144E+06     103.120E+06     7.48106E+06         57.8166
            1767     12.6587E-03     125.676E-03         1.72312     859.493E-03        -3.24759     850.854E-03        -3.23895         1.72312     26.6054E-03     345.607E-03    -170.695E-03    -174.911E-03    -169.514E-03     340.209E-03    -170.695E-03     105.210E-03     114.785E+06     101.378E+06    -25.0842E+06    -24.8641E+06     101.158E+06     114.785E+06     5.05598E+06         61.1108
            1768     13.5015E-03     125.801E-03         1.60664     686.215E-03        -2.91703     675.543E-03        -2.90636         1.60664     37.6689E-03     350.064E-03    -170.725E-03    -179.339E-03    -170.105E-03     340.830E-03    -170.725E-03     134.163E-03     118.182E+06     106.226E+06    -17.3800E+06    -17.3073E+06     106.153E+06     118.182E+06     2.74492E+06         66.0502
            1769     14.3464E-03     126.026E-03         1.48718     532.131E-03        -2.60064     516.744E-03        -2.58525         1.48718    -11.9255E-03     347.883E-03    -170.150E-03    -177.733E-03    -168.708E-03     339.417E-03    -170.709E-03     125.005E-03     132.516E+06     122.828E+06    -9.03417E+06    -9.01757E+06     122.812E+06     132.516E+06     1.09543E+06         71.4536
            1770     844.838E-06     126.225E-03         2.29655         1.57162        -4.64185         2.16705        -4.53509         1.59436    -621.281E-03     336.101E-03    -167.878E-03    -168.223E-03    -168.096E-03     336.093E-03    -167.997E-03     3.16882E-03    -184.549E+06    -189.579E+06    -379.937E+06    -188.442E+06    -379.826E+06    -185.797E+06    -2.63908E+06         48.4181
            1771     1.69092E-03     126.226E-03         1.88736         1.84935        -4.53226         1.84371        -4.51135         1.87210     519.802E-03     336.159E-03    -168.006E-03    -168.153E-03    -168.004E-03     336.129E-03    -168.125E-03     7.34078E-03    -170.590E+06    -182.840E+06    -357.037E+06    -183.138E+06    -356.740E+06    -170.590E+06    -6.81832E+06         48.6303
            1772     2.53570E-03     126.232E-03         1.87435         1.83805        -4.51001         1.84421        -4.50090         1.85908    -181.680E-03     336.715E-03    -168.276E-03    -168.440E-03    -168.355E-03     336.631E-03    -168.276E-03     12.6393E-03    -149.646E+06    -173.551E+06    -332.206E+06    -174.237E+06    -331.520E+06    -149.646E+06    -9.88899E+06         48.9710
            1773     3.38145E-03     126.242E-03         1.84726         1.80758        -4.43623         1.79746        -4.42323         1.84439    -5.62738E-03     337.384E-03    -168.514E-03    -168.870E-03    -168.673E-03     337.195E-03    -168.522E-03     19.2188E-03    -123.826E+06    -161.685E+06    -302.668E+06    -162.849E+06    -301.504E+06    -123.826E+06    -12.4293E+06         49.4340
            1774     4.22639E-03     126.261E-03         1.82509         1.76868        -4.35725         1.75981        -4.34550         1.82221     7.93736E-03     338.484E-03    -168.821E-03    -169.663E-03    -169.310E-03     338.138E-03    -168.828E-03     26.2236E-03    -98.7187E+06    -148.942E+06    -274.994E+06    -150.862E+06    -273.073E+06    -98.7187E+06    -14.9798E+06         50.0025
            1775     5.06763E-03     126.287E-03         1.79274         1.70441        -4.24447         1.68780        -4.22786         1.79274     96.8495E-03     339.614E-03    -169.168E-03    -170.446E-03    -169.863E-03     339.031E-03    -169.168E-03     34.1414E-03    -76.7133E+06    -135.178E+06    -242.281E+06    -138.538E+06    -238.920E+06    -76.7133E+06    -17.9375E+06         50.6499
            1776     5.91093E-03     126.327E-03         1.75329         1.61176        -4.10457         1.60031        -4.09312         1.75329     274.701E-03     339.966E-03    -169.467E-03    -170.500E-03    -169.556E-03     339.023E-03    -169.467E-03     43.5227E-03    -55.9369E+06    -120.214E+06    -207.482E+06    -125.298E+06    -202.398E+06    -55.9369E+06    -19.9312E+06         51.3440
            1777     6.75613E-03     126.378E-03         1.70366         1.49724        -3.93248         1.49336        -3.92859         1.70366     106.721E-03     340.522E-03    -169.692E-03    -170.831E-03    -169.401E-03     339.093E-03    -169.692E-03     53.7402E-03    -35.7958E+06    -104.625E+06    -173.417E+06    -112.143E+06    -165.900E+06    -35.7958E+06    -20.5587E+06         52.0516
            1778     7.59907E-03     126.442E-03         1.64459         1.38765        -3.74952         1.38425        -3.74612         1.64459     207.805E-03     341.690E-03    -169.899E-03    -171.791E-03    -169.771E-03     339.670E-03    -169.899E-03     64.0785E-03    -15.9721E+06    -88.0335E+06    -138.705E+06    -99.0137E+06    -127.725E+06    -15.9721E+06    -20.2608E+06         52.7427
            1779     8.44242E-03     126.518E-03         1.57751         1.27208        -3.54374         1.27199        -3.54365         1.57751     13.1908E-03     342.607E-03    -170.094E-03    -172.513E-03    -169.874E-03     339.968E-03    -170.094E-03     73.4125E-03     4.32777E+06    -62.3484E+06    -103.993E+06    -85.1082E+06    -81.2334E+06     4.32777E+06    -16.8334E+06         53.4030
            1780     9.28460E-03     126.613E-03         1.50421         1.15612        -3.32495         1.15610        -3.32493         1.50421    -3.20673E-03     342.914E-03    -170.247E-03    -172.667E-03    -169.505E-03     339.752E-03    -170.247E-03     80.4408E-03     26.0572E+06    -22.1830E+06    -74.7626E+06    -71.2460E+06    -25.6996E+06     26.0572E+06    -7.31243E+06         54.0576
            1781     10.1284E-03     126.708E-03         1.42608         1.03458        -3.09763         1.03457        -3.09762         1.42608     3.65710E-03     343.312E-03    -170.331E-03    -172.981E-03    -169.285E-03     339.617E-03    -170.331E-03     86.9612E-03     61.4327E+06     28.7783E+06    -58.3426E+06    -57.6551E+06     42.4499E+06     47.0736E+06     4.80538E+06         54.8055
            1782     10.9707E-03     126.823E-03         1.34348     893.892E-03        -2.85443     893.852E-03        -2.85439         1.34348    -20.1223E-03     343.804E-03    -170.435E-03    -173.368E-03    -169.282E-03     339.717E-03    -170.435E-03     91.5734E-03     97.6767E+06     71.6609E+06    -45.9792E+06    -45.1789E+06     96.8764E+06     71.6609E+06     10.2934E+06         55.8769
            1783     11.8133E-03     126.938E-03         1.25522     753.704E-03        -2.60578     748.341E-03        -2.60042         1.25522     166.666E-03     344.640E-03    -170.589E-03    -174.051E-03    -168.914E-03     339.503E-03    -170.589E-03     102.258E-03     109.655E+06     95.4122E+06    -35.9821E+06    -35.4272E+06     106.926E+06     97.5864E+06     8.83750E+06         57.7174
            1784     12.6583E-03     127.085E-03         1.16368     623.322E-03        -2.35440     613.867E-03        -2.34494         1.16368     32.5393E-03     344.090E-03    -170.599E-03    -173.491E-03    -168.020E-03     338.676E-03    -170.656E-03     105.096E-03     114.092E+06     103.810E+06    -26.5483E+06    -26.2690E+06     103.943E+06     113.679E+06     5.88030E+06         60.9655
            1785     13.5035E-03     127.206E-03         1.06593     509.899E-03        -2.10223     498.773E-03        -2.09110         1.06593     33.3326E-03     348.320E-03    -170.548E-03    -177.772E-03    -168.329E-03     338.934E-03    -170.605E-03     134.793E-03     121.799E+06     109.675E+06    -16.5306E+06    -16.4441E+06     109.588E+06     121.799E+06     3.02644E+06         65.9295
            1786     14.3523E-03     127.428E-03     966.650E-03     413.391E-03        -1.85750     397.997E-03        -1.84211     966.650E-03    -2.62740E-03     346.478E-03    -169.591E-03    -176.888E-03    -167.413E-03     337.922E-03    -170.509E-03     125.028E-03     136.915E+06     125.774E+06    -7.73660E+06    -7.71910E+06     125.756E+06     136.915E+06     1.14302E+06         71.4402
            1787     847.019E-06     127.620E-03         1.41511     789.292E-03        -2.87647         1.38256        -2.86303     808.399E-03    -130.019E-03     333.473E-03    -166.268E-03    -167.205E-03    -167.174E-03     333.461E-03    -166.287E-03     4.47165E-03    -181.146E+06    -186.365E+06    -367.740E+06    -185.272E+06    -367.586E+06    -182.394E+06    -5.15188E+06         48.2463
            1788     1.69279E-03     127.623E-03         1.12167         1.07373        -2.88998         1.09163        -2.87904         1.09284     230.587E-03     334.371E-03    -166.926E-03    -167.446E-03    -167.387E-03     334.332E-03    -166.945E-03     8.57999E-03    -167.773E+06    -179.430E+06    -344.162E+06    -179.826E+06    -343.765E+06    -167.773E+06    -7.71323E+06         48.4736
            1789     2.53923E-03     127.629E-03         1.14262         1.08487        -2.92845         1.10872        -2.90077         1.09109    -135.357E-03     335.203E-03    -167.304E-03    -167.899E-03    -167.806E-03     335.110E-03    -167.304E-03     13.4516E-03    -147.559E+06    -171.481E+06    -319.858E+06    -172.547E+06    -318.792E+06    -147.559E+06    -12.0919E+06         48.8336
            1790     3.38385E-03     127.642E-03         1.12325         1.08040        -2.89519         1.08762        -2.86578         1.08663    -99.1412E-03     336.150E-03    -167.666E-03    -168.485E-03    -168.282E-03     335.948E-03    -167.666E-03     19.8120E-03    -124.989E+06    -160.771E+06    -293.543E+06    -162.726E+06    -291.589E+06    -124.989E+06    -15.6396E+06         49.3183
            1791     4.22768E-03     127.662E-03         1.10446         1.06616        -2.83783         1.07446        -2.81661         1.07493    -9.90270E-03     337.522E-03    -168.071E-03    -169.451E-03    -169.055E-03     337.126E-03    -168.071E-03     27.9770E-03    -100.195E+06    -147.373E+06    -265.146E+06    -150.573E+06    -261.946E+06    -100.195E+06    -18.6460E+06         49.9108
            1792     5.07290E-03     127.693E-03         1.08279         1.03322        -2.76001         1.03318        -2.73364         1.05646     43.6583E-03     338.957E-03    -168.510E-03    -170.447E-03    -169.787E-03     338.297E-03    -168.510E-03     36.3909E-03    -77.0987E+06    -133.366E+06    -233.487E+06    -138.468E+06    -228.385E+06    -77.0987E+06    -21.6380E+06         50.5843
            1793     5.91543E-03     127.731E-03         1.03961     977.714E-03        -2.65349     971.677E-03        -2.63671         1.02887     224.700E-03     339.932E-03    -168.931E-03    -171.001E-03    -169.992E-03     338.924E-03    -168.931E-03     45.1171E-03    -55.8213E+06    -118.710E+06    -202.053E+06    -126.474E+06    -194.289E+06    -55.8213E+06    -23.8142E+06         51.3043
            1794     6.75778E-03     127.782E-03     991.139E-03     900.693E-03        -2.52444     894.758E-03        -2.51850     991.139E-03     62.3961E-03     340.846E-03    -169.291E-03    -171.555E-03    -170.111E-03     339.402E-03    -169.291E-03     54.1576E-03    -36.9494E+06    -102.017E+06    -171.336E+06    -114.707E+06    -158.647E+06    -36.9494E+06    -25.9371E+06         52.0341
            1795     7.60196E-03     127.848E-03     944.237E-03     825.385E-03        -2.39273     821.144E-03        -2.38849     944.237E-03     149.527E-03     342.138E-03    -169.629E-03    -172.509E-03    -170.578E-03     340.207E-03    -169.629E-03     62.7978E-03    -18.6766E+06    -84.8333E+06    -142.970E+06    -102.737E+06    -125.067E+06    -18.6766E+06    -26.4674E+06         52.7403
            1796     8.44233E-03     127.928E-03     891.272E-03     764.044E-03        -2.25764     763.621E-03        -2.25721     891.272E-03    -42.9567E-03     342.849E-03    -169.927E-03    -172.923E-03    -170.443E-03     340.370E-03    -169.927E-03     71.2186E-03    -977.811E+03    -62.3859E+06    -114.111E+06     -90.248E+06    -86.2494E+06    -977.811E+03    -23.9799E+06         53.4063
            1797     9.28565E-03     128.016E-03     834.827E-03     711.238E-03        -2.11943     710.691E-03        -2.11888     834.827E-03    -51.3844E-03     343.179E-03    -170.148E-03    -173.030E-03    -170.010E-03     340.159E-03    -170.148E-03     78.6655E-03     17.2163E+06    -32.7647E+06    -86.2408E+06    -76.8925E+06    -42.1130E+06     17.2163E+06    -18.1376E+06         54.0551
            1798     10.1278E-03     128.118E-03     775.078E-03     639.979E-03        -1.96313     639.624E-03        -1.96278     775.078E-03    -38.0310E-03     343.916E-03    -170.292E-03    -173.624E-03    -170.007E-03     340.298E-03    -170.292E-03     86.1353E-03     45.2885E+06     14.1565E+06    -64.1591E+06    -61.3988E+06     20.1227E+06     36.5621E+06    -7.13607E+06         54.7802
            1799     10.9698E-03     128.230E-03     711.559E-03     543.961E-03        -1.78543     543.612E-03        -1.78508     711.559E-03    -41.9059E-03     343.889E-03    -170.406E-03    -173.483E-03    -169.358E-03     339.765E-03    -170.406E-03     91.9947E-03     87.0907E+06     61.0063E+06    -47.5827E+06    -47.0476E+06     86.5556E+06     61.0063E+06     5.25697E+06         55.8051
            1800     11.8136E-03     128.346E-03     643.842E-03     459.516E-03        -1.61478     453.834E-03        -1.60869     643.439E-03     122.248E-03     343.989E-03    -170.521E-03    -173.469E-03    -168.210E-03     338.730E-03    -170.521E-03     103.342E-03     112.425E+06     89.1550E+06    -36.3392E+06    -35.7858E+06     111.871E+06     89.1550E+06     8.95510E+06         57.5777
            1801     12.6589E-03     128.487E-03     580.437E-03     389.222E-03        -1.45417     385.245E-03        -1.44341     573.656E-03     20.9139E-03     342.606E-03    -170.377E-03    -172.229E-03    -166.626E-03     337.169E-03    -170.543E-03     104.967E-03     116.520E+06     104.569E+06    -26.1297E+06    -25.9007E+06     110.251E+06     110.608E+06     5.14889E+06         60.7662
            1802     13.5080E-03     128.608E-03     521.631E-03     317.955E-03        -1.28578     328.427E-03        -1.27336     498.743E-03     20.3365E-03     346.226E-03    -170.269E-03    -175.957E-03    -166.533E-03     336.969E-03    -170.435E-03     133.336E-03     123.891E+06     112.397E+06    -16.6384E+06    -16.5785E+06     112.337E+06     123.891E+06     2.57000E+06         65.7393
            1803     14.3537E-03     128.830E-03     470.371E-03     250.984E-03        -1.12328     282.146E-03        -1.10712     423.045E-03    -806.831E-06     343.846E-03    -168.077E-03    -175.769E-03    -165.121E-03     335.368E-03    -170.247E-03     124.046E-03     140.423E+06     127.256E+06    -8.27849E+06    -8.25177E+06     127.229E+06     140.423E+06     1.69222E+06         71.3516
            1804     848.298E-06     129.014E-03     627.394E-03     82.1980E-03        -1.29387     612.914E-03        -1.18115    -16.0392E-03     23.8800E-03     331.025E-03    -165.000E-03    -166.025E-03    -165.990E-03     331.014E-03    -165.024E-03     4.22974E-03    -176.680E+06    -182.608E+06    -351.999E+06    -181.368E+06    -351.761E+06    -178.157E+06    -5.27969E+06         48.0634
            1805     1.69538E-03     129.017E-03     342.384E-03     292.977E-03        -1.23884     307.312E-03        -1.20830     297.510E-03     107.753E-03     332.210E-03    -165.746E-03    -166.464E-03    -166.391E-03     332.160E-03    -165.769E-03     9.44560E-03    -163.443E+06    -175.149E+06    -331.032E+06    -175.797E+06    -330.383E+06    -163.443E+06    -9.58621E+06         48.3066
            1806     2.54049E-03     129.027E-03     412.427E-03     299.296E-03        -1.32968     327.790E-03        -1.24505     299.296E-03    -142.899E-03     333.718E-03    -166.269E-03    -167.449E-03    -167.328E-03     333.597E-03    -166.269E-03     15.2019E-03    -141.432E+06    -165.450E+06    -305.374E+06    -166.825E+06    -303.998E+06    -141.432E+06    -13.3963E+06         48.6891
            1807     3.38653E-03     129.039E-03     421.382E-03     299.712E-03        -1.33446     334.848E-03        -1.24792     299.712E-03    -133.750E-03     335.219E-03    -166.814E-03    -168.405E-03    -168.166E-03     334.979E-03    -166.814E-03     21.6198E-03    -119.273E+06    -154.462E+06    -281.366E+06    -157.085E+06    -278.743E+06    -119.273E+06    -17.7659E+06         49.1988
            1808     4.23247E-03     129.062E-03     401.808E-03     295.230E-03        -1.28633     338.745E-03        -1.22327     295.230E-03    -39.9897E-03     336.487E-03    -167.337E-03    -169.150E-03    -168.720E-03     336.057E-03    -167.337E-03     29.2039E-03    -96.8743E+06    -142.174E+06    -253.461E+06    -146.661E+06    -248.974E+06    -96.8743E+06    -21.4756E+06         49.8172
            1809     5.07537E-03     129.094E-03     412.252E-03     285.567E-03        -1.25751     336.701E-03        -1.18196     285.567E-03     9.94983E-03     338.044E-03    -167.846E-03    -170.198E-03    -169.514E-03     337.360E-03    -167.846E-03     37.0544E-03    -74.0764E+06    -128.214E+06    -224.141E+06    -135.158E+06    -217.196E+06    -74.0764E+06    -24.5067E+06         50.5185
            1810     5.91919E-03     129.135E-03     366.861E-03     265.577E-03        -1.18047     314.637E-03        -1.13214     269.472E-03     160.543E-03     340.265E-03    -168.396E-03    -171.869E-03    -170.853E-03     339.249E-03    -168.396E-03     45.3551E-03    -53.3136E+06    -113.130E+06    -195.151E+06    -123.415E+06    -184.866E+06    -53.3136E+06    -26.6977E+06         51.2661
            1811     6.76105E-03     129.189E-03     316.073E-03     232.470E-03        -1.09702     283.472E-03        -1.07750     245.549E-03     10.8535E-03     342.137E-03    -168.976E-03    -173.161E-03    -171.705E-03     340.680E-03    -168.976E-03     54.5091E-03    -34.1562E+06    -96.7130E+06    -165.068E+06    -112.210E+06    -149.570E+06    -34.1562E+06    -28.0744E+06         52.0158
            1812     7.59984E-03     129.256E-03     295.953E-03     192.658E-03        -1.03189     262.058E-03        -1.02027     214.928E-03     88.6574E-03     342.969E-03    -169.490E-03    -173.479E-03    -171.498E-03     340.988E-03    -169.490E-03     63.6824E-03    -17.4916E+06    -79.8042E+06    -141.594E+06    -101.780E+06    -119.618E+06    -17.4916E+06    -29.3094E+06         52.7302
            1813     8.44319E-03     129.335E-03     268.518E-03     163.958E-03    -958.618E-03     249.666E-03    -955.991E-03     180.184E-03    -77.3710E-03     343.428E-03    -169.876E-03    -173.552E-03    -171.071E-03     340.947E-03    -169.876E-03     71.3844E-03    -2.21481E+06    -58.6395E+06    -118.422E+06    -90.6825E+06    -86.3787E+06    -2.21481E+06    -28.8330E+06         53.3926
            1814     9.28463E-03     129.424E-03     237.530E-03     143.276E-03    -878.463E-03     232.117E-03    -872.219E-03     142.445E-03    -74.1144E-03     343.922E-03    -170.167E-03    -173.756E-03    -170.745E-03     340.911E-03    -170.167E-03     78.6287E-03     14.6132E+06    -31.6904E+06    -94.8665E+06    -78.8181E+06    -47.7388E+06     14.6132E+06    -26.7847E+06         54.0231
            1815     10.1268E-03     129.527E-03     211.663E-03     124.962E-03    -809.250E-03     204.696E-03    -778.899E-03     101.579E-03    -59.7089E-03     343.641E-03    -170.337E-03    -173.304E-03    -169.722E-03     340.059E-03    -170.337E-03     85.6965E-03     31.5952E+06     4.70293E+06    -73.0990E+06    -65.5701E+06    -1.50118E+06     30.2704E+06    -19.6238E+06         54.7101
            1816     10.9710E-03     129.636E-03     188.657E-03     110.406E-03    -755.640E-03     174.434E-03    -689.536E-03     58.5248E-03    -50.1232E-03     342.574E-03    -170.368E-03    -172.206E-03    -168.148E-03     338.516E-03    -170.368E-03     91.0054E-03     69.4285E+06     44.8314E+06    -52.8864E+06    -51.2056E+06     62.8562E+06     49.7229E+06    -5.04843E+06         55.6755
            1817     11.8162E-03     129.752E-03     182.148E-03     87.4120E-03    -711.283E-03     159.761E-03    -614.735E-03     13.2506E-03     88.3880E-03     342.547E-03    -170.352E-03    -172.195E-03    -167.021E-03     337.372E-03    -170.352E-03     102.296E-03     110.481E+06     76.0304E+06    -38.5759E+06    -38.2700E+06     110.175E+06     76.0304E+06     4.69801E+06         57.3700
            1818     12.6617E-03     129.890E-03     180.763E-03     70.6353E-03    -671.512E-03     153.863E-03    -542.224E-03    -31.7530E-03     15.1985E-03     341.390E-03    -169.869E-03    -171.522E-03    -165.683E-03     336.005E-03    -170.322E-03     104.298E-03     119.586E+06     99.7876E+06    -28.2502E+06    -28.0732E+06     117.175E+06     102.021E+06     4.66770E+06         60.4835
            1819     13.5066E-03     130.007E-03     183.142E-03     53.6314E-03    -624.379E-03     156.072E-03    -462.976E-03    -80.7018E-03     14.1075E-03     343.907E-03    -169.717E-03    -174.190E-03    -164.248E-03     334.419E-03    -170.171E-03     134.130E-03     123.878E+06     113.450E+06    -19.5019E+06    -19.4364E+06     114.880E+06     122.382E+06     2.26317E+06         65.4483
            1820     14.3600E-03     130.226E-03     205.591E-03     26.8912E-03    -582.750E-03     179.217E-03    -400.424E-03    -129.061E-03     1.14953E-03     339.077E-03    -165.239E-03    -173.839E-03    -160.433E-03     330.252E-03    -169.819E-03     125.958E-03     143.815E+06     127.482E+06    -9.68812E+06    -9.66904E+06     127.463E+06     143.815E+06     996.822E+03         71.1632
            1821     847.663E-06     130.402E-03     809.721E-03    -438.498E-03    -880.898E-03    -140.143E-03     435.883E-03    -805.414E-03    -228.759E-03     328.930E-03    -164.269E-03    -164.662E-03    -164.551E-03     328.909E-03    -164.358E-03     5.69258E-03    -167.608E+06    -173.199E+06    -335.119E+06    -172.009E+06    -334.832E+06    -169.085E+06    -5.74225E+06         47.8717
            1822     1.69655E-03     130.409E-03     570.612E-03    -470.455E-03    -645.777E-03    -459.589E-03     387.388E-03    -473.418E-03     139.743E-03     329.944E-03    -164.658E-03    -165.285E-03    -165.195E-03     329.876E-03    -164.682E-03     11.0881E-03    -155.518E+06    -166.468E+06    -314.744E+06    -167.324E+06    -313.888E+06    -155.518E+06    -10.8610E+06         48.1286
            1823     2.54528E-03     130.419E-03     618.375E-03    -470.507E-03    -697.799E-03    -461.815E-03     386.396E-03    -474.512E-03    -163.088E-03     331.907E-03    -165.199E-03    -166.708E-03    -166.558E-03     331.757E-03    -165.199E-03     17.0400E-03    -134.477E+06    -157.547E+06    -291.812E+06    -159.201E+06    -290.158E+06    -134.477E+06    -14.6187E+06         48.5329
            1824     3.39027E-03     130.437E-03     638.331E-03    -471.056E-03    -705.771E-03    -446.153E-03     385.949E-03    -478.292E-03    -52.5806E-03     334.202E-03    -165.892E-03    -168.310E-03    -168.028E-03     333.920E-03    -165.892E-03     23.5188E-03    -110.936E+06    -146.678E+06    -266.515E+06    -149.710E+06    -263.483E+06    -110.936E+06    -18.4259E+06         49.0691
            1825     4.23331E-03     130.461E-03     630.329E-03    -456.695E-03    -687.911E-03    -422.588E-03     390.668E-03    -482.356E-03    -12.0948E-03     336.102E-03    -166.609E-03    -169.493E-03    -169.015E-03     335.624E-03    -166.609E-03     30.7851E-03    -89.5539E+06    -134.633E+06    -240.407E+06    -139.769E+06    -235.271E+06    -89.5539E+06    -22.4254E+06         49.7141
            1826     5.07902E-03     130.495E-03     633.048E-03    -435.545E-03    -690.975E-03    -386.585E-03     380.341E-03    -487.228E-03     52.9436E-03     338.167E-03    -167.304E-03    -170.863E-03    -170.118E-03     337.422E-03    -167.304E-03     38.7073E-03    -68.5593E+06    -121.268E+06    -212.987E+06    -129.043E+06    -205.212E+06    -68.5593E+06    -25.2664E+06         50.4383
            1827     5.92087E-03     130.541E-03     584.564E-03    -407.742E-03    -660.130E-03    -353.163E-03     363.476E-03    -493.620E-03     167.287E-03     340.607E-03    -168.011E-03    -172.596E-03    -171.511E-03     339.522E-03    -168.011E-03     46.9407E-03    -49.9637E+06    -107.369E+06    -186.498E+06    -119.576E+06    -174.292E+06    -49.9637E+06    -28.0520E+06         51.2019
            1828     6.76100E-03     130.597E-03     529.394E-03    -380.179E-03    -628.171E-03    -323.734E-03     347.295E-03    -502.517E-03     46.4204E-03     342.335E-03    -168.703E-03    -173.633E-03    -172.121E-03     340.824E-03    -168.703E-03     55.5807E-03    -31.7689E+06    -91.5458E+06    -160.062E+06    -109.352E+06    -142.255E+06    -31.7689E+06    -29.6475E+06         51.9587
            1829     7.60415E-03     130.664E-03     515.622E-03    -371.577E-03    -617.004E-03    -297.941E-03     339.566E-03    -514.584E-03     105.802E-03     343.344E-03    -169.296E-03    -174.047E-03    -172.004E-03     341.300E-03    -169.296E-03     64.7338E-03    -13.9801E+06    -72.6939E+06    -136.633E+06    -98.3160E+06    -111.011E+06    -13.9801E+06    -30.8059E+06         52.6690
            1830     8.44361E-03     130.744E-03     505.119E-03    -367.663E-03    -596.221E-03    -281.318E-03     352.874E-03    -530.321E-03    -28.1573E-03     344.147E-03    -169.765E-03    -174.382E-03    -171.800E-03     341.564E-03    -169.765E-03     72.9237E-03     662.731E+03    -53.3284E+06    -118.001E+06    -88.5856E+06    -82.7440E+06     662.731E+03    -31.8658E+06         53.3137
            1831     9.28438E-03     130.834E-03     496.217E-03    -361.938E-03    -571.494E-03    -272.451E-03     384.845E-03    -549.610E-03    -26.3937E-03     344.096E-03    -170.098E-03    -173.999E-03    -170.859E-03     340.957E-03    -170.098E-03     80.2990E-03     15.7104E+06    -26.9779E+06    -98.5610E+06    -78.6729E+06    -46.8660E+06     15.7104E+06    -30.9740E+06         53.9109
            1832     10.1265E-03     130.934E-03     483.630E-03    -327.645E-03    -571.103E-03    -247.457E-03     403.442E-03    -571.103E-03    -22.2482E-03     343.177E-03    -170.259E-03    -172.917E-03    -169.185E-03     339.445E-03    -170.259E-03     87.3584E-03     28.6860E+06    -1.59167E+06    -79.4135E+06    -67.7685E+06    -13.2367E+06     28.6860E+06    -27.1105E+06         54.5487
            1833     10.9702E-03     131.041E-03     467.206E-03    -273.918E-03    -592.625E-03    -209.522E-03     402.809E-03    -592.625E-03    -24.1309E-03     341.813E-03    -170.218E-03    -171.594E-03    -167.377E-03     337.596E-03    -170.218E-03     92.5943E-03     56.3204E+06     26.3410E+06    -60.1519E+06    -54.9785E+06     37.5736E+06     39.9145E+06    -17.1572E+06         55.4466
            1834     11.8160E-03     131.154E-03     461.309E-03    -233.716E-03    -614.353E-03    -157.355E-03     384.948E-03    -614.353E-03     75.3809E-03     340.901E-03    -170.080E-03    -170.822E-03    -165.448E-03     335.533E-03    -170.085E-03     103.793E-03     97.4275E+06     63.6816E+06    -41.4438E+06    -40.7250E+06     96.7087E+06     63.6816E+06    -4.24301E+06         57.0547
            1835     12.6640E-03     131.291E-03     439.145E-03    -174.374E-03    -633.844E-03    -90.6088E-03     355.380E-03    -633.844E-03     22.4051E-03     338.408E-03    -168.132E-03    -170.276E-03    -162.835E-03     332.732E-03    -169.897E-03     106.489E-03     117.603E+06     91.2301E+06    -28.8481E+06    -28.7663E+06     117.521E+06     91.2301E+06     2.64951E+06         60.0907
            1836     13.5162E-03     131.405E-03     404.543E-03    -94.5561E-03    -654.291E-03    -6.07191E-03     316.059E-03    -654.291E-03     24.0679E-03     339.296E-03    -167.781E-03    -171.515E-03    -159.648E-03     329.188E-03    -169.540E-03     137.194E-03     125.247E+06     109.960E+06    -19.3480E+06    -19.2930E+06     118.938E+06     116.215E+06     1.98503E+06         65.0666
            1837     14.3703E-03     131.613E-03     377.574E-03    -22.9692E-03    -671.412E-03     93.0702E-03     261.534E-03    -671.412E-03     20.1722E-03     332.661E-03    -161.743E-03    -170.918E-03    -154.161E-03     323.104E-03    -168.943E-03     130.226E-03     146.298E+06     127.579E+06    -9.73280E+06    -9.72221E+06     127.569E+06     146.298E+06     38.9084E+03         70.9302
            1838     850.907E-06     131.789E-03         2.27842        -1.16872        -1.56660    -880.496E-03         1.98330        -1.55970    -824.272E-03     326.441E-03    -162.725E-03    -163.717E-03    -163.623E-03     326.413E-03    -162.791E-03     6.91113E-03    -155.082E+06    -160.206E+06    -317.895E+06    -159.391E+06    -317.646E+06    -156.145E+06    -5.71206E+06         47.6614
            1839     1.69915E-03     131.796E-03         1.96817        -1.21617        -1.23880        -1.19367         1.92600        -1.21913     261.151E-03     327.974E-03    -163.511E-03    -164.463E-03    -164.374E-03     327.885E-03    -163.511E-03     12.7835E-03    -143.981E+06    -154.687E+06    -297.645E+06    -155.516E+06    -296.816E+06    -143.981E+06    -10.3721E+06         47.9282
            1840     2.54589E-03     131.811E-03         1.94053        -1.20319        -1.23160        -1.20663         1.93121        -1.21884    -228.424E-03     330.065E-03    -164.140E-03    -165.925E-03    -165.723E-03     329.863E-03    -164.140E-03     19.5416E-03    -125.088E+06    -147.368E+06    -277.141E+06    -149.194E+06    -275.314E+06    -125.088E+06    -15.0028E+06         48.3474
            1841     3.39301E-03     131.832E-03         1.92355        -1.18848        -1.22335        -1.18429         1.91936        -1.22335     38.7247E-03     332.684E-03    -164.903E-03    -167.781E-03    -167.425E-03     332.328E-03    -164.903E-03     26.4214E-03    -102.650E+06    -137.414E+06    -251.884E+06    -140.579E+06    -248.718E+06    -102.650E+06    -18.4954E+06         48.9024
            1842     4.23935E-03     131.859E-03         1.91646        -1.15069        -1.22576        -1.14676         1.91254        -1.22576     18.7706E-03     335.721E-03    -165.777E-03    -169.945E-03    -169.369E-03     335.145E-03    -165.777E-03     33.8681E-03    -81.5506E+06    -126.360E+06    -226.913E+06    -131.434E+06    -221.839E+06    -81.5506E+06    -21.7223E+06         49.5650
            1843     5.08034E-03     131.897E-03         1.88216        -1.08876        -1.22555        -1.08001         1.87341        -1.22555     121.390E-03     338.437E-03    -166.690E-03    -171.747E-03    -170.860E-03     337.550E-03    -166.690E-03     42.2370E-03    -61.7525E+06    -114.283E+06    -201.296E+06    -122.125E+06    -193.453E+06    -61.7525E+06    -24.5819E+06         50.2979
            1844     5.92248E-03     131.946E-03         1.81223        -1.01260        -1.22272        -1.00540         1.80504        -1.22272     183.110E-03     340.473E-03    -167.543E-03    -172.930E-03    -171.656E-03     339.199E-03    -167.543E-03     50.8350E-03    -42.5034E+06    -99.9969E+06    -174.747E+06    -111.986E+06    -162.758E+06    -42.5034E+06    -27.0210E+06         51.0588
            1845     6.76481E-03     132.005E-03         1.73558    -938.861E-03        -1.21905    -936.480E-03         1.73320        -1.21905     106.129E-03     342.306E-03    -168.303E-03    -174.003E-03    -172.313E-03     340.616E-03    -168.303E-03     58.8256E-03    -24.7739E+06    -83.8378E+06    -151.209E+06    -102.162E+06    -132.885E+06    -24.7739E+06    -29.5374E+06         51.8027
            1846     7.60382E-03     132.072E-03         1.68517    -886.987E-03        -1.21697    -884.482E-03         1.68266        -1.21697     130.436E-03     343.427E-03    -168.952E-03    -174.475E-03    -172.292E-03     341.244E-03    -168.952E-03     66.9139E-03    -8.98092E+06    -66.3698E+06    -130.190E+06    -93.4507E+06    -103.110E+06    -8.98092E+06    -31.0321E+06         52.4881
            1847     8.44575E-03     132.154E-03         1.64055    -829.813E-03        -1.21749    -829.427E-03         1.64016        -1.21749     28.8140E-03     343.306E-03    -169.431E-03    -173.875E-03    -171.079E-03     340.510E-03    -169.431E-03     75.6785E-03     6.31227E+06    -47.6494E+06    -113.044E+06    -84.9954E+06    -75.6985E+06     6.31227E+06    -32.1288E+06         53.0946
            1848     9.28754E-03     132.243E-03         1.59735    -762.476E-03        -1.21919    -762.190E-03         1.59706        -1.21919     21.4746E-03     342.635E-03    -169.680E-03    -172.955E-03    -169.477E-03     339.157E-03    -169.680E-03     84.2439E-03     18.9233E+06    -23.5484E+06    -96.6870E+06    -75.9310E+06    -44.3044E+06     18.9233E+06    -32.1009E+06         53.6442
            1849     10.1316E-03     132.340E-03         1.53802    -682.905E-03        -1.22048    -682.583E-03         1.53770        -1.22048     14.2564E-03     341.798E-03    -169.748E-03    -172.050E-03    -167.835E-03     337.583E-03    -169.748E-03     92.5295E-03     31.1741E+06    -645.935E+03    -81.3633E+06    -67.0554E+06    -14.9539E+06     31.1741E+06    -30.6059E+06         54.2278
            1850     10.9765E-03     132.445E-03         1.45785    -591.682E-03        -1.21996    -591.463E-03         1.45763        -1.21996     1.60726E-03     340.066E-03    -169.336E-03    -170.730E-03    -165.547E-03     335.157E-03    -169.611E-03     99.4778E-03     46.6349E+06     24.0976E+06    -65.3132E+06    -56.3677E+06     22.0356E+06     39.7514E+06    -26.0260E+06         55.0647
            1851     11.8233E-03     132.555E-03         1.34765    -474.383E-03        -1.21754    -472.871E-03         1.34614        -1.21754     83.6468E-03     338.206E-03    -168.696E-03    -169.510E-03    -162.463E-03     331.753E-03    -169.290E-03     112.912E-03     78.5872E+06     55.7414E+06    -46.7389E+06    -43.8565E+06     75.5913E+06     55.8549E+06    -14.6982E+06         56.6137
            1852     12.6741E-03     132.686E-03         1.20609    -327.457E-03        -1.21016    -325.692E-03         1.20433        -1.21016     53.6575E-03     334.388E-03    -165.558E-03    -168.830E-03    -158.626E-03     327.455E-03    -168.830E-03     116.443E-03     110.522E+06     78.4065E+06    -31.0269E+06    -30.6421E+06     110.137E+06     78.4065E+06    -4.07124E+06         59.6357
            1853     13.5285E-03     132.793E-03         1.05197    -164.546E-03        -1.20049    -161.423E-03         1.04884        -1.20049     61.7251E-03     334.238E-03    -165.244E-03    -168.993E-03    -154.576E-03     322.772E-03    -168.196E-03     145.235E-03     123.177E+06     100.551E+06    -18.5168E+06    -18.4808E+06     120.572E+06     103.120E+06    -285.928E+03         64.7245
            1854     14.3938E-03     132.991E-03     885.424E-03     6.19298E-03        -1.18538     9.61404E-03     882.003E-03        -1.18538     60.0184E-03     327.617E-03    -159.397E-03    -168.220E-03    -149.708E-03     317.130E-03    -167.422E-03     134.831E-03     145.550E+06     123.606E+06    -8.86931E+06    -8.85841E+06     127.386E+06     141.759E+06    -438.988E+03         70.8350
            1855     849.955E-06     133.171E-03         4.00259        -2.12361        -2.32209        -1.62914         3.43648        -2.25045        -1.46564     324.075E-03    -161.588E-03    -162.487E-03    -162.450E-03     324.038E-03    -161.588E-03     7.34808E-03    -144.572E+06    -149.546E+06    -300.585E+06    -148.790E+06    -300.277E+06    -145.634E+06    -6.19114E+06         47.4026
            1856     1.70082E-03     133.182E-03         3.50006        -1.93775        -2.00472        -1.90400         3.39933        -1.93775     444.118E-03     325.646E-03    -162.329E-03    -163.316E-03    -163.196E-03     325.525E-03    -162.329E-03     14.8163E-03    -130.900E+06    -142.061E+06    -280.996E+06    -142.910E+06    -280.147E+06    -130.900E+06    -10.4489E+06         47.6707
            1857     2.55054E-03     133.199E-03         3.42442        -1.90666        -1.95541        -1.90390         3.39994        -1.93369    -314.008E-03     327.917E-03    -162.972E-03    -164.944E-03    -164.684E-03     327.656E-03    -162.972E-03     22.3374E-03    -111.782E+06    -133.763E+06    -261.664E+06    -135.497E+06    -259.930E+06    -111.782E+06    -14.5379E+06         48.0907
            1858     3.39775E-03     133.224E-03         3.35525        -1.85879        -1.93196        -1.85489         3.35134        -1.93196     90.6745E-03     330.872E-03    -163.779E-03    -167.094E-03    -166.629E-03     330.407E-03    -163.779E-03     30.1017E-03    -90.9062E+06    -123.988E+06    -238.652E+06    -126.834E+06    -235.806E+06    -90.9062E+06    -17.6127E+06         48.6448
            1859     4.24151E-03     133.257E-03         3.29720        -1.79046        -1.92533        -1.78905         3.29579        -1.92533    -8.13308E-03     334.409E-03    -164.734E-03    -169.674E-03    -168.928E-03     333.662E-03    -164.734E-03     38.3845E-03    -69.5649E+06    -113.069E+06    -213.419E+06    -117.660E+06    -208.827E+06    -69.5649E+06    -20.6316E+06         49.3013
            1860     5.08603E-03     133.300E-03         3.22675        -1.70793        -1.91480        -1.70642         3.22525        -1.91480     143.840E-03     337.334E-03    -165.733E-03    -171.601E-03    -170.498E-03     336.232E-03    -165.733E-03     47.0591E-03    -50.4671E+06    -101.077E+06    -188.832E+06    -108.475E+06    -181.434E+06    -50.4671E+06    -23.9945E+06         50.0185
            1861     5.92816E-03     133.350E-03         3.14812        -1.62701        -1.90217        -1.62563         3.14674        -1.90217     139.098E-03     339.396E-03    -166.643E-03    -172.753E-03    -171.193E-03     337.835E-03    -166.643E-03     56.1795E-03    -32.1572E+06    -88.4616E+06    -163.438E+06    -99.0149E+06    -152.884E+06    -32.1572E+06    -25.7966E+06         50.7518
            1862     6.76898E-03     133.412E-03         3.05844        -1.54583        -1.88948        -1.54498         3.05759        -1.88948     119.474E-03     340.973E-03    -167.408E-03    -173.564E-03    -171.440E-03     338.848E-03    -167.408E-03     65.6537E-03    -14.6735E+06    -75.0138E+06    -138.411E+06    -90.4404E+06    -122.985E+06    -14.6735E+06    -26.6794E+06         51.4577
            1863     7.61024E-03     133.483E-03         2.95862        -1.45496        -1.87662        -1.45379         2.95746        -1.87662     134.808E-03     341.682E-03    -168.005E-03    -173.677E-03    -170.876E-03     338.881E-03    -168.005E-03     75.3307E-03     736.580E+03    -60.3142E+06    -118.365E+06    -82.7177E+06    -95.9615E+06     736.580E+03    -27.8893E+06         52.0982
            1864     8.45148E-03     133.559E-03         2.84421        -1.34386        -1.86230        -1.34307         2.84343        -1.86230     90.4048E-03     341.055E-03    -168.377E-03    -172.678E-03    -169.131E-03     337.507E-03    -168.377E-03     84.6609E-03     15.8366E+06    -40.1585E+06    -101.066E+06    -75.0212E+06    -66.2035E+06     15.8366E+06    -29.2231E+06         52.6562
            1865     9.29731E-03     133.648E-03         2.72339        -1.22139        -1.84566        -1.22052         2.72252        -1.84566     89.5913E-03     339.818E-03    -168.494E-03    -171.324E-03    -166.947E-03     335.440E-03    -168.494E-03     93.7600E-03     27.7355E+06    -21.6494E+06    -87.3863E+06    -68.4670E+06    -40.5687E+06     27.7355E+06    -29.6136E+06         53.1578
            1866     10.1428E-03     133.742E-03         2.58372        -1.08416        -1.82598        -1.08323         2.58280        -1.82598     83.0693E-03     338.124E-03    -168.285E-03    -169.839E-03    -164.407E-03     332.789E-03    -168.382E-03     103.068E-03     40.5213E+06     3.67201E+06    -75.9614E+06    -61.9476E+06    -10.3417E+06     40.5213E+06    -29.4282E+06         53.7016
            1867     10.9915E-03     133.845E-03         2.41581    -929.841E-03        -1.80185    -929.037E-03         2.41501        -1.80185     70.2156E-03     335.534E-03    -167.188E-03    -168.347E-03    -161.180E-03     329.211E-03    -168.031E-03     111.586E-03     48.8871E+06     28.0285E+06    -64.7152E+06    -54.6650E+06     17.9783E+06     48.8871E+06    -28.5316E+06         54.5221
            1868     11.8449E-03     133.947E-03         2.20874    -744.274E-03        -1.77324    -742.696E-03         2.20717        -1.77324     133.802E-03     333.452E-03    -166.022E-03    -167.431E-03    -157.822E-03     325.252E-03    -167.431E-03     126.153E-03     73.0671E+06     47.0065E+06    -50.7288E+06    -44.6954E+06     59.0697E+06     54.9704E+06    -23.2780E+06         56.1067
            1869     12.7023E-03     134.075E-03         1.97683    -539.382E-03        -1.73814    -537.832E-03         1.97528        -1.73814     119.191E-03     330.231E-03    -163.512E-03    -166.718E-03    -154.872E-03     321.590E-03    -166.718E-03     129.180E-03     100.886E+06     68.7606E+06    -33.7972E+06    -31.5250E+06     98.6136E+06     68.7606E+06    -15.2718E+06         59.2715
            1870     13.5625E-03     134.173E-03         1.73258    -322.315E-03        -1.69989    -320.189E-03         1.73046        -1.69989     120.062E-03     332.182E-03    -163.453E-03    -168.729E-03    -153.428E-03     319.423E-03    -165.996E-03     154.263E-03     112.516E+06     88.0747E+06    -19.3783E+06    -18.5796E+06     111.717E+06     88.0747E+06    -6.59505E+06         64.6780
            1871     14.4248E-03     134.364E-03         1.45988    -82.0564E-03        -1.65581    -80.2392E-03         1.45806        -1.65581     97.9607E-03     329.082E-03    -160.943E-03    -168.139E-03    -152.812E-03     318.218E-03    -165.406E-03     136.458E-03     141.425E+06     114.495E+06    -8.00883E+06    -7.98276E+06     124.882E+06     131.012E+06    -455.288E+03         71.1939
            1872     852.465E-06     134.550E-03         5.57328        -2.83203        -3.11948        -2.37071         4.82450        -2.83203        -1.94181     320.944E-03    -159.946E-03    -160.998E-03    -160.934E-03     320.880E-03    -159.946E-03     10.0912E-03    -127.702E+06    -131.874E+06    -282.262E+06    -131.272E+06    -281.902E+06    -128.664E+06    -6.31228E+06         47.0256
            1873     1.70328E-03     134.564E-03         4.90719        -2.60155        -2.72244        -2.57505         4.75980        -2.60155     593.783E-03     322.617E-03    -160.744E-03    -161.873E-03    -161.691E-03     322.435E-03    -160.744E-03     18.1972E-03    -116.809E+06    -126.658E+06    -265.165E+06    -127.471E+06    -264.351E+06    -116.809E+06    -10.4076E+06         47.2840
            1874     2.55272E-03     134.584E-03         4.74780        -2.55102        -2.61304        -2.52682         4.70419        -2.59363    -355.645E-03     324.984E-03    -161.396E-03    -163.588E-03    -163.213E-03     324.609E-03    -161.396E-03     26.4479E-03    -100.024E+06    -120.573E+06    -247.204E+06    -122.219E+06    -245.558E+06    -100.024E+06    -13.9614E+06         47.6856
            1875     3.40136E-03     134.613E-03         4.64946        -2.47189        -2.58073        -2.46067         4.63825        -2.58073     186.695E-03     327.892E-03    -162.185E-03    -165.707E-03    -165.029E-03     327.215E-03    -162.185E-03     35.9383E-03    -81.0850E+06    -111.332E+06    -225.778E+06    -114.302E+06    -222.808E+06    -81.0850E+06    -17.9260E+06         48.2103
            1876     4.24925E-03     134.652E-03         4.56719        -2.38173        -2.56382        -2.37735         4.56281        -2.56382     1.19165E-03     331.035E-03    -163.066E-03    -167.969E-03    -166.887E-03     329.952E-03    -163.066E-03     45.9634E-03    -60.3690E+06    -99.8549E+06    -201.475E+06    -104.323E+06    -197.007E+06    -60.3690E+06    -20.6599E+06         48.8275
            1877     5.09299E-03     134.698E-03         4.46551        -2.28349        -2.54326        -2.28111         4.46312        -2.54326     206.521E-03     333.936E-03    -163.968E-03    -169.968E-03    -168.400E-03     332.367E-03    -163.968E-03     55.5659E-03    -40.3229E+06    -88.7165E+06    -176.736E+06     -95.037E+06    -170.416E+06    -40.3229E+06    -22.4931E+06         49.4982
            1878     5.93674E-03     134.752E-03         4.35810        -2.19111        -2.52073        -2.18952         4.35651        -2.52073     166.568E-03     335.870E-03    -164.783E-03    -171.087E-03    -168.872E-03     333.656E-03    -164.783E-03     66.1559E-03    -22.1648E+06    -78.5287E+06    -153.686E+06    -87.1525E+06    -145.062E+06    -22.1648E+06    -23.7037E+06         50.1787
            1879     6.78086E-03     134.815E-03         4.22990        -2.08019        -2.49677        -2.07815         4.22786        -2.49677     210.186E-03     336.415E-03    -165.391E-03    -171.025E-03    -168.019E-03     333.410E-03    -165.391E-03     77.2633E-03    -4.33481E+06    -66.9506E+06    -128.371E+06    -79.1242E+06    -116.197E+06    -4.33481E+06    -23.8729E+06         50.8293
            1880     7.62685E-03     134.884E-03         4.08173        -1.95017        -2.46990        -1.94756         4.07911        -2.46990     231.508E-03     336.608E-03    -165.766E-03    -170.842E-03    -166.909E-03     332.675E-03    -165.766E-03     88.4344E-03     13.6111E+06    -51.9106E+06    -105.524E+06    -70.5255E+06    -86.9095E+06     13.6111E+06    -25.0674E+06         51.4213
            1881     8.47356E-03     134.964E-03         3.91608        -1.80217        -2.43907        -1.79943         3.91334        -2.43907     231.636E-03     336.439E-03    -165.943E-03    -170.496E-03    -165.597E-03     331.540E-03    -165.943E-03     98.7176E-03     29.0823E+06    -34.4223E+06    -87.0303E+06    -61.9715E+06    -59.4810E+06     29.0823E+06    -25.4423E+06         51.9462
            1882     9.31925E-03     135.045E-03         3.72784        -1.63250        -2.40358        -1.62986         3.72521        -2.40358     219.231E-03     334.753E-03    -165.901E-03    -168.853E-03    -162.780E-03     328.680E-03    -165.901E-03     109.273E-03     43.9553E+06    -16.0910E+06    -71.6609E+06    -53.6469E+06     -34.105E+06     43.9553E+06    -25.6134E+06         52.4372
            1883     10.1709E-03     135.139E-03         3.50119        -1.43260        -2.36234        -1.42998         3.49857        -2.36234     213.865E-03     332.199E-03    -165.474E-03    -166.725E-03    -159.254E-03     324.825E-03    -165.571E-03     119.815E-03     56.2989E+06     7.31075E+06    -58.7068E+06    -45.4307E+06    -5.96534E+06     56.2989E+06    -25.4780E+06         53.0085
            1884     11.0263E-03     135.231E-03         3.24463        -1.21455        -2.31419        -1.21198         3.24206        -2.31419     197.968E-03     329.964E-03    -164.456E-03    -165.509E-03    -156.471E-03     321.495E-03    -165.024E-03     127.953E-03     66.8594E+06     29.8237E+06    -47.5587E+06    -38.5669E+06     20.8320E+06     66.8594E+06    -24.2976E+06         53.9195
            1885     11.8833E-03     135.333E-03         2.96688    -984.845E-03        -2.26053    -981.461E-03         2.96350        -2.26053     228.823E-03     329.587E-03    -163.511E-03    -166.075E-03    -154.984E-03     319.316E-03    -164.332E-03     140.607E-03     82.2993E+06     54.1587E+06    -38.9861E+06    -32.0610E+06     57.7538E+06     71.7790E+06    -25.0096E+06         55.6928
            1886     12.7431E-03     135.452E-03         2.66875    -740.244E-03        -2.20111    -737.026E-03         2.66553        -2.20111     207.613E-03     329.282E-03    -162.347E-03    -166.935E-03    -155.468E-03     319.170E-03    -163.702E-03     139.578E-03     93.7565E+06     74.7703E+06    -28.9883E+06    -25.0584E+06     86.6602E+06     77.9366E+06    -20.6847E+06         59.1976
            1887     13.6009E-03     135.554E-03         2.34078    -467.396E-03        -2.13885    -464.704E-03         2.33809        -2.13885     172.126E-03     335.755E-03    -162.282E-03    -173.473E-03    -159.258E-03     322.546E-03    -163.289E-03     159.506E-03     101.068E+06     79.7130E+06    -19.8309E+06    -18.5379E+06     96.6091E+06     82.8793E+06    -10.5937E+06         65.1608
            1888     14.4573E-03     135.745E-03         1.96735    -159.078E-03        -2.07091    -157.278E-03         1.96555        -2.07091     122.827E-03     339.882E-03    -162.722E-03    -177.160E-03    -165.930E-03     329.312E-03    -163.382E-03     136.023E-03     135.410E+06     105.226E+06    -10.5669E+06    -10.4006E+06     117.949E+06     122.521E+06    -1.99813E+06         72.3323
            1889     854.142E-06     135.926E-03         6.71833        -3.32666        -3.77601        -3.02122         5.96354        -3.32666        -2.12386     315.368E-03    -156.809E-03    -158.559E-03    -158.460E-03     315.269E-03    -156.809E-03     12.3712E-03    -119.032E+06    -122.361E+06    -265.076E+06    -121.303E+06    -264.761E+06    -120.404E+06    -5.71719E+06         46.4264
            1890     1.70747E-03     135.940E-03         6.06304        -3.16844        -3.28459        -3.12961         5.90993        -3.17031     651.751E-03     317.118E-03    -157.915E-03    -159.202E-03    -158.891E-03     316.806E-03    -157.915E-03     23.4233E-03    -108.963E+06    -117.091E+06    -249.551E+06    -117.923E+06    -248.719E+06    -108.963E+06    -9.92151E+06         46.6606
            1891     2.56011E-03     135.965E-03         5.87266        -3.10128        -3.16119        -3.05807         5.82164        -3.15339    -321.200E-03     319.685E-03    -158.556E-03    -161.129E-03    -160.492E-03     319.048E-03    -158.556E-03     34.3200E-03    -92.0164E+06    -109.139E+06    -232.493E+06    -110.993E+06    -230.640E+06    -92.0164E+06    -14.6448E+06         47.0218
            1892     3.41073E-03     135.997E-03         5.74436        -2.99760        -3.13088        -2.98175         5.72851        -3.13088     317.290E-03     322.265E-03    -159.295E-03    -162.971E-03    -161.876E-03     321.171E-03    -159.295E-03     45.3079E-03    -72.2679E+06    -99.8414E+06    -212.306E+06    -102.956E+06    -209.192E+06    -72.2679E+06    -18.2849E+06         47.4894
            1893     4.25975E-03     136.040E-03         5.64440        -2.90280        -3.10605        -2.89570         5.63730        -3.10605     115.854E-03     324.436E-03    -159.994E-03    -164.442E-03    -162.731E-03     322.726E-03    -159.994E-03     56.9606E-03    -51.5346E+06    -89.6519E+06    -190.671E+06    -94.3975E+06    -185.926E+06    -51.5346E+06    -21.1629E+06         48.0374
            1894     5.10985E-03     136.089E-03         5.53040        -2.79474        -3.07824        -2.78911         5.52477        -3.07824     370.439E-03     326.584E-03    -160.614E-03    -165.969E-03    -163.459E-03     324.073E-03    -160.614E-03     69.2920E-03    -30.3225E+06    -78.6335E+06    -168.115E+06    -84.7273E+06    -162.021E+06    -30.3225E+06    -22.4836E+06         48.6375
            1895     5.95785E-03     136.146E-03         5.38591        -2.67074        -3.04635        -2.66633         5.38150        -3.04635     324.269E-03     328.289E-03    -161.145E-03    -167.144E-03    -163.701E-03     324.845E-03    -161.145E-03     81.5675E-03    -9.93135E+06    -66.9281E+06    -145.080E+06    -74.3845E+06    -137.623E+06    -9.93135E+06    -22.7975E+06         49.2567
            1896     6.80704E-03     136.207E-03         5.22017        -2.53303        -3.01015        -2.52769         5.21483        -3.01015     390.599E-03     328.815E-03    -161.515E-03    -167.300E-03    -162.807E-03     324.322E-03    -161.515E-03     93.2411E-03     9.96267E+06    -53.2436E+06    -119.441E+06    -63.3712E+06    -109.313E+06     9.96267E+06    -23.5032E+06         49.8630
            1897     7.65677E-03     136.277E-03         5.03091        -2.37489        -2.96956        -2.36960         5.02562        -2.96956     379.786E-03     328.630E-03    -161.667E-03    -166.963E-03    -161.164E-03     322.831E-03    -161.667E-03     105.706E-03     28.9970E+06    -39.6622E+06    -93.5388E+06    -53.6787E+06    -79.5222E+06     28.9970E+06    -22.7273E+06         50.4374
            1898     8.50774E-03     136.354E-03         4.81108        -2.18696        -2.92335        -2.18114         4.80526        -2.92335     395.807E-03     327.921E-03    -161.604E-03    -166.317E-03    -159.140E-03     320.745E-03    -161.604E-03     117.342E-03     45.2101E+06    -26.6055E+06    -73.9636E+06    -45.6855E+06    -54.8836E+06     45.2101E+06    -22.5062E+06         50.9873
            1899     9.36246E-03     136.435E-03         4.55426        -1.96393        -2.86966        -1.95843         4.54876        -2.86966     370.002E-03     326.918E-03    -161.350E-03    -165.568E-03    -156.951E-03     318.301E-03    -161.350E-03     128.372E-03     59.6492E+06    -10.4133E+06    -56.6316E+06    -37.9858E+06    -29.0591E+06     59.6492E+06    -21.7262E+06         51.5633
            1900     10.2196E-03     136.518E-03         4.26465        -1.71950        -2.80816        -1.71386         4.25901        -2.80816     361.278E-03     326.216E-03    -160.954E-03    -165.262E-03    -155.310E-03     316.264E-03    -160.954E-03     138.025E-03     71.4808E+06     7.19100E+06    -42.7794E+06    -32.4476E+06    -3.14083E+06     71.4808E+06    -19.7331E+06         52.2921
            1901     11.0779E-03     136.613E-03         3.95508        -1.46978        -2.73978        -1.46439         3.94969        -2.73978     334.987E-03     326.497E-03    -160.538E-03    -165.959E-03    -155.302E-03     315.840E-03    -160.538E-03     143.120E-03     84.1241E+06     32.7272E+06    -34.6380E+06    -28.0880E+06     26.1772E+06     84.1241E+06    -19.0549E+06         53.4427
            1902     11.9374E-03     136.708E-03         3.61792        -1.20129        -2.66650        -1.19544         3.61208        -2.66650     334.674E-03     329.888E-03    -160.206E-03    -169.682E-03    -157.874E-03     318.080E-03    -160.206E-03     151.639E-03     92.6519E+06     66.8080E+06    -29.1543E+06    -24.9819E+06     64.1381E+06     91.1494E+06    -18.1171E+06         55.5553
            1903     12.7934E-03     136.836E-03         3.25157    -908.060E-03        -2.58784    -901.872E-03         3.24538        -2.58784     315.091E-03     334.576E-03    -160.192E-03    -174.384E-03    -163.528E-03     323.720E-03    -160.192E-03     146.391E-03     94.4767E+06     79.9412E+06    -25.5442E+06    -22.7149E+06     78.6144E+06     92.9742E+06    -15.6906E+06         59.5382
            1904     13.6421E-03     136.939E-03         2.84628    -576.494E-03        -2.50575    -571.856E-03         2.84164        -2.50575     241.348E-03     347.216E-03    -160.652E-03    -186.564E-03    -173.747E-03     334.399E-03    -160.652E-03     161.734E-03     97.1406E+06     79.2146E+06    -18.7327E+06    -17.5005E+06     84.2499E+06     90.8730E+06    -10.2620E+06         66.1788
            1905     14.4839E-03     137.149E-03         2.40078    -213.983E-03        -2.41790    -211.083E-03         2.39788        -2.41790     166.856E-03     357.485E-03    -161.856E-03    -195.628E-03    -185.801E-03     347.658E-03    -161.856E-03     134.864E-03     130.685E+06     104.400E+06    -10.3990E+06    -10.1828E+06     110.451E+06     124.418E+06    -3.75454E+06         74.1647
            1906     857.669E-06     137.288E-03         7.43715        -3.70184        -4.12810        -3.52148         6.83053        -3.70184        -1.97351     306.474E-03    -152.550E-03    -153.924E-03    -153.467E-03     306.319E-03    -152.853E-03     15.2056E-03    -109.875E+06    -112.489E+06    -247.666E+06    -112.571E+06    -247.174E+06    -110.284E+06    -6.85056E+06         45.4995
            1907     1.71607E-03     137.307E-03         6.89665        -3.59898        -3.68879        -3.55913         6.77319        -3.60519     654.008E-03     307.789E-03    -153.332E-03    -154.458E-03    -153.980E-03     307.312E-03    -153.332E-03     28.7733E-03    -99.0379E+06    -105.300E+06    -232.969E+06    -106.513E+06    -231.756E+06    -99.0379E+06    -11.7721E+06         45.6891
            1908     2.57205E-03     137.334E-03         6.73567        -3.53068        -3.58515        -3.48898         6.69396        -3.58515    -239.004E-03     309.805E-03    -153.746E-03    -156.059E-03    -155.040E-03     308.787E-03    -153.746E-03     42.6354E-03    -81.6448E+06    -97.1298E+06    -216.941E+06    -99.4544E+06    -214.616E+06    -81.6448E+06    -16.2177E+06         45.9850
            1909     3.42716E-03     137.371E-03         6.60770        -3.42055        -3.55969        -3.40637         6.59352        -3.55969     406.938E-03     311.883E-03    -154.224E-03    -157.659E-03    -155.886E-03     310.110E-03    -154.224E-03     56.6946E-03    -61.1911E+06    -87.8835E+06    -199.984E+06    -91.5298E+06    -196.338E+06    -61.1911E+06    -19.6554E+06         46.3752
            1910     4.28256E-03     137.414E-03         6.48428        -3.31346        -3.52979        -3.30511         6.47592        -3.52979     270.894E-03     313.465E-03    -154.637E-03    -158.829E-03    -156.072E-03     310.709E-03    -154.637E-03     71.0144E-03    -39.1384E+06    -77.0642E+06    -179.570E+06    -81.9889E+06    -174.645E+06    -39.1384E+06    -21.7844E+06         46.8443
            1911     5.13781E-03     137.465E-03         6.35487        -3.20165        -3.49563        -3.19294         6.34616        -3.49563     528.181E-03     314.720E-03    -154.916E-03    -159.803E-03    -155.865E-03     310.781E-03    -154.916E-03     85.2215E-03    -18.8153E+06    -66.4064E+06    -160.308E+06    -72.5092E+06    -154.205E+06    -18.8153E+06    -23.0920E+06         47.3772
            1912     5.99439E-03     137.524E-03         6.19714        -3.06616        -3.45699        -3.05908         6.19006        -3.45699     474.199E-03     315.893E-03    -155.073E-03    -160.819E-03    -155.493E-03     310.567E-03    -155.073E-03     99.2190E-03    -321.063E+03    -55.8307E+06    -138.027E+06    -63.2769E+06    -130.581E+06    -321.063E+03    -23.4285E+06         47.9600
            1913     6.84917E-03     137.586E-03         6.00865        -2.90794        -3.41264        -2.89925         5.99995        -3.41264     545.565E-03     317.045E-03    -155.142E-03    -161.903E-03    -154.934E-03     310.076E-03    -155.142E-03     113.556E-03     17.5322E+06    -47.1813E+06    -112.422E+06    -55.9342E+06    -103.669E+06     17.5322E+06    -22.0984E+06         48.5783
            1914     7.70595E-03     137.654E-03         5.77613        -2.71258        -3.36125        -2.70403         5.76758        -3.36125     525.534E-03     317.437E-03    -155.103E-03    -162.334E-03    -153.539E-03     308.642E-03    -155.103E-03     127.671E-03     35.3589E+06    -40.1631E+06    -87.8756E+06    -49.8320E+06    -78.2067E+06     35.3589E+06    -18.8125E+06         49.2253
            1915     8.56618E-03     137.728E-03         5.49969        -2.47667        -3.30108        -2.46689         5.48991        -3.30108     553.214E-03     317.862E-03    -154.948E-03    -162.914E-03    -152.494E-03     307.442E-03    -154.948E-03     139.334E-03     52.5298E+06    -29.0816E+06    -67.5036E+06    -46.0233E+06    -50.5618E+06     52.5298E+06    -15.2880E+06         49.9202
            1916     9.42735E-03     137.805E-03         5.19463        -2.21932        -3.23170        -2.21024         5.18554        -3.23170     513.847E-03     319.786E-03    -154.795E-03    -164.991E-03    -153.477E-03     308.272E-03    -154.795E-03     147.307E-03     64.7094E+06    -16.2446E+06    -54.4488E+06    -44.1968E+06    -26.4966E+06     64.7094E+06    -13.6225E+06         50.7217
            1917     10.2863E-03     137.893E-03         4.86931        -1.95344        -3.15462        -1.94408         4.85994        -3.15462     502.933E-03     323.063E-03    -154.794E-03    -168.269E-03    -156.107E-03     310.901E-03    -154.794E-03     152.577E-03     76.6503E+06     5.55238E+06    -45.4944E+06    -40.8814E+06     939.388E+03     76.6503E+06    -12.8009E+06         51.7518
            1918     11.1438E-03     137.984E-03         4.51786        -1.67377        -3.07129        -1.66469         4.50878        -3.07129     470.617E-03     328.054E-03    -155.048E-03    -173.006E-03    -160.918E-03     315.966E-03    -155.048E-03     153.720E-03     89.2340E+06     37.6783E+06    -39.3833E+06    -36.2645E+06     34.5596E+06     89.2340E+06    -13.8901E+06         53.2641
            1919     11.9947E-03     138.091E-03         4.12379        -1.35981        -2.98259        -1.35032         4.11430        -2.98259     452.559E-03     336.265E-03    -155.639E-03    -180.626E-03    -168.366E-03     324.005E-03    -155.639E-03     157.280E-03     95.8942E+06     67.6744E+06    -31.1834E+06    -29.1083E+06     65.5993E+06     95.8942E+06    -13.2734E+06         55.7862
            1920     12.8402E-03     138.224E-03         3.69715        -1.01739        -2.88768        -1.00641         3.68617        -2.88768     448.332E-03     346.502E-03    -156.742E-03    -189.760E-03    -179.095E-03     335.837E-03    -156.742E-03     148.805E-03     97.3389E+06     77.0218E+06    -22.2334E+06    -20.8711E+06     75.6595E+06     97.3389E+06    -10.6072E+06         60.2361
            1921     13.6740E-03     138.350E-03         3.24373    -649.713E-03        -2.78840    -642.223E-03         3.23624        -2.78840     322.778E-03     364.329E-03    -158.479E-03    -205.850E-03    -193.776E-03     352.255E-03    -158.479E-03     162.798E-03     94.8643E+06     78.1315E+06    -15.9196E+06    -14.9275E+06     77.1394E+06     94.8643E+06    -8.52984E+06         67.4442
            1922     14.4909E-03     138.582E-03         2.77096    -271.629E-03        -2.68321    -267.202E-03         2.76654        -2.68321     220.440E-03     374.713E-03    -160.882E-03    -213.831E-03    -204.519E-03     365.402E-03    -160.882E-03     137.028E-03     123.636E+06     103.070E+06    -7.74855E+06    -7.46271E+06     102.784E+06     123.636E+06    -4.25370E+06         76.0840
            1923     864.073E-06     138.641E-03         7.84803        -3.91632        -4.30030        -3.89328         7.44102        -3.91632        -1.68189     293.625E-03    -146.274E-03    -147.350E-03    -146.823E-03     293.400E-03    -146.577E-03     18.4506E-03    -96.4019E+06    -100.763E+06    -226.246E+06    -99.3570E+06    -225.617E+06    -98.4371E+06    -7.66631E+06         44.1530
            1924     1.72561E-03     138.657E-03         7.46886        -3.89379        -3.97388        -3.88564         7.39056        -3.90373     575.529E-03     294.018E-03    -146.674E-03    -147.344E-03    -146.644E-03     293.317E-03    -146.674E-03     33.9005E-03    -89.7641E+06    -95.7193E+06    -215.296E+06    -97.3409E+06    -213.674E+06    -89.7641E+06    -13.5120E+06         44.2842
            1925     2.59001E-03     138.687E-03         7.32657        -3.83775        -3.89106        -3.81063         7.29945        -3.89106    -116.368E-03     294.283E-03    -146.588E-03    -147.695E-03    -146.158E-03     292.747E-03    -146.588E-03     50.9532E-03    -76.1448E+06    -90.1869E+06    -203.082E+06    -93.0543E+06    -200.214E+06    -76.1448E+06    -17.5081E+06         44.5013
            1926     3.45410E-03     138.725E-03         7.22352        -3.74136        -3.86747        -3.73069         7.21285        -3.86747     462.672E-03     295.146E-03    -146.453E-03    -148.692E-03    -145.966E-03     292.420E-03    -146.453E-03     68.3454E-03    -59.3582E+06    -83.5187E+06    -187.246E+06    -87.7030E+06    -183.062E+06    -59.3582E+06    -20.2968E+06         44.8126
            1927     4.31796E-03     138.769E-03         7.10272        -3.62904        -3.83715        -3.62093         7.09460        -3.83715     391.930E-03     296.669E-03    -146.364E-03    -150.305E-03    -146.021E-03     292.384E-03    -146.364E-03     85.9763E-03    -40.8549E+06    -76.7558E+06    -170.482E+06    -81.8109E+06    -165.427E+06    -40.8549E+06    -21.1122E+06         45.2234
            1928     5.18151E-03     138.822E-03         6.95836        -3.50110        -3.79948        -3.49078         6.94803        -3.79948     627.284E-03     297.828E-03    -146.274E-03    -151.554E-03    -145.399E-03     291.673E-03    -146.274E-03     103.223E-03    -21.2516E+06    -70.1996E+06    -153.001E+06    -75.5486E+06    -147.652E+06    -21.2516E+06    -20.3081E+06         45.7387
            1929     6.04594E-03     138.878E-03         6.77284        -3.34681        -3.75456        -3.33707         6.76309        -3.75456     599.053E-03     299.057E-03    -146.112E-03    -152.945E-03    -144.628E-03     290.740E-03    -146.112E-03     120.182E-03    -3.17336E+06    -66.3120E+06    -131.652E+06    -71.7567E+06    -126.208E+06    -3.17336E+06    -17.9326E+06         46.3660
            1930     6.91399E-03     138.942E-03         6.54546        -3.15743        -3.70127        -3.14472         6.53275        -3.70127     696.662E-03     301.604E-03    -145.973E-03    -155.631E-03    -145.140E-03     291.113E-03    -145.973E-03     135.959E-03     13.7886E+06    -64.7332E+06    -107.794E+06    -69.8564E+06    -102.671E+06     13.7886E+06    -13.8599E+06         47.1107
            1931     7.77995E-03     139.010E-03         6.27930        -2.93317        -3.63850        -2.92018         6.26632        -3.63850     683.917E-03     305.348E-03    -146.010E-03    -159.338E-03    -147.170E-03     293.180E-03    -146.010E-03     147.933E-03     30.9725E+06    -59.0804E+06    -87.5912E+06    -67.8916E+06    -78.7800E+06     30.9725E+06    -9.88918E+06         47.9732
            1932     8.64517E-03     139.082E-03         5.98405        -2.68472        -3.56648        -2.66978         5.96910        -3.56648     716.625E-03     310.051E-03    -146.293E-03    -163.758E-03    -150.491E-03     296.784E-03    -146.293E-03     156.166E-03     48.2313E+06    -43.5313E+06    -70.0422E+06    -63.9361E+06    -49.6375E+06     48.2313E+06    -6.42255E+06         48.9628
            1933     9.50523E-03     139.169E-03         5.66133        -2.41477        -3.48620        -2.40082         5.64738        -3.48620     667.949E-03     316.469E-03    -146.884E-03    -169.585E-03    -155.890E-03     302.774E-03    -146.884E-03     160.790E-03     62.9391E+06    -20.4782E+06    -59.4902E+06    -58.0536E+06    -21.9148E+06     62.9391E+06    -5.17211E+06         50.1200
            1934     10.3612E-03     139.257E-03         5.30102        -2.11957        -3.39829        -2.10467         5.28612        -3.39829     658.344E-03     324.987E-03    -147.876E-03    -177.111E-03    -163.712E-03     311.589E-03    -147.876E-03     161.788E-03     75.2502E+06     10.0968E+06    -52.6354E+06    -51.0496E+06     8.51092E+06     75.2502E+06    -7.40419E+06         51.5433
            1935     11.2093E-03     139.366E-03         4.90195        -1.79873        -3.30297        -1.78430         4.88752        -3.30297     616.990E-03     335.296E-03    -149.342E-03    -185.954E-03    -173.440E-03     322.782E-03    -149.342E-03     159.474E-03     87.7000E+06     46.2548E+06    -43.1043E+06    -41.6958E+06     44.8463E+06     87.7000E+06    -11.0444E+06         53.4525
            1936     12.0489E-03     139.483E-03         4.46931        -1.45137        -3.20093        -1.43759         4.45553        -3.20093     567.749E-03     348.969E-03    -151.313E-03    -197.656E-03    -185.648E-03     336.961E-03    -151.313E-03     160.170E-03     92.0587E+06     68.6843E+06    -34.3039E+06    -32.2995E+06     66.6799E+06     92.0587E+06    -14.1342E+06         56.3357
            1937     12.8784E-03     139.637E-03         4.01716        -1.08930        -3.09237        -1.07424         4.00211        -3.09237     552.521E-03     363.195E-03    -153.855E-03    -209.340E-03    -199.101E-03     352.956E-03    -153.855E-03     150.895E-03     91.9269E+06     72.5706E+06    -24.7862E+06    -22.9884E+06     70.7727E+06     91.9269E+06    -12.4876E+06         61.0899
            1938     13.6917E-03     139.789E-03         3.54385    -709.708E-03        -2.97857    -700.948E-03         3.53510        -2.97857     362.480E-03     380.681E-03    -156.880E-03    -223.802E-03    -211.984E-03     368.864E-03    -156.880E-03     165.891E-03     89.9199E+06     73.9582E+06    -15.8055E+06    -14.8903E+06     73.0429E+06     89.9199E+06    -8.18207E+06         68.5954
            1939     14.5024E-03     140.036E-03         3.05807    -326.078E-03        -2.85814    -321.031E-03         3.05302        -2.85814     247.055E-03     387.059E-03    -160.228E-03    -226.831E-03    -217.660E-03     377.888E-03    -160.228E-03     139.486E-03     116.169E+06     95.9592E+06    -8.62481E+06    -8.32797E+06     95.6624E+06     116.169E+06    -4.39484E+06         77.5817
            1940     869.563E-06     139.969E-03         7.95519        -4.05721        -4.32842        -4.11446         7.74123        -4.05721        -1.18540     274.756E-03    -136.962E-03    -137.795E-03    -137.124E-03     274.408E-03    -137.284E-03     21.8157E-03    -98.7238E+06    -103.819E+06    -205.605E+06    -102.329E+06    -205.060E+06    -100.759E+06    -6.99189E+06         42.3207
            1941     1.74295E-03     139.988E-03         7.79887        -4.07755        -4.13750        -4.08824         7.75993        -4.08785     471.129E-03     273.943E-03    -136.892E-03    -137.051E-03    -135.935E-03     272.858E-03    -136.923E-03     40.6472E-03    -94.5331E+06    -99.6157E+06    -196.775E+06    -101.267E+06    -195.123E+06    -94.5331E+06    -12.1139E+06         42.4066
            1942     2.61482E-03     140.014E-03         7.71175        -4.04438        -4.08202        -4.02938         7.69674        -4.08202     40.6778E-03     273.183E-03    -136.349E-03    -136.835E-03    -134.533E-03     270.882E-03    -136.349E-03     59.9753E-03    -84.0136E+06    -96.7731E+06    -190.082E+06    -99.4170E+06    -187.438E+06    -84.0136E+06    -15.4463E+06         42.5711
            1943     3.49067E-03     140.050E-03         7.62439        -3.96675        -4.06393        -3.95819         7.61583        -4.06393     523.087E-03     272.903E-03    -135.698E-03    -137.206E-03    -133.143E-03     268.840E-03    -135.698E-03     79.9494E-03    -70.1761E+06    -94.5540E+06    -177.053E+06    -97.5139E+06    -174.093E+06    -70.1761E+06    -15.1782E+06         42.8456
            1944     4.36643E-03     140.097E-03         7.48924        -3.84028        -4.03519        -3.83153         7.48050        -4.03519     520.529E-03     273.580E-03    -135.068E-03    -138.512E-03    -132.140E-03     267.208E-03    -135.068E-03     100.451E-03    -53.6110E+06    -94.5526E+06    -162.890E+06    -97.7157E+06    -159.727E+06    -53.6110E+06    -14.0194E+06         43.2660
            1945     5.24368E-03     140.147E-03         7.30839        -3.67873        -3.99302        -3.66576         7.29542        -3.99302     744.015E-03     275.893E-03    -134.588E-03    -141.306E-03    -132.257E-03     266.845E-03    -134.588E-03     120.499E-03    -33.9296E+06    -95.1409E+06    -148.342E+06    -97.7980E+06    -145.685E+06    -33.9296E+06    -11.1165E+06         43.8667
            1946     6.12193E-03     140.204E-03         7.08926        -3.49272        -3.93880        -3.47842         7.07497        -3.93880     760.020E-03     280.160E-03    -134.382E-03    -145.779E-03    -134.120E-03     268.502E-03    -134.382E-03     138.357E-03    -12.2609E+06    -93.4386E+06    -127.213E+06    -95.2936E+06    -125.358E+06    -12.2609E+06    -7.28554E+06         44.6711
            1947     6.99645E-03     140.270E-03         6.84337        -3.28683        -3.87457        -3.26879         6.82532        -3.87457     852.030E-03     286.641E-03    -134.566E-03    -152.075E-03    -138.218E-03     272.784E-03    -134.566E-03     153.102E-03     7.26427E+06    -88.4472E+06    -105.054E+06    -90.1640E+06    -103.337E+06     7.26427E+06    -4.60428E+06         45.6859
            1948     7.86825E-03     140.345E-03         6.56959        -3.05966        -3.80171        -3.04087         6.55080        -3.80171     845.530E-03     295.882E-03    -135.289E-03    -160.593E-03    -145.410E-03     280.699E-03    -135.289E-03     163.488E-03     25.6940E+06    -74.2164E+06    -85.7912E+06    -81.6680E+06    -78.3396E+06     25.6940E+06    -2.28941E+06         46.9013
            1949     8.72932E-03     140.430E-03         6.26975        -2.80937        -3.72097        -2.78739         6.24777        -3.72097     887.543E-03     306.744E-03    -136.638E-03    -170.106E-03    -154.621E-03     291.259E-03    -136.638E-03     168.927E-03     43.5183E+06    -46.6344E+06    -71.9655E+06    -71.5162E+06    -47.0836E+06     43.5183E+06    -1.57589E+06         48.3000
            1950     9.58738E-03     140.522E-03         5.92619        -2.52337        -3.63230        -2.50302         5.90584        -3.63230     823.928E-03     318.708E-03    -138.583E-03    -180.125E-03    -165.105E-03     303.688E-03    -138.583E-03     170.418E-03     60.0244E+06    -15.5595E+06    -61.5752E+06    -60.9719E+06    -16.1628E+06     60.0244E+06    -2.54026E+06         49.8839
            1951     10.4337E-03     140.636E-03         5.54069        -2.20590        -3.53526        -2.18393         5.51872        -3.53526     814.433E-03     332.466E-03    -141.086E-03    -191.380E-03    -177.496E-03     318.582E-03    -141.086E-03     168.146E-03     75.5141E+06     20.7403E+06    -50.6314E+06    -49.8878E+06     19.9967E+06     75.5141E+06    -5.94328E+06         51.7111
            1952     11.2692E-03     140.755E-03         5.12548        -1.86751        -3.43008        -1.84734         5.10531        -3.43008     741.002E-03     347.801E-03    -144.145E-03    -203.655E-03    -191.350E-03     335.496E-03    -144.145E-03     162.636E-03     87.8163E+06     58.6934E+06    -40.9303E+06    -39.4292E+06     57.1923E+06     87.8163E+06    -11.7595E+06         53.9553
            1953     12.0939E-03     140.898E-03         4.68349        -1.51030        -3.31768        -1.49308         4.66628        -3.31768     644.981E-03     364.959E-03    -147.707E-03    -217.252E-03    -205.731E-03     353.437E-03    -147.707E-03     162.097E-03     89.1262E+06     70.9174E+06    -32.3121E+06    -30.3519E+06     68.9572E+06     89.1262E+06    -13.9448E+06         57.0548
            1954     12.9021E-03     141.077E-03         4.22542        -1.14412        -3.19839        -1.12635         4.20765        -3.19839     615.246E-03     379.529E-03    -151.666E-03    -227.863E-03    -217.904E-03     369.570E-03    -151.666E-03     153.604E-03     87.1628E+06     69.5827E+06    -25.0592E+06    -23.1518E+06     67.6753E+06     87.1628E+06    -13.1972E+06         61.8965
            1955     13.7074E-03     141.243E-03         3.74508    -762.727E-03        -3.07242    -753.936E-03         3.73629        -3.07242     377.157E-03     393.165E-03    -155.761E-03    -237.404E-03    -225.919E-03     381.680E-03    -155.761E-03     167.175E-03     83.8833E+06     69.8351E+06    -18.1189E+06    -16.3457E+06     68.0618E+06     83.8833E+06    -11.5481E+06         69.4639
            1956     14.5045E-03     141.505E-03         3.25244    -376.990E-03        -2.93927    -372.023E-03         3.24748        -2.93927     257.402E-03     394.989E-03    -159.794E-03    -235.195E-03    -226.332E-03     386.126E-03    -159.794E-03     139.435E-03     109.920E+06     87.2894E+06    -9.04749E+06    -8.21076E+06     86.4526E+06     109.920E+06    -5.95460E+06         78.6353
            1957     883.527E-06     141.271E-03         7.95057        -4.14274        -4.28558        -4.20092         7.86592        -4.14274    -671.189E-03     248.133E-03    -123.884E-03    -124.249E-03    -123.413E-03     247.641E-03    -124.227E-03     24.9476E-03    -107.454E+06    -112.582E+06    -189.763E+06    -110.392E+06    -189.412E+06    -109.996E+06    -4.79462E+06         40.0126
            1958     1.76575E-03     141.285E-03         7.89150        -4.16891        -4.20280        -4.18073         7.87459        -4.17408     429.702E-03     246.864E-03    -123.379E-03    -123.485E-03    -121.921E-03     245.332E-03    -123.410E-03     45.9873E-03    -109.424E+06    -114.052E+06    -184.184E+06    -114.888E+06    -183.348E+06    -109.424E+06    -5.85728E+06         40.1014
            1959     2.65275E-03     141.310E-03         7.85033        -4.14253        -4.17054        -4.13446         7.84225        -4.17054     224.216E-03     246.070E-03    -122.613E-03    -123.456E-03    -120.117E-03     242.731E-03    -122.613E-03     68.4577E-03    -102.528E+06    -119.426E+06    -181.367E+06    -120.626E+06    -180.167E+06    -102.528E+06    -5.50088E+06         40.2900
            1960     3.53833E-03     141.343E-03         7.77098        -4.05966        -4.15276        -4.05086         7.76218        -4.15276     618.462E-03     246.078E-03    -121.789E-03    -124.289E-03    -118.434E-03     240.223E-03    -121.789E-03     91.0857E-03    -88.6158E+06    -123.618E+06    -174.691E+06    -125.015E+06    -173.294E+06    -88.6158E+06    -3.23980E+06         40.6317
            1961     4.42913E-03     141.385E-03         7.62181        -3.92285        -4.12008        -3.91112         7.61008        -4.12008     687.470E-03     247.837E-03    -121.075E-03    -126.762E-03    -117.958E-03     239.033E-03    -121.075E-03     112.538E-03    -67.6525E+06    -123.560E+06    -161.015E+06    -126.133E+06    -158.442E+06    -67.6525E+06     253.698E+03         41.1864
            1962     5.32053E-03     141.437E-03         7.42174        -3.74770        -4.07173        -3.73061         7.40466        -4.07173     870.708E-03     253.228E-03    -120.749E-03    -132.479E-03    -120.616E-03     241.366E-03    -120.749E-03     132.589E-03    -43.8081E+06    -121.440E+06    -145.687E+06    -123.516E+06    -143.611E+06    -43.8081E+06     784.735E+03         42.0060
            1963     6.20584E-03     141.502E-03         7.18882        -3.54810        -4.01009        -3.52801         7.16872        -4.01009     917.958E-03     262.583E-03    -121.084E-03    -141.499E-03    -126.940E-03     248.024E-03    -121.084E-03     150.264E-03    -21.2187E+06    -112.963E+06    -126.309E+06    -115.663E+06    -123.609E+06    -21.2187E+06    -849.655E+03         43.1166
            1964     7.08653E-03     141.575E-03         6.93976        -3.33658        -3.93818        -3.31194         6.91512        -3.93818         1.00208     275.103E-03    -122.226E-03    -152.877E-03    -136.353E-03     258.578E-03    -122.226E-03     164.738E-03    -1.07917E+06    -97.5350E+06    -107.261E+06    -103.930E+06    -100.866E+06    -1.07917E+06    -1.83869E+06         44.5111
            1965     7.95709E-03     141.668E-03         6.66159        -3.10099        -3.85777        -3.07515         6.63576        -3.85777     999.519E-03     289.992E-03    -124.201E-03    -165.791E-03    -148.362E-03     272.563E-03    -124.201E-03     174.749E-03     17.7211E+06     -73.268E+06    -91.2376E+06    -90.3008E+06    -74.2048E+06     17.7211E+06    -3.95048E+06         46.1563
            1966     8.82027E-03     141.770E-03         6.34384        -2.83599        -3.76893        -2.80583         6.31368        -3.76893         1.04596     307.423E-03    -127.035E-03    -180.388E-03    -163.338E-03     290.373E-03    -127.035E-03     179.071E-03     36.7808E+06    -42.1872E+06    -76.4492E+06    -74.9686E+06    -43.6678E+06     36.7808E+06    -4.99778E+06         48.0044
            1967     9.66362E-03     141.888E-03         5.98619        -2.53913        -3.67153        -2.51227         5.95933        -3.67153     949.230E-03     326.164E-03    -130.694E-03    -195.470E-03    -179.691E-03     310.385E-03    -130.694E-03     178.524E-03     56.1975E+06    -7.92446E+06    -60.9808E+06    -59.6574E+06    -9.24784E+06     56.1975E+06    -5.98757E+06         50.0120
            1968     10.4979E-03     142.017E-03         5.60486        -2.22617        -3.56592        -2.19695         5.57565        -3.56592     938.476E-03     344.786E-03    -135.016E-03    -209.770E-03    -195.760E-03     330.776E-03    -135.016E-03     173.795E-03     75.4239E+06     33.8900E+06    -47.7508E+06    -46.3445E+06     32.4837E+06     75.4239E+06    -10.0067E+06         52.1827
            1969     11.3184E-03     142.171E-03         5.19649        -1.89258        -3.45254        -1.86653         5.17044        -3.45254     837.397E-03     363.371E-03    -139.817E-03    -223.554E-03    -211.419E-03     351.237E-03    -139.817E-03     166.793E-03     87.4002E+06     67.6206E+06    -36.3747E+06    -34.6269E+06     65.8728E+06     87.4002E+06    -12.4280E+06         54.6402
            1970     12.1223E-03     142.335E-03         4.76536        -1.54231        -3.33172        -1.52106         4.74411        -3.33172     715.211E-03     380.816E-03    -144.908E-03    -235.909E-03    -224.633E-03     369.541E-03    -144.908E-03     165.217E-03     86.6090E+06     72.7519E+06    -27.6666E+06    -25.7913E+06     70.8766E+06     86.6090E+06    -13.0042E+06         57.7879
            1971     12.9253E-03     142.535E-03         4.31187        -1.17956        -3.20354        -1.15860         4.29091        -3.20354     669.333E-03     392.573E-03    -150.055E-03    -242.517E-03    -232.678E-03     382.733E-03    -150.055E-03     156.353E-03     85.7270E+06     69.6914E+06    -20.7517E+06    -18.9907E+06     67.9305E+06     85.7270E+06    -12.2839E+06         62.5425
            1972     13.7132E-03     142.720E-03         3.83174    -800.449E-03        -3.06770    -791.521E-03         3.82281        -3.06770     394.701E-03     402.195E-03    -154.954E-03    -247.241E-03    -236.020E-03     390.974E-03    -154.954E-03     167.976E-03     82.7765E+06     67.3118E+06    -14.7766E+06    -13.2462E+06     65.7814E+06     82.7765E+06    -10.5465E+06         70.0529
            1973     14.5101E-03     142.973E-03         3.34702    -427.289E-03        -2.92542    -422.458E-03         3.34219        -2.92542     266.671E-03     400.852E-03    -159.481E-03    -241.371E-03    -232.727E-03     392.207E-03    -159.481E-03     140.049E-03     105.554E+06     77.0285E+06    -9.29868E+06    -8.25265E+06     75.9824E+06     105.554E+06    -7.41887E+06         79.4226
            1974     896.479E-06     142.532E-03         7.80574        -4.13200        -4.23491        -4.20323         7.77407        -4.13200    -286.138E-03     214.465E-03    -106.985E-03    -107.479E-03    -106.797E-03     213.803E-03    -107.006E-03     26.8935E-03    -135.979E+06    -141.961E+06    -193.040E+06    -143.037E+06    -189.423E+06    -138.520E+06     5.01404E+06         37.3665
            1975     1.79658E-03     142.545E-03         7.79077        -4.15557        -4.17883        -4.16034         7.78241        -4.16570     477.184E-03     213.860E-03    -106.583E-03    -107.277E-03    -105.176E-03     211.759E-03    -106.583E-03     49.8019E-03    -139.461E+06    -145.083E+06    -194.036E+06    -152.675E+06    -186.443E+06    -139.461E+06     9.27019E+06         37.5364
            1976     2.69620E-03     142.564E-03         7.74743        -4.11542        -4.15523        -4.10772         7.73973        -4.15523     457.670E-03     214.284E-03    -105.949E-03    -108.335E-03    -103.840E-03     209.789E-03    -105.949E-03     74.2337E-03    -128.275E+06    -148.759E+06    -191.734E+06    -159.130E+06    -181.363E+06    -128.275E+06     11.4326E+06         37.8636
            1977     3.60075E-03     142.597E-03         7.65673        -4.02606        -4.13062        -4.01365         7.64432        -4.13062     753.710E-03     217.203E-03    -105.506E-03    -111.697E-03    -104.133E-03     209.639E-03    -105.506E-03     97.7297E-03    -106.907E+06    -150.145E+06    -183.928E+06    -159.455E+06    -174.618E+06    -106.907E+06     10.8069E+06         38.4107
            1978     4.50201E-03     142.637E-03         7.51046        -3.89787        -4.09187        -3.88052         7.49310        -4.09187     863.678E-03     223.782E-03    -105.531E-03    -118.251E-03    -107.304E-03     212.835E-03    -105.531E-03     119.866E-03    -80.1001E+06    -143.191E+06    -167.118E+06    -152.051E+06    -158.258E+06    -80.1001E+06     9.72450E+06         39.2379
            1979     5.39883E-03     142.698E-03         7.33056        -3.73934        -4.03979        -3.71537         7.30659        -4.03979         1.02270     234.086E-03    -106.232E-03    -127.854E-03    -113.673E-03     219.905E-03    -106.232E-03     140.155E-03    -53.7985E+06    -130.863E+06    -146.866E+06    -140.166E+06    -137.563E+06    -53.7985E+06     6.08746E+06         40.3892
            1980     6.29286E-03     142.771E-03         7.11317        -3.54461        -3.97521        -3.51541         7.08397        -3.97521         1.10143     248.729E-03    -107.772E-03    -140.957E-03    -124.081E-03     231.852E-03    -107.772E-03     158.518E-03    -31.4386E+06    -114.045E+06    -128.443E+06    -126.741E+06    -115.747E+06    -31.4386E+06     199.122E+03         41.8815
            1981     7.17339E-03     142.869E-03         6.86199        -3.32228        -3.89893        -3.28756         6.82727        -3.89893         1.18170     267.216E-03    -110.303E-03    -156.913E-03    -138.410E-03     248.713E-03    -110.303E-03     173.214E-03    -11.0004E+06    -89.9187E+06    -113.383E+06    -111.066E+06    -92.2357E+06    -11.0004E+06    -6.47766E+06         43.6938
            1982     8.04290E-03     142.977E-03         6.56915        -3.06987        -3.81191        -3.03442         6.53370        -3.81191         1.16194     288.457E-03    -113.866E-03    -174.592E-03    -155.687E-03     269.552E-03    -113.866E-03     183.198E-03     9.32367E+06    -61.2373E+06    -98.2954E+06    -93.8803E+06    -65.6523E+06     9.32367E+06    -11.5657E+06         45.7697
            1983     8.89420E-03     143.113E-03         6.23817        -2.79275        -3.71476        -2.75369         6.19911        -3.71476         1.18017     311.635E-03    -118.404E-03    -193.231E-03    -175.146E-03     293.550E-03    -118.404E-03     187.467E-03     28.8118E+06    -33.0628E+06    -81.9916E+06    -76.3316E+06    -38.7228E+06     28.8118E+06    -15.2491E+06         48.0294
            1984     9.73372E-03     143.259E-03         5.87665        -2.49496        -3.60853        -2.46092         5.84262        -3.60853         1.05730     335.900E-03    -123.816E-03    -212.083E-03    -195.706E-03     319.522E-03    -123.816E-03     186.380E-03     49.0260E+06     229.998E+03    -64.4896E+06    -58.8432E+06    -5.41634E+06     49.0260E+06    -16.7002E+06         50.3891
            1985     10.5508E-03     143.425E-03         5.50399        -2.19020        -3.49438        -2.15300         5.46679        -3.49438         1.04818     359.156E-03    -129.901E-03    -229.255E-03    -214.854E-03     344.755E-03    -129.901E-03     181.578E-03     71.4083E+06     43.1518E+06    -47.1683E+06    -43.7380E+06     39.7214E+06     71.4083E+06    -15.1254E+06         52.8022
            1986     11.3543E-03     143.601E-03         5.10646        -1.86351        -3.37285        -1.83113         5.07408        -3.37285     920.632E-03     378.837E-03    -136.318E-03    -242.519E-03    -230.042E-03     366.360E-03    -136.318E-03     174.121E-03     84.2934E+06     70.3546E+06    -35.5226E+06    -33.4275E+06     68.2595E+06     84.2934E+06    -13.8857E+06         55.3501
            1987     12.1517E-03     143.797E-03         4.68947        -1.52370        -3.24395        -1.49802         4.66378        -3.24395     777.382E-03     394.788E-03    -142.710E-03    -252.078E-03    -240.602E-03     383.313E-03    -142.710E-03     170.760E-03     84.0173E+06     73.7649E+06    -27.7716E+06    -25.8723E+06     71.8655E+06     84.0173E+06    -12.6652E+06         58.4254
            1988     12.9334E-03     144.007E-03         4.25418        -1.17525        -3.10834        -1.15138         4.23032        -3.10834     702.253E-03     402.881E-03    -148.803E-03    -254.078E-03    -244.216E-03     393.019E-03    -148.803E-03     159.302E-03     84.7482E+06     70.5459E+06    -21.3021E+06    -19.4470E+06     68.6908E+06     84.7482E+06    -12.2653E+06         62.9963
            1989     13.7265E-03     144.201E-03         3.79460    -814.300E-03        -2.96568    -804.756E-03         3.78506        -2.96568     415.177E-03     408.504E-03    -154.308E-03    -254.196E-03    -243.256E-03     397.563E-03    -154.308E-03     167.744E-03     82.7914E+06     63.5002E+06    -14.2573E+06    -12.5236E+06     61.7665E+06     82.7914E+06    -10.8506E+06         70.3830
            1990     14.5123E-03     144.458E-03         3.33407    -458.477E-03        -2.81839    -453.383E-03         3.32898        -2.81839     275.141E-03     405.466E-03    -159.210E-03    -246.256E-03    -237.930E-03     397.140E-03    -159.210E-03     138.641E-03     105.787E+06     68.3533E+06    -5.83638E+06    -4.85533E+06     67.3723E+06     105.787E+06    -6.81110E+06         79.8991
            1991     916.347E-06     143.749E-03         7.48321        -4.03826        -4.10297        -4.09423         7.47447        -4.03826     43.6391E-03     175.505E-03    -87.0899E-03    -88.4151E-03    -87.4062E-03     174.580E-03    -87.1735E-03     28.8030E-03    -190.607E+06    -212.575E+06    -239.692E+06    -219.568E+06    -211.074E+06    -212.231E+06     14.6666E+06         34.6677
            1992     1.83168E-03     143.757E-03         7.46844        -4.03251        -4.06473        -4.03244         7.46178        -4.05815     534.140E-03     178.011E-03    -87.5063E-03    -90.5049E-03    -87.7493E-03     175.256E-03    -87.5063E-03     52.4790E-03    -179.819E+06    -192.776E+06    -229.488E+06    -211.797E+06    -200.374E+06    -189.911E+06     19.8013E+06         34.9977
            1993     2.74899E-03     143.779E-03         7.40994        -3.97756        -4.03693        -3.96715         7.39953        -4.03693     647.818E-03     182.753E-03    -87.9356E-03    -94.8179E-03    -89.2892E-03     177.225E-03    -87.9356E-03     76.6101E-03    -157.579E+06    -173.868E+06    -215.683E+06    -200.187E+06    -186.748E+06    -160.194E+06     20.0477E+06         35.5688
            1994     3.66245E-03     143.809E-03         7.33021        -3.90670        -4.00555        -3.88911         7.31261        -4.00555     883.127E-03     191.076E-03    -88.7989E-03    -102.277E-03    -93.3679E-03     182.167E-03    -88.7989E-03     100.082E-03    -127.188E+06    -160.764E+06    -197.883E+06    -186.049E+06    -172.597E+06    -127.188E+06     16.0567E+06         36.4273
            1995     4.57261E-03     143.864E-03         7.20660        -3.79371        -3.96390        -3.76827         7.18117        -3.96390         1.04090     203.243E-03    -90.3012E-03    -112.942E-03    -100.523E-03     190.824E-03    -90.3012E-03     122.564E-03    -96.8701E+06    -147.025E+06    -175.660E+06    -169.844E+06    -152.841E+06    -96.8701E+06     8.45181E+06         37.6126
            1996     5.47713E-03     143.930E-03         7.05209        -3.65116        -3.90995        -3.61754         7.01848        -3.90995         1.19307     219.495E-03    -92.5950E-03    -126.900E-03    -111.235E-03     203.830E-03    -92.5950E-03     143.866E-03    -68.4559E+06    -124.818E+06    -152.428E+06    -149.939E+06    -127.307E+06    -68.4559E+06     35.5245E+03         39.1485
            1997     6.36820E-03     144.028E-03         6.85925        -3.47169        -3.84351        -3.43095         6.81852        -3.84351         1.28680     239.560E-03    -95.7942E-03    -143.766E-03    -125.564E-03     221.358E-03    -95.7942E-03     163.030E-03    -41.4733E+06    -98.4252E+06    -131.778E+06    -127.451E+06    -102.752E+06    -41.4733E+06    -8.27818E+06         41.0327
            1998     7.25057E-03     144.144E-03         6.61080        -3.24179        -3.76353        -3.19617         6.56519        -3.76353         1.33493     263.157E-03    -99.9758E-03    -163.181E-03    -143.622E-03     243.598E-03    -99.9758E-03     178.359E-03    -17.0671E+06    -72.0784E+06    -114.138E+06    -106.181E+06    -80.0353E+06    -17.0671E+06    -15.8449E+06         43.2304
            1999     8.11358E-03     144.292E-03         6.31382        -2.98136        -3.67009        -2.93564         6.26809        -3.67009         1.29793     289.930E-03    -105.184E-03    -184.746E-03    -164.984E-03     270.168E-03    -105.184E-03     189.533E-03     4.21306E+06    -45.4285E+06    -99.1183E+06    -88.6290E+06    -55.9177E+06     4.21306E+06    -21.1646E+06         45.6683
            2000     8.96074E-03     144.456E-03         5.98231        -2.70355        -3.56490        -2.65584         5.93459        -3.56490         1.28141     317.953E-03    -111.358E-03    -206.595E-03    -187.732E-03     299.090E-03    -111.358E-03     195.135E-03     23.6711E+06    -18.3904E+06    -84.8870E+06    -73.5268E+06    -29.7506E+06     23.6711E+06    -24.9522E+06         48.2409
            2001     9.78470E-03     144.644E-03         5.62053        -2.40614        -3.44987        -2.36446         5.57885        -3.44987         1.14893     345.738E-03    -118.319E-03    -227.419E-03    -210.196E-03     328.514E-03    -118.319E-03     195.471E-03     41.9162E+06     8.21709E+06    -70.5441E+06    -59.9800E+06    -2.34702E+06     41.9162E+06    -26.6873E+06         50.8355
            2002     10.5946E-03     144.845E-03         5.24864        -2.10211        -3.32670        -2.05828         5.20482        -3.32670         1.11994     371.166E-03    -125.803E-03    -245.363E-03    -230.155E-03     355.958E-03    -125.803E-03     190.979E-03     61.3774E+06     40.5770E+06    -54.1541E+06    -47.2973E+06     33.7202E+06     61.3774E+06    -22.5924E+06         53.3781
            2003     11.3883E-03     145.057E-03         4.85657        -1.77812        -3.19663        -1.74041         4.81886        -3.19663     977.718E-03     391.709E-03    -133.466E-03    -258.243E-03    -245.066E-03     378.532E-03    -133.466E-03     182.994E-03     78.5858E+06     68.9108E+06    -38.9634E+06    -35.7141E+06     65.6615E+06     78.5858E+06    -16.7963E+06         55.9277
            2004     12.1679E-03     145.268E-03         4.46014        -1.45372        -3.06042        -1.42436         4.43077        -3.06042     818.868E-03     406.202E-03    -140.888E-03    -265.315E-03    -253.421E-03     394.309E-03    -140.888E-03     177.093E-03     83.2891E+06     74.0539E+06    -28.9507E+06    -26.3167E+06     71.4199E+06     83.2891E+06    -14.7851E+06         58.8732
            2005     12.9537E-03     145.499E-03         4.04767        -1.12118        -2.91969        -1.09654         4.02304        -2.91969     695.334E-03     412.159E-03    -147.764E-03    -264.395E-03    -254.651E-03     402.414E-03    -147.764E-03     160.512E-03     86.0759E+06     69.4949E+06    -19.9572E+06    -17.5668E+06     67.1044E+06     86.0759E+06    -13.1557E+06         63.2206
            2006     13.7279E-03     145.686E-03         3.62560    -786.506E-03        -2.77419    -776.306E-03         3.61540        -2.77419     422.276E-03     414.249E-03    -153.833E-03    -260.415E-03    -250.353E-03     404.186E-03    -153.833E-03     162.521E-03     84.1333E+06     60.6230E+06    -13.0092E+06    -11.2842E+06     58.8980E+06     84.1333E+06    -10.7128E+06         70.4217
            2007     14.5175E-03     145.948E-03         3.21974    -469.161E-03        -2.62695    -464.436E-03         3.21502        -2.62695     247.548E-03     407.463E-03    -159.074E-03    -248.389E-03    -240.834E-03     399.907E-03    -159.074E-03     132.928E-03     107.038E+06     59.3226E+06    -8.62526E+06    -7.55437E+06     58.2518E+06     107.038E+06    -7.01883E+06         79.9943
            2008     935.955E-06     144.913E-03         6.96936        -3.86149        -3.89121        -3.88732         6.96546        -3.86149     281.594E-03     137.693E-03    -67.9067E-03    -69.7860E-03    -68.5034E-03     136.636E-03    -68.1328E-03     27.4318E-03    -224.847E+06    -328.381E+06    -338.367E+06    -331.387E+06    -228.297E+06    -331.912E+06     1.86712E+06         32.3349
            2009     1.86886E-03     144.929E-03         6.95243        -3.83923        -3.87121        -3.83813         6.94447        -3.86434     579.069E-03     144.509E-03    -69.2039E-03    -75.3048E-03    -72.2098E-03     141.414E-03    -69.2039E-03     50.6657E-03    -201.058E+06    -284.138E+06    -307.075E+06    -300.760E+06    -207.127E+06    -284.384E+06     500.639E+03         32.8448
            2010     2.79694E-03     144.951E-03         6.90085        -3.77823        -3.83924        -3.76342         6.88603        -3.83924     774.921E-03     155.451E-03    -71.2220E-03    -84.2291E-03    -78.0837E-03     149.306E-03    -71.2220E-03     75.1022E-03    -176.116E+06    -229.752E+06    -266.868E+06    -259.139E+06    -187.583E+06    -226.013E+06    -2.44760E+06         33.6833
            2011     3.71974E-03     144.998E-03         6.83249        -3.70835        -3.80264        -3.68463         6.80876        -3.80264     991.727E-03     169.855E-03    -73.8864E-03    -95.9684E-03    -86.2910E-03     160.177E-03    -73.8864E-03     99.2873E-03    -147.649E+06    -183.574E+06    -224.760E+06    -216.396E+06    -168.140E+06    -171.448E+06    -5.72862E+06         34.8682
            2012     4.63510E-03     145.058E-03         6.73600        -3.61858        -3.75720        -3.58357         6.70099        -3.75720         1.18888     187.901E-03    -77.2162E-03    -110.685E-03    -97.4995E-03     174.716E-03    -77.2162E-03     122.587E-03    -115.901E+06    -143.086E+06    -186.112E+06    -177.803E+06    -143.445E+06    -123.851E+06    -10.9833E+06         36.4114
            2013     5.53862E-03     145.152E-03         6.60542        -3.49180        -3.70061        -3.44629         6.55990        -3.70061         1.34543     209.823E-03    -81.3309E-03    -128.492E-03    -112.268E-03     193.599E-03    -81.3309E-03     144.558E-03    -81.6931E+06    -105.924E+06    -156.054E+06    -145.878E+06    -114.649E+06    -83.1431E+06    -17.7906E+06         38.3099
            2014     6.43231E-03     145.268E-03         6.43144        -3.31799        -3.63021        -3.26319         6.37663        -3.63021         1.44748     234.907E-03    -86.3123E-03    -148.595E-03    -130.184E-03     216.496E-03    -86.3123E-03     163.958E-03    -50.6682E+06    -78.3912E+06    -134.831E+06    -122.067E+06    -91.1553E+06    -50.6682E+06    -23.1217E+06         40.5360
            2015     7.30675E-03     145.420E-03         6.20140        -3.09990        -3.54455        -3.04209         6.14358        -3.54455         1.45672     262.764E-03    -92.1678E-03    -170.596E-03    -150.949E-03     243.117E-03    -92.1678E-03     180.260E-03    -24.5045E+06    -55.6980E+06    -119.118E+06    -105.005E+06    -69.8110E+06    -24.5045E+06    -26.2807E+06         43.0341
            2016     8.16664E-03     145.598E-03         5.91659        -2.84607        -3.44408        -2.78917         5.85969        -3.44408         1.40231     292.849E-03    -98.8825E-03    -193.966E-03    -174.141E-03     273.023E-03    -98.8825E-03     192.317E-03    -1.13998E+06    -28.4633E+06    -105.674E+06    -90.1455E+06    -43.9920E+06    -1.13998E+06    -30.8829E+06         45.7155
            2017     9.00406E-03     145.807E-03         5.58328        -2.56547        -3.33036        -2.51038         5.52818        -3.33036         1.33269     323.746E-03    -106.395E-03    -217.352E-03    -198.387E-03     304.782E-03    -106.395E-03     198.814E-03     18.7383E+06    -3.64659E+06    -92.6605E+06    -75.0541E+06    -21.2530E+06     18.7383E+06    -35.4094E+06         48.4623
            2018     9.82532E-03     146.033E-03         5.22679        -2.27316        -3.20587        -2.22322         5.17686        -3.20587         1.21509     352.938E-03    -114.519E-03    -238.419E-03    -220.939E-03     335.458E-03    -114.519E-03     200.103E-03     37.2700E+06     16.3117E+06    -76.5521E+06    -59.5202E+06    -720.233E+03     37.2700E+06    -35.4736E+06         51.1534
            2019     10.6255E-03     146.277E-03         4.86203        -1.97448        -3.07342        -1.92598         4.81353        -3.07342         1.14240     378.628E-03    -122.953E-03    -255.675E-03    -240.006E-03     362.959E-03    -122.953E-03     196.663E-03     55.2547E+06     34.7785E+06    -57.4611E+06    -45.3003E+06     22.6177E+06     55.2547E+06    -30.3025E+06         53.7142
            2020     11.4119E-03     146.519E-03         4.47529        -1.65434        -2.93538        -1.61446         4.43541        -2.93538     980.160E-03     399.761E-03    -131.399E-03    -268.362E-03    -254.790E-03     386.189E-03    -131.399E-03     188.229E-03     73.9626E+06     61.7747E+06    -39.6483E+06    -33.6988E+06     55.8252E+06     73.9626E+06    -21.9844E+06         56.1982
            2021     12.1918E-03     146.761E-03         4.09508        -1.34232        -2.79385        -1.31157         4.06433        -2.79385     811.873E-03     414.070E-03    -139.539E-03    -274.531E-03    -262.847E-03     402.386E-03    -139.539E-03     177.680E-03     85.3424E+06     72.0835E+06    -28.0724E+06    -24.9517E+06     68.9627E+06     85.3424E+06    -15.8041E+06         58.9785
            2022     12.9583E-03     146.992E-03         3.70852        -1.02623        -2.65143        -1.00562         3.68791        -2.65143     611.464E-03     418.872E-03    -147.011E-03    -271.861E-03    -262.558E-03     409.569E-03    -147.011E-03     158.646E-03     88.5179E+06     67.9453E+06    -22.1863E+06    -19.6813E+06     65.4404E+06     88.5179E+06    -13.6471E+06         63.0762
            2023     13.7344E-03     147.198E-03         3.33094    -722.348E-03        -2.50786    -713.189E-03         3.32178        -2.50786     382.730E-03     418.573E-03    -153.503E-03    -265.070E-03    -255.822E-03     409.325E-03    -153.503E-03     157.342E-03     84.0956E+06     59.0055E+06    -16.7577E+06    -14.7805E+06     57.0283E+06     84.0956E+06    -11.4742E+06         70.0745
            2024     14.5112E-03     147.426E-03         2.98275    -449.708E-03        -2.36631    -446.213E-03         2.97926        -2.36631     186.101E-03     408.503E-03    -159.006E-03    -249.497E-03    -242.636E-03     401.643E-03    -159.006E-03     128.066E-03     110.607E+06     48.8270E+06    -8.04607E+06    -6.85044E+06     47.6314E+06     110.607E+06    -6.92948E+06         79.7790
            2025     947.789E-06     146.040E-03         6.29155        -3.60796        -3.64436        -3.61531         6.28696        -3.63241     341.849E-03     112.029E-03    -54.8369E-03    -57.1920E-03    -56.1489E-03     111.128E-03    -54.9794E-03     23.0245E-03    -208.627E+06    -363.730E+06    -370.737E+06    -367.093E+06    -211.536E+06    -364.464E+06    -18.6878E+06         30.8430
            2026     1.89433E-03     146.059E-03         6.28774        -3.58692        -3.61467        -3.58029         6.27667        -3.61023     652.378E-03     120.796E-03    -56.7142E-03    -64.0820E-03    -61.3287E-03     118.043E-03    -56.7142E-03     43.7869E-03    -181.211E+06    -330.343E+06    -350.912E+06    -343.131E+06    -188.746E+06    -330.590E+06    -32.2656E+06         31.4700
            2027     2.83246E-03     146.100E-03         6.26103        -3.54035        -3.58194        -3.51931         6.23999        -3.58194     888.184E-03     135.094E-03    -59.5686E-03    -75.5254E-03    -69.8937E-03     129.462E-03    -59.5686E-03     67.4636E-03    -157.123E+06    -280.585E+06    -321.324E+06    -307.496E+06    -170.952E+06    -280.585E+06    -43.7298E+06         32.4882
            2028     3.76166E-03     146.156E-03         6.20501        -3.47175        -3.54318        -3.43921         6.17248        -3.54318         1.11099     154.049E-03    -63.3894E-03    -90.6598E-03    -81.5873E-03     144.977E-03    -63.3894E-03     92.2558E-03    -133.500E+06    -229.178E+06    -285.876E+06    -264.101E+06    -155.275E+06    -229.178E+06    -52.3557E+06         33.9019
            2029     4.67901E-03     146.244E-03         6.13004        -3.38905        -3.49388        -3.34250         6.08350        -3.49388         1.31404     177.365E-03    -68.1259E-03    -109.239E-03    -96.6953E-03     164.821E-03    -68.1259E-03     117.177E-03    -104.134E+06    -177.319E+06    -246.685E+06    -218.375E+06    -132.444E+06    -177.319E+06    -56.6501E+06         35.7002
            2030     5.58407E-03     146.356E-03         6.01393        -3.26324        -3.43193        -3.20471         5.95540        -3.43193         1.46421     204.092E-03    -73.7845E-03    -130.307E-03    -114.847E-03     188.631E-03    -73.7845E-03     140.392E-03    -73.8673E+06    -126.379E+06    -208.118E+06    -176.365E+06    -107.303E+06    -124.696E+06    -56.3102E+06         37.8527
            2031     6.47016E-03     146.507E-03         5.85228        -3.09438        -3.35434        -3.02503         5.78292        -3.35434         1.56144     233.608E-03    -80.3153E-03    -153.292E-03    -135.804E-03     216.119E-03    -80.3153E-03     160.690E-03    -51.7008E+06    -84.1786E+06    -172.210E+06    -139.842E+06    -90.9585E+06    -77.2893E+06    -51.1172E+06         40.3045
            2032     7.34239E-03     146.688E-03         5.63258        -2.88070        -3.26020        -2.81075         5.56264        -3.26020         1.53270     264.977E-03    -87.6196E-03    -177.357E-03    -158.818E-03     246.437E-03    -87.6196E-03     177.142E-03    -28.2103E+06    -48.2883E+06    -138.848E+06    -108.840E+06    -67.7247E+06    -38.7825E+06    -45.4954E+06         42.9719
            2033     8.19322E-03     146.908E-03         5.36680        -2.64329        -3.15042        -2.57493         5.29844        -3.15042         1.46770     296.966E-03    -95.6113E-03    -201.355E-03    -182.716E-03     278.327E-03    -95.6113E-03     188.883E-03    -3.54447E+06    -14.7840E+06    -110.270E+06    -84.7909E+06    -37.5437E+06    -6.26375E+06    -42.2205E+06         45.7457
            2034     9.02763E-03     147.156E-03         5.04988        -2.37348        -3.02704        -2.31197         4.98837        -3.02704         1.33849     327.953E-03    -104.149E-03    -223.804E-03    -205.959E-03     310.108E-03    -104.149E-03     194.939E-03     19.6230E+06     8.65099E+06    -91.4952E+06    -69.2481E+06    -13.5961E+06     19.6230E+06    -41.4854E+06         48.5050
            2035     9.83927E-03     147.428E-03         4.70991        -2.09266        -2.89316        -2.03603         4.65329        -2.89316         1.22862     356.184E-03    -113.009E-03    -243.175E-03    -226.734E-03     339.742E-03    -113.009E-03     195.540E-03     38.0691E+06     20.5860E+06    -81.1922E+06    -60.4926E+06    -113.554E+03     38.0691E+06    -40.8600E+06         51.1447
            2036     10.6390E-03     147.705E-03         4.35669        -1.80304        -2.75245        -1.75339         4.30703        -2.75245         1.08922     381.273E-03    -121.951E-03    -259.323E-03    -244.563E-03     366.513E-03    -121.951E-03     191.909E-03     53.5362E+06     31.0943E+06    -70.8383E+06    -54.4827E+06     14.7388E+06     53.5362E+06    -37.0368E+06         53.6072
            2037     11.4247E-03     147.989E-03         3.98304        -1.49395        -2.60820        -1.45705         3.94613        -2.60820     891.886E-03     401.368E-03    -130.745E-03    -270.624E-03    -257.908E-03     388.653E-03    -130.745E-03     182.739E-03     70.5644E+06     52.7294E+06    -56.9657E+06    -47.0558E+06     42.8195E+06     70.5644E+06    -30.6593E+06         55.9474
            2038     12.1936E-03     148.254E-03         3.61992        -1.19586        -2.46362        -1.16726         3.59133        -2.46362     726.999E-03     414.507E-03    -139.096E-03    -275.412E-03    -264.470E-03     403.566E-03    -139.096E-03     172.269E-03     83.5485E+06     66.2458E+06    -42.1901E+06    -35.8723E+06     59.9280E+06     83.5485E+06    -23.7583E+06         58.5232
            2039     12.9666E-03     148.503E-03         3.25874    -897.208E-03        -2.32210    -883.407E-03         3.24494        -2.32210     473.004E-03     419.926E-03    -146.726E-03    -273.200E-03    -264.342E-03     411.069E-03    -146.726E-03     155.155E-03     93.4612E+06     65.0891E+06    -28.0839E+06    -23.5622E+06     60.5673E+06     93.4612E+06    -18.2064E+06         62.3577
            2040     13.7365E-03     148.700E-03         2.93071    -632.354E-03        -2.18397    -625.062E-03         2.92342        -2.18397     318.407E-03     418.752E-03    -153.339E-03    -265.412E-03    -257.170E-03     410.509E-03    -153.339E-03     148.828E-03     90.4166E+06     52.6535E+06    -16.2048E+06    -13.4860E+06     49.9347E+06     90.4166E+06    -13.2958E+06         69.1846
            2041     14.5200E-03     148.929E-03         2.64197    -403.942E-03        -2.05246    -401.566E-03         2.63959        -2.05246     125.793E-03     407.787E-03    -158.921E-03    -248.865E-03    -243.010E-03     401.932E-03    -158.921E-03     118.362E-03     114.366E+06     38.0334E+06    -9.30612E+06    -7.81488E+06     36.5421E+06     114.366E+06    -7.37129E+06         79.1099
            2042     952.853E-06     147.145E-03         5.49464        -3.31154        -3.35553        -3.32361         5.48719        -3.33599     393.694E-03     105.691E-03    -51.6959E-03    -53.9953E-03    -53.4246E-03     105.173E-03    -51.7487E-03     16.4957E-03    -159.574E+06    -279.606E+06    -291.518E+06    -286.076E+06    -165.015E+06    -279.606E+06    -24.7588E+06         30.6377
            2043     1.89978E-03     147.176E-03         5.49011        -3.29320        -3.31667        -3.28148         5.47357        -3.31185     750.128E-03     114.016E-03    -53.8054E-03    -60.2108E-03    -58.5744E-03     112.380E-03    -53.8054E-03     31.8566E-03    -131.339E+06    -260.632E+06    -292.618E+06    -277.665E+06    -146.292E+06    -260.632E+06    -45.4417E+06         31.2853
            2044     2.84293E-03     147.226E-03         5.49615        -3.26298        -3.28644        -3.23926         5.46769        -3.28170     977.333E-03     127.355E-03    -56.7150E-03    -70.6401E-03    -67.0776E-03     123.793E-03    -56.7150E-03     51.1059E-03    -107.191E+06    -236.403E+06    -291.235E+06    -264.356E+06    -134.070E+06    -236.403E+06    -63.9403E+06         32.3373
            2045     3.77559E-03     147.305E-03         5.47454        -3.20689        -3.24782        -3.16875         5.43166        -3.24308         1.21044     146.954E-03    -60.7392E-03    -86.2151E-03    -80.0403E-03     140.780E-03    -60.7392E-03     73.4767E-03    -82.9355E+06    -208.658E+06    -286.286E+06    -245.567E+06    -123.655E+06    -208.658E+06    -80.2223E+06         33.7992
            2046     4.69477E-03     147.413E-03         5.41430        -3.12212        -3.19060        -3.06095         5.35314        -3.19060         1.42345     171.640E-03    -65.9411E-03    -105.699E-03    -96.6424E-03     162.584E-03    -65.9411E-03     97.4228E-03    -60.0716E+06    -177.794E+06    -273.978E+06    -222.594E+06    -111.456E+06    -177.794E+06    -90.5756E+06         35.6510
            2047     5.59614E-03     147.559E-03         5.31260        -2.99512        -3.12171        -2.92018         5.23767        -3.12171         1.56254     200.533E-03    -72.2320E-03    -128.301E-03    -116.552E-03     188.784E-03    -72.2320E-03     121.167E-03    -42.7363E+06    -142.378E+06    -252.752E+06    -195.823E+06    -99.6656E+06    -142.378E+06    -92.6390E+06         37.8471
            2048     6.48283E-03     147.739E-03         5.16318        -2.82915        -3.03554        -2.74341         5.07744        -3.03554         1.63535     232.562E-03    -79.5044E-03    -153.057E-03    -139.272E-03     218.776E-03    -79.5044E-03     142.334E-03    -32.2086E+06    -107.038E+06    -226.932E+06    -166.207E+06    -92.9339E+06    -107.038E+06    -90.0132E+06         40.3120
            2049     7.34582E-03     147.961E-03         4.94575        -2.60986        -2.93157        -2.52694         4.86283        -2.93157         1.56570     266.192E-03    -87.6042E-03    -178.588E-03    -163.671E-03     251.275E-03    -87.6042E-03     159.410E-03    -16.5319E+06    -74.3570E+06    -195.325E+06    -136.487E+06    -75.3698E+06    -74.3570E+06    -83.9334E+06         42.9375
            2050     8.19124E-03     148.216E-03         4.69223        -2.37455        -2.81129        -2.29544         4.61312        -2.81129         1.47862     299.205E-03    -96.3741E-03    -202.830E-03    -187.697E-03     284.071E-03    -96.3741E-03     171.010E-03     3.96216E+06    -37.6319E+06    -159.629E+06    -108.989E+06    -47.6023E+06    -36.7073E+06    -75.1565E+06         45.5962
            2051     9.01527E-03     148.506E-03         4.39871        -2.11794        -2.67848        -2.05266         4.33343        -2.67848         1.27963     328.518E-03    -105.515E-03    -223.003E-03    -208.432E-03     313.948E-03    -105.515E-03     176.283E-03     21.2279E+06     345.830E+03    -123.876E+06    -83.2996E+06    -24.6750E+06     5.67266E+06    -63.0616E+06         48.1746
            2052     9.82852E-03     148.813E-03         4.08155        -1.84990        -2.53674        -1.79367         4.02532        -2.53674         1.13607     355.260E-03    -114.696E-03    -240.564E-03    -226.965E-03     341.662E-03    -114.696E-03     177.354E-03     41.4528E+06     18.9399E+06    -92.3723E+06    -62.5534E+06    -10.8790E+06     41.4528E+06    -48.2885E+06         50.5935
            2053     10.6235E-03     149.132E-03         3.73749        -1.56425        -2.38917        -1.51847         3.69171        -2.38917     948.930E-03     378.259E-03    -123.695E-03    -254.563E-03    -242.295E-03     365.990E-03    -123.695E-03     174.023E-03     68.3901E+06     29.1226E+06    -66.3580E+06    -46.0253E+06     8.78997E+06     68.3901E+06    -37.9106E+06         52.8187
            2054     11.4045E-03     149.447E-03         3.37674        -1.26712        -2.23963        -1.23702         3.34663        -2.23963     731.948E-03     394.637E-03    -132.232E-03    -262.405E-03    -251.439E-03     383.671E-03    -132.232E-03     168.150E-03     83.9944E+06     41.6487E+06    -44.6241E+06    -32.3111E+06     29.3357E+06     83.9944E+06    -28.7917E+06         54.9324
            2055     12.1876E-03     149.739E-03         3.04037    -993.674E-03        -2.09233    -970.018E-03         3.01671        -2.09233     583.347E-03     406.412E-03    -140.111E-03    -266.301E-03    -256.531E-03     396.642E-03    -140.111E-03     160.704E-03     95.4991E+06     61.8926E+06    -30.9017E+06    -23.9860E+06     54.9769E+06     95.4991E+06    -21.3208E+06         57.2954
            2056     12.9623E-03     149.999E-03         2.71433    -728.778E-03        -1.95194    -721.291E-03         2.70685        -1.95194     316.735E-03     413.005E-03    -147.317E-03    -265.688E-03    -257.825E-03     405.142E-03    -147.317E-03     144.659E-03     106.200E+06     64.5194E+06    -24.1301E+06    -18.3148E+06     58.7041E+06     106.200E+06    -19.3828E+06         60.8922
            2057     13.7355E-03     150.218E-03         2.44486    -514.858E-03        -1.82072    -510.284E-03         2.44028        -1.82072     224.032E-03     412.972E-03    -153.644E-03    -259.329E-03    -252.540E-03     406.184E-03    -153.644E-03     134.295E-03     101.034E+06     41.0725E+06    -17.6124E+06    -12.9335E+06     36.3936E+06     101.034E+06    -15.3384E+06         67.5727
            2058     14.5149E-03     150.406E-03         2.22371    -339.629E-03        -1.70203    -338.123E-03         2.22220        -1.70203     51.0531E-03     403.139E-03    -159.027E-03    -244.112E-03    -239.570E-03     398.597E-03    -159.027E-03     104.104E-03     124.642E+06     31.1398E+06    -10.9470E+06    -5.09897E+06     25.2918E+06     124.642E+06    -6.39780E+06         77.8440
            2059     944.543E-06     148.260E-03         4.54513        -2.98660        -3.02147        -3.01258         4.53624        -2.98660     442.816E-03     122.465E-03    -60.6722E-03    -61.7924E-03    -61.5769E-03     122.326E-03    -60.7494E-03     6.81973E-03    -104.801E+06    -181.459E+06    -193.026E+06    -185.686E+06    -112.141E+06    -181.459E+06    -22.9335E+06         32.1067
            2060     1.88593E-03     148.294E-03         4.59173        -2.98207        -3.01230        -2.98585         4.56978        -2.98657     806.059E-03     129.267E-03    -62.4617E-03    -66.8052E-03    -66.3457E-03     128.807E-03    -62.4617E-03     13.6243E-03    -77.0071E+06    -162.411E+06    -198.036E+06    -178.794E+06    -96.2498E+06    -162.411E+06    -42.9986E+06         32.7068
            2061     2.82100E-03     148.357E-03         4.62428        -2.95852        -2.97937        -2.93741         4.58683        -2.96302         1.04766     140.637E-03    -65.3514E-03    -75.2856E-03    -74.1683E-03     139.520E-03    -65.3514E-03     23.6369E-03    -53.4329E+06    -140.708E+06    -202.334E+06    -168.516E+06    -87.2508E+06    -140.708E+06    -61.7517E+06         33.6725
            2062     3.74749E-03     148.452E-03         4.62886        -2.90843        -2.93116        -2.86242         4.57548        -2.92378         1.25718     156.320E-03    -69.2978E-03    -87.0219E-03    -84.9057E-03     154.203E-03    -69.2978E-03     37.1182E-03    -32.9118E+06    -120.538E+06    -206.714E+06    -158.346E+06    -81.2797E+06    -120.538E+06    -77.3945E+06         35.0006
            2063     4.66062E-03     148.584E-03         4.59736        -2.82515        -2.86786        -2.75195         4.52416        -2.86786         1.45551     177.049E-03    -74.2976E-03    -102.752E-03    -99.2610E-03     173.559E-03    -74.2976E-03     53.8930E-03    -20.5285E+06    -103.649E+06    -209.681E+06    -150.510E+06    -79.6992E+06    -103.649E+06    -87.5016E+06         36.6708
            2064     5.56097E-03     148.755E-03         4.51185        -2.68885        -2.79356        -2.60247         4.42547        -2.79356         1.56608     202.680E-03    -80.3771E-03    -122.302E-03    -117.279E-03     197.656E-03    -80.3771E-03     72.2016E-03    -11.7124E+06    -91.5464E+06    -210.013E+06    -143.908E+06    -77.8169E+06    -91.5464E+06    -93.2967E+06         38.6347
            2065     6.43843E-03     148.972E-03         4.37392        -2.51045        -2.70006        -2.41526         4.27873        -2.70006         1.60322     231.661E-03    -87.4900E-03    -144.171E-03    -137.841E-03     225.331E-03    -87.4900E-03     89.4262E-03    -4.05805E+06    -79.6643E+06    -208.883E+06    -137.034E+06    -75.9064E+06    -79.6643E+06    -97.5356E+06         40.8068
            2066     7.30047E-03     149.226E-03         4.16706        -2.28248        -2.58783        -2.19545         4.08003        -2.58783         1.48258     262.628E-03    -95.4591E-03    -167.169E-03    -159.786E-03     255.245E-03    -95.4591E-03     105.179E-03     6.92723E+06    -63.7832E+06    -202.860E+06    -127.115E+06    -68.8174E+06    -63.7832E+06    -100.183E+06         43.0709
            2067     8.13886E-03     149.526E-03         3.92496        -2.03807        -2.45946        -1.95910         3.84599        -2.45946         1.35872     292.266E-03    -103.980E-03    -188.286E-03    -180.268E-03     284.248E-03    -103.980E-03     117.721E-03     19.9625E+06    -38.1554E+06    -185.822E+06    -111.776E+06    -54.0834E+06    -38.1554E+06    -97.9709E+06         45.3077
            2068     8.96244E-03     149.847E-03         3.63992        -1.76967        -2.31861        -1.70790         3.57815        -2.31861         1.12711     319.307E-03    -112.685E-03    -206.622E-03    -198.450E-03     311.135E-03    -112.685E-03     126.010E-03     22.5704E+06    -6.27929E+06    -161.859E+06    -94.3560E+06    -45.3336E+06    -5.87809E+06    -88.1668E+06         47.4283
            2069     9.77032E-03     150.187E-03         3.33237        -1.49899        -2.16824        -1.44966         3.28304        -2.16824     956.184E-03     343.749E-03    -121.252E-03    -222.497E-03    -214.284E-03     335.537E-03    -121.252E-03     132.821E-03     30.7305E+06     12.6368E+06    -133.431E+06    -75.6617E+06    -39.7027E+06     25.3005E+06    -73.3807E+06         49.3758
            2070     10.5660E-03     150.546E-03         3.00592        -1.22555        -2.01231        -1.18713         2.96749        -2.01231     760.987E-03     361.878E-03    -129.342E-03    -232.536E-03    -224.368E-03     353.710E-03    -129.342E-03     137.128E-03     59.6450E+06     26.0905E+06    -96.8644E+06    -54.9610E+06    -14.7075E+06     58.5395E+06    -58.3038E+06         51.1632
            2071     11.3630E-03     150.879E-03         2.66668    -950.198E-03        -1.85587    -929.021E-03         2.64551        -1.85587     536.056E-03     376.225E-03    -136.727E-03    -239.498E-03    -231.424E-03     368.150E-03    -136.727E-03     139.368E-03     86.5518E+06     29.2330E+06     -64.225E+06    -37.1098E+06     2.11774E+06     86.5518E+06    -42.2423E+06         52.9402
            2072     12.1513E-03     151.199E-03         2.36479    -718.109E-03        -1.70420    -701.907E-03         2.34859        -1.70420     401.134E-03     388.418E-03    -143.429E-03    -244.988E-03    -237.358E-03     380.787E-03    -143.429E-03     137.791E-03     114.898E+06     46.5700E+06    -35.7291E+06    -22.7906E+06     33.6314E+06     114.898E+06    -24.1939E+06         55.0761
            2073     12.9356E-03     151.484E-03         2.09415    -513.927E-03        -1.56369    -511.376E-03         2.09160        -1.56369     154.282E-03     396.403E-03    -149.499E-03    -246.904E-03    -240.455E-03     389.954E-03    -149.499E-03     127.872E-03     131.500E+06     61.4200E+06    -17.7852E+06    -13.3390E+06     56.9737E+06     131.500E+06    -11.9859E+06         58.4791
            2074     13.7237E-03     151.704E-03         1.88519    -361.482E-03        -1.43865    -360.095E-03         1.88380        -1.43865     90.4818E-03     399.233E-03    -154.892E-03    -244.340E-03    -238.987E-03     393.879E-03    -154.892E-03     116.535E-03     121.095E+06     35.9557E+06    -15.0547E+06    -11.0813E+06     31.9823E+06     121.095E+06    -7.16746E+06         65.0782
            2075     14.5130E-03     151.902E-03         1.71615    -240.419E-03        -1.33278    -239.388E-03         1.71512        -1.33278    -26.6625E-03     390.752E-03    -159.556E-03    -231.196E-03    -227.940E-03     387.496E-03    -159.556E-03     85.8310E-03     135.761E+06     21.4390E+06    -15.5132E+06    -9.36680E+06     15.2926E+06     135.761E+06    -4.49647E+06         75.9700
            2076     923.268E-06     149.401E-03         3.57473        -2.71328        -2.75864        -2.72153         3.56765        -2.74331     372.750E-03     167.509E-03    -83.2745E-03    -84.2341E-03    -83.8105E-03     167.384E-03    -83.5735E-03    -7.36487E-03    -47.2544E+06    -81.7701E+06    -100.404E+06    -84.0123E+06    -63.6465E+06    -81.7701E+06    -20.7656E+06         35.3898
            2077     1.84628E-03     149.447E-03         3.61087        -2.68595        -2.73739        -2.68820         3.59221        -2.71648     673.966E-03     173.750E-03    -85.3350E-03    -88.4150E-03    -88.0281E-03     173.363E-03    -85.3350E-03    -13.5965E-03    -25.6127E+06    -68.3963E+06    -105.830E+06    -80.7468E+06    -50.6955E+06    -68.3963E+06    -35.2730E+06         35.9282
            2078     2.76014E-03     149.519E-03         3.64944        -2.64787        -2.69604        -2.62426         3.61423        -2.68443     927.553E-03     183.224E-03    -88.3974E-03    -94.8268E-03    -94.0342E-03     182.432E-03    -88.3974E-03    -18.7076E-03    -6.91299E+06    -50.6248E+06    -113.667E+06    -77.6381E+06    -42.9419E+06    -50.6248E+06    -49.6828E+06         36.7695
            2079     3.66503E-03     149.626E-03         3.67913        -2.58300        -2.64202        -2.53721         3.63070        -2.63938         1.09470     194.631E-03    -92.3552E-03    -102.276E-03    -101.007E-03     193.362E-03    -92.3552E-03    -20.8210E-03     3.24516E+06    -36.5775E+06    -122.208E+06    -76.0398E+06    -42.9227E+06    -36.5775E+06    -59.8515E+06         37.8823
            2080     4.56278E-03     149.772E-03         3.67567        -2.47419        -2.57926        -2.41135         3.61282        -2.57926         1.22837     208.789E-03    -97.1417E-03    -111.647E-03    -109.903E-03     207.045E-03    -97.1417E-03    -19.3695E-03     6.47321E+06    -27.2729E+06    -129.456E+06    -75.6337E+06    -47.3491E+06    -27.2729E+06    -65.8301E+06         39.2268
            2081     5.44236E-03     149.967E-03         3.59701        -2.29732        -2.49973        -2.22585         3.52555        -2.49973         1.28826     225.831E-03    -102.819E-03    -123.012E-03    -120.834E-03     223.653E-03    -102.819E-03    -15.2357E-03     13.0617E+06    -17.9483E+06    -132.835E+06    -72.9191E+06    -47.2688E+06    -17.5338E+06    -70.9988E+06         40.7438
            2082     6.31137E-03     150.203E-03         3.46984        -2.08896        -2.39921        -2.01069         3.39158        -2.39921         1.30450     245.069E-03    -109.335E-03    -135.734E-03    -133.163E-03     242.498E-03    -109.335E-03    -9.61474E-03     21.4190E+06    -8.63816E+06    -133.689E+06    -67.8192E+06    -48.1428E+06    -4.94609E+06    -74.4273E+06         42.3458
            2083     7.15896E-03     150.490E-03         3.27773        -1.83575        -2.27910        -1.76533         3.20731        -2.27910         1.18584     264.121E-03    -116.394E-03    -147.727E-03    -144.917E-03     261.311E-03    -116.394E-03    -1.97339E-03     33.8628E+06     2.84842E+06    -131.250E+06    -62.3100E+06    -42.6343E+06     10.4053E+06    -77.7587E+06         43.9302
            2084     7.99534E-03     150.812E-03         3.04721        -1.56950        -2.14135        -1.50589         2.98361        -2.14135         1.06963     281.420E-03    -123.546E-03    -157.874E-03    -154.945E-03     278.490E-03    -123.546E-03     6.73177E-03     41.5647E+06     9.10082E+06    -129.244E+06    -61.4617E+06    -38.5136E+06     21.3970E+06    -78.3713E+06         45.4155
            2085     8.82243E-03     151.162E-03         2.77193        -1.28601        -1.98847        -1.23356         2.71949        -1.98847     901.469E-03     298.344E-03    -129.873E-03    -168.472E-03    -164.935E-03     295.429E-03    -130.494E-03     17.2553E-03     41.4326E+06     9.43739E+06    -128.479E+06    -65.1266E+06    -41.0222E+06     28.5394E+06    -74.3683E+06         46.7500
            2086     9.63535E-03     151.539E-03         2.47754        -1.01246        -1.82431    -971.849E-03         2.43693        -1.82431     737.787E-03     311.812E-03    -133.940E-03    -177.872E-03    -171.977E-03     308.901E-03    -136.924E-03     31.1201E-03     43.7111E+06     13.2009E+06    -127.677E+06    -67.0206E+06    -42.0258E+06     38.2811E+06    -72.0128E+06         47.9195
            2087     10.4511E-03     151.908E-03         2.18198    -763.071E-03        -1.65496    -732.054E-03         2.15097        -1.65496     572.613E-03     321.255E-03    -137.750E-03    -183.505E-03    -175.825E-03     318.279E-03    -142.453E-03     46.7331E-03     56.1916E+06     20.9011E+06    -119.687E+06    -65.4741E+06    -32.2067E+06     55.0860E+06    -68.2898E+06         49.0098
            2088     11.2643E-03     152.273E-03         1.88776    -536.314E-03        -1.48645    -521.269E-03         1.87272        -1.48645     372.254E-03     331.746E-03    -142.783E-03    -188.963E-03    -181.462E-03     328.518E-03    -147.056E-03     66.7895E-03     80.1206E+06     19.0911E+06    -102.779E+06    -57.9978E+06    -25.6898E+06     80.1206E+06    -58.0627E+06         50.2349
            2089     12.0732E-03     152.621E-03         1.64637    -376.333E-03        -1.32577    -366.235E-03         1.63627        -1.32577     252.870E-03     342.798E-03    -148.916E-03    -193.882E-03    -187.858E-03     338.707E-03    -150.849E-03     89.2143E-03     109.173E+06     24.0655E+06    -74.8366E+06    -45.0744E+06    -5.69676E+06     109.173E+06    -42.6740E+06         51.9872
            2090     12.8880E-03     152.920E-03         1.43268    -248.176E-03        -1.18016    -247.303E-03         1.43180        -1.18016     71.6002E-03     356.653E-03    -154.060E-03    -202.593E-03    -197.063E-03     351.123E-03    -154.060E-03     109.483E-03     134.370E+06     42.0154E+06    -39.1391E+06    -26.6260E+06     29.5023E+06     134.370E+06    -23.2952E+06         55.1162
            2091     13.6879E-03     153.182E-03         1.27388    -172.261E-03        -1.05546    -171.773E-03         1.27340        -1.05546     2.25551E-03     370.634E-03    -157.115E-03    -213.520E-03    -207.329E-03     364.443E-03    -157.115E-03     117.721E-03     141.071E+06     29.5705E+06    -18.9680E+06    -7.12033E+06     17.7228E+06     141.071E+06    -4.09391E+06         61.5434
            2092     14.4940E-03     153.351E-03         1.15471    -120.971E-03    -958.050E-03    -119.002E-03         1.15274    -958.050E-03    -79.5785E-03     374.692E-03    -160.212E-03    -214.481E-03    -210.665E-03     370.876E-03    -160.212E-03     88.2043E-03     153.196E+06     27.9307E+06    -11.9594E+06     4.90898E+06     11.0623E+06     153.196E+06     3.95618E+06         73.2705
            2093     891.022E-06     150.622E-03         2.84521        -2.68384        -2.73962        -2.68133         2.84038        -2.73730     89.4679E-03     249.389E-03    -124.008E-03    -125.382E-03    -124.420E-03     248.702E-03    -124.282E-03    -29.1513E-03     34.7922E+06     24.3351E+06    -32.9779E+06     23.3141E+06    -24.4636E+06     27.2988E+06    -13.6651E+06         39.4731
            2094     1.77303E-03     150.668E-03         2.79953        -2.57697        -2.68740        -2.56813         2.79069        -2.68740     178.647E-03     255.442E-03    -126.590E-03    -128.851E-03    -126.836E-03     253.426E-03    -126.590E-03    -52.6653E-03     43.4324E+06     26.1179E+06    -33.3237E+06     20.1117E+06    -16.7902E+06     32.9050E+06    -20.1190E+06         39.9717
            2095     2.65127E-03     150.753E-03         2.77524        -2.43670        -2.63188        -2.41987         2.75842        -2.63188     226.708E-03     263.971E-03    -129.826E-03    -134.145E-03    -129.968E-03     259.793E-03    -129.826E-03    -77.8015E-03     51.9016E+06     29.5145E+06    -36.6551E+06     15.2810E+06    -12.9530E+06     42.4330E+06    -24.8748E+06         40.7293
            2096     3.52243E-03     150.865E-03         2.73280        -2.24151        -2.56323        -2.21846         2.70975        -2.56323     279.347E-03     274.610E-03    -134.080E-03    -140.530E-03    -133.438E-03     267.518E-03    -134.080E-03    -102.854E-03     58.9198E+06     30.4769E+06    -42.1258E+06     9.85525E+06    -15.4646E+06     52.8802E+06    -27.8941E+06         41.6796
            2097     4.37844E-03     151.023E-03         2.66257        -2.00555        -2.47674        -1.97732         2.63434        -2.47674     346.437E-03     284.867E-03    -139.160E-03    -145.707E-03    -135.146E-03     274.306E-03    -139.160E-03    -125.857E-03     65.4397E+06     30.5515E+06    -46.9100E+06     5.33518E+06    -18.5803E+06     62.3264E+06    -31.5808E+06         42.7323
            2098     5.22900E-03     151.220E-03         2.53776        -1.71962        -2.36983        -1.68956         2.50770        -2.36983     417.000E-03     293.133E-03    -143.167E-03    -149.966E-03    -134.325E-03     279.048E-03    -144.723E-03    -144.216E-03     72.9151E+06     31.2512E+06    -50.2362E+06     1.08081E+06    -19.0406E+06     71.8900E+06    -35.1193E+06         43.7938
            2099     6.06223E-03     151.470E-03         2.38122        -1.42066        -2.24156        -1.38741         2.34798        -2.24156     510.366E-03     298.863E-03    -143.653E-03    -155.210E-03    -131.565E-03     282.021E-03    -150.457E-03    -155.374E-03     80.7327E+06     28.9066E+06    -54.0388E+06    -3.42861E+06    -21.7036E+06     80.7327E+06    -37.1669E+06         44.7800
            2100     6.88900E-03     151.758E-03         2.17931        -1.10367        -2.09251        -1.07357         2.14921        -2.09251     566.322E-03     300.986E-03    -141.491E-03    -159.496E-03    -126.299E-03     282.256E-03    -155.957E-03    -159.359E-03     88.5827E+06     27.4666E+06    -54.0228E+06    -9.26815E+06    -17.2881E+06     88.5827E+06    -38.2543E+06         45.6234
            2101     7.71155E-03     152.084E-03         1.96718    -813.369E-03        -1.92436    -778.461E-03         1.93227        -1.92436     586.861E-03     300.079E-03    -137.497E-03    -162.582E-03    -120.040E-03     280.907E-03    -160.867E-03    -155.657E-03     93.9307E+06     22.8453E+06    -53.2905E+06    -15.8265E+06    -14.6187E+06     93.9307E+06    -36.7573E+06         46.2809
            2102     8.52658E-03     152.442E-03         1.74368    -552.500E-03        -1.74101    -512.886E-03         1.70407        -1.74101     586.307E-03     295.540E-03    -130.111E-03    -165.429E-03    -112.937E-03     277.806E-03    -164.869E-03    -142.181E-03     98.0031E+06     15.3360E+06     -54.384E+06    -19.7522E+06    -19.2958E+06     98.0031E+06    -32.9763E+06         46.7403
            2103     9.35147E-03     152.818E-03         1.51792    -333.761E-03        -1.54781    -285.566E-03         1.46973        -1.54781     533.104E-03     287.197E-03    -119.638E-03    -167.558E-03    -104.550E-03     272.109E-03    -167.558E-03    -121.453E-03     107.083E+06     15.4104E+06    -52.4060E+06    -20.1865E+06    -16.8090E+06     107.083E+06    -32.3658E+06         47.0520
            2104     10.1868E-03     153.196E-03         1.30786    -170.669E-03        -1.35188    -114.097E-03         1.25129        -1.35188     471.490E-03     279.170E-03    -110.400E-03    -168.770E-03    -98.8355E-03     267.606E-03    -168.770E-03    -94.7963E-03     115.172E+06     13.7008E+06    -51.8381E+06    -21.5369E+06    -16.6003E+06     115.172E+06    -32.1143E+06         47.3567
            2105     11.0336E-03     153.573E-03         1.10544    -49.6516E-03        -1.16087     4.07267E-03         1.05172        -1.16087     354.777E-03     272.466E-03    -103.851E-03    -168.616E-03    -95.3664E-03     263.982E-03    -168.616E-03    -62.1823E-03     118.682E+06     11.1198E+06    -54.2419E+06    -24.8045E+06    -18.3176E+06     118.682E+06    -31.7747E+06         47.8969
            2106     11.9053E-03     153.933E-03     942.995E-03     4.84871E-03    -982.800E-03     52.9662E-03     894.878E-03    -982.800E-03     268.178E-03     269.750E-03    -101.636E-03    -168.114E-03    -95.7899E-03     263.168E-03    -167.378E-03    -27.5271E-03     122.657E+06     9.70315E+06    -54.4305E+06    -26.9101E+06    -17.8172E+06     122.657E+06    -29.3358E+06         49.0947
            2107     12.7814E-03     154.271E-03     782.063E-03     46.8669E-03    -824.215E-03     72.6652E-03     756.265E-03    -824.215E-03     137.085E-03     276.770E-03    -104.281E-03    -172.489E-03    -104.812E-03     270.473E-03    -165.661E-03     5.61134E-03     135.199E+06     22.8148E+06    -44.4261E+06    -26.7971E+06     5.18585E+06     135.199E+06    -24.7034E+06         51.7604
            2108     13.6645E-03     154.571E-03     674.088E-03     40.0803E-03    -691.268E-03     50.5228E-03     663.646E-03    -691.268E-03     55.7174E-03     293.260E-03    -111.887E-03    -181.373E-03    -122.870E-03     287.039E-03    -164.169E-03     28.7531E-03     135.328E+06     13.1783E+06    -40.0934E+06    -19.1725E+06    -7.74256E+06     135.328E+06    -11.9014E+06         57.6993
            2109     14.5127E-03     154.797E-03     590.590E-03     18.9481E-03    -592.591E-03     23.7600E-03     585.778E-03    -592.591E-03    -31.0138E-03     311.364E-03    -124.558E-03    -186.806E-03    -144.581E-03     307.850E-03    -163.269E-03     29.7651E-03     128.435E+06     25.2622E+06    -28.3388E+06    -3.18025E+06     103.709E+03     128.435E+06     502.625E+03         69.4942


