********************************************************************************
Field Output Report, written Tue May  6 14:28:09 2025

Source 1
---------

   ODB: D:/AISI_1020/Vel_40/aisi_1020_2a_40_red_500_cal_10_vel_40_fric_025.odb
   Step: Step-1
   Frame: Increment   1715858: Step Time =   0.2259

Loc 1 : Nodal values from source 1

Output sorted by column "Node Label".

Field Output reported at nodes for region: DIE_2A_40_D0_36-1.Region_1
   Computation algorithm: EXTRAPOLATE_COMPUTE_AVERAGE
   Averaged at nodes
   Averaging regions: ODB_REGIONS

      Node Label     COORD.COOR1     COORD.COOR2
                          @Loc 1          @Loc 1
-------------------------------------------------
               1     22.9485E-03     121.791E-03


Field Output reported at nodes for region: DIE_2A_40_D0_36-1.Region_2
   Computation algorithm: EXTRAPOLATE_COMPUTE_AVERAGE
   Averaged at nodes
   Averaging regions: ODB_REGIONS

      Node Label     COORD.COOR1     COORD.COOR2
                          @Loc 1          @Loc 1
-------------------------------------------------
               1     22.9485E-03     121.791E-03


Field Output reported at nodes for part: WIRE_1-1
   Computation algorithm: EXTRAPOLATE_COMPUTE_AVERAGE
   Averaged at nodes
   Averaging regions: ODB_REGIONS

      Node Label     COORD.COOR1     COORD.COOR2    ER.Max. Prin    ER.Mid. Prin    ER.Min. Prin         ER.ER11         ER.ER22         ER.ER33         ER.ER12    PE.Max. Prin    PE.Mid. Prin    PE.Min. Prin         PE.PE11         PE.PE22         PE.PE33         PE.PE12     S.Max. Prin     S.Mid. Prin     S.Min. Prin           S.S11           S.S22           S.S33           S.S12            TEMP
                          @Loc 1          @Loc 1          @Loc 1          @Loc 1          @Loc 1          @Loc 1          @Loc 1          @Loc 1          @Loc 1          @Loc 1          @Loc 1          @Loc 1          @Loc 1          @Loc 1          @Loc 1          @Loc 1          @Loc 1          @Loc 1          @Loc 1          @Loc 1          @Loc 1          @Loc 1          @Loc 1          @Loc 1
-----------------------------------------------------------------------------------------------------------------------------------------------------------------------------------------------------------------------------------------------------------------------------------------------------------------------------------------------------------------------------------------------------------------
               1     16.9732E-03     62.9737E-03         7.76851        -1.21908        -2.62308        -2.60920         7.75463        -1.21908     758.661E-03     168.364E-03    -59.9352E-03    -108.429E-03    -58.6292E-03     118.564E-03    -59.9352E-03     212.564E-03     148.110E+06     131.065E+06    -2.71420E+06    -2.69443E+06     148.090E+06     131.065E+06    -1.66017E+06         72.1882
               2    -1.53967E-06     61.8131E-03         10.4091         3.01336        -9.54159        -3.75498         4.62246         3.01336        -18.1035     119.177E-03    -59.1654E-03    -60.0118E-03    -59.7049E-03     119.174E-03    -59.4691E-03     609.974E-06    -71.3881E+06    -79.4190E+06    -255.155E+06    -75.1368E+06    -255.146E+06    -75.6794E+06     983.281E+03         29.6493
               3     40.0540E-09              0.         8.21212         6.49171        -16.6890         8.01237        -16.4893         6.49171        -4.44249     265.806E-03    -132.516E-03    -133.290E-03    -133.287E-03     265.803E-03    -132.516E-03     2.20316E-03    -57.7995E+06    -59.6791E+06    -239.278E+06    -57.8009E+06    -239.276E+06    -59.6791E+06     507.949E+03         38.9257
               4     16.5711E-03              0.         5.30837         2.04717        -10.3398         2.03770        -10.3303         5.30837    -684.617E-03     327.885E-03    -77.9051E-03    -249.980E-03    -205.505E-03     283.411E-03    -77.9051E-03     308.040E-03     155.424E+06     151.570E+06     30.3537E+06     31.2748E+06     150.649E+06     155.424E+06     10.5261E+06         52.3433
               5     16.1860E-03     125.778E-03         1.25932     588.195E-03        -3.12001     689.595E-03         1.15792        -3.12001    -480.708E-03     46.7979E-03     43.3888E-03    -90.1867E-03     43.7624E-03     46.4244E-03    -90.1867E-03     2.12972E-03    -2.12664E+06    -29.9851E+06    -128.317E+06    -15.0213E+06    -17.0904E+06    -128.317E+06    -13.8907E+06         34.0866
               6     3.47194E-06     122.167E-03         2.37203        -3.17559        -3.22821        -3.17558         2.37202        -3.22821    -8.58160E-03     54.6306E-03    -26.0766E-03    -28.5540E-03    -28.5166E-03     54.5932E-03    -26.0766E-03    -3.52673E-03     66.5378E+06     58.3170E+06    -1.70831E+06     57.4206E+06    -811.845E+03     66.5378E+06    -7.28059E+06         23.4719
               7     16.0250E-03     62.7208E-03         7.59526        -1.17036        -2.50348        -2.49645         7.58824        -1.17036     411.933E-03     205.936E-03    -59.9740E-03    -145.962E-03    -65.7313E-03     125.705E-03    -59.9740E-03     293.373E-03     141.674E+06     124.864E+06    -8.55836E+06    -8.46614E+06     141.582E+06     124.864E+06    -970.166E+03         69.6413
               8     15.0819E-03     62.2770E-03         7.28920        -1.07501        -2.30241        -2.28518         7.27197        -1.07501     597.823E-03     204.388E-03    -59.9323E-03    -144.455E-03    -68.4375E-03     128.370E-03    -59.9323E-03     284.495E-03     125.842E+06     104.551E+06    -17.2986E+06    -17.1994E+06     125.742E+06     104.551E+06    -844.509E+03         63.3610
               9     14.1371E-03     62.0654E-03         7.01989    -987.805E-03        -2.13085        -2.09036         6.97939    -987.805E-03         1.20833     145.435E-03    -59.7342E-03    -85.7011E-03    -60.9156E-03     120.650E-03    -59.7342E-03     136.170E-03     111.947E+06     71.1887E+06    -23.2798E+06    -23.2539E+06     111.921E+06     71.1887E+06    -546.667E+03         55.7118
              10     13.1985E-03     61.9787E-03         6.75949    -910.113E-03        -1.95786        -1.89890         6.70054    -910.113E-03         1.41773     123.560E-03    -59.5207E-03    -64.0396E-03    -57.9285E-03     117.449E-03    -59.5207E-03     65.5933E-03     105.350E+06     33.8724E+06    -27.3662E+06    -27.3470E+06     105.330E+06     33.8724E+06     743.024E+03         48.4775
              11     12.2544E-03     61.9200E-03         6.50596    -838.005E-03        -1.78388        -1.71617         6.43825    -838.005E-03         1.49092     120.161E-03    -59.3090E-03    -60.8521E-03    -58.1074E-03     117.462E-03    -59.3546E-03     42.4084E-03     98.6475E+06     618.770E+03    -29.7934E+06    -29.7616E+06     98.6158E+06     618.770E+03     1.74473E+06         42.7357
              12     11.3083E-03     61.8866E-03         6.22268    -770.245E-03        -1.57453        -1.53943         6.18758    -770.245E-03     926.791E-03     118.648E-03    -59.0475E-03    -59.6006E-03    -58.3198E-03     117.712E-03    -59.3923E-03     24.9590E-03     49.5443E+06    -8.49826E+06    -32.9854E+06    -32.8839E+06     49.4428E+06    -8.49826E+06     2.41419E+06         38.6889
              13     10.3673E-03     61.8655E-03         5.95940    -706.722E-03        -1.37821        -1.37093         5.95211    -706.722E-03     454.986E-03     118.388E-03    -58.8106E-03    -59.5778E-03    -58.3461E-03     117.879E-03    -59.5330E-03     18.9438E-03    -4.27843E+06    -19.2208E+06    -40.5590E+06    -35.5613E+06    -20.4834E+06    -8.01355E+06     467.664E+03         36.0016
              14     9.42352E-03     61.8483E-03         5.75467    -647.016E-03        -1.23596        -1.21679         5.73550    -647.016E-03    -205.320E-03     118.546E-03    -58.9215E-03    -59.6244E-03    -58.5369E-03     118.161E-03    -59.6244E-03     16.2295E-03    -15.7204E+06    -38.1447E+06    -70.7663E+06    -38.4382E+06    -70.4729E+06    -15.7204E+06    -240.409E+03         34.2206
              15     8.48041E-03     61.8331E-03         5.55134    -591.114E-03        -1.09191        -1.07061         5.53004    -591.114E-03    -736.867E-03     118.876E-03    -59.1248E-03    -59.7510E-03    -58.9565E-03     118.707E-03    -59.7510E-03     10.5737E-03    -14.0744E+06    -39.1280E+06    -114.016E+06    -39.3047E+06    -113.839E+06    -14.0744E+06     2.61506E+06         32.9913
              16     7.53784E-03     61.8265E-03         5.34431    -539.401E-03    -941.227E-03    -932.245E-03         5.33533    -539.401E-03    -463.822E-03     119.022E-03    -59.1666E-03    -59.8553E-03    -59.0908E-03     118.946E-03    -59.8553E-03     7.31259E-03    -13.1363E+06    -39.9585E+06    -147.934E+06    -40.1700E+06    -147.722E+06    -13.1363E+06     3.00151E+06         32.0956
              17     6.59527E-03     61.8187E-03         5.35972    -491.861E-03        -1.00856    -808.509E-03         5.15967    -491.861E-03        -1.74484     119.401E-03    -59.4726E-03    -59.9283E-03    -59.4323E-03     119.361E-03    -59.9283E-03     5.07297E-03    -18.7881E+06    -46.1570E+06    -183.741E+06    -46.2355E+06    -183.663E+06    -18.7881E+06     1.14778E+06         31.4149
              18     5.65289E-03     61.8161E-03         5.24335    -449.131E-03    -935.595E-03    -687.666E-03         4.99543    -449.131E-03        -2.32132     119.588E-03    -59.6267E-03    -59.9611E-03    -59.6150E-03     119.576E-03    -59.9611E-03     2.83473E-03    -25.7088E+06    -53.3119E+06    -209.263E+06    -53.3268E+06    -209.248E+06    -25.7088E+06     569.997E+03         30.8867
              19     4.71074E-03     61.8131E-03         5.30103    -410.494E-03        -1.03083    -596.868E-03         4.86707    -410.494E-03        -2.92655     119.562E-03    -59.5958E-03    -59.9660E-03    -59.5935E-03     119.557E-03    -59.9631E-03     1.78955E-03    -35.1071E+06    -57.7547E+06    -224.041E+06    -57.7636E+06    -224.032E+06    -35.1071E+06     840.690E+03         30.4760
              20     3.76858E-03     61.8131E-03         5.17190    -375.623E-03    -932.363E-03    -505.097E-03         4.74464    -375.623E-03        -1.50287     119.749E-03    -59.7704E-03    -59.9783E-03    -59.7906E-03     119.747E-03    -59.9562E-03     901.385E-06    -44.8206E+06    -61.2721E+06    -237.401E+06    -61.2764E+06    -237.397E+06    -44.8206E+06     199.725E+03         30.1624
              21     2.82560E-03     61.8130E-03         5.57550    -345.083E-03        -1.35319    -431.214E-03         4.65352    -345.083E-03        -2.78964     119.821E-03    -59.8534E-03    -59.9674E-03    -59.9052E-03     119.820E-03    -59.9148E-03     242.000E-06    -53.9898E+06    -65.5517E+06    -245.728E+06    -65.5592E+06    -245.720E+06    -53.9898E+06    -117.615E+03         29.9322
              22     1.88516E-03     61.8135E-03         6.58159    -329.639E-03        -2.38301    -334.055E-03         4.53264    -329.639E-03     591.281E-03     119.777E-03    -59.8059E-03    -59.9714E-03    -59.9487E-03     119.777E-03    -59.8279E-03    -172.450E-06    -61.4682E+06    -69.7888E+06    -250.990E+06    -69.7969E+06    -250.981E+06    -61.4682E+06     324.590E+03         29.7746
              23     942.547E-06     61.8136E-03         8.58789         1.34241        -6.06437        -2.00036         4.52387         1.34241        -5.00038     119.469E-03    -59.4676E-03    -60.0010E-03    -59.8469E-03     119.466E-03    -59.6195E-03     165.799E-06    -67.7892E+06    -75.5873E+06    -253.221E+06    -73.4484E+06    -253.215E+06    -69.9349E+06     648.206E+03         29.6811
              24     1.00677E-06     60.6885E-03         9.14462         2.40439        -7.58407        -3.18273         4.74329         2.40439        -14.7097     119.519E-03    -59.1600E-03    -60.3589E-03    -60.0547E-03     119.518E-03    -59.4637E-03    -610.338E-06    -67.0642E+06    -72.7681E+06    -249.943E+06    -70.8781E+06    -249.868E+06    -69.0285E+06    -2.49991E+06         29.6569
              25     647.997E-09     59.5632E-03         7.40352         1.81167        -5.18238        -2.66227         4.88342         1.81167        -9.96131     120.064E-03    -59.4005E-03    -60.6630E-03    -60.2956E-03     120.063E-03    -59.7678E-03    -131.454E-06    -69.5087E+06    -71.7782E+06    -249.725E+06    -69.9060E+06    -249.633E+06    -71.4731E+06    -1.31234E+06         29.6595
              26    -1.34350E-06     58.4335E-03         5.82303         1.23954        -2.95854        -2.17830         5.04278         1.23954        -4.30075     120.208E-03    -59.7453E-03    -60.4625E-03    -60.0936E-03     120.206E-03    -60.1125E-03     865.092E-06    -70.8263E+06    -71.4105E+06    -248.588E+06    -71.2041E+06    -248.516E+06    -71.1053E+06     3.45631E+06         29.6593
              27     1.98796E-06     57.3070E-03         5.56582     718.672E-03        -2.13464        -1.75233         5.18351     718.672E-03         1.65337     119.818E-03    -59.5783E-03    -60.2401E-03    -60.2352E-03     119.813E-03    -59.5783E-03     1.85205E-03    -70.4729E+06    -71.7354E+06    -247.053E+06    -71.5145E+06    -246.995E+06    -70.7520E+06     1.64358E+06         29.6583
              28    -1.40261E-06     56.1805E-03         6.97886     212.281E-03        -3.02272        -1.38035         5.33649     212.281E-03         7.17465     119.017E-03    -59.1412E-03    -59.8758E-03    -59.8725E-03     119.014E-03    -59.1412E-03     899.780E-06    -68.9415E+06    -70.7934E+06    -247.974E+06    -69.9421E+06    -247.957E+06      -69.81E+06    -1.65970E+06         29.6583
              29     2.17955E-06     55.0603E-03         9.08567    -353.035E-03        -4.54712        -1.03547         5.57402    -353.035E-03         11.8763     119.219E-03    -59.1378E-03    -60.0815E-03    -60.0811E-03     119.219E-03    -59.1378E-03    -522.234E-06    -68.9241E+06    -71.8476E+06    -247.785E+06    -68.9883E+06    -247.720E+06    -71.8476E+06     1.00105E+06         29.6599
              30    -1.23265E-06     53.9311E-03         11.0048    -947.322E-03        -5.86078    -713.359E-03         5.85740    -947.322E-03         15.5208     119.238E-03    -59.2034E-03    -60.0347E-03    -59.7238E-03     119.238E-03    -59.5139E-03    -239.325E-06    -67.9042E+06    -74.1220E+06    -246.727E+06    -72.1214E+06    -246.672E+06    -69.9592E+06     1.53030E+06         29.6616
              31     692.473E-09     52.8054E-03         12.3838        -1.55516        -6.62182    -385.388E-03         6.14737        -1.55516         17.8452     119.595E-03    -59.2970E-03    -60.2983E-03    -59.9859E-03     119.593E-03    -59.6075E-03     914.139E-06    -67.4735E+06    -74.0770E+06    -243.238E+06    -71.6471E+06    -243.227E+06    -69.9141E+06    -1.34142E+06         29.6633
              32     566.213E-09     51.6804E-03         13.2099        -2.24638        -6.75501    -27.4958E-03         6.48238        -2.24638         18.8736     119.946E-03    -59.5857E-03    -60.3608E-03    -60.3590E-03     119.945E-03    -59.5857E-03     795.255E-06    -71.6989E+06    -74.8849E+06    -245.107E+06    -72.4857E+06    -245.065E+06    -74.1395E+06     978.392E+03         29.6657
              33    -404.232E-09     50.5506E-03         13.5876        -3.03940        -6.35704     315.649E-03         6.91495        -3.03940         18.8204     118.979E-03    -59.3146E-03    -59.6644E-03    -59.6641E-03     118.979E-03    -59.3146E-03     301.629E-06    -68.2076E+06    -70.0601E+06    -244.158E+06    -70.1725E+06    -244.046E+06    -68.2076E+06    -872.769E+03         29.6676
              34     910.837E-09     49.4324E-03         13.6293        -3.92207        -5.54740     676.148E-03         7.40574        -3.92207         17.9555     119.344E-03    -59.2729E-03    -60.0714E-03    -60.0711E-03     119.344E-03    -59.2729E-03     156.119E-06    -70.5558E+06    -74.2468E+06    -248.513E+06    -71.7677E+06    -248.408E+06    -73.1398E+06    -1.05119E+06         29.6680
              35     52.7719E-09     48.2997E-03         13.5286        -4.16372        -5.24378         1.04067         7.98526        -4.90482         16.6342     120.260E-03    -59.7461E-03    -60.5137E-03    -60.2750E-03     120.256E-03    -59.9807E-03     1.06327E-03    -69.8871E+06    -74.4151E+06    -248.671E+06    -71.8586E+06    -248.643E+06    -72.4711E+06     1.74492E+06         29.6664
              36    -486.755E-09     47.1748E-03         13.5525        -3.49878        -5.97039         1.34818         8.70553        -5.97039         15.3761     119.495E-03    -59.4985E-03    -59.9969E-03    -59.7582E-03     119.491E-03    -59.7331E-03     1.16435E-03    -61.8324E+06    -65.5851E+06    -239.593E+06    -63.8057E+06    -239.563E+06    -63.6411E+06    -1.40990E+06         29.6629
              37     954.096E-09     46.0491E-03         13.7413        -2.68568        -7.04390         1.61918         9.43649        -7.04390         14.4423     118.196E-03    -58.5803E-03    -59.6157E-03    -59.6156E-03     118.196E-03    -58.5803E-03     118.321E-06    -71.3355E+06    -73.6892E+06    -244.580E+06    -71.9379E+06    -244.523E+06    -73.1442E+06    -52.0766E+03         29.6597
              38     499.395E-09     44.9285E-03         14.1798        -2.11345        -8.12918         1.88336         10.1830        -8.12918         14.0190     118.052E-03    -58.5409E-03    -59.5113E-03    -59.5099E-03     118.051E-03    -58.5409E-03    -525.759E-06    -71.9598E+06    -73.9851E+06    -246.638E+06    -74.0140E+06    -246.610E+06    -71.9598E+06     1.33109E+06         29.6591
              39    -117.699E-09     43.8024E-03         14.9702        -1.91234        -9.24011         2.08389         10.9740        -9.24011         14.3519     119.106E-03    -59.2741E-03    -59.8322E-03    -59.4696E-03     119.103E-03    -59.6333E-03     164.273E-06    -66.1626E+06    -69.6818E+06    -244.360E+06    -67.6571E+06    -244.346E+06    -68.2015E+06    -1.31303E+06         29.6618
              40    -597.280E-09     42.6748E-03         16.0029        -2.08236        -10.2185         2.15270         11.7678        -10.2185         15.3175     120.097E-03    -59.6975E-03    -60.3996E-03    -60.0383E-03     120.095E-03    -60.0566E-03     690.057E-06    -72.8079E+06    -75.1097E+06    -245.852E+06    -73.0918E+06    -245.831E+06    -74.8468E+06    -309.606E+03         29.6675
              41     1.23819E-06     41.5484E-03         17.0673        -2.47310        -10.9900         2.11445         12.4798        -10.9900         16.5647     119.623E-03    -59.3648E-03    -60.2584E-03    -60.2548E-03     119.620E-03    -59.3648E-03     958.137E-06    -72.2237E+06    -72.7055E+06    -245.595E+06    -72.7136E+06    -245.587E+06    -72.2237E+06     1.03839E+06         29.6747
              42    -213.795E-09     40.4211E-03         18.0722        -2.96940        -11.6090         2.00102         13.1018        -11.6090         17.8752     118.593E-03    -58.9129E-03    -59.6804E-03    -59.6768E-03     118.590E-03    -58.9129E-03     1.16165E-03    -70.2721E+06    -71.2296E+06    -246.246E+06    -70.5081E+06    -246.229E+06    -71.0107E+06     1.44636E+06         29.6829
              43     603.988E-09     39.3012E-03         18.9601        -3.55488        -12.0710         1.75726         13.6479        -12.0710         19.1189     118.903E-03    -59.2841E-03    -59.6185E-03    -59.6184E-03     118.903E-03    -59.2841E-03     131.876E-06    -68.7239E+06    -70.8475E+06    -245.820E+06    -70.1315E+06    -245.797E+06    -69.4625E+06     455.233E+03         29.6921
              44    -372.755E-09     38.1727E-03         19.5238        -4.03168        -12.3449         1.36588         14.1262        -12.3449         19.7973     119.955E-03    -59.7618E-03    -60.1936E-03    -59.8786E-03     119.955E-03    -60.0760E-03     600.817E-06    -69.1332E+06    -71.0460E+06    -245.891E+06    -70.6490E+06    -245.760E+06    -69.6609E+06    -4.02868E+06         29.7006
              45    -234.675E-09     37.0454E-03         19.6442        -4.25412        -12.4146     889.010E-03         14.5011        -12.4146         19.6369     119.849E-03    -59.5822E-03    -60.2673E-03    -59.9523E-03     119.849E-03    -59.8965E-03     694.683E-06    -67.7837E+06    -72.3816E+06    -246.169E+06    -67.9160E+06    -246.036E+06    -72.3816E+06    -2.45187E+06         29.7078
              46     872.862E-09     35.9195E-03         19.3417        -4.24853        -12.2877     361.682E-03         14.7315        -12.2877         18.6957     118.794E-03    -58.9935E-03    -59.8001E-03    -59.8000E-03     118.793E-03    -58.9935E-03     96.4329E-06    -67.1320E+06    -73.9726E+06    -248.169E+06    -69.9379E+06    -248.133E+06    -71.2022E+06     2.38899E+06         29.7150
              47    -24.8270E-09     34.7983E-03         18.6562        -4.03255        -12.0065    -224.063E-03         14.8477        -12.0065         16.9308     119.073E-03    -58.9793E-03    -60.0936E-03    -60.0934E-03     119.073E-03    -58.9793E-03    -371.383E-06    -71.5143E+06    -76.0663E+06    -251.226E+06    -76.0984E+06    -251.193E+06    -71.5143E+06     934.189E+03         29.7228
              48     1.31620E-06     33.6695E-03         17.7167        -3.65403        -11.6341    -848.751E-03         14.9114        -11.6341         14.3735     120.425E-03    -59.8123E-03    -60.6130E-03    -60.4889E-03     120.423E-03    -59.9346E-03     502.178E-06    -68.7869E+06    -73.0074E+06    -249.856E+06    -70.6190E+06    -249.806E+06    -71.2259E+06    -2.66640E+06         29.7290
              49    -1.59030E-06     32.5420E-03         16.6568        -3.28773        -11.1461        -1.48047         14.8496        -11.1461         11.3649     120.462E-03    -60.1295E-03    -60.3327E-03    -60.2088E-03     120.461E-03    -60.2517E-03     676.577E-06    -70.6380E+06    -73.7873E+06    -253.089E+06    -70.7224E+06    -253.004E+06    -73.7873E+06    -177.780E+03         29.7318
              50     1.72516E-06     31.4142E-03         15.6322        -3.09439        -10.5088        -2.10665         14.6445        -10.5088         8.23446     119.156E-03    -59.0578E-03    -60.0985E-03    -60.0973E-03     119.155E-03    -59.0578E-03     553.244E-06    -71.5064E+06    -75.0275E+06    -252.601E+06    -74.3654E+06    -252.553E+06    -72.2167E+06     2.80264E+06         29.7318
              51     107.759E-09     30.2916E-03         14.7285        -3.07402        -9.81380        -2.66308         14.3176        -9.81380         5.14720     118.864E-03    -58.7390E-03    -60.1248E-03    -59.6971E-03     118.862E-03    -59.1650E-03     1.06396E-03    -66.4810E+06    -71.3469E+06    -248.258E+06    -69.3234E+06    -248.227E+06    -68.5361E+06    -482.926E+03         29.7298
              52    -946.179E-09     29.1667E-03         13.9231        -3.21279        -9.08566        -3.10289         13.8132        -9.08566         2.49357     119.676E-03    -59.5520E-03    -60.1238E-03    -59.6951E-03     119.673E-03    -59.9779E-03    -490.956E-06    -73.0241E+06    -77.3099E+06    -255.313E+06    -73.0504E+06    -255.286E+06    -77.3099E+06    -2.05820E+06         29.7257
              53     1.17717E-06     28.0394E-03         13.1358        -3.43832        -8.27822        -3.42496         13.1224        -8.27822     648.248E-03     119.506E-03    -59.6545E-03    -59.8513E-03    -59.8488E-03     119.503E-03    -59.6545E-03    -628.187E-06    -73.0293E+06    -76.9258E+06    -254.024E+06    -74.7144E+06    -254.005E+06    -75.2599E+06     497.998E+03         29.7194
              54    -1.07046E-06     26.9141E-03         12.3305        -3.64563        -7.46357        -3.64335         12.3282        -7.46357    -289.216E-03     119.182E-03    -59.3027E-03    -59.8789E-03    -59.8775E-03     119.180E-03    -59.3027E-03     928.476E-06    -67.3497E+06    -69.1511E+06    -249.357E+06    -69.1664E+06    -249.342E+06    -67.3497E+06     894.007E+03         29.7101
              55     2.04887E-06     25.7855E-03         11.4537        -3.78605        -6.65298        -3.78369         11.4514        -6.65298    -315.547E-03     118.965E-03    -59.0964E-03    -59.8685E-03    -59.8658E-03     118.962E-03    -59.0964E-03     1.40156E-03    -71.4744E+06    -72.0123E+06    -253.519E+06    -71.6145E+06    -253.515E+06    -71.8767E+06     352.326E+03         29.6968
              56    -1.60305E-06     24.6647E-03         10.3811        -3.80253        -5.77914        -3.79137         10.3700        -5.77914     499.029E-03     118.868E-03    -59.0381E-03    -59.8297E-03    -59.8267E-03     118.865E-03    -59.0381E-03     38.0991E-06    -69.3219E+06    -71.3084E+06    -249.647E+06    -70.9278E+06    -249.625E+06    -69.7242E+06    -650.646E+03         29.6771
              57     2.63563E-06     23.5392E-03         9.22379        -3.73435        -4.89162        -3.64431         9.13375        -4.89162         1.93555     118.517E-03    -58.8874E-03    -59.6296E-03    -59.6264E-03     118.514E-03    -58.8874E-03    -1.49714E-03    -69.3690E+06    -73.5346E+06    -250.652E+06    -71.0062E+06    -250.599E+06    -71.9504E+06    -3.04960E+06         29.6476
              58    -2.31208E-06     22.4147E-03         8.14999        -3.64301        -4.11032        -3.39796         7.81710        -4.02248         3.74056     117.775E-03    -58.3232E-03    -59.4514E-03    -58.5166E-03     117.771E-03    -59.2539E-03     109.187E-06    -74.0387E+06    -77.8780E+06    -256.325E+06    -74.1716E+06    -256.192E+06    -77.8780E+06     1.17075E+06         29.6003
              59     524.373E-09     21.2887E-03         7.22084        -3.14526        -3.88512        -3.05910         6.39482        -3.14526         5.67738     118.064E-03    -58.0649E-03    -59.9995E-03    -59.0658E-03     118.062E-03    -58.9957E-03     1.36878E-03    -68.6337E+06    -72.2225E+06    -252.265E+06    -71.0633E+06    -252.166E+06    -69.8916E+06     2.68206E+06         29.5224
              60     1.38593E-06     20.1627E-03         6.44392        -2.28376        -4.16551        -2.62216         4.90057        -2.28376         7.38132     116.645E-03    -57.4233E-03    -59.2218E-03    -59.2211E-03     116.644E-03    -57.4233E-03     497.423E-06    -65.6065E+06    -69.1216E+06    -249.510E+06    -67.9598E+06    -249.488E+06    -66.7907E+06     1.10718E+06         29.3997
              61     85.1219E-09     19.0476E-03         5.71678        -1.44650        -4.44691        -2.11692         3.38679        -1.44650         8.47863     114.126E-03    -56.4398E-03    -57.6867E-03    -57.2343E-03     114.126E-03    -56.8921E-03    -161.957E-06    -72.8847E+06    -75.2758E+06    -252.828E+06    -74.1464E+06    -252.773E+06    -74.0689E+06    -316.826E+03         29.2182
              62    -938.735E-09     17.9241E-03         4.93034    -646.630E-03        -4.63105        -1.53090         1.83020    -646.630E-03         8.88803     112.460E-03    -55.9037E-03    -56.5558E-03    -56.1031E-03     112.459E-03    -56.3560E-03    -521.122E-06    -67.7574E+06    -71.4250E+06    -246.582E+06    -69.0175E+06    -246.529E+06    -70.2181E+06    -380.542E+03         28.9632
              63     1.27120E-06     16.8094E-03         4.07080     115.970E-03        -4.70411    -848.641E-03     215.324E-03     115.970E-03         8.63572     108.749E-03    -53.9158E-03    -54.8332E-03    -54.8203E-03     108.736E-03    -53.9158E-03    -2.34081E-03    -68.4234E+06    -72.7927E+06    -246.764E+06    -70.3545E+06    -246.741E+06    -70.8841E+06     1.81089E+06         28.6247
              64     75.3574E-09     15.7006E-03         3.21113     874.210E-03        -4.76719    -117.402E-03        -1.43866     874.210E-03         7.76233     103.511E-03    -51.1454E-03    -52.3660E-03    -51.8487E-03     103.497E-03    -51.6483E-03    -2.75153E-03    -72.5936E+06    -74.6566E+06    -249.225E+06    -74.6970E+06    -249.184E+06    -72.5936E+06    -1.34100E+06         28.2033
              65    -1.04804E-06     14.5928E-03         2.61136         1.57862        -5.05006     677.728E-03        -3.11642         1.57862         6.49800     97.9135E-03    -48.4981E-03    -49.4154E-03    -48.8945E-03     97.8955E-03    -49.0010E-03    -2.89157E-03    -67.0847E+06    -71.4756E+06    -241.363E+06    -67.2900E+06    -241.312E+06    -71.3213E+06    -755.058E+03         27.7139
              66     1.74477E-06     13.4946E-03         2.49693         2.15476        -5.68876         1.46180        -4.73630         2.23743         5.05327     89.1307E-03    -44.2395E-03    -44.8912E-03    -44.8650E-03     89.1044E-03    -44.2395E-03    -3.73593E-03    -67.5794E+06    -77.7139E+06    -244.724E+06    -73.4946E+06    -244.707E+06    -71.8160E+06     1.66464E+06         27.1911
              67    -1.24302E-06     12.4092E-03         2.88298         2.60850        -6.67943         2.21614        -6.28707         2.88298         3.56010     78.3911E-03    -39.0465E-03    -39.3446E-03    -39.3226E-03     78.3691E-03    -39.0465E-03    -3.21223E-03    -63.3778E+06    -76.1789E+06    -241.237E+06    -69.2915E+06    -241.221E+06    -70.2810E+06     1.60484E+06         26.6940
              68     1.23805E-06     11.3324E-03         3.51272         3.14397        -7.97221         3.01999        -7.84824         3.51272         2.15850     68.9528E-03    -34.2308E-03    -34.7221E-03    -34.6965E-03     68.9273E-03    -34.2308E-03    -3.24999E-03    -60.8923E+06    -74.6014E+06    -233.235E+06    -67.7982E+06    -233.135E+06    -67.7955E+06     3.63605E+06         26.3043
              69    -352.483E-09     10.2703E-03         4.16250         3.79938        -9.38649         3.77434        -9.36145         4.16250     987.016E-03     61.2265E-03    -30.3376E-03    -30.8889E-03    -30.8496E-03     61.1871E-03    -30.3376E-03    -3.74223E-03    -51.5418E+06    -60.3873E+06    -224.217E+06    -58.4968E+06    -224.068E+06    -53.5814E+06     328.101E+03         26.1188
              70     497.151E-09     9.21020E-03         4.80075         4.45155        -10.7667         4.44587        -10.7610         4.80075    -102.837E-03     55.4846E-03    -27.6602E-03    -27.8244E-03    -27.7461E-03     55.4496E-03    -27.7035E-03    -3.32799E-03    -43.8265E+06    -45.9041E+06    -218.856E+06    -43.9164E+06    -218.766E+06    -45.9041E+06    -3.90312E+06         26.2402
              71    -614.449E-09     8.15689E-03         5.42827         5.06373        -12.0947         5.02737        -12.0583         5.42827        -1.42977     54.8034E-03    -27.2968E-03    -27.5066E-03    -27.4535E-03     54.7936E-03    -27.3401E-03    -1.50155E-03    -40.1881E+06    -43.0068E+06    -219.969E+06    -40.2598E+06    -219.897E+06    -43.0068E+06     377.797E+03         26.7620
              72     891.500E-09     7.10254E-03         6.04816         5.66208        -13.4019         5.51481        -13.2547         6.04816        -3.21630     63.4482E-03    -31.5004E-03    -31.9478E-03    -31.9442E-03     63.4446E-03    -31.5004E-03     525.714E-06    -30.9697E+06    -39.4072E+06    -217.426E+06    -36.6695E+06    -217.383E+06    -33.7502E+06     2.16303E+06         27.7476
              73    -278.732E-09     6.02904E-03         6.61285         6.34245        -14.7356         5.93240        -14.3256         6.61285        -5.69734     83.6724E-03    -41.5962E-03    -42.0762E-03    -41.8413E-03     83.6366E-03    -41.7953E-03     3.88915E-03    -39.5868E+06    -48.9486E+06    -224.571E+06    -45.2856E+06    -224.529E+06    -43.2917E+06    -1.75565E+06         29.2115
              74    -162.099E-09     4.93223E-03         7.23881         6.94931        -16.0469         6.27170        -15.1656         7.03514        -8.76996     117.958E-03    -58.8428E-03    -59.1149E-03    -58.8417E-03     117.884E-03    -59.0419E-03     7.23205E-03    -54.8412E+06    -59.7873E+06    -238.491E+06    -56.1242E+06    -238.449E+06    -58.5461E+06    -2.09653E+06         31.1057
              75     325.349E-09     3.78320E-03         8.06585         7.16929        -17.1563         6.66573        -15.7562         7.16929        -11.5247     164.204E-03    -81.9355E-03    -82.2681E-03    -82.1805E-03     164.116E-03    -81.9355E-03     9.28090E-03    -57.1793E+06    -59.6076E+06    -242.823E+06    -58.4295E+06    -242.814E+06    -58.3663E+06    -1.05521E+06         33.3094
              76     143.676E-09     2.57745E-03         8.65524         6.99385        -17.6179         7.23111        -16.1938         6.99385        -11.8612     213.578E-03    -106.468E-03    -107.111E-03    -107.041E-03     213.509E-03    -106.468E-03     9.20697E-03    -55.0387E+06    -57.9687E+06    -241.588E+06    -56.7928E+06    -241.577E+06    -56.2257E+06    -429.710E+03         35.6331
              77     537.001E-09     1.30703E-03         8.49459         6.66590        -17.1448         7.78494        -16.4352         6.66590        -7.76039     251.771E-03    -125.500E-03    -126.270E-03    -126.246E-03     251.746E-03    -125.500E-03     5.18270E-03    -56.4294E+06    -59.1122E+06    -240.930E+06    -58.1755E+06    -240.927E+06    -57.3692E+06     723.094E+03         37.8616
              78     873.242E-06              0.         7.95523         6.94032        -16.9219         7.83726        -16.8040         6.94032        -1.27342     262.711E-03    -130.391E-03    -132.320E-03    -130.761E-03     262.695E-03    -131.934E-03     4.46520E-03    -55.4458E+06    -58.7390E+06    -239.287E+06    -57.8034E+06    -239.283E+06    -56.3856E+06    -312.857E+03         38.8418
              79     1.74919E-03              0.         7.55023         7.28987        -16.8559         7.42237        -16.8337         7.39552     506.193E-03     254.422E-03    -124.456E-03    -129.965E-03    -124.398E-03     254.363E-03    -129.965E-03     9.08988E-03    -54.0945E+06    -57.0390E+06    -240.773E+06    -56.4526E+06    -240.768E+06    -54.6856E+06    -900.727E+03         38.6061
              80     2.63372E-03              0.         7.37889         7.24505        -16.6023         7.23972        -16.5970         7.37889    -199.903E-03     242.211E-03    -115.514E-03    -126.697E-03    -115.407E-03     242.103E-03    -126.697E-03     12.3408E-03    -55.2386E+06    -57.7359E+06    -243.007E+06    -55.2686E+06    -242.977E+06    -57.7359E+06    -1.98106E+06         38.2441
              81     3.52822E-03              0.         7.33158         7.14317        -16.4650         7.14163        -16.4635         7.33158     119.395E-03     227.428E-03    -104.851E-03    -122.577E-03    -104.689E-03     227.265E-03    -122.577E-03     14.5774E-03    -53.3610E+06    -57.4488E+06    -241.589E+06    -53.4012E+06    -241.549E+06    -57.4488E+06    -2.67981E+06         37.7791
              82     4.43289E-03              0.         7.27118         6.91561        -16.1881         6.91516        -16.1876         7.27118    -45.0257E-03     211.811E-03    -93.9196E-03    -117.892E-03    -93.6961E-03     211.588E-03    -117.892E-03     16.4761E-03    -51.5884E+06    -58.3911E+06    -240.936E+06    -51.6531E+06    -240.871E+06    -58.3911E+06    -3.28607E+06         37.2442
              83     5.34806E-03              0.         7.19200         6.69174        -15.9036         6.69160        -15.9035         7.19200     57.5976E-03     196.211E-03    -83.3209E-03    -112.890E-03    -83.0639E-03     195.954E-03    -112.890E-03     16.9309E-03    -47.9736E+06    -66.6404E+06    -242.397E+06    -48.2548E+06    -242.116E+06    -66.6404E+06    -7.00109E+06         36.6817
              84     6.27442E-03              0.         7.09808         6.40618        -15.5285         6.40611        -15.5284         7.09808     31.9542E-03     181.551E-03    -73.7844E-03    -107.767E-03    -73.4654E-03     181.233E-03    -107.767E-03     17.9381E-03    -40.0419E+06    -79.1058E+06    -224.588E+06    -40.5666E+06    -224.064E+06    -79.1058E+06    -9.77382E+06         36.1414
              85     7.20570E-03              0.         6.98916         6.09682        -15.1042         6.09673        -15.1041         6.98916     85.5794E-03     168.297E-03    -65.5777E-03    -102.719E-03    -65.2208E-03     167.940E-03    -102.719E-03     18.2602E-03    -31.7425E+06    -91.9161E+06    -182.195E+06    -32.4405E+06    -181.497E+06    -91.9161E+06    -10.1181E+06         35.6803
              86     8.14993E-03              0.         6.86552         5.72730        -14.6079         5.72723        -14.6078         6.86552     75.2945E-03     156.020E-03    -58.1860E-03    -97.8342E-03    -57.8079E-03     155.642E-03    -97.8342E-03     17.9400E-03    -22.1224E+06    -98.4893E+06    -139.220E+06    -23.8197E+06    -126.654E+06    -109.357E+06    -12.2847E+06         35.3715
              87     9.09356E-03              0.         6.72562         5.30385        -14.0584         5.30375        -14.0583         6.72562     88.3842E-03     145.109E-03    -51.8415E-03    -93.2679E-03    -51.4681E-03     144.736E-03    -93.2679E-03     17.1242E-03    -13.8852E+06    -63.7294E+06    -110.098E+06    -16.2894E+06    -61.3252E+06    -110.098E+06    -10.0803E+06         35.3201
              88     10.0533E-03              0.         6.56863         4.82218        -13.4517         4.82199        -13.4515         6.56863     115.380E-03     135.654E-03    -46.5630E-03    -89.0914E-03    -46.0286E-03     135.120E-03    -89.0914E-03     19.2612E-03     19.2079E+06    -19.2337E+06    -88.6288E+06    -11.4585E+06     11.4327E+06    -88.6288E+06    -5.60948E+06         35.6807
              89     10.9966E-03              0.         6.39524         4.31643        -12.8152         4.31614        -12.8149         6.39524     140.843E-03     127.268E-03    -41.9400E-03    -85.3276E-03    -41.4164E-03     126.744E-03    -85.3276E-03     18.4519E-03     68.6442E+06    -9.08385E+06    -49.2791E+06    -8.83288E+06     68.3932E+06    -49.2791E+06    -2.84500E+06         36.6556
              90     11.9818E-03              0.         6.20838         3.80892        -12.1701         3.80853        -12.1698         6.20838     157.692E-03     121.307E-03    -39.3041E-03    -82.0026E-03    -38.4996E-03     120.502E-03    -82.0026E-03     21.3808E-03     98.6262E+06     9.65858E+06    -13.9251E+06    -7.58069E+06     98.5830E+06     3.35735E+06     1.45703E+06         38.4493
              91     12.9078E-03              0.         6.01092         3.29287        -11.5211         3.29231        -11.5205         6.01092     180.213E-03     118.045E-03    -38.9588E-03    -79.0858E-03    -37.9744E-03     117.060E-03    -79.0858E-03     24.4703E-03     110.946E+06     50.7006E+06    -6.69408E+06    -6.58350E+06     110.835E+06     50.7006E+06     3.58336E+06         41.1541
              92     13.9165E-03              0.         5.80647         2.78925        -10.9171         2.78882        -10.9167         5.80647     149.896E-03     128.938E-03    -52.0428E-03    -76.8954E-03    -49.0396E-03     125.935E-03    -76.8954E-03     42.9293E-03     109.114E+06     81.0343E+06    -11.0713E+06    -10.4127E+06     108.455E+06     81.0343E+06     7.97140E+06         44.5700
              93     14.7888E-03              0.         5.59952         2.33852        -10.4296         2.33819        -10.4292         5.59952     127.176E-03     141.508E-03    -65.9249E-03    -75.5827E-03    -55.9155E-03     131.498E-03    -75.5827E-03     86.1152E-03     105.981E+06     94.1330E+06    -11.5684E+06    -10.8416E+06     105.254E+06     94.1330E+06     8.74047E+06         48.1604
              94     15.7194E-03              0.         5.40214         2.08788        -10.2796         2.08294        -10.2747         5.40214    -270.039E-03     234.928E-03    -72.3772E-03    -162.550E-03    -128.836E-03     205.349E-03    -76.5131E-03     207.410E-03     130.816E+06     125.924E+06     11.6074E+06     12.2038E+06     128.292E+06     127.850E+06     8.03537E+06         51.1290
              95     16.6643E-03     1.56048E-03         5.28576         1.94574        -9.90578         1.92620        -9.88624         5.28576    -920.382E-03     301.073E-03    -75.8349E-03    -225.238E-03    -176.369E-03     252.204E-03    -75.8349E-03     303.854E-03     138.084E+06     135.836E+06     3.51941E+06     4.20328E+06     135.474E+06     137.763E+06     1.25842E+06         52.6223
              96     16.7506E-03     2.69598E-03         5.21497         1.73671        -9.10305         1.71145        -9.07779         5.21497        -1.04310     244.842E-03    -72.1632E-03    -172.679E-03    -113.963E-03     186.126E-03    -72.1632E-03     287.680E-03     129.072E+06     127.528E+06    -15.5573E+06    -14.2277E+06     127.742E+06     127.528E+06     4.88874E+06         53.6611
              97     16.8254E-03     3.83810E-03         5.08240         1.52969        -8.40912         1.51288        -8.39231         5.08240    -812.589E-03     199.172E-03    -68.3368E-03    -130.835E-03    -85.3348E-03     153.672E-03    -68.3368E-03     223.416E-03     139.585E+06     134.881E+06    -754.397E+03     800.215E+03     138.030E+06     134.881E+06     14.3859E+06         55.2428
              98     16.8812E-03     4.96304E-03         4.87782         1.36290        -7.79998         1.35353        -7.79062         4.87782    -577.807E-03     183.291E-03    -64.4253E-03    -118.865E-03    -98.2326E-03     162.658E-03    -64.4253E-03     150.285E-03     141.025E+06     132.899E+06     164.508E+03     676.685E+03     140.513E+06     132.899E+06     7.65249E+06         56.7934
              99     16.9193E-03     6.15608E-03         4.59851         1.23286        -7.24272         1.22870        -7.23856         4.59851    -367.278E-03     190.312E-03    -61.5489E-03    -128.763E-03    -115.728E-03     177.276E-03    -61.5489E-03     125.920E-03     142.810E+06     131.662E+06    -7.32985E+06    -7.11557E+06     142.596E+06     131.662E+06     5.56037E+06         58.1776
             100     16.9446E-03     7.39499E-03         4.24620         1.13440        -6.69726         1.13284        -6.69570         4.24620    -215.208E-03     194.763E-03    -59.8657E-03    -134.897E-03    -119.896E-03     179.762E-03    -59.8657E-03     136.341E-03     145.190E+06     134.191E+06    -5.43469E+06    -5.08250E+06     144.838E+06     134.191E+06     7.24877E+06         59.4403
             101     16.9629E-03     8.60599E-03         3.82950         1.07335        -6.16654         1.07279        -6.16598         3.82950    -124.832E-03     191.349E-03    -59.1118E-03    -132.237E-03    -113.065E-03     172.176E-03    -59.1118E-03     152.742E-03     148.201E+06     138.338E+06     232.582E+03     434.999E+03     147.999E+06     138.338E+06     3.62814E+06         60.6383
             102     16.9655E-03     9.78078E-03         3.35660         1.03014        -5.63020         1.02991        -5.62997         3.35660    -77.4900E-03     185.088E-03    -58.6824E-03    -126.406E-03    -110.422E-03     169.104E-03    -58.6824E-03     136.525E-03     146.297E+06     136.836E+06    -1.65997E+06    -1.61457E+06     146.252E+06     136.836E+06    -2.03424E+06         61.8076
             103     16.9738E-03     10.9401E-03         2.83600     979.057E-03        -5.04042     978.933E-03        -5.04030         2.83600    -54.4770E-03     190.100E-03    -58.2883E-03    -131.811E-03    -117.285E-03     175.573E-03    -58.2883E-03     133.414E-03     143.513E+06     132.169E+06    -8.20590E+06    -8.16071E+06     143.468E+06     132.169E+06    -2.00174E+06         62.9620
             104     16.9679E-03     12.1967E-03         2.28364     908.690E-03        -4.37750     908.617E-03        -4.37742         2.28364    -39.0987E-03     192.565E-03    -58.3556E-03    -134.210E-03    -115.164E-03     173.520E-03    -58.3556E-03     152.617E-03     145.386E+06     132.780E+06    -10.2514E+06    -10.2489E+06     145.383E+06     132.780E+06     213.808E+03         64.0744
             105     16.9727E-03     13.3765E-03         1.72276     824.020E-03        -3.64823     823.975E-03        -3.64818         1.72276    -2.46087E-03     178.458E-03    -59.0545E-03    -119.403E-03    -91.2914E-03     150.346E-03    -59.0545E-03     171.783E-03     147.578E+06     137.952E+06    -4.58736E+06    -4.58528E+06     147.576E+06     137.952E+06     393.658E+03         65.1008
             106     16.9694E-03     14.5053E-03         1.16678     711.707E-03        -2.85316     711.349E-03        -2.85280         1.16678     58.5763E-03     166.962E-03    -59.4982E-03    -107.464E-03    -74.5623E-03     134.060E-03    -59.4982E-03     178.255E-03     147.200E+06     139.299E+06    -1.40184E+06    -1.39749E+06     147.195E+06     139.299E+06    -574.876E+03         66.0293
             107     16.9746E-03     15.6518E-03     690.099E-03     497.008E-03        -1.99254     565.917E-03        -1.99022     618.873E-03     135.356E-03     160.468E-03    -59.5876E-03    -100.880E-03    -69.1101E-03     128.698E-03    -59.5876E-03     170.741E-03     143.766E+06     136.512E+06    -4.78684E+06    -4.73588E+06     143.715E+06     136.512E+06    -2.43116E+06         66.8276
             108     16.9714E-03     16.7699E-03     411.378E-03     81.0240E-03        -1.09441     401.378E-03        -1.08441     81.0240E-03     213.678E-03     162.085E-03    -59.6259E-03    -102.459E-03    -67.8826E-03     127.508E-03    -59.6259E-03     178.326E-03     147.891E+06     139.969E+06    -3.28583E+06    -3.21657E+06     147.822E+06     139.969E+06    -547.398E+03         67.4715
             109     16.9742E-03     17.9431E-03     359.554E-03    -62.6001E-03    -672.355E-03     227.248E-03    -157.805E-03    -444.844E-03     262.682E-03     170.536E-03    -59.7221E-03    -110.814E-03    -67.3399E-03     127.062E-03    -59.7221E-03     202.784E-03     152.097E+06     142.715E+06    -1.67929E+06    -1.65657E+06     152.075E+06     142.715E+06     1.39257E+06         67.9607
             110     16.9701E-03     19.0797E-03     813.019E-03     768.159E-06    -956.656E-03     47.9159E-03     765.871E-03    -956.656E-03     285.586E-03     173.111E-03    -59.9448E-03    -113.166E-03    -61.9260E-03     121.871E-03    -59.9448E-03     219.449E-03     151.628E+06     139.935E+06    -3.99469E+06    -3.98715E+06     151.620E+06     139.935E+06     840.745E+03         68.3089
             111     16.9724E-03     20.1838E-03         1.67340    -141.683E-03        -1.45351    -128.608E-03         1.66033        -1.45351     294.037E-03     163.592E-03    -60.0179E-03    -103.574E-03    -56.9864E-03     117.004E-03    -60.0179E-03     202.609E-03     148.391E+06     137.137E+06    -6.13467E+06    -6.12142E+06     148.378E+06     137.137E+06     100.769E+03         68.5566
             112     16.9739E-03     21.2803E-03         2.51776    -300.848E-03        -1.93518    -292.962E-03         2.50987        -1.93518     292.975E-03     160.164E-03    -59.8237E-03    -100.341E-03    -60.5775E-03     120.401E-03    -59.8237E-03     187.224E-03     148.786E+06     137.368E+06    -4.60468E+06    -4.59352E+06     148.775E+06     137.368E+06    -1.30796E+06         68.7399
             113     16.9729E-03     22.4392E-03         3.31850    -447.498E-03        -2.39834    -441.884E-03         3.31288        -2.39834     287.951E-03     169.584E-03    -59.7288E-03    -109.855E-03    -65.8618E-03     125.591E-03    -59.7288E-03     203.252E-03     150.026E+06     137.170E+06    -4.26564E+06    -4.25981E+06     150.020E+06     137.170E+06    -832.761E+03         68.8718
             114     16.9717E-03     23.5960E-03         4.06420    -588.245E-03        -2.83488    -583.815E-03         4.05977        -2.83488     285.883E-03     175.728E-03    -59.9570E-03    -115.771E-03    -61.1321E-03     121.089E-03    -59.9570E-03     227.197E-03     149.093E+06     139.140E+06    -2.20281E+06    -2.19183E+06     149.082E+06     139.140E+06     694.867E+03         68.9653
             115     16.9727E-03     24.6913E-03         4.75591    -730.051E-03        -3.23545    -725.945E-03         4.75181        -3.23545     299.900E-03     168.037E-03    -60.0485E-03    -107.989E-03    -56.1209E-03     116.169E-03    -60.0485E-03     215.326E-03     147.824E+06     137.677E+06    -4.12419E+06    -4.09829E+06     147.798E+06     137.677E+06    -209.096E+03         69.0480
             116     16.9734E-03     25.7846E-03         5.41355    -865.901E-03        -3.59251    -861.260E-03         5.40891        -3.59251     341.194E-03     163.009E-03    -59.7948E-03    -103.214E-03    -62.0616E-03     121.856E-03    -59.7948E-03     192.153E-03     149.146E+06     136.896E+06    -5.08444E+06    -5.06830E+06     149.130E+06     136.896E+06    -853.321E+03         69.1324
             117     16.9733E-03     26.9406E-03         6.05131    -999.858E-03        -3.89936    -994.009E-03         6.04546        -3.89936     405.759E-03     168.178E-03    -59.6752E-03    -108.503E-03    -67.1849E-03     126.860E-03    -59.6752E-03     197.090E-03     152.796E+06     139.337E+06    -3.10189E+06    -3.07378E+06     152.768E+06     139.337E+06     1.71237E+06         69.2172
             118     16.9722E-03     28.0904E-03         6.66912        -1.15636        -4.14997        -1.14941         6.66217        -4.14997     466.282E-03     171.020E-03    -59.8494E-03    -111.170E-03    -62.2058E-03     122.055E-03    -59.8494E-03     213.443E-03     156.072E+06     140.062E+06    -4.05111E+06    -4.01958E+06     156.040E+06     140.062E+06     2.05433E+06         69.3163
             119     16.9744E-03     29.1916E-03         7.27457        -1.33141        -4.34075        -1.32337         7.26652        -4.34075     525.873E-03     170.843E-03    -59.8890E-03    -110.954E-03    -61.0351E-03     120.924E-03    -59.8890E-03     215.017E-03     156.817E+06     139.389E+06    -4.99276E+06    -4.98737E+06     156.811E+06     139.389E+06     269.790E+03         69.4370
             120     16.9706E-03     30.3321E-03         7.86050        -1.50357        -4.47373        -1.49453         7.85145        -4.47373     581.745E-03     171.915E-03    -59.8946E-03    -112.021E-03    -61.9513E-03     121.846E-03    -59.8946E-03     216.285E-03     157.445E+06     139.177E+06    -3.85367E+06    -3.83068E+06     157.422E+06     139.177E+06     1.01077E+06         69.5434
             121     16.9741E-03     31.4663E-03         8.40498        -1.68490        -4.55489        -1.67558         8.39566        -4.55489     613.020E-03     171.544E-03    -60.0120E-03    -111.532E-03    -57.6622E-03     117.674E-03    -60.0120E-03     222.220E-03     157.409E+06     138.477E+06    -3.19732E+06    -3.17523E+06     157.387E+06     138.477E+06     1.16874E+06         69.6211
             122     16.9720E-03     32.5585E-03         8.90665        -1.87371        -4.59041        -1.86444         8.89738        -4.59041     631.743E-03     165.686E-03    -59.9733E-03    -105.712E-03    -57.2676E-03     117.241E-03    -59.9733E-03     207.538E-03     156.206E+06     137.229E+06    -4.45739E+06    -4.45477E+06     156.203E+06     137.229E+06    -585.304E+03         69.6867
             123     16.9738E-03     33.6826E-03         9.33904        -2.03804        -4.58755        -2.02922         9.33022        -4.58755     633.042E-03     163.986E-03    -59.8545E-03    -104.131E-03    -60.0676E-03     119.922E-03    -59.8545E-03     198.714E-03     156.010E+06     136.924E+06    -3.14889E+06    -3.14557E+06     156.007E+06     136.924E+06    -150.671E+03         69.7409
             124     16.9736E-03     34.8212E-03         9.68127        -2.17899        -4.55404        -2.17100         9.67328        -4.55404     614.883E-03     168.910E-03    -59.8315E-03    -109.079E-03    -60.8727E-03     120.704E-03    -59.8315E-03     210.439E-03     154.938E+06     134.419E+06    -3.94498E+06    -3.93611E+06     154.929E+06     134.419E+06     1.07426E+06         69.7889
             125     16.9731E-03     35.9525E-03         9.94755        -2.30734        -4.49481        -2.30022         9.94043        -4.49481     590.142E-03     172.888E-03    -59.8801E-03    -113.007E-03    -61.6841E-03     121.564E-03    -59.8801E-03     219.445E-03     157.747E+06     135.556E+06    -4.07617E+06    -4.06608E+06     157.737E+06     135.556E+06     366.682E+03         69.8388
             126     16.9707E-03     37.0730E-03         10.1418        -2.41805        -4.41200        -2.41158         10.1353        -4.41200     570.013E-03     172.367E-03    -59.9098E-03    -112.458E-03    -62.5630E-03     122.473E-03    -59.9098E-03     216.513E-03     156.670E+06     135.448E+06    -5.00425E+06    -5.00098E+06     156.667E+06     135.448E+06    -715.286E+03         69.8903
             127     16.9721E-03     38.1969E-03         10.2484        -2.50686        -4.30602        -2.50060         10.2422        -4.30602     565.155E-03     167.259E-03    -59.8735E-03    -107.386E-03    -61.5683E-03     121.442E-03    -59.8735E-03     204.761E-03     151.997E+06     133.371E+06    -5.24375E+06    -5.19252E+06     151.946E+06     133.371E+06    -2.25782E+06         69.9509
             128     16.9742E-03     39.3055E-03         10.2879        -2.57859        -4.17475        -2.57225         10.2816        -4.17475     571.281E-03     161.807E-03    -59.7755E-03    -102.032E-03    -61.4939E-03     121.269E-03    -59.7755E-03     190.174E-03     151.305E+06     132.855E+06    -4.68704E+06    -4.63176E+06     151.250E+06     132.855E+06    -2.60234E+06         70.0316
             129     16.9733E-03     40.4394E-03         10.3045        -2.64170        -4.01527        -2.63506         10.2979        -4.01527     586.357E-03     165.469E-03    -59.7177E-03    -105.751E-03    -64.4112E-03     124.129E-03    -59.7177E-03     194.887E-03     156.068E+06     135.685E+06    -1.96913E+06    -1.92980E+06     156.028E+06     135.685E+06     1.01490E+06         70.1347
             130     16.9727E-03     41.5948E-03         10.3088        -2.70785        -3.82785        -2.70046         10.3014        -3.82785     620.021E-03     171.579E-03    -59.8182E-03    -111.761E-03    -63.4909E-03     123.309E-03    -59.8182E-03     212.889E-03     156.070E+06     134.805E+06    -3.24280E+06    -3.20189E+06     156.029E+06     134.805E+06     917.116E+03         70.2549
             131     16.9722E-03     42.7134E-03         10.3016        -2.78594        -3.61566        -2.77738         10.2931        -3.61566     668.860E-03     169.416E-03    -59.9669E-03    -109.449E-03    -58.3354E-03     118.302E-03    -59.9669E-03     215.784E-03     153.248E+06     132.195E+06    -6.32075E+06    -6.31340E+06     153.241E+06     132.195E+06    -959.463E+03         70.3790
             132     16.9733E-03     43.8199E-03         10.2865        -2.86715        -3.38174        -2.85717         10.2766        -3.38174     723.601E-03     166.267E-03    -59.9010E-03    -106.366E-03    -59.2393E-03     119.140E-03    -59.9010E-03     205.973E-03     154.664E+06     134.517E+06    -3.67071E+06    -3.66859E+06     154.662E+06     134.517E+06    -567.918E+03         70.4915
             133     16.9734E-03     44.9471E-03         10.2576        -2.93942        -3.13135        -2.92833         10.2465        -3.13135     764.836E-03     166.815E-03    -59.7833E-03    -107.032E-03    -63.0104E-03     122.794E-03    -59.7833E-03     201.169E-03     156.828E+06     135.537E+06    -3.30783E+06    -3.30618E+06     156.826E+06     135.537E+06    -217.357E+03         70.5785
             134     16.9726E-03     46.0912E-03         10.2058        -2.85944        -3.01702        -2.99013         10.1942        -2.87473     782.579E-03     167.918E-03    -59.8401E-03    -108.078E-03    -61.9972E-03     121.837E-03    -59.8401E-03     205.821E-03     156.726E+06     135.395E+06    -2.38297E+06    -2.38274E+06     156.726E+06     135.395E+06     186.193E+03         70.6563
             135     16.9729E-03     47.1999E-03         10.1180        -2.62284        -3.06064        -3.04894         10.1063        -2.62284     784.903E-03     164.933E-03    -59.8300E-03    -105.103E-03    -61.3494E-03     121.179E-03    -59.8300E-03     198.850E-03     151.877E+06     131.572E+06    -4.16341E+06    -4.16217E+06     151.875E+06     131.572E+06    -241.582E+03         70.7592
             136     16.9735E-03     48.3201E-03         9.98529        -2.38389        -3.09508        -3.08363         9.97384        -2.38389     773.603E-03     166.087E-03    -59.7627E-03    -106.324E-03    -63.8136E-03     123.576E-03    -59.7627E-03     197.686E-03     152.296E+06     130.048E+06    -5.83781E+06    -5.81984E+06     152.278E+06     130.048E+06     850.768E+03         70.8843
             137     16.9715E-03     49.4864E-03         9.79345        -2.16528        -3.08373        -3.07291         9.78264        -2.16528     745.930E-03     170.943E-03    -59.9205E-03    -111.023E-03    -60.9183E-03     120.839E-03    -59.9205E-03     215.205E-03     156.102E+06     133.561E+06    -1.79104E+06    -1.75144E+06     156.062E+06     133.561E+06     2.49187E+06         71.0073
             138     16.9728E-03     50.5906E-03         9.56657        -1.97234        -3.06618        -3.05630         9.55669        -1.97234     706.230E-03     170.482E-03    -60.0416E-03    -110.441E-03    -57.1373E-03     117.179E-03    -60.0416E-03     220.271E-03     153.923E+06     131.130E+06    -4.72993E+06    -4.68230E+06     153.875E+06     131.130E+06    -77.7905E+03         71.1192
             139     16.9713E-03     51.7020E-03         9.31072        -1.80519        -3.03444        -3.02499         9.30126        -1.80519     683.063E-03     167.860E-03    -59.9445E-03    -107.916E-03    -59.3470E-03     119.291E-03    -59.9445E-03     209.999E-03     153.651E+06     131.894E+06    -3.60939E+06    -3.58456E+06     153.626E+06     131.894E+06    -1.45754E+06         71.2058
             140     16.9740E-03     52.8395E-03         9.02447        -1.66091        -2.96600        -2.95607         9.01454        -1.66091     689.554E-03     167.960E-03    -59.8510E-03    -108.109E-03    -62.1652E-03     122.016E-03    -59.8510E-03     205.649E-03     151.740E+06     130.662E+06    -4.68783E+06    -4.64497E+06     151.697E+06     130.662E+06    -1.89177E+06         71.2619
             141     16.9704E-03     53.9513E-03         8.75165        -1.53653        -2.90404        -2.89336         8.74097        -1.53653     705.088E-03     167.635E-03    -59.8630E-03    -107.772E-03    -62.4396E-03     122.303E-03    -59.8630E-03     204.251E-03     152.108E+06     130.706E+06    -3.97313E+06    -3.88550E+06     152.020E+06     130.706E+06      1.8015E+03         71.3115
             142     16.9735E-03     55.1000E-03         8.50643        -1.43019        -2.85140        -2.84015         8.49518        -1.43019     714.537E-03     167.641E-03    -59.9189E-03    -107.722E-03    -60.1450E-03     120.064E-03    -59.9189E-03     208.100E-03     150.950E+06     131.557E+06    -2.46393E+06    -2.37003E+06     150.856E+06     131.557E+06    -95.2531E+03         71.3838
             143     16.9725E-03     56.2011E-03         8.29922        -1.33985        -2.80435        -2.79174         8.28660        -1.33985     747.170E-03     166.522E-03    -59.8191E-03    -106.702E-03    -61.8825E-03     121.702E-03    -59.8191E-03     201.911E-03     148.387E+06     128.956E+06    -6.61642E+06    -6.56063E+06     148.331E+06     128.956E+06    -2.66636E+06         71.4941
             144     16.9736E-03     57.3319E-03         8.14433        -1.26356        -2.77121        -2.75715         8.13027        -1.26356     783.149E-03     166.911E-03    -59.7320E-03    -107.179E-03    -64.8577E-03     124.590E-03    -59.7320E-03     197.969E-03     153.813E+06     134.138E+06    -2.11585E+06    -2.06149E+06     153.759E+06     134.138E+06     1.20525E+06         71.6220
             145     16.9732E-03     58.4879E-03         8.03913        -1.20330        -2.74513        -2.73058         8.02459        -1.20330     791.654E-03     171.184E-03    -59.8471E-03    -111.337E-03    -62.3840E-03     122.231E-03    -59.8471E-03     213.719E-03     153.394E+06     132.961E+06    -2.85093E+06    -2.79612E+06     153.339E+06     132.961E+06     1.18027E+06         71.7535
             146     16.9720E-03     59.5988E-03         7.96028        -1.16462        -2.72281        -2.70818         7.94566        -1.16462     789.990E-03     168.411E-03    -59.9738E-03    -108.437E-03    -58.4951E-03     118.469E-03    -59.9738E-03     212.893E-03     150.454E+06     130.898E+06    -4.83893E+06    -4.83144E+06     150.447E+06     130.898E+06    -582.126E+03         71.8871
             147     16.9732E-03     60.7088E-03         7.90039        -1.15256        -2.70247        -2.68756         7.88547        -1.15256     794.761E-03     165.845E-03    -59.9380E-03    -105.907E-03    -59.3457E-03     119.284E-03    -59.9380E-03     204.754E-03     150.914E+06     132.545E+06    -3.73957E+06    -3.73635E+06     150.911E+06     132.545E+06     636.422E+03         72.0072
             148     16.9722E-03     61.8466E-03         7.84805        -1.16998        -2.67309        -2.65792         7.83288        -1.16998     798.376E-03     167.934E-03    -59.8703E-03    -108.064E-03    -61.4706E-03     121.341E-03    -59.8703E-03     206.759E-03     148.755E+06     129.627E+06    -5.09448E+06    -5.07641E+06     148.737E+06     129.627E+06    -604.750E+03         72.1063
             149     16.9744E-03     64.0941E-03         7.67583        -1.30015        -2.56041        -2.54814         7.66355        -1.30015     708.339E-03     168.393E-03    -59.9147E-03    -108.478E-03    -58.9895E-03     118.904E-03    -59.9147E-03     212.054E-03     145.241E+06     129.963E+06    -3.47448E+06    -3.44156E+06     145.208E+06     129.963E+06    -2.03297E+06         72.2628
             150     16.9717E-03     65.2080E-03         7.57298        -1.40907        -2.48539        -2.47331         7.56090        -1.40907     696.757E-03     167.479E-03    -59.7895E-03    -107.689E-03    -63.4414E-03     123.231E-03    -59.7895E-03     202.057E-03     142.962E+06     129.635E+06    -4.40246E+06    -4.33957E+06     142.899E+06     129.635E+06     141.278E+03         72.3406
             151     16.9749E-03     66.3441E-03         7.44262        -1.53898        -2.39156        -2.37978         7.43083        -1.53898     680.295E-03     166.722E-03    -59.7447E-03    -106.977E-03    -62.9851E-03     122.730E-03    -59.7447E-03     200.943E-03     145.252E+06     131.623E+06    -3.18397E+06    -3.14671E+06     145.215E+06     131.623E+06     1.13856E+06         72.4435
             152     16.9755E-03     67.4745E-03         7.32204        -1.68156        -2.29863        -2.28782         7.31123        -1.68156     644.676E-03     167.891E-03    -59.7803E-03    -108.111E-03    -61.0951E-03     120.875E-03    -59.7803E-03     207.518E-03     144.031E+06     130.306E+06    -3.90953E+06    -3.89753E+06     144.019E+06     130.306E+06    -1.27365E+06         72.5849
             153     16.9728E-03     68.6007E-03         7.23909        -1.82782        -2.21801        -2.20751         7.22859        -1.82782     629.932E-03     168.411E-03    -59.8585E-03    -108.552E-03    -60.4220E-03     120.281E-03    -59.8585E-03     209.884E-03     145.144E+06     132.402E+06    -2.32491E+06    -2.29726E+06     145.116E+06     132.402E+06     349.660E+03         72.7366
             154     16.9744E-03     69.7238E-03         7.18657        -1.97032        -2.14272        -2.13162         7.17547        -1.97032     643.097E-03     170.858E-03    -59.8741E-03    -110.984E-03    -61.0787E-03     120.953E-03    -59.8741E-03     215.172E-03     146.237E+06     131.478E+06    -2.48695E+06    -2.46439E+06     146.214E+06     131.478E+06     1.72832E+06         72.8724
             155     16.9722E-03     70.8581E-03         7.16474        -2.04851        -2.13774        -2.06999         7.15277        -2.10429     664.711E-03     171.646E-03    -59.8961E-03    -111.750E-03    -60.8777E-03     120.774E-03    -59.8961E-03     217.518E-03     144.195E+06     129.590E+06    -5.03077E+06    -5.02600E+06     144.191E+06     129.590E+06     766.399E+03         72.9840
             156     16.9741E-03     71.9757E-03         7.17487        -2.04269        -2.22764        -2.03028         7.16246        -2.22764     676.039E-03     169.320E-03    -59.9336E-03    -109.387E-03    -58.5255E-03     118.459E-03    -59.9336E-03     215.298E-03     144.048E+06     130.741E+06    -2.85017E+06    -2.84763E+06     144.045E+06     130.741E+06     584.086E+03         73.0681
             157     16.9744E-03     73.0899E-03         7.20486        -2.01060        -2.34057        -1.99830         7.19257        -2.34057     672.660E-03     168.392E-03    -59.8581E-03    -108.534E-03    -60.3646E-03     120.223E-03    -59.8581E-03     209.824E-03     142.580E+06     129.811E+06    -3.80964E+06    -3.80068E+06     142.571E+06     129.811E+06    -348.409E+03         73.1338
             158     16.9728E-03     74.2227E-03         7.23988        -1.97714        -2.44552        -1.96523         7.22798        -2.44552     662.030E-03     168.240E-03    -59.8063E-03    -108.434E-03    -62.7309E-03     122.537E-03    -59.8063E-03     205.484E-03     141.593E+06     129.454E+06    -5.62103E+06    -5.61364E+06     141.585E+06     129.454E+06    -890.691E+03         73.1986
             159     16.9743E-03     75.3446E-03         7.25953        -1.94726        -2.54568        -1.93604         7.24831        -2.54568     642.076E-03     166.763E-03    -59.8161E-03    -106.947E-03    -61.3038E-03     121.120E-03    -59.8161E-03     204.056E-03     144.900E+06     130.798E+06    -1.90068E+06    -1.86898E+06     144.868E+06     130.798E+06     1.35683E+06         73.2853
             160     16.9746E-03     76.4711E-03         7.24540        -1.90630        -2.64309        -1.89660         7.23570        -2.64309     594.736E-03     167.055E-03    -59.7904E-03    -107.265E-03    -61.3578E-03     121.148E-03    -59.7904E-03     204.799E-03     145.893E+06     129.963E+06    -3.61308E+06    -3.56908E+06     145.849E+06     129.963E+06     547.636E+03         73.4012
             161     16.9740E-03     77.6004E-03         7.19041        -1.84548        -2.73839        -1.83746         7.18239        -2.73839     537.790E-03     168.533E-03    -59.7607E-03    -108.772E-03    -63.0250E-03     122.786E-03    -59.7607E-03     205.839E-03     144.509E+06     128.595E+06    -5.03983E+06    -5.02699E+06     144.497E+06     128.595E+06    -1.08197E+06         73.5364
             162     16.9737E-03     78.7283E-03         7.09705        -1.77865        -2.82967        -1.77171         7.09011        -2.82967     496.136E-03     168.030E-03    -59.7856E-03    -108.245E-03    -62.7975E-03     122.583E-03    -59.7856E-03     204.841E-03     145.756E+06     129.902E+06    -4.07495E+06    -4.07399E+06     145.755E+06     129.902E+06     142.613E+03         73.6851
             163     16.9739E-03     79.8536E-03         6.97261        -1.70829        -2.91139        -1.70226         6.96659        -2.91139     457.064E-03     167.212E-03    -59.8284E-03    -107.384E-03    -61.6462E-03     121.475E-03    -59.8284E-03     204.621E-03     146.514E+06     129.904E+06    -4.37817E+06    -4.36568E+06     146.501E+06     129.904E+06    -690.352E+03         73.8413
             164     16.9731E-03     80.9822E-03         6.83208        -1.63067        -2.97626        -1.62534         6.82676        -2.97626     424.264E-03     167.806E-03    -59.8836E-03    -107.922E-03    -60.3389E-03     120.223E-03    -59.8836E-03     208.341E-03     146.867E+06     131.706E+06    -1.41781E+06    -1.36675E+06     146.816E+06     131.706E+06     756.115E+03         73.9894
             165     16.9743E-03     82.1105E-03         6.68370        -1.56023        -3.01733        -1.55506         6.67854        -3.01733     412.402E-03     167.898E-03    -59.8954E-03    -108.002E-03    -58.8994E-03     118.795E-03    -59.8954E-03     211.058E-03     146.042E+06     130.483E+06    -3.33313E+06    -3.29063E+06     145.999E+06     130.483E+06     1.20611E+06         74.1211
             166     16.9750E-03     83.2228E-03         6.54422        -1.50777        -3.02836        -1.50234         6.53879        -3.02836     418.027E-03     166.912E-03    -59.7961E-03    -107.116E-03    -60.5664E-03     120.362E-03    -59.7961E-03     205.728E-03     146.733E+06     128.330E+06    -5.66797E+06    -5.66471E+06     146.730E+06     128.330E+06    -379.008E+03         74.2450
             167     16.9745E-03     84.3513E-03         6.42514        -1.46901        -3.00454        -1.46303         6.41916        -3.00454     434.164E-03     169.100E-03    -59.7330E-03    -109.367E-03    -63.4316E-03     123.165E-03    -59.7330E-03     206.693E-03     152.140E+06     132.786E+06    -2.34711E+06    -2.30538E+06     152.098E+06     132.786E+06     1.91575E+06         74.3761
             168     16.9746E-03     85.4987E-03         6.33431        -1.45408        -2.94472        -1.44760         6.32782        -2.94472     449.205E-03     171.406E-03    -59.8490E-03    -111.557E-03    -60.9760E-03     120.825E-03    -59.8490E-03     216.680E-03     157.018E+06     134.136E+06    -3.11203E+06    -3.02506E+06     156.931E+06     134.136E+06     3.73058E+06         74.5082
             169     16.9735E-03     86.6102E-03         6.25767        -1.45930        -2.85135        -1.45270         6.25107        -2.85135     450.894E-03     167.965E-03    -59.9601E-03    -108.005E-03    -56.7034E-03     116.664E-03    -59.9601E-03     214.697E-03     160.024E+06     134.472E+06    -3.70712E+06    -3.65701E+06     159.974E+06     134.472E+06     2.54594E+06         74.6165
             170     16.9759E-03     87.7137E-03         6.17048        -1.46805        -2.72833        -1.46186         6.16429        -2.72833     434.744E-03     164.030E-03    -59.8291E-03    -104.201E-03    -59.1371E-03     118.966E-03    -59.8291E-03     200.321E-03     159.871E+06     133.510E+06    -4.81600E+06    -4.78756E+06     159.842E+06     133.510E+06    -777.173E+03         74.6987
             171     16.9740E-03     88.8439E-03         6.06652        -1.47231        -2.58122        -1.46674         6.06094        -2.58122     409.905E-03     166.787E-03    -59.6762E-03    -107.110E-03    -64.4520E-03     124.128E-03    -59.6762E-03     198.634E-03     163.644E+06     135.243E+06    -5.33888E+06    -5.27548E+06     163.581E+06     135.243E+06     452.175E+03         74.7853
             172     16.9756E-03     89.9958E-03         5.92844        -1.47361        -2.41775        -1.46920         5.92402        -2.41775     360.026E-03     169.554E-03    -59.7215E-03    -109.833E-03    -63.3306E-03     123.052E-03    -59.7215E-03     208.016E-03     171.830E+06     139.696E+06    -3.35989E+06    -3.30486E+06     171.775E+06     139.696E+06     3.01863E+06         74.9030
             173     16.9753E-03     91.1062E-03         5.75284        -1.47421        -2.24430        -1.47135         5.74997        -2.24430     285.935E-03     166.905E-03    -59.7778E-03    -107.127E-03    -60.0073E-03     119.785E-03    -59.7778E-03     206.788E-03     176.470E+06     140.789E+06    -4.74427E+06    -4.72718E+06     176.453E+06     140.789E+06     1.56669E+06         75.0496
             174     16.9767E-03     92.2283E-03         5.53167        -1.45321        -2.06305        -1.45146         5.52993        -2.06305     219.340E-03     165.542E-03    -59.7233E-03    -105.819E-03    -60.5633E-03     120.287E-03    -59.7233E-03     202.309E-03     177.876E+06     142.852E+06    -4.30662E+06    -4.30331E+06     177.873E+06     142.852E+06     21.4390E+03         75.2128
             175     16.9769E-03     93.3615E-03         5.27302        -1.41836        -1.87423        -1.41735         5.27202        -1.87423     162.134E-03     167.162E-03    -59.6995E-03    -107.462E-03    -60.5265E-03     120.226E-03    -59.6995E-03     206.716E-03     177.596E+06     144.404E+06    -3.53827E+06    -3.53514E+06     177.593E+06     144.404E+06    -3.60909E+03         75.3811
             176     16.9781E-03     94.4901E-03         4.99154        -1.37905        -1.67776        -1.37848         4.99096        -1.67776     120.443E-03     168.405E-03    -59.7409E-03    -108.664E-03    -57.5929E-03     117.334E-03    -59.7409E-03     214.791E-03     178.644E+06     145.093E+06    -3.04580E+06    -3.03554E+06     178.633E+06     145.093E+06     1.26192E+06         75.5312
             177     16.9797E-03     95.6094E-03         4.70699        -1.33936        -1.47228        -1.33888         4.70651        -1.47228     107.918E-03     167.208E-03    -59.6802E-03    -107.527E-03    -56.5424E-03     116.223E-03    -59.6802E-03     213.562E-03     176.231E+06     142.375E+06    -6.19973E+06    -6.14848E+06     176.180E+06     142.375E+06    -1.09200E+06         75.6375
             178     16.9807E-03     96.7152E-03         4.44425        -1.23368        -1.33823        -1.31581         4.44356        -1.25541     125.387E-03     164.449E-03    -59.5053E-03    -104.944E-03    -57.5757E-03     117.081E-03    -59.5053E-03     205.093E-03     175.669E+06     143.304E+06    -4.50485E+06    -4.43419E+06     175.598E+06     143.304E+06    -406.264E+03         75.6996
             179     16.9858E-03     97.8493E-03         4.21260        -1.02677        -1.30625        -1.30510         4.21145        -1.02677     157.877E-03     165.344E-03    -59.3183E-03    -106.026E-03    -57.5010E-03     116.819E-03    -59.3183E-03     207.936E-03     178.648E+06     147.072E+06    -1.64431E+06    -1.61400E+06     178.617E+06     147.072E+06     2.02154E+06         75.7514
             180     16.9885E-03     98.9706E-03         4.02499    -789.380E-03        -1.31376        -1.31186         4.02309    -789.380E-03     199.347E-03     165.040E-03    -59.1288E-03    -105.912E-03    -55.4887E-03     114.617E-03    -59.1288E-03     210.897E-03     179.837E+06     146.198E+06    -3.79697E+06    -3.79013E+06     179.830E+06     146.198E+06     1.10060E+06         75.8093
             181     16.9945E-03     100.082E-03         3.87891    -548.507E-03        -1.34077        -1.33780         3.87594    -548.507E-03     247.415E-03     163.159E-03    -58.8116E-03    -104.347E-03    -54.0579E-03     112.870E-03    -58.8116E-03     209.033E-03     176.792E+06     143.283E+06    -4.96918E+06    -4.95709E+06     176.780E+06     143.283E+06    -167.603E+03         75.8621
             182     17.0025E-03     101.198E-03         3.76171    -311.718E-03        -1.37552        -1.37159         3.75779    -311.718E-03     283.550E-03     163.277E-03    -58.2775E-03    -104.999E-03    -54.5387E-03     112.816E-03    -58.2775E-03     209.676E-03     172.109E+06     137.858E+06    -5.65710E+06    -5.64967E+06     172.102E+06     137.858E+06    -825.390E+03         75.9119
             183     17.0139E-03     102.324E-03         3.65526    -88.9538E-03        -1.40813        -1.40332         3.65045    -88.9538E-03     311.358E-03     162.708E-03    -57.6482E-03    -105.060E-03    -52.1721E-03     109.820E-03    -57.6482E-03     213.111E-03     170.816E+06     134.370E+06    -2.03583E+06    -2.03236E+06     170.813E+06     134.370E+06     539.404E+03         75.9694
             184     17.0286E-03     103.430E-03         3.54329     109.801E-03        -1.43508        -1.42969         3.53790     109.801E-03     327.277E-03     161.412E-03    -56.7360E-03    -104.676E-03    -49.1541E-03     105.890E-03    -56.7360E-03     216.248E-03     167.142E+06     120.507E+06    -3.62973E+06    -3.62622E+06     167.139E+06     120.507E+06     483.345E+03         76.0602
             185     17.0501E-03     104.535E-03         3.41553     277.173E-03        -1.45240        -1.44743         3.41056     277.173E-03     310.809E-03     161.335E-03    -55.4492E-03    -105.886E-03    -50.4945E-03     105.944E-03    -55.4492E-03     216.636E-03     160.487E+06     109.367E+06    -3.26223E+06    -3.25738E+06     160.482E+06     109.367E+06    -676.255E+03         76.2362
             186     17.0720E-03     105.659E-03         3.25747     408.899E-03        -1.44145        -1.43787         3.25389     408.899E-03     257.462E-03     160.361E-03    -54.0836E-03    -106.278E-03    -52.8449E-03     106.929E-03    -54.0836E-03     213.451E-03     154.782E+06     109.651E+06    -710.140E+03    -683.277E+03     154.755E+06     109.651E+06     688.146E+03         76.5798
             187     17.0926E-03     106.760E-03         3.09197     503.653E-03        -1.41798        -1.41620         3.09019     503.653E-03     174.022E-03     159.143E-03    -52.8048E-03    -106.338E-03    -59.5211E-03     112.326E-03    -52.8048E-03     201.889E-03     156.399E+06     113.959E+06    -1.47808E+06    -1.44146E+06     156.362E+06     113.959E+06     2.38849E+06         77.1297
             188     17.1012E-03     107.887E-03         2.94493     562.950E-03        -1.39272        -1.39221         2.94442     562.950E-03     85.3546E-03     163.582E-03    -51.8791E-03    -111.703E-03    -72.5845E-03     124.464E-03    -51.8791E-03     191.908E-03     156.617E+06     126.768E+06    -5.86304E+06    -5.76406E+06     156.518E+06     126.768E+06    -1.53743E+06         77.7961
             189     17.1040E-03     109.046E-03         2.81066     589.367E-03        -1.35122        -1.35114         2.81058     589.367E-03     35.9904E-03     166.917E-03    -51.4952E-03    -115.422E-03    -80.0222E-03     131.517E-03    -51.4952E-03     186.976E-03     145.784E+06     135.315E+06    -2.93516E+06    -2.79273E+06     145.641E+06     135.315E+06    -4.59564E+06         78.4177
             190     17.1048E-03     110.167E-03         2.70124     585.296E-03        -1.31146        -1.31134         2.70112     585.296E-03     42.1444E-03     167.449E-03    -51.3065E-03    -116.142E-03    -84.1805E-03     135.487E-03    -51.3065E-03     179.152E-03     136.206E+06     131.733E+06    -1.90423E+06    -1.81350E+06     132.314E+06     135.535E+06    -3.45441E+06         78.8373
             191     17.1057E-03     111.320E-03         2.62663     553.143E-03        -1.27325        -1.27271         2.62610     553.143E-03     85.8252E-03     173.982E-03    -51.0278E-03    -122.954E-03    -93.9660E-03     144.994E-03    -51.0278E-03     176.183E-03     138.914E+06     127.394E+06    -1.15447E+06    -1.11998E+06     127.360E+06     138.914E+06    -1.15035E+06         78.8965
             192     17.1052E-03     112.497E-03         2.58859     493.643E-03        -1.23026        -1.22852         2.58685     493.643E-03     157.111E-03     184.962E-03    -50.7328E-03    -134.229E-03    -105.416E-03     156.149E-03    -50.7328E-03     182.922E-03     139.874E+06     120.690E+06    -5.47261E+06    -5.30805E+06     120.525E+06     139.874E+06    -2.91250E+06         78.5403
             193     17.1061E-03     113.667E-03         2.59982     403.916E-03        -1.20450        -1.20090         2.59622     403.916E-03     231.647E-03     199.682E-03    -50.1961E-03    -149.486E-03    -123.226E-03     173.422E-03    -50.1961E-03     183.445E-03     128.460E+06     100.159E+06    -6.48833E+06    -6.08079E+06     99.7515E+06     128.460E+06    -6.43448E+06         77.7588
             194     17.1068E-03     114.860E-03         2.64446     277.801E-03        -1.17727        -1.17247         2.63966     277.801E-03     270.652E-03     212.295E-03    -49.5005E-03    -162.794E-03    -145.857E-03     195.357E-03    -49.5005E-03     152.236E-03     119.374E+06     79.2045E+06    -10.3339E+06    -10.0616E+06     78.9322E+06     119.374E+06    -4.33626E+06         76.5128
             195     17.1076E-03     116.054E-03         2.69645     105.589E-03        -1.13228        -1.12793         2.69210     105.589E-03     257.444E-03     223.923E-03    -48.8760E-03    -175.047E-03    -167.437E-03     216.313E-03    -48.8760E-03     106.487E-03     120.571E+06     64.6345E+06    -5.97534E+06    -5.91778E+06     64.5769E+06     120.571E+06    -317.183E+03         75.0046
             196     17.1077E-03     117.288E-03         2.74820    -126.013E-03        -1.06278        -1.05977         2.74518    -126.013E-03     212.911E-03     248.129E-03    -48.1281E-03    -200.000E-03    -196.321E-03     244.449E-03    -48.1281E-03     79.5968E-03     114.630E+06     44.1546E+06    -18.7176E+06    -8.87883E+06     34.3157E+06     114.630E+06    -16.3717E+06         73.6945
             197     17.1083E-03     118.596E-03         2.77115    -432.899E-03    -958.411E-03    -956.708E-03         2.76945    -432.899E-03     156.806E-03     287.932E-03    -47.3183E-03    -240.613E-03    -234.959E-03     282.277E-03    -47.3183E-03     105.732E-03     140.549E+06     47.2560E+06    -25.9740E+06     13.9744E+06     7.30767E+06     140.549E+06    -7.50321E+06         72.7651
             198     17.1102E-03     120.033E-03         2.70013    -638.626E-03    -971.803E-03    -783.872E-03         2.69887    -825.293E-03     132.061E-03     320.279E-03    -46.8258E-03    -273.453E-03    -260.701E-03     307.526E-03    -46.8258E-03     170.155E-03     145.834E+06     29.3322E+06    -41.5869E+06    -11.3456E+06    -909.190E+03     145.834E+06     11.6525E+06         71.6046
             199     17.1067E-03     121.449E-03         2.48215    -524.551E-03        -1.29764    -523.747E-03         2.48135        -1.29764     90.0494E-03     332.046E-03    -47.2056E-03    -284.841E-03    -252.953E-03     300.159E-03    -47.2056E-03     264.441E-03     151.483E+06     20.9621E+06    -23.7935E+06    -16.6612E+06     13.8298E+06     151.483E+06     1.27655E+06         68.6183
             200     17.1130E-03     122.851E-03         2.08034    -215.316E-03        -1.81326    -211.311E-03         2.07634        -1.81326    -100.197E-03     283.994E-03    -49.0741E-03    -234.920E-03    -167.410E-03     216.484E-03    -49.0741E-03     334.106E-03     77.7319E+06     3.06882E+06    -60.0489E+06    -32.5437E+06    -19.2113E+06     72.5069E+06    -29.5716E+06         61.2918
             201     17.1113E-03     123.884E-03         1.68711     87.7806E-03        -2.32685     117.573E-03         1.65732        -2.32685    -377.318E-03     164.429E-03    -41.1283E-03    -123.301E-03    -40.7064E-03     98.0602E-03    -57.3539E-03     230.693E-03     60.1775E+06     19.9417E+06    -101.662E+06     -8.2253E+06    -33.2590E+06     19.9417E+06     16.0070E+06         49.4441
             202     16.6843E-03     124.831E-03         1.40314     407.617E-03        -2.84960     484.185E-03         1.32658        -2.84960    -496.502E-03     71.4258E-03     5.79379E-03    -77.2196E-03     28.2995E-03     48.9200E-03    -77.2196E-03     62.0127E-03     74.4491E+06     25.5092E+06    -89.2388E+06     40.3711E+06    -5.99462E+06    -23.6569E+06     37.9544E+06         38.3978
             203     15.2550E-03     125.207E-03         1.31840     328.749E-03        -3.07810     480.234E-03         1.16691        -3.07810    -712.641E-03     53.6362E-03     36.2361E-03    -89.8723E-03     38.6795E-03     51.1928E-03    -89.8723E-03     12.0787E-03     23.5616E+06    -31.1815E+06    -88.8511E+06    -15.1473E+06    -976.149E+03    -80.3475E+06     16.5120E+06         34.2553
             204     14.3920E-03     124.685E-03         1.46083    -232.826E-03        -2.95928     47.9277E-03         1.18008        -2.95928        -1.25893     91.9151E-03    -4.17451E-03    -87.7406E-03     763.988E-06     86.9766E-03    -87.7406E-03    -17.8596E-03     93.1487E+06     38.1287E+06    -37.3494E+06    -1.01034E+06     42.6034E+06     52.3349E+06    -6.86829E+06         34.7332
             205     13.5495E-03     124.173E-03         1.55634    -784.987E-03        -2.79645    -375.698E-03         1.14705        -2.79645        -1.77847     133.734E-03    -51.5339E-03    -82.1999E-03    -39.3510E-03     121.551E-03    -82.1999E-03    -89.0775E-03     104.357E+06     51.9519E+06    -63.9653E+06     3.44412E+06    -15.4575E+06     104.357E+06    -24.0573E+06         34.7571
             206     12.7958E-03     123.737E-03         1.59272        -1.20556        -2.64506    -756.376E-03         1.14354        -2.64506        -2.05143     145.824E-03    -68.6566E-03    -77.1678E-03    -53.7928E-03     128.870E-03    -75.0772E-03    -115.953E-03     76.3610E+06     22.1196E+06    -57.0045E+06    -7.31998E+06    -27.5650E+06     76.3610E+06    -410.493E+03         33.8303
             207     11.9570E-03     123.409E-03         1.60390        -1.43735        -2.53495        -1.02468         1.19123        -2.53495        -2.08069     153.726E-03    -68.7295E-03    -84.9962E-03    -70.3897E-03     139.119E-03    -68.7295E-03    -114.313E-03     82.0065E+06     26.5540E+06    -23.8500E+06    -2.06916E+06     4.77319E+06     82.0065E+06    -6.72494E+06         32.6947
             208     11.1305E-03     123.125E-03         1.57515        -1.50625        -2.46370        -1.17192         1.24083        -2.46370        -1.90978     159.861E-03    -62.6584E-03    -97.2026E-03    -84.5383E-03     147.197E-03    -62.6584E-03    -110.959E-03     90.5713E+06     15.6922E+06    -17.2877E+06     6.74883E+06    -8.34433E+06     90.5713E+06    -5.88651E+06         31.7694
             209     10.2783E-03     122.907E-03         1.54355        -1.49024        -2.42864        -1.24862         1.30193        -2.42864        -1.63660     154.265E-03    -56.5637E-03    -97.7009E-03    -88.7004E-03     145.264E-03    -56.5637E-03    -93.0525E-03     96.9285E+06     20.4682E+06    -10.8043E+06     11.5232E+06    -1.85928E+06     96.9285E+06    -6.02118E+06         30.8028
             210     9.42246E-03     122.715E-03         1.52755        -1.44779        -2.42861        -1.29585         1.37561        -2.42861        -1.29179     139.273E-03    -50.9695E-03    -88.3030E-03    -82.8564E-03     133.826E-03    -50.9695E-03    -69.1504E-03     97.9282E+06     18.1513E+06    -5.15064E+06     17.5765E+06    -4.57583E+06     97.9282E+06    -1.73471E+06         29.6702
             211     8.52774E-03     122.579E-03         1.53881        -1.42932        -2.46046        -1.34510         1.45459        -2.46046    -978.314E-03     123.530E-03    -46.0909E-03    -77.4388E-03    -74.2789E-03     120.370E-03    -46.0909E-03    -49.7701E-03     89.9843E+06     23.9521E+06     1.96936E+06     22.9770E+06     2.94440E+06     89.9843E+06    -4.15223E+06         28.5131
             212     7.62351E-03     122.462E-03         1.56151        -1.46012        -2.52060        -1.41746         1.51886        -2.52060    -684.598E-03     109.840E-03    -41.8931E-03    -67.9467E-03    -65.9951E-03     107.888E-03    -41.8931E-03    -36.9246E-03     83.4381E+06     26.6661E+06    -3.06783E+06     25.5199E+06    -1.92170E+06     83.4381E+06    -5.56076E+06         27.4609
             213     6.69800E-03     122.378E-03         1.61491        -1.56880        -2.60543        -1.55490         1.60101        -2.60543    -404.570E-03     97.2290E-03    -38.2412E-03    -58.9878E-03    -57.7697E-03     96.0108E-03    -38.2412E-03    -27.3734E-03     84.7822E+06     28.5733E+06    -722.068E+03     27.2318E+06     619.430E+03     84.7822E+06    -6.06947E+06         26.5372
             214     5.76594E-03     122.310E-03         1.72849        -1.77854        -2.70886        -1.77476         1.72470        -2.70886    -190.151E-03     86.1158E-03    -34.9845E-03    -51.1313E-03    -50.3934E-03     85.3779E-03    -34.9845E-03    -19.9708E-03     73.9406E+06     29.9248E+06    -2.06437E+06     29.0114E+06    -1.15096E+06     73.9406E+06    -5.27815E+06         25.7295
             215     4.82043E-03     122.259E-03         1.86281        -2.05543        -2.82268        -2.05526         1.86263        -2.82268    -40.7372E-03     75.3575E-03    -32.2216E-03    -43.1358E-03    -42.7119E-03     74.9336E-03    -32.2216E-03    -14.0777E-03     61.2059E+06     33.8451E+06    -567.730E+03     33.1992E+06     78.1997E+03     61.2059E+06    -4.66493E+06         25.0353
             216     3.86631E-03     122.221E-03         2.00228        -2.36437        -2.93817        -2.36417         2.00208        -2.93817     37.1998E-03     66.7894E-03    -30.0928E-03    -36.6966E-03    -36.4466E-03     66.5393E-03    -30.0928E-03    -10.1198E-03     54.4388E+06     39.4803E+06    -293.449E+03     38.5420E+06     644.810E+03     54.4388E+06    -5.98057E+06         24.4657
             217     2.90366E-03     122.194E-03         2.14627        -2.67582        -3.04529        -2.67540         2.14585        -3.04529     89.6549E-03     60.7808E-03    -28.5372E-03    -32.2435E-03    -32.0861E-03     60.6234E-03    -28.5372E-03    -7.62138E-03     56.4106E+06     47.3345E+06    -3.20252E+06     46.2642E+06    -2.13228E+06     56.4106E+06    -7.17696E+06         24.0278
             218     1.93833E-03     122.174E-03         2.26449        -2.95315        -3.13179        -2.95272         2.26406        -3.13179     94.1285E-03     56.2929E-03    -27.4055E-03    -28.8874E-03    -28.6670E-03     56.2081E-03    -27.5411E-03    -5.23601E-03     59.7681E+06     51.2077E+06    -1.87464E+06     50.4156E+06    -1.08252E+06     59.7681E+06    -6.43466E+06         23.7177
             219     969.872E-06     122.162E-03         2.34372        -3.12910        -3.19820        -3.12889         2.34352        -3.19820     42.3632E-03     54.3680E-03    -26.4968E-03    -27.8711E-03    -27.6945E-03     54.3269E-03    -26.6324E-03    -3.66490E-03     62.5642E+06     54.0389E+06     888.316E+03     53.2605E+06     1.66679E+06     62.5642E+06    -6.38477E+06         23.5330
             220    -1.07662E-06     121.105E-03         1.70758        -2.65695        -2.68327        -2.65616         1.70679        -2.68327     66.2378E-03     46.4497E-03    -22.2134E-03    -24.2363E-03    -23.4298E-03     46.4273E-03    -22.9976E-03    -2.40836E-03     47.9003E+06     42.6458E+06    -17.7614E+06     42.6661E+06    -16.6376E+06     46.7561E+06    -8.20634E+06         23.1633
             221    -491.932E-09     120.066E-03     508.428E-03        -1.69160        -1.69970        -1.69441     503.149E-03        -1.69161     175.524E-03     30.7692E-03    -14.9572E-03    -15.8120E-03    -15.0175E-03     30.7589E-03    -15.7414E-03    -1.32454E-03    -5.40176E+06    -13.3981E+06    -46.0245E+06    -7.66595E+06    -43.7603E+06    -13.3981E+06    -8.01681E+06         22.4327
             222     532.536E-09     119.046E-03    -236.347E-03    -908.638E-03        -1.09499    -878.215E-03    -453.118E-03    -908.638E-03     261.825E-03     18.6741E-03    -9.29207E-03    -9.38206E-03    -9.36816E-03     18.6602E-03    -9.29207E-03    -1.23467E-03    -56.1417E+06    -74.3040E+06    -80.6339E+06    -72.6604E+06    -64.1152E+06    -74.3040E+06    -6.12232E+06         21.6422
             223    -473.309E-09     118.030E-03    -206.333E-03    -281.886E-03        -1.22623    -254.640E-03        -1.19050    -269.312E-03     300.180E-03     11.0932E-03    -5.47866E-03    -5.61454E-03    -5.49069E-03     11.0858E-03    -5.59515E-03    -595.193E-06    -83.2570E+06    -132.757E+06    -138.125E+06    -136.807E+06    -84.5757E+06    -132.757E+06    -8.36920E+06         21.0108
             224     237.507E-09     117.023E-03     273.386E-03     260.637E-03        -1.77875     248.329E-03        -1.76626     273.211E-03     313.629E-03     5.96518E-03    -2.90822E-03    -3.05697E-03    -2.94029E-03     5.96500E-03    -3.02471E-03    -77.6661E-06    -109.992E+06    -191.886E+06    -196.492E+06    -192.023E+06    -111.125E+06    -195.222E+06    -9.25949E+06         20.5885
             225    -229.867E-09     116.019E-03     716.346E-03     691.043E-03        -2.21553     708.259E-03        -2.20744     691.043E-03     295.539E-03     2.83427E-03    -1.39720E-03    -1.43707E-03    -1.42698E-03     2.83178E-03    -1.40481E-03     76.5881E-06    -132.156E+06    -230.301E+06    -235.966E+06    -232.337E+06    -132.449E+06    -233.638E+06    -3.70150E+06         20.3658
             226     236.593E-09     115.018E-03         1.06703         1.03332        -2.53689         1.05415        -2.53259         1.04190     247.438E-03     2.27039E-03    -1.12612E-03    -1.14428E-03    -1.11594E-03     2.26021E-03    -1.14428E-03     364.739E-06    -102.829E+06    -171.960E+06    -184.690E+06    -164.487E+06    -123.032E+06    -171.960E+06     9.79801E+06         20.3274
             227    -412.388E-09     114.014E-03         1.34823         1.33858        -2.78470         1.33682        -2.78187         1.34716     211.090E-03     3.36697E-03    -1.66796E-03    -1.69901E-03    -1.66286E-03     3.34137E-03    -1.67851E-03     714.152E-06    -39.8649E+06    -82.3470E+06    -106.492E+06    -78.0304E+06    -68.3262E+06    -82.3470E+06     26.5149E+06         20.4641
             228     487.364E-09     113.012E-03         1.63043         1.58743        -3.00060         1.62936        -2.99953         1.58743     129.156E-03     6.52965E-03    -3.18376E-03    -3.34588E-03    -3.29575E-03     6.47951E-03    -3.18376E-03     1.40196E-03     7.40241E+06    -61.5540E+06    -80.4115E+06    -72.0223E+06    -986.852E+03    -61.5540E+06     19.0379E+06         20.7887
             229    -205.439E-09     112.002E-03         1.86758         1.76341        -3.12815         1.86741        -3.12798         1.76341     43.5926E-03     13.7054E-03    -6.74332E-03    -6.96207E-03    -6.88498E-03     13.6283E-03    -6.74332E-03     2.50899E-03     42.2326E+06    -23.7151E+06    -32.5145E+06    -28.3408E+06     41.7435E+06    -27.3998E+06     5.41710E+06         21.3334
             230     216.958E-09     110.984E-03         1.99984         1.86535        -3.11448         1.99724        -3.11188         1.86535    -159.740E-03     24.6818E-03    -12.2964E-03    -12.3855E-03    -12.3025E-03     24.5989E-03    -12.2964E-03     3.45358E-03     57.2857E+06     22.2719E+06     15.4436E+06     19.7949E+06     56.6192E+06     18.5872E+06     4.96475E+06         22.1115
             231    -226.735E-09     109.951E-03         2.15927         1.85964        -3.03375         2.13754        -3.01202         1.85964    -610.125E-03     38.6718E-03    -19.1537E-03    -19.5181E-03    -19.4452E-03     38.5989E-03    -19.1537E-03     4.08310E-03     66.7722E+06     56.3789E+06     43.0405E+06     52.5563E+06     57.2564E+06     56.3789E+06      -1.247E+06         23.0871
             232     869.057E-09     108.905E-03         2.42125         1.71299        -2.94477         2.32377        -2.84729         1.71299        -1.35953     54.1862E-03    -26.8881E-03    -27.2981E-03    -27.2279E-03     54.1161E-03    -26.8881E-03     4.76910E-03     74.1904E+06     72.8439E+06     41.2484E+06     72.2990E+06     43.1398E+06     72.8439E+06    -7.27694E+06         24.1802
             233    -826.519E-09     107.839E-03         2.77908         1.41866        -2.84596         2.49545        -2.56233         1.41866        -2.39719     68.6161E-03    -34.1617E-03    -34.4543E-03    -34.4071E-03     68.5689E-03    -34.1617E-03     4.19608E-03     77.2203E+06     75.0863E+06     14.7006E+06     76.3275E+06     15.5935E+06     75.0863E+06    -6.48424E+06         25.2926
             234     1.24686E-06     106.763E-03         3.43203     934.819E-03        -2.86468         2.76412        -2.19677     934.819E-03        -3.81887     81.7758E-03    -40.6584E-03    -41.1174E-03    -41.0870E-03     81.7454E-03    -40.6584E-03     3.85322E-03     79.5941E+06     76.0534E+06    -9.12532E+06     76.3765E+06    -8.49753E+06     78.6432E+06    -7.12440E+06         26.3371
             235    -807.265E-09     105.670E-03         4.53020     256.745E-03        -3.14606         3.18857        -1.80442     256.745E-03        -5.78680     93.7298E-03    -46.7220E-03    -47.0079E-03    -46.9859E-03     93.7079E-03    -46.7220E-03     3.21526E-03     79.9898E+06     72.8528E+06    -31.3012E+06     76.8259E+06    -30.7272E+06     75.4426E+06    -7.14342E+06         27.2493
             236     858.052E-09     104.565E-03         5.93996    -639.934E-03        -3.54014         3.68871        -1.28889    -639.934E-03        -8.04275     103.102E-03    -51.1908E-03    -51.9111E-03    -51.9058E-03     103.097E-03    -51.1908E-03     1.79820E-03     67.3735E+06     57.7903E+06    -55.9479E+06     61.8139E+06    -55.4243E+06     62.8263E+06    -7.33153E+06         27.9886
             237     456.959E-09     103.456E-03         7.55230        -1.75226        -3.96563         4.25536    -668.687E-03        -1.75226        -10.3988     109.737E-03    -54.4178E-03    -55.3195E-03    -55.0700E-03     109.731E-03    -54.6611E-03     1.99481E-03     54.0558E+06     43.4906E+06    -80.5902E+06     48.5628E+06    -80.1332E+06     48.5266E+06    -6.38810E+06         28.5427
             238    -1.00119E-06     102.330E-03         9.29346        -2.96894        -4.38719         4.87465     31.6250E-03        -2.96894        -12.7856     113.729E-03    -56.7268E-03    -57.0023E-03    -56.7161E-03     113.718E-03    -57.0023E-03     2.68744E-03     38.7172E+06     30.1957E+06    -100.529E+06     35.6910E+06    -100.496E+06     33.1880E+06    -1.86874E+06         28.9327
             239     959.865E-09     101.214E-03         10.9229        -4.17204        -4.71537         5.46118     798.157E-03        -4.22387        -14.8678     116.905E-03    -57.8239E-03    -59.0807E-03    -59.0419E-03     116.898E-03    -57.8562E-03     1.68860E-03     16.1416E+06     11.3526E+06    -113.191E+06     13.0234E+06    -113.065E+06     14.3449E+06    -3.14450E+06         29.1942
             240     1.32381E-06     100.088E-03         12.2434        -4.75803        -5.41606         5.95457         1.53075        -5.41606        -16.4132     118.759E-03    -58.7580E-03    -60.0007E-03    -60.0006E-03     118.759E-03    -58.7580E-03     126.121E-06    -6.29028E+06    -8.35740E+06    -125.651E+06    -6.59592E+06    -125.345E+06    -8.35740E+06    -5.98111E+06         29.3546
             241    -1.29536E-06     98.9621E-03         13.2956        -4.74632        -6.45353         6.29808         2.25123        -6.45353        -17.5786     118.768E-03    -59.2498E-03    -59.5184E-03    -59.2674E-03     118.768E-03    -59.5002E-03     372.417E-06    -27.8504E+06    -28.5097E+06    -143.264E+06    -28.5404E+06    -142.963E+06    -28.1209E+06    -5.83391E+06         29.4425
             242     823.802E-09     97.8367E-03         14.1056        -4.66645        -7.30427         6.43101         3.00816        -7.30427        -18.4522     119.360E-03    -59.2305E-03    -60.1299E-03    -59.8787E-03     119.360E-03    -59.4810E-03     691.760E-06    -41.2623E+06    -42.1714E+06    -165.782E+06    -42.4328E+06    -165.521E+06    -41.2623E+06    -5.67645E+06         29.4907
             243     401.737E-09     96.7096E-03         14.6160        -4.54228        -7.91059         6.36172         3.71197        -7.91059        -18.9696     120.240E-03    -59.6241E-03    -60.6155E-03    -60.6141E-03     120.238E-03    -59.6241E-03     901.216E-06    -59.2027E+06    -60.9152E+06    -185.687E+06    -59.9306E+06    -185.480E+06    -60.3950E+06    -5.02685E+06         29.5172
             244     221.671E-09     95.5829E-03         14.9290        -4.45845        -8.26321         6.08619         4.38437        -8.26321        -19.3043     120.448E-03    -59.8132E-03    -60.6347E-03    -60.6334E-03     120.447E-03    -59.8132E-03     446.267E-06    -69.3530E+06    -71.2891E+06    -201.842E+06    -70.2341E+06    -201.705E+06    -70.5452E+06    -4.24921E+06         29.5274
             245     686.106E-09     94.4548E-03         15.0977        -4.54539        -8.34513         5.51063         5.04169        -8.34513        -19.6256     119.625E-03    -59.5324E-03    -60.0927E-03    -60.0097E-03     119.623E-03    -59.6136E-03     567.884E-06    -75.9023E+06    -77.8115E+06    -213.842E+06    -76.7181E+06    -213.770E+06    -77.0676E+06    -2.40446E+06         29.5281
             246    -862.804E-09     93.3299E-03         15.1867        -4.82490        -8.16553         4.70550         5.65628        -8.16553        -19.9756     119.186E-03    -59.4095E-03    -59.7766E-03    -59.6924E-03     119.183E-03    -59.4907E-03     1.46402E-03    -85.4305E+06    -88.0641E+06    -220.000E+06    -86.9942E+06    -219.904E+06    -86.5958E+06    -2.66843E+06         29.5283
             247     1.41275E-06     92.2023E-03         15.3014        -5.27121        -7.78660         3.78476         6.24541        -7.78660        -20.4117     119.931E-03    -59.4096E-03    -60.5213E-03    -60.5199E-03     119.929E-03    -59.4096E-03     824.729E-06    -89.6727E+06    -93.5137E+06    -240.811E+06    -91.4763E+06    -240.475E+06    -92.0454E+06    -6.98233E+06         29.5286
             248     108.809E-09     91.0802E-03         15.3712        -5.85082        -7.26116         2.67308         6.84726        -7.26116        -20.7879     119.673E-03    -59.1395E-03    -60.5335E-03    -59.9649E-03     119.673E-03    -59.7077E-03    -188.161E-06    -90.0357E+06    -93.0643E+06    -263.031E+06    -90.9562E+06    -262.766E+06    -92.4085E+06    -5.94725E+06         29.5240
             249    -1.17812E-06     89.9495E-03         15.3387        -6.19403        -6.87384         1.38912         7.48485        -6.60314        -20.9129     119.118E-03    -58.9770E-03    -60.1415E-03    -59.5708E-03     119.116E-03    -59.5452E-03     571.316E-06    -90.7220E+06    -93.0967E+06    -272.890E+06    -91.4037E+06    -272.864E+06    -92.4409E+06    -1.06365E+06         29.5189
             250     2.26852E-06     88.8268E-03         15.1299        -5.82639        -7.00261     69.3685E-03         8.05792        -5.82639        -20.6182     119.379E-03    -59.3869E-03    -59.9917E-03    -59.9804E-03     119.376E-03    -59.3954E-03     1.35414E-03    -91.3412E+06    -94.6662E+06    -275.944E+06    -92.9601E+06    -275.932E+06    -93.0601E+06     1.39455E+06         29.5194
             251    -2.27190E-06     87.7001E-03         14.7204        -4.98233        -7.38778        -1.26911         8.60178        -4.98233        -19.7505     119.102E-03    -59.4429E-03    -59.6593E-03    -59.6498E-03     119.101E-03    -59.4514E-03     859.234E-06    -86.9196E+06    -89.1369E+06    -272.619E+06    -88.5374E+06    -272.607E+06    -87.5308E+06     1.23843E+06         29.5246
             252     2.64894E-06     86.5740E-03         14.0225        -4.09625        -7.54773        -2.62814         9.10295        -4.09625        -18.0499     118.770E-03    -59.1139E-03    -59.6561E-03    -59.6557E-03     118.770E-03    -59.1139E-03     383.833E-06    -80.1734E+06    -82.2112E+06    -268.145E+06    -80.1788E+06    -268.139E+06    -82.2112E+06    -424.434E+03         29.5329
             253    -2.04395E-06     85.4549E-03         13.0115        -3.19558        -7.38081        -3.90788         9.53860        -3.19558        -15.2323     119.339E-03    -59.3922E-03    -59.9470E-03    -59.7264E-03     119.339E-03    -59.6127E-03     39.1986E-06    -78.4118E+06    -81.5619E+06    -267.212E+06    -80.1402E+06    -267.207E+06    -79.8383E+06    -558.385E+03         29.5427
             254     1.64330E-06     84.3207E-03         11.8598        -2.29165        -7.09313        -5.12122         9.88792        -2.29165        -11.3655     120.296E-03    -59.3993E-03    -60.8969E-03    -60.6716E-03     120.291E-03    -59.6198E-03     1.36181E-03    -78.8893E+06    -80.7643E+06    -267.913E+06    -80.6192E+06    -267.907E+06    -79.0407E+06     867.953E+03         29.5508
             255     742.078E-09     83.1974E-03         10.8286        -1.38272        -6.94556        -6.22410         10.1071        -1.38272        -6.44683     119.381E-03    -58.8133E-03    -60.5674E-03    -60.5578E-03     119.371E-03    -58.8133E-03     8.76677E-06    -80.9633E+06    -81.8946E+06    -269.995E+06    -81.7735E+06    -269.965E+06    -81.1147E+06    -748.194E+03         29.5551
             256     150.270E-09     82.0765E-03         10.3737    -474.897E-03        -7.30717        -7.15240         10.2189    -474.897E-03    -452.816E-03     118.156E-03    -58.4635E-03    -59.6921E-03    -58.9325E-03     118.148E-03    -59.2151E-03    -253.442E-06    -81.2573E+06    -82.2999E+06    -271.530E+06    -82.3244E+06    -271.506E+06    -81.2573E+06    -1.35089E+06         29.5618
             257    -1.57660E-06     80.9460E-03         10.8748     399.184E-03        -8.63348        -8.00167         10.2430     399.184E-03         6.18195     119.536E-03    -59.1244E-03    -60.4116E-03    -59.6555E-03     119.532E-03    -59.8760E-03     1.74091E-03    -75.3704E+06    -78.7939E+06    -268.981E+06    -75.6601E+06    -268.954E+06    -78.5313E+06     1.78089E+06         29.5764
             258     2.53519E-06     79.8213E-03         12.2344         1.25566        -10.8280        -8.75317         10.1596         1.25566         12.9299     120.342E-03    -59.4190E-03    -60.9229E-03    -60.9193E-03     120.338E-03    -59.4190E-03     1.60978E-03    -71.2668E+06    -76.9236E+06    -264.870E+06    -73.8147E+06    -264.819E+06    -74.4276E+06     3.14784E+06         29.5906
             259    -690.651E-09     78.6940E-03         13.9825         2.11228        -13.3543        -9.29313         9.92136         2.11228         19.3299     119.174E-03    -58.9510E-03    -60.2227E-03    -59.9169E-03     119.171E-03    -59.2543E-03     1.11665E-03    -70.6853E+06    -74.3878E+06    -262.433E+06    -74.4133E+06    -262.407E+06    -70.6853E+06     1.71097E+06         29.5958
             260     126.982E-09     77.5717E-03         15.6995         2.87362        -15.7425        -9.63325         9.59024         2.87362         24.8328     118.569E-03    -58.8230E-03    -59.7455E-03    -58.8226E-03     118.568E-03    -59.7455E-03     544.882E-06    -68.4275E+06    -74.1326E+06    -260.726E+06    -69.6549E+06    -260.705E+06    -72.9262E+06    -1.21860E+06         29.5953
             261    -1.35923E-06     76.4458E-03         16.9871         3.58550        -17.7240        -9.94450         9.20758         3.58550         28.9344     119.675E-03    -59.0431E-03    -60.6314E-03    -60.0111E-03     119.673E-03    -59.6623E-03    -182.407E-06    -66.4269E+06    -75.4261E+06    -258.877E+06    -70.9482E+06    -258.856E+06    -70.9256E+06    -1.54937E+06         29.5933
             262     3.23207E-06     75.3204E-03         17.5173         4.27944        -18.8903        -10.1064         8.73336         4.27944         31.1494     119.920E-03    -59.2368E-03    -60.6836E-03    -60.6829E-03     119.920E-03    -59.2368E-03    -572.246E-06    -65.0218E+06    -72.8483E+06    -258.934E+06    -69.5237E+06    -258.933E+06    -68.3479E+06     191.537E+03         29.5900
             263    -2.38189E-06     74.1924E-03         17.0691         4.84912        -18.9166        -10.0285         8.18098         4.84912         31.0384     118.693E-03    -59.0352E-03    -59.6583E-03    -59.6575E-03     118.693E-03    -59.0352E-03     492.934E-06    -66.2494E+06    -75.2549E+06    -257.919E+06    -71.9381E+06    -257.909E+06    -69.5755E+06     1.18534E+06         29.5862
             264     2.71898E-06     73.0684E-03         15.6837         5.29327        -17.9141        -9.91519         7.68476         5.29327         28.6109     118.899E-03    -59.2548E-03    -59.6443E-03    -59.6428E-03     118.898E-03    -59.2548E-03     1.00798E-03    -63.6593E+06    -73.6657E+06    -254.850E+06    -69.3729E+06    -254.816E+06    -67.9863E+06    -740.680E+03         29.5844
             265    -2.32352E-06     71.9447E-03         13.4896         5.60144        -15.9551        -9.68474         7.21928         5.60144         24.0763     119.383E-03    -59.4944E-03    -59.8889E-03    -59.7379E-03     119.383E-03    -59.6448E-03     449.914E-06    -67.2346E+06    -73.1651E+06    -254.828E+06    -68.9037E+06    -254.762E+06    -71.5616E+06     287.393E+03         29.5852
             266     2.05317E-06     70.8148E-03         10.6680         5.79341        -13.2661        -9.25499         6.65690         5.79341         17.7735     118.949E-03    -58.9190E-03    -60.0304E-03    -59.8791E-03     118.948E-03    -59.0694E-03     545.279E-06    -71.9622E+06    -73.8797E+06    -256.309E+06    -73.9271E+06    -256.262E+06    -71.9622E+06     1.01925E+06         29.5864
             267    -248.293E-09     69.6945E-03         7.89322         5.86699        -10.4719        -8.71099         6.13235         5.86699         10.4230     118.781E-03    -58.8463E-03    -59.9346E-03    -59.9336E-03     118.780E-03    -58.8463E-03     378.169E-06    -69.2263E+06    -69.9371E+06    -255.514E+06    -69.5505E+06    -255.504E+06    -69.6232E+06    -1.32132E+06         29.5870
             268     475.301E-09     68.5678E-03         6.15732         5.71682        -8.48242        -8.10808         5.73007         5.76973         2.65248     119.039E-03    -59.4459E-03    -59.5934E-03    -59.5928E-03     119.039E-03    -59.4459E-03     215.806E-06    -72.1215E+06    -72.8865E+06    -256.011E+06    -72.4933E+06    -256.007E+06    -72.5184E+06    -810.202E+03         29.5887
             269    -441.531E-09     67.4410E-03         6.09728         5.48930        -8.11037        -7.43489         5.36888         5.54221        -4.87118     119.459E-03    -59.6783E-03    -59.7810E-03    -59.7763E-03     119.455E-03    -59.6783E-03     1.63307E-03    -70.9463E+06    -72.1604E+06    -253.677E+06    -71.3810E+06    -253.611E+06    -71.7922E+06     2.09579E+06         29.5943
             270     570.061E-09     66.3145E-03         7.45614         5.18319        -9.09586        -6.69698         5.05726         5.18319        -11.3905     119.433E-03    -59.1544E-03    -60.2789E-03    -60.2739E-03     119.428E-03    -59.1544E-03     645.734E-06    -68.3522E+06    -70.7992E+06    -250.261E+06    -70.0215E+06    -250.193E+06    -69.1981E+06     1.92796E+06         29.6032
             271     1.40468E-06     65.1923E-03         9.21373         4.70890        -10.3049        -5.92566         4.83447         4.70890        -16.2189     119.013E-03    -58.7925E-03    -60.2201E-03    -59.8325E-03     119.011E-03    -59.1780E-03     68.1848E-06    -71.6677E+06    -75.8895E+06    -252.461E+06    -73.2862E+06    -252.443E+06    -74.2884E+06    -1.65600E+06         29.6129
             272    -2.17292E-06     64.0656E-03         10.4809         4.19209        -10.9361        -5.16068         4.70548         4.19209        -18.9939     119.480E-03    -59.4713E-03    -60.0085E-03    -59.6213E-03     119.478E-03    -59.8568E-03     224.807E-06    -69.4586E+06    -75.4950E+06    -251.100E+06    -72.8898E+06    -251.085E+06    -72.0793E+06    -1.44300E+06         29.6236
             273     2.49431E-06     62.9380E-03         10.8943         3.62668        -10.7208        -4.43144         4.60489         3.62668        -19.6335     119.746E-03    -59.5257E-03    -60.2202E-03    -60.2169E-03     119.743E-03    -59.5257E-03     578.958E-06    -70.1176E+06    -77.8247E+06    -251.902E+06    -73.5434E+06    -251.892E+06    -74.4090E+06     601.076E+03         29.6369
             274     16.0318E-03     61.5977E-03         7.66464        -1.12382        -2.54768        -2.53986         7.65681        -1.12382     467.512E-03     207.524E-03    -59.9087E-03    -147.615E-03    -66.6319E-03     126.541E-03    -59.9087E-03     295.191E-03     143.338E+06     126.918E+06    -8.40244E+06    -8.33132E+06     143.267E+06     126.918E+06    -107.341E+03         69.5819
             275     15.0834E-03     61.1559E-03         7.34426        -1.03393        -2.33314        -2.31284         7.32396        -1.03393     682.603E-03     205.119E-03    -59.9029E-03    -145.216E-03    -67.4510E-03     127.354E-03    -59.9029E-03     287.124E-03     126.695E+06     107.310E+06    -15.5741E+06    -15.4890E+06     126.610E+06     107.310E+06    -88.0575E+03         63.3439
             276     14.1400E-03     60.9359E-03         7.07434    -950.333E-03        -2.15254        -2.10499         7.02679    -950.333E-03         1.31529     144.347E-03    -59.7427E-03    -84.6041E-03    -60.5001E-03     120.243E-03    -59.7427E-03     133.746E-03     111.474E+06     69.8391E+06    -23.0877E+06    -23.0603E+06     111.447E+06     69.8391E+06    -823.811E+03         55.7320
             277     13.1944E-03     60.8527E-03         6.81366    -872.877E-03        -1.97436        -1.90785         6.74715    -872.877E-03         1.51531     123.769E-03    -59.5319E-03    -64.2374E-03    -58.1828E-03     117.715E-03    -59.5319E-03     65.4335E-03     104.378E+06     32.3619E+06    -29.3013E+06    -29.2751E+06     104.352E+06     32.3619E+06    -597.038E+03         48.5227
             278     12.2510E-03     60.7947E-03         6.54957    -799.670E-03        -1.79078        -1.71456         6.47335    -799.670E-03         1.58700     120.219E-03    -59.1517E-03    -61.0673E-03    -58.1629E-03     117.519E-03    -59.3565E-03     42.3737E-03     96.6396E+06    -795.239E+03    -31.6250E+06    -31.5895E+06     96.6040E+06    -795.239E+03     460.784E+03         42.7855
             279     11.3114E-03     60.7593E-03         6.25215    -730.550E-03        -1.56928        -1.52799         6.21086    -730.550E-03         1.02050     118.116E-03    -58.5445E-03    -59.5713E-03    -57.7608E-03     117.169E-03    -59.4078E-03     25.1506E-03     49.9605E+06    -9.72170E+06    -30.6079E+06    -30.5199E+06     49.8725E+06    -9.72170E+06     1.69464E+06         38.7291
             280     10.3654E-03     60.7425E-03         5.97096    -665.823E-03        -1.35877        -1.34822         5.96040    -665.823E-03     550.375E-03     118.397E-03    -58.7081E-03    -59.6890E-03    -58.2754E-03     117.871E-03    -59.5958E-03     19.1814E-03    -711.552E+03    -18.8014E+06    -38.6115E+06    -33.6234E+06    -18.6316E+06    -5.86943E+06     3.07943E+06         36.0311
             281     9.42235E-03     60.7208E-03         5.75051    -605.551E-03        -1.20355        -1.18308         5.73005    -605.551E-03    -132.399E-03     118.990E-03    -59.2110E-03    -59.7792E-03    -58.9403E-03     118.626E-03    -59.6860E-03     15.7660E-03    -12.5842E+06    -39.1313E+06    -70.2654E+06    -40.3172E+06    -69.0795E+06    -12.5842E+06     1.99132E+06         34.2427
             282     8.48072E-03     60.7081E-03         5.54544    -549.194E-03        -1.05742        -1.03859         5.52662    -549.194E-03    -682.923E-03     119.010E-03    -59.2537E-03    -59.7560E-03    -59.0988E-03     118.855E-03    -59.7560E-03     10.1566E-03    -17.8918E+06    -44.1368E+06    -114.161E+06    -44.2257E+06    -114.072E+06    -17.8918E+06    -1.12413E+06         33.0079
             283     7.53769E-03     60.7001E-03         5.33232    -497.079E-03    -900.390E-03    -892.722E-03         5.32465    -497.079E-03    -432.920E-03     119.199E-03    -59.3666E-03    -59.8329E-03    -59.2971E-03     119.130E-03    -59.8329E-03     6.98797E-03    -17.9664E+06    -44.3351E+06    -148.875E+06    -44.4979E+06    -148.712E+06    -17.9664E+06     906.477E+03         32.1080
             284     6.59535E-03     60.6931E-03         5.31922    -450.347E-03    -940.134E-03    -756.567E-03         5.13565    -450.347E-03        -1.67087     119.342E-03    -59.4307E-03    -59.9115E-03    -59.3932E-03     119.305E-03    -59.9115E-03     4.93771E-03    -17.5987E+06    -45.3171E+06    -181.227E+06    -45.4144E+06    -181.130E+06    -17.5987E+06     3.24808E+06         31.4242
             285     5.65337E-03     60.6892E-03         5.20497    -410.184E-03    -870.175E-03    -628.736E-03         4.96353    -410.184E-03        -2.30604     119.475E-03    -59.5176E-03    -59.9573E-03    -59.5058E-03     119.463E-03    -59.9573E-03     2.80621E-03    -23.8950E+06    -49.9062E+06    -208.371E+06    -49.9279E+06    -208.349E+06    -23.8950E+06     1.44031E+06         30.8938
             286     4.71063E-03     60.6883E-03         5.24562    -374.916E-03    -945.458E-03    -545.091E-03         4.84525    -374.916E-03        -2.84238     119.576E-03    -59.6033E-03    -59.9729E-03    -59.5990E-03     119.572E-03    -59.9729E-03     1.56143E-03    -32.9343E+06    -55.0067E+06    -223.320E+06    -55.0137E+06    -223.313E+06    -32.9343E+06     404.781E+03         30.4821
             287     3.76778E-03     60.6862E-03         5.09130    -343.420E-03    -820.042E-03    -459.080E-03         4.73033    -343.420E-03        -1.58043     119.679E-03    -59.6794E-03    -59.9997E-03    -59.6975E-03     119.678E-03    -59.9804E-03     492.120E-06    -43.2473E+06    -60.3830E+06    -236.546E+06    -60.3927E+06    -236.536E+06    -43.2473E+06     340.823E+03         30.1685
             288     2.82700E-03     60.6870E-03         5.40071    -314.550E-03        -1.14696    -400.996E-03         4.65475    -314.550E-03        -2.62938     119.845E-03    -59.8330E-03    -60.0125E-03    -59.8856E-03     119.845E-03    -59.9599E-03    -22.4291E-06    -53.8254E+06    -65.0864E+06    -246.393E+06    -65.0982E+06    -246.381E+06    -53.8254E+06     719.996E+03         29.9388
             289     1.88357E-03     60.6870E-03         6.14830    -305.266E-03        -1.90709    -284.771E-03         4.52598    -305.266E-03     293.206E-03     119.846E-03    -59.8257E-03    -60.0200E-03    -59.9568E-03     119.846E-03    -59.8888E-03     83.9159E-06    -63.1274E+06    -68.2224E+06    -249.830E+06    -68.2296E+06    -249.823E+06    -63.1274E+06     675.968E+03         29.7819
             290     942.391E-06     60.6880E-03         7.66331         1.04700        -4.76687        -1.66853         4.56496         1.04700        -3.99046     119.659E-03    -59.4628E-03    -60.1966E-03    -60.0079E-03     119.659E-03    -59.6511E-03    -205.907E-06    -67.4313E+06    -71.2122E+06    -250.061E+06    -70.2700E+06    -250.021E+06    -68.4135E+06    -1.04567E+06         29.6886
             291     16.0264E-03     60.4812E-03         7.72979        -1.10981        -2.58279        -2.57494         7.72193        -1.10981     486.634E-03     208.593E-03    -59.9736E-03    -148.619E-03    -66.9608E-03     126.934E-03    -59.9736E-03     297.434E-03     143.441E+06     127.989E+06    -8.23618E+06    -8.20483E+06     143.409E+06     127.989E+06    -243.750E+03         69.4974
             292     15.0818E-03     60.0227E-03         7.43139        -1.02674        -2.37431        -2.35256         7.40964        -1.02674     727.711E-03     207.319E-03    -59.9343E-03    -147.384E-03    -68.9933E-03     128.928E-03    -59.9343E-03     290.316E-03     126.739E+06     107.698E+06    -16.8843E+06    -16.8422E+06     126.697E+06     107.698E+06    -562.492E+03         63.3041
             293     14.1404E-03     59.8134E-03         7.17266    -947.497E-03        -2.19342        -2.14162         7.12087    -947.497E-03         1.38203     144.557E-03    -59.7336E-03    -84.8237E-03    -60.8185E-03     120.552E-03    -59.7336E-03     133.589E-03     111.714E+06     71.2333E+06    -24.6786E+06    -24.6643E+06     111.700E+06     71.2333E+06    -144.880E+03         55.7446
             294     13.1962E-03     59.7267E-03         6.90939    -870.879E-03        -2.00828        -1.93842         6.83953    -870.879E-03         1.56765     123.392E-03    -59.5027E-03    -63.8897E-03    -57.9795E-03     117.482E-03    -59.5027E-03     64.4875E-03     103.782E+06     31.3364E+06    -29.0638E+06    -29.0492E+06     103.767E+06     31.3364E+06    -930.682E+03         48.5656
             295     12.2554E-03     59.6663E-03         6.63588    -797.414E-03        -1.81355        -1.73417         6.55649    -797.414E-03         1.63002     119.332E-03    -58.8855E-03    -60.4466E-03    -57.3769E-03     116.738E-03    -59.3608E-03     41.5160E-03     95.6498E+06    -2.45915E+06    -31.3737E+06    -31.3601E+06     95.6363E+06    -2.45915E+06    -793.632E+03         42.8338
             296     11.3070E-03     59.6381E-03         6.32570    -728.123E-03        -1.57998        -1.53582         6.28153    -728.123E-03         1.05833     118.176E-03    -58.6196E-03    -59.5569E-03    -57.7512E-03     117.205E-03    -59.4543E-03     25.5440E-03     48.1242E+06    -11.0533E+06    -35.0876E+06    -35.0186E+06     48.0551E+06    -11.0533E+06     1.21199E+06         38.7701
             297     10.3651E-03     59.6139E-03         6.04734    -663.051E-03        -1.37257        -1.36018         6.03495    -663.051E-03     596.011E-03     118.980E-03    -59.1667E-03    -59.8135E-03    -58.8508E-03     118.469E-03    -59.6177E-03     18.9819E-03    -394.974E+03    -19.3619E+06    -41.7615E+06    -36.7822E+06    -18.5329E+06    -6.20322E+06     2.40377E+06         36.0625
             298     9.42427E-03     59.5955E-03         5.83006    -601.762E-03        -1.22064        -1.19829         5.80771    -601.762E-03    -96.3307E-03     119.053E-03    -59.2834E-03    -59.7695E-03    -59.0557E-03     118.732E-03    -59.6763E-03     14.8775E-03    -9.19393E+06    -33.8766E+06    -66.2423E+06    -35.2646E+06    -64.8543E+06    -9.19393E+06     1.57171E+06         34.2652
             299     8.48003E-03     59.5820E-03         5.60314    -544.884E-03        -1.05215        -1.03463         5.58562    -544.884E-03    -646.638E-03     119.040E-03    -59.3002E-03    -59.7398E-03    -59.1518E-03     118.892E-03    -59.7398E-03     10.0575E-03    -14.7340E+06    -38.1175E+06    -113.361E+06    -38.4319E+06    -113.046E+06    -14.7340E+06     1.41307E+06         33.0235
             300     7.53850E-03     59.5737E-03         5.37494    -494.318E-03    -877.682E-03    -869.811E-03         5.36707    -494.318E-03    -438.103E-03     119.236E-03    -59.4484E-03    -59.7876E-03    -59.3808E-03     119.168E-03    -59.7876E-03     6.86635E-03    -21.2804E+06    -46.0838E+06    -150.401E+06    -46.4300E+06    -150.055E+06    -21.2804E+06     1.00311E+06         32.1189
             301     6.59608E-03     59.5674E-03         5.35070    -450.215E-03    -904.693E-03    -740.240E-03         5.18625    -450.215E-03        -1.63086     119.136E-03    -59.2730E-03    -59.8625E-03    -59.2397E-03     119.102E-03    -59.8625E-03     4.77277E-03    -21.7105E+06    -49.7799E+06    -180.524E+06    -49.8345E+06    -180.469E+06    -21.7105E+06     120.749E+03         31.4318
             302     5.65247E-03     59.5638E-03         5.26839    -411.312E-03    -868.935E-03    -630.207E-03         5.02966    -411.312E-03        -2.34243     119.371E-03    -59.4329E-03    -59.9377E-03    -59.4199E-03     119.358E-03    -59.9377E-03     2.93660E-03    -23.4963E+06    -50.7792E+06    -207.021E+06    -50.8037E+06    -206.997E+06    -23.4963E+06     943.242E+03         30.8991
             303     4.71094E-03     59.5611E-03         5.26526    -375.918E-03    -905.696E-03    -547.779E-03         4.90734    -375.918E-03        -2.76358     119.691E-03    -59.7544E-03    -59.9364E-03    -59.7509E-03     119.687E-03    -59.9364E-03     1.35357E-03    -32.8763E+06    -54.7748E+06    -222.332E+06    -54.7883E+06    -222.319E+06    -32.8763E+06     1.09757E+06         30.4861
             304     3.76941E-03     59.5613E-03         5.05470    -345.050E-03    -723.649E-03    -437.431E-03         4.77093    -347.505E-03        -1.72048     119.581E-03    -59.6582E-03    -59.9229E-03    -59.6578E-03     119.581E-03    -59.9229E-03     434.878E-06    -43.5668E+06    -59.8893E+06    -236.707E+06    -59.9039E+06    -236.692E+06    -43.5668E+06     1.19161E+06         30.1715
             305     2.82540E-03     59.5601E-03         5.24039    -323.005E-03    -915.794E-03    -390.279E-03         4.71733    -325.460E-03        -2.43202     119.592E-03    -59.6552E-03    -59.9369E-03    -59.6550E-03     119.592E-03    -59.9369E-03    -48.6568E-06    -53.4376E+06    -63.5400E+06    -245.276E+06    -63.5492E+06    -245.267E+06    -53.4376E+06     949.989E+03         29.9413
             306     1.88462E-03     59.5615E-03         5.64279    -322.983E-03        -1.32547    -289.642E-03         4.60696    -322.983E-03    -153.920E-03     119.765E-03    -59.7978E-03    -59.9667E-03    -59.7976E-03     119.764E-03    -59.9667E-03    -286.610E-06    -61.6830E+06    -66.9018E+06    -248.686E+06    -66.9050E+06    -248.683E+06    -61.6830E+06     573.906E+03         29.7845
             307     941.530E-06     59.5609E-03         6.44415     740.181E-03        -3.18071        -1.40326         4.66670     740.181E-03        -2.60244     119.926E-03    -59.6045E-03    -60.3217E-03    -60.0520E-03     119.926E-03    -59.8741E-03    -168.015E-06    -67.5234E+06    -70.3559E+06    -249.284E+06    -69.4230E+06    -249.234E+06    -68.5056E+06    -138.446E+03         29.6913
             308     16.0228E-03     59.3465E-03         7.80983        -1.12592        -2.61168        -2.60387         7.80203        -1.12592     495.217E-03     208.041E-03    -59.9966E-03    -148.045E-03    -66.9603E-03     126.957E-03    -59.9966E-03     296.866E-03     143.775E+06     126.868E+06    -7.88316E+06    -7.87300E+06     143.765E+06     126.868E+06    -136.564E+03         69.3943
             309     15.0833E-03     58.8993E-03         7.54925        -1.05049        -2.42291        -2.40120         7.52754        -1.05049     742.985E-03     205.469E-03    -59.9237E-03    -145.545E-03    -69.0354E-03     128.959E-03    -59.9237E-03     286.413E-03     127.185E+06     106.720E+06    -15.5310E+06    -15.4971E+06     127.151E+06     106.720E+06     540.972E+03         63.2503
             310     14.1377E-03     58.6835E-03         7.30845    -975.782E-03        -2.25120        -2.19975         7.25699    -975.782E-03         1.39151     144.458E-03    -59.7156E-03    -84.7428E-03    -60.5549E-03     120.271E-03    -59.7156E-03     133.354E-03     112.783E+06     70.7170E+06    -23.2687E+06    -23.2302E+06     112.744E+06     70.7170E+06    -124.436E+03         55.7465
             311     13.1990E-03     58.5998E-03         7.03910    -900.293E-03        -2.05510        -1.98755         6.97155    -900.293E-03         1.55769     122.947E-03    -59.5230E-03    -63.4245E-03    -57.4778E-03     117.001E-03    -59.5230E-03     64.9561E-03     104.459E+06     31.8072E+06    -28.5019E+06    -28.4852E+06     104.442E+06     31.8072E+06    -262.409E+03         48.6020
             312     12.2496E-03     58.5458E-03         6.76274    -827.092E-03        -1.85333        -1.77744         6.68684    -827.092E-03         1.60904     119.745E-03    -59.1335E-03    -60.6112E-03    -57.5194E-03     116.923E-03    -59.4040E-03     42.9604E-03     95.0979E+06    -1.84058E+06    -33.4254E+06    -33.4102E+06     95.0827E+06    -1.84058E+06     905.985E+03         42.8815
             313     11.3092E-03     58.5095E-03         6.45143    -757.880E-03        -1.61722        -1.57537         6.40957    -757.880E-03         1.02390     119.089E-03    -59.0216E-03    -60.0678E-03    -58.7322E-03     118.170E-03    -59.4374E-03     24.8634E-03     48.6393E+06    -12.6343E+06    -35.8269E+06    -35.6177E+06     48.4300E+06    -12.6343E+06     58.5935E+03         38.8134
             314     10.3673E-03     58.4883E-03         6.16952    -692.913E-03        -1.40583        -1.39330         6.15698    -692.913E-03     593.397E-03     118.804E-03    -59.1627E-03    -59.6409E-03    -58.7911E-03     118.329E-03    -59.5383E-03     18.3402E-03    -2.30702E+06    -20.2705E+06    -38.8287E+06    -33.8113E+06    -17.0300E+06    -10.5649E+06    -2.05632E+06         36.0942
             315     9.42255E-03     58.4691E-03         5.95176    -632.117E-03        -1.25117        -1.22562         5.92621    -632.117E-03    -106.719E-03     118.867E-03    -59.2463E-03    -59.6203E-03    -58.9295E-03     118.550E-03    -59.6203E-03     14.6869E-03    -12.5300E+06    -35.0982E+06    -68.7589E+06    -35.9006E+06    -67.9565E+06    -12.5300E+06     955.743E+03         34.2854
             316     8.48154E-03     58.4565E-03         5.72176    -576.220E-03        -1.07655        -1.05805         5.70325    -576.220E-03    -646.036E-03     118.936E-03    -59.2226E-03    -59.7133E-03    -59.0802E-03     118.794E-03    -59.7133E-03     9.88649E-03    -12.9884E+06    -39.8574E+06    -113.700E+06    -40.4478E+06    -113.110E+06    -12.9884E+06     5.04313E+06         33.0365
             317     7.53821E-03     58.4470E-03         5.50131    -526.543E-03    -909.465E-03    -899.092E-03         5.49094    -526.543E-03    -485.350E-03     118.966E-03    -59.1903E-03    -59.7753E-03    -59.1189E-03     118.894E-03    -59.7753E-03     7.05170E-03    -16.7390E+06    -42.4098E+06    -145.169E+06    -42.6589E+06    -144.920E+06    -16.7390E+06     1.85968E+06         32.1277
             318     6.59564E-03     58.4423E-03         5.45981    -482.742E-03    -920.791E-03    -773.518E-03         5.31254    -482.742E-03        -1.63240     119.377E-03    -59.4249E-03    -59.9517E-03    -59.5066E-03     119.342E-03    -59.8350E-03     4.86126E-03    -20.9326E+06    -46.6286E+06    -180.766E+06    -46.6564E+06    -180.738E+06    -20.9326E+06    -969.425E+03         31.4381
             319     5.65397E-03     58.4376E-03         5.39196    -444.393E-03    -901.080E-03    -657.347E-03         5.14823    -444.393E-03        -2.42154     119.398E-03    -59.4173E-03    -59.9804E-03    -59.5223E-03     119.386E-03    -59.8637E-03     2.72162E-03    -26.4359E+06    -51.8790E+06    -207.403E+06    -51.8941E+06    -207.388E+06    -26.4359E+06    -192.393E+03         30.9035
             320     4.71094E-03     58.4352E-03         5.34471    -409.944E-03    -895.430E-03    -577.891E-03         5.02717    -409.944E-03        -2.69694     119.314E-03    -59.4341E-03    -59.8798E-03    -59.4313E-03     119.311E-03    -59.8798E-03     1.37944E-03    -34.7177E+06    -55.2964E+06    -222.034E+06    -55.3117E+06    -222.018E+06    -34.7177E+06     865.313E+03         30.4887
             321     3.76826E-03     58.4348E-03         5.11933    -379.321E-03    -700.977E-03    -473.057E-03         4.89387    -381.776E-03        -1.89225     119.585E-03    -59.6309E-03    -59.9538E-03    -59.6829E-03     119.584E-03    -59.9011E-03     601.741E-06    -42.1607E+06    -58.3542E+06    -235.975E+06    -58.3674E+06    -235.962E+06    -42.1607E+06     1.50774E+06         30.1729
             322     2.82738E-03     58.4352E-03         5.17002    -355.850E-03    -755.489E-03    -430.689E-03         4.84768    -358.305E-03        -2.20414     119.591E-03    -59.6427E-03    -59.9480E-03    -59.6951E-03     119.590E-03    -59.8952E-03     68.5210E-06    -51.9315E+06    -62.9844E+06    -243.655E+06    -63.0047E+06    -243.634E+06    -51.9315E+06     1.51011E+06         29.9418
             323     1.88364E-03     58.4344E-03         5.20758    -312.802E-03    -842.549E-03    -318.524E-03         4.72622    -355.469E-03    -728.788E-03     119.575E-03    -59.6320E-03    -59.9428E-03    -59.6316E-03     119.574E-03    -59.9428E-03    -194.245E-06    -61.0085E+06    -67.1963E+06    -248.187E+06    -67.2138E+06    -248.169E+06    -61.0085E+06     792.441E+03         29.7842
             324     942.369E-06     58.4360E-03         5.35654     480.085E-03        -1.77084        -1.16649         4.79486     437.417E-03    -975.098E-03     119.940E-03    -59.7120E-03    -60.2275E-03    -59.8860E-03     119.939E-03    -60.0525E-03     262.958E-06    -67.5552E+06    -70.0084E+06    -248.506E+06    -69.9073E+06    -248.467E+06    -67.6948E+06     1.65966E+06         29.6910
             325     16.0298E-03     58.2124E-03         7.91259        -1.16856        -2.64577        -2.63811         7.90493        -1.16856     483.835E-03     208.277E-03    -59.8411E-03    -148.435E-03    -67.4363E-03     127.277E-03    -59.8411E-03     296.396E-03     143.376E+06     125.992E+06    -7.89082E+06    -7.86108E+06     143.346E+06     125.992E+06     190.450E+03         69.2908
             326     15.0851E-03     57.7809E-03         7.68689        -1.10037        -2.47454        -2.45501         7.66736        -1.10037     704.576E-03     204.154E-03    -59.7787E-03    -144.375E-03    -67.5083E-03     127.287E-03    -59.7787E-03     285.312E-03     124.900E+06     104.267E+06    -16.3361E+06    -16.3123E+06     124.876E+06     104.267E+06     393.567E+03         63.2045
             327     14.1421E-03     57.5525E-03         7.46575        -1.03005        -2.31014        -2.26407         7.41968        -1.03005         1.33142     142.719E-03    -59.6540E-03    -83.0654E-03    -58.9871E-03     118.641E-03    -59.6540E-03     132.220E-03     113.643E+06     69.2504E+06    -21.6528E+06    -21.6142E+06     113.604E+06     69.2504E+06     652.080E+03         55.7513
             328     13.1921E-03     57.4807E-03         7.20235    -956.048E-03        -2.11236        -2.05346         7.14345    -956.048E-03         1.47230     122.395E-03    -59.5284E-03    -62.8667E-03    -57.1497E-03     116.678E-03    -59.5284E-03     63.1649E-03     104.958E+06     30.9539E+06    -29.0825E+06    -29.0601E+06     104.935E+06     30.9539E+06     177.029E+03         48.6405
             329     12.2524E-03     57.4155E-03         6.92342    -883.554E-03        -1.90687        -1.83999         6.85654    -883.554E-03         1.52839     120.662E-03    -59.0811E-03    -61.5807E-03    -58.7020E-03     118.081E-03    -59.3793E-03     41.2927E-03     96.6063E+06    -475.191E+03    -33.2322E+06    -33.1930E+06     96.5672E+06    -475.191E+03    -17.8899E+03         42.9318
             330     11.3106E-03     57.3831E-03         6.61656    -814.834E-03        -1.67216        -1.63533         6.57973    -814.834E-03     943.143E-03     118.664E-03    -58.7857E-03    -59.8782E-03    -58.4475E-03     117.798E-03    -59.3504E-03     24.3008E-03     52.4843E+06    -14.0058E+06    -32.5717E+06    -32.3212E+06     52.2338E+06    -14.0058E+06    -2.38495E+06         38.8565
             331     10.3663E-03     57.3634E-03         6.33165    -750.549E-03        -1.45561        -1.44439         6.32043    -750.549E-03     547.468E-03     118.493E-03    -59.0101E-03    -59.4833E-03    -58.5137E-03     117.997E-03    -59.4833E-03     18.7288E-03    -853.348E+03    -25.9278E+06    -43.3940E+06    -36.3550E+06    -20.4813E+06    -13.3389E+06    -1.01266E+06         36.1223
             332     9.42490E-03     57.3429E-03         6.11165    -691.321E-03        -1.29787        -1.26761         6.08139    -691.321E-03    -172.656E-03     118.689E-03    -59.0945E-03    -59.5944E-03    -58.7613E-03     118.356E-03    -59.5944E-03     15.0629E-03    -14.5006E+06    -40.4763E+06    -75.1621E+06    -41.9165E+06    -73.7219E+06    -14.5006E+06     3.56851E+06         34.3022
             333     8.48124E-03     57.3303E-03         5.89276    -636.992E-03        -1.13417        -1.11150         5.87010    -636.992E-03    -700.197E-03     118.771E-03    -59.1001E-03    -59.6709E-03    -58.9486E-03     118.619E-03    -59.6709E-03     10.1381E-03    -16.4175E+06    -42.3910E+06    -109.737E+06    -42.7653E+06    -109.363E+06    -16.4175E+06     2.39051E+06         33.0470
             334     7.53838E-03     57.3228E-03         5.68646    -587.563E-03    -981.011E-03    -965.930E-03         5.67138    -587.563E-03    -566.889E-03     119.024E-03    -59.2920E-03    -59.7322E-03    -59.2204E-03     118.953E-03    -59.7322E-03     7.05453E-03    -19.1541E+06    -43.0144E+06    -141.039E+06    -43.0266E+06    -141.027E+06    -19.1541E+06     118.877E+03         32.1349
             335     6.59580E-03     57.3147E-03         5.61783    -543.610E-03    -965.571E-03    -833.674E-03         5.48593    -543.610E-03        -1.64661     119.269E-03    -59.3585E-03    -59.9104E-03    -59.4414E-03     119.235E-03    -59.7937E-03     4.76541E-03    -22.9175E+06    -46.4950E+06    -180.612E+06    -46.5013E+06    -180.606E+06    -22.9175E+06     746.180E+03         31.4435
             336     5.65417E-03     57.3117E-03         5.56174    -506.231E-03    -959.615E-03    -709.290E-03         5.31141    -506.231E-03        -2.50168     119.303E-03    -59.3562E-03    -59.9468E-03    -59.4589E-03     119.289E-03    -59.8301E-03     3.05399E-03    -27.8217E+06    -50.8947E+06    -206.844E+06    -50.9057E+06    -206.833E+06    -27.8217E+06     547.701E+03         30.9075
             337     4.71142E-03     57.3107E-03         5.48533    -472.854E-03    -922.734E-03    -638.833E-03         5.20143    -472.854E-03        -2.62760     119.301E-03    -59.4467E-03    -59.8545E-03    -59.4408E-03     119.295E-03    -59.8545E-03     1.81688E-03    -35.1711E+06    -55.2104E+06    -222.277E+06    -55.2219E+06    -222.266E+06    -35.1711E+06     477.080E+03         30.4914
             338     3.76882E-03     57.3082E-03         5.28778    -442.744E-03    -753.614E-03    -551.378E-03         5.08554    -442.744E-03        -2.08052     119.438E-03    -59.4957E-03    -59.9424E-03    -59.5476E-03     119.437E-03    -59.8897E-03     630.403E-06    -42.5488E+06    -59.1879E+06    -236.340E+06    -59.1954E+06    -236.333E+06    -42.5488E+06     1.00271E+06         30.1745
             339     2.82596E-03     57.3090E-03         5.21572    -413.314E-03    -694.864E-03    -508.503E-03         5.02936    -413.314E-03        -1.94380     119.638E-03    -59.6036E-03    -60.0348E-03    -59.7491E-03     119.638E-03    -59.8891E-03     180.279E-06    -51.5395E+06    -63.1735E+06    -242.560E+06    -63.1931E+06    -242.541E+06    -51.5395E+06     1.56011E+06         29.9425
             340     1.88475E-03     57.3093E-03         5.05779    -336.010E-03    -617.697E-03    -376.489E-03         4.88500    -404.425E-03        -1.29270     119.651E-03    -59.6703E-03    -59.9805E-03    -59.7750E-03     119.650E-03    -59.8752E-03    -240.710E-06    -59.5631E+06    -66.8687E+06    -246.454E+06    -66.8887E+06    -246.434E+06    -59.5631E+06     1.06929E+06         29.7841
             341     941.271E-06     57.3090E-03         5.16865     222.048E-03        -1.27302    -976.882E-03         4.94092     153.633E-03     755.185E-03     119.688E-03    -59.6189E-03    -60.0695E-03    -59.9594E-03     119.686E-03    -59.7262E-03     586.081E-06    -66.5117E+06    -70.1833E+06    -247.425E+06    -70.0770E+06    -247.391E+06    -66.6512E+06     918.799E+03         29.6901
             342     16.0347E-03     57.1112E-03         8.04292        -1.23208        -2.68697        -2.67980         8.03575        -1.23208     436.597E-03     208.843E-03    -59.7057E-03    -149.138E-03    -68.6363E-03     128.342E-03    -59.7057E-03     294.833E-03     143.683E+06     127.141E+06    -6.07268E+06    -6.01692E+06     143.627E+06     127.141E+06     1.46635E+06         69.1877
             343     15.0861E-03     56.6393E-03         7.84845        -1.17009        -2.52641        -2.51077         7.83280        -1.17009     605.368E-03     205.472E-03    -59.6866E-03    -145.786E-03    -66.4120E-03     126.099E-03    -59.6866E-03     289.850E-03     125.328E+06     105.095E+06    -14.1117E+06    -14.0816E+06     125.297E+06     105.095E+06     586.303E+03         63.1574
             344     14.1417E-03     56.4427E-03         7.63541        -1.10450        -2.35849        -2.32051         7.59743        -1.10450         1.22073     142.905E-03    -59.6288E-03    -83.2765E-03    -58.9658E-03     118.595E-03    -59.6288E-03     133.572E-03     113.242E+06     70.2626E+06    -22.9412E+06    -22.9190E+06     113.220E+06     70.2626E+06     891.186E+03         55.7577
             345     13.1975E-03     56.3472E-03         7.38272        -1.03344        -2.16691        -2.11875         7.33456        -1.03344         1.34887     123.726E-03    -59.4470E-03    -64.2793E-03    -58.1996E-03     117.647E-03    -59.4470E-03     65.0747E-03     106.529E+06     30.5622E+06    -27.8975E+06    -27.8759E+06     106.507E+06     30.5622E+06     1.23269E+06         48.6846
             346     12.2562E-03     56.2912E-03         7.11522    -962.775E-03        -1.96780        -1.91186         7.05928    -962.775E-03         1.41660     119.835E-03    -58.9652E-03    -60.8696E-03    -58.0771E-03     117.341E-03    -59.2634E-03     41.0374E-03     98.3328E+06    -3.68341E+06    -30.0748E+06    -30.0490E+06     98.3069E+06    -3.68341E+06     -850.75E+03         42.9834
             347     11.3094E-03     56.2587E-03         6.81251    -895.369E-03        -1.73709        -1.70608         6.78150    -895.369E-03     832.370E-03     117.998E-03    -58.6548E-03    -59.3432E-03    -57.7315E-03     117.044E-03    -59.3124E-03     25.1414E-03     52.2596E+06    -14.0902E+06    -35.6503E+06    -35.3309E+06     51.9401E+06    -14.0902E+06     37.2667E+03         38.8957
             348     10.3676E-03     56.2364E-03         6.53310    -832.328E-03        -1.52635        -1.51746         6.52420    -832.328E-03     460.858E-03     118.318E-03    -58.8285E-03    -59.4891E-03    -58.3182E-03     117.807E-03    -59.4891E-03     18.9740E-03    -2.46351E+06    -26.0080E+06    -49.7807E+06    -41.1204E+06    -23.8198E+06    -13.3121E+06     2.48162E+06         36.1471
             349     9.42356E-03     56.2182E-03         6.32466    -774.078E-03        -1.38055        -1.34592         6.29003    -774.078E-03    -272.863E-03     118.659E-03    -59.0352E-03    -59.6234E-03    -58.7133E-03     118.296E-03    -59.5824E-03     15.7379E-03    -17.2464E+06    -40.5568E+06    -73.9105E+06    -41.4831E+06    -72.9842E+06    -17.2464E+06     953.938E+03         34.3171
             350     8.48069E-03     56.2047E-03         6.10042    -720.808E-03        -1.21336        -1.18534         6.07240    -720.808E-03    -776.548E-03     119.017E-03    -59.3330E-03    -59.6835E-03    -59.2162E-03     118.859E-03    -59.6425E-03     10.3039E-03    -18.4570E+06    -40.4610E+06    -105.142E+06    -40.5400E+06    -105.063E+06    -18.4570E+06    -1.32564E+06         33.0564
             351     7.53907E-03     56.1957E-03         5.88567    -673.374E-03        -1.05313        -1.03177         5.86431    -673.374E-03    -662.818E-03     119.082E-03    -59.3781E-03    -59.7044E-03    -59.3081E-03     119.012E-03    -59.7044E-03     7.01049E-03    -19.2918E+06     -43.261E+06    -142.592E+06    -43.2932E+06    -142.560E+06    -19.2918E+06     230.093E+03         32.1418
             352     6.59707E-03     56.1898E-03         5.80680    -631.993E-03        -1.02545    -905.192E-03         5.68654    -631.993E-03        -1.67181     118.914E-03    -59.1274E-03    -59.7866E-03    -59.0903E-03     118.877E-03    -59.7866E-03     4.98940E-03    -21.7916E+06    -46.8757E+06    -180.471E+06    -46.8968E+06    -180.450E+06    -21.7916E+06     1.43639E+06         31.4488
             353     5.65247E-03     56.1866E-03         5.79091    -595.951E-03        -1.05505    -798.444E-03         5.53431    -595.951E-03        -2.58139     119.161E-03    -59.3007E-03    -59.8598E-03    -59.2853E-03     119.145E-03    -59.8598E-03     3.16057E-03    -26.9451E+06    -50.8202E+06    -205.627E+06    -50.8276E+06    -205.620E+06    -26.9451E+06     920.761E+03         30.9120
             354     4.71109E-03     56.1832E-03         5.68691    -562.189E-03    -991.252E-03    -733.099E-03         5.42876    -562.189E-03        -2.55432     119.522E-03    -59.6389E-03    -59.8833E-03    -59.6322E-03     119.515E-03    -59.8833E-03     2.00327E-03    -35.0718E+06    -55.6862E+06    -222.739E+06    -55.6971E+06    -222.729E+06    -35.0718E+06     1.00597E+06         30.4954
             355     3.76912E-03     56.1840E-03         5.51218    -531.737E-03    -846.382E-03    -639.463E-03         5.30526    -531.737E-03        -2.24004     119.613E-03    -59.5967E-03    -60.0164E-03    -59.7450E-03     119.611E-03    -59.8663E-03     882.753E-06    -43.8519E+06    -59.9897E+06    -235.877E+06    -59.9986E+06    -235.868E+06    -43.8519E+06     976.580E+03         30.1776
             356     2.82645E-03     56.1823E-03         5.38344    -503.954E-03    -731.088E-03    -590.025E-03         5.24238    -503.954E-03        -1.69240     119.588E-03    -59.5152E-03    -60.0724E-03    -59.7576E-03     119.587E-03    -59.8295E-03    -210.671E-06    -52.1945E+06    -63.0730E+06    -241.643E+06    -63.0762E+06     -241.64E+06    -52.1945E+06     480.633E+03         29.9445
             357     1.88422E-03     56.1829E-03         5.30158    -468.085E-03    -690.041E-03    -476.868E-03         5.11416    -493.833E-03        -1.79999     119.623E-03    -59.6299E-03    -59.9927E-03    -59.8653E-03     119.622E-03    -59.7564E-03    -345.838E-06    -59.3386E+06    -66.3054E+06    -244.876E+06    -66.3108E+06    -244.871E+06    -59.3386E+06     700.243E+03         29.7852
             358     943.361E-06     56.1838E-03         6.11606    -117.141E-03        -1.85176    -853.524E-03         5.14357    -142.888E-03         2.36871     119.356E-03    -59.4229E-03    -59.9336E-03    -59.9315E-03     119.354E-03    -59.4229E-03     444.060E-06    -65.4007E+06    -69.3090E+06    -246.723E+06    -68.8882E+06    -246.709E+06    -65.8350E+06    -175.106E+03         29.6905
             359     16.0326E-03     55.9782E-03         8.21264        -1.31149        -2.72868        -2.72234         8.20630        -1.31149     366.333E-03     208.970E-03    -59.8100E-03    -149.160E-03    -68.6249E-03     128.435E-03    -59.8100E-03     295.835E-03     143.290E+06     126.704E+06    -8.06815E+06    -8.01211E+06     143.234E+06     126.704E+06    -397.301E+03         69.0780
             360     15.0870E-03     55.5278E-03         8.03551        -1.25602        -2.57416        -2.56187         8.02322        -1.25602     497.299E-03     206.566E-03    -59.7583E-03    -146.808E-03    -68.0100E-03     127.768E-03    -59.7583E-03     290.764E-03     127.928E+06     107.439E+06    -14.2971E+06    -14.2493E+06     127.880E+06     107.439E+06     1.51211E+06         63.1041
             361     14.1367E-03     55.3097E-03         7.82984        -1.19628        -2.40646        -2.37602         7.79940        -1.19628         1.10638     144.283E-03    -59.6233E-03    -84.6599E-03    -59.8328E-03     119.456E-03    -59.6233E-03     135.131E-03     114.283E+06     70.1893E+06    -22.5126E+06    -22.4772E+06     114.247E+06     70.1893E+06     1.06406E+06         55.7659
             362     13.1993E-03     55.2216E-03         7.58252        -1.12942        -2.21961        -2.18144         7.54436        -1.12942         1.21728     123.700E-03    -59.4224E-03    -64.2777E-03    -58.0784E-03     117.501E-03    -59.4224E-03     66.1878E-03     106.932E+06     29.9326E+06    -27.2483E+06    -27.2310E+06     106.915E+06     29.9326E+06     812.690E+03         48.7252
             363     12.2516E-03     55.1679E-03         7.32215        -1.06190        -2.02851        -1.98375         7.27740        -1.06190         1.28480     119.826E-03    -59.2551E-03    -60.5711E-03    -57.8510E-03     117.106E-03    -59.2551E-03     42.3666E-03     98.1464E+06    -4.70625E+06    -30.6449E+06    -30.5925E+06     98.0941E+06    -4.70625E+06     1.54724E+06         43.0307
             364     11.3113E-03     55.1314E-03         7.03838    -996.880E-03        -1.81466        -1.78976         7.01348    -996.880E-03     704.086E-03     118.346E-03    -58.6785E-03    -59.6672E-03    -58.1122E-03     117.424E-03    -59.3114E-03     24.7285E-03     50.5157E+06    -12.5501E+06    -34.5028E+06    -34.1896E+06     50.2025E+06    -12.5501E+06     3.40151E+06         38.9348
             365     10.3664E-03     55.1132E-03         6.77026    -935.559E-03        -1.61519        -1.60848         6.76355    -935.559E-03     362.479E-03     118.018E-03    -58.5342E-03    -59.4833E-03    -58.0366E-03     117.520E-03    -59.4833E-03     18.7128E-03    -3.20021E+06    -20.9801E+06    -43.9605E+06    -36.2818E+06    -21.9208E+06    -9.93809E+06     2.82683E+06         36.1738
             366     9.42341E-03     55.0914E-03         6.56558    -878.880E-03        -1.47542        -1.43801         6.52817    -878.880E-03    -366.773E-03     118.700E-03    -59.0903E-03    -59.6099E-03    -58.7729E-03     118.342E-03    -59.5689E-03     15.6031E-03    -17.4102E+06    -39.7266E+06    -68.7874E+06    -40.1102E+06    -68.4038E+06    -17.4102E+06    -363.113E+03         34.3334
             367     8.48208E-03     55.0784E-03         6.33681    -827.562E-03        -1.30628        -1.27394         6.30448    -827.562E-03    -843.894E-03     118.862E-03    -59.1788E-03    -59.6829E-03    -59.0593E-03     118.701E-03    -59.6419E-03     10.4961E-03    -20.0601E+06    -44.7931E+06    -105.379E+06    -44.8710E+06    -105.301E+06    -20.0601E+06    -1.79136E+06         33.0666
             368     7.53900E-03     55.0699E-03         6.12169    -782.773E-03        -1.14545        -1.11778         6.09402    -782.773E-03    -757.772E-03     118.882E-03    -59.1483E-03    -59.7334E-03    -59.0667E-03     118.800E-03    -59.7334E-03     7.51420E-03    -20.1299E+06    -46.5055E+06    -145.251E+06    -46.5805E+06    -145.176E+06    -20.1299E+06    -1.21904E+06         32.1490
             369     6.59500E-03     55.0650E-03         6.03982    -744.220E-03        -1.11241    -999.816E-03         5.92723    -744.220E-03        -1.70690     119.166E-03    -59.3515E-03    -59.8142E-03    -59.3114E-03     119.126E-03    -59.8142E-03     5.20367E-03    -21.8328E+06    -47.6241E+06    -180.786E+06    -47.6900E+06    -180.721E+06    -21.8328E+06     228.640E+03         31.4551
             370     5.65452E-03     55.0599E-03         6.05148    -710.225E-03        -1.16733    -904.361E-03         5.78851    -710.225E-03        -2.66105     119.317E-03    -59.4604E-03    -59.8569E-03    -59.4455E-03     119.302E-03    -59.8569E-03     3.09685E-03    -26.8995E+06    -50.8923E+06    -204.627E+06    -50.9070E+06    -204.612E+06    -26.8995E+06     1.27950E+06         30.9177
             371     4.71062E-03     55.0588E-03         5.92566    -678.829E-03        -1.07718    -833.760E-03         5.68224    -678.829E-03        -2.49621     119.460E-03    -59.5883E-03    -59.8718E-03    -59.5833E-03     119.455E-03    -59.8718E-03     1.56263E-03    -34.9177E+06    -55.6315E+06    -222.377E+06    -55.6461E+06    -222.362E+06    -34.9177E+06     1.18117E+06         30.5003
             372     3.76827E-03     55.0560E-03         5.79275    -652.191E-03    -971.619E-03    -742.530E-03         5.56366    -652.191E-03        -2.37908     119.675E-03    -59.6822E-03    -59.9926E-03    -59.8308E-03     119.673E-03    -59.8425E-03     695.115E-06    -43.9617E+06    -59.9933E+06    -234.891E+06    -60.0021E+06    -234.882E+06    -43.9617E+06     999.421E+03         30.1815
             373     2.82775E-03     55.0572E-03         5.67224    -629.290E-03    -866.242E-03    -699.132E-03         5.50513    -629.290E-03        -1.48763     119.588E-03    -59.5499E-03    -60.0385E-03    -59.8164E-03     119.588E-03    -59.7713E-03     40.9074E-06    -52.7401E+06    -63.1587E+06    -240.911E+06    -63.1615E+06    -240.908E+06    -52.7401E+06     354.555E+03         29.9474
             374     1.88455E-03     55.0576E-03         5.78525    -620.912E-03    -997.950E-03    -607.726E-03         5.39503    -620.912E-03        -2.26332     119.424E-03    -59.4704E-03    -59.9540E-03    -59.7179E-03     119.424E-03    -59.7058E-03     37.3982E-06    -59.3904E+06    -65.4439E+06    -244.002E+06    -65.4481E+06    -243.998E+06    -59.3904E+06    -60.9740E+03         29.7873
             375     941.810E-06     55.0564E-03         7.55618    -488.612E-03        -2.90099    -759.845E-03         5.41503    -488.612E-03         3.71704     119.308E-03    -59.2982E-03    -60.0100E-03    -59.9006E-03     119.308E-03    -59.4071E-03    -26.7765E-06    -65.6527E+06    -69.1856E+06    -246.167E+06    -67.7600E+06    -246.131E+06    -67.1144E+06     515.616E+03         29.6923
             376     16.0194E-03     54.8303E-03         8.41998        -1.40571        -2.77108        -2.76535         8.41425        -1.40571     311.174E-03     206.452E-03    -59.9091E-03    -146.543E-03    -67.4308E-03     127.340E-03    -59.9091E-03     292.211E-03     142.008E+06     125.580E+06    -8.72084E+06    -8.64161E+06     141.929E+06     125.580E+06    -1.19766E+06         68.9895
             377     15.0833E-03     54.4083E-03         8.24941        -1.35823        -2.61948        -2.60957         8.23950        -1.35823     410.756E-03     204.758E-03    -59.7936E-03    -144.965E-03    -69.1192E-03     128.913E-03    -59.7936E-03     284.840E-03     126.546E+06     106.373E+06    -16.8089E+06    -16.7571E+06     126.494E+06     106.373E+06    -564.929E+03         63.0714
             378     14.1456E-03     54.1788E-03         8.05256        -1.30529        -2.46425        -2.43989         8.02819        -1.30529         1.00306     143.911E-03    -59.5890E-03    -84.3223E-03    -59.7281E-03     119.317E-03    -59.5890E-03     134.847E-03     114.685E+06     70.1719E+06    -21.9447E+06    -21.9112E+06     114.652E+06     70.1719E+06     1.01805E+06         55.7884
             379     13.1945E-03     54.1029E-03         7.80762        -1.24320        -2.28299        -2.25314         7.77778        -1.24320         1.09298     122.745E-03    -59.4268E-03    -63.3180E-03    -57.1770E-03     116.604E-03    -59.4268E-03     65.4659E-03     105.279E+06     29.2452E+06    -28.6045E+06    -28.5756E+06     105.250E+06     29.2452E+06     1.28869E+06         48.7738
             380     12.2544E-03     54.0360E-03         7.54990        -1.17978        -2.09524        -2.05967         7.51433        -1.17978         1.16307     120.220E-03    -59.0129E-03    -61.2075E-03    -58.2635E-03     117.549E-03    -59.2856E-03     41.8738E-03     97.5984E+06    -3.18417E+06    -32.7721E+06    -32.7063E+06     97.5326E+06    -3.18417E+06     2.01689E+06         43.0828
             381     11.3108E-03     54.0088E-03         7.27966        -1.11857        -1.89407        -1.87374         7.25933        -1.11857     597.246E-03     118.411E-03    -58.6439E-03    -59.7670E-03    -58.2316E-03     117.543E-03    -59.3114E-03     24.2558E-03     49.9315E+06    -11.6872E+06    -32.9809E+06    -32.8585E+06     49.8092E+06    -11.6872E+06     2.30360E+06         38.9790
             382     10.3676E-03     53.9868E-03         7.02288        -1.06082        -1.70508        -1.69944         7.01723        -1.06082     289.448E-03     118.447E-03    -58.8505E-03    -59.5969E-03    -58.4674E-03     117.934E-03    -59.4663E-03     19.0538E-03    -470.579E+03    -19.9589E+06    -39.5278E+06    -33.9608E+06    -19.7279E+06    -6.26852E+06     3.13556E+06         36.2051
             383     9.42496E-03     53.9662E-03         6.82686        -1.00773        -1.57354        -1.53480         6.78811        -1.00773    -428.739E-03     118.322E-03    -58.7649E-03    -59.5569E-03    -58.4070E-03     117.964E-03    -59.5569E-03     15.5925E-03    -11.0696E+06    -36.2400E+06    -64.6515E+06    -36.9862E+06    -63.9052E+06    -11.0696E+06     1.78701E+06         34.3534
             384     8.48045E-03     53.9525E-03         6.61300    -959.474E-03        -1.41990        -1.38512         6.57822    -959.474E-03    -896.544E-03     118.389E-03    -58.7195E-03    -59.6700E-03    -58.5560E-03     118.226E-03    -59.6700E-03     10.5717E-03    -15.5860E+06    -39.8550E+06    -104.975E+06    -39.9119E+06    -104.918E+06    -15.5860E+06    -1.63625E+06         33.0788
             385     7.53731E-03     53.9452E-03         6.41394    -916.439E-03        -1.27712        -1.24529         6.38212    -916.439E-03    -833.138E-03     119.029E-03    -59.2461E-03    -59.7832E-03    -59.1679E-03     118.951E-03    -59.7832E-03     7.29729E-03    -17.8916E+06    -43.7440E+06    -147.122E+06    -43.8442E+06    -147.022E+06    -17.8916E+06    -2.28356E+06         32.1576
             386     6.59673E-03     53.9375E-03         6.31721    -879.280E-03        -1.22847        -1.12299         6.21173    -879.280E-03        -1.72538     119.367E-03    -59.5293E-03    -59.8378E-03    -59.4926E-03     119.330E-03    -59.8378E-03     5.03189E-03    -22.7344E+06    -48.6002E+06    -182.013E+06     -48.652E+06    -181.962E+06    -22.7344E+06    -294.199E+03         31.4621
             387     5.65268E-03     53.9353E-03         6.33138    -848.222E-03        -1.28296        -1.01851         6.06693    -848.222E-03        -2.71778     119.522E-03    -59.6385E-03    -59.8836E-03    -59.6592E-03     119.505E-03    -59.8462E-03     3.32077E-03    -28.3044E+06    -52.8201E+06    -204.051E+06    -52.8342E+06    -204.037E+06    -28.3044E+06     1.28175E+06         30.9237
             388     4.71197E-03     53.9314E-03         6.20126    -821.610E-03        -1.18367    -949.184E-03         5.96677    -821.610E-03        -2.45649     119.558E-03    -59.6937E-03    -59.8639E-03    -59.7244E-03     119.551E-03    -59.8266E-03     1.85408E-03    -35.0600E+06    -56.4659E+06    -220.908E+06    -56.4773E+06    -220.897E+06    -35.0600E+06     1.09326E+06         30.5051
             389     3.76986E-03     53.9317E-03         6.12776    -798.944E-03        -1.13403    -879.536E-03         5.87326    -798.944E-03        -2.50741     119.345E-03    -59.5300E-03    -59.8150E-03    -59.5275E-03     119.343E-03    -59.8150E-03     678.643E-06    -43.7011E+06    -60.6151E+06    -234.214E+06    -60.6198E+06    -234.210E+06    -43.7011E+06     671.459E+03         30.1850
             390     2.82540E-03     53.9303E-03         6.03590    -778.714E-03        -1.06044    -839.837E-03         5.81530    -778.714E-03        -1.35517     119.446E-03    -59.5197E-03    -59.9259E-03    -59.6366E-03     119.445E-03    -59.8087E-03     195.128E-06    -53.3956E+06    -63.8537E+06    -240.116E+06    -63.8570E+06    -240.113E+06    -53.3956E+06     104.732E+03         29.9502
             391     1.88506E-03     53.9319E-03         6.33008    -771.719E-03        -1.37194    -758.815E-03         5.71695    -771.719E-03        -2.63519     119.605E-03    -59.5741E-03    -60.0313E-03    -59.8420E-03     119.605E-03    -59.7632E-03     91.2747E-06    -60.0547E+06    -66.6152E+06    -243.711E+06    -66.6198E+06    -243.706E+06    -60.0547E+06    -214.696E+03         29.7898
             392     942.426E-06     53.9318E-03         8.90965    -861.123E-03        -3.86407    -688.675E-03         5.73426    -861.123E-03         4.76325     119.386E-03    -59.3554E-03    -60.0308E-03    -59.7664E-03     119.386E-03    -59.6196E-03    -165.837E-06    -64.7873E+06    -71.2199E+06    -245.760E+06    -70.2232E+06    -245.730E+06    -65.8148E+06     746.476E+03         29.6942
             393     16.0371E-03     53.7300E-03         8.66248        -1.51644        -2.82449        -2.81889         8.65688        -1.51644     276.954E-03     207.311E-03    -59.8495E-03    -147.462E-03    -68.1205E-03     127.970E-03    -59.8495E-03     292.808E-03     143.355E+06     126.828E+06    -6.95650E+06    -6.85529E+06     143.254E+06     126.828E+06    -126.748E+03         68.9398
             394     15.0871E-03     53.2644E-03         8.48936        -1.47782        -2.67590        -2.66756         8.48102        -1.47782     345.563E-03     204.653E-03    -59.7692E-03    -144.884E-03    -67.9878E-03     127.757E-03    -59.7692E-03     285.956E-03     125.394E+06     106.225E+06    -15.3794E+06    -15.3189E+06     125.333E+06     106.225E+06    -591.517E+03         63.0645
             395     14.1400E-03     53.0676E-03         8.29228        -1.43267        -2.52478        -2.50458         8.27208        -1.43267     927.752E-03     144.132E-03    -59.6138E-03    -84.5184E-03    -59.9048E-03     119.519E-03    -59.6138E-03     135.415E-03     113.159E+06     71.3281E+06    -23.1637E+06    -23.1336E+06     113.129E+06     71.3281E+06     885.260E+03         55.8207
             396     13.1981E-03     52.9691E-03         8.05280        -1.37679        -2.35196        -2.32704         8.02788        -1.37679         1.01618     123.511E-03    -59.4331E-03    -64.0774E-03    -57.6592E-03     117.092E-03    -59.4331E-03     67.0398E-03     106.177E+06     33.0332E+06    -28.0771E+06    -28.0179E+06     106.118E+06     33.0332E+06     2.80993E+06         48.8316
             397     12.2542E-03     52.9155E-03         7.80281        -1.31892        -2.17256        -2.14189         7.77214        -1.31892         1.09908     119.520E-03    -59.0233E-03    -60.4970E-03    -57.5504E-03     116.846E-03    -59.2960E-03     41.9767E-03     97.9915E+06    -988.685E+03    -32.5113E+06    -32.4774E+06     97.9576E+06    -988.685E+03     1.56533E+06         43.1418
             398     11.3090E-03     52.8805E-03         7.53846        -1.26310        -1.97743        -1.95946         7.52049        -1.26310     547.517E-03     118.330E-03    -58.8368E-03    -59.4934E-03    -58.0243E-03     117.383E-03    -59.3586E-03     25.3723E-03     49.0851E+06    -10.6324E+06    -35.1618E+06    -35.1087E+06     49.0321E+06    -10.6324E+06     833.724E+03         39.0255
             399     10.3680E-03     52.8615E-03         7.29579        -1.21083        -1.80011        -1.79502         7.29070        -1.21083     256.102E-03     118.785E-03    -59.1049E-03    -59.6801E-03    -58.7121E-03     118.204E-03    -59.4922E-03     20.2934E-03    -3.11319E+06    -19.0000E+06    -40.0246E+06    -34.4683E+06    -19.1626E+06    -8.50691E+06     806.965E+03         36.2385
             400     9.42437E-03     52.8408E-03         7.12310        -1.16257        -1.68937        -1.65068         7.08441        -1.16257    -464.675E-03     118.664E-03    -59.0148E-03    -59.6494E-03    -58.7113E-03     118.273E-03    -59.5616E-03     16.2317E-03    -10.8067E+06    -31.8769E+06    -61.3057E+06    -32.6139E+06    -60.5687E+06    -10.8067E+06    -80.6028E+03         34.3760
             401     8.48120E-03     52.8289E-03         6.92859        -1.11787        -1.55573        -1.52049         6.89335        -1.11787    -922.174E-03     118.569E-03    -58.8704E-03    -59.6984E-03    -58.7385E-03     118.406E-03    -59.6679E-03     10.5450E-03    -12.2998E+06    -34.2733E+06    -102.998E+06    -34.3416E+06    -102.929E+06    -12.2998E+06    -506.353E+03         33.0937
             402     7.53916E-03     52.8170E-03         6.74122        -1.07727        -1.42546        -1.39236         6.70812        -1.07727    -869.997E-03     118.931E-03    -59.1421E-03    -59.7886E-03    -59.0651E-03     118.854E-03    -59.7886E-03     7.25001E-03    -14.6271E+06    -40.0735E+06    -149.778E+06    -40.1648E+06    -149.686E+06    -14.6271E+06     770.304E+03         32.1675
             403     6.59489E-03     52.8137E-03         6.63646        -1.04216        -1.36875        -1.27198         6.53969        -1.04216        -1.71870     119.353E-03    -59.4981E-03    -59.8544E-03    -59.4623E-03     119.317E-03    -59.8544E-03     4.94406E-03    -19.1754E+06    -46.7072E+06    -183.009E+06    -46.7583E+06    -182.958E+06    -19.1754E+06     2.22654E+06         31.4691
             404     5.65410E-03     52.8072E-03         6.65809        -1.01304        -1.42879        -1.17341         6.40272        -1.01304        -2.73538     119.497E-03    -59.6076E-03    -59.8896E-03    -59.6292E-03     119.481E-03    -59.8523E-03     3.21497E-03    -27.7899E+06    -52.8657E+06    -203.249E+06    -52.8938E+06    -203.221E+06    -27.7899E+06     1.05390E+06         30.9288
             405     4.71096E-03     52.8069E-03         6.52838    -988.257E-03        -1.32972        -1.10629         6.30495    -988.257E-03        -2.42767     119.460E-03    -59.5761E-03    -59.8839E-03    -59.6070E-03     119.453E-03    -59.8465E-03     1.97182E-03    -35.2111E+06    -56.9100E+06    -220.472E+06    -56.9142E+06    -220.468E+06    -35.2111E+06     334.673E+03         30.5088
             406     3.76843E-03     52.8045E-03         6.48415    -967.109E-03        -1.30940        -1.04315         6.21791    -967.109E-03        -2.58648     119.488E-03    -59.5989E-03    -59.8895E-03    -59.6484E-03     119.486E-03    -59.8371E-03     942.683E-06    -42.9230E+06    -60.1322E+06    -232.298E+06    -60.1348E+06    -232.295E+06    -42.9230E+06     413.134E+03         30.1881
             407     2.82777E-03     52.8065E-03         6.41561    -949.240E-03        -1.25878    -999.642E-03         6.15647    -949.240E-03        -1.27584     119.498E-03    -59.6119E-03    -59.8866E-03    -59.6920E-03     119.498E-03    -59.8059E-03     141.904E-06    -53.8235E+06    -65.0546E+06    -239.485E+06    -65.0560E+06    -239.484E+06    -53.8235E+06    -72.2269E+03         29.9528
             408     1.88328E-03     52.8039E-03         6.83737    -941.121E-03        -1.69138    -939.887E-03         6.08587    -941.121E-03        -2.87199     119.472E-03    -59.5057E-03    -59.9664E-03    -59.6842E-03     119.471E-03    -59.7872E-03    -422.847E-06    -62.5414E+06    -69.2236E+06    -244.064E+06    -68.9842E+06    -244.057E+06    -62.7871E+06    -205.454E+03         29.7918
             409     942.694E-06     52.8070E-03         9.92988        -1.24828        -4.47768    -634.134E-03         6.08634        -1.24828         5.44038     119.533E-03    -59.3400E-03    -60.1928E-03    -59.8347E-03     119.531E-03    -59.6966E-03     71.5250E-06    -66.5974E+06    -72.4544E+06    -244.298E+06    -70.9987E+06    -244.288E+06    -68.0633E+06    -779.827E+03         29.6960
             410     16.0233E-03     52.5818E-03         8.93114        -1.64555        -2.88830        -2.88295         8.92579        -1.64555     250.749E-03     207.350E-03    -59.8706E-03    -147.479E-03    -67.2387E-03     127.109E-03    -59.8706E-03     293.987E-03     143.146E+06     126.569E+06    -8.36743E+06    -8.28192E+06     143.060E+06     126.569E+06    -1.19710E+06         68.9012
             411     15.0836E-03     52.1548E-03         8.74821        -1.61726        -2.73771        -2.72950         8.74001        -1.61726     326.543E-03     205.591E-03    -59.8625E-03    -145.728E-03    -67.3335E-03     127.196E-03    -59.8625E-03     289.054E-03     124.068E+06     106.030E+06    -16.2518E+06    -16.1723E+06     123.988E+06     106.030E+06     166.701E+03         63.0545
             412     14.1391E-03     51.9288E-03         8.54776        -1.58238        -2.58551        -2.56600         8.52824        -1.58238     925.852E-03     145.778E-03    -59.7276E-03    -86.0500E-03    -60.8441E-03     120.572E-03    -59.7276E-03     136.890E-03     111.635E+06     72.1898E+06    -23.3953E+06    -23.3651E+06     111.605E+06     72.1898E+06     996.922E+03         55.8459
             413     13.1985E-03     51.8506E-03         8.31718        -1.53502        -2.42427        -2.39980         8.29271        -1.53502         1.02376     123.995E-03    -59.5175E-03    -64.4776E-03    -58.1570E-03     117.674E-03    -59.5175E-03     67.2267E-03     107.570E+06     36.6017E+06    -27.5480E+06    -27.5089E+06     107.531E+06     36.6017E+06     1.81165E+06         48.8822
             414     12.2519E-03     51.7869E-03         8.08230        -1.48453        -2.26178        -2.23170         8.05222        -1.48453         1.10981     119.684E-03    -59.2857E-03    -60.3980E-03    -57.4098E-03     116.780E-03    -59.3698E-03     43.5191E-03     100.121E+06     2.58253E+06    -29.8181E+06    -29.7677E+06     100.070E+06     2.58253E+06     2.31270E+06         43.1969
             415     11.3105E-03     51.7576E-03         7.83636        -1.43542        -2.08274        -2.06540         7.81901        -1.43542     561.310E-03     118.505E-03    -59.0812E-03    -59.4237E-03    -58.0999E-03     117.519E-03    -59.4195E-03     25.9702E-03     51.1061E+06    -11.4114E+06    -32.1021E+06    -31.9546E+06     50.9585E+06    -11.4114E+06    -20.4328E+03         39.0714
             416     10.3645E-03     51.7339E-03         7.61242        -1.38918        -1.92218        -1.91678         7.60701        -1.38918     286.354E-03     118.830E-03    -59.2316E-03    -59.5983E-03    -58.7198E-03     118.261E-03    -59.5410E-03     20.0013E-03    -4.87224E+06    -20.6698E+06    -39.7106E+06    -33.2473E+06    -18.6316E+06    -13.3738E+06    -3.36340E+06         36.2721
             417     9.42323E-03     51.7157E-03         7.45539        -1.34623        -1.82645        -1.78982         7.41876        -1.34623    -438.053E-03     119.148E-03    -59.4629E-03    -59.6855E-03    -59.1793E-03     118.777E-03    -59.5977E-03     15.9880E-03    -16.1716E+06    -32.9743E+06    -62.8865E+06    -33.8000E+06    -62.0609E+06    -16.1716E+06    -2.44805E+06         34.3990
             418     8.48199E-03     51.7012E-03         7.27378        -1.30621        -1.70418        -1.67176         7.24136        -1.30621    -895.054E-03     119.068E-03    -59.3394E-03    -59.7288E-03    -59.2056E-03     118.889E-03    -59.6834E-03     11.0581E-03    -13.1050E+06    -36.2311E+06    -104.600E+06    -36.4123E+06    -104.419E+06    -13.1050E+06     2.42159E+06         33.1093
             419     7.53760E-03     51.6945E-03         7.10248        -1.26974        -1.58719        -1.55612         7.07141        -1.26974    -855.178E-03     119.062E-03    -59.2686E-03    -59.7937E-03    -59.2014E-03     118.980E-03    -59.7788E-03     7.53689E-03    -12.9298E+06    -41.4028E+06    -150.369E+06    -41.6506E+06    -150.121E+06    -12.9298E+06     4.64957E+06         32.1777
             420     6.59658E-03     51.6847E-03         7.00894        -1.23763        -1.54069        -1.45390         6.92216        -1.23763        -1.68940     119.258E-03    -59.4283E-03    -59.8297E-03    -59.3925E-03     119.222E-03    -59.8297E-03     4.84390E-03    -17.9889E+06    -47.0180E+06    -181.837E+06    -47.1122E+06    -181.743E+06    -17.9889E+06     2.97517E+06         31.4754
             421     5.65327E-03     51.6835E-03         7.03445        -1.20945        -1.60648        -1.37171         6.79968        -1.20945        -2.70551     119.314E-03    -59.4663E-03    -59.8481E-03    -59.4539E-03     119.302E-03    -59.8481E-03     2.92510E-03    -24.8307E+06    -50.8929E+06    -201.084E+06    -50.9431E+06    -201.034E+06    -24.8307E+06     1.68106E+06         30.9327
             422     4.71116E-03     51.6793E-03         6.90195        -1.18461        -1.50601        -1.30210         6.69804        -1.18461        -2.37259     119.353E-03    -59.4920E-03    -59.8609E-03    -59.4873E-03     119.348E-03    -59.8609E-03     1.60104E-03    -34.5679E+06    -55.6465E+06    -219.736E+06    -55.6730E+06    -219.710E+06    -34.5679E+06     521.386E+03         30.5114
             423     3.76901E-03     51.6804E-03         6.86419        -1.16403        -1.49193        -1.23638         6.60864        -1.16403        -2.58409     119.604E-03    -59.7030E-03    -59.9014E-03    -59.7578E-03     119.604E-03    -59.8457E-03     708.960E-06    -44.6393E+06    -60.9153E+06    -232.530E+06    -60.9177E+06    -232.527E+06    -44.6393E+06    -93.3478E+03         30.1902
             424     2.82583E-03     51.6779E-03         6.80792        -1.14788        -1.45414        -1.19085         6.54462        -1.14788        -1.21804     119.625E-03    -59.7614E-03    -59.8640E-03    -59.8447E-03     119.625E-03    -59.7800E-03     53.1202E-06    -53.4678E+06    -64.3861E+06    -238.463E+06    -64.3870E+06    -238.462E+06    -53.4678E+06     123.529E+03         29.9547
             425     1.88610E-03     51.6811E-03         7.27152        -1.13688        -1.92839        -1.15193         6.49506        -1.13688        -2.94630     119.312E-03    -59.5176E-03    -59.7945E-03    -59.5449E-03     119.311E-03    -59.7662E-03    -357.401E-06    -61.0750E+06    -67.7123E+06    -243.050E+06    -67.4712E+06    -243.046E+06    -61.3207E+06    -550.841E+03         29.7937
             426     940.855E-06     51.6792E-03         10.5808        -1.68972        -4.68288    -576.408E-03         6.47429        -1.68972         5.76636     119.540E-03    -59.4613E-03    -60.0788E-03    -59.8472E-03     119.538E-03    -59.6913E-03     321.369E-06    -67.7823E+06    -72.1786E+06    -244.791E+06    -70.7372E+06    -244.767E+06    -69.2483E+06    -51.1814E+03         29.6981
             427     16.0336E-03     51.4695E-03         9.20494        -1.79613        -2.94730        -2.94229         9.19992        -1.79613     260.339E-03     206.662E-03    -59.9849E-03    -146.677E-03    -66.2057E-03     126.191E-03    -59.9849E-03     294.185E-03     143.455E+06     126.002E+06    -9.15052E+06    -9.07754E+06     143.382E+06     126.002E+06    -1.04031E+06         68.8520
             428     15.0797E-03     51.0245E-03         9.01348        -1.78162        -2.79296        -2.78359         9.00411        -1.78162     377.929E-03     205.367E-03    -59.9707E-03    -145.396E-03    -68.0968E-03     128.068E-03    -59.9707E-03     287.388E-03     122.866E+06     105.011E+06    -17.1093E+06    -17.0334E+06     122.790E+06     105.011E+06     124.973E+03         63.0322
             429     14.1385E-03     50.8035E-03         8.82394        -1.75997        -2.65595        -2.63396         8.80196        -1.75997     998.583E-03     145.298E-03    -59.8291E-03    -85.4692E-03    -60.3497E-03     120.179E-03    -59.8291E-03     136.484E-03     110.012E+06     71.6793E+06    -23.1889E+06    -23.1732E+06     109.996E+06     71.6793E+06     335.204E+03         55.8597
             430     13.1929E-03     50.7223E-03         8.61081        -1.72294        -2.51232        -2.48515         8.58365        -1.72294         1.09707     123.832E-03    -59.6524E-03    -64.1796E-03    -57.9893E-03     117.642E-03    -59.6524E-03     66.3456E-03     107.114E+06     36.3982E+06    -27.9864E+06    -27.9710E+06     107.099E+06     36.3982E+06    -198.930E+03         48.9205
             431     12.2525E-03     50.6635E-03         8.40005        -1.68124        -2.37016        -2.33755         8.36744        -1.68124         1.18026     120.770E-03    -59.3901E-03    -61.3798E-03    -58.4060E-03     117.880E-03    -59.4742E-03     43.9078E-03     101.177E+06     1.93449E+06    -29.3149E+06    -29.2573E+06     101.120E+06     1.93449E+06     27.2258E+03         43.2452
             432     11.3067E-03     50.6300E-03         8.17832        -1.63994        -2.21329        -2.19489         8.15993        -1.63994     632.633E-03     119.309E-03    -59.3661E-03    -59.9433E-03    -58.8793E-03     118.335E-03    -59.4553E-03     25.5594E-03     54.6599E+06    -11.6574E+06    -30.0907E+06    -29.8878E+06     54.4570E+06    -11.6574E+06    -309.824E+03         39.1162
             433     10.3673E-03     50.6089E-03         7.97469        -1.60041        -2.07209        -2.06528         7.96788        -1.60041     375.496E-03     118.999E-03    -59.2663E-03    -59.7324E-03    -58.9677E-03     118.512E-03    -59.5443E-03     18.5046E-03    -1.89382E+06    -21.5264E+06    -38.6190E+06    -33.4859E+06    -15.9214E+06    -12.6320E+06    -2.28540E+06         36.3056
             434     9.42345E-03     50.5885E-03         7.83128        -1.56351        -1.98730        -1.95431         7.79829        -1.56351    -345.143E-03     118.738E-03    -59.1323E-03    -59.6062E-03    -58.7984E-03     118.405E-03    -59.6062E-03     15.1614E-03    -19.5300E+06    -37.9936E+06    -68.4629E+06    -38.7064E+06    -67.7500E+06    -19.5300E+06    -1.51758E+06         34.4212
             435     8.47946E-03     50.5762E-03         7.66562        -1.52905        -1.87736        -1.85041         7.63867        -1.52905    -826.125E-03     119.236E-03    -59.4966E-03    -59.7397E-03    -59.3759E-03     119.073E-03    -59.6976E-03     10.5115E-03    -17.0735E+06    -41.7602E+06    -109.388E+06    -41.9408E+06    -109.208E+06    -17.0735E+06     2.67976E+06         33.1236
             436     7.53979E-03     50.5663E-03         7.51553        -1.49722        -1.77982        -1.75352         7.48923        -1.49722    -798.886E-03     119.409E-03    -59.6024E-03    -59.8063E-03    -59.5708E-03     119.335E-03    -59.7642E-03     7.18132E-03    -12.6363E+06    -43.1712E+06    -147.965E+06    -43.4030E+06    -147.734E+06    -12.6363E+06     4.29113E+06         32.1868
             437     6.59594E-03     50.5612E-03         7.43174        -1.46863        -1.73994        -1.66443         7.35623        -1.46863        -1.63093     119.155E-03    -59.3642E-03    -59.7911E-03    -59.3281E-03     119.119E-03    -59.7911E-03     4.93393E-03    -16.8053E+06    -45.4190E+06    -178.978E+06    -45.5172E+06    -178.880E+06    -16.8053E+06     3.01810E+06         31.4807
             438     5.65394E-03     50.5559E-03         7.44972        -1.44336        -1.79586        -1.58975         7.24361        -1.44336        -2.62750     119.224E-03    -59.4085E-03    -59.8158E-03    -59.3960E-03     119.212E-03    -59.8158E-03     2.79682E-03    -23.9226E+06    -50.2187E+06    -199.766E+06    -50.2762E+06    -199.709E+06    -23.9226E+06     2.11461E+06         30.9354
             439     4.71133E-03     50.5552E-03         7.32887        -1.42089        -1.70726        -1.52889         7.15050        -1.42089        -2.29935     119.411E-03    -59.5919E-03    -59.8195E-03    -59.5888E-03     119.408E-03    -59.8195E-03     1.42919E-03    -32.9856E+06    -55.8962E+06    -218.068E+06    -55.9460E+06    -218.018E+06    -32.9856E+06     1.74941E+06         30.5130
             440     3.76878E-03     50.5528E-03         7.29869        -1.40110        -1.70226        -1.47512         7.07156        -1.40110        -2.52574     119.382E-03    -59.5835E-03    -59.7981E-03    -59.5860E-03     119.381E-03    -59.7947E-03     614.129E-06    -45.0087E+06    -61.1203E+06    -231.627E+06    -61.1500E+06    -231.597E+06    -45.0087E+06     432.578E+03         30.1913
             441     2.82773E-03     50.5535E-03         7.23811        -1.38544        -1.66121        -1.42419         7.00109        -1.38544        -1.17250     119.313E-03    -59.5147E-03    -59.7980E-03    -59.5178E-03     119.312E-03    -59.7946E-03    -27.0615E-06    -55.7509E+06    -64.8466E+06    -238.241E+06    -64.8506E+06    -238.237E+06    -55.7509E+06    -513.909E+03         29.9558
             442     1.88287E-03     50.5538E-03         7.67786        -1.37472        -2.10651        -1.39139         6.96274        -1.37472        -2.90444     119.610E-03    -59.5912E-03    -60.0188E-03    -59.8355E-03     119.609E-03    -59.7737E-03    -96.9805E-06    -62.6927E+06    -68.5529E+06    -242.981E+06    -68.0469E+06    -242.979E+06    -63.2002E+06    -273.797E+03         29.7951
             443     943.576E-06     50.5553E-03         10.9569        -2.20495        -4.55477    -535.401E-03         6.93753        -2.20495         5.77186     119.446E-03    -59.4988E-03    -59.9473E-03    -59.9181E-03     119.445E-03    -59.5273E-03     170.839E-06    -66.5637E+06    -70.5550E+06    -244.923E+06    -70.1047E+06    -244.866E+06    -67.0713E+06    -472.080E+03         29.6999
             444     16.0148E-03     50.3327E-03         9.45949        -1.97202        -2.98286        -2.97781         9.45444        -1.97202     303.808E-03     207.998E-03    -60.0879E-03    -147.910E-03    -66.2981E-03     126.386E-03    -60.0879E-03     297.966E-03     144.205E+06     126.809E+06    -7.87898E+06    -7.82337E+06     144.149E+06     126.809E+06     250.527E+03         68.7755
             445     15.0853E-03     49.8972E-03         9.27693        -1.97489        -2.84454        -2.83331         9.26569        -1.97489     466.356E-03     204.958E-03    -60.0305E-03    -144.927E-03    -69.2217E-03     129.252E-03    -60.0305E-03     284.962E-03     123.980E+06     106.005E+06    -15.9936E+06    -15.9595E+06     123.946E+06     106.005E+06     199.950E+03         62.9928
             446     14.1371E-03     49.6818E-03         9.11668        -1.96837        -2.73548        -2.70925         9.09044        -1.96837         1.10952     144.667E-03    -59.8411E-03    -84.8259E-03    -60.2090E-03     120.050E-03    -59.8411E-03     134.688E-03     111.007E+06     71.6199E+06    -22.5832E+06    -22.5728E+06     110.996E+06     71.6199E+06    -588.874E+03         55.8680
             447     13.1937E-03     49.5937E-03         8.93779        -1.94308        -2.62112        -2.58940         8.90607        -1.94308         1.20825     123.361E-03    -59.6571E-03    -63.7043E-03    -57.9516E-03     117.609E-03    -59.6571E-03     63.5893E-03     106.732E+06     34.2554E+06    -26.7274E+06    -26.6791E+06     106.684E+06     34.2554E+06    -2.06915E+06         48.9595
             448     12.2489E-03     49.5379E-03         8.75378        -1.91138        -2.50105        -2.46367         8.71640        -1.91138         1.29204     120.919E-03    -59.4581E-03    -61.4604E-03    -58.9339E-03     118.392E-03    -59.4581E-03     41.2082E-03     100.279E+06    -525.884E+03    -30.5300E+06    -30.4681E+06     100.217E+06    -525.884E+03    -2.66840E+06         43.2945
             449     11.3103E-03     49.5012E-03         8.55928        -1.87890        -2.36650        -2.34544         8.53823        -1.87890     749.816E-03     119.280E-03    -59.0058E-03    -60.2737E-03    -58.9978E-03     118.418E-03    -59.4205E-03     23.9224E-03     54.2931E+06    -11.9021E+06    -32.3290E+06    -32.2107E+06     54.1748E+06    -11.9021E+06    -1.21873E+06         39.1597
             450     10.3664E-03     49.4827E-03         8.38515        -1.84687        -2.25021        -2.24150         8.37644        -1.84687     492.518E-03     118.693E-03    -58.8941E-03    -59.7986E-03    -58.7038E-03     118.230E-03    -59.5266E-03     18.0994E-03     830.676E+03    -20.7132E+06    -40.4918E+06    -34.8383E+06    -15.9104E+06    -9.62559E+06     1.81686E+06         36.3365
             451     9.42361E-03     49.4643E-03         8.25806        -1.81662        -2.17819        -2.14897         8.22885        -1.81662    -232.329E-03     118.966E-03    -59.2422E-03    -59.7235E-03    -59.0395E-03     118.621E-03    -59.5813E-03     15.2850E-03    -17.5385E+06    -39.0115E+06    -70.8904E+06    -40.8168E+06    -69.0852E+06    -17.5385E+06     2.74030E+06         34.4412
             452     8.48223E-03     49.4489E-03         8.11202        -1.78808        -2.08538        -2.06420         8.09084        -1.78808    -738.259E-03     118.958E-03    -59.2439E-03    -59.7144E-03    -59.1823E-03     118.811E-03    -59.6289E-03     10.0788E-03    -22.0943E+06    -44.1830E+06    -110.380E+06    -44.2376E+06    -110.326E+06    -22.0943E+06     576.444E+03         33.1358
             453     7.53785E-03     49.4406E-03         7.97973        -1.76150        -1.99911        -1.97891         7.95954        -1.76150    -708.089E-03     119.129E-03    -59.3823E-03    -59.7471E-03    -59.3392E-03     119.059E-03    -59.7199E-03     6.95251E-03    -16.3768E+06    -44.6884E+06    -147.923E+06    -44.7351E+06    -147.877E+06    -16.3768E+06     594.921E+03         32.1937
             454     6.59692E-03     49.4350E-03         7.90171        -1.73826        -1.95912        -1.89544         7.83803        -1.73826        -1.54492     119.307E-03    -59.5418E-03    -59.7648E-03    -59.5100E-03     119.275E-03    -59.7648E-03     4.66424E-03    -16.0524E+06    -46.7891E+06    -177.483E+06    -46.8480E+06    -177.424E+06    -16.0524E+06     2.39524E+06         31.4844
             455     5.65381E-03     49.4307E-03         7.91832        -1.71835        -2.00993        -1.83506         7.74345        -1.71835        -2.51969     119.217E-03    -59.4543E-03    -59.7623E-03    -59.4422E-03     119.205E-03    -59.7623E-03     2.73365E-03    -23.2192E+06    -50.0194E+06    -198.268E+06    -50.0665E+06    -198.221E+06    -23.2192E+06     2.16402E+06         30.9372
             456     4.71174E-03     49.4287E-03         7.82022        -1.70027        -1.94191        -1.79000         7.66831        -1.70027        -2.22504     119.254E-03    -59.4848E-03    -59.7688E-03    -59.4815E-03     119.250E-03    -59.7688E-03     1.49846E-03    -31.0298E+06    -54.1130E+06    -217.717E+06    -54.1440E+06    -217.686E+06    -31.0298E+06     1.71418E+06         30.5136
             457     3.76985E-03     49.4275E-03         7.79646        -1.68316        -1.94245        -1.75045         7.60446        -1.68316        -2.44083     119.169E-03    -59.3969E-03    -59.7719E-03    -59.3958E-03     119.168E-03    -59.7719E-03     634.780E-06    -41.9415E+06    -58.3725E+06    -229.457E+06    -58.4114E+06    -229.418E+06    -41.9415E+06     1.44210E+06         30.1913
             458     2.82554E-03     49.4283E-03         7.73106        -1.66916        -1.89799        -1.70296         7.53602        -1.66916        -1.15516     119.301E-03    -59.4073E-03    -59.8936E-03    -59.5082E-03     119.301E-03    -59.7926E-03     20.6103E-06    -53.6177E+06    -63.2488E+06    -237.838E+06    -63.2686E+06    -237.818E+06    -53.6177E+06     695.597E+03         29.9556
             459     1.88523E-03     49.4279E-03         8.11015        -1.65635        -2.28157        -1.68497         7.51355        -1.65635        -2.78010     119.565E-03    -59.4467E-03    -60.1186E-03    -59.7924E-03     119.565E-03    -59.7726E-03    -176.038E-06    -63.0623E+06    -68.0233E+06    -242.443E+06    -67.5217E+06    -242.437E+06    -63.5699E+06     453.216E+03         29.7952
             460     941.846E-06     49.4272E-03         11.1546        -2.78562        -4.19621    -511.780E-03         7.47013        -2.78562         5.53975     119.463E-03    -59.3139E-03    -60.1487E-03    -59.9578E-03     119.462E-03    -59.5044E-03    -105.533E-06    -68.9765E+06    -72.1716E+06    -245.751E+06    -70.4249E+06    -245.698E+06     -70.776E+06    -449.448E+03         29.7003
             461     16.0297E-03     49.2014E-03         9.69316        -2.17464        -3.00856        -3.00312         9.68772        -2.17464     367.818E-03     207.088E-03    -59.9679E-03    -147.120E-03    -65.7262E-03     125.694E-03    -59.9679E-03     295.556E-03     143.741E+06     126.189E+06    -7.74676E+06    -7.71097E+06     143.705E+06     126.189E+06     1.10803E+06         68.6853
             462     15.0773E-03     48.7720E-03         9.53792        -2.19679        -2.89681        -2.88351         9.52462        -2.19679     566.156E-03     203.640E-03    -59.9527E-03    -143.688E-03    -67.7861E-03     127.739E-03    -59.9527E-03     282.566E-03     124.354E+06     106.061E+06    -16.1031E+06    -16.0252E+06     124.277E+06     106.061E+06    -1.43390E+06         62.9489
             463     14.1398E-03     48.5512E-03         9.41542        -2.20696        -2.81939        -2.78796         9.38399        -2.20696         1.23355     144.295E-03    -59.7415E-03    -84.5538E-03    -61.3373E-03     121.079E-03    -59.7415E-03     131.112E-03     113.447E+06     72.3792E+06    -21.6196E+06    -21.5178E+06     113.346E+06     72.3792E+06    -2.85344E+06         55.8773
             464     13.1967E-03     48.4723E-03         9.27893        -2.19489        -2.73744        -2.69970         9.24120        -2.19489         1.34344     123.158E-03    -59.4821E-03    -63.6760E-03    -58.1078E-03     117.590E-03    -59.4821E-03     62.7428E-03     105.979E+06      31.602E+06    -26.9073E+06    -26.8339E+06     105.906E+06      31.602E+06    -2.30956E+06         49.0064
             465     12.2550E-03     48.4075E-03         9.14124        -2.17443        -2.65410        -2.61093         9.09806        -2.17443         1.42229     119.928E-03    -58.7409E-03    -61.1869E-03    -58.1385E-03     117.444E-03    -59.3059E-03     40.4138E-03      99.237E+06    -1.35719E+06    -30.9732E+06    -30.9359E+06     99.1997E+06    -1.35719E+06    -1.06679E+06         43.3464
             466     11.3102E-03     48.3765E-03         8.98345        -2.15121        -2.54919        -2.52465         8.95892        -2.15121     883.428E-03     117.997E-03    -58.2845E-03    -59.7122E-03    -57.8308E-03     117.178E-03    -59.3470E-03     23.4916E-03     51.2542E+06    -12.4070E+06    -35.7559E+06    -35.5984E+06     51.0967E+06    -12.4070E+06    -65.9345E+03         39.2002
             467     10.3660E-03     48.3582E-03         8.83660        -2.12723        -2.45497        -2.44427         8.82589        -2.12723     609.741E-03     118.588E-03    -58.9953E-03    -59.5925E-03    -58.6202E-03     118.113E-03    -59.4927E-03     18.3261E-03    -3.56270E+06    -23.4089E+06    -44.1879E+06    -39.2254E+06    -19.9847E+06    -11.9494E+06     2.26710E+06         36.3636
             468     9.42456E-03     48.3355E-03         8.72671        -2.10444        -2.39498        -2.36995         8.70167        -2.10444    -108.789E-03     119.103E-03    -59.3976E-03    -59.7054E-03    -59.2221E-03     118.769E-03    -59.5473E-03     15.1485E-03    -13.8290E+06    -37.3253E+06    -66.7938E+06     -39.175E+06    -64.9441E+06    -13.8290E+06     2.81324E+06         34.4583
             469     8.48171E-03     48.3248E-03         8.60397        -2.08280        -2.31713        -2.30173         8.58857        -2.08280    -626.592E-03     118.879E-03    -59.1717E-03    -59.7071E-03    -59.1415E-03     118.727E-03    -59.5851E-03     10.1921E-03    -17.5674E+06    -40.4062E+06    -107.106E+06    -40.4534E+06    -107.059E+06    -17.5674E+06     245.081E+03         33.1455
             470     7.53960E-03     48.3147E-03         8.49230        -2.06282        -2.24459        -2.22972         8.47743        -2.06282    -608.341E-03     118.906E-03    -59.1734E-03    -59.7321E-03    -59.1673E-03     118.836E-03    -59.6685E-03     6.94254E-03    -17.2378E+06    -43.9108E+06    -150.109E+06    -43.9306E+06    -150.090E+06    -17.2378E+06    -425.446E+03         32.1987
             471     6.59635E-03     48.3082E-03         8.42991        -2.04601        -2.21401        -2.16054         8.37644        -2.04601        -1.46019     119.147E-03    -59.4173E-03    -59.7300E-03    -59.3857E-03     119.116E-03    -59.7300E-03     4.57241E-03    -16.5393E+06    -47.4758E+06    -178.297E+06    -47.4836E+06    -178.289E+06    -16.5393E+06     416.271E+03         31.4866
             472     5.65491E-03     48.3057E-03         8.45147        -2.03194        -2.26329        -2.11620         8.30437        -2.03194        -2.41456     119.190E-03    -59.4670E-03    -59.7230E-03    -59.4546E-03     119.178E-03    -59.7230E-03     2.92073E-03    -24.6452E+06    -51.1398E+06    -197.489E+06    -51.1567E+06    -197.472E+06    -24.6452E+06     1.13508E+06         30.9380
             473     4.71186E-03     48.3026E-03         8.37352        -2.01927        -2.21106        -2.08228         8.24473        -2.01927        -2.16117     119.097E-03    -59.3710E-03    -59.7261E-03    -59.3658E-03     119.092E-03    -59.7261E-03     1.67062E-03    -33.8497E+06    -54.2578E+06    -217.225E+06    -54.2681E+06    -217.215E+06    -33.8497E+06     1.12511E+06         30.5135
             474     3.76859E-03     48.3028E-03         8.35927        -2.00648        -2.21999        -2.06077         8.20005        -2.00648        -2.35352     119.239E-03    -59.4327E-03    -59.8065E-03    -59.5013E-03     119.238E-03    -59.7372E-03     403.451E-06    -41.4381E+06    -58.0005E+06    -228.787E+06    -58.0140E+06    -228.774E+06    -41.4381E+06     1.22554E+06         30.1906
             475     2.82766E-03     48.3019E-03         8.30099        -1.99365        -2.18315        -2.03040         8.14824        -1.99365        -1.18306     119.308E-03    -59.4088E-03    -59.8993E-03    -59.5790E-03     119.308E-03    -59.7291E-03    -37.5731E-06    -50.1880E+06    -61.7008E+06    -236.959E+06    -61.7200E+06    -236.940E+06    -50.1880E+06     1.68170E+06         29.9544
             476     1.88429E-03     48.3017E-03         8.59369        -1.97714        -2.48190        -2.01866         8.13045        -1.97714        -2.62513     119.180E-03    -59.2846E-03    -59.8951E-03    -59.3855E-03     119.180E-03    -59.7941E-03    -20.5082E-06    -58.5575E+06    -65.1376E+06    -241.550E+06    -65.1728E+06    -241.515E+06    -58.5575E+06     1.80735E+06         29.7936
             477     941.878E-06     48.3036E-03         11.2900        -3.06523        -4.08957    -498.053E-03         8.06899        -3.43578         5.17039     119.684E-03    -59.4936E-03    -60.1906E-03    -59.7580E-03     119.682E-03    -59.9241E-03     523.966E-06    -65.7313E+06    -70.6461E+06    -244.612E+06    -69.3964E+06    -244.569E+06    -67.0233E+06     1.94170E+06         29.6986
             478     16.0344E-03     48.1094E-03         9.90254        -2.40252        -3.03116        -3.02536         9.89674        -2.40252     428.042E-03     208.438E-03    -59.7680E-03    -148.670E-03    -68.0004E-03     127.768E-03    -59.7680E-03     294.724E-03     145.369E+06     127.280E+06    -7.78420E+06    -7.76928E+06     145.354E+06     127.280E+06     875.106E+03         68.5924
             479     15.0854E-03     47.6335E-03         9.79098        -2.44424        -2.95023        -2.93472         9.77548        -2.44424     666.023E-03     205.440E-03    -59.7409E-03    -145.700E-03    -67.3610E-03     127.102E-03    -59.7409E-03     287.625E-03     128.094E+06     108.244E+06    -13.7558E+06    -13.6885E+06     128.027E+06     108.244E+06    -1.05115E+06         62.9128
             480     14.1434E-03     47.4307E-03         9.72010        -2.47217        -2.91003        -2.87356         9.68362        -2.47217         1.35075     142.813E-03    -59.5839E-03    -83.2290E-03    -60.2625E-03     119.846E-03    -59.5839E-03     130.235E-03     112.891E+06     70.2005E+06    -22.1326E+06    -22.0339E+06     112.792E+06     70.2005E+06    -2.96547E+06         55.8881
             481     13.1987E-03     47.3424E-03         9.63298        -2.47402        -2.86261        -2.81968         9.59005        -2.47402         1.46210     123.353E-03    -59.3576E-03    -63.9953E-03    -57.8932E-03     117.251E-03    -59.3576E-03     65.6422E-03     104.214E+06     28.8889E+06    -28.6678E+06    -28.6283E+06     104.174E+06     28.8889E+06    -1.13230E+06         49.0456
             482     12.2556E-03     47.2840E-03         9.54537        -2.46552        -2.81704        -2.76954         9.49787        -2.46552         1.52835     119.386E-03    -58.6553E-03    -60.7308E-03    -57.4687E-03     116.689E-03    -59.2203E-03     42.0707E-03     97.4097E+06    -2.67668E+06    -33.1303E+06    -33.1035E+06     97.3828E+06    -2.67668E+06     1.25976E+06         43.3916
             483     11.3095E-03     47.2538E-03         9.42908        -2.45276        -2.74374        -2.71629         9.40163        -2.45276         1.00045     118.005E-03    -58.5205E-03    -59.4844E-03    -57.8188E-03     117.122E-03    -59.3036E-03     24.2208E-03     50.6725E+06    -9.19906E+06    -37.0567E+06    -36.9262E+06     50.5419E+06    -9.19906E+06     2.31261E+06         39.2374
             484     10.3682E-03     47.2290E-03         9.31688        -2.43833        -2.67443        -2.66123         9.30367        -2.43833     728.794E-03     118.417E-03    -58.9687E-03    -59.4479E-03    -58.5116E-03     117.944E-03    -59.4320E-03     18.2728E-03    -5.75816E+06    -21.0633E+06    -42.2162E+06    -38.7527E+06    -19.2221E+06    -11.0629E+06     494.485E+03         36.3896
             485     9.42472E-03     47.2125E-03         9.23488        -2.42431        -2.63314        -2.61094         9.21269        -2.42431     17.9190E-03     118.615E-03    -59.0921E-03    -59.5229E-03    -58.7881E-03     118.275E-03    -59.4871E-03     15.2799E-03    -17.5241E+06    -39.7350E+06    -65.0570E+06    -40.0391E+06    -64.7529E+06    -17.5241E+06    -617.737E+03         34.4736
             486     8.48180E-03     47.1966E-03         9.13740        -2.41063        -2.57456        -2.56372         9.12656        -2.41063    -518.829E-03     118.925E-03    -59.2885E-03    -59.6361E-03    -59.2183E-03     118.771E-03    -59.5524E-03     10.1800E-03    -18.5606E+06    -42.6055E+06    -105.692E+06    -42.6469E+06    -105.650E+06    -18.5606E+06     1.08676E+06         33.1537
             487     7.53989E-03     47.1901E-03         9.05654        -2.39761        -2.52592        -2.51484         9.04546        -2.39761    -518.607E-03     118.887E-03    -59.2152E-03    -59.6718E-03    -59.2095E-03     118.818E-03    -59.6082E-03     6.98708E-03    -21.0327E+06    -45.7605E+06    -148.584E+06    -45.8133E+06    -148.532E+06    -21.0327E+06    -23.6923E+03         32.2027
             488     6.59698E-03     47.1828E-03         9.01653        -2.38670        -2.50939        -2.46418         8.97132        -2.38670        -1.38519     118.819E-03    -59.1404E-03    -59.6788E-03    -59.1041E-03     118.783E-03    -59.6788E-03     4.90446E-03    -21.8663E+06    -48.1461E+06    -180.603E+06    -48.1747E+06    -180.575E+06    -21.8663E+06    -1.20355E+06         31.4884
             489     5.65376E-03     47.1792E-03         9.03973        -2.37795        -2.55625        -2.43148         8.91496        -2.37795        -2.32346     119.066E-03    -59.3485E-03    -59.7172E-03    -59.3357E-03     119.053E-03    -59.7172E-03     2.89016E-03    -26.3780E+06    -51.1522E+06    -198.698E+06    -51.1572E+06    -198.693E+06    -26.3780E+06    -50.6631E+03         30.9386
             490     4.71180E-03     47.1780E-03         8.98203        -2.37028        -2.52031        -2.40935         8.87107        -2.37028        -2.11804     119.262E-03    -59.5313E-03    -59.7304E-03    -59.5400E-03     119.257E-03    -59.7165E-03     1.68092E-03    -34.2057E+06    -55.4369E+06    -215.619E+06    -55.4424E+06    -215.613E+06    -34.2057E+06     748.839E+03         30.5135
             491     3.77007E-03     47.1762E-03         8.97775        -2.36160        -2.53470        -2.40251         8.84556        -2.36160        -2.27500     119.296E-03    -59.5202E-03    -59.7759E-03    -59.6019E-03     119.295E-03    -59.6928E-03     649.197E-06    -41.7462E+06    -59.4180E+06    -228.840E+06    -59.4222E+06    -228.836E+06    -41.7462E+06     803.699E+03         30.1900
             492     2.82700E-03     47.1765E-03         8.92913        -2.35075        -2.50441        -2.38556         8.81029        -2.35075        -1.20950     119.142E-03    -59.3828E-03    -59.7588E-03    -59.4659E-03     119.141E-03    -59.6755E-03     1.45860E-06    -50.0857E+06    -63.1273E+06    -236.730E+06    -63.1307E+06    -236.726E+06    -50.0857E+06     700.578E+03         29.9529
             493     1.88436E-03     47.1774E-03         9.14110        -2.33794        -2.72239        -2.36576         8.78447        -2.33794        -2.48272     119.171E-03    -59.3829E-03    -59.7884E-03    -59.4692E-03     119.171E-03    -59.7019E-03    -217.926E-06    -58.6188E+06    -66.1279E+06    -241.421E+06    -66.1660E+06    -241.383E+06    -58.6188E+06     856.222E+03         29.7911
             494     941.832E-06     47.1759E-03         11.5219        -2.91488        -4.52039    -511.480E-03         8.74885        -4.15068         4.81718     119.423E-03    -59.4894E-03    -59.9339E-03    -59.6918E-03     119.421E-03    -59.7294E-03     431.747E-06    -62.2806E+06    -66.4527E+06    -240.890E+06    -65.5996E+06    -240.838E+06    -63.1849E+06    -179.081E+03         29.6953
             495     16.0279E-03     46.9711E-03         10.0732        -2.65129        -3.02678        -3.02071         10.0672        -2.65129     466.350E-03     209.098E-03    -59.7925E-03    -149.306E-03    -69.4068E-03     129.199E-03    -59.7925E-03     295.324E-03     146.869E+06     128.730E+06    -7.82959E+06    -7.79252E+06     146.832E+06     128.730E+06    -1.32768E+06         68.4891
             496     15.0911E-03     46.5173E-03         10.0328        -2.71218        -2.99896        -2.98168         10.0155        -2.71218     739.956E-03     206.897E-03    -59.6802E-03    -147.217E-03    -68.6868E-03     128.367E-03    -59.6802E-03     290.979E-03     128.987E+06     107.123E+06    -16.3356E+06    -16.2968E+06     128.949E+06     107.123E+06    -1.54695E+06         62.8661
             497     14.1398E-03     46.3026E-03         10.0283        -2.75703        -3.00757        -2.96807         9.98881        -2.75703         1.42940     143.233E-03    -59.5388E-03    -83.6940E-03    -58.8954E-03     118.434E-03    -59.5388E-03     134.795E-03     110.365E+06     66.5755E+06    -24.6896E+06    -24.6776E+06     110.353E+06     66.5755E+06    -391.321E+03         55.8909
             498     13.1988E-03     46.2171E-03         9.99401        -2.77277        -2.99932        -2.95422         9.94890        -2.77277         1.52844     123.446E-03    -59.3914E-03    -64.0547E-03    -57.7689E-03     117.160E-03    -59.3914E-03     66.4049E-03     102.437E+06     28.4038E+06    -30.6378E+06    -30.6281E+06     102.428E+06     28.4038E+06     4.08072E+03         49.0738
             499     12.2523E-03     46.1611E-03         9.94381        -2.77685        -2.97516        -2.92572         9.89436        -2.77685         1.59387     119.856E-03    -59.2372E-03    -60.6183E-03    -57.9329E-03     117.170E-03    -59.2372E-03     42.3200E-03     96.1272E+06    -3.88554E+06    -34.1052E+06    -34.0785E+06     96.1005E+06    -3.88554E+06     1.20489E+06         43.4314
             500     11.3128E-03     46.1241E-03         9.86966        -2.77659        -2.92703        -2.89782         9.84045        -2.77659         1.07775     118.523E-03    -59.0348E-03    -59.4885E-03    -58.2810E-03     117.556E-03    -59.2754E-03     25.4674E-03     51.4745E+06    -10.3237E+06    -34.1839E+06    -34.1471E+06     51.4377E+06    -10.3237E+06     1.50413E+06         39.2741
             501     10.3682E-03     46.1075E-03         9.80909        -2.77377        -2.89662        -2.88149         9.79396        -2.77377     816.221E-03     118.474E-03    -58.9048E-03    -59.5688E-03    -58.5635E-03     117.954E-03    -59.3907E-03     19.1187E-03    -3.49111E+06    -18.7688E+06    -37.9367E+06    -35.3301E+06    -15.4680E+06    -9.39847E+06     196.176E+03         36.4157
             502     9.42445E-03     46.0843E-03         9.77114        -2.76967        -2.89025        -2.86905         9.74994        -2.76967     104.935E-03     118.585E-03    -58.9541E-03    -59.6305E-03    -58.8088E-03     118.241E-03    -59.4324E-03     15.2395E-03    -19.5681E+06    -38.7929E+06    -66.9861E+06    -39.1833E+06    -66.5957E+06    -19.5681E+06    -131.102E+03         34.4893
             503     8.48274E-03     46.0725E-03         9.70876        -2.76438        -2.85857        -2.85005         9.70024        -2.76438    -450.717E-03     118.549E-03    -59.0166E-03    -59.5322E-03    -58.8884E-03     118.401E-03    -59.5121E-03     10.0607E-03    -20.4840E+06    -41.8624E+06    -107.042E+06    -41.8935E+06    -107.011E+06    -20.4840E+06     498.429E+03         33.1621
             504     7.53923E-03     46.0631E-03         9.65590        -2.75860        -2.83112        -2.82242         9.64720        -2.75860    -452.715E-03     118.827E-03    -59.2284E-03    -59.5984E-03    -59.1576E-03     118.756E-03    -59.5984E-03     6.95848E-03    -19.3837E+06    -44.4679E+06    -145.369E+06    -44.5303E+06    -145.306E+06    -19.3837E+06     56.3127E+03         32.2072
             505     6.59725E-03     46.0584E-03         9.63533        -2.75391        -2.83070        -2.79203         9.59666        -2.75391        -1.32570     118.947E-03    -59.2916E-03    -59.6549E-03    -59.2587E-03     118.914E-03    -59.6549E-03     4.73120E-03    -22.6611E+06    -49.4519E+06    -180.890E+06    -49.4921E+06    -180.850E+06    -22.6611E+06    -1.03231E+06         31.4909
             506     5.65443E-03     46.0537E-03         9.67083        -2.75027        -2.88366        -2.77747         9.56464        -2.75027        -2.23825     118.943E-03    -59.2580E-03    -59.6854E-03    -59.2461E-03     118.931E-03    -59.6854E-03     2.71871E-03    -27.5958E+06    -53.8925E+06    -199.774E+06    -53.9156E+06    -199.751E+06    -27.5958E+06    -1.42999E+06         30.9400
             507     4.71183E-03     46.0518E-03         9.63818        -2.74635        -2.86637        -2.77059         9.54240        -2.74635        -2.07117     119.127E-03    -59.4039E-03    -59.7227E-03    -59.4141E-03     119.123E-03    -59.7089E-03     1.53229E-03    -32.7216E+06    -56.4093E+06    -215.703E+06    -56.4291E+06    -215.683E+06    -32.7216E+06    -770.808E+03         30.5141
             508     3.76923E-03     46.0508E-03         9.62938        -2.74171        -2.87396        -2.76233         9.51775        -2.74171        -2.20577     119.217E-03    -59.4676E-03    -59.7492E-03    -59.5178E-03     119.215E-03    -59.6973E-03     846.607E-06    -41.9285E+06    -59.7647E+06    -229.507E+06    -59.7717E+06    -229.500E+06    -41.9285E+06    -236.306E+03         30.1899
             509     2.82703E-03     46.0514E-03         9.58720        -2.73663        -2.84571        -2.74937         9.49138        -2.73715        -1.21134     119.368E-03    -59.5405E-03    -59.8274E-03    -59.7306E-03     119.368E-03    -59.6370E-03    -106.213E-06    -50.5141E+06    -62.7723E+06    -236.029E+06    -62.7784E+06    -236.023E+06    -50.5141E+06    -484.567E+03         29.9522
             510     1.88522E-03     46.0510E-03         9.77542        -2.73103        -3.03106        -2.74556         9.49043        -2.73155        -2.37960     119.295E-03    -59.4744E-03    -59.8210E-03    -59.8206E-03     119.295E-03    -59.4744E-03    -253.949E-06    -57.8444E+06    -65.7071E+06    -240.576E+06    -65.7173E+06    -240.566E+06    -57.8444E+06    -880.004E+03         29.7894
             511     943.398E-06     46.0512E-03         11.9049        -2.70685        -5.18015    -567.393E-03         9.47127        -4.88597         4.54146     118.648E-03    -58.9681E-03    -59.6799E-03    -59.6797E-03     118.648E-03    -58.9681E-03     68.9645E-06    -66.6399E+06    -70.6359E+06    -243.516E+06    -69.7684E+06    -243.479E+06    -67.5442E+06    -699.460E+03         29.6926
             512     16.0273E-03     45.8295E-03         10.2065        -2.88331        -3.03054        -2.99462         10.2003        -2.91302     494.949E-03     207.369E-03    -59.8185E-03    -147.551E-03    -68.0302E-03     127.849E-03    -59.8185E-03     293.287E-03     147.433E+06     129.057E+06    -8.27294E+06    -8.23332E+06     147.393E+06     129.057E+06    -761.991E+03         68.4040
             513     15.0832E-03     45.3948E-03         10.2501        -2.95203        -3.07713        -3.02021         10.2329        -2.99180     771.376E-03     204.611E-03    -59.7268E-03    -144.884E-03    -67.8343E-03     127.561E-03    -59.7268E-03     286.357E-03     126.132E+06     104.396E+06    -19.2058E+06    -19.1507E+06     126.077E+06     104.396E+06    -1.81106E+06         62.8227
             514     14.1426E-03     45.1775E-03         10.3121        -3.01938        -3.12963        -3.05751         10.2727        -3.05210         1.44714     143.694E-03    -59.5852E-03    -84.1087E-03    -59.3049E-03     118.890E-03    -59.5852E-03     135.237E-03     109.750E+06     66.4409E+06    -26.1763E+06    -26.1544E+06     109.728E+06     66.4409E+06    -317.286E+03         55.8928
             515     13.1949E-03     45.0923E-03         10.3322        -3.05039        -3.15350        -3.07729         10.2877        -3.08213         1.54399     123.308E-03    -59.4343E-03    -63.8737E-03    -57.6877E-03     117.122E-03    -59.4343E-03     65.7644E-03     102.382E+06     29.5673E+06    -30.9517E+06    -30.9433E+06     102.374E+06     29.5673E+06     363.953E+03         49.1055
             516     12.2562E-03     45.0325E-03         10.3332        -3.07076        -3.15755        -3.08007         10.2847        -3.09974         1.61032     120.080E-03    -59.2726E-03    -60.8079E-03    -58.1548E-03     117.427E-03    -59.2726E-03     42.2378E-03     96.2687E+06    -2.95620E+06    -32.7697E+06    -32.7377E+06     96.2367E+06    -2.95620E+06    -956.392E+03         43.4725
             517     11.3088E-03     45.0019E-03         10.3093        -3.07885        -3.14880        -3.08629         10.2803        -3.11235         1.09440     118.704E-03    -59.1859E-03    -59.5186E-03    -58.4281E-03     117.719E-03    -59.2913E-03     25.7425E-03     50.2828E+06    -11.1163E+06    -32.7050E+06    -32.6747E+06     50.2526E+06    -11.1163E+06    -609.627E+03         39.3109
             518     10.3672E-03     44.9783E-03         10.2952        -3.08638        -3.15187        -3.10191         10.2804        -3.12160     825.586E-03     118.859E-03    -59.1247E-03    -59.7339E-03    -58.9509E-03     118.355E-03    -59.4038E-03     18.8509E-03    -841.256E+03    -19.5936E+06    -37.3910E+06    -35.5128E+06    -15.7655E+06    -6.54769E+06     1.47022E+06         36.4423
             519     9.42699E-03     44.9603E-03         10.3008        -3.10500        -3.16588        -3.12220         10.2807        -3.12858     122.723E-03     118.511E-03    -58.8933E-03    -59.6178E-03    -58.7263E-03     118.166E-03    -59.4398E-03     15.4063E-03    -14.0521E+06    -38.0693E+06    -65.4410E+06    -39.1548E+06    -64.3556E+06    -14.0521E+06     1.39091E+06         34.5061
             520     8.48208E-03     44.9468E-03         10.2813        -3.11513        -3.16274        -3.13699         10.2736        -3.13317    -430.742E-03     118.492E-03    -58.9803E-03    -59.5116E-03    -58.8032E-03     118.315E-03    -59.5116E-03     10.8638E-03    -18.1222E+06    -40.8538E+06    -106.930E+06    -40.8738E+06    -106.910E+06    -18.1222E+06    -787.397E+03         33.1719
             521     7.53986E-03     44.9380E-03         10.2618        -3.12204        -3.15717        -3.13545         10.2541        -3.13612    -427.822E-03     118.901E-03    -59.2934E-03    -59.6080E-03    -59.2214E-03     118.829E-03    -59.6080E-03     6.96916E-03    -15.2593E+06    -42.6355E+06    -146.656E+06    -42.6635E+06    -146.628E+06    -15.2593E+06     64.7818E+03         32.2131
             522     6.59699E-03     44.9319E-03         10.2689        -3.13338        -3.16758        -3.12777         10.2347        -3.13903        -1.29394     119.034E-03    -59.3772E-03    -59.6571E-03    -59.3476E-03     119.005E-03    -59.6571E-03     4.52246E-03    -16.1792E+06    -46.2092E+06    -178.556E+06    -46.2263E+06    -178.539E+06    -16.1792E+06     334.218E+03         31.4949
             523     5.65504E-03     44.9288E-03         10.3189        -3.14209        -3.22329        -3.13120         10.2268        -3.14209        -2.17111     118.993E-03    -59.3407E-03    -59.6520E-03    -59.3273E-03     118.979E-03    -59.6520E-03     2.99685E-03    -24.9988E+06    -51.1024E+06    -198.324E+06    -51.1335E+06    -198.293E+06    -24.9988E+06    -1.89373E+06         30.9428
             524     4.71215E-03     44.9262E-03         10.3089        -3.14409        -3.22413        -3.14127         10.2260        -3.14409        -2.00794     118.992E-03    -59.3305E-03    -59.6612E-03    -59.3264E-03     118.988E-03    -59.6612E-03     1.47382E-03    -33.8266E+06    -55.9483E+06    -218.203E+06    -55.9939E+06    -218.158E+06    -33.8266E+06    -2.50737E+06         30.5158
             525     3.76934E-03     44.9257E-03         10.3185        -3.14464        -3.24268        -3.14569         10.2215        -3.14464        -2.14549     119.142E-03    -59.4491E-03    -59.6925E-03    -59.4867E-03     119.141E-03    -59.6545E-03     426.367E-06    -42.2807E+06    -59.4147E+06    -229.757E+06    -59.4386E+06    -229.733E+06    -42.2807E+06    -1.44141E+06         30.1908
             526     2.82732E-03     44.9245E-03         10.2992        -3.14338        -3.23119        -3.14829         10.2168        -3.14390        -1.19773     119.291E-03    -59.5142E-03    -59.7771E-03    -59.7147E-03     119.291E-03    -59.5764E-03    -17.0193E-06    -53.4484E+06    -63.7109E+06    -236.239E+06    -63.7196E+06    -236.230E+06    -53.4484E+06    -969.017E+03         29.9525
             527     1.88532E-03     44.9261E-03         10.4667        -3.13914        -3.40163        -3.15329         10.2189        -3.13966        -2.33699     119.185E-03    -59.4078E-03    -59.7775E-03    -59.7772E-03     119.185E-03    -59.4078E-03    -93.3128E-06    -60.8947E+06    -67.6116E+06    -242.128E+06    -67.6170E+06    -242.122E+06    -60.8947E+06    -620.728E+03         29.7895
             528     942.658E-06     44.9257E-03         12.4459        -2.62480        -5.88795    -636.554E-03         10.2024        -5.63267         4.40423     118.529E-03    -58.9185E-03    -59.6108E-03    -59.6099E-03     118.528E-03    -58.9185E-03    -238.399E-06    -67.3388E+06    -71.5076E+06    -245.140E+06    -71.5225E+06    -245.125E+06    -67.3388E+06     696.747E+03         29.6923
             529     16.0352E-03     44.7185E-03         10.3055        -2.97010        -3.17766        -2.96407         10.2994        -3.17766     496.411E-03     207.243E-03    -59.7892E-03    -147.453E-03    -67.3735E-03     127.163E-03    -59.7892E-03     293.183E-03     146.409E+06     129.036E+06    -7.95010E+06    -7.94152E+06     146.401E+06     129.036E+06     646.180E+03         68.3403
             530     15.0870E-03     44.2646E-03         10.4279        -3.05985        -3.27190        -3.04442         10.4125        -3.27190     750.900E-03     205.422E-03    -59.7594E-03    -145.663E-03    -67.3839E-03     127.143E-03    -59.7594E-03     288.217E-03     126.751E+06     106.238E+06    -16.6629E+06    -16.6330E+06     126.721E+06     106.238E+06     629.762E+03         62.7903
             531     14.1405E-03     44.0559E-03         10.5520        -3.15729        -3.34690        -3.12103         10.5157        -3.34690         1.40240     144.433E-03    -59.6125E-03    -84.8208E-03    -60.4759E-03     120.088E-03    -59.6125E-03     134.576E-03     112.093E+06     70.0742E+06    -23.3727E+06    -23.3474E+06     112.067E+06     70.0742E+06    -48.2860E+03         55.8993
             532     13.1992E-03     43.9646E-03         10.6329        -3.21999        -3.39139        -3.17959         10.5925        -3.39139         1.49155     122.979E-03    -59.4112E-03    -63.5679E-03    -57.4561E-03     116.867E-03    -59.4112E-03     65.4300E-03     103.118E+06     29.3118E+06    -28.7455E+06    -28.7361E+06     103.109E+06     29.3118E+06    -550.293E+03         49.1414
             533     12.2510E-03     43.9088E-03         10.7000        -3.27481        -3.42278        -3.23130         10.6565        -3.42278         1.55224     119.742E-03    -59.2726E-03    -60.4693E-03    -57.8091E-03     117.082E-03    -59.2726E-03     42.0594E-03     95.9224E+06    -4.10098E+06    -33.7745E+06    -33.7367E+06     95.8846E+06    -4.10098E+06    -1.91812E+06         43.5150
             534     11.3119E-03     43.8741E-03         10.7343        -3.30383        -3.44789        -3.27769         10.7082        -3.44789         1.04339     118.905E-03    -59.0636E-03    -59.8411E-03    -58.6369E-03     117.941E-03    -59.3043E-03     25.5185E-03     49.3187E+06    -11.5844E+06    -36.8098E+06    -36.7777E+06     49.2866E+06    -11.5844E+06    -1.19671E+06         39.3477
             535     10.3695E-03     43.8523E-03         10.7581        -3.33033        -3.46897        -3.31738         10.7452        -3.46897     780.218E-03     118.463E-03    -58.8899E-03    -59.5736E-03    -58.5269E-03     117.948E-03    -59.4215E-03     19.0218E-03    -1.82548E+06    -21.4588E+06    -41.7372E+06    -37.7831E+06    -18.9600E+06    -8.27835E+06     870.585E+03         36.4689
             536     9.42346E-03     43.8357E-03         10.7992        -3.37847        -3.48789        -3.35931         10.7800        -3.48789     89.1043E-03     118.682E-03    -59.0558E-03    -59.6260E-03    -58.8327E-03     118.319E-03    -59.4863E-03     15.7719E-03    -10.6959E+06    -37.8749E+06    -61.9395E+06    -38.7119E+06    -61.1024E+06    -10.6959E+06     914.902E+03         34.5231
             537     8.48231E-03     43.8207E-03         10.8234        -3.41236        -3.50429        -3.40443         10.8155        -3.50429    -462.537E-03     118.883E-03    -59.2128E-03    -59.6704E-03    -59.1778E-03     118.709E-03    -59.5307E-03     10.7611E-03    -15.9825E+06    -41.9376E+06    -104.752E+06    -41.9665E+06    -104.723E+06    -15.9825E+06    -699.970E+03         33.1829
             538     7.53985E-03     43.8121E-03         10.8479        -3.44296        -3.51808        -3.43545         10.8404        -3.51808    -451.836E-03     118.782E-03    -59.1919E-03    -59.5901E-03    -59.1187E-03     118.709E-03    -59.5901E-03     7.13054E-03    -18.9558E+06    -44.9141E+06    -149.080E+06    -45.0077E+06    -148.986E+06    -18.9558E+06    -1.91935E+06         32.2204
             539     6.59753E-03     43.8066E-03         10.8879        -3.48256        -3.53313        -3.45335         10.8564        -3.53084        -1.29331     118.951E-03    -59.2973E-03    -59.6538E-03    -59.2603E-03     118.914E-03    -59.6538E-03     4.98982E-03    -17.6866E+06    -45.5932E+06    -177.426E+06    -45.6782E+06    -177.341E+06    -17.6866E+06    -1.72333E+06         31.5000
             540     5.65439E-03     43.8029E-03         10.9586        -3.52749        -3.57419        -3.47468         10.8750        -3.54346        -2.14319     119.175E-03    -59.4718E-03    -59.7032E-03    -59.5050E-03     119.160E-03    -59.6554E-03     3.11643E-03    -23.4993E+06    -48.1095E+06    -198.018E+06    -48.1360E+06    -197.991E+06    -23.4993E+06    -660.836E+03         30.9467
             541     4.71232E-03     43.8011E-03         10.9819        -3.54953        -3.58718        -3.50790         10.9078        -3.55466        -1.96273     119.238E-03    -59.5526E-03    -59.6851E-03    -59.6236E-03     119.233E-03    -59.6097E-03     1.53249E-03    -34.3064E+06    -54.2485E+06    -218.312E+06    -54.2848E+06    -218.276E+06    -34.3064E+06    -911.938E+03         30.5189
             542     3.77047E-03     43.7998E-03         11.0261        -3.55700        -3.63601        -3.54269         10.9379        -3.56212        -2.11763     119.002E-03    -59.4095E-03    -59.5928E-03    -59.4366E-03     119.002E-03    -59.5653E-03     474.947E-06    -43.9752E+06    -60.1425E+06    -231.372E+06    -60.1692E+06    -231.345E+06    -43.9752E+06    -1.39155E+06         30.1928
             543     2.82730E-03     43.8001E-03         11.0403        -3.56268        -3.65168        -3.57458         10.9632        -3.56268        -1.15000     118.891E-03    -59.3226E-03    -59.5687E-03    -59.3467E-03     118.891E-03    -59.5446E-03     206.199E-06    -54.0227E+06    -64.2194E+06    -237.767E+06    -64.2317E+06    -237.755E+06    -54.0227E+06    -617.351E+03         29.9541
             544     1.88466E-03     43.7995E-03         11.1922        -3.56078        -3.80201        -3.56009         10.9502        -3.56078        -2.34965     118.998E-03    -59.3453E-03    -59.6524E-03    -59.4545E-03     118.997E-03    -59.5428E-03    -271.662E-06    -62.3183E+06    -67.4100E+06    -243.095E+06    -67.4175E+06    -243.087E+06    -62.3183E+06    -362.395E+03         29.7913
             545     942.853E-06     43.8018E-03         13.1839        -2.73659        -6.62251    -722.104E-03         10.9474        -6.40047         4.50831     119.061E-03    -59.2876E-03    -59.7735E-03    -59.4704E-03     119.059E-03    -59.5886E-03    -275.533E-06    -65.5248E+06    -69.1101E+06    -244.464E+06    -68.1009E+06    -244.454E+06    -66.5443E+06    -899.432E+03         29.6947
             546     16.0266E-03     43.5878E-03         10.3744        -2.92599        -3.43481        -2.92069         10.3691        -3.43481     452.888E-03     207.950E-03    -59.9195E-03    -148.031E-03    -67.2349E-03     127.154E-03    -59.9195E-03     295.776E-03     145.753E+06     128.731E+06    -7.73232E+06    -7.72412E+06     145.745E+06     128.731E+06    -166.880E+03         68.2594
             547     15.0810E-03     43.1434E-03         10.5647        -3.05655        -3.54215        -3.04355         10.5517        -3.54215     681.111E-03     206.981E-03    -59.8591E-03    -147.122E-03    -69.2028E-03     129.062E-03    -59.8591E-03     289.808E-03     127.867E+06     107.810E+06    -15.0210E+06    -14.9994E+06     127.845E+06     107.810E+06     1.10811E+06         62.7403
             548     14.1415E-03     42.9220E-03         10.7514        -3.19236        -3.63040        -3.16147         10.7205        -3.63040         1.30436     144.979E-03    -59.6580E-03    -85.3215E-03    -60.7108E-03     120.369E-03    -59.6580E-03     135.005E-03     112.743E+06     70.4782E+06    -22.3485E+06    -22.3312E+06     112.725E+06     70.4782E+06     1.04170E+06         55.8939
             549     13.1977E-03     42.8446E-03         10.8970        -3.30302        -3.68848        -3.26957         10.8636        -3.68848         1.37247     123.612E-03    -59.4327E-03    -64.1795E-03    -58.0541E-03     117.487E-03    -59.4327E-03     66.0751E-03     103.584E+06     29.1746E+06    -28.2843E+06    -28.2670E+06     103.567E+06     29.1746E+06     275.366E+03         49.1681
             550     12.2553E-03     42.7819E-03         11.0156        -3.39400        -3.73340        -3.35782         10.9794        -3.73340         1.43547     120.257E-03    -59.1821E-03    -61.0745E-03    -58.1169E-03     117.382E-03    -59.2651E-03     43.5351E-03     97.0667E+06    -3.36877E+06    -31.9262E+06    -31.9069E+06     97.0473E+06    -3.36877E+06     43.7049E+03         43.5550
             551     11.3104E-03     42.7469E-03         11.0990        -3.45774        -3.77199        -3.43578         11.0770        -3.77199     947.846E-03     118.327E-03    -58.6745E-03    -59.6526E-03    -58.0754E-03     117.386E-03    -59.3108E-03     25.0917E-03     48.3229E+06    -11.6473E+06    -35.5319E+06    -35.4835E+06     48.2745E+06    -11.6473E+06    -732.150E+03         39.3835
             552     10.3655E-03     42.7297E-03         11.1755        -3.52317        -3.80605        -3.51241         11.1647        -3.80605     705.990E-03     118.398E-03    -58.7673E-03    -59.6308E-03    -58.4359E-03     117.874E-03    -59.4377E-03     19.2073E-03    -7.85540E+06    -21.7026E+06    -40.9378E+06    -38.0721E+06    -19.7802E+06    -12.6435E+06    -1.58732E+06         36.4944
             553     9.42536E-03     42.7074E-03         11.2632        -3.60493        -3.83741        -3.58668         11.2450        -3.83741     31.2743E-03     119.070E-03    -59.2523E-03    -59.8180E-03    -59.2275E-03     118.713E-03    -59.4851E-03     15.5567E-03    -16.0125E+06    -38.4006E+06    -62.3749E+06    -39.4025E+06    -61.3730E+06    -16.0125E+06    -845.100E+03         34.5404
             554     8.48296E-03     42.6953E-03         11.3271        -3.66425        -3.86582        -3.65572         11.3186        -3.86582    -517.412E-03     118.794E-03    -59.1116E-03    -59.6821E-03    -59.0977E-03     118.640E-03    -59.5423E-03     10.3038E-03    -15.3773E+06    -40.7761E+06    -103.542E+06    -40.7959E+06    -103.522E+06    -15.3773E+06     232.176E+03         33.1945
             555     7.53954E-03     42.6871E-03         11.3860        -3.71449        -3.89197        -3.70629         11.3778        -3.89197    -511.145E-03     118.707E-03    -59.1085E-03    -59.5982E-03    -59.0272E-03     118.625E-03    -59.5982E-03     7.50143E-03    -20.9195E+06    -44.1205E+06    -145.780E+06    -44.2477E+06    -145.653E+06    -20.9195E+06    -2.57345E+06         32.2283
             556     6.59641E-03     42.6807E-03         11.4660        -3.78421        -3.91726        -3.75418         11.4360        -3.91726        -1.31478     119.078E-03    -59.4244E-03    -59.6534E-03    -59.3879E-03     119.039E-03    -59.6516E-03     5.03998E-03    -24.6451E+06    -49.3380E+06    -180.313E+06    -49.4708E+06    -180.180E+06    -24.6451E+06    -3.66146E+06         31.5059
             557     5.65470E-03     42.6773E-03         11.5808        -3.88551        -3.94669        -3.81188         11.5015        -3.94101        -2.15071     119.258E-03    -59.5563E-03    -59.7017E-03    -59.5922E-03     119.244E-03    -59.6521E-03     3.03322E-03    -28.3177E+06    -53.5273E+06    -201.374E+06    -53.5519E+06    -201.349E+06    -28.3177E+06    -597.765E+03         30.9514
             558     4.71260E-03     42.6747E-03         11.6423        -3.94051        -3.96661        -3.87664         11.5728        -3.96093        -1.94508     119.187E-03    -59.5008E-03    -59.6858E-03    -59.5716E-03     119.182E-03    -59.6104E-03     1.61810E-03    -35.2969E+06    -56.0538E+06    -216.792E+06    -56.0630E+06    -216.783E+06    -35.2969E+06     450.978E+03         30.5229
             559     3.76988E-03     42.6751E-03         11.7104        -3.95980        -4.02890        -3.92544         11.6231        -3.97593        -2.14936     119.075E-03    -59.4126E-03    -59.6627E-03    -59.5118E-03     119.075E-03    -59.5627E-03     706.622E-06    -44.8503E+06    -60.3961E+06    -231.785E+06    -60.4047E+06    -231.776E+06    -44.8503E+06    -381.429E+03         30.1966
             560     2.82759E-03     42.6748E-03         11.7497        -3.98476        -4.05135        -3.96974         11.6681        -3.98476        -1.09509     118.859E-03    -59.2428E-03    -59.6157E-03    -59.3149E-03     118.858E-03    -59.5433E-03     242.067E-06    -54.2922E+06    -64.7425E+06    -239.594E+06    -64.7581E+06    -239.579E+06    -54.2922E+06    -639.170E+03         29.9578
             561     1.88489E-03     42.6746E-03         11.9446        -3.99356        -4.23175        -3.96799         11.6808        -3.99356        -2.43649     118.779E-03    -59.1165E-03    -59.6622E-03    -59.1161E-03     118.778E-03    -59.6622E-03    -285.721E-06    -61.2484E+06    -67.4939E+06    -242.958E+06    -67.5038E+06    -242.948E+06    -61.2484E+06    -574.249E+03         29.7955
             562     941.277E-06     42.6763E-03         14.0884        -3.04110        -7.33373    -890.761E-03         11.7135        -7.10915         4.77918     119.491E-03    -59.4053E-03    -60.0852E-03    -59.5754E-03     119.489E-03    -59.9137E-03     91.8281E-06    -68.7417E+06    -72.1247E+06    -244.684E+06    -71.1186E+06    -244.671E+06    -69.7612E+06    -473.151E+03         29.6998
             563     16.0205E-03     42.4519E-03         10.4210        -2.86470        -3.67491        -2.86028         10.4165        -3.67491     393.939E-03     206.846E-03    -59.9849E-03    -146.861E-03    -66.8972E-03     126.882E-03    -59.9849E-03     294.415E-03     146.304E+06     128.985E+06    -8.16210E+06    -8.15447E+06     146.296E+06     128.985E+06    -541.892E+03         68.1596
             564     15.0866E-03     42.0164E-03         10.6696        -3.03513        -3.79315        -3.02516         10.6597        -3.79315     580.876E-03     204.262E-03    -59.8997E-03    -144.362E-03    -68.9760E-03     128.876E-03    -59.8997E-03     284.059E-03     127.541E+06     108.551E+06    -14.9468E+06    -14.9359E+06     127.530E+06     108.551E+06     588.002E+03         62.6787
             565     14.1384E-03     41.7977E-03         10.9082        -3.21043        -3.89236        -3.18566         10.8835        -3.89236         1.17363     144.513E-03    -59.6979E-03    -84.8147E-03    -60.1812E-03     119.879E-03    -59.6979E-03     134.058E-03     111.890E+06     70.5413E+06    -23.4224E+06    -23.4129E+06     111.881E+06     70.5413E+06     1.04740E+06         55.8786
             566     13.1948E-03     41.7170E-03         11.1024        -3.35551        -3.96354        -3.32895         11.0758        -3.96354         1.23289     123.771E-03    -59.4865E-03    -64.2843E-03    -58.4063E-03     117.893E-03    -59.4865E-03     64.9251E-03     104.869E+06     31.2388E+06    -28.6533E+06    -28.6383E+06     104.854E+06     31.2388E+06     724.061E+03         49.1873
             567     12.2533E-03     41.6542E-03         11.2644        -3.47561        -4.02245        -3.44670         11.2355        -4.02245         1.29588     120.649E-03    -59.2068E-03    -61.4421E-03    -58.4976E-03     117.787E-03    -59.2898E-03     43.4024E-03      97.399E+06    -1.50724E+06    -30.5015E+06    -30.4878E+06     97.3853E+06    -1.50724E+06     433.201E+03         43.5904
             568     11.3106E-03     41.6245E-03         11.3954        -3.57527        -4.07536        -3.55752         11.3776        -4.07536     828.228E-03     118.402E-03    -58.9138E-03    -59.4886E-03    -58.2171E-03     117.526E-03    -59.3093E-03     24.1569E-03     48.5667E+06    -10.5015E+06    -32.1863E+06    -32.1401E+06     48.5206E+06    -10.5015E+06    -351.583E+03         39.4178
             569     10.3683E-03     41.6019E-03         11.5257        -3.68159        -4.12362        -3.67322         11.5173        -4.12362     604.302E-03     118.518E-03    -58.8700E-03    -59.6483E-03    -58.6015E-03     118.021E-03    -59.4199E-03     18.7434E-03    -6.96648E+06    -19.7050E+06    -37.8534E+06    -34.9052E+06    -18.0127E+06    -11.6070E+06    -1.57903E+06         36.5204
             570     9.42464E-03     41.5815E-03         11.6660        -3.80071        -4.16851        -3.78356         11.6489        -4.16851    -45.1649E-03     118.696E-03    -59.0304E-03    -59.6659E-03    -58.8668E-03     118.340E-03    -59.4728E-03     15.4669E-03    -17.4775E+06    -35.6317E+06    -65.2076E+06    -36.7139E+06    -64.1255E+06    -17.4775E+06    -2.17878E+06         34.5578
             571     8.48139E-03     41.5701E-03         11.7756        -3.89101        -4.20988        -3.88173         11.7663        -4.20988    -567.873E-03     118.753E-03    -59.1930E-03    -59.5602E-03    -59.0471E-03     118.607E-03    -59.5602E-03     9.98267E-03    -14.9384E+06    -37.9228E+06    -104.300E+06    -38.0000E+06    -104.223E+06    -14.9384E+06    -1.09605E+06         33.2060
             572     7.53911E-03     41.5613E-03         11.8746        -3.96772        -4.24892        -3.95865         11.8656        -4.24892    -567.718E-03     118.945E-03    -59.3181E-03    -59.6267E-03    -59.2457E-03     118.872E-03    -59.6267E-03     7.04584E-03    -15.7312E+06    -41.2913E+06    -142.630E+06    -41.3827E+06    -142.538E+06    -15.7312E+06    -196.270E+03         32.2365
             573     6.59736E-03     41.5550E-03         11.9991        -4.06845        -4.28665        -4.03969         11.9704        -4.28665        -1.33406     119.123E-03    -59.4625E-03    -59.6602E-03    -59.4297E-03     119.088E-03    -59.6584E-03     4.84398E-03    -22.4114E+06    -47.8478E+06    -182.133E+06    -47.9329E+06    -182.048E+06    -22.4114E+06    -659.838E+03         31.5121
             574     5.65468E-03     41.5512E-03         12.1603        -4.21225        -4.32107        -4.13485         12.0829        -4.32107        -2.17437     119.098E-03    -59.4400E-03    -59.6585E-03    -59.4283E-03     119.085E-03    -59.6567E-03     2.90843E-03    -29.2206E+06    -53.7379E+06    -203.258E+06    -53.7523E+06    -203.243E+06    -29.2206E+06    -1.16156E+06         30.9566
             575     4.71190E-03     41.5496E-03         12.2547        -4.29450        -4.34939        -4.22770         12.1879        -4.34939        -1.92365     119.007E-03    -59.3526E-03    -59.6545E-03    -59.3485E-03     119.003E-03    -59.6545E-03     1.56984E-03    -36.7085E+06    -57.9969E+06    -217.871E+06    -58.0059E+06    -217.862E+06    -36.7085E+06    -879.945E+03         30.5279
             576     3.76956E-03     41.5493E-03         12.3485        -4.33784        -4.41473        -4.29039         12.2584        -4.37199        -2.19451     119.165E-03    -59.4499E-03    -59.7154E-03    -59.5211E-03     119.164E-03    -59.6430E-03     864.882E-06    -45.3402E+06    -61.2886E+06    -231.629E+06    -61.2909E+06    -231.627E+06    -45.3402E+06    -130.224E+03         30.2021
             577     2.82762E-03     41.5490E-03         12.4188        -4.38947        -4.43746        -4.34559         12.3269        -4.38947        -1.04810     119.103E-03    -59.4147E-03    -59.6888E-03    -59.4893E-03     119.103E-03    -59.6138E-03     169.760E-06    -54.8583E+06    -64.8757E+06    -239.519E+06    -64.8871E+06    -239.507E+06    -54.8583E+06     45.4479E+03         29.9641
             578     1.88448E-03     41.5511E-03         12.6755        -4.40475        -4.67686        -4.37224         12.3709        -4.40475        -2.58918     119.007E-03    -59.3023E-03    -59.7047E-03    -59.3564E-03     119.007E-03    -59.6505E-03    -102.946E-06    -63.2153E+06    -69.2260E+06    -244.307E+06    -69.2365E+06    -244.296E+06    -63.2153E+06    -83.0495E+03         29.8024
             579     942.287E-06     41.5491E-03         15.0094        -3.44295        -7.96824        -1.12222         12.4219        -7.70140         5.09375     119.354E-03    -59.3241E-03    -60.0300E-03    -59.8207E-03     119.352E-03    -59.5315E-03     510.157E-06    -69.2064E+06    -71.8135E+06    -245.013E+06    -71.8177E+06    -245.009E+06    -69.2064E+06     480.770E+03         29.7070
             580     16.0333E-03     41.3253E-03         10.4504        -2.80338        -3.89142        -2.79964         10.4466        -3.89142     341.287E-03     207.291E-03    -59.8232E-03    -147.468E-03    -67.0261E-03     126.849E-03    -59.8232E-03     294.316E-03     145.545E+06     128.178E+06    -8.56613E+06    -8.52785E+06     145.506E+06     128.178E+06    -78.5298E+03         68.0597
             581     15.0821E-03     40.8914E-03         10.7399        -3.00765        -4.01774        -3.00007         10.7323        -4.01774     489.801E-03     203.305E-03    -59.7841E-03    -143.521E-03    -66.9742E-03     126.758E-03    -59.7841E-03     283.700E-03     125.035E+06     105.948E+06    -17.3041E+06    -17.2841E+06     125.015E+06     105.948E+06    -498.975E+03         62.6243
             582     14.1409E-03     40.6724E-03         11.0124        -3.20670        -4.12650        -3.18682         10.9925        -4.12650         1.05426     144.073E-03    -59.6313E-03    -84.4415E-03    -60.6073E-03     120.239E-03    -59.6313E-03     132.029E-03     112.036E+06     72.4726E+06    -23.0534E+06    -23.0471E+06     112.030E+06     72.4726E+06    -136.811E+03         55.8711
             583     13.1984E-03     40.5898E-03         11.2392        -3.37160        -4.21060        -3.35041         11.2180        -4.21060         1.10564     122.813E-03    -59.4178E-03    -63.3956E-03    -57.8576E-03     117.275E-03    -59.4178E-03     62.5710E-03     106.791E+06     35.1791E+06    -26.9270E+06    -26.9171E+06     106.781E+06     35.1791E+06    -793.117E+03         49.2157
             584     12.2536E-03     40.5296E-03         11.4454        -3.52638        -4.28385        -3.50338         11.4224        -4.28385         1.16350     119.654E-03    -59.0324E-03    -60.6218E-03    -57.8524E-03     117.099E-03    -59.2466E-03     41.0412E-03     96.7199E+06    -466.688E+03    -29.6920E+06    -29.6828E+06     96.7107E+06    -466.688E+03    -987.170E+03         43.6288
             585     11.3109E-03     40.4963E-03         11.6284        -3.66561        -4.35123        -3.65132         11.6141        -4.35123     714.955E-03     118.429E-03    -58.9671E-03    -59.4617E-03    -58.2810E-03     117.563E-03    -59.2824E-03     24.1597E-03     48.8125E+06    -9.36144E+06    -31.5080E+06    -31.4997E+06     48.8041E+06    -9.36144E+06    -420.545E+03         39.4526
             586     10.3682E-03     40.4776E-03         11.8027        -3.80179        -4.41411        -3.79517         11.7961        -4.41411     512.917E-03     118.469E-03    -59.0426E-03    -59.4268E-03    -58.5658E-03     117.957E-03    -59.3916E-03     19.0362E-03    -3.61151E+06    -17.3998E+06    -36.5507E+06    -32.7788E+06    -15.7831E+06    -9.00010E+06    -1.09510E+06         36.5467
             587     9.42458E-03     40.4563E-03         11.9856        -3.94940        -4.47397        -3.93297         11.9692        -4.47397    -113.906E-03     118.448E-03    -58.9924E-03    -59.4554E-03    -58.6421E-03     118.098E-03    -59.4554E-03     15.2637E-03    -15.8093E+06    -33.8704E+06    -66.0270E+06    -34.2991E+06    -65.5983E+06    -15.8093E+06    -2.44593E+06         34.5756
             588     8.48246E-03     40.4437E-03         12.1518        -4.08117        -4.53011        -4.07117         12.1418        -4.53011    -607.009E-03     118.774E-03    -59.2343E-03    -59.5396E-03    -59.1006E-03     118.640E-03    -59.5396E-03     9.55620E-03    -15.9748E+06    -37.5167E+06    -106.468E+06    -37.6021E+06    -106.382E+06    -15.9748E+06    -1.73893E+06         33.2178
             589     7.54019E-03     40.4355E-03         12.3145        -4.20788        -4.58207        -4.19797         12.3045        -4.58207    -614.368E-03     118.950E-03    -59.3356E-03    -59.6141E-03    -59.2696E-03     118.884E-03    -59.6141E-03     6.78512E-03     -14.175E+06    -41.3197E+06    -145.054E+06    -41.3667E+06    -145.007E+06     -14.175E+06     1.14290E+06         32.2450
             590     6.59680E-03     40.4296E-03         12.4802        -4.34097        -4.63047        -4.31361         12.4528        -4.63047        -1.34196     118.879E-03    -59.2091E-03    -59.6698E-03    -59.1738E-03     118.844E-03    -59.6698E-03     4.91133E-03    -17.1486E+06    -44.8898E+06    -180.646E+06    -44.9459E+06    -180.590E+06    -17.1486E+06     2.22272E+06         31.5189
             591     5.65459E-03     40.4253E-03         12.6674        -4.50324        -4.67482        -4.42782         12.5920        -4.67482        -2.18286     118.880E-03    -59.1798E-03    -59.6999E-03    -59.1652E-03     118.865E-03    -59.6999E-03     3.02609E-03    -26.1973E+06    -50.2231E+06    -202.164E+06    -50.2470E+06    -202.140E+06    -26.1973E+06     132.809E+03         30.9627
             592     4.71199E-03     40.4250E-03         12.7942        -4.60598        -4.71315        -4.54158         12.7298        -4.71315        -1.88631     119.094E-03    -59.3692E-03    -59.7244E-03    -59.3639E-03     119.088E-03    -59.7244E-03     1.84389E-03    -35.7604E+06    -55.5750E+06    -219.141E+06    -55.5842E+06    -219.132E+06    -35.7604E+06    -674.458E+03         30.5343
             593     3.76933E-03     40.4230E-03         12.9376        -4.68526        -4.79158        -4.64028         12.8445        -4.74344        -2.22579     119.205E-03    -59.4739E-03    -59.7316E-03    -59.4720E-03     119.204E-03    -59.7316E-03     831.641E-06    -45.7766E+06    -60.3686E+06    -232.205E+06    -60.3726E+06    -232.201E+06    -45.7766E+06    -465.578E+03         30.2094
             594     2.82635E-03     40.4244E-03         13.0482        -4.76246        -4.82911        -4.72552         12.9447        -4.76246    -979.470E-03     119.326E-03    -59.5776E-03    -59.7487E-03    -59.5982E-03     119.326E-03    -59.7280E-03     14.1481E-06    -53.9182E+06    -63.7467E+06    -239.530E+06    -63.7537E+06    -239.523E+06    -53.9182E+06     96.3705E+03         29.9723
             595     1.88493E-03     40.4242E-03         13.3370        -4.77471        -5.10046        -4.74982         12.9863        -4.77471        -2.72687     119.513E-03    -59.6381E-03    -59.8750E-03    -59.8749E-03     119.513E-03    -59.6381E-03     95.5277E-06    -60.9229E+06    -66.5508E+06    -244.141E+06    -66.5621E+06    -244.130E+06    -60.9229E+06     959.634E+03         29.8110
             596     942.760E-06     40.4250E-03         15.8548        -3.87514        -8.50217        -1.36349         13.0359        -8.19492         5.43697     119.069E-03    -59.2345E-03    -59.8343E-03    -59.8325E-03     119.067E-03    -59.2345E-03     711.476E-06    -67.2308E+06    -69.8352E+06    -246.427E+06    -69.4810E+06    -246.412E+06    -67.6001E+06     1.18484E+06         29.7154
             597     16.0333E-03     40.2188E-03         10.4603        -2.75025        -4.08105        -2.74692         10.4569        -4.08105     294.476E-03     207.266E-03    -59.6943E-03    -147.572E-03    -68.1920E-03     127.886E-03    -59.6943E-03     291.584E-03     145.260E+06     128.158E+06    -7.18323E+06    -7.11569E+06     145.192E+06     128.158E+06     804.371E+03         67.9640
             598     15.0864E-03     39.7603E-03         10.7682        -2.96754        -4.21287        -2.96128         10.7620        -4.21287     419.069E-03     205.258E-03    -59.6409E-03    -145.617E-03    -67.4392E-03     127.080E-03    -59.6409E-03     287.601E-03     126.066E+06     106.778E+06    -14.9846E+06    -14.9355E+06     126.017E+06     106.778E+06     27.5297E+03         62.5802
             599     14.1444E-03     39.5482E-03         11.0565        -3.17691        -4.33046        -3.16042         11.0400        -4.33046     961.151E-03     143.154E-03    -59.5035E-03    -83.6505E-03    -60.1117E-03     119.615E-03    -59.5035E-03     131.940E-03     113.123E+06     73.0262E+06    -21.0482E+06    -21.0317E+06     113.107E+06     73.0262E+06    -1.23241E+06         55.8752
             600     13.1994E-03     39.4633E-03         11.3127        -3.36519        -4.42697        -3.34773         11.2952        -4.42697         1.00646     122.903E-03    -59.3035E-03    -63.5997E-03    -57.6394E-03     116.943E-03    -59.3035E-03     64.4842E-03     106.027E+06     34.4752E+06    -26.7972E+06    -26.7757E+06     106.006E+06     34.4752E+06    -1.59918E+06         49.2500
             601     12.2568E-03     39.4059E-03         11.5586        -3.54800        -4.51425        -3.52855         11.5391        -4.51425         1.07462     119.159E-03    -58.7388E-03    -60.4201E-03    -57.4525E-03     116.608E-03    -59.1553E-03     41.1834E-03     96.8411E+06    -302.345E+03    -30.4637E+06    -30.4511E+06     96.8285E+06    -302.345E+03    -616.126E+03         43.6722
             602     11.3110E-03     39.3713E-03         11.7860        -3.71856        -4.59649        -3.70629         11.7738        -4.59649     647.138E-03     117.582E-03    -58.3592E-03    -59.2228E-03    -57.4425E-03     116.665E-03    -59.2228E-03     24.6518E-03     49.3827E+06    -11.6655E+06    -32.5912E+06    -32.4017E+06     49.1932E+06    -11.6655E+06    -1.58068E+06         39.4904
             603     10.3678E-03     39.3509E-03         12.0050        -3.88626        -4.67475        -3.88032         11.9991        -4.67475     471.126E-03     118.289E-03    -58.9137E-03    -59.3754E-03    -58.4020E-03     117.777E-03    -59.3754E-03     19.0130E-03    -3.12637E+06    -20.6161E+06    -36.8002E+06    -33.9176E+06    -15.7618E+06    -10.8633E+06    -2.24653E+06         36.5741
             604     9.42598E-03     39.3314E-03         12.2412        -4.07258        -4.74968        -4.05666         12.2253        -4.74968    -139.607E-03     118.616E-03    -59.1721E-03    -59.4442E-03    -58.8031E-03     118.247E-03    -59.4442E-03     15.8475E-03    -16.6736E+06    -36.2572E+06    -66.0114E+06    -36.5451E+06    -65.7234E+06    -16.6736E+06    -1.11626E+06         34.5944
             605     8.48235E-03     39.3177E-03         12.4635        -4.24738        -4.81995        -4.23730         12.4534        -4.81995    -620.599E-03     118.599E-03    -59.0795E-03    -59.5191E-03    -58.9172E-03     118.436E-03    -59.5191E-03     10.5074E-03    -19.3809E+06    -39.5733E+06    -108.946E+06    -39.5906E+06    -108.929E+06    -19.3809E+06    -666.146E+03         33.2307
             606     7.53939E-03     39.3101E-03         12.6743        -4.41210        -4.88470        -4.40188         12.6641        -4.88470    -637.536E-03     118.853E-03    -59.2370E-03    -59.6161E-03    -59.1619E-03     118.778E-03    -59.6161E-03     7.21472E-03    -16.5985E+06    -42.4901E+06    -148.513E+06    -42.5163E+06    -148.487E+06    -16.5985E+06     998.421E+03         32.2547
             607     6.59760E-03     39.3037E-03         12.8812        -4.57597        -4.94454        -4.55058         12.8558        -4.94454        -1.32359     118.787E-03    -59.0888E-03    -59.6985E-03    -59.0535E-03     118.752E-03    -59.6985E-03     4.87375E-03    -16.2016E+06    -45.1451E+06    -179.402E+06    -45.1850E+06    -179.362E+06    -16.2016E+06     1.92093E+06         31.5272
             608     5.65374E-03     39.3012E-03         13.1055        -4.76385        -4.99930        -4.69204         13.0337        -4.99930        -2.15802     118.830E-03    -59.0795E-03    -59.7504E-03    -59.0652E-03     118.816E-03    -59.7504E-03     3.11249E-03    -24.6610E+06    -48.5984E+06    -200.214E+06    -48.6234E+06    -200.189E+06    -24.6610E+06     1.22440E+06         30.9707
             609     4.71107E-03     39.2981E-03         13.2671        -4.89318        -5.04699        -4.83220         13.2061        -5.04699        -1.82446     119.167E-03    -59.3702E-03    -59.7971E-03    -59.3645E-03     119.162E-03    -59.7971E-03     1.85182E-03    -34.5108E+06    -53.8967E+06    -219.629E+06    -53.9061E+06    -219.620E+06    -34.5108E+06     769.574E+03         30.5425
             610     3.76907E-03     39.2984E-03         13.4475        -5.00789        -5.12600        -4.95514         13.3536        -5.08494        -2.22145     119.345E-03    -59.5259E-03    -59.8193E-03    -59.5242E-03     119.344E-03    -59.8193E-03     797.419E-06    -43.5617E+06    -58.7680E+06    -231.594E+06    -58.7761E+06    -231.585E+06    -43.5617E+06     450.820E+03         30.2180
             611     2.82699E-03     39.2980E-03         13.5926        -5.11032        -5.16946        -5.05543         13.4786        -5.11032    -866.482E-03     119.554E-03    -59.6823E-03    -59.8720E-03    -59.7466E-03     119.554E-03    -59.8072E-03     205.220E-06    -52.2955E+06    -62.9600E+06    -240.148E+06    -62.9674E+06    -240.141E+06    -52.2955E+06     138.070E+03         29.9812
             612     1.88419E-03     39.2987E-03         13.9290        -5.12707        -5.48453        -5.09636         13.5409        -5.12707        -2.79396     119.623E-03    -59.6799E-03    -59.9431E-03    -59.9091E-03     119.623E-03    -59.7139E-03     49.2927E-06    -59.2383E+06    -66.4994E+06    -244.730E+06    -66.5063E+06    -244.723E+06    -59.2383E+06     397.292E+03         29.8201
             613     942.774E-06     39.2981E-03         16.6120        -4.34480        -8.94222        -1.66455         13.5924        -8.60284         5.80848     119.221E-03    -59.4277E-03    -59.7934E-03    -59.7593E-03     119.221E-03    -59.4618E-03     108.458E-06    -65.2941E+06    -69.2968E+06    -245.709E+06    -68.9454E+06    -245.691E+06    -65.6635E+06     665.667E+03         29.7246
             614     16.0314E-03     39.0944E-03         10.4429        -2.68842        -4.24238        -2.68522         10.4397        -4.24238     261.964E-03     207.085E-03    -59.7281E-03    -147.357E-03    -69.4575E-03     129.186E-03    -59.7281E-03     290.041E-03     145.771E+06     129.368E+06    -7.14440E+06    -7.08473E+06     145.711E+06     129.368E+06    -95.9443E+03         67.8789
             615     15.0901E-03     38.6343E-03         10.7478        -2.90831        -4.37865        -2.90250         10.7420        -4.37865     377.505E-03     206.557E-03    -59.6074E-03    -146.950E-03    -69.0851E-03     128.692E-03    -59.6074E-03     289.620E-03     129.933E+06     109.702E+06    -13.6685E+06    -13.6353E+06     129.900E+06     109.702E+06     932.183E+03         62.5438
             616     14.1428E-03     38.4255E-03         11.0431        -3.12830        -4.50429        -3.11318         11.0279        -4.50429     919.518E-03     142.961E-03    -59.4590E-03    -83.5016E-03    -58.9572E-03     118.416E-03    -59.4590E-03     134.312E-03     114.064E+06     71.3394E+06    -21.2004E+06    -21.1837E+06     114.047E+06     71.3394E+06    -1.24934E+06         55.8837
             617     13.1990E-03     38.3364E-03         11.3266        -3.33928        -4.61289        -3.32306         11.3104        -4.61289     971.290E-03     123.099E-03    -59.3003E-03    -63.7991E-03    -57.4324E-03     116.733E-03    -59.3003E-03     66.7377E-03     103.811E+06     29.2191E+06    -27.7170E+06    -27.6989E+06     103.792E+06     29.2191E+06    -1.17171E+06         49.2822
             618     12.2556E-03     38.2808E-03         11.6047        -3.54468        -4.71389        -3.52619         11.5862        -4.71389         1.05026     119.694E-03    -58.9559E-03    -60.7385E-03    -57.7747E-03     116.933E-03    -59.1580E-03     42.8608E-03     96.0681E+06    -4.21503E+06    -31.5960E+06    -31.5850E+06     96.0571E+06    -4.21503E+06    -273.262E+03         43.7155
             619     11.3126E-03     38.2479E-03         11.8707        -3.74158        -4.81080        -3.72993         11.8590        -4.81080     634.517E-03     117.949E-03    -58.4578E-03    -59.4911E-03    -57.7315E-03     116.940E-03    -59.2082E-03     26.0636E-03     51.7837E+06    -13.8045E+06    -33.9781E+06    -33.7560E+06     51.5617E+06    -13.8045E+06    -867.836E+03         39.5315
             620     10.3679E-03     38.2255E-03         12.1462        -3.95067        -4.90390        -3.94487         12.1404        -4.90390     470.970E-03     117.913E-03    -58.5419E-03    -59.3709E-03    -57.9817E-03     117.353E-03    -59.3709E-03     19.8138E-03    -4.08819E+06    -24.3808E+06    -40.8495E+06    -37.1870E+06    -17.8174E+06    -14.3141E+06    -1.47710E+06         36.6054
             621     9.42422E-03     38.2052E-03         12.4390        -4.18154        -4.99251        -4.16632         12.4238        -4.99251    -131.005E-03     118.429E-03    -58.9572E-03    -59.4721E-03    -58.5791E-03     118.051E-03    -59.4721E-03     16.0843E-03    -20.2083E+06    -40.3758E+06    -67.8079E+06    -40.5936E+06    -67.5901E+06    -20.2083E+06    -305.730E+03         34.6157
             622     8.48193E-03     38.1932E-03         12.7020        -4.38676        -5.07545        -4.37726         12.6924        -5.07545    -600.028E-03     118.621E-03    -59.0553E-03    -59.5654E-03    -58.8790E-03     118.444E-03    -59.5654E-03     10.9747E-03    -22.2885E+06    -43.7080E+06    -109.701E+06    -43.7329E+06    -109.676E+06    -22.2885E+06     494.389E+03         33.2455
             623     7.53950E-03     38.1834E-03         12.9476        -4.57495        -5.15293        -4.56519         12.9379        -5.15293    -621.985E-03     118.801E-03    -59.1331E-03    -59.6675E-03    -59.0486E-03     118.716E-03    -59.6675E-03     7.65370E-03    -21.2821E+06    -46.1962E+06    -149.279E+06    -46.2630E+06    -149.212E+06    -21.2821E+06    -269.835E+03         32.2661
             624     6.59614E-03     38.1792E-03         13.1939        -4.76667        -5.22541        -4.74361         13.1708        -5.22541        -1.28224     119.084E-03    -59.3046E-03    -59.7792E-03    -59.2918E-03     119.044E-03    -59.7524E-03     5.11064E-03    -19.4752E+06    -47.5732E+06    -179.630E+06    -47.6320E+06    -179.571E+06    -19.4752E+06    -263.639E+03         31.5376
             625     5.65423E-03     38.1752E-03         13.4670        -4.99124        -5.29124        -4.92468         13.4005        -5.29124        -2.10324     119.151E-03    -59.3339E-03    -59.8172E-03    -59.3466E-03     119.137E-03    -59.7904E-03     3.09474E-03    -23.8071E+06    -50.6265E+06    -200.135E+06    -50.6431E+06    -200.118E+06    -23.8071E+06     1.23766E+06         30.9809
             626     4.71161E-03     38.1732E-03         13.6680        -5.14903        -5.34784        -5.09282         13.6118        -5.34784        -1.74235     119.136E-03    -59.3136E-03    -59.8222E-03    -59.3088E-03     119.131E-03    -59.8222E-03     1.60434E-03    -32.9752E+06    -54.9822E+06    -218.483E+06    -54.9984E+06    -218.467E+06    -32.9752E+06     1.22234E+06         30.5526
             627     3.76847E-03     38.1721E-03         13.8678        -5.29680        -5.41193        -5.22222         13.7766        -5.39525        -2.17999     119.392E-03    -59.5367E-03    -59.8549E-03    -59.5358E-03     119.391E-03    -59.8549E-03     578.501E-06    -41.5764E+06    -59.2300E+06    -231.680E+06    -59.2356E+06    -231.674E+06    -41.5764E+06     654.347E+03         30.2277
             628     2.82613E-03     38.1722E-03         14.0356        -5.42722        -5.45486        -5.32928         13.9173        -5.43447    -764.666E-03     119.588E-03    -59.6982E-03    -59.8900E-03    -59.7443E-03     119.588E-03    -59.8433E-03     142.799E-06    -51.3714E+06    -63.5228E+06    -240.433E+06    -63.5284E+06    -240.428E+06    -51.3714E+06     497.245E+03         29.9903
             629     1.88497E-03     38.1721E-03         14.4453        -5.45627        -5.83010        -5.41714         14.0396        -5.46352        -2.82330     119.488E-03    -59.6027E-03    -59.8856E-03    -59.6492E-03     119.488E-03    -59.8390E-03    -25.0689E-06    -60.7702E+06    -67.7169E+06    -244.625E+06    -67.7173E+06    -244.624E+06    -60.7702E+06    -143.539E+03         29.8287
             630     941.694E-06     38.1736E-03         17.1814        -4.75337        -9.27283        -2.04180         14.1070        -8.90996         5.99464     119.666E-03    -59.6412E-03    -60.0248E-03    -59.6996E-03     119.666E-03    -59.9660E-03     334.862E-06    -66.7344E+06    -70.4495E+06    -245.141E+06    -70.2513E+06    -245.075E+06    -66.9983E+06    -2.10466E+06         29.7330
             631     16.0268E-03     37.9490E-03         10.3855        -2.61017        -4.37602        -2.60702         10.3824        -4.37602     262.548E-03     206.952E-03    -59.8249E-03    -147.127E-03    -69.0435E-03     128.868E-03    -59.8249E-03     291.221E-03     145.720E+06     129.264E+06    -9.25207E+06    -9.20698E+06     145.675E+06     129.264E+06    -1.84539E+06         67.8126
             632     15.0873E-03     37.5160E-03         10.6738        -2.83191        -4.51715        -2.82550         10.6674        -4.51715     398.793E-03     204.575E-03    -59.6897E-03    -144.885E-03    -68.6038E-03     128.294E-03    -59.6897E-03     285.906E-03     129.357E+06     108.195E+06    -17.2529E+06    -17.2323E+06     129.337E+06     108.195E+06    -994.046E+03         62.5145
             633     14.1426E-03     37.2970E-03         10.9794        -3.06807        -4.65059        -3.05163         10.9630        -4.65059     954.609E-03     143.845E-03    -59.5377E-03    -84.3077E-03    -58.8721E-03     118.410E-03    -59.5377E-03     136.784E-03     113.260E+06     68.3490E+06    -24.4688E+06    -24.4639E+06     113.255E+06     68.3490E+06    -551.387E+03         55.8935
             634     13.1979E-03     37.2149E-03         11.2876        -3.30074        -4.77075        -3.28289         11.2698        -4.77075         1.01626     123.373E-03    -59.3927E-03    -63.9804E-03    -57.4665E-03     116.859E-03    -59.3927E-03     67.7199E-03     103.099E+06     26.3377E+06    -28.9848E+06    -28.9776E+06     103.092E+06     26.3377E+06    -517.708E+03         49.3179
             635     12.2526E-03     37.1528E-03         11.6000        -3.53407        -4.88449        -3.51427         11.5802        -4.88449         1.08825     120.215E-03    -59.2147E-03    -60.9999E-03    -58.1505E-03     117.400E-03    -59.2498E-03     42.9041E-03     95.7085E+06    -5.39661E+06    -31.4302E+06    -31.4108E+06     95.6892E+06    -5.39661E+06    -1.22677E+06         43.7625
             636     11.3105E-03     37.1227E-03         11.9116        -3.76465        -4.99412        -3.75246         11.8994        -4.99412     679.050E-03     118.546E-03    -58.9738E-03    -59.5718E-03    -58.2952E-03     117.584E-03    -59.2888E-03     25.7264E-03     51.5385E+06    -10.8935E+06    -33.2949E+06    -33.2450E+06     51.4886E+06    -10.8935E+06    -380.369E+03         39.5764
             637     10.3681E-03     37.1006E-03         12.2331        -4.00732        -5.09949        -4.00109         12.2269        -5.09949     518.001E-03     118.228E-03    -58.7912E-03    -59.4364E-03    -58.2034E-03     117.640E-03    -59.4364E-03     20.3211E-03    -1.60109E+06    -20.4550E+06    -41.9549E+06    -36.3690E+06    -18.8445E+06    -8.79750E+06     1.42869E+06         36.6411
             638     9.42442E-03     37.0808E-03         12.5580        -4.25871        -5.20038        -4.24460         12.5439        -5.20038    -76.8570E-03     118.291E-03    -58.7614E-03    -59.5297E-03    -58.3860E-03     117.916E-03    -59.5297E-03     16.0043E-03    -16.9000E+06    -40.0557E+06    -69.0719E+06    -40.9169E+06    -68.2107E+06    -16.9000E+06     912.588E+03         34.6409
             639     8.48126E-03     37.0661E-03         12.8581        -4.49028        -5.29584        -4.48220         12.8500        -5.29584    -530.020E-03     118.580E-03    -58.9468E-03    -59.6335E-03    -58.7747E-03     118.408E-03    -59.6335E-03     10.8183E-03    -20.0889E+06    -42.7233E+06    -108.997E+06    -42.7965E+06    -108.924E+06    -20.0889E+06    -552.447E+03         33.2632
             640     7.53797E-03     37.0596E-03         13.1481        -4.71331        -5.38528        -4.70470         13.1394        -5.38528    -563.756E-03     118.933E-03    -59.1936E-03    -59.7396E-03    -59.1149E-03     118.855E-03    -59.7396E-03     7.33478E-03    -19.9407E+06    -44.4498E+06    -148.727E+06    -44.5449E+06    -148.632E+06    -19.9407E+06    -1.34770E+06         32.2797
             641     6.59587E-03     37.0518E-03         13.4319        -4.93061        -5.46887        -4.91044         13.4117        -5.46887        -1.21238     119.219E-03    -59.3683E-03    -59.8507E-03    -59.3577E-03     119.182E-03    -59.8239E-03     5.00360E-03    -19.9807E+06    -49.3709E+06    -181.337E+06    -49.4322E+06    -181.276E+06    -19.9807E+06    -1.26389E+06         31.5494
             642     5.65384E-03     37.0499E-03         13.7373        -5.17452        -5.54543        -5.11450         13.6773        -5.54543        -2.01556     119.449E-03    -59.5270E-03    -59.9221E-03    -59.5807E-03     119.433E-03    -59.8525E-03     3.28841E-03    -23.0285E+06    -52.7474E+06    -201.629E+06    -52.7743E+06    -201.603E+06    -23.0285E+06    -441.128E+03         30.9921
             643     4.71126E-03     37.0474E-03         13.9688        -5.35007        -5.61315        -5.29940         13.9181        -5.61315        -1.65349     119.470E-03    -59.5886E-03    -59.8813E-03    -59.6309E-03     119.464E-03    -59.8333E-03     1.84686E-03    -31.2747E+06    -54.8793E+06    -217.217E+06    -54.8951E+06    -217.201E+06    -31.2747E+06     490.789E+03         30.5633
             644     3.76933E-03     37.0467E-03         14.2131        -5.54156        -5.67807        -5.46400         14.1280        -5.67059        -2.10943     119.401E-03    -59.5814E-03    -59.8191E-03    -59.5856E-03     119.399E-03    -59.8139E-03     615.703E-06    -42.0613E+06    -59.3215E+06    -231.989E+06    -59.3257E+06    -231.985E+06    -42.0613E+06     608.799E+03         30.2376
             645     2.82715E-03     37.0458E-03         14.4126        -5.70340        -5.72361        -5.59823         14.3000        -5.71613    -722.588E-03     119.357E-03    -59.5345E-03    -59.8223E-03    -59.5343E-03     119.357E-03    -59.8223E-03    -33.6083E-06    -52.0917E+06    -63.8127E+06    -240.698E+06    -63.8138E+06    -240.697E+06    -52.0917E+06     385.537E+03         29.9993
             646     1.88356E-03     37.0471E-03         14.8292        -5.73458        -6.10716        -5.70098         14.4358        -5.74730        -2.81111     119.490E-03    -59.5590E-03    -59.9314E-03    -59.6293E-03     119.490E-03    -59.8603E-03    -380.676E-06    -61.5262E+06    -66.9771E+06    -244.390E+06    -66.9876E+06    -244.380E+06    -61.5262E+06    -509.653E+03         29.8369
             647     941.853E-06     37.0468E-03         17.4357        -5.00648        -9.44659        -2.43115         14.5005        -9.08673         5.91351     119.747E-03    -59.5998E-03    -60.1471E-03    -59.8552E-03     119.746E-03    -59.8905E-03     76.6210E-06    -67.0067E+06    -70.3928E+06    -245.691E+06    -68.1701E+06    -245.615E+06    -69.3057E+06    -1.88919E+06         29.7405
             648     16.0298E-03     36.8187E-03         10.2669        -2.51912        -4.48455        -2.51586         10.2637        -4.48455     298.130E-03     206.700E-03    -59.8916E-03    -146.808E-03    -67.7106E-03     127.602E-03    -59.8916E-03     292.629E-03     145.050E+06     129.573E+06    -9.03078E+06    -9.00575E+06     145.025E+06     129.573E+06    -1.59982E+06         67.7635
             649     15.0857E-03     36.3899E-03         10.5471        -2.74528        -4.63094        -2.73726         10.5391        -4.63094     477.531E-03     202.527E-03    -59.8147E-03    -142.712E-03    -67.1271E-03     126.942E-03    -59.8147E-03     282.676E-03     126.157E+06     107.273E+06    -16.8478E+06    -16.8241E+06     126.133E+06     107.273E+06    -1.38258E+06         62.4925
             650     14.1392E-03     36.1747E-03         10.8686        -3.00167        -4.77186        -2.98199         10.8490        -4.77186         1.03894     145.146E-03    -59.6758E-03    -85.4703E-03    -59.8034E-03     119.479E-03    -59.6758E-03     137.801E-03     114.095E+06     70.1702E+06    -23.3429E+06    -23.3424E+06     114.095E+06     70.1702E+06    -39.0276E+03         55.9071
             651     13.1948E-03     36.0872E-03         11.2049        -3.26210        -4.90209        -3.24088         11.1837        -4.90209         1.10393     124.018E-03    -59.4873E-03    -64.5307E-03    -58.2444E-03     117.732E-03    -59.4873E-03     66.6863E-03     104.021E+06     29.1526E+06    -28.9970E+06    -28.9935E+06     104.018E+06     29.1526E+06    -238.835E+03         49.3621
             652     12.2545E-03     36.0275E-03         11.5570        -3.52731        -5.02642        -3.50427         11.5339        -5.02642         1.17343     120.072E-03    -59.2525E-03    -60.8195E-03    -58.0637E-03     117.379E-03    -59.3157E-03     42.1418E-03     95.2032E+06    -4.74071E+06    -33.0829E+06    -33.0686E+06     95.1888E+06    -4.74071E+06    -1.02993E+06         43.8167
             653     11.3102E-03     35.9965E-03         11.9091        -3.78738        -5.14644        -3.77320         11.8949        -5.14644     785.053E-03     118.567E-03    -59.2061E-03    -59.3611E-03    -58.2637E-03     117.625E-03    -59.3611E-03     25.3356E-03     48.4367E+06    -11.4441E+06    -35.2695E+06    -35.2413E+06     48.4085E+06    -11.4441E+06    -300.109E+03         39.6252
             654     10.3666E-03     35.9751E-03         12.2573        -4.04653        -5.26229        -4.03871         12.2495        -5.26229     627.540E-03     118.682E-03    -59.1805E-03    -59.5015E-03    -58.6163E-03     118.118E-03    -59.5015E-03     19.9808E-03    -2.23546E+06    -20.3669E+06    -41.1208E+06    -36.9183E+06    -19.6706E+06    -7.13420E+06     1.63774E+06         36.6795
             655     9.42450E-03     35.9548E-03         12.6088        -4.31434        -5.37413        -4.30130         12.5958        -5.37413     38.2190E-03     118.528E-03    -58.9558E-03    -59.5722E-03    -58.5763E-03     118.148E-03    -59.5722E-03     16.1021E-03    -12.5250E+06    -36.9549E+06    -65.5472E+06    -37.6739E+06    -64.8283E+06    -12.5250E+06     704.102E+03         34.6688
             656     8.48073E-03     35.9423E-03         12.9469        -4.57423        -5.48052        -4.56831         12.9410        -5.48052    -419.702E-03     118.631E-03    -58.9623E-03    -59.6687E-03    -58.7913E-03     118.460E-03    -59.6687E-03     10.7783E-03    -16.7732E+06    -39.9372E+06    -108.647E+06    -39.9941E+06    -108.591E+06    -16.7732E+06    -1.34474E+06         33.2828
             657     7.53884E-03     35.9316E-03         13.2764        -4.82751        -5.58011        -4.82068         13.2696        -5.58011    -470.132E-03     118.990E-03    -59.2191E-03    -59.7709E-03    -59.1445E-03     118.915E-03    -59.7709E-03     7.12617E-03    -18.2509E+06    -43.6526E+06    -149.145E+06    -43.7278E+06    -149.070E+06    -18.2509E+06    -1.27674E+06         32.2941
             658     6.59604E-03     35.9280E-03         13.5933        -5.06893        -5.67288        -5.05233         13.5767        -5.67288        -1.10674     119.197E-03    -59.3422E-03    -59.8547E-03    -59.3082E-03     119.163E-03    -59.8547E-03     4.81662E-03    -18.7693E+06    -46.2315E+06    -181.261E+06    -46.2821E+06    -181.210E+06    -18.7693E+06    -1.64857E+06         31.5611
             659     5.65261E-03     35.9225E-03         13.9222        -5.32452        -5.75840        -5.27189         13.8696        -5.75840        -1.89866     119.460E-03    -59.5271E-03    -59.9326E-03    -59.5552E-03     119.445E-03    -59.8898E-03     3.10779E-03    -24.2160E+06    -50.7714E+06    -203.995E+06    -50.7963E+06    -203.970E+06    -24.2160E+06    -1.75826E+06         31.0025
             660     4.71144E-03     35.9218E-03         14.1859        -5.52214        -5.83510        -5.47728         14.1411        -5.83510        -1.57471     119.670E-03    -59.7618E-03    -59.9079E-03    -59.8052E-03     119.665E-03    -59.8599E-03     1.72557E-03    -33.8993E+06    -56.0977E+06    -218.801E+06    -56.1073E+06    -218.792E+06    -33.8993E+06    -371.133E+03         30.5731
             661     3.76915E-03     35.9202E-03         14.4727        -5.75224        -5.90352        -5.68164         14.3966        -5.89808        -2.02304     119.500E-03    -59.6762E-03    -59.8233E-03    -59.6802E-03     119.498E-03    -59.8181E-03     876.993E-06    -43.4801E+06    -59.4293E+06    -231.612E+06    -59.4381E+06    -231.604E+06    -43.4801E+06     786.284E+03         30.2469
             662     2.82635E-03     35.9214E-03         14.6810        -5.92629        -5.94921        -5.83215         14.5814        -5.94377    -714.903E-03     119.480E-03    -59.5603E-03    -59.9201E-03    -59.6940E-03     119.480E-03    -59.7860E-03     240.260E-06    -52.9485E+06    -63.0235E+06    -239.675E+06    -63.0311E+06    -239.667E+06    -52.9485E+06     340.422E+03         30.0081
             663     1.88495E-03     35.9203E-03         15.0644        -5.95284        -6.30573        -5.93880         14.7149        -5.97020        -2.69906     119.605E-03    -59.5987E-03    -60.0066E-03    -59.9069E-03     119.605E-03    -59.6977E-03    -476.209E-06    -59.7174E+06    -65.9982E+06    -244.813E+06    -66.0118E+06    -244.800E+06    -59.7174E+06    -782.641E+03         29.8450
             664     942.817E-06     35.9214E-03         17.3904        -5.11328        -9.46836        -2.81971         14.7613        -9.13284         5.62470     119.198E-03    -59.3097E-03    -59.8879E-03    -59.8871E-03     119.197E-03    -59.3097E-03    -373.721E-06    -64.5281E+06    -70.4333E+06    -247.852E+06    -68.4264E+06    -247.824E+06    -66.5632E+06     643.141E+03         29.7481
             665     16.0263E-03     35.6860E-03         10.0761        -2.41233        -4.56963        -2.40863         10.0724        -4.56963     349.081E-03     205.703E-03    -59.9066E-03    -145.797E-03    -66.1021E-03     126.009E-03    -59.9066E-03     292.469E-03     144.142E+06     128.830E+06    -8.72870E+06    -8.71035E+06     144.124E+06     128.830E+06    -781.732E+03         67.7224
             666     15.0818E-03     35.2681E-03         10.3659        -2.65382        -4.72048        -2.64371         10.3558        -4.72048     568.293E-03     201.426E-03    -59.8825E-03    -141.543E-03    -66.7751E-03     126.658E-03    -59.8825E-03     279.828E-03     125.493E+06     107.808E+06    -15.8012E+06    -15.7547E+06     125.446E+06     107.808E+06    -2.07967E+06         62.4805
             667     14.1380E-03     35.0463E-03         10.7059        -2.93444        -4.86732        -2.91070         10.6821        -4.86732         1.13316     145.191E-03    -59.7198E-03    -85.4717E-03    -60.6444E-03     120.364E-03    -59.7198E-03     135.915E-03     113.994E+06     71.8744E+06    -22.0271E+06    -21.9896E+06     113.956E+06     71.8744E+06    -710.844E+03         55.9331
             668     13.1984E-03     34.9601E-03         11.0766        -3.22272        -5.00564        -3.19682         11.0507        -5.00564         1.21285     123.484E-03    -59.5133E-03    -63.9710E-03    -57.8969E-03     117.410E-03    -59.5133E-03     65.4292E-03     104.196E+06     31.0785E+06    -27.8306E+06    -27.8263E+06     104.192E+06     31.0785E+06     409.904E+03         49.4131
             669     12.2517E-03     34.9034E-03         11.4666        -3.51507        -5.13870        -3.48692         11.4385        -5.13870         1.29321     119.815E-03    -59.3333E-03    -60.4820E-03    -57.7585E-03     117.120E-03    -59.3614E-03     42.4688E-03     95.3107E+06    -4.07881E+06    -32.3501E+06    -32.3315E+06     95.2921E+06    -4.07881E+06     650.904E+03         43.8719
             670     11.3088E-03     34.8698E-03         11.8429        -3.79058        -5.26783        -3.77295         11.8252        -5.26783     922.277E-03     118.841E-03    -59.3514E-03    -59.4898E-03    -58.4461E-03     117.856E-03    -59.4095E-03     25.7143E-03     46.6529E+06    -12.9287E+06    -36.4903E+06    -36.4346E+06     46.5972E+06    -12.9287E+06     1.52364E+06         39.6740
             671     10.3673E-03     34.8492E-03         12.2216        -4.06944        -5.39310        -4.05898         12.2112        -5.39310     764.723E-03     118.780E-03    -59.2551E-03    -59.5249E-03    -58.7350E-03     118.260E-03    -59.5249E-03     19.2089E-03    -6.27693E+06    -21.4879E+06    -40.4981E+06    -38.4016E+06    -18.9264E+06    -10.9350E+06    -318.818E+03         36.7177
             672     9.42327E-03     34.8297E-03         12.6115        -4.36725        -5.51367        -4.35461         12.5989        -5.51367     182.660E-03     118.737E-03    -59.1523E-03    -59.5849E-03    -58.7780E-03     118.363E-03    -59.5849E-03     16.0735E-03    -15.8090E+06    -38.7536E+06    -64.2142E+06    -39.5500E+06    -63.4178E+06    -15.8090E+06    -1.67656E+06         34.6964
             673     8.48178E-03     34.8155E-03         12.9777        -4.64834        -5.62786        -4.64440         12.9737        -5.62786    -288.945E-03     118.844E-03    -59.1678E-03    -59.6761E-03    -58.9924E-03     118.669E-03    -59.6761E-03     10.8596E-03    -17.6602E+06    -41.1788E+06    -109.249E+06    -41.1907E+06    -109.237E+06    -17.6602E+06    -295.333E+03         33.3020
             674     7.53782E-03     34.8076E-03         13.3313        -4.91770        -5.73502        -4.91272         13.3264        -5.73502    -350.861E-03     118.886E-03    -59.1309E-03    -59.7552E-03    -59.0549E-03     118.810E-03    -59.7552E-03     7.26815E-03    -21.8099E+06    -43.8110E+06    -147.934E+06    -43.8522E+06    -147.893E+06    -21.8099E+06    -1.31915E+06         32.3076
             675     6.59549E-03     34.8003E-03         13.6736        -5.17603        -5.83524        -5.16270         13.6603        -5.83524    -990.933E-03     119.274E-03    -59.4354E-03    -59.8384E-03    -59.3993E-03     119.238E-03    -59.8384E-03     4.89246E-03    -23.0651E+06    -47.5723E+06    -181.196E+06    -47.6246E+06    -181.144E+06    -23.0651E+06    -2.47512E+06         31.5712
             676     5.65418E-03     34.7982E-03         14.0354        -5.45732        -5.92660        -5.41290         13.9909        -5.92660        -1.75996     119.436E-03    -59.5508E-03    -59.8851E-03    -59.5374E-03     119.423E-03    -59.8851E-03     3.04325E-03    -25.8648E+06    -51.2333E+06    -206.209E+06    -51.2466E+06    -206.196E+06    -25.8648E+06    -1.11238E+06         31.0110
             677     4.71065E-03     34.7941E-03         14.3286        -5.68217        -6.00589        -5.64404         14.2905        -6.00589        -1.48871     119.474E-03    -59.5838E-03    -59.8902E-03    -59.5788E-03     119.469E-03    -59.8902E-03     1.63924E-03    -34.0508E+06    -55.8854E+06    -221.288E+06    -55.8889E+06    -221.285E+06    -34.0508E+06    -14.7088E+03         30.5810
             678     3.76868E-03     34.7958E-03         14.6118        -5.91082        -6.07009        -5.84676         14.5478        -6.07009        -1.89761     119.674E-03    -59.7431E-03    -59.9313E-03    -59.8141E-03     119.674E-03    -59.8598E-03     481.575E-06    -44.0754E+06    -60.7927E+06    -232.440E+06    -60.7994E+06    -232.433E+06    -44.0754E+06     550.027E+03         30.2548
             679     2.82686E-03     34.7939E-03         14.8049        -6.06450        -6.12078        -5.98423         14.7246        -6.12078    -729.588E-03     119.601E-03    -59.6163E-03    -59.9850E-03    -59.8214E-03     119.601E-03    -59.7795E-03     313.958E-06    -55.5555E+06    -64.0716E+06    -237.594E+06    -64.0789E+06    -237.586E+06    -55.5555E+06     217.719E+03         30.0160
             680     1.88478E-03     34.7951E-03         15.1721        -6.10637        -6.44585        -6.12496         14.8945        -6.14971        -2.47962     119.507E-03    -59.5601E-03    -59.9468E-03    -59.7975E-03     119.507E-03    -59.7090E-03     268.442E-06    -61.5512E+06    -67.3366E+06    -244.711E+06    -67.3411E+06    -244.707E+06    -61.5512E+06    -278.675E+03         29.8528
             681     942.725E-06     34.7951E-03         17.0944        -5.09422        -9.37731        -3.22698         14.9310        -9.08117         5.11651     119.289E-03    -59.2961E-03    -59.9930E-03    -59.9568E-03     119.289E-03    -59.3321E-03    -123.952E-06    -66.4904E+06    -72.6538E+06    -250.350E+06    -72.6710E+06    -250.333E+06    -66.4904E+06     395.498E+03         29.7558
             682     16.0299E-03     34.5693E-03         9.81609        -2.29379        -4.63038        -2.28938         9.81168        -4.63038     406.287E-03     205.088E-03    -59.8817E-03    -145.206E-03    -65.4643E-03     125.346E-03    -59.8817E-03     291.337E-03     146.324E+06     129.760E+06    -7.75730E+06    -7.74383E+06     146.310E+06     129.760E+06     29.3090E+03         67.6864
             683     15.0837E-03     34.1384E-03         10.1250        -2.56171        -4.78386        -2.54898         10.1122        -4.78386     663.112E-03     202.881E-03    -59.8698E-03    -143.011E-03    -67.4142E-03     127.284E-03    -59.8698E-03     281.781E-03     127.031E+06     108.677E+06    -16.2184E+06    -16.1753E+06     126.988E+06     108.677E+06    -1.75338E+06         62.4780
             684     14.1434E-03     33.9216E-03         10.4955        -2.86934        -4.93433        -2.84061         10.4668        -4.93433         1.23380     144.418E-03    -59.6912E-03    -84.7268E-03    -60.5745E-03     120.266E-03    -59.6912E-03     134.597E-03     111.506E+06     71.3156E+06    -23.0065E+06    -22.9629E+06     111.462E+06     71.3156E+06    -1.28582E+06         55.9653
             685     13.1941E-03     33.8351E-03         10.8977        -3.17853        -5.07858        -3.14701         10.8662        -5.07858         1.32828     122.617E-03    -59.5115E-03    -63.1053E-03    -56.8928E-03     116.404E-03    -59.5115E-03     65.7616E-03     102.653E+06     29.6703E+06    -28.0163E+06    -27.9955E+06     102.633E+06     29.6703E+06     583.416E+03         49.4634
             686     12.2525E-03     33.7782E-03         11.3141        -3.48830        -5.21872        -3.45463         11.2804        -5.21872         1.40807     120.044E-03    -59.3935E-03    -60.6503E-03    -57.9374E-03     117.331E-03    -59.3935E-03     42.5368E-03     94.5711E+06    -4.80852E+06    -32.6269E+06    -32.5883E+06     94.5326E+06    -4.80852E+06     1.90679E+06         43.9243
             687     11.3094E-03     33.7428E-03         11.7206        -3.78257        -5.35519        -3.76131         11.6994        -5.35519         1.03938     118.829E-03    -59.1337E-03    -59.6954E-03    -58.4345E-03     117.872E-03    -59.4373E-03     25.3517E-03     47.7754E+06    -12.6611E+06    -34.8076E+06    -34.7304E+06     47.6982E+06    -12.6611E+06     1.21564E+06         39.7205
             688     10.3660E-03     33.7234E-03         12.1328        -4.08706        -5.48738        -4.07402         12.1197        -5.48738     875.833E-03     118.841E-03    -59.1474E-03    -59.6938E-03    -58.7750E-03     118.325E-03    -59.5499E-03     19.1474E-03    -5.13492E+06    -21.0191E+06    -37.6485E+06    -36.2107E+06    -16.5572E+06    -11.0347E+06    -888.711E+03         36.7532
             689     9.42417E-03     33.7041E-03         12.5473        -4.40274        -5.61411        -4.39007         12.5346        -5.61411     304.126E-03     119.066E-03    -59.3212E-03    -59.7444E-03    -59.0964E-03     118.697E-03    -59.6006E-03     15.8836E-03    -16.2818E+06    -37.8990E+06    -65.4891E+06    -38.9025E+06    -64.4857E+06    -16.2818E+06    -1.42347E+06         34.7217
             690     8.48026E-03     33.6894E-03         12.9371        -4.69980        -5.73394        -4.69716         12.9344        -5.73394    -175.554E-03     118.827E-03    -59.1516E-03    -59.6750E-03    -58.9911E-03     118.666E-03    -59.6750E-03     10.3808E-03    -19.1589E+06    -41.7296E+06    -111.222E+06    -41.7459E+06    -111.205E+06    -19.1589E+06    -808.106E+03         33.3194
             691     7.53905E-03     33.6819E-03         13.3161        -4.98878        -5.84608        -4.98531         13.3127        -5.84608    -234.983E-03     118.903E-03    -59.1474E-03    -59.7552E-03    -59.0715E-03     118.827E-03    -59.7552E-03     7.30408E-03    -21.7108E+06    -44.3628E+06    -145.883E+06    -44.3782E+06    -145.868E+06    -21.7108E+06    -830.182E+03         32.3194
             692     6.59578E-03     33.6749E-03         13.6807        -5.26366        -5.95025        -5.25265         13.6697        -5.95025    -890.722E-03     119.255E-03    -59.4093E-03    -59.8458E-03    -59.3683E-03     119.214E-03    -59.8458E-03     5.21763E-03    -22.7855E+06    -48.6469E+06    -182.241E+06    -48.6699E+06    -182.218E+06    -22.7855E+06    -1.44131E+06         31.5795
             693     5.65301E-03     33.6710E-03         14.0577        -5.55618        -6.04410        -5.51982         14.0214        -6.04410        -1.61304     119.434E-03    -59.5435E-03    -59.8908E-03    -59.5296E-03     119.420E-03    -59.8908E-03     2.97261E-03    -27.1850E+06    -54.0695E+06    -208.280E+06    -54.0791E+06    -208.270E+06    -27.1850E+06    -865.895E+03         31.0174
             694     4.71125E-03     33.6703E-03         14.3561        -5.78418        -6.12522        -5.75282         14.3247        -6.12522        -1.40235     119.444E-03    -59.5445E-03    -59.8995E-03    -59.5389E-03     119.438E-03    -59.8995E-03     1.77177E-03    -35.0231E+06    -58.2754E+06    -222.206E+06    -58.2776E+06    -222.204E+06    -35.0231E+06     249.123E+03         30.5866
             695     3.76879E-03     33.6673E-03         14.6343        -6.00624        -6.19193        -5.95694         14.5850        -6.19193        -1.72630     119.624E-03    -59.6636E-03    -59.9605E-03    -59.7330E-03     119.622E-03    -59.8890E-03     711.523E-06    -44.0474E+06    -61.7467E+06    -233.313E+06    -61.7529E+06    -233.306E+06    -44.0474E+06    -113.112E+03         30.2603
             696     2.82689E-03     33.6699E-03         14.8245        -6.15041        -6.24669        -6.09437         14.7684        -6.24669    -770.637E-03     119.567E-03    -59.6430E-03    -59.9239E-03    -59.7142E-03     119.567E-03    -59.8524E-03     252.476E-06    -54.6919E+06    -64.9369E+06    -237.434E+06    -64.9495E+06    -237.421E+06    -54.6919E+06     329.001E+03         30.0218
             697     1.88372E-03     33.6682E-03         15.1540        -6.21391        -6.50771        -6.24928         14.9613        -6.27965        -2.19620     119.437E-03    -59.5196E-03    -59.9178E-03    -59.5191E-03     119.437E-03    -59.9178E-03     186.501E-06    -63.2919E+06    -68.6439E+06    -244.764E+06    -68.0440E+06    -244.754E+06    -63.9013E+06     631.692E+03         29.8590
             698     941.392E-06     33.6702E-03         16.5949        -4.97063        -9.18873        -3.61296         15.0092        -8.96067         4.37387     119.975E-03    -59.6700E-03    -60.3052E-03    -60.0080E-03     119.974E-03    -59.9660E-03     182.466E-06    -67.5879E+06    -71.9894E+06    -249.530E+06    -70.1867E+06    -249.504E+06    -69.4168E+06    -1.44163E+06         29.7621
             699     16.0288E-03     33.4565E-03         9.48632        -2.16773        -4.66420        -2.16249         9.48108        -4.66420     455.419E-03     205.859E-03    -59.8896E-03    -145.970E-03    -66.2384E-03     126.128E-03    -59.8896E-03     291.563E-03     148.086E+06     131.367E+06    -7.56336E+06    -7.56154E+06     148.084E+06     131.367E+06     30.2928E+03         67.6510
             700     15.0815E-03     33.0039E-03         9.82557        -2.46465        -4.81771        -2.44897         9.80989        -4.81771     750.713E-03     204.667E-03    -59.8793E-03    -144.788E-03    -67.4864E-03     127.366E-03    -59.8793E-03     285.951E-03     127.326E+06     108.166E+06    -16.2376E+06    -16.2245E+06     127.313E+06     108.166E+06    -703.532E+03         62.4708
             701     14.1393E-03     32.7968E-03         10.2345        -2.80215        -4.96917        -2.76835         10.2007        -4.96917         1.32344     143.591E-03    -59.7504E-03    -83.8401E-03    -59.7447E-03     119.495E-03    -59.7504E-03     134.234E-03     108.682E+06     70.0175E+06    -24.3758E+06    -24.3537E+06     108.660E+06     70.0175E+06    -864.474E+03         55.9852
             702     13.1974E-03     32.7128E-03         10.6683        -3.13326        -5.11661        -3.09708         10.6322        -5.11661         1.40984     123.911E-03    -59.5874E-03    -64.3241E-03    -57.6842E-03     117.272E-03    -59.5874E-03     68.3313E-03     100.819E+06     31.1496E+06    -29.5463E+06    -29.5251E+06     100.797E+06     31.1496E+06     700.393E+03         49.5035
             703     12.2515E-03     32.6497E-03         11.1083        -3.45665        -5.26076        -3.41911         11.0708        -5.26076         1.47587     120.639E-03    -59.4155E-03    -61.2240E-03    -58.3916E-03     117.824E-03    -59.4322E-03     43.2434E-03     94.5559E+06    -1.53858E+06    -30.9080E+06    -30.8785E+06     94.5264E+06    -1.53858E+06     790.324E+03         43.9727
             704     11.3092E-03     32.6183E-03         11.5413        -3.77050        -5.40132        -3.74662         11.5174        -5.40132         1.11262     118.880E-03    -59.1482E-03    -59.7321E-03    -58.4985E-03     117.951E-03    -59.4524E-03     25.0132E-03     49.0552E+06    -9.58006E+06    -31.0063E+06    -30.9588E+06     49.0077E+06    -9.58006E+06    -531.037E+03         39.7635
             705     10.3656E-03     32.5973E-03         11.9748        -4.09037        -5.53727        -4.07556         11.9600        -5.53727     941.978E-03     118.951E-03    -59.1521E-03    -59.7994E-03    -58.9053E-03     118.459E-03    -59.5536E-03     18.6899E-03    -3.26188E+06    -18.2930E+06    -35.3429E+06    -32.6511E+06    -15.4558E+06    -8.79086E+06    -1.21508E+06         36.7858
             706     9.42344E-03     32.5762E-03         12.4026        -4.41313        -5.66753        -4.40043         12.3899        -5.66753     382.644E-03     118.939E-03    -59.1812E-03    -59.7580E-03    -58.9906E-03     118.605E-03    -59.6142E-03     15.0985E-03    -13.6421E+06    -35.6807E+06    -68.1140E+06    -36.3979E+06    -67.3968E+06    -13.6421E+06     692.189E+03         34.7443
             707     8.48224E-03     32.5653E-03         12.8109        -4.72267        -5.79072        -4.72080         12.8090        -5.79072    -107.356E-03     118.782E-03    -59.0847E-03    -59.6975E-03    -58.9234E-03     118.621E-03    -59.6975E-03     10.5861E-03    -16.3008E+06    -41.2197E+06    -110.907E+06    -41.4302E+06    -110.697E+06    -16.3008E+06     1.58918E+06         33.3346
             708     7.53743E-03     32.5553E-03         13.2148        -5.03003        -5.90531        -5.02760         13.2124        -5.90531    -157.947E-03     119.082E-03    -59.3172E-03    -59.7649E-03    -59.2320E-03     118.997E-03    -59.7649E-03     7.58034E-03    -20.2413E+06    -45.6821E+06    -144.407E+06    -45.7277E+06    -144.362E+06    -20.2413E+06    -758.306E+03         32.3298
             709     6.59592E-03     32.5495E-03         13.5932        -5.31578        -6.01070        -5.30601         13.5835        -6.01070    -819.331E-03     119.243E-03    -59.3982E-03    -59.8446E-03    -59.3617E-03     119.206E-03    -59.8446E-03     4.93659E-03    -22.0161E+06    -48.9235E+06    -184.167E+06    -48.9668E+06    -184.124E+06    -22.0161E+06    -798.603E+03         31.5868
             710     5.65338E-03     32.5451E-03         13.9597        -5.59515        -6.10623        -5.56558         13.9301        -6.10623        -1.47334     119.312E-03    -59.4172E-03    -59.8949E-03    -59.4044E-03     119.299E-03    -59.8949E-03     2.83514E-03    -26.9484E+06    -53.7799E+06    -209.095E+06    -53.7923E+06    -209.083E+06    -26.9484E+06    -187.981E+03         31.0225
             711     4.71102E-03     32.5436E-03         14.2573        -5.81887        -6.19123        -5.79267         14.2311        -6.19123        -1.34605     119.428E-03    -59.5099E-03    -59.9182E-03    -59.5050E-03     119.423E-03    -59.9182E-03     1.78955E-03    -34.7479E+06    -57.9608E+06    -221.957E+06    -57.9726E+06    -221.945E+06    -34.7479E+06    -1.01808E+06         30.5905
             712     3.76841E-03     32.5427E-03         14.5490        -6.05018        -6.26211        -6.01428         14.5131        -6.26211        -1.55799     119.519E-03    -59.5807E-03    -59.9385E-03    -59.5782E-03     119.517E-03    -59.9385E-03     1.06299E-03    -44.0270E+06    -61.7129E+06    -233.612E+06    -61.7263E+06    -233.598E+06    -44.0270E+06    -958.828E+03         30.2637
             713     2.82591E-03     32.5422E-03         14.7506        -6.20818        -6.31697        -6.17374         14.7162        -6.31697    -832.261E-03     119.716E-03    -59.7543E-03    -59.9614E-03    -59.7760E-03     119.715E-03    -59.9391E-03    -76.2788E-06    -53.8040E+06    -65.8014E+06    -240.048E+06    -65.8189E+06    -240.030E+06    -53.8040E+06    -223.051E+03         30.0252
             714     1.88462E-03     32.5441E-03         15.0177        -6.28334        -6.49989        -6.32139         14.9031        -6.34731        -1.86913     119.669E-03    -59.6759E-03    -59.9930E-03    -59.6971E-03     119.668E-03    -59.9707E-03    -181.701E-06    -61.4476E+06    -68.5787E+06    -243.824E+06    -67.9888E+06    -243.805E+06    -62.0570E+06     714.508E+03         29.8622
             715     941.638E-06     32.5426E-03         15.9609        -4.82076        -8.90252        -3.95806         14.9457        -8.74994         3.50470     119.995E-03    -59.8244E-03    -60.1705E-03    -59.8634E-03     119.993E-03    -60.1300E-03     419.106E-06    -67.6137E+06    -71.7777E+06    -248.692E+06    -69.6422E+06    -248.643E+06    -69.7977E+06     512.664E+03         29.7650
             716     16.0266E-03     32.3300E-03         9.08152        -2.02400        -4.66590        -2.01821         9.07573        -4.66590     477.974E-03     207.699E-03    -60.0206E-03    -147.679E-03    -66.3346E-03     126.355E-03    -60.0206E-03     296.487E-03     147.953E+06     131.789E+06    -8.18941E+06    -8.18806E+06     147.951E+06     131.789E+06    -239.516E+03         67.6022
             717     15.0857E-03     31.8796E-03         9.46693        -2.35682        -4.81584        -2.33948         9.44959        -4.81584     790.103E-03     205.393E-03    -60.0027E-03    -145.390E-03    -68.2889E-03     128.292E-03    -60.0027E-03     286.951E-03     126.506E+06     107.737E+06    -16.6256E+06    -16.5899E+06     126.470E+06     107.737E+06     306.896E+03         62.4459
             718     14.1365E-03     31.6738E-03         9.90884        -2.72119        -4.96461        -2.68503         9.87268        -4.96461         1.34863     144.260E-03    -59.8491E-03    -84.4107E-03    -60.2448E-03     120.094E-03    -59.8491E-03     133.679E-03     109.120E+06     70.8075E+06    -24.1450E+06    -24.0836E+06     109.058E+06     70.8075E+06    -236.606E+03         55.9939
             719     13.1914E-03     31.5828E-03         10.3743        -3.07535        -5.11210        -3.03739         10.3364        -5.11210         1.42578     124.754E-03    -59.6397E-03    -65.1139E-03    -58.9387E-03     118.578E-03    -59.6397E-03     66.1827E-03     101.688E+06     34.4426E+06    -29.3757E+06    -29.3205E+06     101.632E+06     34.4426E+06    -1.30612E+06         49.5382
             720     12.2526E-03     31.5248E-03         10.8417        -3.41872        -5.25692        -3.37993         10.8029        -5.25692         1.48510     120.454E-03    -59.4153E-03    -61.0391E-03    -58.4027E-03     117.835E-03    -59.4321E-03     41.6891E-03     94.0973E+06      446.93E+03    -31.6558E+06    -31.6137E+06     94.0552E+06      446.93E+03    -1.67305E+06         44.0176
             721     11.3084E-03     31.4913E-03         11.2883        -3.74157        -5.39830        -3.71664         11.2633        -5.39830         1.13627     118.871E-03    -59.2518E-03    -59.6192E-03    -58.5523E-03     117.974E-03    -59.4214E-03     24.6738E-03     49.5091E+06    -12.2783E+06    -32.3958E+06    -32.2308E+06     49.3440E+06    -12.2783E+06    -2.19660E+06         39.8030
             722     10.3679E-03     31.4702E-03         11.7317        -4.06707        -5.53524        -4.05165         11.7163        -5.53524     960.845E-03     118.788E-03    -59.1480E-03    -59.6404E-03    -58.7435E-03     118.282E-03    -59.5385E-03     18.9210E-03    -944.696E+03    -20.9403E+06    -40.7408E+06    -34.0991E+06    -18.4187E+06    -10.1080E+06    -201.338E+03         36.8154
             723     9.42426E-03     31.4519E-03         12.1746        -4.40133        -5.66611        -4.38902         12.1623        -5.66611     419.112E-03     118.747E-03    -59.1135E-03    -59.6333E-03    -58.7719E-03     118.405E-03    -59.6333E-03     15.1871E-03    -11.5201E+06    -35.7300E+06    -71.5501E+06    -37.1378E+06    -70.1423E+06    -11.5201E+06     2.38710E+06         34.7648
             724     8.47922E-03     31.4388E-03         12.5954        -4.71945        -5.78914        -4.71811         12.5941        -5.78914    -80.4596E-03     118.913E-03    -59.2025E-03    -59.7109E-03    -59.0474E-03     118.758E-03    -59.7109E-03     10.3259E-03    -13.2065E+06    -38.4738E+06    -107.055E+06    -38.6928E+06    -106.836E+06    -13.2065E+06     1.40177E+06         33.3486
             725     7.53922E-03     31.4295E-03         12.9993        -5.02397        -5.90347        -5.02226         12.9976        -5.90347    -120.663E-03     119.161E-03    -59.3842E-03    -59.7768E-03    -59.2998E-03     119.077E-03    -59.7768E-03     7.55535E-03    -16.2150E+06    -41.3871E+06    -144.343E+06    -41.5329E+06    -144.197E+06    -16.2150E+06     904.743E+03         32.3394
             726     6.59604E-03     31.4232E-03         13.3729        -5.30101        -6.00969        -5.29117         13.3631        -6.00969    -790.820E-03     119.333E-03    -59.4887E-03    -59.8444E-03    -59.4507E-03     119.295E-03    -59.8444E-03     4.85002E-03    -19.5046E+06    -47.2929E+06    -185.455E+06    -47.4396E+06    -185.308E+06    -19.5046E+06     715.764E+03         31.5934
             727     5.65354E-03     31.4200E-03         13.7379        -5.57590        -6.10730        -5.55066         13.7127        -6.10730        -1.37574     119.270E-03    -59.3879E-03    -59.8819E-03    -59.3765E-03     119.258E-03    -59.8819E-03     2.81298E-03    -24.7566E+06    -51.0968E+06    -207.671E+06    -51.1169E+06    -207.651E+06    -24.7566E+06    -665.409E+03         31.0271
             728     4.71061E-03     31.4174E-03         14.0471        -5.81126        -6.19432        -5.78761         14.0234        -6.19432        -1.33158     119.342E-03    -59.4281E-03    -59.9141E-03    -59.4238E-03     119.338E-03    -59.9141E-03     1.48402E-03    -33.5212E+06    -55.7803E+06    -222.706E+06    -55.7950E+06    -222.691E+06    -33.5212E+06    -1.43575E+06         30.5936
             729     3.76853E-03     31.4170E-03         14.3353        -6.03871        -6.26684        -6.01198         14.3086        -6.26684        -1.42049     119.455E-03    -59.5050E-03    -59.9501E-03    -59.5039E-03     119.454E-03    -59.9501E-03     754.650E-06    -44.2136E+06    -61.4801E+06    -234.871E+06    -61.4903E+06    -234.861E+06    -44.2136E+06    -794.924E+03         30.2658
             730     2.82640E-03     31.4159E-03         14.5362        -6.19245        -6.32407        -6.17186         14.5156        -6.32407    -922.863E-03     119.702E-03    -59.7061E-03    -59.9958E-03    -59.7309E-03     119.701E-03    -59.9699E-03     176.450E-06    -55.0797E+06    -65.1024E+06    -241.049E+06    -65.1136E+06    -241.038E+06    -55.0797E+06    -973.853E+03         30.0264
             731     1.88382E-03     31.4176E-03         14.7704        -6.28456        -6.46053        -6.33386         14.7138        -6.35464        -1.53757     120.030E-03    -59.8614E-03    -60.1684E-03    -60.1215E-03     120.029E-03    -59.9071E-03    -243.151E-06    -60.6295E+06    -67.8310E+06    -244.729E+06    -67.8488E+06    -244.711E+06    -60.6295E+06    -630.760E+03         29.8626
             732     942.408E-06     31.4171E-03         15.3012        -4.72712        -8.54024        -4.28326         14.7515        -8.43434         2.60309     119.608E-03    -59.4033E-03    -60.2047E-03    -60.1577E-03     119.607E-03    -59.4490E-03     308.144E-06    -66.1955E+06    -71.9766E+06    -249.095E+06    -71.6523E+06    -249.064E+06    -66.5507E+06     1.75617E+06         29.7650
             733     16.0180E-03     31.1832E-03         8.60803        -1.85927        -4.62719        -1.85330         8.60206        -4.62719     474.961E-03     207.256E-03    -60.0839E-03    -147.172E-03    -65.0400E-03     125.124E-03    -60.0839E-03     297.698E-03     146.762E+06     131.383E+06    -8.28410E+06    -8.26275E+06     146.740E+06     131.383E+06    -21.4905E+03         67.5441
             734     15.0762E-03     30.7592E-03         9.03898        -2.23428        -4.76915        -2.21746         9.02216        -4.76915     770.117E-03     203.395E-03    -60.0777E-03    -143.317E-03    -68.1585E-03     128.236E-03    -60.0777E-03     281.915E-03     125.633E+06     108.726E+06    -16.8866E+06    -16.8236E+06     125.570E+06     108.726E+06    -709.900E+03         62.4126
             735     14.1369E-03     30.5407E-03         9.50802        -2.62041        -4.91097        -2.58544         9.47305        -4.91097         1.29959     145.363E-03    -59.8511E-03    -85.5118E-03    -61.7949E-03     121.646E-03    -59.8511E-03     132.753E-03     110.718E+06     73.2236E+06    -23.2714E+06    -23.1877E+06     110.634E+06     73.2236E+06    -402.015E+03         55.9982
             736     13.2004E-03     30.4581E-03         9.99695        -2.98974        -5.05553        -2.95322         9.96043        -5.05553         1.37355     124.128E-03    -59.5721E-03    -64.5559E-03    -58.8029E-03     118.375E-03    -59.5721E-03     64.1145E-03     101.761E+06     33.0305E+06    -28.6061E+06    -28.5461E+06     101.701E+06     33.0305E+06    -1.19950E+06         49.5708
             737     12.2523E-03     30.3984E-03         10.4849        -3.34872        -5.19874        -3.31200         10.4482        -5.19874         1.42287     120.122E-03    -59.3723E-03    -60.7498E-03    -58.0880E-03     117.460E-03    -59.3723E-03     42.0191E-03     94.4870E+06    -1.75277E+06    -32.0477E+06    -31.9918E+06     94.4310E+06    -1.75277E+06    -2.10366E+06         44.0580
             738     11.3109E-03     30.3653E-03         10.9460        -3.68174        -5.33855        -3.65804         10.9223        -5.33855         1.09551     118.515E-03    -58.9775E-03    -59.5370E-03    -58.2009E-03     117.595E-03    -59.3943E-03     24.8098E-03     48.8121E+06    -14.0005E+06    -35.9059E+06    -35.6322E+06     48.5383E+06    -14.0005E+06    -1.49050E+06         39.8391
             739     10.3650E-03     30.3450E-03         11.3987        -4.01558        -5.47371        -4.00125         11.3844        -5.47371     918.059E-03     118.425E-03    -58.8814E-03    -59.5435E-03    -58.3839E-03     117.927E-03    -59.5435E-03     18.7156E-03    -4.21875E+06    -24.7286E+06    -46.8135E+06    -39.1965E+06    -23.5427E+06    -13.0216E+06     768.593E+03         36.8427
             740     9.42267E-03     30.3256E-03         11.8450        -4.35292        -5.60219        -4.34180         11.8339        -5.60219     403.699E-03     118.959E-03    -59.3306E-03    -59.6286E-03    -58.9832E-03     118.612E-03    -59.6286E-03     15.3546E-03    -14.5805E+06    -38.4092E+06    -69.8210E+06    -39.6079E+06    -68.6223E+06    -14.5805E+06     415.987E+03         34.7840
             741     8.48299E-03     30.3125E-03         12.2646        -4.66872        -5.72266        -4.66771         12.2636        -5.72266    -90.3494E-03     119.084E-03    -59.4002E-03    -59.6837E-03    -59.2479E-03     118.932E-03    -59.6837E-03     10.1962E-03    -16.1611E+06    -40.7510E+06    -105.768E+06    -40.7834E+06    -105.736E+06    -16.1611E+06    -489.954E+03         33.3620
             742     7.53750E-03     30.3043E-03         12.6577        -4.96125        -5.83515        -4.96006         12.6565        -5.83515    -115.426E-03     118.987E-03    -59.2290E-03    -59.7579E-03    -59.1498E-03     118.908E-03    -59.7579E-03     7.40618E-03    -17.6576E+06    -43.0394E+06    -146.731E+06    -43.1550E+06    -146.615E+06    -17.6576E+06     1.56466E+06         32.3485
             743     6.59576E-03     30.2964E-03         13.0267        -5.23281        -5.94061        -5.22188         13.0158        -5.94061    -797.008E-03     119.250E-03    -59.4095E-03    -59.8407E-03    -59.3703E-03     119.211E-03    -59.8407E-03     4.91237E-03    -18.3853E+06    -45.2918E+06    -183.522E+06    -45.4117E+06    -183.403E+06    -18.3853E+06     1.46692E+06         31.5993
             744     5.65372E-03     30.2946E-03         13.3900        -5.50672        -6.03781        -5.48336         13.3667        -6.03781        -1.32368     119.451E-03    -59.5834E-03    -59.8674E-03    -59.5728E-03     119.440E-03    -59.8674E-03     2.70577E-03    -24.2781E+06    -50.1112E+06    -207.296E+06    -50.1337E+06    -207.273E+06    -24.2781E+06     74.0684E+03         31.0309
             745     4.71149E-03     30.2915E-03         13.7039        -5.74788        -6.12378        -5.72427         13.6803        -6.12378        -1.34708     119.358E-03    -59.4912E-03    -59.8671E-03    -59.4868E-03     119.354E-03    -59.8671E-03     1.53969E-03    -34.3979E+06    -55.8491E+06    -222.842E+06    -55.8547E+06    -222.836E+06    -34.3979E+06    -148.585E+03         30.5958
             746     3.76885E-03     30.2912E-03         13.9797        -5.96627        -6.19499        -5.94408         13.9575        -6.19499        -1.32096     119.427E-03    -59.4908E-03    -59.9362E-03    -59.5342E-03     119.426E-03    -59.8913E-03     582.788E-06    -42.8303E+06    -60.1762E+06    -235.039E+06    -60.1916E+06    -235.024E+06    -42.8303E+06    -1.04060E+06         30.2666
             747     2.82565E-03     30.2907E-03         14.1675        -6.10320        -6.25406        -6.08755         14.1519        -6.25406        -1.04035     119.640E-03    -59.7055E-03    -59.9341E-03    -59.7531E-03     119.639E-03    -59.8857E-03    -57.1562E-06    -52.9084E+06    -64.0758E+06    -241.428E+06    -64.0961E+06    -241.407E+06    -52.9084E+06    -1.32124E+06         30.0258
             748     1.88430E-03     30.2898E-03         14.3892        -6.20903        -6.36492        -6.26103         14.3650        -6.28873        -1.23226     119.803E-03    -59.7786E-03    -60.0242E-03    -60.0188E-03     119.802E-03    -59.7832E-03    -619.572E-06    -62.9944E+06    -68.7846E+06    -247.212E+06    -68.7971E+06    -247.199E+06    -62.9944E+06    -1.13264E+06         29.8610
             749     943.066E-06     30.2914E-03         14.6477        -4.68484        -8.13092        -4.53499         14.4217        -8.05473         1.68997     119.370E-03    -59.2200E-03    -60.1503E-03    -59.9360E-03     119.369E-03    -59.4330E-03     134.512E-06    -66.5662E+06    -71.3569E+06    -249.249E+06    -70.3519E+06    -249.226E+06    -67.5938E+06    -924.098E+03         29.7630
             750     16.0336E-03     30.0745E-03         8.08362        -1.69706        -4.54016        -1.69122         8.07779        -4.54016     454.498E-03     207.466E-03    -59.9340E-03    -147.532E-03    -65.9597E-03     125.894E-03    -59.9340E-03     296.259E-03     147.795E+06     132.336E+06    -7.73117E+06    -7.69590E+06     147.760E+06     132.336E+06     602.378E+03         67.4819
             751     15.0835E-03     29.6305E-03         8.54358        -2.09748        -4.66908        -2.08277         8.52888        -4.66908     707.537E-03     203.251E-03    -59.9346E-03    -143.316E-03    -66.9784E-03     126.913E-03    -59.9346E-03     283.012E-03     126.962E+06     109.309E+06    -15.7053E+06    -15.6510E+06     126.908E+06     109.309E+06    -674.373E+03         62.3782
             752     14.1411E-03     29.4124E-03         9.03145        -2.49867        -4.79999        -2.46772         9.00050        -4.79999         1.19123     144.312E-03    -59.7690E-03    -84.5431E-03    -60.9000E-03     120.669E-03    -59.7690E-03     132.393E-03     108.883E+06     71.0067E+06    -24.1762E+06    -24.1219E+06     108.829E+06     71.0067E+06    -902.794E+03         55.9922
             753     13.1926E-03     29.3319E-03         9.53224        -2.87560        -4.93861        -2.84355         9.50018        -4.93861         1.25617     123.571E-03    -59.5375E-03    -64.0336E-03    -58.1309E-03     117.668E-03    -59.5375E-03     64.7136E-03     100.192E+06     30.2951E+06    -28.9511E+06    -28.9158E+06     100.157E+06     30.2951E+06    -673.823E+03         49.5899
             754     12.2536E-03     29.2729E-03         10.0253        -3.23526        -5.07775        -3.20390         9.99390        -5.07775         1.28656     120.283E-03    -59.2984E-03    -60.9849E-03    -58.1752E-03     117.544E-03    -59.3693E-03     42.6927E-03     94.9808E+06    -1.76914E+06    -31.4184E+06    -31.3516E+06     94.9140E+06    -1.76914E+06    -377.984E+03         44.0895
             755     11.3086E-03     29.2391E-03         10.4964        -3.57850        -5.21384        -3.55842         10.4763        -5.21384     981.823E-03     118.466E-03    -59.0068E-03    -59.4587E-03    -58.1246E-03     117.537E-03    -59.4119E-03     24.8744E-03     46.9390E+06    -10.9329E+06    -35.3378E+06    -35.1878E+06     46.7890E+06    -10.9329E+06     1.24313E+06         39.8714
             756     10.3677E-03     29.2205E-03         10.9542        -3.91890        -5.34490        -3.90722         10.9425        -5.34490     811.541E-03     118.629E-03    -59.0763E-03    -59.5523E-03    -58.6009E-03     118.133E-03    -59.5322E-03     18.7017E-03    -8.75741E+06    -22.6991E+06    -42.6808E+06    -38.1089E+06    -22.7994E+06    -13.2290E+06     233.068E+03         36.8689
             757     9.42425E-03     29.1987E-03         11.3895        -4.24667        -5.46919        -4.23726         11.3801        -5.46919     334.069E-03     118.868E-03    -59.2572E-03    -59.6108E-03    -58.9310E-03     118.522E-03    -59.5907E-03     15.2737E-03    -18.6758E+06    -40.1121E+06    -67.7533E+06    -40.3631E+06    -67.5024E+06    -18.6758E+06    -1.60563E+06         34.8029
             758     8.47930E-03     29.1867E-03         11.7942        -4.54857        -5.58644        -4.54757         11.7932        -5.58644    -143.879E-03     119.101E-03    -59.3854E-03    -59.7153E-03    -59.2886E-03     118.952E-03    -59.6634E-03     10.0864E-03    -18.3054E+06    -43.0618E+06    -108.975E+06    -43.1009E+06    -108.936E+06    -18.3054E+06    -106.365E+03         33.3746
             759     7.53995E-03     29.1780E-03         12.1852        -4.83926        -5.69639        -4.83831         12.1843        -5.69639    -146.775E-03     119.134E-03    -59.3723E-03    -59.7618E-03    -59.3554E-03     119.065E-03    -59.7099E-03     6.85234E-03    -20.5458E+06     -45.619E+06    -146.780E+06    -45.6345E+06    -146.764E+06    -20.5458E+06     332.967E+03         32.3566
             760     6.59594E-03     29.1719E-03         12.5595        -5.11844        -5.79853        -5.10588         12.5469        -5.79853    -823.066E-03     118.953E-03    -59.1684E-03    -59.7846E-03    -59.1378E-03     118.922E-03    -59.7846E-03     4.57420E-03    -22.0889E+06    -48.0403E+06    -182.625E+06    -48.0595E+06    -182.605E+06    -22.0889E+06    -161.059E+03         31.6041
             761     5.65336E-03     29.1670E-03         12.9096        -5.38384        -5.89162        -5.36086         12.8866        -5.89162        -1.29471     119.280E-03    -59.4279E-03    -59.8519E-03    -59.4161E-03     119.268E-03    -59.8519E-03     2.72662E-03    -25.0896E+06    -51.4560E+06    -208.367E+06    -51.4737E+06    -208.349E+06    -25.0896E+06     416.978E+03         31.0332
             762     4.71133E-03     29.1669E-03         13.2094        -5.61564        -5.97385        -5.59042         13.1842        -5.97385        -1.37319     119.580E-03    -59.6250E-03    -59.9555E-03    -59.7338E-03     119.577E-03    -59.8432E-03     1.53218E-03    -32.4702E+06    -54.7991E+06    -222.036E+06    -54.8032E+06    -222.032E+06    -32.4702E+06     516.835E+03         30.5965
             763     3.76871E-03     29.1648E-03         13.4717        -5.82241        -6.04209        -5.80128         13.4506        -6.04209        -1.25266     119.626E-03    -59.6366E-03    -59.9899E-03    -59.8495E-03     119.625E-03    -59.7756E-03     558.652E-06    -43.0726E+06    -59.5471E+06    -234.160E+06    -59.5670E+06    -234.140E+06    -43.0726E+06    -116.055E+03         30.2658
             764     2.82804E-03     29.1646E-03         13.6669        -5.96968        -6.09611        -5.95202         13.6492        -6.09611        -1.15481     119.410E-03    -59.6163E-03    -59.7936E-03    -59.7176E-03     119.409E-03    -59.6916E-03    -180.988E-06    -54.1793E+06    -65.6034E+06    -242.962E+06    -65.6220E+06    -242.944E+06    -54.1793E+06    -283.550E+03         30.0235
             765     1.88491E-03     29.1644E-03         13.8501        -6.07295        -6.16975        -6.10154         13.8352        -6.12634    -990.552E-03     119.128E-03    -59.4437E-03    -59.6840E-03    -59.4451E-03     119.127E-03    -59.6820E-03    -309.987E-06    -63.1199E+06    -69.3740E+06    -247.213E+06    -69.3846E+06    -247.202E+06    -63.1199E+06     6.53287E+03         29.8574
             766     941.569E-06     29.1654E-03         13.9456        -4.67268        -7.65252        -4.65676         13.8863        -7.60912     883.673E-03     119.385E-03    -59.4673E-03    -59.9181E-03    -59.5407E-03     119.384E-03    -59.8432E-03    -459.979E-06    -70.0568E+06    -73.8732E+06    -251.246E+06    -71.7539E+06    -251.222E+06    -72.1996E+06    -1.11452E+06         29.7590
             767     16.0281E-03     28.9571E-03         7.51298        -1.53461        -4.39869        -1.52965         7.50803        -4.39869     394.229E-03     210.086E-03    -59.8848E-03    -150.201E-03    -68.0445E-03     127.929E-03    -59.8848E-03     300.098E-03     148.848E+06     132.760E+06    -9.04223E+06    -9.02144E+06     148.828E+06     132.760E+06     424.276E+03         67.3891
             768     15.0840E-03     28.5009E-03         7.98684        -1.94535        -4.50959        -1.93371         7.97519        -4.50959     601.684E-03     205.481E-03    -59.8180E-03    -145.663E-03    -68.3099E-03     128.128E-03    -59.8180E-03     287.445E-03     127.859E+06     108.311E+06    -17.0918E+06    -17.0719E+06     127.839E+06     108.311E+06     623.531E+03         62.3237
             769     14.1385E-03     28.2901E-03         8.47602        -2.35068        -4.62559        -2.32555         8.45089        -4.62559         1.03950     143.144E-03    -59.6751E-03    -83.4690E-03    -59.4665E-03     119.142E-03    -59.6751E-03     132.277E-03     108.501E+06     68.8126E+06    -24.4432E+06    -24.3935E+06     108.451E+06     68.8126E+06    -1.39276E+06         55.9785
             770     13.1981E-03     28.2046E-03         8.97452        -2.72704        -4.75516        -2.70144         8.94892        -4.75516         1.08838     123.100E-03    -59.5045E-03    -63.5953E-03    -57.8322E-03     117.337E-03    -59.5045E-03     63.6644E-03     99.3523E+06     28.8659E+06    -29.5206E+06    -29.4588E+06     99.2905E+06     28.8659E+06    -2.05587E+06         49.6045
             771     12.2522E-03     28.1465E-03         9.46123        -3.08324        -4.88749        -3.05852         9.43650        -4.88749         1.11077     119.955E-03    -59.2456E-03    -60.7097E-03    -58.0815E-03     117.433E-03    -59.3520E-03     40.8389E-03     92.0496E+06    -3.24376E+06    -33.4631E+06    -33.4159E+06     92.0024E+06    -3.24376E+06     507.763E+03         44.1195
             772     11.3102E-03     28.1146E-03         9.92540        -3.42183        -5.01774        -3.40621         9.90979        -5.01774     827.962E-03     118.364E-03    -58.9675E-03    -59.3965E-03    -58.0931E-03     117.490E-03    -59.3965E-03     24.3423E-03     45.8470E+06    -11.1337E+06    -34.9545E+06    -34.9186E+06     45.8111E+06    -11.1337E+06     1.05154E+06         39.9027
             773     10.3655E-03     28.0927E-03         10.3705        -3.75264        -5.14365        -3.74401         10.3619        -5.14365     672.093E-03     118.754E-03    -59.1883E-03    -59.5659E-03    -58.7361E-03     118.247E-03    -59.5110E-03     18.9144E-03    -7.01158E+06     -21.745E+06    -39.0644E+06    -36.2693E+06    -19.8807E+06    -11.6710E+06     179.542E+03         36.8941
             774     9.42380E-03     28.0742E-03         10.7956        -4.07439        -5.26319        -4.06636         10.7875        -5.26319     226.156E-03     119.013E-03    -59.3562E-03    -59.6569E-03    -59.1271E-03     118.680E-03    -59.5526E-03     14.9762E-03    -17.9416E+06    -39.9815E+06    -67.2959E+06    -40.0246E+06    -67.2528E+06    -17.9416E+06    -162.697E+03         34.8204
             775     8.48280E-03     28.0602E-03         11.1923        -4.37053        -5.37600        -4.36901         11.1908        -5.37600    -238.912E-03     118.912E-03    -59.1938E-03    -59.7186E-03    -59.1567E-03     118.774E-03    -59.6174E-03     9.72952E-03    -18.3803E+06    -42.9415E+06    -110.863E+06    -42.9983E+06    -110.806E+06    -18.3803E+06    -494.798E+03         33.3854
             776     7.53824E-03     28.0514E-03         11.5737        -4.65411        -5.48173        -4.65295         11.5725        -5.48173    -219.841E-03     119.071E-03    -59.3543E-03    -59.7164E-03    -59.3422E-03     119.007E-03    -59.6646E-03     6.64189E-03    -20.3620E+06    -45.2376E+06    -146.664E+06    -45.2592E+06    -146.642E+06    -20.3620E+06    -696.383E+03         32.3627
             777     6.59737E-03     28.0469E-03         11.9420        -4.93022        -5.57964        -4.91535         11.9271        -5.57964    -876.515E-03     119.024E-03    -59.2996E-03    -59.7247E-03    -59.2704E-03     118.995E-03    -59.7247E-03     4.44111E-03    -21.8771E+06    -47.6027E+06    -183.170E+06    -47.6168E+06    -183.156E+06    -21.8771E+06    -361.097E+03         31.6069
             778     5.65369E-03     28.0421E-03         12.2814        -5.18933        -5.66807        -5.16543         12.2575        -5.66807        -1.28579     119.018E-03    -59.2392E-03    -59.7784E-03    -59.2279E-03     119.006E-03    -59.7784E-03     2.69414E-03    -27.1176E+06    -52.0522E+06    -208.857E+06    -52.0620E+06    -208.848E+06    -27.1176E+06    -95.0556E+03         31.0335
             779     4.71113E-03     28.0398E-03         12.5721        -5.41914        -5.74470        -5.39147         12.5445        -5.74470        -1.39701     119.510E-03    -59.5688E-03    -59.9416E-03    -59.7412E-03     119.507E-03    -59.7660E-03     1.33466E-03    -36.3982E+06    -57.7275E+06    -222.593E+06    -57.7298E+06    -222.591E+06    -36.3982E+06     358.424E+03         30.5947
             780     3.77031E-03     28.0389E-03         12.8179        -5.61364        -5.80663        -5.59158         12.7959        -5.80663        -1.20641     119.487E-03    -59.5646E-03    -59.9226E-03    -59.7968E-03     119.487E-03    -59.6898E-03     563.527E-06    -46.3802E+06    -61.7074E+06    -234.874E+06    -61.7214E+06    -234.860E+06    -46.3802E+06     1.42795E+06         30.2623
             781     2.82673E-03     28.0388E-03         13.0104        -5.76498        -5.85172        -5.74226         12.9876        -5.85172        -1.23276     119.107E-03    -59.4130E-03    -59.6945E-03    -59.4697E-03     119.107E-03    -59.6374E-03     243.335E-06    -56.5571E+06    -65.2549E+06    -242.545E+06    -65.2670E+06    -242.533E+06    -56.5571E+06     1.13253E+06         30.0186
             782     1.88461E-03     28.0400E-03         13.1535        -5.85303        -5.89906        -5.85999         13.1348        -5.87338    -823.566E-03     119.139E-03    -59.4126E-03    -59.7266E-03    -59.4643E-03     119.139E-03    -59.6747E-03     24.7454E-06    -61.9803E+06    -68.8614E+06    -247.415E+06    -68.8659E+06    -247.410E+06    -61.9803E+06     552.123E+03         29.8518
             783     942.329E-06     28.0393E-03         13.1764        -4.65755        -7.10318        -4.67602         13.1692        -7.07749     324.242E-03     119.353E-03    -59.5197E-03    -59.8329E-03    -59.6688E-03     119.351E-03    -59.6826E-03    -330.780E-06    -68.0039E+06    -73.6226E+06    -250.998E+06    -72.5212E+06    -250.984E+06    -69.1192E+06     675.157E+03         29.7529
             784     16.0228E-03     27.8125E-03         6.90499        -1.36283        -4.19741        -1.35893         6.90109        -4.19741     317.815E-03     207.737E-03    -59.8268E-03    -147.910E-03    -67.8424E-03     127.669E-03    -59.8268E-03     294.694E-03     148.737E+06     132.953E+06    -8.70077E+06    -8.66464E+06     148.701E+06     132.953E+06     1.37846E+06         67.2877
             785     15.0879E-03     27.3822E-03         7.36790        -1.77649        -4.28658        -1.76806         7.35948        -4.28658     475.090E-03     203.409E-03    -59.7430E-03    -143.666E-03    -67.5755E-03     127.319E-03    -59.7430E-03     283.823E-03     127.323E+06     107.548E+06    -17.6175E+06    -17.5961E+06     127.302E+06     107.548E+06     310.632E+03         62.2671
             786     14.1424E-03     27.1628E-03         7.83404        -2.17133        -4.38445        -2.15225         7.81496        -4.38445     870.086E-03     143.689E-03    -59.5955E-03    -84.0940E-03    -59.7072E-03     119.303E-03    -59.5955E-03     133.519E-03     109.870E+06     69.3808E+06    -23.3628E+06    -23.3269E+06     109.834E+06     69.3808E+06    -865.591E+03         55.9691
             787     13.1960E-03     27.0800E-03         8.31204        -2.53495        -4.50249        -2.51567         8.29276        -4.50249     908.367E-03     122.927E-03    -59.4145E-03    -63.5126E-03    -57.7195E-03     117.134E-03    -59.4145E-03     63.7818E-03     99.2944E+06     27.8964E+06    -29.7090E+06    -29.6665E+06     99.2519E+06     27.8964E+06    -951.942E+03         49.6268
             788     12.2545E-03     27.0203E-03         8.78539        -2.88336        -4.62626        -2.86442         8.76645        -4.62626     937.007E-03     119.378E-03    -59.0086E-03    -60.3690E-03    -57.6072E-03     116.877E-03    -59.2696E-03     40.4911E-03     89.2308E+06    -6.99800E+06    -34.1087E+06    -34.0987E+06     89.2208E+06    -6.99800E+06    -95.1781E+03         44.1532
             789     11.3100E-03     26.9894E-03         9.23029        -3.20913        -4.74916        -3.19733         9.21849        -4.74916     670.346E-03     118.241E-03    -58.8227E-03    -59.4186E-03    -58.0233E-03     117.359E-03    -59.3362E-03     24.5420E-03     46.2074E+06    -12.8846E+06    -35.5483E+06    -35.5352E+06     46.1943E+06    -12.8846E+06     494.933E+03         39.9342
             790     10.3678E-03     26.9673E-03         9.65150        -3.52328        -4.86875        -3.51742         9.64564        -4.86875     521.351E-03     118.700E-03    -59.1241E-03    -59.5762E-03    -58.7485E-03     118.207E-03    -59.4589E-03     18.6111E-03    -5.68305E+06    -22.1082E+06    -40.6863E+06    -38.1409E+06    -18.8860E+06    -11.4506E+06     187.884E+03         36.9177
             791     9.42487E-03     26.9468E-03         10.0659        -3.83923        -4.98255        -3.83214         10.0588        -4.98255     105.080E-03     118.778E-03    -59.1958E-03    -59.5827E-03    -58.9731E-03     118.472E-03    -59.4985E-03     14.5871E-03    -18.0387E+06    -39.0871E+06    -67.8786E+06    -39.1664E+06    -67.7993E+06    -18.0387E+06    -66.9261E+03         34.8349
             792     8.48158E-03     26.9349E-03         10.4599        -4.13699        -5.08928        -4.13440         10.4573        -5.08928    -341.864E-03     118.801E-03    -59.1161E-03    -59.6850E-03    -59.0845E-03     118.648E-03    -59.5637E-03     10.2288E-03    -19.1169E+06    -41.3387E+06    -109.901E+06    -41.3802E+06    -109.860E+06    -19.1169E+06     12.7847E+03         33.3926
             793     7.53994E-03     26.9265E-03         10.8203        -4.40411        -5.18888        -4.40221         10.8184        -5.18888    -309.882E-03     118.894E-03    -59.2056E-03    -59.6887E-03    -59.2113E-03     118.828E-03    -59.6167E-03     6.71014E-03    -22.2768E+06    -45.3772E+06    -146.630E+06    -45.4147E+06    -146.592E+06    -22.2768E+06    -1.12155E+06         32.3651
             794     6.59629E-03     26.9195E-03         11.1649        -4.66028        -5.28199        -4.64256         11.1472        -5.28199    -941.414E-03     119.094E-03    -59.4124E-03    -59.6818E-03    -59.4014E-03     119.068E-03    -59.6662E-03     4.24695E-03    -25.7753E+06    -49.5552E+06    -185.532E+06    -49.5817E+06    -185.505E+06    -25.7753E+06    -1.29012E+03         31.6063
             795     5.65509E-03     26.9182E-03         11.4902        -4.90822        -5.36688        -4.88211         11.4641        -5.36688        -1.29583     119.223E-03    -59.4693E-03    -59.7535E-03    -59.5408E-03     119.210E-03    -59.6697E-03     2.94604E-03    -30.9593E+06    -53.4049E+06    -209.104E+06    -53.4478E+06    -209.061E+06    -30.9593E+06     2.04328E+06         31.0307
             796     4.71223E-03     26.9130E-03         11.7832        -5.14407        -5.43900        -5.11395         11.7531        -5.43900        -1.40683     119.039E-03    -59.2555E-03    -59.7832E-03    -59.3820E-03     119.034E-03    -59.6517E-03     1.43418E-03    -39.3652E+06    -57.5102E+06    -222.404E+06    -57.5449E+06    -222.369E+06    -39.3652E+06     984.807E+03         30.5899
             797     3.76907E-03     26.9137E-03         12.0115        -5.32827        -5.49495        -5.30491         11.9882        -5.49495        -1.16601     119.025E-03    -59.2839E-03    -59.7413E-03    -59.3469E-03     119.025E-03    -59.6780E-03     319.269E-06    -45.8400E+06    -61.8605E+06    -236.295E+06    -61.8714E+06    -236.284E+06    -45.8400E+06     367.642E+03         30.2556
             798     2.82714E-03     26.9139E-03         12.1831        -5.46053        -5.53564        -5.43404         12.1567        -5.53564        -1.24346     119.255E-03    -59.5127E-03    -59.7426E-03    -59.5854E-03     119.255E-03    -59.6697E-03    -10.3244E-06    -53.9466E+06    -65.1949E+06    -241.419E+06    -65.2152E+06    -241.398E+06    -53.9466E+06     1.31642E+06         30.0107
             799     1.88451E-03     26.9137E-03         12.3107        -5.54614        -5.57144        -5.53440         12.2862        -5.55873    -710.012E-03     119.253E-03    -59.5129E-03    -59.7401E-03    -59.6372E-03     119.252E-03    -59.6153E-03    -430.238E-06    -62.4744E+06    -69.0508E+06    -247.130E+06    -68.2429E+06    -247.113E+06     -63.299E+06     350.690E+03         29.8432
             800     942.623E-06     26.9141E-03         12.3415        -4.60488        -6.52693        -4.61525         12.3392        -6.51422     52.9894E-03     119.158E-03    -59.3718E-03    -59.7858E-03    -59.7108E-03     119.157E-03    -59.4457E-03     249.267E-06    -66.3541E+06    -70.3934E+06    -250.502E+06    -69.5809E+06    -250.489E+06    -67.1787E+06    -17.3675E+03         29.7439
             801     16.0439E-03     26.7057E-03         6.27243        -1.20369        -3.93546        -1.20057         6.26931        -3.93546     257.967E-03     207.129E-03    -59.6379E-03    -147.491E-03    -68.2965E-03     127.934E-03    -59.6379E-03     290.716E-03     148.522E+06     133.319E+06    -6.66602E+06    -6.62535E+06     148.481E+06     133.319E+06     2.28321E+06         67.2125
             802     15.0837E-03     26.2536E-03         6.69280        -1.59815        -4.00045        -1.59227         6.68691        -4.00045     368.573E-03     204.207E-03    -59.6011E-03    -144.606E-03    -65.9345E-03     125.536E-03    -59.6011E-03     287.304E-03     129.308E+06     108.198E+06    -14.7338E+06    -14.7048E+06     129.279E+06     108.198E+06     1.51638E+06         62.2333
             803     14.1414E-03     26.0390E-03         7.11097        -1.96339        -4.07776        -1.94887         7.09645        -4.07776     722.123E-03     143.241E-03    -59.5150E-03    -83.7258E-03    -59.5809E-03     119.096E-03    -59.5150E-03     133.202E-03     109.291E+06     68.2707E+06    -22.5810E+06    -22.5718E+06     109.282E+06     68.2707E+06     725.133E+03         55.9702
             804     13.2001E-03     25.9530E-03         7.55290        -2.30357        -4.18271        -2.28878         7.53811        -4.18271     757.285E-03     122.386E-03    -59.3601E-03    -63.0258E-03    -56.9927E-03     116.353E-03    -59.3601E-03     64.8668E-03     98.9278E+06     26.8784E+06    -29.0929E+06    -29.0702E+06     98.9052E+06     26.8784E+06     804.416E+03         49.6520
             805     12.2544E-03     25.8969E-03         7.99307        -2.62967        -4.29660        -2.61518         7.97858        -4.29660     781.475E-03     119.627E-03    -59.0105E-03    -60.6167E-03    -57.7177E-03     116.954E-03    -59.2361E-03     41.9447E-03     88.8900E+06    -8.24858E+06    -33.5303E+06    -33.5130E+06     88.8727E+06    -8.24858E+06     297.502E+03         44.1856
             806     11.3105E-03     25.8637E-03         8.41510        -2.94238        -4.41099        -2.93341         8.40612        -4.41099     532.194E-03     118.559E-03    -58.8382E-03    -59.7204E-03    -58.3420E-03     117.620E-03    -59.2782E-03     25.2623E-03     46.0032E+06    -15.0928E+06    -34.5694E+06    -34.5567E+06     45.9904E+06    -15.0928E+06     599.432E+03         39.9639
             807     10.3680E-03     25.8400E-03         8.82166        -3.24971        -4.52257        -3.24598         8.81793        -4.52257     384.873E-03     118.459E-03    -58.9715E-03    -59.4870E-03    -58.5320E-03     117.937E-03    -59.4046E-03     19.1795E-03    -3.10298E+06    -21.3849E+06    -38.7293E+06    -35.0084E+06    -17.4828E+06    -10.7260E+06    -272.063E+03         36.9377
             808     9.42518E-03     25.8230E-03         9.21268        -3.54989        -4.62859        -3.54326         9.20605        -4.62859    -8.01165E-03     118.626E-03    -59.0240E-03    -59.6023E-03    -58.8287E-03     118.292E-03    -59.4628E-03     15.0951E-03    -17.6154E+06    -36.7888E+06    -69.3363E+06    -36.9539E+06    -69.1712E+06    -17.6154E+06    -633.743E+03         34.8443
             809     8.48198E-03     25.8086E-03         9.58129        -3.82928        -4.72831        -3.82524         9.57725        -4.72831    -430.349E-03     118.816E-03    -59.0898E-03    -59.7264E-03    -59.1579E-03     118.673E-03    -59.5149E-03     9.85303E-03    -21.0759E+06    -39.3748E+06    -110.076E+06    -39.3936E+06    -110.058E+06    -21.0759E+06     619.989E+03         33.3944
             810     7.53961E-03     25.7999E-03         9.92134        -4.08130        -4.82179        -4.07836         9.91840        -4.82179    -387.913E-03     118.807E-03    -59.1552E-03    -59.6521E-03    -59.1676E-03     118.748E-03    -59.5801E-03     6.38024E-03    -20.9661E+06    -43.3652E+06    -146.647E+06    -43.4424E+06    -146.569E+06    -20.9661E+06     1.30818E+06         32.3622
             811     6.59747E-03     25.7959E-03         10.2509        -4.32708        -4.90917        -4.30681         10.2306        -4.90917    -982.144E-03     119.082E-03    -59.4105E-03    -59.6714E-03    -59.4226E-03     119.053E-03    -59.6306E-03     4.46513E-03    -24.5027E+06    -49.8690E+06    -186.742E+06    -49.9494E+06    -186.662E+06    -24.5027E+06     1.70537E+06         31.6005
             812     5.65432E-03     25.7899E-03         10.5524        -4.55650        -4.98922        -4.52734         10.5232        -4.98922        -1.31366     119.250E-03    -59.5265E-03    -59.7238E-03    -59.6221E-03     119.237E-03    -59.6148E-03     2.84542E-03    -29.7132E+06    -53.9611E+06    -208.806E+06    -54.0140E+06    -208.753E+06    -29.7132E+06     1.38897E+06         31.0231
             813     4.71304E-03     25.7896E-03         10.8222        -4.77149        -5.05889        -4.73885         10.7896        -5.05889        -1.40690     118.904E-03    -59.2398E-03    -59.6643E-03    -59.3066E-03     118.900E-03    -59.5938E-03     1.26087E-03    -35.7731E+06    -55.9507E+06    -221.937E+06    -56.0094E+06    -221.878E+06    -35.7731E+06     961.199E+03         30.5808
             814     3.76955E-03     25.7882E-03         11.0365        -4.93821        -5.11588        -4.91330         11.0116        -5.11588        -1.15252     118.909E-03    -59.2980E-03    -59.6111E-03    -59.2996E-03     118.908E-03    -59.6087E-03     222.565E-06    -43.8728E+06    -60.1575E+06    -235.847E+06    -60.1751E+06    -235.830E+06    -43.8728E+06     226.374E+03         30.2450
             815     2.82704E-03     25.7878E-03         11.2174        -5.07815        -5.15963        -5.05138         11.1901        -5.15905        -1.21589     119.129E-03    -59.4644E-03    -59.6643E-03    -59.5372E-03     119.129E-03    -59.5914E-03    -222.243E-06    -52.5460E+06    -63.2766E+06    -242.060E+06    -63.2987E+06    -242.038E+06    -52.5460E+06    -183.517E+03         29.9988
             816     1.88553E-03     25.7882E-03         11.3387        -5.16609        -5.18953        -5.14150         11.3135        -5.18895    -694.467E-03     119.090E-03    -59.3914E-03    -59.6982E-03    -59.5420E-03     119.089E-03    -59.5471E-03    -461.648E-06    -58.6414E+06    -65.1945E+06    -246.420E+06    -64.4062E+06    -246.383E+06    -59.4660E+06     311.980E+03         29.8305
             817     941.951E-06     25.7898E-03         11.4050        -4.47658        -5.92694        -4.47420         11.4026        -5.92694     35.4272E-03     119.019E-03    -59.2406E-03    -59.7787E-03    -59.7030E-03     119.018E-03    -59.3145E-03     361.765E-06    -65.6119E+06    -69.3065E+06    -251.441E+06    -68.2980E+06    -251.423E+06    -66.6377E+06     417.524E+03         29.7306
             818     16.0297E-03     25.5892E-03         5.60648        -1.05142        -3.61619        -1.04902         5.60408        -3.61619     202.768E-03     208.221E-03    -59.7522E-03    -148.469E-03    -69.1795E-03     128.932E-03    -59.7522E-03     292.747E-03     146.821E+06     132.263E+06    -8.51809E+06    -8.49841E+06     146.801E+06     132.263E+06     394.598E+03         67.1384
             819     15.0906E-03     25.1286E-03         5.96021        -1.40216        -3.65557        -1.39774         5.95578        -3.65557     290.416E-03     207.675E-03    -59.6470E-03    -148.028E-03    -68.7092E-03     128.356E-03    -59.6470E-03     292.493E-03     131.161E+06     108.812E+06    -16.2373E+06    -16.1904E+06     131.114E+06     108.812E+06     2.15450E+06         62.1952
             820     14.1457E-03     24.9148E-03         6.31701        -1.72990        -3.71151        -1.71747         6.30458        -3.71151     626.356E-03     143.347E-03    -59.5175E-03    -83.8291E-03    -58.8618E-03     118.379E-03    -59.5175E-03     135.594E-03     109.476E+06     66.1127E+06    -24.9506E+06    -24.8637E+06     109.389E+06     66.1127E+06     2.98757E+06         55.9698
             821     13.1960E-03     24.8306E-03         6.71126        -2.04264        -3.80198        -2.02989         6.69850        -3.80198     659.669E-03     122.969E-03    -59.3959E-03    -63.5733E-03    -57.1417E-03     116.538E-03    -59.3959E-03     66.9510E-03     98.7647E+06     26.2021E+06    -29.9182E+06    -29.8439E+06     98.6904E+06     26.2021E+06     1.60364E+06         49.6718
             822     12.2525E-03     24.7701E-03         7.10535        -2.33884        -3.90415        -2.32684         7.09335        -3.90415     670.006E-03     120.233E-03    -59.2666E-03    -60.9669E-03    -58.2070E-03     117.474E-03    -59.2666E-03     42.8552E-03     89.8258E+06    -5.23746E+06    -31.9762E+06    -31.9482E+06     89.7977E+06    -5.23746E+06    -506.724E+03         44.2141
             823     11.3123E-03     24.7364E-03         7.49526        -2.63063        -4.00858        -2.62309         7.48772        -4.00858     443.673E-03     118.871E-03    -59.0457E-03    -59.8250E-03    -58.6516E-03     117.912E-03    -59.2601E-03     25.4281E-03     46.8429E+06    -15.3074E+06    -32.0535E+06    -31.8759E+06     46.6653E+06    -15.3074E+06    -1.63483E+06         39.9883
             824     10.3678E-03     24.7171E-03         7.87954        -2.92480        -4.11112        -2.92209         7.87683        -4.11112     301.428E-03     118.485E-03    -58.9990E-03    -59.4863E-03    -58.6033E-03     117.986E-03    -59.3823E-03     18.7899E-03     1.20042E+06    -21.2684E+06    -39.5567E+06    -31.7683E+06    -18.8538E+06    -9.00256E+06    -627.771E+03         36.9513
             825     9.42433E-03     24.6950E-03         8.24173        -3.20475        -4.20836        -3.19824         8.23522        -4.20836    -70.2480E-03     118.748E-03    -59.1605E-03    -59.5874E-03    -58.9732E-03     118.421E-03    -59.4478E-03     14.8808E-03    -12.8237E+06    -36.2707E+06      -71.08E+06    -36.6753E+06    -70.6754E+06    -12.8237E+06     1.66178E+06         34.8468
             826     8.48373E-03     24.6833E-03         8.57728        -3.45814        -4.30048        -3.45309         8.57222        -4.30048    -466.654E-03     118.680E-03    -59.0639E-03    -59.6162E-03    -59.0693E-03     118.546E-03    -59.4767E-03     9.53172E-03    -19.2143E+06    -41.1177E+06    -109.852E+06    -41.1740E+06    -109.796E+06    -19.2143E+06     1.31620E+06         33.3886
             827     7.53986E-03     24.6752E-03         8.89034        -3.69064        -4.38780        -3.68660         8.88630        -4.38780    -435.854E-03     118.742E-03    -59.1862E-03    -59.5556E-03    -59.1263E-03     118.682E-03    -59.5556E-03     6.45296E-03    -16.8042E+06    -42.9535E+06    -149.051E+06    -43.0307E+06    -148.973E+06    -16.8042E+06     2.32366E+06         32.3510
             828     6.59715E-03     24.6690E-03         9.20531        -3.92940        -4.46919        -3.90782         9.18373        -4.46919    -980.975E-03     119.169E-03    -59.5324E-03    -59.6369E-03    -59.5319E-03     119.139E-03    -59.6075E-03     4.43906E-03    -15.4337E+06    -45.3867E+06    -185.254E+06    -45.4726E+06    -185.168E+06    -15.4337E+06     2.97830E+06         31.5864
             829     5.65592E-03     24.6651E-03         9.48656        -4.14318        -4.54368        -4.11134         9.45472        -4.54368        -1.30840     119.005E-03    -59.4037E-03    -59.6009E-03    -59.4237E-03     118.995E-03    -59.5715E-03     2.28875E-03    -24.7306E+06    -50.2776E+06    -207.013E+06    -50.2990E+06    -206.991E+06    -24.7306E+06     470.912E+03         31.0073
             830     4.71191E-03     24.6638E-03         9.72508        -4.32830        -4.61055        -4.29399         9.69078        -4.61055        -1.37728     118.954E-03    -59.3630E-03    -59.5910E-03    -59.4215E-03     118.952E-03    -59.5308E-03     998.745E-06    -35.1890E+06    -55.2090E+06    -223.022E+06    -55.2360E+06    -222.995E+06    -35.1890E+06     215.269E+03         30.5640
             831     3.77071E-03     24.6630E-03         9.92411        -4.47697        -4.66918        -4.45045         9.89760        -4.66918        -1.16637     118.955E-03    -59.4050E-03    -59.5501E-03    -59.4644E-03     118.954E-03    -59.4899E-03     316.939E-06    -42.7503E+06    -57.9924E+06    -234.159E+06    -58.0086E+06    -234.143E+06    -42.7503E+06     504.026E+03         30.2276
             832     2.82804E-03     24.6627E-03         10.1196        -4.62730        -4.71591        -4.60205         10.0938        -4.71532        -1.17137     118.667E-03    -59.1844E-03    -59.4827E-03    -59.1841E-03     118.667E-03    -59.4827E-03    -259.562E-06    -51.8086E+06    -61.4354E+06    -243.174E+06    -61.4454E+06    -243.164E+06    -51.8086E+06    -761.813E+03         29.9806
             833     1.88405E-03     24.6633E-03         10.2419        -4.71760        -4.74725        -4.69717         10.2209        -4.74667    -783.229E-03     118.877E-03    -59.2758E-03    -59.6011E-03    -59.3536E-03     118.877E-03    -59.5230E-03    -142.470E-06    -59.1408E+06    -66.2257E+06    -248.628E+06    -66.2483E+06    -248.605E+06    -59.1408E+06     390.879E+03         29.8115
             834     943.386E-06     24.6631E-03         10.3130        -4.25468        -5.26912        -4.24846         10.3068        -5.26912     245.488E-03     119.022E-03    -59.2571E-03    -59.7648E-03    -59.7295E-03     119.020E-03    -59.2909E-03     68.4354E-06    -65.2458E+06    -69.9402E+06    -249.202E+06    -69.7634E+06    -249.178E+06    -65.4470E+06     726.947E+03         29.7111
             835     16.0200E-03     24.4371E-03         4.89816    -884.217E-03        -3.24468    -882.109E-03         4.89606        -3.24468     174.880E-03     207.961E-03    -60.0430E-03    -147.918E-03    -67.7503E-03     127.793E-03    -60.0430E-03     296.070E-03     144.670E+06     132.975E+06    -7.88152E+06    -7.86724E+06     144.656E+06     132.975E+06    -82.5658E+03         67.0558
             836     15.0849E-03     24.0047E-03         5.16745        -1.18484        -3.25806        -1.18062         5.16323        -3.25806     259.051E-03     205.658E-03    -59.9078E-03    -145.751E-03    -70.2784E-03     130.186E-03    -59.9078E-03     286.064E-03     128.560E+06     111.199E+06    -16.1411E+06    -16.0913E+06     128.510E+06     111.199E+06     1.80977E+06         62.1372
             837     14.1363E-03     23.7908E-03         5.45697        -1.47445        -3.29362        -1.46171         5.44422        -3.29362     585.155E-03     145.179E-03    -59.6774E-03    -85.5017E-03    -59.9233E-03     119.601E-03    -59.6774E-03     137.772E-03     111.126E+06     70.0183E+06    -23.3798E+06    -23.2694E+06     111.016E+06     70.0183E+06     3.74845E+06         55.9516
             838     13.1976E-03     23.7037E-03         5.79198        -1.75242        -3.36840        -1.73916         5.77872        -3.36840     620.819E-03     124.546E-03    -59.4577E-03    -65.0885E-03    -58.8101E-03     118.268E-03    -59.4577E-03     66.6125E-03     102.532E+06     28.0344E+06    -27.1387E+06    -27.0438E+06     102.437E+06     28.0344E+06     2.13866E+06         49.6830
             839     12.2553E-03     23.6446E-03         6.14384        -2.02477        -3.45761        -2.01248         6.13155        -3.45761     628.044E-03     120.470E-03    -59.2501E-03    -61.2202E-03    -58.5977E-03     117.848E-03    -59.2501E-03     42.0570E-03     91.9482E+06    -4.62856E+06    -28.4557E+06    -28.3980E+06     91.8905E+06    -4.62856E+06    -951.926E+03         44.2370
             840     11.3092E-03     23.6103E-03         6.49059        -2.28665        -3.55057        -2.27883         6.48277        -3.55057     417.299E-03     118.823E-03    -59.2196E-03    -59.6038E-03    -58.6890E-03     117.909E-03    -59.2196E-03     24.5903E-03     46.7575E+06    -17.4564E+06    -32.0220E+06    -31.8275E+06     46.5630E+06    -17.4564E+06    -2.49714E+06         40.0046
             841     10.3691E-03     23.5902E-03         6.82728        -2.54145        -3.64356        -2.53872         6.82455        -3.64356     279.400E-03     118.757E-03    -59.2696E-03    -59.4873E-03    -58.9735E-03     118.302E-03    -59.3286E-03     17.9419E-03    -615.115E+03    -26.7266E+06    -46.4077E+06    -36.9901E+06    -24.3774E+06    -12.3820E+06     856.831E+03         36.9550
             842     9.42718E-03     23.5706E-03         7.16046        -2.79885        -3.73276        -2.79214         7.15375        -3.73276    -71.9589E-03     118.401E-03    -59.0052E-03    -59.3956E-03    -58.6771E-03     118.073E-03    -59.3956E-03     14.9671E-03    -12.3680E+06    -39.2814E+06    -72.6018E+06    -39.9939E+06    -71.8893E+06    -12.3680E+06     4.17237E+06         34.8381
             843     8.48206E-03     23.5569E-03         7.47772        -3.04318        -3.81702        -3.03792         7.47246        -3.81702    -445.133E-03     118.565E-03    -59.0193E-03    -59.5460E-03    -58.9878E-03     118.428E-03    -59.4401E-03     9.47458E-03    -16.5548E+06    -42.9506E+06    -107.437E+06    -43.1321E+06    -107.255E+06    -16.5548E+06     2.31467E+06         33.3702
             844     7.54059E-03     23.5505E-03         7.76228        -3.25738        -3.89653        -3.25254         7.75744        -3.89653    -442.501E-03     118.974E-03    -59.3616E-03    -59.6127E-03    -59.4444E-03     118.919E-03    -59.4742E-03     6.23717E-03    -19.3816E+06    -46.4758E+06    -149.783E+06    -46.5052E+06    -149.754E+06    -19.3816E+06     654.344E+03         32.3267
             845     6.59854E-03     23.5421E-03         8.04119        -3.46766        -3.97155        -3.44560         8.01913        -3.97155    -944.715E-03     118.857E-03    -59.3292E-03    -59.5279E-03    -59.3395E-03     118.831E-03    -59.4911E-03     4.02133E-03    -20.6268E+06    -47.9734E+06    -185.175E+06    -48.0044E+06    -185.144E+06    -20.6268E+06     887.298E+03         31.5588
             846     5.65514E-03     23.5406E-03         8.30158        -3.66561        -4.04168        -3.63053         8.26650        -4.04168        -1.28962     118.803E-03    -59.2637E-03    -59.5396E-03    -59.3158E-03     118.798E-03    -59.4819E-03     1.91674E-03    -25.5739E+06    -50.7880E+06    -205.973E+06    -50.8207E+06    -205.940E+06    -25.5739E+06     1.83791E+06         30.9780
             847     4.71371E-03     23.5382E-03         8.53804        -3.84957        -4.10402        -3.81460         8.50307        -4.10402        -1.31102     118.848E-03    -59.3087E-03    -59.5395E-03    -59.4183E-03     118.847E-03    -59.4283E-03     968.980E-06    -37.4647E+06    -56.2433E+06    -222.744E+06    -56.2707E+06    -222.716E+06    -37.4647E+06     1.05888E+06         30.5341
             848     3.77040E-03     23.5375E-03         8.72605        -3.99114        -4.15691        -3.96255         8.69746        -4.15691        -1.18182     118.706E-03    -59.2698E-03    -59.4357E-03    -59.3267E-03     118.705E-03    -59.3779E-03    -14.3529E-06    -46.5139E+06    -60.6464E+06    -234.310E+06    -60.6478E+06    -234.309E+06    -46.5139E+06     37.3732E+03         30.1978
             849     2.82769E-03     23.5384E-03         8.89308        -4.11574        -4.19904        -4.09233         8.86967        -4.19904        -1.08539     118.590E-03    -59.1627E-03    -59.4277E-03    -59.2273E-03     118.590E-03    -59.3622E-03    -442.489E-06    -52.4074E+06    -64.4696E+06    -243.305E+06    -64.4736E+06    -243.301E+06    -52.4074E+06     601.562E+03         29.9510
             850     1.88574E-03     23.5384E-03         9.00054        -4.19915        -4.22915        -4.18009         8.98149        -4.22915    -914.521E-03     118.617E-03    -59.1695E-03    -59.4480E-03    -59.2819E-03     118.617E-03    -59.3348E-03    -334.497E-06    -60.9093E+06    -68.8008E+06    -248.561E+06    -68.8157E+06    -248.547E+06    -60.9093E+06     124.651E+03         29.7818
             851     941.370E-06     23.5375E-03         9.11448        -3.96718        -4.56650        -3.91613         9.06344        -4.56650     633.256E-03     118.578E-03    -59.0630E-03    -59.5155E-03    -59.4796E-03     118.576E-03    -59.0967E-03    -909.235E-06    -67.7447E+06    -72.1454E+06    -249.134E+06    -70.8927E+06    -249.097E+06    -69.0354E+06     -1.7846E+06         29.6815
             852     16.0229E-03     23.2958E-03         4.14872    -709.938E-03        -2.82995    -707.463E-03         4.14625        -2.82995     189.319E-03     206.683E-03    -60.0015E-03    -146.681E-03    -65.4212E-03     125.423E-03    -60.0015E-03     295.593E-03     142.013E+06     132.382E+06    -6.85182E+06    -6.84153E+06     142.003E+06     132.382E+06     587.497E+03         66.9828
             853     15.0802E-03     22.8806E-03         4.32303    -958.274E-03        -2.81757    -952.681E-03         4.31743        -2.81757     285.704E-03     201.488E-03    -59.9818E-03    -141.507E-03    -67.2809E-03     127.263E-03    -59.9818E-03     278.622E-03     125.121E+06     110.415E+06    -14.8220E+06    -14.7992E+06     125.098E+06     110.415E+06     1.26204E+06         62.0820
             854     14.1403E-03     22.6636E-03         4.53940        -1.20567        -2.83237        -1.18967         4.52340        -2.83237     593.590E-03     146.082E-03    -59.7474E-03    -86.3346E-03    -62.2465E-03     121.994E-03    -59.7474E-03     134.262E-03     112.427E+06     74.3549E+06    -19.4720E+06    -19.4383E+06     112.393E+06     74.3549E+06     1.77067E+06         55.9271
             855     13.1959E-03     22.5743E-03         4.81055        -1.44360        -2.89101        -1.42678         4.79373        -2.89101     634.029E-03     124.250E-03    -59.4226E-03    -64.8277E-03    -59.1506E-03     118.573E-03    -59.4226E-03     63.6273E-03     104.741E+06     31.4016E+06    -23.3588E+06    -23.3222E+06     104.704E+06     31.4016E+06     1.51656E+06         49.6883
             856     12.2539E-03     22.5193E-03         5.11335        -1.68437        -2.96685        -1.66859         5.09757        -2.96685     645.547E-03     120.383E-03    -59.1841E-03    -61.1989E-03    -58.6981E-03     117.882E-03    -59.1841E-03     40.9118E-03     94.6631E+06    -3.29337E+06    -27.5752E+06    -27.5142E+06     94.6021E+06    -3.29337E+06     818.715E+03         44.2475
             857     11.3138E-03     22.4840E-03         5.41153        -1.91017        -3.04779        -1.90013         5.40149        -3.04779     441.811E-03     118.721E-03    -59.0595E-03    -59.6616E-03    -58.6847E-03     117.847E-03    -59.1623E-03     24.2160E-03     44.6537E+06    -14.1606E+06    -32.0093E+06    -31.6812E+06     44.3256E+06    -14.1606E+06     1.34956E+06         40.0059
             858     10.3693E-03     22.4639E-03         5.70178        -2.12727        -3.13040        -2.12349         5.69800        -3.13040     307.004E-03     118.559E-03    -59.1316E-03    -59.4278E-03    -58.8645E-03     118.125E-03    -59.2607E-03     17.3589E-03    -5.40952E+06    -24.4775E+06    -47.6571E+06    -35.8090E+06    -30.1500E+06    -11.5851E+06     3.49649E+06         36.9417
             859     9.42555E-03     22.4458E-03         5.99708        -2.35415        -3.21088        -2.34644         5.98937        -3.21088    -41.8344E-03     118.481E-03    -59.0538E-03    -59.4268E-03    -58.9081E-03     118.201E-03    -59.2930E-03     13.7530E-03    -13.0826E+06    -37.8902E+06    -70.4961E+06    -38.5016E+06    -69.8847E+06    -13.0826E+06     3.98055E+06         34.8109
             860     8.48403E-03     22.4320E-03         6.28319        -2.57594        -3.28730        -2.57077         6.27802        -3.28730    -394.614E-03     118.485E-03    -59.0439E-03    -59.4407E-03    -59.0501E-03     118.363E-03    -59.3132E-03     8.85294E-03    -16.4317E+06    -40.3147E+06    -104.752E+06    -40.4872E+06    -104.579E+06    -16.4317E+06     2.18938E+06         33.3324
             861     7.54162E-03     22.4228E-03         6.54579        -2.77793        -3.35930        -2.77271         6.54057        -3.35930    -410.560E-03     118.800E-03    -59.2773E-03    -59.5230E-03    -59.4243E-03     118.758E-03    -59.3338E-03     5.34947E-03    -19.5490E+06    -43.5211E+06    -149.901E+06    -43.5756E+06    -149.847E+06    -19.5490E+06     1.11479E+06         32.2817
             862     6.59896E-03     22.4188E-03         6.79666        -2.96893        -3.42742        -2.94731         6.77505        -3.42742    -874.082E-03     118.625E-03    -59.1900E-03    -59.4348E-03    -59.2795E-03     118.608E-03    -59.3288E-03     3.07877E-03    -23.7173E+06    -49.3480E+06    -185.022E+06    -49.4039E+06    -184.967E+06    -23.7173E+06     1.29754E+06         31.5097
             863     5.65642E-03     22.4144E-03         7.03768        -3.15293        -3.49142        -3.11433         6.99908        -3.49142        -1.24737     118.490E-03    -59.0931E-03    -59.3965E-03    -59.1662E-03     118.487E-03    -59.3204E-03     1.22364E-03    -27.9076E+06    -54.7809E+06    -206.595E+06    -54.8152E+06    -206.561E+06    -27.9076E+06     1.23600E+06         30.9270
             864     4.71333E-03     22.4134E-03         7.26159        -3.32720        -3.54753        -3.29175         7.22614        -3.54753        -1.21167     118.472E-03    -59.1319E-03    -59.3399E-03    -59.1841E-03     118.471E-03    -59.2865E-03     263.389E-06    -35.8310E+06    -58.3284E+06    -221.348E+06    -58.3651E+06    -221.311E+06    -35.8310E+06     1.25194E+06         30.4827
             865     3.77118E-03     22.4128E-03         7.43755        -3.46213        -3.59330        -3.42943         7.40486        -3.59330        -1.17936     118.428E-03    -59.1423E-03    -59.2854E-03    -59.1931E-03     118.426E-03    -59.2332E-03    -559.028E-06    -46.6578E+06    -62.4587E+06    -234.769E+06    -62.4682E+06    -234.759E+06    -46.6578E+06     599.267E+03         30.1470
             866     2.82849E-03     22.4136E-03         7.57391        -3.56402        -3.62853        -3.54053         7.55042        -3.62853    -935.417E-03     118.526E-03    -59.1155E-03    -59.4102E-03    -59.3838E-03     118.524E-03    -59.1404E-03    -863.180E-06    -54.5384E+06    -65.5891E+06    -243.026E+06    -65.5936E+06    -243.021E+06    -54.5384E+06     476.376E+03         29.9016
             867     1.88559E-03     22.4132E-03         7.66269        -3.63363        -3.65716        -3.60187         7.63092        -3.65716        -1.03697     118.187E-03    -58.9262E-03    -59.2609E-03    -59.1902E-03     118.186E-03    -58.9955E-03    -764.253E-06    -61.1161E+06    -68.4913E+06    -246.539E+06    -68.5037E+06    -246.526E+06    -61.1161E+06    -229.121E+03         29.7337
             868     944.619E-06     22.4138E-03         7.91441        -3.64512        -3.89068        -3.49567         7.72105        -3.84676         1.13899     117.783E-03    -58.5508E-03    -59.2319E-03    -58.6946E-03     117.780E-03    -59.0855E-03    -335.494E-06    -69.4456E+06    -74.2402E+06    -252.050E+06    -72.3958E+06    -251.975E+06    -71.3652E+06    -126.155E+03         29.6341
             869     16.0406E-03     22.1983E-03         3.35874    -541.827E-03        -2.38216    -538.115E-03         3.35503        -2.38216     224.746E-03     206.271E-03    -59.7607E-03    -146.510E-03    -66.1580E-03     125.919E-03    -59.7607E-03     291.657E-03     140.119E+06     130.608E+06    -7.57064E+06    -7.56336E+06     140.112E+06     130.608E+06     44.3583E+03         66.9053
             870     15.0799E-03     21.7518E-03         3.44023    -733.073E-03        -2.34494    -723.664E-03         3.43082        -2.34494     345.595E-03     203.818E-03    -59.7919E-03    -144.026E-03    -66.0942E-03     125.886E-03    -59.7919E-03     285.009E-03     123.848E+06     109.307E+06    -14.4271E+06    -14.4065E+06     123.828E+06     109.307E+06     1.45076E+06         62.0292
             871     14.1410E-03     21.5297E-03         3.58030    -934.337E-03        -2.33733    -910.030E-03         3.55599        -2.33733     643.073E-03     144.984E-03    -59.6240E-03    -85.3600E-03    -62.1953E-03     121.819E-03    -59.6240E-03     131.310E-03     113.014E+06     75.1562E+06    -20.5176E+06    -20.4785E+06     112.975E+06     75.1562E+06     136.723E+03         55.8968
             872     13.2013E-03     21.4536E-03         3.79299        -1.13375        -2.37957        -1.10824         3.76748        -2.37957     687.457E-03     123.504E-03    -59.3109E-03    -64.1929E-03    -58.6532E-03     117.964E-03    -59.3109E-03     62.8363E-03     103.813E+06     33.2608E+06    -24.7111E+06    -24.6535E+06     103.756E+06     33.2608E+06     145.693E+03         49.6750
             873     12.2565E-03     21.3892E-03         4.03183        -1.32572        -2.44107        -1.30231         4.00842        -2.44107     693.853E-03     120.233E-03    -59.0763E-03    -61.1570E-03    -58.6725E-03     117.749E-03    -59.0763E-03     40.2481E-03     93.6903E+06    -2.23129E+06    -28.4667E+06    -28.3961E+06     93.6196E+06    -2.23129E+06     2.45839E+06         44.2338
             874     11.3122E-03     21.3605E-03         4.27478        -1.50828        -2.50952        -1.49358         4.26007        -2.50952     490.034E-03     118.508E-03    -58.9554E-03    -59.5523E-03    -58.6764E-03     117.735E-03    -59.0582E-03     22.8580E-03     42.7656E+06    -10.6378E+06    -32.0070E+06    -31.4985E+06     42.2571E+06    -10.6378E+06     4.05788E+06         39.9812
             875     10.3702E-03     21.3371E-03         4.52721        -1.69854        -2.58063        -1.69235         4.52101        -2.58063     359.973E-03     118.590E-03    -59.0149E-03    -59.5747E-03    -59.0818E-03     118.200E-03    -59.1177E-03     16.4342E-03    -8.02808E+06    -19.4629E+06    -44.4682E+06    -32.8563E+06    -29.4401E+06    -9.66283E+06     3.67207E+06         36.9010
             876     9.42952E-03     21.3203E-03         4.77761        -1.89057        -2.65042        -1.88088         4.76792        -2.65042     6.46968E-03     118.788E-03    -59.0776E-03    -59.7100E-03    -59.4989E-03     118.577E-03    -59.0776E-03     11.9482E-03    -13.0417E+06    -32.2086E+06    -67.5811E+06    -32.4098E+06    -67.3799E+06    -13.0417E+06     1.52112E+06         34.7552
             877     8.48602E-03     21.3063E-03         5.01043        -2.06782        -2.71848        -2.06284         5.00545        -2.71848    -330.877E-03     118.256E-03    -58.9051E-03    -59.3509E-03    -59.1058E-03     118.175E-03    -59.0688E-03     7.25515E-03    -12.0902E+06    -33.2312E+06    -105.236E+06    -33.4597E+06    -105.007E+06    -12.0902E+06     2.70760E+06         33.2647
             878     7.54280E-03     21.2983E-03         5.24258        -2.24641        -2.78422        -2.24050         5.23667        -2.78422    -369.274E-03     118.056E-03    -58.8960E-03    -59.1602E-03    -58.9204E-03     118.030E-03    -59.1094E-03     4.00160E-03    -12.3989E+06    -39.0353E+06    -151.066E+06    -39.3308E+06    -150.770E+06    -12.3989E+06     4.86484E+06         32.2055
             879     6.60073E-03     21.2924E-03         5.48717        -2.43675        -2.84598        -2.41586         5.46627        -2.84598    -787.498E-03     118.327E-03    -59.0517E-03    -59.2756E-03    -59.2197E-03     118.321E-03    -59.1013E-03     1.78690E-03    -17.1259E+06    -45.4508E+06    -183.653E+06    -45.5857E+06    -183.518E+06    -17.1259E+06     3.96410E+06         31.4287
             880     5.65819E-03     21.2908E-03         5.72135        -2.62078        -2.90204        -2.57787         5.67844        -2.90204        -1.17779     118.188E-03    -58.9464E-03    -59.2415E-03    -59.1520E-03     118.187E-03    -59.0350E-03     178.791E-06    -25.7215E+06    -51.2955E+06    -205.042E+06    -51.3265E+06    -205.011E+06    -25.7215E+06     1.15454E+06         30.8440
             881     4.71529E-03     21.2883E-03         5.90272        -2.75927        -2.95116        -2.72195         5.86541        -2.95116        -1.09270     117.896E-03    -58.8300E-03    -59.0664E-03    -58.9105E-03     117.894E-03    -58.9833E-03    -1.07554E-03    -33.1382E+06    -56.0301E+06    -221.515E+06    -56.0489E+06    -221.496E+06    -33.1382E+06    -148.390E+03         30.3993
             882     3.77183E-03     21.2889E-03         6.05819        -2.87576        -2.99374        -2.83459         6.01702        -2.99374        -1.15450     117.870E-03    -58.8692E-03    -59.0010E-03    -58.9324E-03     117.866E-03    -58.9340E-03    -1.48362E-03    -40.9660E+06    -59.4914E+06    -234.492E+06    -59.5148E+06    -234.469E+06    -40.9660E+06     480.325E+03         30.0643
             883     2.82929E-03     21.2882E-03         6.19442        -2.98103        -3.02668        -2.94893         6.16232        -3.02668    -771.954E-03     117.777E-03    -58.7187E-03    -59.0579E-03    -58.9352E-03     117.774E-03    -58.8387E-03    -1.26439E-03    -53.2845E+06    -64.2658E+06    -243.288E+06    -64.2741E+06    -243.280E+06    -53.2845E+06     531.777E+03         29.8205
             884     1.88730E-03     21.2895E-03         6.30892        -3.04379        -3.08860        -3.00524         6.23335        -3.05158        -1.17185     117.423E-03    -58.4626E-03    -58.9606E-03    -58.6134E-03     117.422E-03    -58.8084E-03    -916.851E-06    -62.1699E+06    -67.3502E+06    -247.162E+06    -67.3585E+06    -247.154E+06    -62.1699E+06     610.441E+03         29.6546
             885     941.505E-06     21.2910E-03         6.79350        -3.10350        -3.51130        -3.02268         6.30573        -3.10434         1.70018     117.644E-03    -58.2257E-03    -59.4188E-03    -58.7259E-03     117.643E-03    -58.9169E-03     389.997E-06    -66.3310E+06    -70.0694E+06    -250.039E+06    -69.4978E+06    -249.981E+06    -66.9599E+06     1.84364E+06         29.5560
             886     16.0287E-03     21.0909E-03         2.52006    -368.844E-03        -1.90819    -362.292E-03         2.51351        -1.90819     263.356E-03     207.844E-03    -59.8015E-03    -148.043E-03    -68.6862E-03     128.488E-03    -59.8015E-03     292.347E-03     139.433E+06     130.626E+06    -8.89610E+06    -8.88280E+06     139.419E+06     130.626E+06    -1.11085E+06         66.7813
             887     15.0899E-03     20.6203E-03         2.52524    -511.346E-03        -1.84736    -493.563E-03         2.50745        -1.84736     413.388E-03     208.766E-03    -59.7002E-03    -149.066E-03    -69.8965E-03     129.597E-03    -59.7002E-03     292.860E-03     124.092E+06     111.195E+06    -14.4259E+06    -14.3757E+06     124.042E+06     111.195E+06    -782.758E+03         61.9341
             888     14.1448E-03     20.4085E-03         2.60147    -672.901E-03        -1.81788    -630.140E-03         2.55870        -1.81788     715.163E-03     143.734E-03    -59.4861E-03    -84.2475E-03    -60.6609E-03     120.147E-03    -59.4861E-03     131.939E-03     112.244E+06     75.3187E+06    -20.2392E+06    -20.1604E+06     112.165E+06     75.3187E+06    -548.777E+03         55.8294
             889     13.1980E-03     20.3226E-03         2.75341    -826.430E-03        -1.84277    -781.681E-03         2.70866        -1.84277     763.752E-03     123.855E-03    -59.2122E-03    -64.6431E-03    -58.9112E-03     118.123E-03    -59.2122E-03     63.5897E-03     102.403E+06     33.2589E+06    -26.5967E+06    -26.5221E+06     102.329E+06     33.2589E+06     466.835E+03         49.6186
             890     12.2583E-03     20.2663E-03         2.93162    -971.284E-03        -1.88865    -931.514E-03         2.89185        -1.88865     760.626E-03     120.603E-03    -58.9294E-03    -61.6735E-03    -59.2783E-03     118.208E-03    -58.9294E-03     39.8122E-03     90.9432E+06    -3.94451E+06    -29.8681E+06    -29.7013E+06     90.7764E+06    -3.94451E+06     3.15535E+06         44.1795
             891     11.3165E-03     20.2324E-03         3.11502        -1.10778        -1.94303        -1.08252         3.08976        -1.94303     559.205E-03     118.818E-03    -58.8410E-03    -59.9774E-03    -59.2658E-03     118.107E-03    -58.8410E-03     21.4749E-03     42.0288E+06    -12.9891E+06    -32.4321E+06    -32.0265E+06     41.6233E+06    -12.9891E+06     4.59758E+06         39.9172
             892     10.3739E-03     20.2133E-03         3.30700        -1.25103        -2.00143        -1.23952         3.29549        -2.00143     425.174E-03     118.660E-03    -58.8282E-03    -59.8319E-03    -59.5150E-03     118.343E-03    -58.8282E-03     15.0127E-03    -9.17633E+06    -18.6839E+06    -40.5650E+06    -33.3910E+06    -23.7096E+06    -11.3247E+06     1.67630E+06         36.8206
             893     9.43043E-03     20.1920E-03         3.50822        -1.40621        -2.05994        -1.39295         3.49496        -2.05994     70.8372E-03     118.638E-03    -58.7245E-03    -59.9139E-03    -59.7230E-03     118.448E-03    -58.7245E-03     10.5805E-03    -17.7823E+06    -34.6703E+06    -68.8140E+06    -34.8034E+06    -68.6809E+06    -17.7823E+06     183.048E+03         34.6580
             894     8.49009E-03     20.1827E-03         3.69939        -1.55147        -2.11825        -1.54686         3.69478        -2.11825    -257.486E-03     118.049E-03    -58.5657E-03    -59.4831E-03    -59.3366E-03     118.010E-03    -58.6729E-03     4.82481E-03    -14.1873E+06    -37.0683E+06    -109.746E+06    -37.4142E+06    -109.401E+06    -14.1873E+06     4.26538E+06         33.1543
             895     7.54685E-03     20.1736E-03         3.89541        -1.69960        -2.17571        -1.69227         3.88808        -2.17571    -329.584E-03     117.383E-03    -58.5070E-03    -58.8763E-03    -58.7083E-03     117.372E-03    -58.6639E-03     2.18641E-03    -11.7332E+06    -39.4442E+06    -150.257E+06    -39.8368E+06    -149.864E+06    -11.7332E+06     6.12686E+06         32.0861
             896     6.60290E-03     20.1686E-03         4.10633        -1.86023        -2.23092        -1.83825         4.08436        -2.23092    -708.023E-03     117.328E-03    -58.5504E-03    -58.7775E-03    -58.6798E-03     117.324E-03    -58.6442E-03    -155.649E-06    -15.9148E+06    -42.9746E+06    -182.000E+06    -43.1360E+06    -181.838E+06    -15.9148E+06     4.61633E+06         31.3037
             897     5.66031E-03     20.1653E-03         4.32784        -2.03669        -2.28203        -1.98526         4.27640        -2.28203        -1.10604     117.338E-03    -58.5344E-03    -58.8033E-03    -58.7546E-03     117.333E-03    -58.5786E-03    -1.35035E-03    -24.0551E+06    -47.7194E+06    -201.656E+06    -47.7944E+06    -201.581E+06    -24.0551E+06     2.95407E+06         30.7165
             898     4.71769E-03     20.1655E-03         4.49141        -2.16144        -2.32694        -2.11856         4.44853        -2.32694    -971.594E-03     117.201E-03    -58.4532E-03    -58.7475E-03    -58.7026E-03     117.195E-03    -58.4920E-03    -1.97563E-03    -33.5362E+06    -53.9059E+06    -220.682E+06    -53.9442E+06    -220.644E+06    -33.5362E+06     1.19895E+06         30.2713
             899     3.77455E-03     20.1648E-03         4.63970        -2.27401        -2.36961        -2.21987         4.58190        -2.36595        -1.12323     116.838E-03    -58.2777E-03    -58.5603E-03    -58.4170E-03     116.831E-03    -58.4138E-03    -2.23011E-03    -43.1034E+06    -59.8619E+06    -234.912E+06    -59.8956E+06    -234.878E+06    -43.1034E+06     822.529E+03         29.9371
             900     2.83081E-03     20.1653E-03         4.76913        -2.37736        -2.39994        -2.32541         4.71352        -2.39628    -634.442E-03     116.498E-03    -58.0868E-03    -58.4110E-03    -58.0939E-03     116.490E-03    -58.3960E-03    -2.17064E-03    -53.1756E+06    -63.6295E+06    -242.973E+06    -63.6378E+06    -242.965E+06    -53.1756E+06     604.417E+03         29.6946
             901     1.88542E-03     20.1668E-03         4.95400        -2.41488        -2.55150        -2.38327         4.78786        -2.41697        -1.31513     116.721E-03    -58.0554E-03    -58.6658E-03    -58.2908E-03     116.715E-03    -58.4238E-03    -1.88141E-03    -60.9240E+06    -66.1599E+06    -247.612E+06    -66.1800E+06    -247.592E+06    -60.9240E+06     11.2276E+03         29.5301
             902     943.985E-06     20.1671E-03         5.77328        -2.35470        -3.43011        -2.49640         4.83958        -2.35470         2.17757     116.847E-03    -57.7745E-03    -59.0722E-03    -58.9132E-03     116.844E-03    -57.9309E-03    -542.745E-06    -64.1133E+06    -68.0048E+06    -248.793E+06    -67.4435E+06    -248.762E+06    -64.7054E+06     421.889E+03         29.4328
             903     16.0207E-03     19.9428E-03         1.63658    -186.203E-03        -1.41351    -171.789E-03         1.62217        -1.41351     300.755E-03     208.281E-03    -59.9737E-03    -148.307E-03    -69.0951E-03     129.069E-03    -59.9737E-03     294.622E-03     140.922E+06     130.408E+06    -9.99683E+06    -9.95621E+06     140.882E+06     130.408E+06    -1.46271E+06         66.5973
             904     15.0860E-03     19.4934E-03         1.58745    -298.006E-03        -1.32946    -258.482E-03         1.54793        -1.32946     476.554E-03     207.713E-03    -59.7601E-03    -147.952E-03    -71.9552E-03     131.715E-03    -59.7601E-03     288.405E-03     124.327E+06     109.044E+06    -16.8170E+06    -16.6137E+06     124.123E+06     109.044E+06    -4.68282E+06         61.7667
             905     14.1424E-03     19.2839E-03         1.62583    -435.677E-03        -1.27992    -349.004E-03         1.53916        -1.27992     773.264E-03     144.975E-03    -59.4372E-03    -85.5376E-03    -61.3287E-03     120.766E-03    -59.4372E-03     134.433E-03     108.972E+06     71.8187E+06    -22.3944E+06    -22.2044E+06     108.782E+06     71.8187E+06    -2.03496E+06         55.6909
             906     13.2033E-03     19.1947E-03         1.71431    -537.784E-03        -1.28621    -448.393E-03         1.62491        -1.28621     821.118E-03     125.182E-03    -59.0936E-03    -66.0880E-03    -60.3853E-03     119.479E-03    -59.0936E-03     63.3861E-03     98.6614E+06     30.8782E+06    -27.9278E+06    -27.8439E+06     98.5775E+06     30.8782E+06     2.13094E+06         49.5010
             907     12.2596E-03     19.1399E-03         1.83218    -634.223E-03        -1.31558    -556.044E-03         1.75400        -1.31558     815.959E-03     121.313E-03    -58.6980E-03    -62.6147E-03    -60.5682E-03     119.266E-03    -58.6980E-03     36.8960E-03     89.4976E+06    -5.08823E+06    -31.4202E+06    -31.2373E+06     89.3148E+06    -5.08823E+06     3.23691E+06         44.0707
             908     11.3183E-03     19.1046E-03         1.94749    -717.129E-03        -1.35484    -666.694E-03         1.89706        -1.35484     621.710E-03     119.404E-03    -58.4737E-03    -60.9304E-03    -60.3524E-03     118.826E-03    -58.4737E-03     18.9039E-03     44.4040E+06    -15.1974E+06    -31.6233E+06    -31.3995E+06     44.1802E+06    -15.1974E+06     2.76355E+06         39.8012
             909     10.3775E-03     19.0881E-03         2.06346    -800.337E-03        -1.39957    -776.643E-03         2.03977        -1.39957     478.981E-03     118.785E-03    -58.3633E-03    -60.4214E-03    -60.2191E-03     118.582E-03    -58.3633E-03     11.6529E-03    -4.16059E+06    -19.7910E+06    -39.6824E+06    -32.5675E+06    -20.8655E+06    -10.2010E+06     2.14184E+06         36.6888
             910     9.43681E-03     19.0661E-03         2.21073    -914.787E-03        -1.44611    -892.978E-03         2.18892        -1.44611     130.807E-03     117.956E-03    -58.1839E-03    -59.7718E-03    -59.6688E-03     117.853E-03    -58.1839E-03     6.92647E-03    -18.5437E+06    -36.1800E+06    -72.7792E+06    -37.4314E+06    -71.5277E+06    -18.5437E+06     3.66632E+06         34.5088
             911     8.49365E-03     19.0575E-03         2.36267        -1.03044        -1.49317        -1.02565         2.35788        -1.49317    -189.455E-03     117.319E-03    -58.0402E-03    -59.2787E-03    -59.2666E-03     117.307E-03    -58.0402E-03     1.48824E-03    -21.9909E+06    -41.0447E+06    -111.597E+06    -41.3025E+06    -111.339E+06    -21.9909E+06     3.68878E+06         32.9905
             912     7.55158E-03     19.0504E-03         2.52429        -1.15043        -1.54001        -1.14016         2.51403        -1.54001    -287.955E-03     116.700E-03    -57.9609E-03    -58.7390E-03    -58.7305E-03     116.691E-03    -57.9609E-03    -523.867E-06    -17.4432E+06    -41.8719E+06    -148.926E+06    -42.0773E+06    -148.721E+06    -17.4432E+06     4.12608E+06         31.9123
             913     6.60893E-03     19.0453E-03         2.68149        -1.26133        -1.58738        -1.23450         2.65466        -1.58738    -631.257E-03     116.010E-03    -57.8565E-03    -58.1531E-03    -58.0991E-03     116.000E-03    -57.9007E-03    -2.31643E-03    -18.6457E+06    -44.0074E+06    -181.016E+06    -44.1922E+06    -180.831E+06    -18.6457E+06     4.97906E+06         31.1234
             914     5.66419E-03     19.0432E-03         2.88034        -1.41821        -1.63514        -1.34554         2.80767        -1.63514        -1.04225     115.765E-03    -57.7754E-03    -57.9894E-03    -57.9044E-03     115.741E-03    -57.8368E-03    -3.74440E-03    -25.7879E+06    -48.4946E+06    -199.423E+06    -48.6389E+06    -199.279E+06    -25.7879E+06     4.52087E+06         30.5324
             915     4.72000E-03     19.0417E-03         3.03567        -1.54036        -1.67857        -1.48017         2.97547        -1.67857    -876.693E-03     115.691E-03    -57.7457E-03    -57.9450E-03    -57.8914E-03     115.664E-03    -57.7726E-03    -3.94562E-03    -34.3199E+06    -53.2836E+06    -218.309E+06    -53.3715E+06    -218.221E+06    -34.3199E+06     3.62619E+06         30.0858
             916     3.77670E-03     19.0428E-03         3.20409        -1.64564        -1.75176        -1.59430         3.11440        -1.71341        -1.09325     115.550E-03    -57.5805E-03    -57.9693E-03    -57.8376E-03     115.525E-03    -57.6875E-03    -3.83098E-03    -44.1541E+06    -58.1866E+06    -233.704E+06    -58.2184E+06    -233.672E+06    -44.1541E+06     1.72115E+06         29.7517
             917     2.83213E-03     19.0440E-03         3.32159        -1.73819        -1.78240        -1.67991         3.21947        -1.73856    -519.985E-03     115.340E-03    -57.4066E-03    -57.9335E-03    -57.7226E-03     115.318E-03    -57.5958E-03    -3.67302E-03    -52.0088E+06    -62.0923E+06    -242.354E+06    -62.0944E+06    -242.352E+06    -52.0088E+06     156.384E+03         29.5101
             918     1.88935E-03     19.0444E-03         3.59342        -1.75575        -2.03188        -1.72670         3.28861        -1.75611        -1.38111     115.210E-03    -57.3327E-03    -57.8774E-03    -57.7501E-03     115.198E-03    -57.4479E-03    -2.85158E-03    -58.7644E+06    -66.4255E+06    -247.086E+06    -66.4584E+06    -247.053E+06    -58.7644E+06     265.146E+03         29.3468
             919     944.839E-06     19.0437E-03         4.79773        -1.60505        -3.37554        -1.92230         3.34450        -1.60505         2.48039     114.626E-03    -56.8685E-03    -57.7574E-03    -57.5038E-03     114.622E-03    -57.1180E-03    -1.26275E-03    -67.8137E+06    -72.4219E+06    -250.998E+06    -71.8896E+06    -250.938E+06    -68.4058E+06     71.7075E+03         29.2506
             920     16.0272E-03     18.8029E-03     770.472E-03    -49.2952E-03    -903.666E-03     22.9949E-03     698.181E-03    -903.666E-03     325.724E-03     208.643E-03    -59.9123E-03    -148.731E-03    -68.2569E-03     128.169E-03    -59.9123E-03     296.697E-03     145.196E+06     132.471E+06    -8.43797E+06    -8.40226E+06     145.160E+06     132.471E+06    -98.7797E+03         66.3492
             921     15.0857E-03     18.3703E-03     729.341E-03    -185.257E-03    -795.968E-03    -23.0950E-03     567.179E-03    -795.968E-03     509.010E-03     204.877E-03    -59.7272E-03    -145.150E-03    -70.3085E-03     130.036E-03    -59.7272E-03     283.192E-03     123.848E+06     105.774E+06    -19.3812E+06    -19.2004E+06     123.667E+06     105.774E+06    -3.24179E+06         61.5212
             922     14.1437E-03     18.1532E-03     776.536E-03    -338.297E-03    -729.145E-03    -67.0956E-03     501.382E-03    -725.193E-03     779.831E-03     147.350E-03    -59.3107E-03    -88.0392E-03    -64.7130E-03     124.024E-03    -59.3107E-03     131.772E-03     103.009E+06     65.8285E+06    -27.8400E+06    -27.6367E+06     102.805E+06     65.8285E+06    -3.45926E+06         55.4711
             923     13.2019E-03     18.0670E-03     806.215E-03    -392.258E-03    -715.788E-03    -117.567E-03     527.572E-03    -711.836E-03     819.020E-03     126.244E-03    -58.7478E-03    -67.4966E-03    -62.8556E-03     121.603E-03    -58.7478E-03     57.4042E-03     94.5581E+06     27.2570E+06    -30.8770E+06    -30.7629E+06     94.4439E+06     27.2570E+06     514.735E+03         49.3191
             924     12.2665E-03     18.0085E-03     843.698E-03    -422.986E-03    -724.110E-03    -170.284E-03     590.995E-03    -724.110E-03     805.118E-03     121.749E-03    -58.1771E-03    -63.5722E-03    -62.0546E-03     120.232E-03    -58.1771E-03     30.4420E-03     89.2991E+06    -4.53432E+06    -31.5569E+06    -31.4900E+06     89.2322E+06    -4.53432E+06     1.82491E+06         43.9053
             925     11.3264E-03     17.9810E-03     844.887E-03    -404.896E-03    -748.289E-03    -232.352E-03     672.343E-03    -748.289E-03     623.803E-03     119.409E-03    -57.7928E-03    -61.6166E-03    -61.3571E-03     119.150E-03    -57.7928E-03     12.4023E-03     46.8430E+06    -15.1953E+06    -31.8159E+06    -31.5843E+06     46.6114E+06    -15.1953E+06     1.68535E+06         39.6309
             926     10.3860E-03     17.9575E-03     859.982E-03    -402.580E-03    -779.059E-03    -311.830E-03     769.233E-03    -779.059E-03     478.978E-03     118.158E-03    -57.5514E-03    -60.6070E-03    -60.5424E-03     118.094E-03    -57.5514E-03     5.70523E-03    -3.52383E+06    -22.8909E+06    -43.8285E+06    -34.1975E+06    -23.0004E+06    -13.0453E+06     4.30241E+06         36.5030
             927     9.44465E-03     17.9449E-03     937.382E-03    -460.926E-03    -812.314E-03    -394.102E-03     870.557E-03    -812.314E-03     149.352E-03     116.871E-03    -57.2828E-03    -59.5885E-03    -59.5631E-03     116.846E-03    -57.2828E-03     1.47182E-03    -19.3290E+06    -35.4705E+06    -72.7402E+06    -37.0299E+06    -71.1808E+06    -19.3290E+06     5.92156E+06         34.3046
             928     8.50173E-03     17.9321E-03     997.229E-03    -494.446E-03    -847.436E-03    -481.590E-03     984.373E-03    -847.436E-03    -148.922E-03     115.849E-03    -57.0609E-03    -58.7879E-03    -58.7547E-03     115.816E-03    -57.0609E-03    -3.17588E-03    -24.2875E+06    -38.8364E+06    -109.843E+06    -39.1849E+06    -109.495E+06    -24.2875E+06     3.90515E+06         32.7700
             929     7.55913E-03     17.9283E-03         1.12192    -582.838E-03    -884.553E-03    -556.918E-03         1.09600    -884.553E-03    -258.069E-03     115.227E-03    -56.9252E-03    -58.3013E-03    -58.2475E-03     115.173E-03    -56.9252E-03    -5.34907E-03    -20.9397E+06    -42.1917E+06    -150.071E+06    -42.3519E+06    -149.911E+06    -20.9397E+06     3.86013E+06         31.6789
             930     6.61420E-03     17.9240E-03         1.26272    -681.116E-03    -923.929E-03    -627.095E-03         1.20870    -923.929E-03    -557.418E-03     114.479E-03    -56.7873E-03    -57.6921E-03    -57.6195E-03     114.407E-03    -56.7873E-03    -6.22610E-03    -21.9874E+06    -46.2920E+06    -180.268E+06    -46.5062E+06    -180.054E+06    -21.9874E+06     5.33285E+06         30.8806
             931     5.67102E-03     17.9218E-03         1.47513    -827.127E-03    -997.388E-03    -715.752E-03         1.33100    -964.633E-03    -984.064E-03     113.777E-03    -56.6364E-03    -57.1408E-03    -57.0353E-03     113.689E-03    -56.6536E-03    -7.34416E-03    -28.4102E+06    -50.1813E+06    -197.545E+06    -50.3650E+06    -197.361E+06    -28.4102E+06     5.18285E+06         30.2831
             932     4.72611E-03     17.9223E-03         1.57690    -905.899E-03        -1.03631    -818.500E-03         1.45675        -1.00355    -815.662E-03     113.337E-03    -56.5493E-03    -56.7880E-03    -56.6787E-03     113.255E-03    -56.5763E-03    -7.25796E-03    -33.9518E+06    -53.3209E+06    -215.359E+06    -53.4310E+06    -215.249E+06    -33.9518E+06     4.02412E+06         29.8324
             933     3.78028E-03     17.9215E-03         1.75003    -967.540E-03        -1.16039    -920.309E-03         1.57926        -1.03686        -1.05904     113.267E-03    -56.4793E-03    -56.7873E-03    -56.7057E-03     113.195E-03    -56.4891E-03    -6.78406E-03    -42.3776E+06    -57.2906E+06    -230.717E+06    -57.3252E+06    -230.682E+06    -42.3776E+06     2.28374E+06         29.4962
             934     2.83666E-03     17.9239E-03         1.89934        -1.06107        -1.22150        -1.00692         1.68475        -1.06107    -447.905E-03     113.140E-03    -56.3376E-03    -56.8020E-03    -56.7564E-03     113.094E-03    -56.3376E-03    -5.37336E-03    -51.5297E+06    -62.0976E+06    -242.010E+06    -62.1074E+06    -242.000E+06    -51.5297E+06     935.781E+03         29.2540
             935     1.89113E-03     17.9237E-03         2.28512        -1.07550        -1.57604        -1.05662         1.76570        -1.07550        -1.36478     112.491E-03    -56.0644E-03    -56.4263E-03    -56.2758E-03     112.470E-03    -56.1943E-03    -3.57116E-03    -59.3450E+06    -66.5924E+06    -248.609E+06    -66.6151E+06    -248.586E+06    -59.3450E+06     1.28038E+06         29.0911
             936     945.324E-06     17.9269E-03         3.83483    -863.588E-03        -3.31944        -1.29789         1.81328    -863.588E-03         2.60230     112.243E-03    -55.8937E-03    -56.3497E-03    -55.9870E-03     112.237E-03    -56.2498E-03    -1.69651E-03    -65.4406E+06    -69.9633E+06    -247.901E+06    -68.7808E+06    -247.853E+06    -66.6709E+06     949.872E+03         28.9955
             937     16.0343E-03     17.6847E-03     344.718E-03    -60.8637E-03    -690.192E-03     216.074E-03    -240.999E-03    -381.413E-03     320.235E-03     207.650E-03    -59.6523E-03    -147.998E-03    -69.0678E-03     128.720E-03    -59.6523E-03     291.375E-03     146.217E+06     133.816E+06    -7.70827E+06    -7.69125E+06     146.200E+06     133.816E+06     1.23354E+06         66.0057
             938     15.0837E-03     17.2440E-03     351.857E-03    -74.0241E-03    -738.706E-03     207.282E-03    -418.692E-03    -249.462E-03     482.136E-03     206.523E-03    -59.3983E-03    -147.124E-03    -71.1858E-03     130.584E-03    -59.3983E-03     284.723E-03     124.508E+06     104.968E+06    -18.2541E+06    -18.2077E+06     124.461E+06     104.968E+06     1.01465E+06         61.1907
             939     14.1490E-03     17.0159E-03     419.315E-03    -107.850E-03    -800.070E-03     211.112E-03    -545.856E-03    -153.860E-03     718.407E-03     148.670E-03    -58.7812E-03    -89.8884E-03    -68.9336E-03     127.715E-03    -58.7812E-03     124.040E-03     103.305E+06     63.8017E+06    -25.7524E+06    -25.6391E+06     103.191E+06     63.8017E+06    -1.63839E+06         55.1819
             940     13.2190E-03     16.9379E-03     435.417E-03    -101.445E-03    -823.580E-03     213.022E-03    -582.129E-03    -120.501E-03     749.441E-03     125.969E-03    -57.9408E-03    -68.0283E-03    -64.9416E-03     122.882E-03    -57.9408E-03     47.3398E-03     94.2647E+06     24.6321E+06    -31.1551E+06    -31.0670E+06     94.1766E+06     24.6321E+06    -2.88693E+06         49.0813
             941     12.2769E-03     16.8795E-03     437.649E-03    -90.8431E-03    -831.348E-03     216.345E-03    -585.543E-03    -115.345E-03     715.538E-03     121.035E-03    -57.1938E-03    -63.8410E-03    -62.8924E-03     120.086E-03    -57.1938E-03     22.8026E-03     87.8456E+06    -6.11355E+06    -33.0613E+06    -33.0286E+06     87.8129E+06    -6.11355E+06    -1.33102E+06         43.6895
             942     11.3398E-03     16.8520E-03     398.334E-03    -46.9571E-03    -836.933E-03     206.930E-03    -568.782E-03    -123.704E-03     548.541E-03     118.506E-03    -56.6803E-03    -61.8255E-03    -61.7442E-03     118.424E-03    -56.6803E-03     5.58468E-03     43.6260E+06    -15.5580E+06    -33.4261E+06    -32.9213E+06     43.1212E+06    -15.5580E+06     2.36007E+06         39.4136
             943     10.3989E-03     16.8350E-03     358.082E-03    -21.8508E-03    -833.307E-03     168.254E-03    -525.063E-03    -140.266E-03     410.223E-03     117.049E-03    -56.3001E-03    -60.7493E-03    -60.7190E-03     117.019E-03    -56.3001E-03    -1.05555E-03    -7.22431E+06    -22.6278E+06    -44.6344E+06    -34.5592E+06    -25.5179E+06    -14.4094E+06     6.27126E+06         36.2718
             944     9.45670E-03     16.8197E-03     365.881E-03    -40.4739E-03    -836.620E-03     125.423E-03    -476.035E-03    -160.601E-03     113.218E-03     115.376E-03    -55.9008E-03    -59.4748E-03    -59.3870E-03     115.288E-03    -55.9008E-03    -6.04235E-03    -19.7245E+06    -36.0325E+06    -69.7211E+06    -37.6621E+06    -68.0915E+06    -19.7245E+06      5.6417E+06         34.0546
             945     8.51492E-03     16.8120E-03     344.137E-03    -35.8631E-03    -826.763E-03     85.8937E-03    -419.719E-03    -184.664E-03    -152.484E-03     113.910E-03    -55.5675E-03    -58.3422E-03    -58.1761E-03     113.744E-03    -55.5675E-03    -9.77382E-03    -24.5646E+06    -39.4027E+06    -108.160E+06    -39.7584E+06    -107.804E+06    -24.5646E+06     4.40649E+06         32.5003
             946     7.56955E-03     16.8077E-03     391.909E-03    -83.4331E-03    -825.271E-03     45.6089E-03    -349.640E-03    -212.764E-03    -264.590E-03     113.015E-03    -55.3202E-03    -57.6946E-03    -57.4652E-03     112.785E-03    -55.3202E-03    -11.8884E-03    -23.5825E+06    -42.3434E+06    -151.772E+06    -42.6436E+06    -151.472E+06    -23.5825E+06     5.56081E+06         31.3910
             947     6.62692E-03     16.8041E-03     458.130E-03    -150.295E-03    -820.427E-03    -8.95972E-03    -259.531E-03    -244.101E-03    -524.007E-03     111.893E-03    -55.0928E-03    -56.8004E-03    -56.5445E-03     111.637E-03    -55.0928E-03    -12.6252E-03    -22.2436E+06    -46.4852E+06    -178.380E+06    -46.8082E+06    -178.057E+06    -22.2436E+06     6.31012E+06         30.5774
             948     5.68022E-03     16.8046E-03     609.044E-03    -235.954E-03    -893.506E-03    -85.3748E-03    -158.824E-03    -276.217E-03    -938.899E-03     110.776E-03    -54.8795E-03    -55.8965E-03    -55.6603E-03     110.540E-03    -54.8795E-03    -12.2072E-03    -28.6483E+06    -50.5270E+06    -195.062E+06    -50.7076E+06    -194.881E+06    -28.6483E+06     4.98229E+06         29.9676
             949     4.73440E-03     16.8036E-03     595.130E-03    -271.202E-03    -861.760E-03    -157.808E-03    -72.8573E-03    -307.168E-03    -772.552E-03     110.062E-03    -54.7288E-03    -55.3337E-03    -55.1351E-03     109.864E-03    -54.7288E-03    -11.1594E-03    -36.6175E+06    -54.9031E+06    -213.879E+06    -55.0234E+06    -213.759E+06    -36.6175E+06     4.26978E+06         29.5076
             950     3.78862E-03     16.8059E-03     713.363E-03    -300.222E-03    -967.558E-03    -227.558E-03     9.32848E-03    -336.187E-03        -1.01859     109.493E-03    -54.6137E-03    -54.8791E-03    -54.7233E-03     109.354E-03    -54.6306E-03    -9.37656E-03    -44.0438E+06    -59.1276E+06    -228.246E+06    -59.2118E+06    -228.162E+06    -44.0438E+06     3.55776E+06         29.1650
             951     2.84059E-03     16.8054E-03     829.737E-03    -359.541E-03        -1.02926    -305.610E-03     106.085E-03    -359.541E-03    -427.370E-03     109.193E-03    -54.5018E-03    -54.6909E-03    -54.5378E-03     109.102E-03    -54.5642E-03    -7.54160E-03    -54.2662E+06    -63.4429E+06    -240.094E+06    -63.4729E+06    -240.064E+06    -54.2662E+06     2.10528E+06         28.9187
             952     1.89401E-03     16.8095E-03         1.26465    -370.605E-03        -1.42825    -366.308E-03     202.707E-03    -370.605E-03        -1.32246     109.116E-03    -54.3666E-03    -54.7498E-03    -54.5474E-03     109.066E-03    -54.5187E-03    -5.36353E-03    -60.5766E+06    -66.3031E+06    -247.168E+06    -66.3126E+06    -247.159E+06    -60.5766E+06     535.522E+03         28.7537
             953     946.666E-06     16.8089E-03         2.95873    -128.119E-03        -3.34553    -616.972E-03     230.175E-03    -128.119E-03         2.51001     108.954E-03    -54.1010E-03    -54.8529E-03    -54.7286E-03     108.936E-03    -54.2075E-03    -3.07151E-03    -64.7918E+06    -69.9738E+06    -247.358E+06    -68.7581E+06    -247.343E+06    -66.0221E+06     740.543E+03         28.6572
             954     16.0407E-03     16.5868E-03     420.897E-03     154.292E-03        -1.19564     405.692E-03        -1.18043     154.292E-03     278.354E-03     208.239E-03    -59.3890E-03    -148.850E-03    -74.7891E-03     134.178E-03    -59.3890E-03     284.341E-03     145.157E+06     134.053E+06    -6.97585E+06    -6.89956E+06     145.081E+06     134.053E+06     1.06493E+06         65.5302
             955     15.0971E-03     16.1077E-03     482.530E-03     287.731E-03        -1.42717     432.838E-03        -1.40047     310.719E-03     404.828E-03     210.962E-03    -58.7691E-03    -152.193E-03    -77.8090E-03     136.578E-03    -58.7691E-03     287.395E-03     129.260E+06     110.463E+06    -13.8296E+06    -13.6834E+06     129.114E+06     110.463E+06     3.92943E+06         60.7614
             956     14.1681E-03     15.8813E-03     577.084E-03     392.356E-03        -1.64422     486.367E-03        -1.59328     432.127E-03     595.834E-03     148.188E-03    -57.8270E-03    -90.3607E-03    -70.9517E-03     128.779E-03    -57.8270E-03     118.803E-03     107.147E+06     65.7405E+06    -22.5917E+06    -22.4588E+06     107.014E+06     65.7405E+06     1.98913E+06         54.8202
             957     13.2296E-03     15.8047E-03     625.023E-03     458.807E-03        -1.75221     546.109E-03        -1.70011     485.622E-03     621.630E-03     125.754E-03    -56.7564E-03    -68.9978E-03    -66.6513E-03     123.408E-03    -56.7564E-03     40.7034E-03     93.9696E+06     20.7212E+06    -30.0378E+06    -29.9821E+06     93.9140E+06     20.7212E+06    -1.89189E+06         48.7823
             958     12.2979E-03     15.7530E-03     649.905E-03     498.429E-03        -1.80557     597.174E-03        -1.76287     508.459E-03     577.747E-03     120.302E-03    -55.8073E-03    -64.4950E-03    -63.9276E-03     119.735E-03    -55.8073E-03     16.6172E-03     84.5233E+06    -12.2112E+06    -33.4570E+06    -33.4023E+06     84.4686E+06    -12.2112E+06    -1.44100E+06         43.4302
             959     11.3555E-03     15.7266E-03     666.887E-03     517.138E-03        -1.83821     638.696E-03        -1.81002     517.138E-03     422.214E-03     117.530E-03    -55.1243E-03    -62.4057E-03    -62.3301E-03     117.454E-03    -55.1243E-03    -1.13895E-03     39.3182E+06    -20.2479E+06    -37.1163E+06    -36.7374E+06     38.9392E+06    -20.2479E+06     2.24032E+06         39.1661
             960     10.4167E-03     15.7101E-03     679.738E-03     515.364E-03        -1.85752     666.878E-03        -1.84466     515.364E-03     295.541E-03     115.949E-03    -54.5552E-03    -61.3935E-03    -61.2437E-03     115.799E-03    -54.5552E-03    -9.05955E-03    -10.1682E+06    -23.6430E+06    -45.7082E+06    -37.3676E+06    -25.6566E+06    -16.4952E+06     4.67658E+06         36.0164
             961     9.47685E-03     15.6989E-03     691.856E-03     506.559E-03        -1.87245     676.799E-03        -1.85740     506.559E-03     35.1918E-03     113.679E-03    -53.9520E-03    -59.7271E-03    -59.3996E-03     113.352E-03    -53.9520E-03    -14.1359E-03    -19.7723E+06    -34.0163E+06    -67.0492E+06    -35.4226E+06    -65.6429E+06    -19.7723E+06     4.70244E+06         33.7799
             962     8.53149E-03     15.6942E-03     668.410E-03     492.551E-03        -1.84342     662.622E-03        -1.83763     492.551E-03    -203.651E-03     111.667E-03    -53.4468E-03    -58.2206E-03    -57.7279E-03     111.175E-03    -53.4468E-03    -17.7643E-03    -21.6728E+06    -37.6800E+06    -108.938E+06    -38.5434E+06    -108.074E+06    -21.6728E+06     7.10956E+06         32.2008
             963     7.58913E-03     15.6887E-03     660.387E-03     474.529E-03        -1.81738     643.403E-03        -1.80040     474.529E-03    -307.265E-03     109.818E-03    -53.0211E-03    -56.7967E-03    -56.2082E-03     109.229E-03    -53.0211E-03    -19.2871E-03    -24.2379E+06    -43.8008E+06    -150.710E+06    -44.5798E+06    -149.931E+06    -24.2379E+06     7.85265E+06         31.0655
             964     6.64145E-03     15.6905E-03     662.755E-03     452.004E-03        -1.79268     626.307E-03        -1.75623     452.004E-03    -537.291E-03     107.957E-03    -52.6752E-03    -55.2823E-03    -54.6846E-03     107.360E-03    -52.6752E-03    -19.3211E-03    -24.5365E+06    -47.1111E+06    -175.880E+06    -47.4132E+06    -175.578E+06    -24.5365E+06     5.97506E+06         30.2275
             965     5.69497E-03     15.6895E-03     705.303E-03     426.417E-03        -1.81655     579.510E-03        -1.69075     426.417E-03    -915.751E-03     106.420E-03    -52.3991E-03    -54.0208E-03    -53.5218E-03     105.921E-03    -52.3991E-03    -17.5713E-03    -30.1879E+06    -50.2577E+06    -194.299E+06    -50.5693E+06    -193.987E+06    -30.1879E+06     6.25181E+06         29.5966
             966     4.74667E-03     15.6920E-03     621.063E-03     401.993E-03        -1.72380     511.014E-03        -1.61376     401.993E-03    -757.024E-03     105.364E-03    -52.1917E-03    -53.1720E-03    -52.7721E-03     104.964E-03    -52.1917E-03    -15.6279E-03    -40.2765E+06    -55.0457E+06    -211.947E+06    -55.3095E+06    -211.683E+06    -40.2765E+06     5.75669E+06         29.1194
             967     3.79676E-03     15.6928E-03     642.921E-03     382.139E-03        -1.74038     445.628E-03        -1.54308     382.139E-03    -965.121E-03     104.532E-03    -52.0672E-03    -52.4651E-03    -52.1656E-03     104.250E-03    -52.0840E-03    -12.9567E-03    -47.0056E+06    -59.0867E+06    -226.114E+06    -59.2011E+06    -226.000E+06    -47.0056E+06     4.29139E+06         28.7637
             968     2.84829E-03     15.6952E-03     663.275E-03     367.926E-03        -1.75382     399.245E-03        -1.48979     367.926E-03    -427.861E-03     104.150E-03    -51.9949E-03    -52.1548E-03    -51.9112E-03     103.968E-03    -52.0572E-03    -10.3439E-03    -53.3990E+06    -62.7210E+06    -236.857E+06    -62.7778E+06    -236.800E+06    -53.3990E+06     2.92193E+06         28.5078
             969     1.89815E-03     15.6964E-03     976.010E-03     362.932E-03        -2.03792     358.032E-03        -1.41994     362.932E-03        -1.22869     104.207E-03    -51.9528E-03    -52.2546E-03    -52.1115E-03     104.117E-03    -52.0059E-03    -7.18861E-03    -61.0264E+06    -67.4036E+06    -244.405E+06    -67.4371E+06    -244.372E+06    -61.0264E+06     1.54711E+06         28.3363
             970     950.520E-06     15.6972E-03         2.31905     618.956E-03        -3.61640     107.705E-03        -1.40506     618.956E-03         2.23339     103.886E-03    -51.5405E-03    -52.3450E-03    -52.0548E-03     103.854E-03    -51.7996E-03    -4.03690E-03    -68.8080E+06    -72.3537E+06    -247.463E+06    -72.3973E+06    -247.419E+06    -68.8080E+06    -73.8232E+03         28.2366
             971     16.0304E-03     15.4357E-03     744.731E-03     555.025E-03        -2.11359     590.529E-03        -2.10871     704.352E-03     203.700E-03     211.095E-03    -59.1569E-03    -151.938E-03    -81.5318E-03     140.689E-03    -59.1569E-03     282.301E-03     143.270E+06     133.277E+06    -7.80858E+06    -7.73230E+06     143.194E+06     133.277E+06    -544.108E+03         64.9037
             972     15.1166E-03     14.9767E-03     890.260E-03     664.327E-03        -2.38637     660.813E-03        -2.37809     885.494E-03     290.535E-03     215.799E-03    -58.0595E-03    -157.740E-03    -86.5138E-03     144.573E-03    -58.0595E-03     288.002E-03     131.370E+06     113.008E+06    -15.4763E+06    -15.3463E+06     131.240E+06     113.008E+06     2.73297E+06         60.2036
             973     14.1791E-03     14.7470E-03         1.02974     780.109E-03        -2.64912     763.838E-03        -2.63285         1.02974     424.235E-03     148.807E-03    -56.6950E-03    -92.1121E-03    -73.9095E-03     130.604E-03    -56.6950E-03     115.285E-03     109.668E+06     68.9768E+06    -21.9683E+06    -21.8433E+06     109.543E+06     68.9768E+06     3.49951E+06         54.3687
             974     13.2524E-03     14.6701E-03         1.10309     892.358E-03        -2.82689     875.767E-03        -2.81030         1.10309     444.989E-03     125.292E-03    -55.3625E-03    -69.9294E-03    -68.1539E-03     123.516E-03    -55.3625E-03     34.3972E-03     93.5745E+06     19.4372E+06    -26.8527E+06    -26.7259E+06     93.4477E+06     19.4372E+06     2.22646E+06         48.4289
             975     12.3134E-03     14.6274E-03         1.14569     992.583E-03        -2.95777     981.598E-03        -2.94515         1.14405     405.712E-03     120.804E-03    -54.1426E-03    -66.6618E-03    -66.3593E-03     120.502E-03    -54.1426E-03     9.31227E-03     82.2582E+06    -16.7647E+06    -32.7904E+06    -32.6884E+06     82.1562E+06    -16.7647E+06     1.87051E+06         43.1463
             976     11.3800E-03     14.5997E-03         1.18190         1.07580        -3.07042         1.08028        -3.06229         1.16928     270.586E-03     117.239E-03    -53.1670E-03    -64.0725E-03    -63.8902E-03     117.057E-03    -53.1670E-03    -8.27853E-03     39.0022E+06    -22.0710E+06    -35.6347E+06    -35.4733E+06     38.8408E+06    -22.0710E+06     2.68239E+06         38.9156
             977     10.4410E-03     14.5890E-03         1.22049         1.12800        -3.16518         1.16385        -3.16276         1.18222     153.709E-03     114.470E-03    -52.3191E-03    -62.1512E-03    -61.7285E-03     114.048E-03    -52.3191E-03    -16.7544E-03    -12.4475E+06    -25.7966E+06    -42.1086E+06    -36.8918E+06    -23.5197E+06    -19.9412E+06     2.32312E+06         35.7660
             978     9.49813E-03     14.5797E-03         1.24853         1.16743        -3.24231         1.22422        -3.23632         1.18576    -74.4020E-03     111.953E-03    -51.4543E-03    -60.4990E-03    -59.7344E-03     111.189E-03    -51.4543E-03    -22.1748E-03    -25.7171E+06    -39.5103E+06    -68.7849E+06    -40.4909E+06    -67.8043E+06    -25.7171E+06     4.59595E+06         33.5095
             979     8.55809E-03     14.5779E-03         1.25305         1.18206        -3.27120         1.24800        -3.26615         1.18206    -286.312E-03     108.826E-03    -50.7082E-03    -58.1179E-03    -57.0950E-03     107.803E-03    -50.7082E-03    -25.7120E-03    -24.3007E+06    -41.6799E+06    -111.926E+06    -43.1562E+06    -110.450E+06    -24.3007E+06     9.84474E+06         31.9002
             980     7.61003E-03     14.5773E-03         1.26542         1.17321        -3.27919         1.25630        -3.27007         1.17321    -361.040E-03     105.639E-03    -50.0770E-03    -55.5622E-03    -54.4608E-03     104.538E-03    -50.0770E-03    -26.2776E-03    -25.9319E+06    -43.2826E+06    -145.239E+06    -44.2653E+06    -144.256E+06    -25.9319E+06     8.95393E+06         30.7302
             981     6.66335E-03     14.5797E-03         1.28530         1.15913        -3.28320         1.26717        -3.26507         1.15913    -559.818E-03     103.222E-03    -49.5829E-03    -53.6394E-03    -52.5446E-03     102.128E-03    -49.5829E-03    -25.8433E-03    -29.1738E+06    -47.0631E+06    -174.438E+06    -47.4013E+06    -174.100E+06    -29.1738E+06     6.27598E+06         29.8578
             982     5.71279E-03     14.5825E-03         1.30369         1.14055        -3.28632         1.25030        -3.23294         1.14055    -899.874E-03     101.058E-03    -49.2084E-03    -51.8493E-03    -50.9198E-03     100.128E-03    -49.2084E-03    -23.4417E-03    -32.6349E+06    -50.7578E+06    -195.214E+06    -51.1602E+06    -194.811E+06    -32.6349E+06     7.41764E+06         29.1954
             983     4.76141E-03     14.5848E-03         1.24967         1.12151        -3.22347         1.20341        -3.17721         1.12151    -762.008E-03     99.4650E-03    -48.9241E-03    -50.5409E-03    -49.8159E-03     98.7400E-03    -48.9241E-03    -20.5018E-03    -39.9558E+06    -53.9429E+06    -207.181E+06    -54.3450E+06    -206.779E+06    -39.9558E+06     7.37909E+06         28.6911
             984     3.81082E-03     14.5875E-03         1.21772         1.10701        -3.18814         1.14425        -3.11467         1.10701    -898.484E-03     98.4306E-03    -48.7341E-03    -49.6965E-03    -49.1752E-03     97.9093E-03    -48.7341E-03    -17.2783E-03    -48.5150E+06    -59.1993E+06    -222.837E+06    -59.4277E+06    -222.608E+06    -48.5150E+06     5.68759E+06         28.3132
             985     2.85721E-03     14.5899E-03         1.19185         1.09974        -3.16519         1.10681        -3.08015         1.09974    -421.741E-03     97.6107E-03    -48.6123E-03    -48.9983E-03    -48.6557E-03     97.2927E-03    -48.6370E-03    -13.3199E-03    -54.9250E+06    -63.7514E+06    -234.576E+06    -63.8662E+06    -234.461E+06    -54.9250E+06     4.18856E+06         28.0402
             986     1.90583E-03     14.5905E-03         1.32830         1.10255        -3.28988         1.08245        -3.04402         1.10255        -1.05524     97.1560E-03    -48.4249E-03    -48.7311E-03    -48.3392E-03     97.0083E-03    -48.6691E-03    -8.87564E-03    -62.0773E+06    -67.7650E+06    -242.889E+06    -67.8295E+06    -242.824E+06    -62.0773E+06     2.91176E+06         27.8566
             987     951.362E-06     14.5932E-03         2.06912         1.34289        -4.26210     870.989E-03        -3.06397         1.34289         1.87628     97.4571E-03    -48.3894E-03    -49.0676E-03    -48.5494E-03     97.4098E-03    -48.8604E-03    -4.76994E-03    -66.9817E+06    -70.8786E+06    -243.205E+06    -68.8074E+06    -243.158E+06       -69.1E+06     778.178E+03         27.7497
             988     16.0490E-03     14.3057E-03         1.26634     762.094E-03        -3.00263     760.837E-03        -3.00137         1.26634     111.694E-03     217.061E-03    -58.8196E-03    -158.242E-03    -90.0863E-03     148.906E-03    -58.8196E-03     285.282E-03     140.435E+06     131.750E+06    -7.95559E+06    -7.90516E+06     140.384E+06     131.750E+06     300.837E+03         64.1330
             989     15.1133E-03     13.8189E-03         1.47200     889.736E-03        -3.33888     887.867E-03        -3.33701         1.47200     144.309E-03     216.423E-03    -57.1826E-03    -159.241E-03    -94.6714E-03     151.854E-03    -57.1826E-03     275.957E-03     127.415E+06     109.158E+06    -17.9435E+06    -17.8751E+06     127.347E+06     109.158E+06     387.985E+03         59.5325
             990     14.2065E-03     13.6125E-03         1.63514         1.05062        -3.66488         1.04655        -3.66081         1.63514     223.932E-03     146.442E-03    -55.3547E-03    -91.0870E-03    -76.9196E-03     132.274E-03    -55.3547E-03     102.475E-03     110.010E+06     66.7504E+06    -23.5416E+06    -23.4668E+06     109.935E+06     66.7504E+06     1.55378E+06         53.8513
             991     13.2676E-03     13.5401E-03         1.72667         1.21312        -3.91379         1.20885        -3.90952         1.72667     248.173E-03     125.162E-03    -53.7510E-03    -71.4109E-03    -69.9866E-03     123.738E-03    -53.7510E-03     29.0192E-03     94.7304E+06     22.5362E+06    -26.5689E+06    -26.4365E+06     94.5980E+06     22.5362E+06     3.66821E+06         48.0527
             992     12.3415E-03     13.4941E-03         1.78552         1.37653        -4.12867         1.37365        -4.12579         1.78552     213.629E-03     120.650E-03    -52.2642E-03    -68.3861E-03    -68.2213E-03     120.485E-03    -52.2642E-03     2.36164E-03     84.7481E+06    -9.83328E+06    -30.7714E+06    -28.2864E+06     84.5587E+06    -12.1288E+06     4.06883E+06         42.8665
             993     11.4054E-03     13.4777E-03         1.82623         1.53107        -4.31736         1.52907        -4.31537         1.82623     104.981E-03     116.747E-03    -50.9717E-03    -65.7753E-03    -65.4837E-03     116.455E-03    -50.9717E-03    -13.3976E-03     39.1857E+06    -19.5610E+06    -33.4424E+06    -30.8501E+06     38.8888E+06    -21.8565E+06     3.86165E+06         38.6861
             994     10.4667E-03     13.4677E-03         1.85346         1.65359        -4.46681         1.65325        -4.46647         1.85346     1.92836E-03     113.593E-03    -49.8227E-03    -63.7701E-03    -63.0424E-03     112.865E-03    -49.8227E-03    -22.2470E-03    -9.50776E+06    -23.4265E+06    -41.6123E+06    -35.5198E+06    -22.8966E+06    -16.1302E+06     5.67603E+06         35.5470
             995     9.52933E-03     13.4634E-03         1.87189         1.75730        -4.59628         1.75535        -4.59258         1.87015    -185.370E-03     109.752E-03    -48.6446E-03    -61.1070E-03    -59.8883E-03     108.533E-03    -48.6446E-03    -28.4583E-03    -22.8079E+06    -37.5580E+06    -73.4110E+06    -40.9238E+06    -70.0453E+06    -22.8079E+06     7.64752E+06         33.2735
             996     8.58308E-03     13.4661E-03         1.88720         1.82928        -4.69554         1.83401        -4.69025         1.87717    -365.425E-03     105.629E-03    -47.5884E-03    -58.0411E-03    -56.4435E-03     104.032E-03    -47.5884E-03    -32.0145E-03    -26.4781E+06    -41.0077E+06    -111.241E+06    -41.8962E+06    -110.353E+06    -26.4781E+06     6.93524E+06         31.6313
             997     7.63789E-03     13.4712E-03         1.90525         1.86212        -4.75595         1.88404        -4.74889         1.87628    -416.562E-03     101.601E-03    -46.7039E-03    -54.8966E-03    -53.1682E-03     99.8721E-03    -46.7039E-03    -32.5190E-03    -25.9128E+06    -40.5101E+06    -141.642E+06    -41.2360E+06    -140.916E+06    -25.9128E+06     8.18121E+06         30.4214
             998     6.68660E-03     13.4751E-03         1.92172         1.86958        -4.78200         1.90867        -4.76895         1.86958    -582.014E-03     98.1378E-03    -45.9956E-03    -52.1423E-03    -50.4362E-03     96.4318E-03    -45.9956E-03    -31.6509E-03    -26.9936E+06    -43.9469E+06    -173.449E+06    -44.7116E+06    -172.684E+06    -26.9936E+06     9.72532E+06         29.5070
             999     5.73541E-03     13.4823E-03         1.94023         1.85916        -4.79153         1.90820        -4.75950         1.85916    -878.392E-03     95.2016E-03    -45.4153E-03    -49.7863E-03    -48.2967E-03     93.7120E-03    -45.4153E-03    -29.0105E-03    -31.9156E+06    -49.9954E+06    -193.150E+06    -50.5913E+06    -192.555E+06    -31.9156E+06     8.98486E+06         28.8039
            1000     4.78155E-03     13.4853E-03         1.92996         1.84634        -4.77071         1.90254        -4.74329         1.84634    -763.540E-03     92.6133E-03    -44.9689E-03    -47.6444E-03    -46.4932E-03     91.4621E-03    -44.9689E-03    -25.0895E-03    -40.1150E+06    -55.4196E+06    -205.002E+06    -55.9094E+06    -204.512E+06    -40.1150E+06     8.40479E+06         28.2624
            1001     3.82525E-03     13.4900E-03         1.91244         1.83263        -4.74632         1.87702        -4.71089         1.83263    -837.690E-03     90.9112E-03    -44.6692E-03    -46.2420E-03    -45.4394E-03     90.1086E-03    -44.6692E-03    -20.6374E-03    -48.2175E+06    -59.2175E+06    -218.333E+06    -59.5959E+06    -217.955E+06    -48.2175E+06     7.59393E+06         27.8523
            1002     2.87094E-03     13.4922E-03         1.87767         1.82165        -4.71411         1.84193        -4.67837         1.82165    -449.715E-03     89.6944E-03    -44.4599E-03    -45.2345E-03    -44.7293E-03     89.2139E-03    -44.4846E-03    -15.8312E-03    -56.4459E+06    -62.5777E+06    -230.780E+06    -62.7808E+06    -230.577E+06    -56.4459E+06     5.53219E+06         27.5536
            1003     1.91238E-03     13.4958E-03         1.90204         1.82130        -4.73576         1.80360        -4.63732         1.82130    -887.665E-03     88.9689E-03    -44.2198E-03    -44.7492E-03    -44.2786E-03     88.7349E-03    -44.4563E-03    -10.7003E-03    -60.8754E+06    -64.7560E+06    -238.632E+06    -64.8380E+06    -238.549E+06    -60.8754E+06     3.41408E+06         27.3509
            1004     956.468E-06     13.4948E-03         2.23161         1.99000        -5.24149         1.61913        -4.67035         2.03133         1.45722     88.9913E-03    -44.1528E-03    -44.8384E-03    -44.5547E-03     88.9193E-03    -44.3647E-03    -5.77203E-03    -64.2404E+06    -71.3997E+06    -241.834E+06    -69.3166E+06    -241.799E+06    -66.3587E+06     2.08733E+06         27.2315
            1005     16.0371E-03     13.1424E-03         1.83417     906.366E-03        -3.83715     906.189E-03        -3.83697         1.83417     20.5010E-03     219.608E-03    -58.0189E-03    -161.589E-03    -100.948E-03     158.967E-03    -58.0189E-03     271.896E-03     141.031E+06     133.515E+06    -7.22955E+06    -7.18937E+06     140.990E+06     133.515E+06     1.45622E+06         63.2647
            1006     15.1560E-03     12.6634E-03         2.06021         1.10102        -4.25301         1.10071        -4.25270         2.06021    -1.59478E-03     209.885E-03    -55.9114E-03    -153.974E-03    -95.5967E-03     151.508E-03    -55.9114E-03     260.990E-03     125.569E+06     110.929E+06    -14.7051E+06    -14.6424E+06     125.506E+06     110.929E+06     1.14587E+06         58.8082
            1007     14.2202E-03     12.4832E-03         2.24016         1.32694        -4.65991         1.32627        -4.65925         2.24016     34.1200E-03     144.506E-03    -53.8863E-03    -90.6195E-03    -77.6134E-03     131.500E-03    -53.8863E-03     97.2448E-03     108.390E+06     65.2354E+06    -22.9780E+06    -22.9358E+06     108.347E+06     65.2354E+06     962.548E+03         53.3000
            1008     13.2992E-03     12.4019E-03         2.34834         1.55115        -4.99475         1.55053        -4.99413         2.34834     64.4740E-03     125.460E-03    -52.0751E-03    -73.3850E-03    -72.0979E-03     124.173E-03    -52.0751E-03     27.3497E-03     94.7717E+06     21.5439E+06    -27.6895E+06    -27.6473E+06     94.7294E+06     21.5439E+06     2.24531E+06         47.6665
            1009     12.3636E-03     12.3694E-03         2.42343         1.76731        -5.28625         1.76698        -5.28593         2.42343     34.7319E-03     119.319E-03    -50.3778E-03    -68.9411E-03    -68.8269E-03     119.205E-03    -50.3778E-03     1.19397E-03     83.8166E+06    -9.03381E+06    -31.9303E+06    -29.4079E+06     83.5897E+06    -11.3293E+06     4.48292E+06         42.6017
            1010     11.4292E-03     12.3524E-03         2.47961         1.96705        -5.53990         1.96654        -5.53939         2.47961    -38.9221E-03     116.574E-03    -48.8263E-03    -67.7473E-03    -67.3890E-03     116.215E-03    -48.8263E-03    -14.6376E-03     40.6357E+06    -19.3499E+06    -35.9351E+06    -32.4248E+06     39.4209E+06    -21.6454E+06     7.36785E+06         38.4897
            1011     10.4965E-03     12.3476E-03         2.52068         2.14216        -5.75544         2.14166        -5.75494         2.52068    -118.373E-03     112.828E-03    -47.3355E-03    -65.4925E-03    -64.5774E-03     111.913E-03    -47.3355E-03    -25.1088E-03    -7.26490E+06    -22.2507E+06    -45.2064E+06    -34.9240E+06    -23.3878E+06    -16.4101E+06     8.63960E+06         35.3766
            1012     9.55431E-03     12.3511E-03         2.54885         2.29400        -5.94000         2.29101        -5.93701         2.54885    -266.266E-03     107.817E-03    -45.8259E-03    -61.9910E-03    -60.4772E-03     106.303E-03    -45.8259E-03    -31.6726E-03    -19.8987E+06    -31.5886E+06    -71.1052E+06    -35.1142E+06    -67.5796E+06    -19.8987E+06     8.55473E+06         33.0962
            1013     8.61283E-03     12.3586E-03         2.56599         2.40845        -6.08468         2.40341        -6.07963         2.56599    -411.781E-03     103.000E-03    -44.4357E-03    -58.5645E-03    -56.5295E-03     100.965E-03    -44.4357E-03    -35.9246E-03    -24.0869E+06    -37.3742E+06    -107.547E+06    -38.3290E+06    -106.593E+06    -24.0869E+06     6.96064E+06         31.4271
            1014     7.66449E-03     12.3685E-03         2.57589         2.49117        -6.19150         2.48693        -6.18557         2.57420    -447.363E-03     98.0404E-03    -43.2098E-03    -54.8306E-03    -52.5491E-03     95.7589E-03    -43.2098E-03    -37.0083E-03    -26.0539E+06    -41.8878E+06    -143.513E+06    -42.6000E+06    -142.801E+06    -26.0539E+06     8.19565E+06         30.1796
            1015     6.71435E-03     12.3792E-03         2.58380         2.54725        -6.26223         2.54589        -6.25235         2.57528    -579.232E-03     93.2248E-03    -42.1767E-03    -51.0481E-03    -48.7926E-03     90.9693E-03    -42.1767E-03    -35.7324E-03    -26.2630E+06    -44.2835E+06    -172.171E+06    -45.3101E+06    -171.145E+06    -26.2630E+06     11.3657E+06         29.2219
            1016     5.75935E-03     12.3869E-03         2.59595         2.56650        -6.29552         2.56984        -6.27444         2.57153    -835.290E-03     89.0553E-03    -41.3307E-03    -47.7245E-03    -45.7183E-03     87.0491E-03    -41.3307E-03    -32.7778E-03    -28.5383E+06    -47.7683E+06    -189.518E+06    -48.6775E+06    -188.609E+06    -28.5383E+06     11.1842E+06         28.4738
            1017     4.80265E-03     12.3962E-03         2.60499         2.56431        -6.29998         2.58681        -6.28180         2.56431    -748.868E-03     85.4526E-03    -40.6639E-03    -44.7887E-03    -43.2215E-03     83.8853E-03    -40.6639E-03    -28.2347E-03    -36.2936E+06    -51.8810E+06    -202.280E+06    -52.4982E+06    -201.663E+06    -36.2936E+06     9.53472E+06         27.8886
            1018     3.84411E-03     12.4004E-03         2.61001         2.55354        -6.29596         2.59018        -6.27613         2.55354    -770.448E-03     82.6521E-03    -40.2052E-03    -42.4469E-03    -41.3652E-03     81.5704E-03    -40.2052E-03    -22.9644E-03    -46.3799E+06    -55.7178E+06    -214.166E+06    -56.1487E+06    -213.735E+06    -46.3799E+06     8.09474E+06         27.4385
            1019     2.88229E-03     12.4054E-03         2.59698         2.53931        -6.28378         2.58011        -6.26691         2.53931    -491.338E-03     81.1416E-03    -39.9195E-03    -41.2222E-03    -40.5633E-03     80.4828E-03    -39.9195E-03    -17.6274E-03    -52.2697E+06    -59.3253E+06    -226.378E+06    -59.6182E+06    -226.085E+06    -52.2697E+06     6.64874E+06         27.1058
            1020     1.92343E-03     12.4080E-03         2.57212         2.52995        -6.25592         2.53271        -6.21652         2.52995    -755.402E-03     80.1276E-03    -39.6264E-03    -40.5012E-03    -40.1890E-03     79.8153E-03    -39.6264E-03    -11.8512E-03    -59.3808E+06    -64.9534E+06    -234.064E+06    -65.1903E+06    -233.827E+06    -59.3808E+06     5.91615E+06         26.8770
            1021     962.152E-06     12.4084E-03         2.72365         2.56854        -6.46098         2.35119        -6.22577         2.70579     988.246E-03     78.9562E-03    -39.2469E-03    -39.7093E-03    -39.6173E-03     78.8642E-03    -39.2469E-03    -5.99474E-03    -64.2342E+06    -72.5077E+06    -237.887E+06    -69.1708E+06    -237.772E+06    -67.6858E+06     3.65268E+06         26.7406
            1022     16.1025E-03     11.9796E-03         2.39983         1.02961        -4.60867         1.02938        -4.60844         2.39983    -59.2905E-03     223.888E-03    -57.0418E-03    -166.846E-03    -109.885E-03     166.927E-03    -57.0418E-03     260.984E-03     139.832E+06     131.227E+06    -9.15374E+06    -9.14691E+06     139.825E+06     131.227E+06     617.937E+03         62.3197
            1023     15.1591E-03     11.5398E-03         2.63772         1.29827        -5.11200         1.29760        -5.11133         2.63772    -119.491E-03     208.223E-03    -54.7163E-03    -153.507E-03    -93.2208E-03     147.937E-03    -54.7163E-03     263.668E-03     124.246E+06     113.277E+06    -11.4837E+06    -11.4678E+06     124.230E+06     113.277E+06     1.17098E+06         58.0303
            1024     14.2415E-03     11.3313E-03         2.83313         1.59586        -5.61336         1.59519        -5.61268         2.83313    -115.803E-03     145.083E-03    -52.7024E-03    -92.3801E-03    -78.3839E-03     131.086E-03    -52.7024E-03     100.626E-03     107.936E+06     69.4898E+06    -18.5972E+06    -18.5052E+06     107.844E+06     69.4898E+06     2.63311E+06         52.7066
            1025     13.3137E-03     11.2751E-03         2.95698         1.88485        -6.03887         1.88452        -6.03855         2.95698    -80.2853E-03     125.183E-03    -50.7461E-03    -74.4365E-03    -73.1414E-03     123.887E-03    -50.7461E-03     29.0980E-03     94.4559E+06     20.8993E+06    -25.8818E+06    -25.6165E+06     94.1906E+06     20.8993E+06     4.86238E+06         47.2587
            1026     12.3828E-03     11.2419E-03         3.04715         2.15219        -6.40749         2.15188        -6.40717         3.04715    -94.9496E-03     120.087E-03    -48.8341E-03    -71.2526E-03    -71.0877E-03     119.922E-03    -48.8341E-03     5.19438E-03     81.6567E+06    -13.5885E+06    -31.8605E+06    -31.2520E+06     81.3091E+06    -13.8495E+06     5.86760E+06         42.3427
            1027     11.4532E-03     11.2263E-03         3.11811         2.39904        -6.73054         2.39847        -6.72998         3.11811    -134.863E-03     116.836E-03    -47.0021E-03    -69.8337E-03    -69.4769E-03     116.479E-03    -47.0021E-03    -13.3997E-03     40.3965E+06    -20.4845E+06    -33.7842E+06    -32.1498E+06     39.0231E+06    -20.7455E+06     7.55555E+06         38.3277
            1028     10.5165E-03     11.2304E-03         3.17165         2.62438        -7.01163         2.62347        -7.01072         3.17165    -186.782E-03     112.259E-03    -45.1981E-03    -67.0614E-03    -66.0839E-03     111.282E-03    -45.1981E-03    -26.0273E-03    -5.49460E+06    -20.7909E+06    -43.2427E+06    -32.4354E+06    -22.1851E+06    -14.9077E+06     9.56142E+06         35.2629
            1029     9.58076E-03     11.2391E-03         3.21011         2.81702        -7.24720         2.81447        -7.24466         3.21011    -302.921E-03     106.780E-03    -43.3634E-03    -63.4162E-03    -61.7686E-03     105.132E-03    -43.3634E-03    -33.0549E-03    -17.3015E+06    -32.4350E+06    -68.9181E+06    -36.5334E+06    -64.8196E+06    -17.3015E+06     9.34185E+06         32.9957
            1030     8.63696E-03     11.2540E-03         3.23671         2.95753        -7.42595         2.95322        -7.42164         3.23671    -419.905E-03     100.930E-03    -41.6268E-03    -59.3029E-03    -57.0765E-03     98.7033E-03    -41.6268E-03    -37.4328E-03    -19.3951E+06    -38.2808E+06    -104.902E+06    -39.6816E+06    -103.501E+06    -19.3951E+06     9.10734E+06         31.3170
            1031     7.69079E-03     11.2710E-03         3.25436         3.06453        -7.56697         3.05979        -7.56223         3.25436    -446.217E-03     94.9436E-03    -40.0431E-03    -54.9006E-03    -52.3875E-03     92.4306E-03    -40.0431E-03    -38.4613E-03    -22.5294E+06    -42.3774E+06    -144.937E+06    -43.4325E+06    -143.882E+06    -22.5294E+06     10.2366E+06         30.0450
            1032     6.73880E-03     11.2867E-03         3.26405         3.16327        -7.68690         3.15609        -7.67972         3.26405    -546.532E-03     88.9388E-03    -38.6343E-03    -50.3046E-03    -47.8018E-03     86.4361E-03    -38.6343E-03    -36.9944E-03    -26.4330E+06    -45.7949E+06    -169.789E+06    -46.7359E+06    -168.848E+06    -26.4330E+06     10.5132E+06         29.0533
            1033     5.78323E-03     11.3018E-03         3.26934         3.23058        -7.76320         3.21917        -7.74901         3.26656    -770.334E-03     83.3638E-03    -37.4712E-03    -45.8925E-03    -43.6578E-03     81.1290E-03    -37.4712E-03    -33.6832E-03    -27.8237E+06    -46.0993E+06    -185.381E+06    -46.7906E+06    -184.690E+06    -27.8237E+06     9.45640E+06         28.2650
            1034     4.82347E-03     11.3124E-03         3.27351         3.25581        -7.79113         3.25267        -7.77852         3.26404    -714.290E-03     78.8216E-03    -36.5478E-03    -42.2738E-03    -40.4841E-03     77.0319E-03    -36.5478E-03    -29.1551E-03    -32.5042E+06    -47.4955E+06    -200.609E+06    -48.1560E+06    -199.949E+06    -32.5042E+06     9.95505E+06         27.6367
            1035     3.86102E-03     11.3224E-03         3.27820         3.25758        -7.79716         3.26562        -7.78545         3.25844    -689.276E-03     75.1789E-03    -35.8253E-03    -39.3536E-03    -38.0876E-03     73.9129E-03    -35.8253E-03    -23.8283E-03    -41.5944E+06    -51.6424E+06    -209.657E+06    -52.3622E+06    -208.937E+06    -41.5944E+06     10.2880E+06         27.1444
            1036     2.89770E-03     11.3272E-03         3.28034         3.24994        -7.80353         3.27131        -7.79451         3.24994    -514.712E-03     72.5580E-03    -35.3135E-03    -37.2446E-03    -36.4780E-03     71.7915E-03    -35.3135E-03    -18.0604E-03    -49.5218E+06    -57.7755E+06    -222.618E+06    -58.3336E+06    -222.059E+06    -49.5218E+06     9.20092E+06         26.7736
            1037     1.93190E-03     11.3304E-03         3.26329         3.23655        -7.78221         3.23976        -7.76723         3.24510    -622.811E-03     70.8359E-03    -34.9241E-03    -35.9118E-03    -35.5445E-03     70.4686E-03    -34.9241E-03    -12.1643E-03    -54.9056E+06    -62.1038E+06    -229.335E+06    -62.4362E+06    -229.003E+06    -54.9056E+06     7.13419E+06         26.5142
            1038     966.268E-06     11.3342E-03         3.37993         3.18614        -7.86435         3.11050        -7.78785         3.37907     545.767E-03     69.5377E-03    -34.4861E-03    -35.0516E-03    -34.9348E-03     69.4209E-03    -34.4861E-03    -6.27615E-03    -58.8854E+06    -68.8673E+06    -230.349E+06    -65.5659E+06    -230.199E+06    -62.3370E+06     4.51424E+06         26.3579
            1039     16.0727E-03     10.8304E-03         2.95299         1.13688        -5.31702         1.13624        -5.31638         2.95299    -115.627E-03     224.559E-03    -56.8293E-03    -167.730E-03    -114.804E-03     171.633E-03    -56.8293E-03     250.436E-03     138.995E+06     129.649E+06    -8.79334E+06    -8.75662E+06     138.959E+06     129.649E+06    -1.13374E+06         61.2790
            1040     15.1766E-03     10.3825E-03         3.19516         1.48199        -5.91608         1.48068        -5.91476         3.19516    -196.587E-03     210.965E-03    -54.2323E-03    -156.733E-03    -97.6660E-03     151.898E-03    -54.2323E-03     264.842E-03     122.750E+06     110.279E+06    -13.6564E+06    -13.5897E+06     122.683E+06     110.279E+06     1.25810E+06         57.1677
            1041     14.2534E-03     10.2013E-03         3.40095         1.85082        -6.51366         1.84955        -6.51238         3.40095    -204.752E-03     146.113E-03    -52.0779E-03    -94.0356E-03    -79.1114E-03     131.189E-03    -52.0779E-03     105.930E-03     104.419E+06     68.8037E+06    -21.6089E+06    -21.4220E+06     104.232E+06     68.8037E+06     4.25827E+06         52.0583
            1042     13.3217E-03     10.1401E-03         3.53925         2.19690        -7.02308         2.19620        -7.02238         3.53925    -152.091E-03     127.122E-03    -50.0205E-03    -77.1016E-03    -75.3675E-03     125.388E-03    -50.0205E-03     34.0670E-03     93.7863E+06     26.3058E+06    -27.3792E+06    -27.0093E+06     93.4164E+06     26.3058E+06     6.51294E+06         46.8183
            1043     12.3970E-03     10.1116E-03         3.64396         2.51939        -7.47201         2.51880        -7.47142         3.64396    -149.317E-03     122.118E-03    -47.8542E-03    -74.2637E-03    -74.0481E-03     121.902E-03    -47.8542E-03     8.68932E-03     82.9400E+06    -9.28871E+06    -30.8059E+06    -30.0788E+06     82.4738E+06    -9.54970E+06     7.06887E+06         42.0798
            1044     11.4659E-03     10.1019E-03         3.72794         2.81861        -7.87010         2.81794        -7.86943         3.72794    -162.984E-03     117.093E-03    -45.7515E-03    -71.3419E-03    -71.0899E-03     116.841E-03    -45.7515E-03    -10.0279E-03     38.7460E+06    -20.3371E+06    -35.0629E+06    -33.3789E+06     37.3230E+06    -20.5981E+06     8.06622E+06         38.1913
            1045     10.5361E-03     10.1118E-03         3.79297         3.08026        -8.20459         3.07933        -8.20366         3.79297    -195.388E-03     112.069E-03    -43.7162E-03    -68.3530E-03    -67.5411E-03     111.257E-03    -43.7162E-03    -23.4205E-03    -6.00356E+06    -22.3102E+06    -44.4266E+06    -37.2012E+06    -22.0206E+06    -13.5186E+06     9.50157E+06         35.2047
            1046     9.59764E-03     10.1286E-03         3.84201         3.30195        -8.48161         3.30011        -8.47977         3.84201    -289.166E-03     105.860E-03    -41.6338E-03    -64.2260E-03    -62.8136E-03     104.447E-03    -41.6338E-03    -30.5219E-03    -11.3448E+06    -32.5703E+06    -66.2158E+06    -37.3822E+06    -61.4038E+06    -11.3448E+06     9.28076E+06         32.9819
            1047     8.65710E-03     10.1520E-03         3.87828         3.47887        -8.70562         3.47579        -8.70255         3.87828    -378.988E-03     99.2962E-03    -39.6302E-03    -59.6660E-03    -57.7361E-03     97.3664E-03    -39.6302E-03    -34.5963E-03    -11.9868E+06    -36.2380E+06    -104.126E+06    -37.7179E+06    -102.646E+06    -11.9868E+06     9.47523E+06         31.3236
            1048     7.70952E-03     10.1757E-03         3.90448         3.61720        -8.88397         3.61380        -8.88057         3.90448    -406.139E-03     92.6080E-03    -37.7474E-03    -54.8607E-03    -52.6223E-03     90.3697E-03    -37.7474E-03    -35.9563E-03    -16.0795E+06    -38.9757E+06    -144.130E+06    -40.0955E+06    -143.010E+06    -16.0795E+06     10.6844E+06         30.0543
            1049     6.75807E-03     10.2001E-03         3.92212         3.73795        -9.03505         3.73295        -9.03004         3.92212    -489.091E-03     85.7461E-03    -36.0167E-03    -49.7295E-03    -47.4654E-03     83.4821E-03    -36.0167E-03    -34.6797E-03    -21.6035E+06    -40.9534E+06    -164.683E+06    -41.6692E+06    -163.967E+06    -21.6035E+06     9.03241E+06         29.0511
            1050     5.80107E-03     10.2204E-03         3.93206         3.83306        -9.14860         3.82396        -9.13950         3.93206    -673.556E-03     79.3752E-03    -34.5228E-03    -44.8524E-03    -42.8187E-03     77.3415E-03    -34.5228E-03    -31.4888E-03    -26.5537E+06    -44.0740E+06    -183.121E+06    -44.4831E+06    -182.712E+06    -26.5537E+06     7.52777E+06         28.2396
            1051     4.84020E-03     10.2378E-03         3.93559         3.89451        -9.21521         3.88614        -9.20684         3.93559    -644.803E-03     73.8633E-03    -33.2802E-03    -40.5831E-03    -38.9272E-03     72.2074E-03    -33.2802E-03    -27.2858E-03    -30.1284E+06    -47.1754E+06    -201.374E+06    -47.7808E+06    -200.769E+06    -30.1284E+06     9.54537E+06         27.5798
            1052     3.87632E-03     10.2496E-03         3.93655         3.91278        -9.23587         3.90628        -9.22902         3.93621    -584.993E-03     69.3119E-03    -32.2333E-03    -37.0786E-03    -35.8748E-03     68.1081E-03    -32.2333E-03    -22.4049E-03    -35.3657E+06    -49.4181E+06    -206.112E+06    -50.2578E+06    -205.272E+06    -35.3657E+06     11.3883E+06         27.0517
            1053     2.90951E-03     10.2589E-03         3.94051         3.91802        -9.25409         3.91511        -9.24858         3.93791    -508.456E-03     65.4883E-03    -31.4335E-03    -34.0549E-03    -33.3152E-03     64.7486E-03    -31.4335E-03    -16.9465E-03    -41.4542E+06    -51.5620E+06    -215.875E+06    -52.2122E+06    -215.225E+06    -41.4542E+06     9.98120E+06         26.6455
            1054     1.94039E-03     10.2642E-03         3.94644         3.92185        -9.26641         3.91879        -9.26109         3.94418    -476.071E-03     62.8302E-03    -30.9268E-03    -31.9034E-03    -31.5386E-03     62.4655E-03    -30.9268E-03    -11.4456E-03    -47.7124E+06    -54.6540E+06    -222.809E+06    -54.8896E+06    -222.574E+06    -47.7124E+06     5.90814E+06         26.3562
            1055     970.517E-06     10.2667E-03         4.05577         3.85686        -9.32194         3.84048        -9.30556         4.05577     211.105E-03     61.5755E-03    -30.5431E-03    -31.0324E-03    -30.9103E-03     61.4534E-03    -30.5431E-03    -6.22626E-03    -50.9664E+06    -58.4777E+06    -223.005E+06    -57.5763E+06    -222.887E+06    -51.9862E+06     2.06066E+06         26.1796
            1056     16.0749E-03     9.61857E-03         3.47636         1.23137        -5.96780         1.23037        -5.96680         3.47636    -155.201E-03     216.983E-03    -57.1975E-03    -159.786E-03    -113.607E-03     170.805E-03    -57.1975E-03     235.368E-03     138.006E+06     129.106E+06    -8.72007E+06    -8.68845E+06     137.974E+06     129.106E+06    -1.49825E+06         60.1793
            1057     15.1723E-03     9.24121E-03         3.71987         1.65394        -6.67118         1.65242        -6.66966         3.71987    -221.766E-03     207.049E-03    -54.4369E-03    -152.612E-03    -100.766E-03     155.203E-03    -54.4369E-03     249.665E-03     120.004E+06     106.747E+06    -18.3246E+06    -18.2020E+06     119.882E+06     106.747E+06     2.24466E+06         56.2350
            1058     14.2443E-03     9.05981E-03         3.92966         2.08331        -7.35114         2.08208        -7.34990         3.92966    -213.741E-03     149.293E-03    -52.0738E-03    -97.2196E-03    -81.8968E-03     133.971E-03    -52.0738E-03     109.089E-03     102.468E+06     68.5389E+06    -25.2899E+06    -25.1167E+06     102.294E+06     68.5389E+06     4.10880E+06         51.3538
            1059     13.3272E-03     9.00284E-03         4.08019         2.48557        -7.94049         2.48490        -7.93982         4.08019    -135.710E-03     129.628E-03    -49.8612E-03    -79.7665E-03    -77.7257E-03     127.587E-03    -49.8612E-03     38.6887E-03     90.6904E+06     27.2981E+06    -31.1945E+06    -31.0047E+06     90.5006E+06     27.2981E+06     4.16876E+06         46.3381
            1060     12.4008E-03     8.97880E-03         4.19782         2.85839        -8.46036         2.85798        -8.45995         4.19782    -114.536E-03     122.910E-03    -47.5773E-03    -75.3330E-03    -74.9329E-03     122.510E-03    -47.5773E-03     14.1511E-03     80.4405E+06    -6.83425E+06    -35.0041E+06    -34.1447E+06     79.5810E+06    -6.83425E+06     8.87454E+06         41.7944
            1061     11.4739E-03     8.97828E-03         4.29398         3.19446        -8.91507         3.19405        -8.91467         4.29398    -106.860E-03     116.939E-03    -45.3914E-03    -71.5477E-03    -71.4334E-03     116.825E-03    -45.3914E-03    -3.24019E-03     39.9176E+06    -18.7893E+06    -38.9925E+06    -37.1505E+06     38.0756E+06    -18.7893E+06     10.8129E+06         38.0578
            1062     10.5396E-03     8.99180E-03         4.37108         3.48901        -9.30215         3.48848        -9.30162         4.37108    -126.421E-03     111.256E-03    -43.2840E-03    -67.9718E-03    -67.5787E-03     110.863E-03    -43.2840E-03    -15.0471E-03    -3.41319E+06    -23.9203E+06    -41.4112E+06    -37.5465E+06    -17.8023E+06    -13.3960E+06     6.75458E+06         35.1863
            1063     9.60530E-03     9.02071E-03         4.43166         3.74320        -9.62682         3.74227        -9.62589         4.43166    -210.710E-03     105.256E-03    -41.1360E-03    -64.1200E-03    -63.3250E-03     104.461E-03    -41.1360E-03    -22.2173E-03    -10.0894E+06    -34.4691E+06    -63.3875E+06    -36.7636E+06    -61.0930E+06    -10.0894E+06     5.96817E+06         33.0504
            1064     8.66262E-03     9.04926E-03         4.47836         3.95815        -9.89803         3.95643        -9.89631         4.47836    -289.866E-03     98.4336E-03    -39.0265E-03    -59.4071E-03    -58.2627E-03     97.2892E-03    -39.0265E-03    -26.0830E-03    -8.61428E+06    -36.3859E+06    -105.222E+06    -37.7821E+06    -103.826E+06    -8.61428E+06     9.21955E+06         31.4570
            1065     7.71781E-03     9.08371E-03         4.51325         4.13661        -10.1214         4.13469        -10.1194         4.51325    -317.542E-03     91.5641E-03    -36.9856E-03    -54.5785E-03    -53.1986E-03     90.1842E-03    -36.9856E-03    -27.6064E-03    -11.5700E+06    -38.4817E+06    -140.505E+06    -39.3625E+06    -139.624E+06    -11.5700E+06     8.63560E+06         30.2327
            1066     6.76591E-03     9.11434E-03         4.53799         4.28307        -10.3017         4.27996        -10.2986         4.53799    -397.489E-03     84.6881E-03    -35.0491E-03    -49.6391E-03    -48.2029E-03     83.2519E-03    -35.0491E-03    -27.0531E-03    -15.2988E+06    -40.1590E+06    -161.186E+06    -40.5562E+06    -160.789E+06    -15.2988E+06     6.58602E+06         29.2555
            1067     5.81012E-03     9.14320E-03         4.55519         4.38729        -10.4329         4.38208        -10.4277         4.55519    -545.450E-03     78.0763E-03    -33.2858E-03    -44.7905E-03    -43.4629E-03     76.7487E-03    -33.2858E-03    -24.9157E-03    -17.4224E+06    -42.1048E+06    -183.123E+06    -42.4586E+06    -182.769E+06    -17.4224E+06     7.01157E+06         28.4524
            1068     4.84961E-03     9.16532E-03         4.56710         4.46550        -10.5313         4.46031        -10.5261         4.56710    -549.368E-03     71.9371E-03    -31.6983E-03    -40.2387E-03    -39.1306E-03     70.8289E-03    -31.6983E-03    -21.8163E-03    -21.0537E+06    -44.4126E+06    -200.980E+06    -44.8086E+06    -200.584E+06    -21.0537E+06     7.66086E+06         27.7860
            1069     3.88497E-03     9.18344E-03         4.57570         4.51175        -10.5918         4.50802        -10.5880         4.57570    -450.521E-03     66.2851E-03    -30.3175E-03    -35.9676E-03    -35.1386E-03     65.4561E-03    -30.3175E-03    -18.0758E-03    -25.5459E+06    -44.4192E+06    -203.258E+06    -44.8279E+06    -202.849E+06    -25.5459E+06     7.27074E+06         27.2403
            1070     2.91678E-03     9.19592E-03         4.58344         4.54704        -10.6413         4.54378        -10.6373         4.58273    -464.190E-03     61.7474E-03    -29.2234E-03    -32.5240E-03    -31.9901E-03     61.2136E-03    -29.2234E-03    -13.8773E-03    -28.8970E+06    -43.6950E+06    -209.454E+06    -43.9913E+06    -209.157E+06    -28.8970E+06     6.15712E+06         26.8115
            1071     1.94638E-03     9.20495E-03         4.59300         4.56095        -10.6605         4.55836        -10.6572         4.59229    -305.571E-03     58.3216E-03    -28.3962E-03    -29.9255E-03    -29.6581E-03     58.0543E-03    -28.3962E-03    -9.40100E-03    -35.7398E+06    -44.1260E+06    -215.696E+06    -44.2476E+06    -215.575E+06    -35.7398E+06     3.60062E+06         26.5002
            1072     973.001E-06     9.20889E-03         4.69971         4.49875        -10.7048         4.49527        -10.7013         4.69971    -73.4806E-03     56.1561E-03    -27.8521E-03    -28.3040E-03    -28.1900E-03     56.0638E-03    -27.8738E-03    -5.23532E-03    -42.1573E+06    -45.1164E+06    -217.473E+06    -44.1482E+06    -217.402E+06    -43.1961E+06    -1.11892E+06         26.3072
            1073     16.0612E-03     8.42033E-03         3.95146         1.32215        -6.57284         1.32091        -6.57160         3.95146    -190.444E-03     212.330E-03    -57.6654E-03    -154.665E-03    -111.449E-03     169.114E-03    -57.6654E-03     228.256E-03     138.218E+06     128.763E+06    -8.28510E+06    -8.18318E+06     138.116E+06     128.763E+06     2.03593E+06         59.0627
            1074     15.1566E-03     8.08544E-03         4.19421         1.81553        -7.37731         1.81428        -7.37605         4.19421    -200.093E-03     199.656E-03    -54.9612E-03    -144.695E-03    -98.9708E-03     153.932E-03    -54.9612E-03     230.259E-03     118.134E+06     105.611E+06    -20.3909E+06    -20.3265E+06     118.070E+06     105.611E+06     1.35680E+06         55.2681
            1075     14.2482E-03     7.91381E-03         4.40454         2.29508        -8.12498         2.29446        -8.12436         4.40454    -152.109E-03     149.563E-03    -52.5934E-03    -96.9692E-03    -82.6464E-03     135.240E-03    -52.5934E-03     108.478E-03     100.420E+06     67.1102E+06    -26.7245E+06    -26.3832E+06     100.079E+06     67.1102E+06     4.03065E+06         50.5940
            1076     13.3198E-03     7.86600E-03         4.56422         2.74724        -8.78093         2.74680        -8.78049         4.56422    -42.6483E-03     129.636E-03    -50.4487E-03    -79.1877E-03    -76.1933E-03     126.642E-03    -50.4487E-03     47.4118E-03     86.4559E+06     25.2058E+06    -35.3582E+06    -34.6644E+06     85.7621E+06     25.2058E+06     7.54768E+06         45.7910
            1077     12.3936E-03     7.84673E-03         4.69342         3.15374        -9.34915         3.15352        -9.34893         4.69342     8.23859E-03     122.695E-03    -48.3575E-03    -74.3379E-03    -73.3872E-03     121.745E-03    -48.3575E-03     24.9113E-03     76.6554E+06    -3.11373E+06    -42.1910E+06    -41.1773E+06     75.6418E+06    -3.11373E+06     9.64510E+06         41.4447
            1078     11.4632E-03     7.85281E-03         4.80178         3.51569        -9.84489         3.51540        -9.84460         4.80178     28.7127E-03     116.040E-03    -46.3603E-03    -69.6802E-03    -69.4490E-03     115.809E-03    -46.3603E-03     8.82938E-03     45.2639E+06    -10.7988E+06    -39.9211E+06    -39.0666E+06     44.4093E+06    -10.7988E+06     7.14658E+06         37.8873
            1079     10.5305E-03     7.87735E-03         4.89183         3.84323        -10.2829         3.84292        -10.2826         4.89183     14.8171E-03     110.197E-03    -44.4836E-03    -65.7137E-03    -65.5820E-03     110.066E-03    -44.4836E-03    -454.607E-06     7.57198E+06    -21.4741E+06    -39.4428E+06    -36.5243E+06    -12.1594E+06    -4.66128E+06     2.90153E+06         35.1747
            1080     9.59187E-03     7.90749E-03         4.96541         4.13102        -10.6592         4.13080        -10.6590         4.96541    -61.0559E-03     104.940E-03    -42.5755E-03    -62.3644E-03    -62.1317E-03     104.707E-03    -42.5755E-03    -6.33973E-03    -2.05968E+06    -36.8480E+06    -67.2136E+06    -37.5824E+06    -66.4791E+06    -2.05968E+06     3.07210E+06         33.1793
            1081     8.65334E-03     7.95047E-03         5.02422         4.38116        -10.9769         4.38045        -10.9762         5.02422    -151.506E-03     99.1048E-03    -40.6282E-03    -58.4766E-03    -58.1368E-03     98.7650E-03    -40.6282E-03    -9.34053E-03     1.12965E+06    -37.1653E+06    -105.392E+06    -37.7676E+06    -104.789E+06     1.12965E+06     5.45638E+06         31.7075
            1082     7.70591E-03     7.98802E-03         5.06975         4.59925        -11.2450         4.59847        -11.2442         5.06975    -190.023E-03     93.0759E-03    -38.6744E-03    -54.4015E-03    -53.9894E-03     92.6637E-03    -38.6744E-03    -10.5466E-03     2.41701E+06    -36.7575E+06    -135.402E+06    -37.1853E+06    -134.975E+06     2.41701E+06     4.37718E+06         30.5840
            1083     6.75787E-03     8.02939E-03         5.10316         4.77949        -11.4627         4.77773        -11.4609         5.10316    -283.823E-03     87.2742E-03    -36.7038E-03    -50.5704E-03    -50.1321E-03     86.8360E-03    -36.7038E-03    -11.1909E-03    -1.14299E+06    -37.6945E+06    -160.455E+06    -37.8037E+06    -160.346E+06    -1.14299E+06     2.88143E+06         29.6849
            1084     5.80367E-03     8.06303E-03         5.12770         4.90138        -11.6158         4.89875        -11.6131         5.12770    -399.890E-03     81.2301E-03    -34.7609E-03    -46.4692E-03    -46.0502E-03     80.8112E-03    -34.7609E-03    -10.9004E-03    -2.21183E+06    -38.5248E+06    -182.839E+06    -38.6720E+06    -182.692E+06    -2.21183E+06     2.91657E+06         28.9369
            1085     4.84610E-03     8.09360E-03         5.14756         4.98793        -11.7343         4.98472        -11.7311         5.14756    -443.049E-03     74.8569E-03    -32.8858E-03    -41.9711E-03    -41.5962E-03     74.4820E-03    -32.8858E-03    -10.7449E-03    -5.63975E+06    -38.2811E+06    -198.832E+06    -38.4189E+06    -198.694E+06    -5.63975E+06     1.85317E+06         28.3037
            1086     3.88340E-03     8.11706E-03         5.16406         5.06181        -11.8362         5.05944        -11.8338         5.16406    -310.646E-03     68.6153E-03    -31.1611E-03    -37.4543E-03    -37.1516E-03     68.3127E-03    -31.1611E-03    -9.52299E-03    -14.8244E+06    -38.3189E+06    -201.663E+06    -38.4004E+06    -201.582E+06    -14.8244E+06     790.505E+03         27.7732
            1087     2.91659E-03     8.13556E-03         5.17688         5.13428        -11.9284         5.13216        -11.9236         5.17418    -435.570E-03     63.3479E-03    -29.7145E-03    -33.6334E-03    -33.4292E-03     63.1438E-03    -29.7145E-03    -7.77095E-03    -21.4963E+06    -38.2663E+06    -207.038E+06    -38.3500E+06    -206.955E+06    -21.4963E+06    -162.017E+03         27.3467
            1088     1.94644E-03     8.14703E-03         5.18712         5.14736        -11.9412         5.14273        -11.9339         5.18442    -126.469E-03     59.1321E-03    -28.5495E-03    -30.5827E-03    -30.4703E-03     59.0198E-03    -28.5495E-03    -5.66277E-03    -26.2705E+06    -37.1078E+06    -211.827E+06    -37.1764E+06    -211.758E+06    -26.2705E+06    -551.501E+03         27.0311
            1089     975.067E-06     8.15515E-03         5.31009         5.09076        -11.9990         5.06987        -11.9781         5.31009    -445.970E-03     56.0336E-03    -27.6635E-03    -28.3702E-03    -28.3068E-03     55.9920E-03    -27.6851E-03    -2.99484E-03    -34.8047E+06    -39.7509E+06    -216.123E+06    -38.3782E+06    -216.086E+06    -36.2140E+06     16.6988E+03         26.8320
            1090     16.0600E-03     7.24945E-03         4.36624         1.41754        -7.15082         1.41584        -7.14911         4.36624    -238.729E-03     211.494E-03    -58.4687E-03    -153.025E-03    -111.016E-03     169.484E-03    -58.4687E-03     218.964E-03     139.556E+06     128.980E+06    -9.37292E+06    -9.15711E+06     139.340E+06     128.980E+06     4.96136E+06         57.9185
            1091     15.1530E-03     6.91601E-03         4.60442         1.97392        -8.03761         1.97292        -8.03661         4.60442    -167.669E-03     196.386E-03    -56.0066E-03    -140.379E-03    -93.4750E-03     149.482E-03    -56.0066E-03     229.328E-03     118.776E+06     105.159E+06    -20.6035E+06    -20.3046E+06     118.477E+06     105.159E+06     3.93832E+06         54.2469
            1092     14.2247E-03     6.77858E-03         4.81363         2.49397        -8.83861         2.49382        -8.83845         4.81363    -51.1662E-03     149.141E-03    -53.9918E-03    -95.1490E-03    -79.3272E-03     133.319E-03    -53.9918E-03     116.182E-03     94.1713E+06     62.1159E+06    -32.2169E+06    -31.5139E+06     93.4683E+06     62.1159E+06     7.72274E+06         49.7328
            1093     13.2970E-03     6.72706E-03         4.98004         2.96800        -9.52546         2.96739        -9.52485         4.98004     98.2497E-03     129.839E-03    -52.2188E-03    -77.6204E-03    -72.6073E-03     124.826E-03    -52.2188E-03     62.2114E-03     83.7664E+06     28.2433E+06    -38.7394E+06    -37.7188E+06     82.7457E+06     28.2433E+06     11.0279E+06         45.1187
            1094     12.3678E-03     6.71705E-03         5.12016         3.39780        -10.1250         3.39709        -10.1242         5.12016     170.819E-03     121.180E-03    -50.6121E-03    -70.5675E-03    -68.4080E-03     119.020E-03    -50.6121E-03     38.5891E-03     81.6813E+06     12.0142E+06    -40.9261E+06    -40.3126E+06     81.0678E+06     12.0142E+06     6.99502E+06         40.9742
            1095     11.4339E-03     6.73042E-03         5.24065         3.79041        -10.6615         3.78948        -10.6606         5.24065     201.822E-03     113.940E-03    -49.1961E-03    -64.7435E-03    -63.3906E-03     112.587E-03    -49.1961E-03     27.7220E-03     50.0612E+06     2.99688E+06    -41.2561E+06    -41.0940E+06     49.8990E+06     2.99688E+06     344.530E+03         37.6258
            1096     10.4962E-03     6.76097E-03         5.34423         4.14283        -11.1375         4.14197        -11.1366         5.34423     187.961E-03     109.640E-03    -47.9784E-03    -61.6614E-03    -60.4307E-03     108.409E-03    -47.9784E-03     23.9114E-03     14.6155E+06    -20.4249E+06    -44.4970E+06    -41.5398E+06    -13.9763E+06     5.20968E+06    -576.958E+03         35.1225
            1097     9.55665E-03     6.79934E-03         5.43222         4.45822        -11.5571         4.45789        -11.5567         5.43222     115.461E-03     106.048E-03    -46.7388E-03    -59.3090E-03    -58.2309E-03     104.970E-03    -46.7388E-03     20.4835E-03     9.69947E+06    -40.6338E+06    -68.6409E+06    -41.3542E+06    -67.9204E+06     9.69947E+06    -1.29373E+06         33.3286
            1098     8.61235E-03     6.84487E-03         5.50549         4.74008        -11.9216         4.73973        -11.9212         5.50549     11.5393E-03     103.225E-03    -45.3580E-03    -57.8672E-03    -56.8083E-03     102.166E-03    -45.3580E-03     19.3146E-03     12.2395E+06    -37.2915E+06    -105.716E+06    -38.4200E+06    -104.587E+06     12.2395E+06    -4.45752E+06         32.0431
            1099     7.67050E-03     6.89177E-03         5.56467         4.99115        -12.2318         4.99092        -12.2315         5.56467    -33.4018E-03     100.026E-03    -43.8104E-03    -56.2159E-03    -55.3624E-03     99.1728E-03    -43.8104E-03     16.9037E-03     17.1114E+06    -32.5996E+06    -135.625E+06    -33.2398E+06    -134.984E+06     17.1114E+06    -4.98144E+06         31.0850
            1100     6.72236E-03     6.93585E-03         5.61013         5.20739        -12.4904         5.20637        -12.4894         5.61013    -154.396E-03     95.9947E-03    -42.0676E-03    -53.9271E-03    -53.2109E-03     95.2786E-03    -42.0676E-03     14.5817E-03     16.2199E+06    -30.3650E+06    -161.656E+06    -30.6427E+06    -161.378E+06     16.2199E+06    -3.79085E+06         30.3268
            1101     5.77486E-03     6.97714E-03         5.64411         5.36446        -12.6852         5.36332        -12.6841         5.64411    -238.752E-03     91.4324E-03    -40.1542E-03    -51.2781E-03    -50.7680E-03     90.9222E-03    -40.1542E-03     11.5408E-03     12.1815E+06    -30.7465E+06    -183.143E+06    -30.9218E+06    -182.968E+06     12.1815E+06    -3.87984E+06         29.6934
            1102     4.82241E-03     7.01349E-03         5.67003         5.48001        -12.8374         5.47766        -12.8350         5.67003    -339.874E-03     85.5806E-03    -38.1346E-03    -47.4460E-03    -47.1189E-03     85.2535E-03    -38.1346E-03     7.63131E-03     5.67627E+06    -32.5648E+06    -196.414E+06    -32.7949E+06    -196.184E+06     5.67627E+06    -5.30111E+06         29.1477
            1103     3.86580E-03     7.04539E-03         5.69177         5.55876        -12.9524         5.55602        -12.9497         5.69177    -162.550E-03     79.2125E-03    -36.1427E-03    -43.0698E-03    -42.8783E-03     79.0210E-03    -36.1427E-03     4.87582E-03    -7.66350E+06    -34.7277E+06    -202.439E+06    -35.0214E+06    -202.146E+06    -7.66350E+06    -6.07775E+06         28.6793
            1104     2.90475E-03     7.06825E-03         5.71120         5.64327        -13.0665         5.63663        -13.0579         5.70921    -427.288E-03     73.2249E-03    -34.3634E-03    -38.8615E-03    -38.7461E-03     73.1095E-03    -34.3634E-03     2.77238E-03    -20.2499E+06    -35.5712E+06    -209.308E+06    -35.8280E+06    -209.051E+06    -20.2499E+06    -6.07573E+06         28.2936
            1105     1.93968E-03     7.08648E-03         5.72970         5.68519        -13.1140         5.66663        -13.0935         5.72771     107.425E-03     68.0964E-03    -32.9396E-03    -35.1567E-03    -35.1105E-03     68.0502E-03    -32.9396E-03     984.755E-06    -29.5681E+06    -37.6488E+06    -215.011E+06    -37.8225E+06    -214.838E+06    -29.5681E+06    -4.79924E+06         28.0017
            1106     969.800E-06     7.09662E-03         5.89367         5.66543        -13.2470         5.57930        -13.1609         5.89367    -954.033E-03     64.6055E-03    -31.9155E-03    -32.6900E-03    -32.6778E-03     64.5933E-03    -31.9155E-03     537.396E-06    -32.4351E+06    -39.4582E+06    -216.782E+06    -38.1441E+06    -216.706E+06    -33.8254E+06    -492.312E+03         27.8141
            1107     16.0381E-03     6.07417E-03         4.71439         1.53728        -7.72209         1.53441        -7.71922         4.71439    -308.980E-03     212.607E-03    -60.3260E-03    -152.281E-03    -107.680E-03     168.006E-03    -60.3260E-03     222.583E-03     137.242E+06     127.341E+06    -9.97269E+06    -9.42313E+06     136.693E+06     127.341E+06     7.73246E+06         56.6844
            1108     15.1071E-03     5.76020E-03         4.94459         2.12618        -8.65082         2.12537        -8.65002         4.94459    -131.683E-03     198.806E-03    -58.2649E-03    -140.541E-03    -89.8981E-03     148.163E-03    -58.2649E-03     237.701E-03     116.453E+06     106.152E+06    -20.2461E+06    -19.0353E+06     115.242E+06     106.152E+06     11.8435E+06         53.0896
            1109     14.1879E-03     5.63133E-03         5.15088         2.66534        -9.47512         2.66509        -9.47487         5.15088     61.7327E-03     149.824E-03    -56.7054E-03    -93.1186E-03    -75.5593E-03     132.265E-03    -56.7054E-03     123.370E-03     94.7869E+06     70.2303E+06    -32.3720E+06    -31.2134E+06     93.6283E+06     70.2303E+06     11.8079E+06         48.6993
            1110     13.2573E-03     5.59724E-03         5.32248         3.14732        -10.1721         3.14564        -10.1704         5.32248     263.627E-03     129.042E-03    -55.4679E-03    -73.5743E-03    -66.0995E-03     121.567E-03    -55.4679E-03     75.1953E-03     88.1811E+06     39.1386E+06    -36.2977E+06    -35.6699E+06     87.5533E+06     39.1386E+06     6.90576E+06         44.2589
            1111     12.3205E-03     5.58460E-03         5.47278         3.59027        -10.7863         3.58811        -10.7841         5.47278     337.132E-03     117.255E-03    -54.0479E-03    -63.2067E-03    -57.4514E-03     112.171E-03    -54.7199E-03     57.0516E-03     89.1033E+06     24.3557E+06    -34.8483E+06    -34.6075E+06     88.8625E+06     24.3557E+06     2.34851E+06         40.3290
            1112     11.3767E-03     5.62166E-03         5.60622         4.01105        -11.3530         4.00878        -11.3507         5.60622     361.797E-03     112.905E-03    -53.4193E-03    -59.4859E-03    -53.3976E-03     107.816E-03    -54.4180E-03     55.1796E-03     51.1280E+06     12.8244E+06    -37.7123E+06    -37.6008E+06     49.7061E+06     14.1348E+06    -864.350E+03         37.2282
            1113     10.4284E-03     5.64109E-03         5.72428         4.38871        -11.8632         4.38672        -11.8612         5.72428     338.461E-03     111.615E-03    -52.9236E-03    -58.6917E-03    -52.5572E-03     106.878E-03    -54.3208E-03     53.5735E-03     14.3376E+06    -15.2856E+06    -46.9524E+06    -41.5679E+06    -17.9640E+06     11.6316E+06    -4.60088E+06         34.9905
            1114     9.48384E-03     5.69438E-03         5.82762         4.73019        -12.3214         4.72915        -12.3203         5.82762     261.068E-03     111.999E-03    -53.0907E-03    -58.9087E-03    -53.2272E-03     107.388E-03    -54.1612E-03     52.9567E-03     17.1306E+06    -34.9679E+06    -69.9310E+06    -40.7895E+06    -64.1093E+06     17.1306E+06    -10.4943E+06         33.4606
            1115     8.53913E-03     5.73246E-03         5.91679         5.03869        -12.7260         5.03804        -12.7254         5.91679     159.202E-03     113.344E-03    -53.7397E-03    -59.6039E-03    -55.3429E-03     109.083E-03    -53.7397E-03     51.8960E-03     18.4047E+06    -33.8958E+06    -108.870E+06    -38.0804E+06    -104.685E+06     18.4047E+06    -16.4417E+06         32.4244
            1116     7.59738E-03     5.78462E-03         5.99153         5.31847        -13.0787         5.31814        -13.0784         5.99153     116.165E-03     113.680E-03    -52.9783E-03    -60.7014E-03    -57.0323E-03     110.011E-03    -52.9783E-03     48.3927E-03     21.9589E+06    -31.7893E+06    -143.667E+06    -35.0231E+06    -140.433E+06     21.9589E+06    -17.3661E+06         31.6944
            1117     6.65770E-03     5.83067E-03         6.05141         5.56680        -13.3807         5.56605        -13.3799         6.05141    -30.3248E-03     112.809E-03    -51.8264E-03    -60.9830E-03    -57.8410E-03     109.667E-03    -51.8264E-03     44.7905E-03     23.5413E+06    -29.1017E+06    -168.558E+06    -31.0926E+06    -166.568E+06     23.5413E+06    -15.0394E+06         31.1407
            1118     5.71527E-03     5.87555E-03         6.09698         5.76597        -13.6236         5.76535        -13.6229         6.09698    -74.6851E-03     109.889E-03    -50.2987E-03    -59.5904E-03    -57.2313E-03     107.530E-03    -50.2987E-03     38.2615E-03     15.7429E+06    -27.5337E+06    -187.490E+06    -28.5763E+06    -186.448E+06     15.7429E+06    -11.6604E+06         30.6861
            1119     4.77257E-03     5.91780E-03         6.13039         5.91352        -13.8133         5.91093        -13.8108         6.13039    -255.504E-03     105.605E-03    -48.5095E-03    -57.0959E-03    -55.4556E-03     103.965E-03    -48.5095E-03     31.0696E-03     4.87984E+06    -29.6908E+06    -197.435E+06    -30.3573E+06    -196.769E+06     4.87984E+06    -10.3160E+06         30.2908
            1120     3.82640E-03     5.95621E-03         6.15674         6.00834        -13.9481         6.00328        -13.9430         6.15674     1.16456E-03     100.217E-03    -46.5897E-03    -53.6276E-03    -52.5627E-03     99.1523E-03    -46.5897E-03     24.1889E-03    -7.10634E+06    -32.8495E+06    -204.748E+06    -33.5379E+06    -204.059E+06    -7.10634E+06    -10.7668E+06         29.9426
            1121     2.87525E-03     5.98641E-03         6.17964         6.09993        -14.0720         6.08223        -14.0543         6.17964    -460.702E-03     94.1577E-03    -44.7346E-03    -49.4230E-03    -48.8405E-03     93.5751E-03    -44.7346E-03     17.1361E-03    -23.3676E+06    -36.4238E+06    -214.557E+06    -36.8714E+06    -214.110E+06    -23.3676E+06    -8.76166E+06         29.6469
            1122     1.91978E-03     6.00987E-03         6.20778         6.17300        -14.1624         6.12068        -14.1101         6.20778     426.541E-03     88.7479E-03    -43.2185E-03    -45.5294E-03    -45.2847E-03     88.5032E-03    -43.2185E-03     10.4940E-03    -34.5229E+06    -40.0681E+06    -221.303E+06    -40.3101E+06    -221.061E+06    -34.5229E+06    -6.56998E+06         29.4166
            1123     961.594E-06     6.02541E-03         6.41906         6.26763        -14.4605         6.02536        -14.2183         6.41906        -1.64933     85.0614E-03    -42.0874E-03    -42.9740E-03    -42.7901E-03     84.9771E-03    -42.1870E-03     5.80310E-03    -38.3509E+06    -45.2665E+06    -223.779E+06    -43.5297E+06    -223.664E+06    -40.2034E+06    -3.79968E+06         29.2656
            1124     15.9654E-03     4.88497E-03         4.99057         1.67566        -8.29188         1.67046        -8.28668         4.99057    -393.580E-03     209.222E-03    -63.5045E-03    -145.718E-03    -99.6634E-03     163.168E-03    -63.5045E-03     230.106E-03     131.601E+06     123.768E+06    -9.15047E+06    -8.23070E+06     130.681E+06     123.768E+06     10.5863E+06         55.2906
            1125     15.0650E-03     4.58863E-03         5.21200         2.26515        -9.21798         2.26458        -9.21740         5.21200    -74.4028E-03     201.031E-03    -61.8434E-03    -139.187E-03    -90.4105E-03     152.254E-03    -61.8434E-03     235.108E-03     113.311E+06     105.848E+06    -21.6234E+06    -20.2451E+06     111.933E+06     105.848E+06     13.3362E+06         51.7275
            1126     14.1315E-03     4.50008E-03         5.41341         2.78894        -10.0154         2.78772        -10.0142         5.41341     198.011E-03     149.120E-03    -60.2760E-03    -88.8435E-03    -70.1510E-03     130.846E-03    -60.6949E-03     124.921E-03     101.891E+06     84.9542E+06    -25.1900E+06    -24.2216E+06     100.922E+06     84.9542E+06     10.1932E+06         47.4536
            1127     13.1957E-03     4.45077E-03         5.59002         3.27459        -10.7052         3.27103        -10.7017         5.59002     431.567E-03     122.865E-03    -56.0624E-03    -66.8028E-03    -52.0537E-03     112.415E-03    -60.3608E-03     83.7602E-03     96.3379E+06     50.2008E+06    -27.1782E+06    -26.9089E+06     96.0686E+06     50.2008E+06     3.22485E+06         43.1959
            1128     12.2424E-03     4.49174E-03         5.75129         3.73050        -11.3254         3.72659        -11.3215         5.75129     478.011E-03     115.614E-03    -54.0937E-03    -61.5206E-03    -44.3114E-03     105.188E-03    -60.8763E-03     79.9699E-03     88.0266E+06     15.7197E+06    -32.1736E+06    -32.1148E+06     87.9678E+06     15.7197E+06      982.21E+03         39.5137
            1129     11.2822E-03     4.49103E-03         5.89908         4.16620        -11.9078         4.16249        -11.9040         5.89908     484.650E-03     115.942E-03    -54.0128E-03    -61.9288E-03    -44.6867E-03     106.615E-03    -61.9288E-03     77.0426E-03     50.4769E+06     7.23871E+06    -36.4121E+06    -36.1362E+06     48.8906E+06     8.54910E+06    -492.436E+03         36.7137
            1130     10.3351E-03     4.54233E-03         6.03251         4.57755        -12.4549         4.57455        -12.4519         6.03251     435.354E-03     117.687E-03    -54.5447E-03    -63.1427E-03    -45.8190E-03     108.962E-03    -63.1427E-03     75.2451E-03     14.4409E+06    -4.51509E+06    -47.7924E+06    -36.3556E+06    -13.4376E+06     11.9266E+06    -11.3667E+06         34.7968
            1131     9.37988E-03     4.56861E-03         6.15140         4.95315        -12.9551         4.95138        -12.9533         6.15140     354.325E-03     122.756E-03    -57.8416E-03    -64.9144E-03    -50.0622E-03     114.317E-03    -64.2550E-03     76.0726E-03     15.6902E+06    -22.0757E+06    -75.1684E+06    -34.7555E+06    -62.4887E+06     15.6902E+06    -20.9039E+06         33.5781
            1132     8.43980E-03     4.61723E-03         6.25596         5.28602        -13.3962         5.28488        -13.3950         6.25596     265.669E-03     127.262E-03    -60.9636E-03    -66.2985E-03    -54.7199E-03     119.787E-03    -65.0672E-03     73.6340E-03     17.9145E+06    -26.1503E+06    -115.128E+06    -34.1770E+06    -107.101E+06     17.9145E+06    -24.8728E+06         32.8337
            1133     7.49763E-03     4.65856E-03         6.34594         5.59144        -13.7888         5.59068        -13.7880         6.34594     228.182E-03     131.326E-03    -63.4443E-03    -67.8820E-03    -59.0945E-03     124.567E-03    -65.4725E-03     71.5467E-03     16.3960E+06    -28.1686E+06    -153.394E+06    -34.8568E+06    -146.706E+06     16.3960E+06    -27.8995E+06         32.3760
            1134     6.56262E-03     4.70577E-03         6.42059         5.86345        -14.1292         5.86264        -14.1284         6.42059     59.4218E-03     134.041E-03    -64.6600E-03    -69.3811E-03    -62.8452E-03     128.258E-03    -65.4129E-03     67.3409E-03     14.9212E+06    -29.7497E+06    -181.653E+06    -34.6856E+06    -176.717E+06     14.9212E+06    -26.2256E+06         32.0758
            1135     5.63013E-03     4.75122E-03         6.47940         6.09338        -14.4145         6.09256        -14.4137         6.47940     60.8338E-03     134.349E-03    -64.8592E-03    -69.4894E-03    -64.8249E-03     129.684E-03    -64.8592E-03     60.6819E-03     5.13809E+06    -30.2975E+06    -198.582E+06    -33.1358E+06    -195.744E+06     5.13809E+06    -20.9012E+06         31.8542
            1136     4.69631E-03     4.79709E-03         6.52469         6.26141        -14.6314         6.25776        -14.6278         6.52469    -203.975E-03     132.965E-03    -63.9318E-03    -69.0337E-03    -65.5907E-03     129.522E-03    -63.9318E-03     52.0271E-03    -5.73034E+06    -30.1041E+06    -204.281E+06    -31.6183E+06    -202.767E+06    -5.73034E+06    -15.2165E+06         31.6681
            1137     3.76224E-03     4.83836E-03         6.55839         6.40594        -14.8173         6.39658        -14.8079         6.55839     155.653E-03     130.303E-03    -62.7405E-03    -67.5621E-03    -65.2073E-03     127.948E-03    -62.7405E-03     42.5636E-03    -15.9725E+06    -34.4660E+06    -211.368E+06    -35.1595E+06    -210.674E+06    -15.9725E+06    -10.8909E+06         31.4996
            1138     2.82705E-03     4.87559E-03         6.58194         6.52338        -14.9672         6.49079        -14.9346         6.58194    -544.030E-03     126.381E-03    -61.4154E-03    -64.9653E-03    -63.5891E-03     125.005E-03    -61.4154E-03     31.8527E-03    -28.7087E+06    -40.6426E+06    -220.489E+06    -41.0049E+06    -220.127E+06    -28.7087E+06    -7.70329E+06         31.3477
            1139     1.88716E-03     4.90465E-03         6.65457         6.58710        -15.0942         6.52631        -14.9867         6.60787     800.351E-03     122.296E-03    -60.2044E-03    -62.0915E-03    -61.4455E-03     121.650E-03    -60.2044E-03     21.1330E-03    -39.0501E+06    -45.2602E+06    -227.193E+06    -45.4075E+06    -227.046E+06    -39.0501E+06    -4.86840E+06         31.2224
            1140     944.316E-06     4.92276E-03         6.97815         6.78616        -15.6126         6.41284        -15.0908         6.82962        -2.52761     119.198E-03    -59.2528E-03    -59.9454E-03    -59.6327E-03     118.985E-03    -59.3524E-03     11.5710E-03    -48.9363E+06    -53.7043E+06    -234.224E+06    -51.9206E+06    -234.155E+06    -50.7887E+06    -2.99414E+06         31.1369
            1141     15.9092E-03     3.65827E-03         5.19188         1.83203        -8.87973         1.82330        -8.87100         5.19188    -491.747E-03     218.467E-03    -67.5711E-03    -150.896E-03    -99.3340E-03     166.905E-03    -67.5711E-03     253.181E-03     129.940E+06     124.369E+06    -9.32316E+06    -8.01900E+06     128.636E+06     124.369E+06     13.2029E+06         53.7195
            1142     14.9814E-03     3.44105E-03         5.40364         2.37597        -9.73263         2.37511        -9.73177         5.40364     18.7915E-03     196.977E-03    -66.0645E-03    -130.912E-03    -93.2976E-03     159.362E-03    -66.0645E-03     202.379E-03     114.497E+06     108.700E+06    -16.8370E+06    -16.1069E+06     113.767E+06     108.700E+06     8.64869E+06         50.2064
            1143     14.0668E-03     3.32357E-03         5.60052         2.85034        -10.4413         2.84759        -10.4385         5.60052     351.572E-03     135.085E-03    -56.7844E-03    -78.3009E-03    -54.9749E-03     120.504E-03    -65.5290E-03     101.702E-03     105.039E+06     86.5235E+06    -17.8798E+06    -17.6070E+06     104.766E+06     86.5235E+06     4.68601E+06         46.0967
            1144     13.1091E-03     3.37812E-03         5.78511         3.33047        -11.0946         3.32537        -11.0895         5.78511     540.907E-03     116.771E-03    -50.2013E-03    -66.5699E-03    -37.2651E-03     103.835E-03    -66.5699E-03     88.1377E-03     98.3484E+06     49.3612E+06    -23.7291E+06    -23.5741E+06     98.1934E+06     49.3612E+06     3.90595E+06         42.0606
            1145     12.1337E-03     3.35331E-03         5.95938         3.80729        -11.7262         3.80241        -11.7213         5.95938     547.529E-03     118.519E-03    -50.1773E-03    -68.3421E-03    -38.1110E-03     106.453E-03    -68.3421E-03     86.3231E-03     87.1927E+06     8.42049E+06    -29.4949E+06    -29.3690E+06     87.0668E+06     8.42049E+06     3.00980E+06         38.6759
            1146     11.1881E-03     3.39258E-03         6.12126         4.26852        -12.3321         4.26430        -12.3279         6.12126     529.240E-03     119.787E-03    -49.3091E-03    -70.4775E-03    -39.4397E-03     109.917E-03    -70.4775E-03     79.1452E-03     54.2310E+06    -8.03114E+06    -32.4284E+06    -31.2049E+06     53.0075E+06    -8.03114E+06    -4.47248E+06         36.2211
            1147     10.2203E-03     3.41347E-03         6.26935         4.70895        -12.9084         4.70576        -12.9052         6.26935     463.656E-03     126.231E-03    -53.3853E-03    -72.8459E-03    -43.8231E-03     116.669E-03    -72.8459E-03     80.3294E-03     13.9255E+06    -10.5419E+06    -44.8777E+06    -30.6473E+06    -4.25130E+06    -6.59545E+06    -17.1820E+06         34.6464
            1148     9.27770E-03     3.44620E-03         6.40287         5.11638        -13.4434         5.11435        -13.4413         6.40287     387.715E-03     133.097E-03    -57.9327E-03    -75.1647E-03    -49.3311E-03     124.496E-03    -75.1647E-03     78.8449E-03      713.96E+03    -19.4382E+06    -80.7723E+06    -30.5472E+06    -63.9163E+06    -5.03306E+06    -26.9917E+06         33.7472
            1149     8.32650E-03     3.47931E-03         6.52149         5.47979        -13.9238         5.47848        -13.9225         6.52149     301.848E-03     140.148E-03    -62.8308E-03    -77.3173E-03    -55.0677E-03     132.385E-03    -77.3173E-03     77.6087E-03     166.086E+03    -21.2365E+06    -122.495E+06    -29.2911E+06    -111.206E+06    -3.06838E+06    -31.8737E+06         33.2996
            1150     7.39109E-03     3.51725E-03         6.62506         5.80931        -14.3552         5.80838        -14.3542         6.62506     266.811E-03     147.761E-03    -68.5650E-03    -79.1957E-03    -61.5105E-03     140.706E-03    -79.1957E-03     76.5184E-03    -1.16742E+06    -21.7919E+06    -163.114E+06    -28.9199E+06    -154.518E+06    -2.63528E+06    -33.3840E+06         33.1234
            1151     6.45672E-03     3.55651E-03         6.71349         6.09402        -14.7253         6.09323        -14.7245         6.71349     89.7143E-03     153.956E-03    -73.0832E-03    -80.8724E-03    -67.1143E-03     147.831E-03    -80.7170E-03     73.2910E-03    -3.41237E+06    -25.9014E+06    -196.891E+06    -31.7998E+06    -190.992E+06    -3.41237E+06    -30.6859E+06         33.0943
            1152     5.52835E-03     3.59891E-03         6.78615         6.34773        -15.0474         6.34646        -15.0462         6.78615     146.291E-03     159.072E-03    -76.6322E-03    -82.4402E-03    -72.1862E-03     153.959E-03    -81.7733E-03     68.4048E-03    -14.8211E+06    -31.9069E+06    -211.602E+06    -35.5691E+06    -207.940E+06    -14.8211E+06    -25.1953E+06         33.1338
            1153     4.60527E-03     3.64265E-03         6.84477         6.53728        -15.2936         6.53271        -15.2891         6.84477    -167.475E-03     162.665E-03    -79.0238E-03    -83.6414E-03    -76.2693E-03     158.685E-03    -82.4155E-03     61.3209E-03    -25.0362E+06    -36.7289E+06    -217.989E+06    -38.6786E+06    -216.040E+06    -25.0362E+06    -17.8708E+06         33.1938
            1154     3.68375E-03     3.68393E-03         6.88758         6.73177        -15.5311         6.71850        -15.5179         6.88758     276.425E-03     164.604E-03    -80.4754E-03    -84.1282E-03    -79.0666E-03     161.795E-03    -82.7283E-03     51.8780E-03    -29.7086E+06    -40.9212E+06    -222.044E+06    -41.5091E+06    -221.456E+06    -29.7086E+06    -9.67389E+06         33.2478
            1155     2.76242E-03     3.72243E-03         6.91546         6.86708        -15.6991         6.82025        -15.6523         6.91546    -623.800E-03     165.425E-03    -81.4429E-03    -83.9818E-03    -80.9536E-03     163.701E-03    -82.7473E-03     40.6563E-03    -37.2532E+06    -46.1175E+06    -226.957E+06    -46.2800E+06    -226.794E+06    -37.2532E+06    -5.00042E+06         33.2841
            1156     1.84303E-03     3.75386E-03         7.08363         6.90358        -15.9000         6.88788        -15.7359         6.93525         1.12850     165.373E-03    -82.1149E-03    -83.2577E-03    -81.9813E-03     164.520E-03    -82.5392E-03     28.1928E-03    -45.0181E+06    -51.0534E+06    -232.845E+06    -51.0976E+06    -232.801E+06    -45.0181E+06    -2.28712E+06         33.3022
            1157     921.946E-06     3.77538E-03         7.65308         7.05642        -16.6218         6.82594        -15.7946         7.05642        -3.34525     164.632E-03    -82.1324E-03    -82.5000E-03    -82.1878E-03     164.352E-03    -82.1640E-03     15.4375E-03    -52.2833E+06    -56.2325E+06    -239.254E+06    -55.6515E+06    -239.241E+06    -52.8768E+06    -1.07043E+06         33.3083
            1158     15.8054E-03     2.45106E-03         5.31782         1.97204        -9.48677         1.95924        -9.47397         5.31782    -540.483E-03     228.136E-03    -71.1152E-03    -157.021E-03    -113.904E-03     185.019E-03    -71.1152E-03     231.799E-03     129.937E+06     127.212E+06    -8.82359E+06    -7.84281E+06     128.956E+06     127.212E+06     6.71117E+06         52.2043
            1159     14.9544E-03     2.20241E-03         5.52043         2.40879        -10.1453         2.40761        -10.1442         5.52043     144.162E-03     164.477E-03    -57.9036E-03    -106.573E-03    -76.6127E-03     146.442E-03    -69.8289E-03     123.159E-03     117.720E+06     111.737E+06    -3.48163E+06    -2.87598E+06     117.114E+06     111.737E+06     7.02318E+06         48.8650
            1160     13.9970E-03     2.27445E-03         5.71945         2.84700        -10.7229         2.84381        -10.7197         5.71945     409.821E-03     117.472E-03    -45.7936E-03    -71.6789E-03    -36.1144E-03     106.697E-03    -70.5829E-03     78.9643E-03     104.819E+06     78.0612E+06    -10.9976E+06    -10.3939E+06     104.215E+06     78.0612E+06     6.75116E+06         44.9625
            1161     13.0013E-03     2.23237E-03         5.91468         3.32802        -11.3436         3.32345        -11.3391         5.91468     513.828E-03     118.577E-03    -45.7889E-03    -72.7885E-03    -34.8790E-03     107.668E-03    -72.7885E-03     79.9715E-03     101.582E+06     44.0119E+06    -20.4829E+06    -20.0710E+06     101.170E+06     44.0119E+06     6.25993E+06         41.1801
            1162     12.0648E-03     2.25150E-03         6.10119         3.82344        -11.9845         3.81942        -11.9805         6.10119     496.052E-03     119.247E-03    -43.9148E-03    -75.3318E-03    -36.1899E-03     111.522E-03    -75.3318E-03     68.0274E-03     90.7058E+06     7.24815E+06    -23.2377E+06    -22.9594E+06     90.5697E+06     7.10603E+06     1.37385E+06         38.1181
            1163     11.0805E-03     2.26716E-03         6.27556         4.32049        -12.6221         4.31735        -12.6190         6.27556     455.384E-03     123.745E-03    -45.5735E-03    -78.1720E-03    -38.8180E-03     116.990E-03    -78.1720E-03     64.9339E-03     62.3221E+06    -17.9940E+06    -37.0085E+06    -22.4571E+06     61.1596E+06    -31.3829E+06    -6.34919E+06         35.9933
            1164     10.1370E-03     2.28289E-03         6.43598         4.78848        -13.2235         4.78621        -13.2212         6.43598     390.932E-03     132.039E-03    -50.7067E-03    -81.3321E-03    -44.4743E-03     125.806E-03    -81.3321E-03     64.5966E-03     18.2053E+06    -30.6125E+06    -58.5733E+06     -23.923E+06     2.63372E+06    -49.6913E+06    -17.3039E+06         34.7248
            1165     9.17691E-03     2.30640E-03         6.58171         5.21885        -13.7813         5.21738        -13.7799         6.58171     328.261E-03     140.168E-03    -55.4841E-03    -84.6840E-03    -50.0018E-03     134.686E-03    -84.6840E-03     63.3306E-03    -9.41053E+06    -41.9971E+06    -85.8368E+06    -25.5185E+06    -63.8968E+06    -47.8290E+06    -27.3339E+06         34.1034
            1166     8.23622E-03     2.32996E-03         6.71230         5.61109        -14.2965         5.61017        -14.2956         6.71230     254.966E-03     149.571E-03    -61.5196E-03    -88.0514E-03    -56.4617E-03     144.513E-03    -88.0514E-03     63.1099E-03    -16.4145E+06    -46.9848E+06    -127.503E+06    -27.2138E+06    -116.704E+06    -46.9848E+06    -32.3202E+06         33.9126
            1167     7.29290E-03     2.35581E-03         6.82712         5.96689        -14.7676         5.96624        -14.7669         6.82712     226.012E-03     159.244E-03    -67.8531E-03    -91.3906E-03    -63.3121E-03     154.703E-03    -91.3906E-03     62.2241E-03    -20.3434E+06    -48.0420E+06    -174.203E+06    -30.2065E+06    -166.681E+06    -45.7015E+06    -31.8892E+06         33.9837
            1168     6.36202E-03     2.38583E-03         6.92664         6.26473        -15.1665         6.26421        -15.1660         6.92664     80.6943E-03     169.295E-03    -74.6507E-03    -94.6445E-03    -70.6270E-03     165.271E-03    -94.6445E-03     60.6996E-03    -24.4170E+06    -41.7193E+06    -210.308E+06    -33.3187E+06    -205.957E+06    -37.1681E+06    -27.1744E+06         34.2010
            1169     5.43624E-03     2.41869E-03         7.01039         6.53964        -15.5205         6.53845        -15.5193         7.01039     168.706E-03     179.074E-03    -81.4510E-03    -97.6227E-03    -78.0467E-03     175.669E-03    -97.6227E-03     57.8699E-03    -33.4069E+06    -39.9105E+06    -224.797E+06    -38.6815E+06    -222.393E+06    -37.0398E+06    -20.1968E+06         34.4873
            1170     4.51727E-03     2.45232E-03         7.07949         6.74604        -15.7876         6.74209        -15.7837         7.07949    -132.782E-03     188.372E-03    -88.1163E-03    -100.255E-03    -85.3640E-03     185.619E-03    -100.255E-03     53.5451E-03    -41.5683E+06    -47.2646E+06    -231.096E+06    -45.3477E+06    -229.934E+06    -44.6469E+06    -13.8826E+06         34.7898
            1171     3.60559E-03     2.48848E-03         7.13111         6.96325        -16.0488         6.95078        -16.0364         7.13111     312.773E-03     196.659E-03    -94.1263E-03    -102.532E-03    -92.1170E-03     194.650E-03    -102.532E-03     46.8696E-03    -43.9958E+06    -50.2837E+06    -233.072E+06    -48.8076E+06    -232.609E+06    -45.9354E+06    -8.46159E+06         35.0717
            1172     2.69931E-03     2.52059E-03         7.17051         7.08408        -16.2084         7.03964        -16.1640         7.17051    -594.781E-03     203.588E-03    -99.1981E-03    -104.390E-03    -97.9316E-03     202.322E-03    -104.390E-03     37.8351E-03    -46.1111E+06    -50.6545E+06    -233.452E+06    -50.7422E+06    -233.364E+06    -46.1111E+06    -3.45795E+06         35.3085
            1173     1.79628E-03     2.54792E-03         7.40264         7.12157        -16.4878         7.16913        -16.3266         7.19388         1.19817     209.052E-03    -103.294E-03    -105.759E-03    -102.657E-03     208.415E-03    -105.759E-03     26.8567E-03    -48.7267E+06    -54.2659E+06    -237.034E+06    -54.2756E+06    -237.024E+06    -48.7267E+06    -809.858E+03         35.4852
            1174     897.910E-06     2.56722E-03         8.13535         7.09589        -17.2010         7.29687        -16.3626         7.09589        -3.46928     212.486E-03    -105.775E-03    -106.712E-03    -105.879E-03     212.269E-03    -106.390E-03     15.0822E-03    -52.3987E+06    -57.2502E+06    -240.499E+06    -56.6625E+06    -240.494E+06    -52.9922E+06    -225.167E+03         35.5951
            1175     15.8584E-03     1.10998E-03         5.38190         2.05544        -10.0342         2.04553        -10.0243         5.38190    -403.442E-03     230.576E-03    -72.4129E-03    -158.163E-03    -126.485E-03     200.966E-03    -74.4808E-03     199.125E-03     129.252E+06     126.098E+06     1.25398E+06     1.71348E+06     127.829E+06     127.061E+06     3.28152E+06         51.3235
            1176     14.9016E-03     1.16907E-03         5.58011         2.36830        -10.3730         2.36756        -10.3722         5.58011     168.567E-03     139.252E-03    -56.7583E-03    -82.4935E-03    -56.5598E-03     130.072E-03    -73.5124E-03     80.6320E-03     112.363E+06     102.200E+06    -4.03039E+06    -3.32789E+06     111.660E+06     102.200E+06     8.32405E+06         48.2334
            1177     13.8897E-03     1.12466E-03         5.78503         2.81008        -10.8707         2.80843        -10.8690         5.78503     271.968E-03     121.103E-03    -46.1066E-03    -74.9965E-03    -39.0485E-03     114.045E-03    -74.9965E-03     61.0442E-03     106.899E+06     76.7617E+06    -9.39243E+06    -8.49940E+06     106.006E+06     76.7617E+06     9.57412E+06         44.5380
            1178     12.9741E-03     1.12363E-03         5.98756         3.30433        -11.4784         3.30228        -11.4763         5.98756     318.651E-03     119.772E-03    -42.3895E-03    -77.3824E-03    -37.9413E-03     115.324E-03    -77.3824E-03     47.1212E-03     108.372E+06     46.9847E+06    -11.2961E+06    -10.9521E+06     108.028E+06     46.9847E+06     5.34899E+06         41.0049
            1179     11.9743E-03     1.12899E-03         6.18219         3.81459        -12.1250         3.81291        -12.1233         6.18219     294.385E-03     119.737E-03    -39.5124E-03    -80.2243E-03    -36.6218E-03     116.846E-03    -80.2243E-03     38.2552E-03     95.8434E+06     7.00084E+06    -15.9635E+06    -12.5968E+06     95.7694E+06     3.70811E+06     401.408E+03         38.2022
            1180     11.0369E-03     1.13468E-03         6.36572         4.32373        -12.7731         4.32248        -12.7719         6.36572     263.591E-03     126.844E-03    -43.4013E-03    -83.4425E-03    -40.8628E-03     124.305E-03    -83.4425E-03     36.5192E-03     67.1519E+06    -14.8862E+06    -48.3727E+06    -14.5492E+06     66.8149E+06    -48.3727E+06    -4.14891E+06         36.3180
            1181     10.0652E-03     1.14571E-03         6.53536         4.81908        -13.3990         4.81824        -13.3982         6.53536     219.748E-03     134.475E-03    -47.4224E-03    -87.0522E-03    -45.3206E-03     132.373E-03    -87.0522E-03     35.1778E-03     21.6192E+06    -28.4128E+06    -82.1891E+06    -15.4477E+06     8.65418E+06    -82.1891E+06    -10.6865E+06         35.2648
            1182     9.11968E-03     1.15514E-03         6.68936         5.28052        -13.9862         5.28000        -13.9857         6.68936     179.282E-03     144.079E-03    -53.0273E-03    -91.0513E-03    -51.0722E-03     142.123E-03    -91.0513E-03     34.6631E-03    -11.2259E+06    -62.9875E+06    -99.1659E+06    -19.1804E+06    -62.1950E+06    -92.0038E+06    -17.9780E+06         34.8348
            1183     8.16851E-03     1.16788E-03         6.82722         5.69409        -14.5261         5.69375        -14.5258         6.82722     142.851E-03     154.603E-03    -59.3153E-03    -95.2882E-03    -57.5615E-03     152.850E-03    -95.2882E-03     34.6283E-03    -20.6834E+06    -86.2027E+06    -134.229E+06    -25.9398E+06    -123.539E+06    -91.6365E+06    -20.7436E+06         34.8214
            1184     7.23136E-03     1.18228E-03         6.94890         6.06348        -15.0195         6.06321        -15.0192         6.94890     138.711E-03     165.959E-03    -66.2268E-03    -99.7325E-03    -64.6215E-03     164.354E-03    -99.7325E-03     34.5683E-03    -29.3067E+06    -83.2837E+06    -180.811E+06    -32.6701E+06    -177.448E+06    -83.2837E+06    -19.6588E+06         35.0662
            1185     6.29571E-03     1.19727E-03         7.05540         6.37189        -15.4381         6.37168        -15.4379         7.05540     54.0027E-03     178.505E-03    -74.2003E-03    -104.304E-03    -72.7849E-03     177.089E-03    -104.304E-03     33.8834E-03     -37.763E+06    -70.0461E+06    -220.518E+06    -39.6964E+06    -218.585E+06    -70.0461E+06    -16.7864E+06         35.4609
            1186     5.37147E-03     1.21524E-03         7.14642         6.65576        -15.8104         6.65524        -15.8098         7.14642     109.296E-03     191.877E-03    -83.0308E-03    -108.846E-03    -81.8002E-03     190.646E-03    -108.846E-03     32.7228E-03    -44.4837E+06    -57.4500E+06    -237.155E+06    -45.3334E+06    -236.305E+06    -57.4500E+06    -11.3806E+06         35.9311
            1187     4.45532E-03     1.23512E-03         7.22272         6.87342        -16.0881         6.87165        -16.0863         7.22272    -82.5594E-03     205.624E-03    -92.4454E-03    -113.179E-03    -91.4450E-03     204.624E-03    -113.179E-03     30.8135E-03    -49.0337E+06    -55.5136E+06    -238.431E+06    -49.3362E+06    -238.128E+06    -55.5136E+06    -6.66328E+06         36.4207
            1188     3.54840E-03     1.25425E-03         7.28081         7.09835        -16.3587         7.09241        -16.3528         7.28081     209.872E-03     219.335E-03    -102.160E-03    -117.176E-03    -101.413E-03     218.589E-03    -117.176E-03     27.4675E-03    -51.9155E+06    -56.1859E+06    -239.923E+06    -52.3755E+06    -239.750E+06    -55.8989E+06    -5.05393E+06         36.8838
            1189     2.65130E-03     1.27445E-03         7.32763         7.20197        -16.5035         7.18116        -16.4827         7.32763    -364.256E-03     231.810E-03    -111.166E-03    -120.644E-03    -110.679E-03     231.324E-03    -120.644E-03     22.8047E-03    -52.3595E+06    -55.1541E+06    -239.872E+06    -53.9682E+06    -239.809E+06    -53.6081E+06    -2.62553E+06         37.2836
            1190     1.76251E-03     1.29016E-03         7.53441         7.24749        -16.7840         7.35345        -16.7055         7.34997     823.294E-03     241.998E-03    -118.601E-03    -123.396E-03    -118.354E-03     241.750E-03    -123.396E-03     16.4238E-03    -51.9388E+06    -55.7663E+06    -239.748E+06    -55.4738E+06    -239.745E+06    -52.2344E+06    -683.780E+03         37.5923
            1191     878.591E-06     1.30161E-03         8.10603         7.00724        -17.1238         7.68885        -16.7067         7.00724        -2.26182     249.104E-03    -123.682E-03    -125.422E-03    -123.986E-03     249.023E-03    -125.037E-03     8.90435E-03    -53.9296E+06    -57.5440E+06    -239.867E+06    -57.0775E+06    -239.864E+06    -54.3995E+06     7.96580E+03         37.7912
            1192     941.976E-06     62.9397E-03         9.00420         1.61279        -6.81958        -2.41631         4.60093         1.61279        -5.46790     119.612E-03    -59.5734E-03    -60.0387E-03    -59.9305E-03     119.610E-03    -59.6792E-03     178.786E-06    -66.5887E+06    -75.1873E+06    -252.395E+06    -71.8132E+06    -252.384E+06    -69.9738E+06     148.652E+03         29.6688
            1193     1.88346E-03     62.9396E-03         6.83207    -407.711E-03        -2.62674    -434.165E-03         4.63950    -407.711E-03     728.349E-03     119.488E-03    -59.6530E-03    -59.8352E-03    -59.6645E-03     119.487E-03    -59.8230E-03    -1.40006E-06    -60.7978E+06    -69.8456E+06    -252.649E+06    -68.6158E+06    -252.640E+06    -62.0373E+06    -115.874E+03         29.7630
            1194     2.82739E-03     62.9390E-03         5.70705    -425.852E-03        -1.48238    -495.125E-03         4.71979    -425.852E-03        -2.86309     119.562E-03    -59.7231E-03    -59.8386E-03    -59.7343E-03     119.561E-03    -59.8265E-03     425.641E-06    -54.1714E+06    -65.7718E+06    -246.746E+06    -65.7817E+06    -246.736E+06    -54.1714E+06     542.173E+03         29.9217
            1195     3.76888E-03     62.9391E-03         5.28160    -453.535E-03        -1.03411    -582.527E-03         4.83001    -453.535E-03        -1.49004     119.746E-03    -59.8378E-03    -59.9084E-03    -59.8674E-03     119.745E-03    -59.8771E-03     873.303E-06    -44.9234E+06    -62.7236E+06    -238.403E+06    -62.7315E+06    -238.395E+06    -44.9234E+06     579.394E+03         30.1531
            1196     4.71071E-03     62.9397E-03         5.41859    -489.994E-03        -1.13853    -692.571E-03         4.97264    -489.994E-03        -2.99591     119.727E-03    -59.7828E-03    -59.9445E-03    -59.7972E-03     119.722E-03    -59.9252E-03     1.73418E-03    -35.5089E+06    -58.0368E+06    -224.857E+06    -58.0484E+06    -224.846E+06    -35.5089E+06     952.673E+03         30.4671
            1197     5.65318E-03     62.9417E-03         5.35825    -532.010E-03        -1.04022    -790.709E-03         5.10873    -532.010E-03        -2.35796     119.516E-03    -59.5766E-03    -59.9393E-03    -59.5603E-03     119.500E-03    -59.9393E-03     3.26107E-03    -26.5695E+06    -53.6016E+06    -208.464E+06    -53.6141E+06    -208.452E+06    -26.5695E+06     722.948E+03         30.8773
            1198     6.59511E-03     62.9457E-03         5.45355    -576.180E-03        -1.09222    -887.587E-03         5.24892    -576.180E-03        -1.79488     119.237E-03    -59.3508E-03    -59.8859E-03    -59.3118E-03     119.198E-03    -59.8859E-03     5.15888E-03    -23.6496E+06    -51.1451E+06    -184.219E+06    -51.1560E+06    -184.208E+06    -23.6496E+06    -519.302E+03         31.4045
            1199     7.53829E-03     62.9507E-03         5.42657    -622.716E-03        -1.01320        -1.00210         5.41547    -622.716E-03    -516.836E-03     118.882E-03    -59.0807E-03    -59.8010E-03    -59.0005E-03     118.802E-03    -59.8010E-03     7.43545E-03    -20.1958E+06    -46.1387E+06    -152.432E+06    -46.2947E+06    -152.276E+06    -20.1958E+06     1.13751E+06         32.0832
            1200     8.48097E-03     62.9607E-03         5.63833    -673.521E-03        -1.17102        -1.14571         5.61303    -673.521E-03    -817.509E-03     118.577E-03    -58.8743E-03    -59.7023E-03    -58.7117E-03     118.414E-03    -59.7023E-03     10.5670E-03    -13.8391E+06    -38.8814E+06    -112.323E+06    -39.0649E+06    -112.140E+06    -13.8391E+06     2.36330E+06         32.9759
            1201     9.42428E-03     62.9714E-03         5.83712    -729.251E-03        -1.31265        -1.29359         5.81805    -729.251E-03    -314.716E-03     118.459E-03    -58.8735E-03    -59.5859E-03    -58.5171E-03     118.103E-03    -59.5859E-03     15.5634E-03    -11.2491E+06    -35.3288E+06    -69.6832E+06    -36.1304E+06    -68.8815E+06    -11.2491E+06     1.73964E+06         34.2004
            1202     10.3670E-03     62.9928E-03         6.01787    -788.305E-03        -1.43308        -1.42935         6.01414    -788.305E-03     324.609E-03     118.573E-03    -59.0363E-03    -59.5370E-03    -58.5580E-03     118.050E-03    -59.4921E-03     19.2446E-03    -2.29508E+06    -21.4438E+06    -45.7461E+06    -36.9252E+06    -23.6075E+06    -8.95232E+06     927.169E+03         35.9730
            1203     11.3107E-03     63.0124E-03         6.25031    -849.852E-03        -1.60434        -1.57636         6.22233    -849.852E-03     803.336E-03     118.945E-03    -59.1567E-03    -59.7885E-03    -58.6246E-03     117.993E-03    -59.3680E-03     25.4013E-03     49.6463E+06    -10.2859E+06    -34.8841E+06    -34.8026E+06     49.5649E+06    -10.2859E+06     576.640E+03         38.6476
            1204     12.2516E-03     63.0452E-03         6.51270    -915.198E-03        -1.79872        -1.74323         6.45721    -915.198E-03         1.35097     120.274E-03    -59.3111E-03    -60.9632E-03    -58.2310E-03     117.588E-03    -59.3566E-03     42.2886E-03     97.6030E+06     114.162E+03    -31.0310E+06    -31.0049E+06     97.5769E+06     114.162E+03     1.29535E+06         42.6830
            1205     13.1931E-03     63.1058E-03         6.75540    -985.331E-03        -1.96268        -1.91514         6.70787    -985.331E-03         1.27094     122.761E-03    -59.4994E-03    -63.2616E-03    -57.2323E-03     116.732E-03    -59.4994E-03     64.8944E-03     105.621E+06     33.3861E+06    -26.5253E+06    -26.5010E+06     105.597E+06     33.3861E+06     1.33399E+06         48.4282
            1206     14.1447E-03     63.1866E-03         6.99806        -1.06220        -2.11771        -2.08611         6.96645        -1.06220         1.06379     145.603E-03    -59.6693E-03    -85.9339E-03    -60.2718E-03     119.941E-03    -59.6693E-03     138.087E-03     113.480E+06     72.7605E+06    -21.5824E+06    -21.5223E+06     113.420E+06     72.7605E+06     1.93536E+06         55.6931
            1207     15.0825E-03     63.4156E-03         7.25074        -1.15160        -2.27949        -2.26627         7.23752        -1.15160     483.287E-03     206.307E-03    -59.8543E-03    -146.453E-03    -69.1552E-03     129.010E-03    -59.8543E-03     288.691E-03     126.968E+06     106.352E+06    -15.9161E+06    -15.8173E+06     126.869E+06     106.352E+06     29.1066E+03         63.3868
            1208     16.0232E-03     63.8394E-03         7.52675        -1.25027        -2.46081        -2.45464         7.52059        -1.25027     343.711E-03     207.009E-03    -59.9312E-03    -147.077E-03    -66.6788E-03     126.610E-03    -59.9312E-03     294.750E-03     141.031E+06     125.474E+06    -7.74522E+06    -7.68339E+06     140.969E+06     125.474E+06    -2.35797E+06         69.7024
            1209     941.891E-06     64.0657E-03         8.80207         1.83540        -6.90659        -2.87662         4.77211         1.83540        -5.30342     119.363E-03    -59.4762E-03    -59.8865E-03    -59.5868E-03     119.362E-03    -59.7748E-03     253.356E-06    -67.8779E+06    -74.0905E+06    -251.821E+06    -71.5526E+06    -251.809E+06    -70.4277E+06    -1.10416E+06         29.6556
            1210     1.88554E-03     64.0646E-03         6.84322    -531.611E-03        -2.58991    -572.957E-03         4.82627    -531.611E-03     667.646E-03     119.375E-03    -59.5669E-03    -59.8086E-03    -59.6604E-03     119.375E-03    -59.7147E-03     224.300E-06    -63.0359E+06    -70.5452E+06    -253.724E+06    -69.3125E+06    -253.717E+06    -64.2753E+06     80.8081E+03         29.7500
            1211     2.82634E-03     64.0651E-03         5.80980    -553.010E-03        -1.53712    -619.382E-03         4.89206    -553.010E-03        -2.82964     119.605E-03    -59.7384E-03    -59.8668E-03    -59.8243E-03     119.605E-03    -59.7805E-03     295.859E-06    -53.5700E+06    -65.9376E+06    -248.550E+06    -65.9464E+06    -248.541E+06    -53.5700E+06     969.696E+03         29.9091
            1212     3.76905E-03     64.0650E-03         5.43230    -580.997E-03        -1.13389    -716.068E-03         5.01448    -580.997E-03        -1.51893     119.658E-03    -59.7594E-03    -59.8983E-03    -59.8028E-03     119.656E-03    -59.8537E-03     696.599E-06    -42.3679E+06    -60.8400E+06    -237.943E+06    -60.8479E+06    -237.935E+06    -42.3679E+06     584.593E+03         30.1408
            1213     4.71118E-03     64.0663E-03         5.55568    -616.380E-03        -1.22617    -800.269E-03         5.12978    -616.380E-03        -3.00844     119.534E-03    -59.6377E-03    -59.8965E-03    -59.6488E-03     119.529E-03    -59.8801E-03     1.71732E-03    -34.4977E+06    -56.0004E+06    -225.965E+06    -56.0130E+06    -225.953E+06    -34.4977E+06    -44.5183E+03         30.4553
            1214     5.65312E-03     64.0673E-03         5.50869    -655.410E-03        -1.14332    -899.978E-03         5.26534    -655.410E-03        -2.39269     119.381E-03    -59.5016E-03    -59.8793E-03    -59.4841E-03     119.363E-03    -59.8793E-03     3.37458E-03    -25.5129E+06    -51.0041E+06    -208.856E+06    -51.0258E+06    -208.835E+06    -25.5129E+06     642.060E+03         30.8661
            1215     6.59643E-03     64.0714E-03         5.61430    -698.668E-03        -1.20796        -1.01226         5.41860    -698.668E-03        -1.81272     119.160E-03    -59.3171E-03    -59.8430E-03    -59.2792E-03     119.122E-03    -59.8430E-03     5.11946E-03    -18.9162E+06    -47.2628E+06    -185.117E+06    -47.2927E+06    -185.087E+06    -18.9162E+06     1.65740E+06         31.3938
            1216     7.53804E-03     64.0769E-03         5.60558    -746.285E-03        -1.15040        -1.13759         5.59278    -746.285E-03    -571.890E-03     118.812E-03    -59.0618E-03    -59.7501E-03    -58.9812E-03     118.731E-03    -59.7501E-03     7.42609E-03    -18.6155E+06    -45.9248E+06    -152.828E+06    -45.9509E+06    -152.802E+06    -18.6155E+06     466.020E+03         32.0723
            1217     8.48165E-03     64.0848E-03         5.80093    -797.736E-03        -1.29135        -1.26265         5.77223    -797.736E-03    -887.862E-03     118.600E-03    -58.9546E-03    -59.6457E-03    -58.7923E-03     118.438E-03    -59.6457E-03     10.5911E-03    -16.8274E+06    -43.6425E+06    -112.805E+06    -43.6533E+06    -112.794E+06    -16.8274E+06    -372.917E+03         32.9631
            1218     9.42423E-03     64.0983E-03         5.97561    -852.215E-03        -1.41048        -1.39024         5.95537    -852.215E-03    -417.846E-03     118.642E-03    -59.0841E-03    -59.5579E-03    -58.7334E-03     118.291E-03    -59.5579E-03     15.4487E-03    -12.8774E+06    -38.5037E+06    -72.0751E+06    -39.0182E+06    -71.5606E+06    -12.8774E+06     1.72714E+06         34.1821
            1219     10.3673E-03     64.1173E-03         6.13968    -909.176E-03        -1.52059        -1.51913         6.13822    -909.176E-03     201.138E-03     118.574E-03    -59.0998E-03    -59.4745E-03    -58.5811E-03     118.056E-03    -59.4745E-03     19.1616E-03    -695.615E+03    -20.4876E+06    -43.1479E+06    -34.4834E+06    -21.5418E+06    -8.30591E+06     1.84076E+06         35.9443
            1220     11.3101E-03     64.1389E-03         6.35453    -968.586E-03        -1.67907        -1.65765         6.33310    -968.586E-03     673.147E-03     118.615E-03    -58.8946E-03    -59.7208E-03    -58.2939E-03     117.639E-03    -59.3452E-03     25.6108E-03     49.2221E+06    -9.30126E+06    -33.3119E+06    -33.2215E+06     49.1318E+06    -9.30126E+06     347.403E+03         38.6060
            1221     12.2531E-03     64.1733E-03         6.58627        -1.03143        -1.84680        -1.80295         6.54242        -1.03143         1.21058     119.841E-03    -59.0531E-03    -60.7879E-03    -57.7490E-03     117.053E-03    -59.3038E-03     43.0050E-03     95.1808E+06    -71.9057E+03    -31.8211E+06    -31.8025E+06     95.1622E+06    -71.9057E+03     911.276E+03         42.6329
            1222     13.1998E-03     64.2280E-03         6.79594        -1.09843        -1.98547        -1.94862         6.75910        -1.09843         1.12249     123.469E-03    -59.4449E-03    -64.0240E-03    -57.8514E-03     117.296E-03    -59.4449E-03     66.0581E-03     105.853E+06     32.6569E+06    -27.0998E+06    -27.0779E+06     105.831E+06     32.6569E+06     1.20419E+06         48.3808
            1223     14.1368E-03     64.3142E-03         7.00491        -1.17249        -2.11774        -2.09395         6.98112        -1.17249     924.604E-03     144.795E-03    -59.6171E-03    -85.1781E-03    -59.4965E-03     119.114E-03    -59.6171E-03     137.222E-03     113.970E+06     72.3489E+06    -20.7942E+06    -20.7218E+06     113.897E+06     72.3489E+06     1.09279E+06         55.6727
            1224     15.0896E-03     64.5360E-03         7.22274        -1.26149        -2.25715        -2.24705         7.21264        -1.26149     381.101E-03     205.256E-03    -59.7159E-03    -145.540E-03    -66.8270E-03     126.543E-03    -59.7159E-03     289.581E-03     129.104E+06     109.326E+06    -11.9965E+06    -11.9276E+06     129.035E+06     109.326E+06     419.118E+03         63.4188
            1225     16.0357E-03     64.9814E-03         7.45192        -1.36003        -2.40611        -2.39993         7.44574        -1.36003     300.222E-03     207.214E-03    -59.7653E-03    -147.449E-03    -68.2075E-03     127.973E-03    -59.7653E-03     292.195E-03     141.755E+06     128.078E+06    -5.56381E+06    -5.53158E+06     141.723E+06     128.078E+06    -129.850E+03         69.7723
            1226     943.145E-06     65.1900E-03         8.03765         2.01477        -6.41373        -3.37616         5.00007         2.01477        -4.51966     119.254E-03    -59.2276E-03    -60.0266E-03    -59.8328E-03     119.253E-03    -59.4203E-03    -14.2343E-06    -68.3439E+06    -74.2185E+06    -253.159E+06    -72.9169E+06    -253.150E+06    -69.6543E+06    -783.017E+03         29.6444
            1227     1.88395E-03     65.1912E-03         6.65895    -695.361E-03        -2.31454    -759.370E-03         5.10377    -695.361E-03     418.843E-03     119.563E-03    -59.6966E-03    -59.8661E-03    -59.8399E-03     119.563E-03    -59.7228E-03    -104.711E-06    -61.5772E+06    -69.8052E+06    -253.979E+06    -69.8072E+06    -253.977E+06    -61.5772E+06    -63.2436E+03         29.7377
            1228     2.82720E-03     65.1905E-03         5.87519    -721.849E-03        -1.51359    -784.664E-03         5.14627    -721.849E-03        -2.67476     119.511E-03    -59.6411E-03    -59.8701E-03    -59.7150E-03     119.511E-03    -59.7958E-03     315.950E-06    -53.6560E+06    -64.4100E+06    -248.444E+06    -64.4135E+06    -248.440E+06    -53.6560E+06    -390.136E+03         29.8957
            1229     3.76861E-03     65.1918E-03         5.60120    -748.393E-03        -1.21431    -876.573E-03         5.26347    -748.393E-03        -1.56970     119.362E-03    -59.5326E-03    -59.8295E-03    -59.5470E-03     119.360E-03    -59.8133E-03     973.582E-06    -43.8166E+06    -59.7503E+06    -239.425E+06    -59.7532E+06    -239.422E+06    -43.8166E+06     27.8338E+03         30.1270
            1230     4.71136E-03     65.1911E-03         5.73016    -780.278E-03        -1.31343    -937.582E-03         5.35431    -780.278E-03        -2.95070     119.298E-03    -59.4865E-03    -59.8118E-03    -59.4807E-03     119.292E-03    -59.8118E-03     1.82002E-03    -34.0880E+06    -56.0942E+06    -226.897E+06    -56.1140E+06    -226.877E+06    -34.0880E+06     467.028E+03         30.4420
            1231     5.65435E-03     65.1939E-03         5.72543    -815.746E-03        -1.28015        -1.04882         5.49410    -815.746E-03        -2.43208     119.146E-03    -59.3525E-03    -59.7938E-03    -59.3354E-03     119.129E-03    -59.7938E-03     3.34184E-03    -26.5359E+06    -53.0959E+06    -210.837E+06    -53.1258E+06    -210.807E+06    -26.5359E+06     986.228E+03         30.8544
            1232     6.59570E-03     65.1968E-03         5.83106    -858.316E-03        -1.35047        -1.17409         5.65467    -858.316E-03        -1.80799     119.011E-03    -59.2588E-03    -59.7520E-03    -59.2173E-03     118.969E-03    -59.7520E-03     5.31769E-03    -19.9750E+06    -48.2640E+06    -186.463E+06    -48.2942E+06    -186.433E+06    -19.9750E+06     1.52495E+06         31.3839
            1233     7.53985E-03     65.2023E-03         5.84403    -906.490E-03        -1.31457        -1.30149         5.83095    -906.490E-03    -605.471E-03     118.945E-03    -59.2657E-03    -59.6794E-03    -59.1892E-03     118.869E-03    -59.6794E-03     7.30802E-03    -16.8209E+06    -42.5405E+06    -149.693E+06    -42.5602E+06    -149.674E+06    -16.8209E+06     527.926E+03         32.0635
            1234     8.48162E-03     65.2107E-03         6.02068    -957.759E-03        -1.44043        -1.41106         5.99131    -957.759E-03    -911.299E-03     118.790E-03    -59.1869E-03    -59.6033E-03    -59.0260E-03     118.629E-03    -59.6033E-03     10.4523E-03    -16.9254E+06    -39.9149E+06    -114.949E+06    -39.9486E+06    -114.915E+06    -16.9254E+06     425.209E+03         32.9528
            1235     9.42457E-03     65.2236E-03         6.17525        -1.01066        -1.54391        -1.52234         6.15368        -1.01066    -487.514E-03     118.740E-03    -59.2100E-03    -59.5299E-03    -58.8559E-03     118.386E-03    -59.5299E-03     15.5881E-03    -15.2151E+06    -38.8073E+06    -73.9011E+06    -38.8488E+06    -73.8595E+06    -15.2151E+06     669.499E+03         34.1659
            1236     10.3672E-03     65.2433E-03         6.32352        -1.06524        -1.64076        -1.64024         6.32300        -1.06524     115.846E-03     118.434E-03    -58.9868E-03    -59.4471E-03    -58.4493E-03     117.896E-03    -59.4471E-03     19.4687E-03    -3.31509E+06    -22.8297E+06    -41.7138E+06    -36.5553E+06    -20.7047E+06    -10.5986E+06     740.107E+03         35.9174
            1237     11.3098E-03     65.2652E-03         6.51732        -1.12183        -1.78318        -1.76559         6.49972        -1.12183     580.099E-03     118.061E-03    -58.6855E-03    -59.3760E-03    -57.7634E-03     117.068E-03    -59.3042E-03     25.8617E-03     48.7012E+06    -8.98110E+06    -32.9756E+06    -32.9100E+06     48.6356E+06    -8.98110E+06     1.35233E+06         38.5664
            1238     12.2556E-03     65.2957E-03         6.70861        -1.18107        -1.91955        -1.88294         6.67199        -1.18107         1.12084     119.643E-03    -59.0057E-03    -60.6370E-03    -57.7869E-03     117.043E-03    -59.2564E-03     41.7645E-03     95.8438E+06     2.72309E+06    -30.3562E+06    -30.3460E+06     95.8336E+06     2.72309E+06     530.397E+03         42.5839
            1239     13.1965E-03     65.3558E-03         6.87824        -1.24350        -2.02883        -1.99829         6.84770        -1.24350         1.03096     123.909E-03    -59.4231E-03    -64.4858E-03    -58.4292E-03     117.852E-03    -59.4231E-03     65.3601E-03     105.221E+06     34.2337E+06    -27.2513E+06    -27.2466E+06     105.216E+06     34.2337E+06     150.854E+03         48.3337
            1240     14.1435E-03     65.4422E-03         7.04912        -1.31272        -2.13762        -2.11818         7.02968        -1.31272     839.888E-03     143.612E-03    -59.6358E-03    -83.9767E-03    -59.7808E-03     119.417E-03    -59.6358E-03     133.414E-03     114.827E+06     72.9813E+06    -22.0630E+06    -22.0351E+06     114.799E+06     72.9813E+06    -970.082E+03         55.6463
            1241     15.0844E-03     65.6528E-03         7.21339        -1.39798        -2.24145        -2.23320         7.20514        -1.39798     322.921E-03     204.001E-03    -59.7385E-03    -144.262E-03    -66.2233E-03     125.962E-03    -59.7385E-03     286.529E-03     127.585E+06     106.983E+06    -16.4045E+06    -16.3771E+06     127.558E+06     106.983E+06    -1.12322E+06         63.4382
            1242     16.0306E-03     66.1061E-03         7.36599        -1.49254        -2.33959        -2.33349         7.35989        -1.49254     276.586E-03     207.041E-03    -59.7439E-03    -147.297E-03    -67.3033E-03     127.047E-03    -59.7439E-03     292.825E-03     139.967E+06     126.130E+06    -8.24408E+06    -8.22185E+06     139.945E+06     126.130E+06     725.032E+03         69.8486
            1243     941.594E-06     66.3171E-03         6.97261         2.15582        -5.55886        -3.90320         5.31696         2.15582        -3.13170     119.560E-03    -59.4687E-03    -60.0915E-03    -60.0778E-03     119.558E-03    -59.4798E-03     192.373E-06    -66.3049E+06    -70.4854E+06     -251.66E+06    -70.0967E+06    -251.626E+06    -66.7278E+06     866.643E+03         29.6344
            1244     1.88481E-03     66.3163E-03         6.37407    -892.850E-03        -1.90889    -978.135E-03         5.44332    -892.850E-03    -10.4819E-03     119.530E-03    -59.6667E-03    -59.8635E-03    -59.7158E-03     119.530E-03    -59.8141E-03     47.5896E-06    -60.2381E+06    -67.6842E+06    -253.473E+06    -67.6861E+06    -253.471E+06    -60.2381E+06    -467.866E+03         29.7265
            1245     2.82601E-03     66.3170E-03         5.91624    -920.293E-03        -1.43695    -957.144E-03         5.43644    -920.293E-03        -2.39356     119.203E-03    -59.4183E-03    -59.7851E-03    -59.4180E-03     119.203E-03    -59.7851E-03     353.114E-06    -52.9859E+06    -63.8890E+06    -249.117E+06    -63.8928E+06    -249.113E+06    -52.9859E+06    -793.590E+03         29.8832
            1246     3.76995E-03     66.3160E-03         5.80897    -941.547E-03        -1.30484        -1.06212         5.56626    -941.547E-03        -1.64678     119.064E-03    -59.3302E-03    -59.7337E-03    -59.3280E-03     119.062E-03    -59.7337E-03     1.01528E-03    -44.4967E+06    -60.3898E+06    -241.108E+06    -60.3921E+06    -241.105E+06    -44.4967E+06    -426.243E+03         30.1141
            1247     4.71201E-03     66.3180E-03         5.97522    -973.105E-03        -1.44714        -1.13633         5.66441    -973.105E-03        -2.84897     119.075E-03    -59.3634E-03    -59.7113E-03    -59.3575E-03     119.069E-03    -59.7113E-03     1.99376E-03    -34.7756E+06    -55.8645E+06    -229.108E+06    -55.8794E+06    -229.093E+06    -34.7756E+06     1.04502E+06         30.4301
            1248     5.65385E-03     66.3184E-03         6.02359        -1.00998        -1.46712        -1.25239         5.80885        -1.00998        -2.46685     118.954E-03    -59.2636E-03    -59.6901E-03    -59.2470E-03     118.937E-03    -59.6901E-03     3.26819E-03    -26.6013E+06    -51.6641E+06    -211.595E+06    -51.6940E+06    -211.566E+06    -26.6013E+06     1.98684E+06         30.8440
            1249     6.59838E-03     66.3223E-03         6.08939        -1.05231        -1.50048        -1.35213         5.94104        -1.05231        -1.76641     119.004E-03    -59.3536E-03    -59.6507E-03    -59.3103E-03     118.961E-03    -59.6507E-03     5.41913E-03    -21.7961E+06    -47.9978E+06    -184.971E+06    -48.0295E+06    -184.940E+06    -21.7961E+06     139.881E+03         31.3753
            1250     7.53886E-03     66.3286E-03         6.10675        -1.09773        -1.47700        -1.46409         6.09384        -1.09773    -621.469E-03     119.127E-03    -59.5073E-03    -59.6200E-03    -59.4387E-03     119.052E-03    -59.6138E-03     7.27434E-03    -19.4109E+06    -44.5691E+06    -150.803E+06    -44.5995E+06    -150.773E+06    -19.4109E+06    -399.790E+03         32.0558
            1251     8.48206E-03     66.3362E-03         6.28339        -1.14630        -1.60813        -1.57970         6.25496        -1.14630    -901.454E-03     118.976E-03    -59.3860E-03    -59.5900E-03    -59.2399E-03     118.824E-03    -59.5838E-03     10.1689E-03    -16.9056E+06    -41.3526E+06    -116.103E+06    -41.4116E+06    -116.044E+06    -16.9056E+06     685.198E+03         32.9438
            1252     9.42470E-03     66.3493E-03         6.43562        -1.19736        -1.71179        -1.68893         6.41277        -1.19736    -524.139E-03     118.637E-03    -59.1154E-03    -59.5215E-03    -58.7680E-03     118.290E-03    -59.5215E-03     15.4000E-03    -13.8068E+06    -37.8734E+06    -73.5305E+06    -37.9430E+06    -73.4609E+06    -13.8068E+06     690.461E+03         34.1517
            1253     10.3674E-03     66.3695E-03         6.54831        -1.24921        -1.77895        -1.77858         6.54794        -1.24921     86.4610E-03     118.136E-03    -58.7087E-03    -59.4274E-03    -58.2003E-03     117.628E-03    -59.4274E-03     18.8999E-03    -3.24327E+06    -21.2130E+06    -42.4112E+06    -35.6666E+06    -22.0172E+06    -9.18368E+06     1.18090E+06         35.8936
            1254     11.3127E-03     66.3880E-03         6.70173        -1.30118        -1.88986        -1.87309         6.68496        -1.30118     549.629E-03     118.378E-03    -58.8390E-03    -59.5394E-03    -58.1497E-03     117.438E-03    -59.2883E-03     25.1247E-03     48.6857E+06    -8.65829E+06    -34.6413E+06    -34.5521E+06     48.5964E+06    -8.65829E+06     998.223E+03         38.5284
            1255     12.2533E-03     66.4242E-03         6.86247        -1.35480        -2.00501        -1.97102         6.82848        -1.35480         1.09575     120.183E-03    -59.2806E-03    -60.9021E-03    -58.3445E-03     117.625E-03    -59.2806E-03     41.4687E-03     96.5377E+06     3.35403E+06    -32.2907E+06    -32.2785E+06     96.5254E+06     3.35403E+06    -21.9383E+03         42.5317
            1256     13.1976E-03     66.4805E-03         6.99766        -1.41136        -2.09335        -2.06551         6.96982        -1.41136     996.475E-03     123.723E-03    -59.4598E-03    -64.2628E-03    -58.0839E-03     117.544E-03    -59.4598E-03     65.7517E-03     104.259E+06     35.5038E+06    -28.3629E+06    -28.3618E+06     104.258E+06     35.5038E+06    -246.467E+03         48.2829
            1257     14.1377E-03     66.5689E-03         7.11534        -1.47418        -2.16548        -2.14772         7.09758        -1.47418     806.778E-03     143.533E-03    -59.6590E-03    -83.8743E-03    -59.9606E-03     119.620E-03    -59.6590E-03     133.278E-03     114.654E+06     73.7303E+06    -22.3182E+06    -22.2875E+06     114.624E+06     73.7303E+06     287.595E+03         55.6251
            1258     15.0836E-03     66.7776E-03         7.21994        -1.55255        -2.23005        -2.22274         7.21263        -1.55255     310.416E-03     204.838E-03    -59.7943E-03    -145.044E-03    -67.3151E-03     127.109E-03    -59.7943E-03     286.755E-03     128.588E+06     107.740E+06    -15.2026E+06    -15.1659E+06     128.551E+06     107.740E+06     968.992E+03         63.4743
            1259     16.0307E-03     67.2267E-03         7.29445        -1.63939        -2.27916        -2.27359         7.28888        -1.63939     267.011E-03     208.243E-03    -59.8052E-03    -148.438E-03    -66.8219E-03     126.627E-03    -59.8052E-03     296.945E-03     139.638E+06     125.876E+06    -7.82360E+06    -7.81133E+06     139.626E+06     125.876E+06     41.5915E+03         69.9548
            1260     942.703E-06     67.4430E-03         6.16840         2.20124        -4.87020        -4.40111         5.67286         2.22769        -1.24915     119.393E-03    -59.6439E-03    -59.7494E-03    -59.6926E-03     119.391E-03    -59.6981E-03     870.641E-06    -67.2020E+06    -69.7251E+06    -252.330E+06    -69.3445E+06    -252.288E+06    -67.6249E+06     1.60536E+06         29.6255
            1261     1.88381E-03     67.4424E-03         6.17251        -1.10905        -1.56611        -1.19814         5.80454        -1.10905    -594.766E-03     119.205E-03    -59.5057E-03    -59.6994E-03    -59.5052E-03     119.205E-03    -59.6994E-03     231.563E-06    -60.6814E+06    -66.9360E+06    -252.672E+06    -66.9472E+06    -252.661E+06    -60.6814E+06     746.364E+03         29.7179
            1262     2.82780E-03     67.4418E-03         6.03017        -1.13663        -1.41351        -1.16889         5.78556        -1.13663        -2.03088     119.075E-03    -59.4051E-03    -59.6695E-03    -59.4046E-03     119.074E-03    -59.6695E-03     459.533E-06    -53.1449E+06    -65.0750E+06    -249.859E+06    -65.0794E+06    -249.855E+06    -53.1449E+06     301.947E+03         29.8744
            1263     3.76908E-03     67.4418E-03         6.10017        -1.15886        -1.45961        -1.29353         5.93409        -1.15886        -1.77726     118.951E-03    -59.3025E-03    -59.6489E-03    -59.3008E-03     118.950E-03    -59.6489E-03     975.350E-06    -43.9067E+06    -61.6483E+06    -241.701E+06    -61.6507E+06    -241.698E+06    -43.9067E+06    -23.8048E+03         30.1053
            1264     4.71244E-03     67.4426E-03         6.27686        -1.19283        -1.61052        -1.36230         6.02864        -1.19283        -2.70935     118.893E-03    -59.2648E-03    -59.6282E-03    -59.2598E-03     118.888E-03    -59.6282E-03     1.81408E-03    -35.5845E+06    -57.0712E+06    -230.784E+06    -57.0774E+06    -230.777E+06    -35.5845E+06    -129.719E+03         30.4216
            1265     5.65596E-03     67.4442E-03         6.35929        -1.23013        -1.66662        -1.46940         6.16206        -1.23013        -2.47700     119.078E-03    -59.4307E-03    -59.6474E-03    -59.4414E-03     119.066E-03    -59.6247E-03     2.85565E-03    -26.4796E+06    -50.2446E+06    -211.308E+06    -50.3122E+06    -211.240E+06    -26.4796E+06    -583.398E+03         30.8361
            1266     6.59639E-03     67.4477E-03         6.39014        -1.27102        -1.66962        -1.55312         6.27364        -1.27102        -1.68250     119.080E-03    -59.4243E-03    -59.6557E-03    -59.4080E-03     119.041E-03    -59.6329E-03     5.03738E-03    -17.7088E+06    -44.4603E+06    -184.982E+06    -44.6251E+06    -184.817E+06    -17.7088E+06     379.044E+03         31.3676
            1267     7.54069E-03     67.4548E-03         6.42088        -1.31359        -1.66485        -1.65206         6.40809        -1.31359    -616.619E-03     119.031E-03    -59.4154E-03    -59.6158E-03    -59.3470E-03     118.957E-03    -59.6096E-03     7.25828E-03    -14.8373E+06    -42.8802E+06    -153.299E+06    -42.9965E+06    -153.183E+06    -14.8373E+06     1.45961E+06         32.0479
            1268     8.48193E-03     67.4623E-03         6.57068        -1.35818        -1.77471        -1.74833         6.54430        -1.35818    -853.681E-03     118.967E-03    -59.3944E-03    -59.5723E-03    -59.2420E-03     118.808E-03    -59.5662E-03     10.3339E-03    -13.8114E+06    -40.8081E+06    -115.220E+06    -40.8443E+06    -115.184E+06    -13.8114E+06     452.727E+03         32.9346
            1269     9.42408E-03     67.4755E-03         6.70190        -1.40431        -1.86587        -1.84214         6.67817        -1.40431    -514.368E-03     118.721E-03    -59.1145E-03    -59.6067E-03    -58.8724E-03     118.377E-03    -59.5049E-03     15.3933E-03    -12.8258E+06    -38.3034E+06    -73.9928E+06    -38.3504E+06    -73.9457E+06    -12.8258E+06     385.810E+03         34.1385
            1270     10.3685E-03     67.4931E-03         6.78730        -1.45069        -1.91588        -1.91513         6.78656        -1.45069     119.777E-03     118.620E-03    -59.0643E-03    -59.5560E-03    -58.7074E-03     118.143E-03    -59.4357E-03     18.3882E-03    -3.51218E+06    -21.4432E+06    -43.4820E+06    -35.7435E+06    -23.4510E+06    -9.24281E+06     1.13483E+06         35.8705
            1271     11.3090E-03     67.5158E-03         6.90995        -1.49663        -2.00618        -1.98842         6.89220        -1.49663     575.100E-03     118.657E-03    -59.1319E-03    -59.5253E-03    -58.3891E-03     117.716E-03    -59.3273E-03     25.0140E-03     48.8936E+06    -7.66976E+06    -32.6797E+06    -32.5803E+06     48.7943E+06    -7.66976E+06     1.12295E+06         38.4896
            1272     12.2537E-03     67.5491E-03         7.03565        -1.54363        -2.09913        -2.06427         7.00078        -1.54363         1.12632     120.034E-03    -59.2349E-03    -60.7995E-03    -58.0891E-03     117.404E-03    -59.3150E-03     42.0106E-03     96.4729E+06     3.90446E+06    -31.1850E+06    -31.1490E+06     96.4368E+06     3.90446E+06     1.02622E+06         42.4792
            1273     13.1962E-03     67.6070E-03         7.12749        -1.59281        -2.15809        -2.13011         7.09951        -1.59281         1.01091     123.173E-03    -59.4610E-03    -63.7120E-03    -57.5154E-03     116.976E-03    -59.4610E-03     65.7146E-03     103.642E+06     34.8721E+06    -30.1053E+06    -30.0833E+06     103.620E+06     34.8721E+06     1.10220E+06         48.2364
            1274     14.1435E-03     67.6941E-03         7.19241        -1.64728        -2.19307        -2.17474         7.17408        -1.64728     824.648E-03     143.567E-03    -59.6223E-03    -83.9447E-03    -59.6061E-03     119.228E-03    -59.6223E-03     134.286E-03     112.552E+06     71.9661E+06    -24.2994E+06    -24.2314E+06     112.484E+06     71.9661E+06     152.090E+03         55.6197
            1275     15.0865E-03     67.9046E-03         7.23481        -1.71610        -2.21527        -2.20774         7.22728        -1.71610     344.691E-03     204.684E-03    -59.7850E-03    -144.899E-03    -68.1507E-03     127.936E-03    -59.7850E-03     285.735E-03     128.003E+06     108.088E+06    -14.4565E+06    -14.3800E+06     127.927E+06     108.088E+06    -603.481E+03         63.5359
            1276     16.0288E-03     68.3506E-03         7.24358        -1.79171        -2.22016        -2.21484         7.23826        -1.79171     284.874E-03     207.807E-03    -59.8614E-03    -147.945E-03    -67.2118E-03     127.073E-03    -59.8614E-03     295.736E-03     140.846E+06     128.111E+06    -6.07299E+06    -6.04513E+06     140.819E+06     128.111E+06    -93.5284E+03         70.0797
            1277     941.977E-06     68.5679E-03         6.31595         2.20085        -5.09620        -4.85689         6.05018         2.22731     913.055E-03     118.873E-03    -59.3499E-03    -59.5233E-03    -59.4231E-03     118.873E-03    -59.4495E-03     365.533E-06    -68.7567E+06    -70.1127E+06    -255.146E+06    -69.9283E+06    -255.132E+06    -68.9551E+06    -155.208E+03         29.6202
            1278     1.88596E-03     68.5679E-03         6.32032        -1.32643        -1.57505        -1.44097         6.20007        -1.34025        -1.28549     118.913E-03    -59.3481E-03    -59.5645E-03    -59.4353E-03     118.912E-03    -59.4771E-03     203.425E-06    -60.7503E+06    -66.1644E+06    -254.053E+06    -66.1850E+06    -254.033E+06    -60.7503E+06     1.10459E+06         29.7130
            1279     2.82696E-03     68.5668E-03         6.30473        -1.36036        -1.54791        -1.42710         6.19775        -1.37418        -1.62898     119.082E-03    -59.4558E-03    -59.6259E-03    -59.5429E-03     119.081E-03    -59.5385E-03     250.199E-06    -50.4286E+06    -62.9644E+06    -248.979E+06    -62.9748E+06    -248.968E+06    -50.4286E+06     1.26076E+06         29.8701
            1280     3.77055E-03     68.5675E-03         6.46589        -1.40046        -1.66687        -1.54003         6.33905        -1.40046        -1.91906     119.066E-03    -59.4374E-03    -59.6287E-03    -59.4681E-03     119.065E-03    -59.5970E-03     675.704E-06    -40.3718E+06    -59.0365E+06    -241.992E+06    -59.0414E+06    -241.987E+06    -40.3718E+06     719.354E+03         30.1010
            1281     4.71263E-03     68.5670E-03         6.60481        -1.43312        -1.78136        -1.58325         6.40670        -1.43312        -2.52092     119.090E-03    -59.4307E-03    -59.6589E-03    -59.4575E-03     119.085E-03    -59.6273E-03     1.56240E-03    -31.5909E+06    -55.0526E+06    -229.942E+06    -55.0627E+06    -229.932E+06    -31.5909E+06    -458.316E+03         30.4167
            1282     5.65403E-03     68.5706E-03         6.71251        -1.46670        -1.86937        -1.68355         6.52670        -1.46670        -2.47937     119.162E-03    -59.4957E-03    -59.6658E-03    -59.5058E-03     119.149E-03    -59.6431E-03     2.92481E-03    -24.9283E+06    -51.6754E+06    -210.645E+06    -51.7326E+06    -210.588E+06    -24.9283E+06    -1.79054E+06         30.8301
            1283     6.59798E-03     68.5732E-03         6.72021        -1.50440        -1.85380        -1.76735         6.63375        -1.50440        -1.55072     119.079E-03    -59.4088E-03    -59.6702E-03    -59.3966E-03     119.044E-03    -59.6474E-03     4.78808E-03    -19.4704E+06    -47.8965E+06    -188.212E+06    -48.0550E+06    -188.053E+06    -19.4704E+06    -168.992E+03         31.3603
            1284     7.53915E-03     68.5801E-03         6.76589        -1.54385        -1.86549        -1.85353         6.75393        -1.54385    -559.690E-03     118.731E-03    -59.1259E-03    -59.6055E-03    -59.0503E-03     118.656E-03    -59.6055E-03     7.21018E-03    -14.5123E+06    -42.0933E+06    -154.245E+06    -42.2153E+06    -154.123E+06    -14.5123E+06     1.35717E+06         32.0393
            1285     8.48276E-03     68.5887E-03         6.86581        -1.58326        -1.93347        -1.91097         6.84332        -1.58326    -744.539E-03     118.692E-03    -59.1230E-03    -59.5690E-03    -59.0067E-03     118.538E-03    -59.5308E-03     10.2509E-03    -12.9438E+06    -38.1252E+06    -115.661E+06    -38.1767E+06    -115.609E+06    -12.9438E+06     1.54940E+06         32.9242
            1286     9.42629E-03     68.6001E-03         6.95851        -1.62177        -1.99772        -1.97478         6.93557        -1.62177    -446.516E-03     119.040E-03    -59.3677E-03    -59.6725E-03    -59.2169E-03     118.694E-03    -59.4775E-03     15.3560E-03    -12.1206E+06    -37.0518E+06    -74.5148E+06    -37.1524E+06    -74.4141E+06    -12.1206E+06     1.65208E+06         34.1238
            1287     10.3662E-03     68.6212E-03         7.02732        -1.66021        -2.04306        -2.04137         7.02563        -1.66021     200.013E-03     119.049E-03    -59.4327E-03    -59.6165E-03    -59.1003E-03     118.533E-03    -59.4327E-03     19.1607E-03    -3.53822E+06    -23.5261E+06    -42.5590E+06    -35.3993E+06    -23.4574E+06    -10.7665E+06     50.8674E+03         35.8458
            1288     11.3107E-03     68.6404E-03         7.13010        -1.69890        -2.12753        -2.10705         7.10963        -1.69890     648.147E-03     118.727E-03    -59.2613E-03    -59.4658E-03    -58.4353E-03     117.777E-03    -59.3414E-03     25.3180E-03     47.2783E+06    -10.1218E+06    -33.3501E+06    -33.2955E+06     47.2238E+06    -10.1218E+06     904.253E+03         38.4494
            1289     12.2536E-03     68.6747E-03         7.21168        -1.73828        -2.19042        -2.15122         7.17249        -1.73828         1.21067     119.843E-03    -59.2497E-03    -60.5936E-03    -57.8519E-03     117.182E-03    -59.3299E-03     42.0760E-03     95.4741E+06     3.48188E+06    -31.9444E+06    -31.8770E+06     95.4067E+06     3.48188E+06     2.92718E+06         42.4271
            1290     13.1972E-03     68.7337E-03         7.25114        -1.77831        -2.20975        -2.17811         7.21950        -1.77831         1.08648     122.676E-03    -59.4524E-03    -63.2240E-03    -57.3150E-03     116.767E-03    -59.4524E-03     64.3513E-03     105.037E+06     34.5829E+06    -27.4404E+06    -27.4002E+06     104.996E+06     34.5829E+06     1.62543E+06         48.1916
            1291     14.1404E-03     68.8150E-03         7.26999        -1.82242        -2.21425        -2.19272         7.24847        -1.82242     897.175E-03     144.003E-03    -59.6369E-03    -84.3664E-03    -60.2859E-03     119.923E-03    -59.6369E-03     133.451E-03     114.550E+06     73.1039E+06    -21.4274E+06    -21.3785E+06     114.501E+06     73.1039E+06    -1.10897E+06         55.6115
            1292     15.0844E-03     69.0347E-03         7.25753        -1.87941        -2.19734        -2.18863         7.24881        -1.87941     418.242E-03     204.111E-03    -59.8288E-03    -144.282E-03    -67.9891E-03     127.818E-03    -59.8288E-03     284.328E-03     125.945E+06     107.333E+06    -15.9910E+06    -15.9322E+06     125.886E+06     107.333E+06    -2.39171E+06         63.5887
            1293     16.0264E-03     69.4750E-03         7.21333        -1.94138        -2.16121        -2.15562         7.20774        -1.94138     334.765E-03     207.663E-03    -59.8898E-03    -147.773E-03    -66.6865E-03     126.576E-03    -59.8898E-03     296.157E-03     139.338E+06     126.160E+06    -7.60999E+06    -7.58121E+06     139.310E+06     126.160E+06    -257.042E+03         70.1916
            1294     943.103E-06     69.6921E-03         7.61186         2.14807        -6.43521        -5.29535         6.47201         2.14807         3.13035     118.839E-03    -59.0865E-03    -59.7525E-03    -59.6950E-03     118.838E-03    -59.1431E-03    -40.2186E-06    -67.0099E+06    -69.7710E+06    -255.732E+06    -69.5825E+06    -255.722E+06    -67.2083E+06    -789.386E+03         29.6184
            1295     1.88480E-03     69.6928E-03         6.91523        -1.57244        -2.01296        -1.71220         6.64114        -1.59911        -1.99729     118.879E-03    -59.2672E-03    -59.6117E-03    -59.4193E-03     118.878E-03    -59.4591E-03    -309.309E-06    -61.1935E+06    -67.7177E+06    -255.498E+06    -67.7307E+06    -255.485E+06    -61.1935E+06     149.366E+03         29.7112
            1296     2.82820E-03     69.6928E-03         6.73470        -1.60774        -1.81395        -1.67677         6.62419        -1.63441        -1.19653     119.047E-03    -59.3493E-03    -59.6978E-03    -59.5319E-03     119.047E-03    -59.5152E-03    -37.6223E-06    -51.9532E+06    -63.4749E+06    -249.595E+06    -63.4836E+06    -249.586E+06    -51.9532E+06     514.987E+03         29.8683
            1297     3.76963E-03     69.6920E-03         6.87693        -1.65578        -1.90371        -1.77005         6.74327        -1.65578        -2.05303     119.204E-03    -59.4789E-03    -59.7251E-03    -59.6052E-03     119.203E-03    -59.5982E-03     389.235E-06    -39.8919E+06    -57.7383E+06    -242.388E+06    -57.7446E+06    -242.382E+06    -39.8919E+06     242.486E+03         30.0991
            1298     4.71198E-03     69.6938E-03         6.96393        -1.68296        -1.97728        -1.80979         6.79644        -1.68296        -2.30287     119.154E-03    -59.4683E-03    -59.6860E-03    -59.4942E-03     119.149E-03    -59.6543E-03     1.69514E-03    -29.0148E+06    -52.8937E+06    -229.408E+06    -52.9363E+06    -229.365E+06    -29.0148E+06     754.118E+03         30.4136
            1299     5.65547E-03     69.6950E-03         7.08314        -1.71191        -2.07960        -1.90072         6.90425        -1.71191        -2.45934     119.120E-03    -59.4502E-03    -59.6698E-03    -59.4346E-03     119.104E-03    -59.6698E-03     3.27598E-03    -21.7884E+06    -50.5582E+06    -210.738E+06    -50.5986E+06    -210.697E+06    -21.7884E+06     1.24496E+06         30.8254
            1300     6.59639E-03     69.7000E-03         7.04734        -1.74424        -2.02528        -1.96448         6.98654        -1.74424        -1.38781     118.945E-03    -59.3013E-03    -59.6439E-03    -59.2643E-03     118.908E-03    -59.6439E-03     4.98970E-03    -19.3718E+06    -47.5501E+06    -188.994E+06    -47.5771E+06    -188.967E+06    -19.3718E+06    -591.637E+03         31.3539
            1301     7.54009E-03     69.7048E-03         7.08359        -1.77687        -2.03864        -2.02685         7.07180        -1.77687    -473.731E-03     118.739E-03    -59.1046E-03    -59.6343E-03    -59.0752E-03     118.660E-03    -59.5852E-03     7.34348E-03    -17.4450E+06    -44.4232E+06    -156.273E+06    -44.4685E+06    -156.227E+06    -17.4450E+06    -82.1305E+03         32.0309
            1302     8.48311E-03     69.7136E-03         7.15924        -1.80892        -2.08946        -2.07112         7.14090        -1.80892    -595.763E-03     118.845E-03    -59.2215E-03    -59.6232E-03    -59.1577E-03     118.694E-03    -59.5359E-03     10.2145E-03    -13.6390E+06    -41.8436E+06    -117.518E+06    -41.9097E+06    -117.452E+06    -13.6390E+06     2.12434E+06         32.9124
            1303     9.42407E-03     69.7275E-03         7.23039        -1.84012        -2.14036        -2.11929         7.20932        -1.84012    -347.912E-03     118.937E-03    -59.3556E-03    -59.5819E-03    -59.1172E-03     118.606E-03    -59.4887E-03     15.0144E-03    -10.8642E+06    -37.7912E+06    -73.7340E+06    -37.9152E+06    -73.6100E+06    -10.8642E+06     1.27801E+06         34.1053
            1304     10.3690E-03     69.7463E-03         7.25976        -1.87056        -2.16015        -2.15690         7.25651        -1.87056     306.240E-03     119.006E-03    -59.3711E-03    -59.6350E-03    -59.0468E-03     118.497E-03    -59.4503E-03     19.0099E-03    -2.20770E+06    -19.4440E+06    -42.4298E+06    -34.9582E+06    -22.5356E+06    -6.58770E+06     554.751E+03         35.8164
            1305     11.3097E-03     69.7677E-03         7.32445        -1.90011        -2.22004        -2.19538         7.29979        -1.90011     755.671E-03     118.854E-03    -59.2653E-03    -59.5884E-03    -58.6150E-03     117.976E-03    -59.3613E-03     24.4977E-03     44.6547E+06    -7.96605E+06    -34.0988E+06    -34.0050E+06     44.5610E+06    -7.96605E+06     971.050E+03         38.4057
            1306     12.2524E-03     69.7998E-03         7.37187        -1.92955        -2.26101        -2.21497         7.32583        -1.92955         1.32724     119.748E-03    -59.2315E-03    -60.5170E-03    -57.7341E-03     117.062E-03    -59.3275E-03     41.8337E-03     94.4697E+06     2.32265E+06    -29.5875E+06    -29.5507E+06     94.4329E+06     2.32265E+06     1.50779E+06         42.3727
            1307     13.1971E-03     69.8582E-03         7.36789        -1.95907        -2.25252        -2.21469         7.33006        -1.95907         1.19987     123.269E-03    -59.4766E-03    -63.7920E-03    -57.8985E-03     117.375E-03    -59.4766E-03     64.6956E-03     108.707E+06     37.5778E+06    -23.5796E+06    -23.5552E+06     108.683E+06     37.5778E+06     266.587E+03         48.1412
            1308     14.1411E-03     69.9421E-03         7.34134        -1.99174        -2.22476        -2.19811         7.31468        -1.99174         1.00157     145.422E-03    -59.7145E-03    -85.7072E-03    -61.0903E-03     120.805E-03    -59.7145E-03     135.050E-03     115.879E+06     77.3419E+06    -19.4387E+06    -19.4317E+06     115.872E+06     77.3419E+06    -709.714E+03         55.5898
            1309     15.0811E-03     70.1632E-03         7.28510        -2.03146        -2.17626        -2.16165         7.27438        -2.03535     504.819E-03     203.403E-03    -59.9045E-03    -143.498E-03    -67.4881E-03     127.393E-03    -59.9045E-03     283.434E-03     126.177E+06     109.773E+06    -13.7245E+06    -13.6852E+06     126.138E+06     109.773E+06     529.013E+03         63.6197
            1310     16.0321E-03     70.5938E-03         7.20567        -2.05088        -2.14179        -2.10383         7.19949        -2.08266     390.502E-03     206.611E-03    -59.9300E-03    -146.681E-03    -66.0445E-03     125.975E-03    -59.9300E-03     294.574E-03     138.688E+06     126.296E+06    -7.60281E+06    -7.56134E+06     138.647E+06     126.296E+06     956.630E+03         70.2783
            1311     942.104E-06     70.8194E-03         9.59096         1.96764        -8.32475        -5.68724         6.95345         1.96764         5.25276     119.120E-03    -59.2389E-03    -59.8814E-03    -59.7837E-03     119.119E-03    -59.3356E-03     5.38519E-06    -66.2211E+06    -71.2187E+06    -255.842E+06    -71.2440E+06    -255.817E+06    -66.2211E+06     844.727E+03         29.6178
            1312     1.88469E-03     70.8171E-03         7.78028        -1.86539        -2.66847        -1.95881         7.08347        -1.87823        -2.63435     119.176E-03    -59.4557E-03    -59.7204E-03    -59.5629E-03     119.176E-03    -59.6126E-03    -445.141E-06    -58.4517E+06    -66.7439E+06    -254.462E+06    -66.7472E+06    -254.458E+06    -58.4517E+06     28.9809E+03         29.7105
            1313     2.82717E-03     70.8177E-03         7.27410        -1.88787        -2.15608        -1.91494         7.04581        -1.90072    -759.533E-03     118.968E-03    -59.2220E-03    -59.7460E-03    -59.3594E-03     118.968E-03    -59.6082E-03    -25.5870E-06    -52.9332E+06    -63.2198E+06    -250.672E+06    -63.2260E+06    -250.666E+06    -52.9332E+06    -647.067E+03         29.8674
            1314     3.76982E-03     70.8186E-03         7.31829        -1.91350        -2.17057        -1.99622         7.14394        -1.91350        -2.16114     119.089E-03    -59.2804E-03    -59.8091E-03    -59.4683E-03     119.088E-03    -59.6201E-03     691.306E-06    -42.3366E+06    -59.4226E+06    -243.288E+06    -59.4360E+06    -243.274E+06    -42.3366E+06    -177.815E+03         30.0976
            1315     4.71272E-03     70.8177E-03         7.34629        -1.93381        -2.18743        -2.03109         7.18994        -1.93381        -2.07799     119.195E-03    -59.4337E-03    -59.7608E-03    -59.5231E-03     119.190E-03    -59.6671E-03     1.65138E-03    -29.7664E+06    -54.2635E+06    -230.911E+06    -54.3101E+06    -230.864E+06    -29.7664E+06     863.828E+03         30.4113
            1316     5.65411E-03     70.8220E-03         7.44477        -1.95642        -2.27962        -2.10497         7.27012        -1.95642        -2.41033     118.911E-03    -59.2330E-03    -59.6780E-03    -59.2181E-03     118.896E-03    -59.6780E-03     3.13009E-03    -18.9667E+06    -47.5838E+06    -212.260E+06    -47.6381E+06    -212.205E+06    -18.9667E+06     1.67817E+06         30.8217
            1317     6.59816E-03     70.8242E-03         7.35705        -1.98123        -2.18453        -2.14335         7.31588        -1.98123        -1.21213     118.932E-03    -59.1767E-03    -59.7552E-03    -59.2475E-03     118.895E-03    -59.6475E-03     5.00701E-03    -13.2028E+06    -44.2754E+06    -188.590E+06    -44.3557E+06    -188.510E+06    -13.2028E+06     2.14883E+06         31.3486
            1318     7.54037E-03     70.8307E-03         7.38693        -2.00541        -2.19924        -2.18676         7.37446        -2.00541    -387.450E-03     119.115E-03    -59.3511E-03    -59.7644E-03    -59.4361E-03     119.044E-03    -59.6075E-03     7.05901E-03    -13.4464E+06    -43.9494E+06    -157.992E+06    -44.0276E+06    -157.914E+06    -13.4464E+06     2.01008E+06         32.0227
            1319     8.48154E-03     70.8400E-03         7.44070        -2.02935        -2.23914        -2.22318         7.42475        -2.02935    -457.288E-03     118.966E-03    -59.3477E-03    -59.6185E-03    -59.2369E-03     118.806E-03    -59.5694E-03     10.4246E-03    -12.2473E+06    -41.9136E+06    -118.152E+06    -41.9465E+06    -118.119E+06    -12.2473E+06     1.46656E+06         32.8986
            1320     9.42566E-03     70.8528E-03         7.48600        -2.05282        -2.27479        -2.25479         7.46599        -2.05282    -250.214E-03     118.961E-03    -59.3040E-03    -59.6568E-03    -59.1071E-03     118.626E-03    -59.5187E-03     15.2377E-03    -10.2048E+06    -38.7632E+06    -72.7610E+06    -38.8331E+06    -72.6911E+06    -10.2048E+06     595.789E+03         34.0828
            1321     10.3663E-03     70.8722E-03         7.47786        -2.07464        -2.26439        -2.25898         7.47245        -2.07464     422.557E-03     118.759E-03    -59.0391E-03    -59.7195E-03    -58.7784E-03     118.239E-03    -59.4602E-03     19.1417E-03    -2.94184E+06    -20.6181E+06    -41.4576E+06    -35.1955E+06    -22.6992E+06    -7.12282E+06     380.655E+03         35.7819
            1322     11.3097E-03     70.8955E-03         7.49349        -2.09383        -2.28613        -2.25699         7.46435        -2.09383     868.431E-03     118.532E-03    -58.9063E-03    -59.6262E-03    -58.2766E-03     117.621E-03    -59.3441E-03     24.9797E-03     44.6621E+06    -7.41265E+06    -31.0478E+06    -30.9713E+06     44.5855E+06    -7.41265E+06     189.689E+03         38.3580
            1323     12.2541E-03     70.9229E-03         7.50278        -2.11173        -2.30420        -2.25101         7.44959        -2.11173         1.43935     120.160E-03    -59.2225E-03    -60.9376E-03    -58.1781E-03     117.497E-03    -59.3185E-03     41.8577E-03     94.8568E+06     3.67590E+06    -27.7117E+06    -27.6987E+06     94.8438E+06     3.67590E+06    -620.207E+03         42.3142
            1324     13.1972E-03     70.9857E-03         7.46803        -2.12960        -2.27663        -2.23232         7.42373        -2.12960         1.30805     123.781E-03    -59.4986E-03    -64.2821E-03    -58.1703E-03     117.669E-03    -59.4986E-03     65.7614E-03     108.652E+06     38.8398E+06    -25.1219E+06    -25.0812E+06     108.612E+06     38.8398E+06     110.803E+03         48.0839
            1325     14.1376E-03     71.0694E-03         7.40423        -2.13547        -2.23621        -2.18959         7.37217        -2.15004         1.10251     145.378E-03    -59.7245E-03    -85.6538E-03    -60.7026E-03     120.427E-03    -59.7245E-03     136.252E-03     115.472E+06     77.1609E+06    -21.7888E+06    -21.7439E+06     115.427E+06     77.1609E+06     1.29384E+06         55.5604
            1326     15.0856E-03     71.2880E-03         7.31351        -2.11769        -2.20731        -2.13196         7.30033        -2.17985     588.708E-03     203.826E-03    -59.9175E-03    -143.909E-03    -68.3170E-03     128.235E-03    -59.9175E-03     283.605E-03     125.622E+06     108.397E+06    -16.0322E+06    -15.9737E+06     125.563E+06     108.397E+06     1.24510E+06         63.6368
            1327     16.0210E-03     71.7202E-03         7.21876        -2.07283        -2.21291        -2.06609         7.21202        -2.21291     436.240E-03     206.049E-03    -59.9678E-03    -146.081E-03    -65.9491E-03     125.917E-03    -59.9678E-03     293.627E-03     138.557E+06     126.464E+06    -7.41890E+06    -7.37525E+06     138.513E+06     126.464E+06     751.296E+03         70.3411
            1328     942.615E-06     71.9427E-03         11.5890         1.73246        -10.1628        -6.00482         7.43100         1.73246         7.09073     119.226E-03    -59.4609E-03    -59.7649E-03    -59.5826E-03     119.225E-03    -59.6428E-03     172.696E-06    -64.9206E+06    -70.4336E+06    -255.712E+06    -68.3030E+06    -255.680E+06    -67.0841E+06     187.046E+03         29.6167
            1329     1.88483E-03     71.9443E-03         8.69033        -2.14731        -3.38024        -2.19063         7.50072        -2.14731        -3.16367     119.186E-03    -59.4967E-03    -59.6892E-03    -59.5387E-03     119.185E-03    -59.6467E-03     42.1342E-06    -58.0360E+06    -65.2691E+06    -254.924E+06    -65.2692E+06    -254.923E+06    -58.0360E+06     15.2954E+03         29.7098
            1330     2.82654E-03     71.9426E-03         7.86324        -2.15810        -2.55144        -2.15814         7.46994        -2.15810    -373.327E-03     119.196E-03    -59.3733E-03    -59.8228E-03    -59.5280E-03     119.195E-03    -59.6674E-03     168.109E-06    -48.4541E+06    -61.4501E+06    -250.543E+06    -61.4584E+06    -250.535E+06    -48.4541E+06    -37.4732E+03         29.8669
            1331     3.77046E-03     71.9426E-03         7.77513        -2.16561        -2.45278        -2.22488         7.54722        -2.16561        -2.24049     119.142E-03    -59.2451E-03    -59.8966E-03    -59.4503E-03     119.140E-03    -59.6900E-03     695.862E-06    -38.3783E+06    -58.2006E+06    -243.152E+06    -58.2152E+06    -243.138E+06    -38.3783E+06     416.250E+03         30.0966
            1332     4.71144E-03     71.9456E-03         7.72093        -2.17920        -2.39725        -2.23844         7.56212        -2.17920        -1.87653     119.102E-03    -59.3037E-03    -59.7980E-03    -59.3942E-03     119.099E-03    -59.7043E-03     1.44950E-03    -27.6957E+06    -53.2033E+06    -231.851E+06    -53.2151E+06    -231.839E+06    -27.6957E+06    -182.614E+03         30.4095
            1333     5.65524E-03     71.9450E-03         7.78483        -2.19352        -2.46344        -2.28890         7.61029        -2.19352        -2.37136     118.958E-03    -59.2574E-03    -59.7009E-03    -59.2462E-03     118.945E-03    -59.6990E-03     2.81096E-03    -18.0805E+06    -47.8977E+06    -214.859E+06    -47.9288E+06    -214.828E+06    -18.0805E+06     811.405E+03         30.8189
            1334     6.59750E-03     71.9506E-03         7.66958        -2.21021        -2.34984        -2.32039         7.64013        -2.21021        -1.07580     119.125E-03    -59.3294E-03    -59.7957E-03    -59.4023E-03     119.088E-03    -59.6860E-03     4.99146E-03    -10.7825E+06    -43.6546E+06    -191.544E+06    -43.8048E+06    -191.394E+06    -10.7825E+06     4.33706E+06         31.3434
            1335     7.53890E-03     71.9572E-03         7.68707        -2.22707        -2.36434        -2.35043         7.67316        -2.22707    -322.229E-03     119.113E-03    -59.3560E-03    -59.7567E-03    -59.3932E-03     119.042E-03    -59.6490E-03     7.00424E-03    -8.94776E+06    -39.4050E+06    -157.029E+06    -39.5442E+06    -156.890E+06    -8.94776E+06     3.76508E+06         32.0131
            1336     8.48288E-03     71.9650E-03         7.69983        -2.24292        -2.37276        -2.35760         7.68467        -2.24292    -347.487E-03     118.904E-03    -59.3213E-03    -59.5827E-03    -59.1544E-03     118.737E-03    -59.5827E-03     10.5835E-03    -10.4456E+06    -36.0774E+06    -117.370E+06    -36.0956E+06    -117.352E+06    -10.4456E+06     1.17676E+06         32.8829
            1337     9.42412E-03     71.9792E-03         7.70112        -2.25668        -2.37375        -2.35422         7.68159        -2.25668    -177.363E-03     118.859E-03    -59.2037E-03    -59.6555E-03    -58.9765E-03     118.494E-03    -59.5174E-03     15.8806E-03    -8.68345E+06    -33.4275E+06    -72.6932E+06    -33.4784E+06    -72.6423E+06    -8.68345E+06     891.767E+03         34.0588
            1338     10.3675E-03     71.9992E-03         7.66264        -2.26757        -2.34429        -2.33674         7.65531        -2.26781     509.839E-03     118.311E-03    -58.7343E-03    -59.5767E-03    -58.3386E-03     117.777E-03    -59.4386E-03     19.3695E-03    -1.88598E+06    -17.8656E+06    -38.6537E+06    -31.5625E+06    -22.2702E+06    -4.57254E+06      721.47E+03         35.7469
            1339     11.3122E-03     72.0175E-03         7.64606        -2.27588        -2.34321        -2.31065         7.61373        -2.27612     948.910E-03     118.354E-03    -58.8153E-03    -59.5390E-03    -58.0808E-03     117.377E-03    -59.2960E-03     25.6699E-03     45.8662E+06    -6.68245E+06    -30.7069E+06    -30.6530E+06     45.0377E+06    -5.90796E+06    -142.328E+03         38.3095
            1340     12.2532E-03     72.0534E-03         7.61460        -2.26709        -2.34477        -2.27075         7.55600        -2.28252         1.52142     120.406E-03    -59.2814E-03    -61.1248E-03    -58.3848E-03     117.666E-03    -59.2814E-03     42.7875E-03     95.0524E+06     5.72749E+06    -30.1062E+06    -30.0778E+06      95.024E+06     5.72749E+06    -185.517E+03         42.2533
            1341     13.1953E-03     72.1085E-03         7.53894        -2.23794        -2.32253        -2.22328         7.48970        -2.28795         1.38403     124.052E-03    -59.4673E-03    -64.5845E-03    -58.2395E-03     117.707E-03    -59.4673E-03     66.9518E-03     104.969E+06     38.0897E+06    -28.4967E+06    -28.4357E+06     104.908E+06     38.0897E+06     1.62284E+06         48.0228
            1342     14.1433E-03     72.1970E-03         7.44641        -2.19108        -2.30490        -2.16478         7.41070        -2.29549         1.16549     145.277E-03    -59.6784E-03    -85.5988E-03    -60.5785E-03     120.257E-03    -59.6784E-03     136.877E-03     115.508E+06     75.0037E+06    -23.3452E+06    -23.2830E+06     115.446E+06     75.0037E+06     2.89263E+06         55.5237
            1343     15.0813E-03     72.4145E-03         7.34277        -2.11667        -2.31201        -2.10171         7.32781        -2.31201     644.361E-03     204.473E-03    -59.8495E-03    -144.624E-03    -67.7306E-03     127.580E-03    -59.8495E-03     285.778E-03     127.768E+06     108.199E+06    -16.6725E+06    -16.6327E+06     127.728E+06     108.199E+06     1.07032E+06         63.6477
            1344     16.0313E-03     72.8519E-03         7.24727        -2.04156        -2.33206        -2.03457         7.24027        -2.33206     462.312E-03     206.478E-03    -59.8845E-03    -146.594E-03    -66.3437E-03     126.228E-03    -59.8845E-03     293.572E-03     137.773E+06     125.682E+06    -8.72637E+06    -8.70927E+06     137.756E+06     125.682E+06    -489.238E+03         70.3933
            1345     941.801E-06     73.0697E-03         13.1678         1.45661        -11.5463        -6.21940         7.84091         1.45661         8.39306     119.011E-03    -59.3023E-03    -59.7086E-03    -59.6226E-03     119.010E-03    -59.3875E-03     498.116E-06    -64.7060E+06    -71.5145E+06    -255.396E+06    -69.3693E+06    -255.378E+06    -66.8695E+06    -630.586E+03         29.6161
            1346     1.88489E-03     73.0679E-03         9.49823        -2.39134        -4.02617        -2.43651         7.90857        -2.39134        -3.54757     119.154E-03    -59.4346E-03    -59.7193E-03    -59.5903E-03     119.153E-03    -59.5631E-03     54.6930E-06    -61.0117E+06    -67.6788E+06    -255.608E+06    -67.6810E+06    -255.606E+06    -61.0117E+06    -52.5222E+03         29.7095
            1347     2.82828E-03     73.0691E-03         8.42130        -2.40328        -2.94210        -2.40721         7.88641        -2.40328    -80.0413E-03     119.392E-03    -59.5852E-03    -59.8063E-03    -59.7272E-03     119.391E-03    -59.6636E-03     153.318E-06    -49.2266E+06    -63.5835E+06    -251.441E+06    -63.5885E+06    -251.436E+06    -49.2266E+06     618.571E+03         29.8666
            1348     3.76796E-03     73.0686E-03         8.19879        -2.40802        -2.71422        -2.44022         7.92479        -2.40802        -2.30235     119.231E-03    -59.3873E-03    -59.8432E-03    -59.4984E-03     119.229E-03    -59.7304E-03     816.790E-06    -37.1655E+06    -58.4545E+06    -243.329E+06    -58.4679E+06    -243.316E+06    -37.1655E+06     952.663E+03         30.0959
            1349     4.71284E-03     73.0696E-03         8.08821        -2.41522        -2.61031        -2.44488         7.92279        -2.41522        -1.73594     118.978E-03    -59.2547E-03    -59.7238E-03    -59.2503E-03     118.974E-03    -59.7238E-03     1.68533E-03    -27.9705E+06    -54.1886E+06    -231.643E+06    -54.2015E+06    -231.630E+06    -27.9705E+06     766.047E+03         30.4082
            1350     5.65433E-03     73.0716E-03         8.12135        -2.42313        -2.65161        -2.47666         7.94640        -2.42313        -2.35119     119.319E-03    -59.5585E-03    -59.7604E-03    -59.5848E-03     119.304E-03    -59.7197E-03     2.99664E-03    -21.6298E+06    -50.8419E+06    -218.074E+06    -50.8648E+06    -218.051E+06    -21.6298E+06     1.47782E+06         30.8160
            1351     6.59643E-03     73.0759E-03         7.97797        -2.43270        -2.51598        -2.49207         7.95407        -2.43270    -996.346E-03     119.119E-03    -59.3631E-03    -59.7557E-03    -59.3652E-03     119.080E-03    -59.7150E-03     5.12223E-03    -15.8142E+06    -44.7305E+06    -194.368E+06    -44.8127E+06    -194.286E+06    -15.8142E+06     2.72431E+06         31.3369
            1352     7.54039E-03     73.0828E-03         7.96135        -2.43769        -2.50931        -2.49009         7.94568        -2.44124    -291.086E-03     118.795E-03    -59.1388E-03    -59.6567E-03    -59.0634E-03     118.720E-03    -59.6567E-03     7.22702E-03    -10.6163E+06    -38.4346E+06    -155.403E+06    -38.5272E+06    -155.311E+06    -10.6163E+06     2.64449E+06         32.0019
            1353     8.48159E-03     73.0907E-03         7.93075        -2.43998        -2.49047        -2.46848         7.91594        -2.44716    -270.918E-03     118.722E-03    -59.1449E-03    -59.5774E-03    -58.9719E-03     118.549E-03    -59.5774E-03     10.7881E-03     -8.7635E+06    -35.2332E+06    -116.398E+06    -35.3022E+06    -116.329E+06     -8.7635E+06     2.08872E+06         32.8662
            1354     9.42528E-03     73.1055E-03         7.89138        -2.42702        -2.47966        -2.43798         7.87277        -2.45010    -140.981E-03     118.395E-03    -58.9141E-03    -59.4807E-03    -58.5383E-03     118.019E-03    -59.4807E-03     16.0651E-03    -8.23514E+06    -33.7684E+06    -73.6343E+06    -33.8528E+06    -73.5499E+06    -8.23514E+06     1.48440E+06         34.0356
            1355     10.3690E-03     73.1229E-03         7.81512        -2.39303        -2.45722        -2.39239         7.80707        -2.44982     545.626E-03     118.507E-03    -58.9707E-03    -59.5367E-03    -58.5891E-03     117.999E-03    -59.4098E-03     18.9792E-03    -1.71305E+06    -16.0727E+06    -39.7894E+06    -32.2853E+06    -23.5768E+06    -1.71305E+06     1.71843E+06         35.7138
            1356     11.3104E-03     73.1449E-03         7.76704        -2.37471        -2.44905        -2.34403         7.73376        -2.44644     981.467E-03     118.367E-03    -58.8666E-03    -59.5004E-03    -58.1650E-03     117.456E-03    -59.2913E-03     24.6772E-03     46.7816E+06    -3.29783E+06    -31.2438E+06    -31.1137E+06     45.0454E+06    -1.69170E+06     2.06961E+06         38.2608
            1357     12.2559E-03     73.1772E-03         7.70459        -2.33861        -2.44366        -2.28067         7.64405        -2.44105         1.55478     119.731E-03    -58.9580E-03    -60.7727E-03    -57.7585E-03     117.002E-03    -59.2438E-03     42.3990E-03     94.5616E+06     6.45078E+06    -31.4645E+06    -31.3999E+06     94.4970E+06     6.45078E+06     1.85764E+06         42.1895
            1358     13.2005E-03     73.2367E-03         7.59271        -2.25749        -2.43438        -2.20665         7.54187        -2.43438         1.40876     123.931E-03    -59.4048E-03    -64.5264E-03    -58.2451E-03     117.650E-03    -59.4048E-03     66.7123E-03     103.569E+06     37.4835E+06    -29.6761E+06    -29.6442E+06     103.537E+06     37.4835E+06     1.91073E+06         47.9571
            1359     14.1377E-03     73.3227E-03         7.47929        -2.17175        -2.42959        -2.13541         7.44296        -2.42959         1.17621     145.063E-03    -59.5972E-03    -85.4660E-03    -59.9639E-03     119.561E-03    -59.5972E-03     137.366E-03     114.161E+06     74.4068E+06    -22.9986E+06    -22.9554E+06     114.118E+06     74.4068E+06     2.37239E+06         55.4833
            1360     15.0876E-03     73.5406E-03         7.36546        -2.08138        -2.43386        -2.06617         7.35025        -2.43386     646.080E-03     204.186E-03    -59.7339E-03    -144.452E-03    -67.0343E-03     126.768E-03    -59.7339E-03     286.614E-03     129.927E+06     110.565E+06    -14.2161E+06    -14.1794E+06     129.891E+06     110.565E+06     2.16388E+06         63.6566
            1361     16.0308E-03     73.9743E-03         7.27302        -2.00475        -2.44242        -1.99799         7.26626        -2.44242     453.143E-03     206.425E-03    -59.7932E-03    -146.631E-03    -67.6578E-03     127.451E-03    -59.7932E-03     291.419E-03     140.057E+06     127.932E+06    -7.92138E+06    -7.90948E+06     140.045E+06     127.932E+06     319.860E+03         70.4442
            1362     943.855E-06     74.1943E-03         14.1722         1.11515        -12.2825        -6.35415         8.24378         1.11515         9.08270     119.003E-03    -59.2809E-03    -59.7225E-03    -59.7184E-03     119.003E-03    -59.2846E-03     234.137E-06    -63.5447E+06    -71.3886E+06    -256.242E+06    -69.7346E+06    -256.233E+06    -65.2077E+06     746.827E+03         29.6176
            1363     1.88489E-03     74.1943E-03         10.0784        -2.62561        -4.44886        -2.65286         8.28238        -2.62561        -3.75833     119.313E-03    -59.5632E-03    -59.7497E-03    -59.7192E-03     119.313E-03    -59.5935E-03    -153.425E-06    -58.4313E+06    -66.1140E+06    -255.540E+06    -66.1203E+06    -255.533E+06    -58.4313E+06     590.343E+03         29.7099
            1364     2.82593E-03     74.1941E-03         8.87947        -2.63430        -3.24653        -2.64559         8.27853        -2.63430     94.0531E-03     119.156E-03    -59.4646E-03    -59.6915E-03    -59.4935E-03     119.155E-03    -59.6617E-03     376.434E-06    -50.7019E+06    -62.9856E+06    -252.702E+06    -62.9949E+06    -252.693E+06    -50.7019E+06     995.267E+03         29.8660
            1365     3.77100E-03     74.1947E-03         8.57900        -2.63836        -2.94804        -2.65542         8.28639        -2.63836        -2.31647     119.161E-03    -59.3971E-03    -59.7635E-03    -59.4778E-03     119.159E-03    -59.6814E-03     821.589E-06    -40.5110E+06    -59.1124E+06    -244.970E+06    -59.1288E+06    -244.953E+06    -40.5110E+06     1.14941E+06         30.0951
            1366     4.71143E-03     74.1941E-03         8.44874        -2.64227        -2.82543        -2.65783         8.28114        -2.64227        -1.65788     119.356E-03    -59.5503E-03    -59.8059E-03    -59.6333E-03     119.350E-03    -59.7162E-03     1.76839E-03    -30.5508E+06    -54.9310E+06    -232.033E+06    -54.9773E+06    -231.986E+06    -30.5508E+06     2.15925E+06         30.4066
            1367     5.65476E-03     74.1982E-03         8.44493        -2.64330        -2.83631        -2.66186         8.27287        -2.64569        -2.33712     119.317E-03    -59.5163E-03    -59.8009E-03    -59.5472E-03     119.302E-03    -59.7545E-03     3.26624E-03    -21.8997E+06    -50.4707E+06    -218.791E+06    -50.5202E+06    -218.742E+06    -21.8997E+06     1.85373E+06         30.8119
            1368     6.59675E-03     74.2016E-03         8.26250        -2.63802        -2.67421        -2.64396         8.24179        -2.64757    -941.956E-03     118.974E-03    -59.2109E-03    -59.7631E-03    -59.2125E-03     118.937E-03    -59.7243E-03     4.92554E-03    -17.5837E+06    -45.2330E+06    -194.879E+06    -45.2462E+06    -194.866E+06    -17.5837E+06     95.7023E+03         31.3293
            1369     7.53894E-03     74.2072E-03         8.20794        -2.61076        -2.65946        -2.60838         8.19220        -2.64610    -284.777E-03     118.638E-03    -58.9901E-03    -59.6475E-03    -58.9030E-03     118.551E-03    -59.6475E-03     7.70665E-03    -12.6134E+06    -40.4187E+06    -157.390E+06    -40.4810E+06    -157.328E+06    -12.6134E+06     1.55457E+06         31.9903
            1370     8.48288E-03     74.2178E-03         8.14051        -2.57743        -2.64102        -2.56309         8.12618        -2.64102    -250.150E-03     118.444E-03    -58.8813E-03    -59.5622E-03    -58.7192E-03     118.281E-03    -59.5622E-03     10.5939E-03    -7.66067E+06    -37.5180E+06    -117.506E+06    -37.7631E+06    -117.261E+06    -7.66067E+06     3.93528E+06         32.8505
            1371     9.42595E-03     74.2282E-03         8.06634        -2.53178        -2.63299        -2.51455         8.04911        -2.63299    -150.285E-03     118.476E-03    -59.0207E-03    -59.4557E-03    -58.6662E-03     118.122E-03    -59.4557E-03     15.4602E-03    -8.00347E+06    -36.3374E+06    -72.9617E+06    -36.7900E+06    -72.5091E+06    -8.00347E+06     3.45624E+06         34.0138
            1372     10.3682E-03     74.2509E-03         7.95247        -2.45006        -2.62175        -2.44285         7.94527        -2.62175     520.951E-03     118.485E-03    -58.9700E-03    -59.5146E-03    -58.5715E-03     117.959E-03    -59.3876E-03     19.2816E-03    -4.12643E+06    -18.8644E+06    -43.7698E+06     -36.576E+06    -26.0582E+06    -4.12643E+06     3.22878E+06         35.6816
            1373     11.3109E-03     74.2703E-03         7.86053        -2.39282        -2.60672        -2.36165         7.82936        -2.60672     951.303E-03     118.474E-03    -58.6559E-03    -59.8182E-03    -58.2955E-03     117.571E-03    -59.2751E-03     24.7458E-03     45.9059E+06    -5.18378E+06    -35.9119E+06    -35.5982E+06     44.3368E+06    -3.92841E+06     4.14808E+06         38.2121
            1374     12.2539E-03     74.3006E-03         7.77058        -2.33864        -2.58944        -2.28195         7.71389        -2.58944         1.50859     120.014E-03    -58.9561E-03    -61.0582E-03    -58.0871E-03     117.329E-03    -59.2420E-03     42.0605E-03     95.4941E+06     4.43098E+06    -33.4485E+06    -33.3086E+06     95.3542E+06     4.43098E+06     3.82807E+06         42.1214
            1375     13.1961E-03     74.3641E-03         7.64134        -2.24324        -2.57144        -2.19638         7.59448        -2.57144         1.35332     122.844E-03    -59.3775E-03    -63.4662E-03    -57.2962E-03     116.674E-03    -59.3775E-03     65.7266E-03      104.38E+06     35.1968E+06    -29.1782E+06    -29.1088E+06     104.311E+06     35.1968E+06     1.75677E+06         47.8855
            1376     14.1456E-03     74.4475E-03         7.50601        -2.14147        -2.55558        -2.10844         7.47299        -2.55558         1.12082     143.734E-03    -59.5256E-03    -84.2080E-03    -59.2470E-03     118.773E-03    -59.5256E-03     135.423E-03     113.086E+06     73.0044E+06    -22.5639E+06    -22.5307E+06     113.053E+06     73.0044E+06     300.866E+03         55.4409
            1377     15.0885E-03     74.6631E-03         7.37733        -2.04149        -2.54886        -2.02778         7.36362        -2.54886     597.369E-03     204.144E-03    -59.6845E-03    -144.460E-03    -68.1261E-03     127.811E-03    -59.6845E-03     285.128E-03     128.033E+06     108.922E+06    -14.1024E+06    -14.0655E+06     127.996E+06     108.922E+06     1.04063E+06         63.6649
            1378     16.0301E-03     75.1073E-03         7.28761        -1.96940        -2.54728        -1.96328         7.28149        -2.54728     418.092E-03     205.930E-03    -59.7913E-03    -146.138E-03    -67.8292E-03     127.620E-03    -59.7913E-03     290.312E-03     141.774E+06     127.739E+06    -5.61077E+06    -5.58505E+06     141.748E+06     127.739E+06     1.53084E+06         70.5055
            1379     940.936E-06     75.3184E-03         14.5164     703.983E-03        -12.3084        -6.45170         8.65967     703.983E-03         9.10112     119.477E-03    -59.2563E-03    -60.2210E-03    -59.9791E-03     119.477E-03    -59.4976E-03    -168.321E-06    -62.7252E+06    -69.5586E+06    -258.306E+06    -67.2272E+06    -258.299E+06    -65.0636E+06     872.106E+03         29.6205
            1380     1.88454E-03     75.3210E-03         10.3856        -2.86281        -4.59772        -2.82829         8.61620        -2.86281        -3.75849     119.018E-03    -59.3258E-03    -59.6921E-03    -59.3253E-03     119.017E-03    -59.6921E-03    -30.2596E-06    -58.3704E+06    -65.2670E+06    -257.100E+06    -64.6059E+06    -257.086E+06    -59.0457E+06     1.57713E+06         29.7112
            1381     2.82832E-03     75.3185E-03         9.22557        -2.85475        -3.44036        -2.85826         8.64347        -2.85475     130.520E-03     119.065E-03    -59.3651E-03    -59.7001E-03    -59.4389E-03     119.064E-03    -59.6255E-03     265.769E-06    -51.8032E+06    -62.4926E+06    -252.929E+06    -62.5151E+06    -252.907E+06    -51.8032E+06     1.96859E+06         29.8659
            1382     3.76894E-03     75.3201E-03         8.92307        -2.85654        -3.14663        -2.86553         8.64197        -2.85654        -2.29312     119.336E-03    -59.5184E-03    -59.8177E-03    -59.6735E-03     119.335E-03    -59.6610E-03     816.939E-06    -42.9923E+06    -59.7778E+06    -245.683E+06    -59.8013E+06    -245.659E+06    -42.9923E+06     1.75309E+06         30.0938
            1383     4.71248E-03     75.3207E-03         8.77795        -2.85810        -3.01856        -2.85995         8.61934        -2.85810        -1.61547     119.475E-03    -59.6503E-03    -59.8245E-03    -59.7335E-03     119.468E-03    -59.7348E-03     1.77976E-03    -32.0713E+06    -55.2780E+06    -233.810E+06    -55.3214E+06    -233.767E+06    -32.0713E+06     1.66865E+06         30.4035
            1384     5.65344E-03     75.3236E-03         8.73343        -2.84152        -3.00495        -2.82818         8.57153        -2.85638        -2.30583     119.138E-03    -59.3565E-03    -59.7818E-03    -59.3486E-03     119.123E-03    -59.7742E-03     3.22396E-03    -20.3095E+06    -49.4759E+06    -218.765E+06    -49.5319E+06    -218.709E+06    -20.3095E+06     1.61871E+06         30.8066
            1385     6.59711E-03     75.3266E-03         8.53033        -2.80419        -2.85008        -2.78505         8.51119        -2.85008    -921.670E-03     118.838E-03    -59.1157E-03    -59.7222E-03    -59.0786E-03     118.801E-03    -59.7222E-03     4.92374E-03    -15.5328E+06    -46.1284E+06    -194.021E+06    -46.1658E+06    -193.983E+06    -15.5328E+06     1.05525E+06         31.3218
            1386     7.54015E-03     75.3333E-03         8.44240        -2.74109        -2.83944        -2.72669         8.42800        -2.83944    -300.185E-03     118.590E-03    -58.9617E-03    -59.6279E-03    -58.8783E-03     118.506E-03    -59.6279E-03     7.53370E-03    -14.5261E+06    -44.1152E+06    -160.880E+06    -44.1778E+06    -160.817E+06    -14.5261E+06     1.95320E+06         31.9802
            1387     8.48270E-03     75.3415E-03         8.34123        -2.67179        -2.82465        -2.65807         8.32751        -2.82465    -277.749E-03     118.523E-03    -58.9785E-03    -59.5446E-03    -58.8155E-03     118.360E-03    -59.5446E-03     10.5831E-03    -9.94999E+06    -40.0753E+06    -120.304E+06    -40.3145E+06    -120.065E+06    -9.94999E+06     3.69480E+06         32.8365
            1388     9.42504E-03     75.3557E-03         8.22848        -2.59952        -2.80640        -2.58391         8.21287        -2.80640    -204.238E-03     118.569E-03    -59.1015E-03    -59.4677E-03    -58.7429E-03     118.211E-03    -59.4677E-03     15.5714E-03    -5.44232E+06    -34.9615E+06    -75.5297E+06    -36.7233E+06    -73.7679E+06    -5.44232E+06     6.06219E+06         33.9932
            1389     10.3682E-03     75.3750E-03         8.08558        -2.50221        -2.78486        -2.49712         8.08049        -2.78486     434.229E-03     118.179E-03    -58.7873E-03    -59.3919E-03    -58.2695E-03     117.661E-03    -59.3919E-03     19.1072E-03    -702.437E+03    -15.8485E+06    -46.0817E+06    -35.6546E+06    -26.2755E+06    -702.437E+03     6.59057E+06         35.6498
            1390     11.3133E-03     75.3953E-03         7.95916        -2.42028        -2.75979        -2.39464         7.93351        -2.75979     848.052E-03     118.678E-03    -58.8500E-03    -59.8280E-03    -58.4901E-03     117.745E-03    -59.2544E-03     25.0983E-03     46.4930E+06    -4.74341E+06    -35.3571E+06    -34.8726E+06     45.2821E+06    -4.01694E+06     4.62181E+06         38.1640
            1391     12.2540E-03     75.4301E-03         7.83167        -2.33448        -2.73208        -2.28688         7.78407        -2.73208         1.38552     120.086E-03    -59.2271E-03    -60.8588E-03    -58.1822E-03     117.409E-03    -59.2271E-03     42.1683E-03     96.5532E+06     3.59022E+06    -31.4642E+06    -31.3479E+06     96.4369E+06     3.59022E+06     3.10919E+06         42.0567
            1392     13.1987E-03     75.4862E-03         7.67689        -2.22148        -2.70329        -2.18276         7.63817        -2.70329         1.22901     122.571E-03    -59.3642E-03    -63.2073E-03    -57.0134E-03     116.378E-03    -59.3642E-03     65.6590E-03     105.973E+06     36.6331E+06    -25.5845E+06    -25.5111E+06     105.900E+06     36.6331E+06     1.55970E+06         47.8199
            1393     14.1414E-03     75.5706E-03         7.51936        -2.10605        -2.67692        -2.07970         7.49302        -2.67692     998.645E-03     144.328E-03    -59.5344E-03    -84.7934E-03    -60.0501E-03     119.585E-03    -59.5344E-03     135.676E-03     113.936E+06     74.6581E+06    -21.0047E+06    -20.9808E+06     113.912E+06     74.6581E+06     20.9628E+03         55.4037
            1394     15.0842E-03     75.7917E-03         7.37816        -2.00098        -2.66010        -1.99021         7.36740        -2.66010     508.964E-03     204.856E-03    -59.7069E-03    -145.149E-03    -68.1755E-03     127.882E-03    -59.7069E-03     286.274E-03     126.697E+06     106.526E+06    -16.3362E+06    -16.3171E+06     126.678E+06     106.526E+06    -166.155E+03         63.6857
            1395     16.0287E-03     76.2304E-03         7.28051        -1.93008        -2.64912        -1.92499         7.27542        -2.64912     361.087E-03     206.273E-03    -59.7838E-03    -146.489E-03    -67.1203E-03     126.904E-03    -59.7838E-03     291.926E-03     140.254E+06     124.508E+06    -8.58835E+06    -8.56005E+06     140.226E+06     124.508E+06     369.176E+03         70.5919
            1396     942.441E-06     76.4464E-03         14.2076     242.683E-03        -11.6019        -6.44487         9.05056     242.683E-03         8.44069     119.433E-03    -59.1486E-03    -60.2839E-03    -59.7351E-03     119.431E-03    -59.6958E-03    -278.640E-06    -66.0734E+06    -72.9377E+06    -260.149E+06    -70.0283E+06    -260.133E+06    -68.9981E+06    -96.0621E+03         29.6236
            1397     1.88493E-03     76.4434E-03         10.4879        -3.08500        -4.54041        -3.02452         8.97196        -3.08500        -3.52818     119.136E-03    -59.3418E-03    -59.7946E-03    -59.4439E-03     119.135E-03    -59.6911E-03    -192.548E-06    -62.3964E+06    -67.7211E+06    -258.933E+06    -67.0645E+06    -258.914E+06    -63.0717E+06     1.82996E+06         29.7134
            1398     2.82666E-03     76.4456E-03         9.48070        -3.06792        -3.54487        -3.05609         8.99192        -3.06792     59.9279E-03     119.272E-03    -59.5190E-03    -59.7532E-03    -59.5932E-03     119.272E-03    -59.6786E-03     37.0139E-06    -53.1861E+06    -63.7810E+06    -253.568E+06    -63.8097E+06    -253.539E+06    -53.1861E+06     2.33249E+06         29.8662
            1399     3.77017E-03     76.4447E-03         9.18909        -3.05909        -3.28018        -3.03441         8.94678        -3.06255        -2.21856     119.386E-03    -59.5799E-03    -59.8065E-03    -59.6528E-03     119.385E-03    -59.7319E-03     812.758E-06    -41.6240E+06    -59.7722E+06    -245.555E+06    -59.7961E+06    -245.531E+06    -41.6240E+06     1.86290E+06         30.0912
            1400     4.71111E-03     76.4475E-03         9.05933        -3.05331        -3.17625        -3.03192         8.91846        -3.05677        -1.61526     119.147E-03    -59.3900E-03    -59.7574E-03    -59.3853E-03     119.143E-03    -59.7574E-03     1.82291E-03    -31.1146E+06    -54.7854E+06    -234.841E+06    -54.8007E+06    -234.826E+06    -31.1146E+06     1.07186E+06         30.3984
            1401     5.65506E-03     76.4482E-03         8.99569        -3.02041        -3.16264        -2.98696         8.84905        -3.04945        -2.26757     119.017E-03    -59.2665E-03    -59.7502E-03    -59.2500E-03     119.000E-03    -59.7502E-03     3.23496E-03    -20.5326E+06    -50.4691E+06    -219.763E+06    -50.5122E+06    -219.720E+06    -20.5326E+06     2.11557E+06         30.8005
            1402     6.59690E-03     76.4527E-03         8.78518        -2.94735        -3.03711        -2.92842         8.76626        -3.03711    -937.336E-03     118.967E-03    -59.2524E-03    -59.7150E-03    -59.2182E-03     118.933E-03    -59.7150E-03     4.90704E-03    -13.8402E+06    -47.1003E+06    -195.461E+06    -47.1981E+06    -195.363E+06    -13.8402E+06     3.69154E+06         31.3153
            1403     7.53953E-03     76.4578E-03         8.66621        -2.85796        -3.01943        -2.84557         8.65382        -3.01943    -328.640E-03     118.756E-03    -59.1174E-03    -59.6385E-03    -59.0459E-03     118.684E-03    -59.6385E-03     6.96323E-03    -13.0683E+06    -44.0788E+06    -161.154E+06    -44.1879E+06    -161.045E+06    -13.0683E+06     3.38289E+06         31.9721
            1404     8.48269E-03     76.4676E-03         8.53900        -2.77254        -2.99678        -2.75948         8.52594        -2.99678    -334.573E-03     118.427E-03    -58.8832E-03    -59.5435E-03    -58.7187E-03     118.262E-03    -59.5435E-03     10.5744E-03    -12.6500E+06    -41.7347E+06    -122.445E+06    -41.8563E+06    -122.323E+06    -12.6500E+06     2.90579E+06         32.8245
            1405     9.42576E-03     76.4809E-03         8.39412        -2.68077        -2.97041        -2.66674         8.38009        -2.97041    -287.207E-03     118.368E-03    -58.8810E-03    -59.4868E-03    -58.5549E-03     118.010E-03    -59.4548E-03     15.6370E-03    -8.46882E+06    -36.7120E+06    -80.9166E+06    -38.3263E+06    -79.3023E+06    -8.46882E+06     5.40138E+06         33.9744
            1406     10.3693E-03     76.4998E-03         8.22299        -2.56438        -2.94055        -2.56163         8.22024        -2.94055     308.288E-03     118.567E-03    -59.1274E-03    -59.4394E-03    -58.6713E-03     118.062E-03    -59.3910E-03     18.9079E-03     273.473E+03    -14.1475E+06    -45.3198E+06    -33.0607E+06    -25.9765E+06    -156.653E+03     7.24645E+06         35.6195
            1407     11.3100E-03     76.5220E-03         8.06776        -2.46072        -2.90705        -2.44144         8.04848        -2.90705     709.418E-03     118.418E-03    -58.9817E-03    -59.4360E-03    -58.1931E-03     117.455E-03    -59.2623E-03     25.3055E-03     48.5600E+06    -1.59097E+06    -30.5382E+06    -29.8473E+06     47.5663E+06    -1.28821E+06     5.22471E+06         38.1178
            1408     12.2548E-03     76.5556E-03         7.90150        -2.34483        -2.87042        -2.30756         7.86423        -2.87042         1.23066     119.368E-03    -58.9960E-03    -60.3725E-03    -57.6236E-03     116.829E-03    -59.2056E-03     41.2830E-03     98.3704E+06     6.51923E+06    -28.0363E+06    -27.9738E+06     98.3078E+06     6.51923E+06     1.98608E+06         41.9990
            1409     13.1991E-03     76.6095E-03         7.70907        -2.20312        -2.83192        -2.17337         7.67932        -2.83192         1.07443     123.130E-03    -59.3522E-03    -63.7774E-03    -57.7422E-03     117.094E-03    -59.3522E-03     64.8410E-03     106.618E+06     38.5406E+06    -25.3466E+06    -25.3300E+06     106.602E+06     38.5406E+06     1.05776E+06         47.7652
            1410     14.1432E-03     76.6994E-03         7.52883        -2.07453        -2.79566        -2.05583         7.51012        -2.79566     837.998E-03     144.931E-03    -59.5408E-03    -85.3899E-03    -59.9566E-03     119.497E-03    -59.5408E-03     137.260E-03     113.582E+06     75.6688E+06    -21.1174E+06    -21.0568E+06     113.521E+06     75.6688E+06     2.49015E+06         55.3815
            1411     15.0869E-03     76.9169E-03         7.36747        -1.96441        -2.76929        -1.95704         7.36010        -2.76929     388.648E-03     204.993E-03    -59.6739E-03    -145.319E-03    -67.3689E-03     127.043E-03    -59.6739E-03     288.091E-03     128.244E+06     108.120E+06    -15.0267E+06    -14.9617E+06     128.179E+06     108.120E+06     2.01542E+06         63.7301
            1412     16.0338E-03     77.3567E-03         7.24092        -1.87929        -2.74903        -1.87523         7.23686        -2.74903     288.026E-03     207.195E-03    -59.7388E-03    -147.456E-03    -67.8679E-03     127.607E-03    -59.7388E-03     293.007E-03     141.012E+06     125.200E+06    -8.25435E+06    -8.22918E+06     140.987E+06     125.200E+06    -53.3709E+03         70.7016
            1413     942.786E-06     77.5708E-03         13.3910    -208.950E-03        -10.3815        -6.37159         9.38108    -208.950E-03         7.22767     119.158E-03    -59.2122E-03    -59.9453E-03    -59.4829E-03     119.156E-03    -59.6735E-03     4.24448E-06    -66.8546E+06    -72.0856E+06    -260.883E+06    -69.8505E+06    -260.868E+06    -69.1040E+06    -624.224E+03         29.6258
            1414     1.88422E-03     77.5706E-03         10.4098        -3.27695        -4.34075        -3.21869         9.28774        -3.27695        -3.12041     119.721E-03    -59.6918E-03    -60.0290E-03    -60.0142E-03     119.719E-03    -59.7050E-03    -361.413E-06    -61.9895E+06    -68.1178E+06    -260.347E+06    -68.1294E+06    -260.335E+06    -61.9895E+06     778.068E+03         29.7147
            1415     2.82711E-03     77.5699E-03         9.65430        -3.25954        -3.59224        -3.24236         9.30442        -3.25954    -81.2345E-03     119.474E-03    -59.6055E-03    -59.8683E-03    -59.6565E-03     119.473E-03    -59.8163E-03     129.751E-06    -53.1547E+06    -63.9222E+06    -255.121E+06    -63.9409E+06    -255.102E+06    -53.1547E+06     1.77970E+06         29.8647
            1416     3.76830E-03     77.5716E-03         9.40273        -3.23936        -3.38262        -3.18906         9.21906        -3.24924        -2.08880     119.129E-03    -59.3281E-03    -59.8007E-03    -59.3267E-03     119.127E-03    -59.8007E-03     807.185E-06    -42.1986E+06    -59.2947E+06    -245.645E+06    -59.3157E+06    -245.624E+06    -42.1986E+06     1.70830E+06         30.0867
            1417     4.71245E-03     77.5717E-03         9.29548        -3.22653        -3.31182        -3.18159         9.17514        -3.23641        -1.66738     119.009E-03    -59.2437E-03    -59.7654E-03    -59.2400E-03     119.005E-03    -59.7654E-03     1.56795E-03    -31.6068E+06    -56.0052E+06    -235.787E+06    -56.0439E+06    -235.749E+06    -31.6068E+06     2.22716E+06         30.3922
            1418     5.65431E-03     77.5739E-03         9.22531        -3.18625        -3.29900        -3.13156         9.09521        -3.22359        -2.22953     118.996E-03    -59.2552E-03    -59.7413E-03    -59.2422E-03     118.984E-03    -59.7413E-03     2.88197E-03    -22.3085E+06    -52.8968E+06    -222.250E+06    -52.9758E+06    -222.170E+06    -22.3085E+06     3.51408E+06         30.7941
            1419     6.59733E-03     77.5782E-03         9.02382        -3.08802        -3.20661        -3.06807         9.00387        -3.20661    -980.860E-03     119.014E-03    -59.3114E-03    -59.7029E-03    -59.2769E-03     118.980E-03    -59.7029E-03     4.84045E-03    -16.5089E+06    -48.2228E+06    -197.146E+06    -48.3310E+06    -197.038E+06    -16.5089E+06     3.89575E+06         31.3091
            1420     7.53963E-03     77.5837E-03         8.87767        -2.97846        -3.18408        -2.96826         8.86747        -3.18408    -369.017E-03     118.835E-03    -59.1985E-03    -59.6366E-03    -59.1253E-03     118.762E-03    -59.6366E-03     7.10349E-03    -14.6687E+06    -43.9494E+06    -161.412E+06    -44.1354E+06    -161.226E+06    -14.6687E+06     4.37941E+06         31.9654
            1421     8.48197E-03     77.5926E-03         8.73145        -2.88109        -3.15586        -2.86833         8.71869        -3.15586    -418.148E-03     118.409E-03    -58.8659E-03    -59.5427E-03    -58.7085E-03     118.251E-03    -59.5427E-03     10.3538E-03    -14.6074E+06    -41.2388E+06    -123.025E+06    -41.4977E+06    -122.767E+06    -14.6074E+06     4.41794E+06         32.8148
            1422     9.42602E-03     77.6049E-03         8.56469        -2.77572        -3.12368        -2.76255         8.55151        -3.12368    -384.203E-03     118.420E-03    -58.9447E-03    -59.4758E-03    -58.6160E-03     118.060E-03    -59.4437E-03     15.6461E-03    -13.3378E+06    -38.5553E+06    -82.0291E+06    -38.9140E+06    -81.6704E+06    -13.3378E+06     3.30685E+06         33.9577
            1423     10.3676E-03     77.6274E-03         8.36194        -2.63606        -3.08746        -2.63499         8.36087        -3.08746     176.018E-03     118.473E-03    -59.0552E-03    -59.4181E-03    -58.5702E-03     117.940E-03    -59.3697E-03     19.4235E-03    -3.96004E+06    -19.0898E+06    -46.7194E+06    -34.8479E+06    -28.2526E+06    -6.66873E+06     3.82922E+06         35.5914
            1424     11.3121E-03     77.6467E-03         8.17078        -2.50510        -3.04661        -2.49074         8.15641        -3.04661     578.241E-03     118.131E-03    -58.8296E-03    -59.3016E-03    -57.9465E-03     117.192E-03    -59.2452E-03     25.1213E-03     49.2627E+06    -2.59793E+06    -30.3849E+06    -29.8991E+06     48.7769E+06    -2.59793E+06     4.39543E+06         38.0754
            1425     12.2561E-03     77.6793E-03         7.97696        -2.36927        -3.00216        -2.34126         7.94895        -3.00216         1.07183     119.696E-03    -58.9977E-03    -60.6986E-03    -57.9168E-03     117.124E-03    -59.2073E-03     41.3784E-03     99.7792E+06     8.73401E+06    -27.5560E+06    -27.4158E+06     99.6390E+06     8.73401E+06     3.76572E+06         41.9445
            1426     13.1976E-03     77.7380E-03         7.75608        -2.20841        -2.95563        -2.18680         7.73448        -2.95563     916.000E-03     123.370E-03    -59.3713E-03    -63.9989E-03    -58.0883E-03     117.460E-03    -59.3713E-03     64.4877E-03     106.200E+06     38.1543E+06    -27.4983E+06    -27.2993E+06     106.001E+06     38.1543E+06     4.20572E+06         47.7123
            1427     14.1410E-03     77.8216E-03         7.54425        -2.06305        -2.91079        -2.05044         7.53165        -2.91079     687.612E-03     143.705E-03    -59.5474E-03    -84.1575E-03    -59.2827E-03     118.830E-03    -59.5474E-03     134.718E-03     112.807E+06     73.3888E+06    -24.1979E+06    -24.0320E+06     112.641E+06     73.3888E+06     3.43618E+06         55.3630
            1428     15.0894E-03     78.0408E-03         7.35048        -1.93876        -2.87529        -1.93398         7.34570        -2.87529     271.049E-03     204.319E-03    -59.6679E-03    -144.651E-03    -67.2699E-03     126.938E-03    -59.6679E-03     286.724E-03     128.813E+06     107.781E+06    -16.0408E+06    -15.9369E+06     128.709E+06     107.781E+06     532.273E+03         63.7792
            1429     16.0298E-03     78.4846E-03         7.17661        -1.82901        -2.84532        -1.82548         7.17308        -2.84532     222.288E-03     207.284E-03    -59.7522E-03    -147.532E-03    -68.3046E-03     128.057E-03    -59.7522E-03     292.688E-03     142.542E+06     126.850E+06    -7.57054E+06    -7.51022E+06     142.482E+06     126.850E+06    -445.304E+03         70.8201
            1430     942.677E-06     78.6966E-03         12.2832    -675.287E-03        -8.89015        -6.25215         9.64522    -675.287E-03         5.61070     119.452E-03    -59.2943E-03    -60.1574E-03    -59.9454E-03     119.450E-03    -59.5049E-03     556.238E-06    -67.4905E+06    -72.3945E+06    -262.360E+06    -72.4166E+06    -262.338E+06    -67.4905E+06     1.14395E+06         29.6253
            1431     1.88474E-03     78.6970E-03         10.2093        -3.44116        -4.04712        -3.35452         9.51671        -3.44116        -2.59030     119.758E-03    -59.7260E-03    -60.0322E-03    -59.9458E-03     119.758E-03    -59.8118E-03    -301.019E-06    -62.1725E+06    -69.1887E+06    -261.507E+06    -69.1992E+06    -261.497E+06    -62.1725E+06     400.025E+03         29.7121
            1432     2.82563E-03     78.6961E-03         9.76317        -3.41728        -3.61107        -3.40422         9.55632        -3.41728    -300.209E-03     119.439E-03    -59.5344E-03    -59.9042E-03    -59.5856E-03     119.438E-03    -59.8522E-03     48.7447E-06    -55.3969E+06    -65.3903E+06    -256.435E+06    -65.3972E+06    -256.428E+06    -55.3969E+06     849.347E+03         29.8603
            1433     3.76981E-03     78.6962E-03         9.58920        -3.39965        -3.47685        -3.34599         9.46614        -3.40745        -1.91822     119.101E-03    -59.2928E-03    -59.8087E-03    -59.2913E-03     119.100E-03    -59.8087E-03     949.507E-06    -45.4541E+06    -61.7086E+06    -247.505E+06    -61.7488E+06    -247.465E+06    -45.4541E+06     2.47206E+06         30.0812
            1434     4.71137E-03     78.6971E-03         9.50528        -3.38524        -3.43060        -3.32431         9.40680        -3.39304        -1.72634     119.158E-03    -59.3735E-03    -59.7846E-03    -59.3699E-03     119.154E-03    -59.7846E-03     1.56984E-03    -33.5433E+06    -58.0211E+06    -237.569E+06    -58.0848E+06    -237.505E+06    -33.5433E+06     3.27335E+06         30.3864
            1435     5.65425E-03     78.6998E-03         9.42042        -3.33455        -3.41439        -3.26134         9.30965        -3.37683        -2.15770     119.026E-03    -59.2572E-03    -59.7690E-03    -59.2456E-03     119.015E-03    -59.7690E-03     2.75337E-03    -23.2286E+06    -51.9420E+06    -223.786E+06    -52.0099E+06    -223.718E+06    -23.2286E+06     3.20406E+06         30.7881
            1436     6.59691E-03     78.7027E-03         9.23722        -3.22125        -3.35648        -3.19933         9.21529        -3.35648        -1.03509     118.817E-03    -59.1064E-03    -59.7104E-03    -59.0683E-03     118.779E-03    -59.7104E-03     5.00195E-03    -17.0320E+06    -46.3870E+06    -197.925E+06    -46.5123E+06    -197.800E+06    -17.0320E+06     3.91764E+06         31.3034
            1437     7.53969E-03     78.7103E-03         9.07546        -3.10066        -3.33109        -3.09230         9.06710        -3.33109    -410.291E-03     118.741E-03    -59.1125E-03    -59.6286E-03    -59.0425E-03     118.671E-03    -59.6286E-03     7.02441E-03    -14.3430E+06    -42.5364E+06    -162.887E+06    -42.7123E+06    -162.711E+06    -14.3430E+06     3.99996E+06         31.9601
            1438     8.48309E-03     78.7166E-03         8.90993        -2.99018        -3.29938        -2.97768         8.89743        -3.29938    -499.962E-03     118.787E-03    -59.2316E-03    -59.5556E-03    -59.0756E-03     118.627E-03    -59.5518E-03     10.3115E-03    -12.9874E+06    -38.2917E+06    -123.496E+06    -38.5791E+06    -123.209E+06    -12.9874E+06     4.29045E+06         32.8076
            1439     9.42454E-03     78.7320E-03         8.71568        -2.86467        -3.26261        -2.85199         8.70300        -3.26261    -463.788E-03     118.566E-03    -59.0833E-03    -59.4824E-03    -58.7323E-03     118.211E-03    -59.4787E-03     15.6158E-03    -10.5825E+06    -35.4562E+06    -80.3240E+06    -35.8091E+06    -79.9711E+06    -10.5825E+06     3.73996E+06         33.9434
            1440     10.3691E-03     78.7508E-03         8.49205        -2.71257        -3.22107        -2.71224         8.49172        -3.22107     59.4141E-03     118.063E-03    -58.6893E-03    -59.3739E-03    -58.1701E-03     117.544E-03    -59.3739E-03     19.0944E-03    -4.77454E+06    -21.2832E+06    -45.9839E+06    -34.2050E+06    -29.4210E+06    -8.41555E+06     1.75235E+06         35.5653
            1441     11.3117E-03     78.7732E-03         8.27339        -2.56115        -3.17451        -2.55050         8.26273        -3.17451     457.509E-03     118.374E-03    -58.8677E-03    -59.5066E-03    -58.2510E-03     117.490E-03    -59.2394E-03     24.5722E-03     46.7634E+06    -6.25101E+06    -32.5760E+06    -32.4185E+06     46.6058E+06    -6.25101E+06     3.20485E+06         38.0345
            1442     12.2538E-03     78.8043E-03         8.04667        -2.40062        -3.12365        -2.37977         8.02582        -3.12365     929.956E-03     119.873E-03    -59.2388E-03    -60.6343E-03    -58.0862E-03     117.325E-03    -59.2388E-03     40.9590E-03     98.2734E+06     8.36852E+06    -31.3555E+06    -31.0600E+06     97.9779E+06     8.36852E+06     6.02845E+06         41.8897
            1443     13.1986E-03     78.8647E-03         7.80468        -2.23017        -3.07020        -2.21448         7.78899        -3.07020     782.068E-03     123.121E-03    -59.3897E-03    -63.7310E-03    -57.7203E-03     117.110E-03    -59.3897E-03     64.9443E-03     105.960E+06     38.3050E+06    -27.5508E+06    -27.2467E+06     105.655E+06     38.3050E+06     6.06321E+06         47.6610
            1444     14.1418E-03     78.9471E-03         7.56457        -2.07152        -3.01795        -2.06292         7.55597        -3.01795     568.133E-03     143.986E-03    -59.5796E-03    -84.4060E-03    -60.0866E-03     119.666E-03    -59.5796E-03     134.043E-03     115.714E+06     75.0797E+06    -21.1633E+06    -21.0081E+06     115.559E+06     75.0797E+06     3.40158E+06         55.3464
            1445     15.0841E-03     79.1622E-03         7.32995        -1.92605        -2.97349        -1.92274         7.32664        -2.97349     188.749E-03     205.284E-03    -59.7494E-03    -145.534E-03    -68.0708E-03     127.820E-03    -59.7494E-03     287.322E-03     130.516E+06     108.786E+06    -15.2608E+06    -15.1527E+06     130.408E+06     108.786E+06     662.921E+03         63.8270
            1446     16.0311E-03     79.6136E-03         7.09354        -1.78213        -2.93276        -1.77895         7.09037        -2.93276     174.913E-03     207.590E-03    -59.8203E-03    -147.770E-03    -67.6934E-03     127.514E-03    -59.8203E-03     294.164E-03     142.609E+06     126.086E+06    -8.51475E+06    -8.42367E+06     142.518E+06     126.086E+06    -399.762E+03         70.9416
            1447     941.406E-06     79.8223E-03         11.1804        -1.17203        -7.36017        -6.03098         9.85125        -1.17203         3.74794     119.899E-03    -59.4487E-03    -60.4499E-03    -60.1985E-03     119.896E-03    -59.6979E-03     452.702E-06    -69.0843E+06    -75.1641E+06    -264.383E+06    -73.6181E+06    -264.349E+06    -70.6647E+06     2.38464E+06         29.6192
            1448     1.88390E-03     79.8230E-03         10.0192        -3.57329        -3.78525        -3.46772         9.70164        -3.57329        -1.97292     119.279E-03    -59.3996E-03    -59.8796E-03    -59.3991E-03     119.279E-03    -59.8796E-03    -229.843E-06    -64.2323E+06    -71.2728E+06    -262.135E+06    -71.2865E+06    -262.122E+06    -64.2323E+06     1.20010E+06         29.7052
            1449     2.82748E-03     79.8218E-03         9.83188        -3.52905        -3.62803        -3.52063         9.73852        -3.54310    -567.115E-03     119.342E-03    -59.4110E-03    -59.9307E-03    -59.5585E-03     119.342E-03    -59.7831E-03     187.793E-06    -56.2528E+06    -67.6249E+06    -258.106E+06    -67.6341E+06    -258.097E+06    -56.2528E+06     992.149E+03         29.8538
            1450     3.76866E-03     79.8211E-03         9.72158        -3.51563        -3.55403        -3.46463         9.64762        -3.53107        -1.70290     119.381E-03    -59.4390E-03    -59.9416E-03    -59.5850E-03     119.379E-03    -59.7940E-03     813.213E-06    -45.4856E+06    -63.2949E+06    -250.888E+06    -63.3327E+06    -250.850E+06    -45.4856E+06     2.32934E+06         30.0755
            1451     4.71176E-03     79.8237E-03         9.68234        -3.51566        -3.53940        -3.45872         9.60305        -3.51704        -1.76742     119.118E-03    -59.3243E-03    -59.7935E-03    -59.3192E-03     119.113E-03    -59.7935E-03     1.85183E-03    -34.0234E+06    -57.5876E+06    -238.125E+06    -57.6332E+06    -238.079E+06    -34.0234E+06     2.73484E+06         30.3812
            1452     5.65410E-03     79.8242E-03         9.59163        -3.46371        -3.52092        -3.39205         9.50128        -3.50224        -2.04501     119.041E-03    -59.2709E-03    -59.7706E-03    -59.2575E-03     119.028E-03    -59.7706E-03     2.98225E-03    -24.1676E+06    -52.6008E+06    -223.996E+06    -52.6247E+06    -223.972E+06    -24.1676E+06     2.02357E+06         30.7837
            1453     6.59693E-03     79.8289E-03         9.41561        -3.34101        -3.48171        -3.31744         9.39204        -3.48171        -1.06024     118.872E-03    -59.1541E-03    -59.7177E-03    -59.1167E-03     118.834E-03    -59.7177E-03     5.00340E-03    -18.0547E+06    -47.1937E+06    -199.642E+06    -47.2810E+06    -199.555E+06    -18.0547E+06     2.68538E+06         31.2997
            1454     7.54013E-03     79.8344E-03         9.23623        -3.20487        -3.45460        -3.19870         9.23005        -3.45460    -403.254E-03     118.895E-03    -59.2460E-03    -59.6490E-03    -59.1775E-03     118.827E-03    -59.6490E-03     6.93813E-03    -13.3386E+06    -40.9409E+06    -162.293E+06    -41.0283E+06    -162.206E+06    -13.3386E+06     2.43520E+06         31.9561
            1455     8.48188E-03     79.8438E-03         9.05674        -3.08627        -3.42030        -3.07479         9.04526        -3.42030    -535.733E-03     118.922E-03    -59.3273E-03    -59.5946E-03    -59.1824E-03     118.773E-03    -59.5908E-03     9.99229E-03    -10.9694E+06    -36.2473E+06    -125.007E+06    -36.3646E+06    -124.890E+06    -10.9694E+06     2.49125E+06         32.8009
            1456     9.42523E-03     79.8569E-03         8.84595        -2.95181        -3.38039        -2.94030         8.83445        -3.38039    -497.595E-03     118.621E-03    -59.0970E-03    -59.5236E-03    -58.7678E-03     118.288E-03    -59.5198E-03     15.1031E-03    -8.29104E+06    -32.4132E+06    -81.0616E+06    -32.9321E+06    -80.5427E+06    -8.29104E+06     3.92331E+06         33.9300
            1457     10.3673E-03     79.8761E-03         8.60789        -2.79072        -3.33532        -2.79060         8.60778        -3.33532    -13.6490E-03     118.292E-03    -58.8598E-03    -59.4320E-03    -58.3650E-03     117.797E-03    -59.4320E-03     18.6724E-03    -2.49253E+06    -16.8498E+06    -44.7244E+06    -32.3056E+06    -27.9062E+06    -3.85499E+06     4.22069E+06         35.5395
            1458     11.3113E-03     79.8982E-03         8.36650        -2.62351        -3.28480        -2.61532         8.35831        -3.28480     378.093E-03     118.356E-03    -58.8373E-03    -59.5188E-03    -58.1184E-03     117.410E-03    -59.2916E-03     25.2009E-03     43.7927E+06    -5.70520E+06    -33.8981E+06    -33.2880E+06     42.5906E+06    -5.11317E+06     5.06811E+06         37.9924
            1459     12.2542E-03     79.9324E-03         8.11197        -2.44447        -3.22920        -2.42797         8.09546        -3.22920     833.127E-03     119.884E-03    -59.1430E-03    -60.7415E-03    -58.1076E-03     117.376E-03    -59.2682E-03     41.0797E-03     95.7897E+06     7.40291E+06    -31.2809E+06    -30.9897E+06     95.4985E+06     7.40291E+06     5.97574E+06         41.8342
            1460     13.1978E-03     79.9862E-03         7.84364        -2.25837        -3.17012        -2.24604         7.83131        -3.17012     693.751E-03     122.793E-03    -59.4171E-03    -63.3759E-03    -57.4882E-03     116.905E-03    -59.4171E-03     63.9659E-03     107.381E+06     40.1894E+06    -25.8532E+06    -25.6804E+06     107.208E+06     40.1894E+06     4.50033E+06         47.6109
            1461     14.1423E-03     80.0761E-03         7.57432        -2.08406        -3.11112        -2.07788         7.56814        -3.11112     483.787E-03     144.481E-03    -59.6097E-03    -84.8718E-03    -60.4109E-03     120.021E-03    -59.6097E-03     134.915E-03     117.959E+06     77.9797E+06    -18.9648E+06    -18.8984E+06     117.892E+06     77.9797E+06     2.93145E+06         55.3347
            1462     15.0850E-03     80.2887E-03         7.29422        -1.91483        -3.05726        -1.91236         7.29175        -3.05726     143.090E-03     205.559E-03    -59.8119E-03    -145.748E-03    -68.8350E-03     128.647E-03    -59.8119E-03     286.811E-03     133.414E+06     111.284E+06    -12.3664E+06    -12.2867E+06     133.335E+06     111.284E+06     3.19175E+06         63.8796
            1463     16.0278E-03     80.7362E-03         6.99097        -1.73024        -3.00424        -1.72736         6.98809        -3.00424     149.626E-03     207.190E-03    -59.8920E-03    -147.298E-03    -66.9988E-03     126.891E-03    -59.8920E-03     294.405E-03     144.001E+06     127.922E+06    -5.40193E+06    -5.32574E+06     143.925E+06     127.922E+06     2.20755E+06         71.0602
            1464     941.850E-06     80.9507E-03         10.3485        -1.58460        -6.15968        -5.70930         9.95080        -1.63728         1.81180     119.366E-03    -59.2239E-03    -60.1422E-03    -59.5736E-03     119.364E-03    -59.7900E-03     769.902E-06    -72.3090E+06    -76.0693E+06    -267.165E+06    -74.5058E+06    -267.148E+06    -73.8895E+06     1.44726E+06         29.6065
            1465     1.88468E-03     80.9462E-03         9.91036        -3.59997        -3.70748        -3.56832         9.82387        -3.65265        -1.26745     119.288E-03    -59.3089E-03    -59.9795E-03    -59.5848E-03     119.288E-03    -59.7030E-03     28.3237E-06    -65.6156E+06    -72.3638E+06    -263.250E+06    -72.3750E+06    -263.239E+06    -65.6156E+06     1.40270E+06         29.6955
            1466     2.82711E-03     80.9479E-03         9.89306        -3.59198        -3.67695        -3.60803         9.86035        -3.62819    -815.012E-03     119.402E-03    -59.3293E-03    -60.0731E-03    -59.6688E-03     119.402E-03    -59.7335E-03     123.236E-06    -56.2155E+06    -69.2345E+06    -259.293E+06    -69.2550E+06    -259.272E+06    -56.2155E+06     1.83353E+06         29.8466
            1467     3.76923E-03     80.9478E-03         9.80601        -3.58021        -3.62918        -3.54913         9.76218        -3.61643        -1.46705     119.283E-03    -59.3696E-03    -59.9131E-03    -59.5160E-03     119.282E-03    -59.7655E-03     633.051E-06    -46.1059E+06    -64.6328E+06    -252.699E+06    -64.6553E+06    -252.676E+06    -46.1059E+06      1.7506E+06         30.0700
            1468     4.71168E-03     80.9474E-03         9.79205        -3.60036        -3.62393        -3.55470         9.72568        -3.60322        -1.79227     119.089E-03    -59.3327E-03    -59.7562E-03    -59.3265E-03     119.083E-03    -59.7562E-03     1.97284E-03    -36.2071E+06     -59.671E+06    -238.893E+06    -59.6961E+06    -238.868E+06    -36.2071E+06     1.89395E+06         30.3773
            1469     5.65465E-03     80.9510E-03         9.70567        -3.55986        -3.59863        -3.49673         9.63459        -3.59067        -1.88596     119.190E-03    -59.4350E-03    -59.7548E-03    -59.4219E-03     119.177E-03    -59.7548E-03     3.03613E-03    -25.5708E+06    -54.1016E+06    -223.912E+06    -54.1247E+06    -223.889E+06    -25.5708E+06     1.40175E+06         30.7811
            1470     6.59684E-03     80.9531E-03         9.54092        -3.43721        -3.57176        -3.41312         9.51682        -3.57176        -1.03101     119.235E-03    -59.5008E-03    -59.7345E-03    -59.4682E-03     119.203E-03    -59.7345E-03     4.65763E-03    -20.2760E+06    -48.4184E+06    -198.785E+06    -48.4328E+06    -198.771E+06    -20.2760E+06    -179.381E+03         31.2973
            1471     7.53901E-03     80.9609E-03         9.34171        -3.28514        -3.54440        -3.28151         9.33808        -3.54440    -334.292E-03     119.027E-03    -59.3372E-03    -59.6898E-03    -59.2646E-03     118.954E-03    -59.6898E-03     7.09202E-03    -16.8564E+06    -43.7561E+06    -163.017E+06    -43.7755E+06    -162.998E+06    -16.8564E+06     327.002E+03         31.9520
            1472     8.48173E-03     80.9695E-03         9.15991        -3.16591        -3.50897        -3.15663         9.15063        -3.50897    -509.256E-03     118.814E-03    -59.1754E-03    -59.6390E-03    -59.0312E-03     118.670E-03    -59.6390E-03     9.97818E-03    -12.3326E+06    -40.0822E+06    -127.111E+06    -40.1645E+06    -127.029E+06    -12.3326E+06     2.18883E+06         32.7933
            1473     9.42441E-03     80.9818E-03         8.94858        -3.03342        -3.46805        -3.02419         8.93935        -3.46805    -461.000E-03     118.668E-03    -59.1119E-03    -59.5560E-03    -58.7775E-03     118.334E-03    -59.5560E-03     15.0337E-03    -10.1887E+06    -36.9279E+06    -83.4636E+06    -37.3672E+06    -83.0243E+06    -10.1887E+06     3.42185E+06         33.9162
            1474     10.3678E-03     81.0027E-03         8.69753        -2.86532        -3.42169        -2.86527         8.69749        -3.42169    -16.2757E-03     118.410E-03    -58.9305E-03    -59.4794E-03    -58.4230E-03     117.902E-03    -59.4794E-03     18.9356E-03    -2.84438E+06    -17.6799E+06    -46.3432E+06    -33.9581E+06    -30.0649E+06    -2.84438E+06     5.73306E+06         35.5140
            1475     11.3100E-03     81.0227E-03         8.44061        -2.68881        -3.36919        -2.68148         8.43329        -3.36919     371.431E-03     118.153E-03    -58.8269E-03    -59.3264E-03    -57.8591E-03     117.186E-03    -59.3264E-03     25.4088E-03     43.6821E+06    -4.82710E+06    -31.8936E+06    -30.8617E+06     40.8361E+06    -3.01295E+06     6.69808E+06         37.9504
            1476     12.2551E-03     81.0573E-03         8.17134        -2.50079        -3.31099        -2.48581         8.15635        -3.31099     798.980E-03     119.941E-03    -59.1206E-03    -60.8208E-03    -58.0386E-03     117.301E-03    -59.2624E-03     42.0969E-03     95.6425E+06     5.53536E+06    -28.7895E+06    -28.5532E+06     95.4062E+06     5.53536E+06     5.26106E+06         41.7799
            1477     13.1958E-03     81.1156E-03         7.87217        -2.29330        -3.24809        -2.28203         7.86090        -3.24809     666.157E-03     122.975E-03    -59.4264E-03    -63.5485E-03    -57.8120E-03     117.238E-03    -59.4264E-03     63.5104E-03     109.124E+06     39.4370E+06    -26.2215E+06    -26.0691E+06     108.972E+06     39.4370E+06     4.49533E+06         47.5619
            1478     14.1415E-03     81.1945E-03         7.56302        -2.09436        -3.18301        -2.08872         7.55738        -3.18301     463.368E-03     145.506E-03    -59.6323E-03    -85.8741E-03    -60.3812E-03     120.014E-03    -59.6323E-03     137.080E-03     119.308E+06     78.4601E+06    -22.2469E+06    -22.1415E+06     119.202E+06     78.4601E+06     3.64259E+06         55.3235
            1479     15.0840E-03     81.4243E-03         7.23573        -1.89547        -3.11901        -1.89321         7.23347        -3.11901     140.727E-03     205.695E-03    -59.8287E-03    -145.867E-03    -68.9126E-03     128.741E-03    -59.8287E-03     287.670E-03     135.387E+06     111.414E+06    -15.9307E+06    -15.8887E+06     135.345E+06     111.414E+06     2.32602E+06         63.9304
            1480     16.0269E-03     81.8549E-03         6.87374        -1.67616        -3.05245        -1.67339         6.87098        -3.05245     149.420E-03     206.231E-03    -59.9090E-03    -146.322E-03    -66.5150E-03     126.424E-03    -59.9090E-03     293.198E-03     144.427E+06     127.246E+06    -7.91820E+06    -7.88552E+06     144.394E+06     127.246E+06     1.49593E+06         71.1678
            1481     943.733E-06     82.0721E-03         10.0371        -1.97944        -5.50023        -5.30103         9.94257        -2.08409    -110.233E-03     118.713E-03    -58.9217E-03    -59.7917E-03    -59.4116E-03     118.709E-03    -59.2975E-03     191.795E-06    -77.1735E+06    -80.2589E+06    -269.027E+06    -80.2754E+06    -269.010E+06    -77.1735E+06    -38.8168E+03         29.5933
            1482     1.88542E-03     82.0745E-03         9.88020        -3.57201        -3.75352        -3.61011         9.84144        -3.67666    -575.722E-03     119.493E-03    -59.5228E-03    -59.9705E-03    -59.9697E-03     119.493E-03    -59.5229E-03     19.5336E-06    -68.8885E+06    -76.0119E+06    -264.918E+06    -76.0214E+06    -264.908E+06    -68.8885E+06     1.33604E+06         29.6852
            1483     2.82608E-03     82.0728E-03         9.93238        -3.62309        -3.73856        -3.67173         9.90416        -3.66170        -1.04147     119.334E-03    -59.4434E-03    -59.8906E-03    -59.6345E-03     119.333E-03    -59.6986E-03    -39.5188E-06    -58.1196E+06    -71.0945E+06    -260.147E+06    -71.1114E+06    -260.130E+06    -58.1196E+06     1.30476E+06         29.8390
            1484     3.76983E-03     82.0728E-03         9.84821        -3.61919        -3.68626        -3.61328         9.81384        -3.65780        -1.21129     119.168E-03    -59.4383E-03    -59.7294E-03    -59.4374E-03     119.167E-03    -59.7294E-03     705.707E-06    -46.5564E+06    -65.1929E+06    -252.425E+06    -65.2057E+06    -252.412E+06    -46.5564E+06     497.285E+03         30.0646
            1485     4.71203E-03     82.0736E-03         9.82167        -3.63111        -3.67590        -3.59933         9.76143        -3.64744        -1.78477     119.326E-03    -59.5853E-03    -59.7405E-03    -59.5808E-03     119.321E-03    -59.7405E-03     1.59998E-03    -36.5226E+06    -58.8136E+06    -239.151E+06    -58.8259E+06    -239.139E+06    -36.5226E+06     348.941E+03         30.3736
            1486     5.65419E-03     82.0757E-03         9.71975        -3.59476        -3.63475        -3.53971         9.66469        -3.63475        -1.69522     119.344E-03    -59.5723E-03    -59.7720E-03    -59.5572E-03     119.329E-03    -59.7719E-03     3.11575E-03    -25.7381E+06    -52.5097E+06    -222.957E+06    -52.5231E+06    -222.943E+06    -25.7381E+06     42.1980E+03         30.7781
            1487     6.59629E-03     82.0805E-03         9.58609        -3.49580        -3.61657        -3.47178         9.56207        -3.61657    -957.385E-03     119.389E-03    -59.6167E-03    -59.7722E-03    -59.5806E-03     119.353E-03    -59.7722E-03     4.94776E-03    -19.5156E+06    -48.0816E+06    -197.414E+06    -48.0938E+06    -197.401E+06    -19.5156E+06    -1.22090E+06         31.2936
            1488     7.53860E-03     82.0858E-03         9.39623        -3.34961        -3.59116        -3.34808         9.39470        -3.59116    -226.095E-03     119.041E-03    -59.3085E-03    -59.7327E-03    -59.2335E-03     118.966E-03    -59.7327E-03     7.20462E-03    -16.9000E+06    -44.6882E+06    -165.733E+06    -44.7096E+06    -165.711E+06    -16.9000E+06    -42.1717E+03         31.9464
            1489     8.48182E-03     82.0952E-03         9.20710        -3.22454        -3.55732        -3.21814         9.20070        -3.55732    -432.327E-03     118.727E-03    -59.0647E-03    -59.6623E-03    -58.9104E-03     118.573E-03    -59.6623E-03     10.3001E-03    -13.7093E+06    -41.2910E+06    -129.460E+06    -41.3671E+06    -129.384E+06    -13.7093E+06     2.04578E+06         32.7851
            1490     9.42419E-03     82.1080E-03         8.99302        -3.09045        -3.51715        -3.08408         8.98665        -3.51715    -366.043E-03     118.678E-03    -59.1154E-03    -59.5623E-03    -58.7705E-03     118.333E-03    -59.5623E-03     15.3178E-03     -12.372E+06    -37.8182E+06    -83.9493E+06    -38.0439E+06    -83.7236E+06     -12.372E+06     2.68393E+06         33.9033
            1491     10.3670E-03     82.1273E-03         8.75168        -2.93214        -3.47142        -2.93206         8.75160        -3.47142     40.2224E-03     118.295E-03    -58.8297E-03    -59.4654E-03    -58.3203E-03     117.786E-03    -59.4654E-03     18.9612E-03    -7.83986E+06    -21.0691E+06    -46.4174E+06    -33.3940E+06    -33.8736E+06    -8.05879E+06     3.61792E+06         35.4918
            1492     11.3114E-03     82.1487E-03         8.48950        -2.75294        -3.41942        -2.74522         8.48178        -3.41942     425.683E-03     118.051E-03    -58.7462E-03    -59.3047E-03    -57.7676E-03     117.072E-03    -59.3047E-03     25.5135E-03     40.1373E+06    -8.14822E+06    -29.6760E+06    -28.9914E+06     38.2306E+06    -6.92610E+06     5.68305E+06         37.9131
            1493     12.2533E-03     82.1819E-03         8.19747        -2.54912        -3.36046        -2.53290         8.18125        -3.36046     833.015E-03     119.662E-03    -59.1076E-03    -60.5545E-03    -57.5956E-03     116.824E-03    -59.2288E-03     43.3776E-03     95.5652E+06     3.93394E+06    -28.5158E+06    -28.0181E+06     95.0675E+06     3.93394E+06     7.48632E+06         41.7297
            1494     13.1997E-03     82.2422E-03         7.87411        -2.32527        -3.29504        -2.31240         7.86124        -3.29504     714.100E-03     123.526E-03    -59.3821E-03    -64.1437E-03    -58.4072E-03     117.789E-03    -59.3821E-03     64.1280E-03     111.262E+06     35.2522E+06    -27.4301E+06    -27.0863E+06     110.919E+06     35.2522E+06     5.98236E+06         47.5149
            1495     14.1404E-03     82.3206E-03         7.53223        -2.10333        -3.22475        -2.09627         7.52517        -3.22475     516.902E-03     145.751E-03    -59.6296E-03    -86.1219E-03    -60.7870E-03     120.417E-03    -59.6296E-03     136.080E-03     121.682E+06     75.3676E+06    -22.0134E+06    -21.8848E+06     121.554E+06     75.3676E+06     4.13060E+06         55.3080
            1496     15.0865E-03     82.5493E-03         7.16132        -1.87761        -3.15049        -1.87481         7.15851        -3.15049     199.432E-03     205.785E-03    -59.7990E-03    -145.985E-03    -67.4567E-03     127.256E-03    -59.7990E-03     289.711E-03     136.654E+06     111.016E+06    -14.5648E+06    -14.4439E+06     136.533E+06     111.016E+06     3.89944E+06         63.9756
            1497     16.0280E-03     82.9881E-03         6.75553        -1.63461        -3.07033        -1.63182         6.75275        -3.07033     183.496E-03     206.421E-03    -59.8159E-03    -146.606E-03    -66.5286E-03     126.344E-03    -59.8159E-03     293.034E-03     145.970E+06     126.221E+06    -8.10628E+06    -8.04914E+06     145.912E+06     126.221E+06     1.54258E+06         71.2705
            1498     942.080E-06     83.1978E-03         10.3041        -2.48153        -5.33279        -4.83751         9.86077        -2.53351        -1.86110     119.312E-03    -59.0169E-03    -60.2951E-03    -60.0600E-03     119.307E-03    -59.2468E-03     16.0104E-06    -77.1271E+06    -80.4963E+06    -268.501E+06    -80.4391E+06    -268.482E+06    -77.2028E+06    -340.756E+03         29.5855
            1499     1.88414E-03     83.2003E-03         9.91133        -3.61397        -3.79377        -3.59249         9.76203        -3.66594     38.5075E-03     119.107E-03    -59.2747E-03    -59.8318E-03    -59.4452E-03     119.106E-03    -59.6605E-03    -249.784E-06    -68.4705E+06    -75.8164E+06    -265.997E+06    -75.8245E+06    -265.988E+06    -68.4705E+06     49.2438E+03         29.6763
            1500     2.82808E-03     83.1980E-03         9.89101        -3.61672        -3.75905        -3.65802         9.82234        -3.64908        -1.23217     119.268E-03    -59.4486E-03    -59.8192E-03    -59.6072E-03     119.267E-03    -59.6594E-03    -254.059E-06    -59.3791E+06     -70.466E+06    -259.948E+06    -70.4729E+06    -259.941E+06    -59.3791E+06    -400.562E+03         29.8313
            1501     3.76926E-03     83.1983E-03         9.79680        -3.61465        -3.69258        -3.61849         9.75507        -3.64701    -942.150E-03     119.379E-03    -59.5092E-03    -59.8701E-03    -59.6674E-03     119.378E-03    -59.7103E-03     540.062E-06    -49.4305E+06    -65.7507E+06    -250.762E+06    -65.7642E+06    -250.748E+06    -49.4305E+06    -1.30598E+06         30.0587
            1502     4.71155E-03     83.1996E-03         9.76583        -3.61726        -3.68543        -3.60440         9.70740        -3.63986        -1.72654     119.320E-03    -59.5668E-03    -59.7528E-03    -59.5607E-03     119.313E-03    -59.7528E-03     1.83275E-03    -38.6263E+06    -59.8055E+06    -238.438E+06    -59.8382E+06    -238.406E+06    -38.6263E+06    -2.02729E+06         30.3685
            1503     5.65388E-03     83.2014E-03         9.65822        -3.58720        -3.62921        -3.54489         9.61591        -3.62921        -1.48240     119.377E-03    -59.5981E-03    -59.7789E-03    -59.5796E-03     119.358E-03    -59.7789E-03     3.47285E-03    -28.2277E+06    -53.7506E+06    -222.099E+06    -53.7854E+06    -222.064E+06    -28.2277E+06    -2.02576E+06         30.7724
            1504     6.59665E-03     83.2062E-03         9.54402        -3.50802        -3.61287        -3.48404         9.52005        -3.61287    -859.158E-03     119.142E-03    -59.3721E-03    -59.7696E-03    -59.3327E-03     119.102E-03    -59.7696E-03     5.22304E-03    -20.9043E+06    -48.4995E+06    -198.795E+06    -48.5171E+06    -198.778E+06    -20.9043E+06    -1.04903E+06         31.2870
            1505     7.53900E-03     83.2120E-03         9.36985        -3.37776        -3.59022        -3.37742         9.36951        -3.59022    -94.1075E-03     119.008E-03    -59.3002E-03    -59.7073E-03    -59.2178E-03     118.925E-03    -59.7073E-03     7.52362E-03    -18.8095E+06    -43.9209E+06    -167.277E+06    -43.9607E+06    -167.238E+06    -18.8095E+06    -516.560E+03         31.9396
            1506     8.48120E-03     83.2202E-03         9.19016        -3.25832        -3.55977        -3.25453         9.18638        -3.55977    -324.544E-03     118.806E-03    -59.1787E-03    -59.6274E-03    -59.0147E-03     118.642E-03    -59.6274E-03     10.6539E-03    -17.4991E+06    -38.3099E+06    -130.499E+06    -38.3901E+06    -130.419E+06    -17.4991E+06    -923.424E+03         32.7777
            1507     9.42483E-03     83.2337E-03         8.98078        -3.12648        -3.52257        -3.12255         8.97685        -3.52257    -239.722E-03     118.560E-03    -59.0251E-03    -59.5349E-03    -58.6701E-03     118.205E-03    -59.5349E-03     15.5396E-03    -14.2396E+06    -32.8531E+06    -85.8605E+06    -33.0011E+06    -85.7125E+06    -14.2396E+06     672.481E+03         33.8935
            1508     10.3676E-03     83.2530E-03         8.74455        -2.97246        -3.47925        -2.97198         8.74407        -3.47925     136.422E-03     118.420E-03    -58.9697E-03    -59.4504E-03    -58.4565E-03     117.907E-03    -59.4504E-03     19.0512E-03    -7.97545E+06    -20.4327E+06    -46.2488E+06    -30.5903E+06    -35.8723E+06    -8.19438E+06     3.07733E+06         35.4753
            1509     11.3103E-03     83.2729E-03         8.47740        -2.78868        -3.42882        -2.77936         8.46809        -3.42882     521.276E-03     118.255E-03    -58.9365E-03    -59.3183E-03    -58.0275E-03     117.338E-03    -59.3101E-03     24.7953E-03     37.9304E+06    -11.1052E+06    -31.0740E+06    -30.3590E+06     34.3154E+06    -8.20517E+06     5.89213E+06         37.8819
            1510     12.2564E-03     83.3071E-03         8.17358        -2.57500        -3.36995        -2.55515         8.15373        -3.36995     919.754E-03     119.518E-03    -59.1395E-03    -60.3783E-03    -57.6314E-03     116.876E-03    -59.2442E-03     41.7364E-03     93.9710E+06     2.69806E+06    -29.8563E+06    -29.2761E+06     93.3908E+06     2.69806E+06     8.04179E+06         41.6792
            1511     13.1979E-03     83.3669E-03         7.83234        -2.34039        -3.30289        -2.32353         7.81548        -3.30289     818.063E-03     123.738E-03    -59.3883E-03    -64.3493E-03    -58.4268E-03     117.815E-03    -59.3883E-03     64.8254E-03     113.262E+06     33.8641E+06    -26.0922E+06    -25.7355E+06     112.905E+06     33.8641E+06     6.14454E+06         47.4580
            1512     14.1393E-03     83.4531E-03         7.46952        -2.10514        -3.22843        -2.09508         7.45946        -3.22843     615.753E-03     144.997E-03    -59.6471E-03    -85.3498E-03    -60.9897E-03     120.637E-03    -59.6471E-03     134.280E-03     122.293E+06     72.8933E+06    -20.8809E+06    -20.7048E+06     122.117E+06     72.8933E+06     4.80730E+06         55.2752
            1513     15.0827E-03     83.6655E-03         7.07611        -1.86429        -3.14509        -1.86020         7.07203        -3.14509     291.574E-03     203.962E-03    -59.7949E-03    -144.167E-03    -65.7322E-03     125.527E-03    -59.7949E-03     286.755E-03     136.158E+06     109.646E+06    -13.9046E+06    -13.7420E+06     135.995E+06     109.646E+06     4.75463E+06         64.0053
            1514     16.0366E-03     84.1174E-03         6.64695        -1.60483        -3.05265        -1.60179         6.64392        -3.05265     236.297E-03     206.843E-03    -59.7607E-03    -147.082E-03    -66.1083E-03     125.869E-03    -59.7607E-03     294.014E-03     149.008E+06     128.178E+06    -6.06887E+06    -5.98322E+06     148.922E+06     128.178E+06     3.06314E+06         71.3717
            1515     941.197E-06     84.3269E-03         10.9098        -2.95744        -5.50282        -4.28988         9.69683        -2.95744        -3.25841     119.737E-03    -59.3444E-03    -60.3922E-03    -59.9801E-03     119.734E-03    -59.7536E-03     290.547E-06    -75.9289E+06    -78.6785E+06    -267.364E+06    -78.6101E+06    -267.357E+06    -76.0046E+06    -182.340E+03         29.5803
            1516     1.88488E-03     84.3224E-03         9.95888        -3.60833        -3.90093        -3.54867         9.60662        -3.60833     593.610E-03     119.134E-03    -59.3393E-03    -59.7944E-03    -59.3389E-03     119.133E-03    -59.7944E-03    -365.936E-06    -70.7107E+06    -75.7604E+06    -266.096E+06    -75.7668E+06    -266.089E+06    -70.7107E+06    -902.844E+03         29.6695
            1517     2.82678E-03     84.3252E-03         9.76340        -3.56070        -3.73854        -3.57355         9.62830        -3.59059        -1.35677     119.178E-03    -59.3261E-03    -59.8516E-03    -59.4854E-03     119.177E-03    -59.6918E-03    -60.2883E-06    -63.8610E+06    -72.7995E+06    -259.247E+06    -72.8186E+06    -259.228E+06    -63.8610E+06    -1.39756E+06         29.8238
            1518     3.76897E-03     84.3239E-03         9.63561        -3.55345        -3.63957        -3.54813         9.57405        -3.58333    -696.250E-03     119.334E-03    -59.3580E-03    -59.9757E-03    -59.6253E-03     119.332E-03    -59.7066E-03     600.425E-06    -53.5258E+06    -67.7554E+06    -248.087E+06    -67.8119E+06    -248.030E+06    -53.5258E+06    -2.93146E+06         30.0517
            1519     4.71209E-03     84.3244E-03         9.61736        -3.56435        -3.63335        -3.55979         9.55656        -3.57711        -1.64831     119.318E-03    -59.4656E-03    -59.8526E-03    -59.5682E-03     119.312E-03    -59.7433E-03     2.01350E-03    -42.8658E+06    -62.1563E+06    -236.130E+06    -62.2821E+06    -236.005E+06    -42.8658E+06    -4.41714E+06         30.3614
            1520     5.65425E-03     84.3282E-03         9.52746        -3.55188        -3.57699        -3.52486         9.49475        -3.57131        -1.26318     119.092E-03    -59.3460E-03    -59.7462E-03    -59.3280E-03     119.074E-03    -59.7462E-03     3.44707E-03    -34.2043E+06    -57.0274E+06    -222.196E+06    -57.1544E+06    -222.069E+06    -34.2043E+06    -4.37380E+06         30.7645
            1521     6.59621E-03     84.3311E-03         9.42571        -3.47989        -3.56579        -3.46175         9.40189        -3.56012    -743.010E-03     118.964E-03    -59.2448E-03    -59.7195E-03    -59.2118E-03     118.921E-03    -59.7095E-03     5.40216E-03    -27.2159E+06    -50.4224E+06    -200.580E+06    -50.5719E+06    -200.430E+06    -27.2159E+06    -3.49895E+06         31.2789
            1522     7.53979E-03     84.3374E-03         9.25449        -3.35709        -3.54115        -3.35690         9.25430        -3.54115     45.2323E-03     118.995E-03    -59.3379E-03    -59.6568E-03    -59.2647E-03     118.912E-03    -59.6469E-03     7.60248E-03    -23.4066E+06    -43.5803E+06    -166.356E+06    -43.8041E+06    -166.132E+06    -23.4066E+06    -4.09342E+06         31.9319
            1523     8.48227E-03     84.3468E-03         9.09254        -3.25464        -3.51452        -3.25284         9.09075        -3.51452    -199.605E-03     118.845E-03    -59.2579E-03    -59.5872E-03    -59.1053E-03     118.692E-03    -59.5872E-03     10.2714E-03    -20.6287E+06    -38.1916E+06    -130.394E+06    -38.4526E+06    -130.133E+06    -20.6287E+06    -4.68277E+06         32.7702
            1524     9.42433E-03     84.3582E-03         8.89871        -3.13338        -3.48166        -3.13102         8.89635        -3.48166    -89.8389E-03     118.641E-03    -59.1233E-03    -59.5175E-03    -58.7800E-03     118.297E-03    -59.5175E-03     15.2423E-03    -17.3078E+06    -34.2627E+06    -91.0049E+06    -34.4501E+06    -90.8174E+06    -17.3078E+06    -1.86940E+06         33.8841
            1525     10.3681E-03     84.3788E-03         8.65849        -2.97109        -3.44162        -2.96948         8.65689        -3.44162     260.595E-03     118.746E-03    -59.2678E-03    -59.4777E-03    -58.7891E-03     118.253E-03    -59.4644E-03     18.6832E-03    -9.13118E+06    -22.1594E+06    -50.4362E+06    -31.9861E+06    -40.6095E+06    -9.13118E+06     3.58845E+06         35.4584
            1526     11.3108E-03     84.3993E-03         8.38699        -2.78172        -3.39290        -2.76945         8.37472        -3.39290     642.055E-03     119.049E-03    -59.3460E-03    -59.7027E-03    -58.8291E-03     118.201E-03    -59.3719E-03     23.9912E-03     37.6050E+06    -12.3380E+06    -31.3308E+06    -30.0286E+06     31.6949E+06    -7.73004E+06     6.89446E+06         37.8475
            1527     12.2509E-03     84.4321E-03         8.08873        -2.57432        -3.33477        -2.54911         8.06352        -3.33477         1.03130     119.961E-03    -59.3369E-03    -60.6242E-03    -58.1175E-03     117.454E-03    -59.3369E-03     40.6698E-03     94.0818E+06     1.40903E+06    -27.9859E+06    -27.5350E+06     93.6309E+06     1.40903E+06     7.08206E+06         41.6180
            1528     13.1967E-03     84.4923E-03         7.74454        -2.33658        -3.26735        -2.31466         7.72263        -3.26735     929.918E-03     123.098E-03    -59.4555E-03    -63.6423E-03    -57.4598E-03     116.915E-03    -59.4555E-03     65.6150E-03     114.069E+06     32.1759E+06    -25.2637E+06    -24.8596E+06     113.665E+06     32.1759E+06     7.22718E+06         47.3824
            1529     14.1416E-03     84.5803E-03         7.37174        -2.09362        -3.19022        -2.07972         7.35785        -3.19022     721.205E-03     144.424E-03    -59.6578E-03    -84.7660E-03    -60.3664E-03     120.024E-03    -59.6578E-03     135.062E-03     121.974E+06     71.4227E+06    -21.6406E+06    -21.3523E+06     121.686E+06     71.4227E+06     5.85257E+06         55.2265
            1530     15.0831E-03     84.7940E-03         6.97374        -1.84672        -3.09985        -1.84056         6.96758        -3.09985     385.516E-03     202.436E-03    -59.8534E-03    -142.583E-03    -66.9295E-03     126.783E-03    -59.8534E-03     281.629E-03     136.497E+06     110.089E+06    -14.4561E+06    -14.3370E+06     136.378E+06     110.089E+06     3.93046E+06         64.0199
            1531     16.0284E-03     85.2244E-03         6.54974        -1.58597        -2.99768        -1.58251         6.54629        -2.99768     281.927E-03     206.457E-03    -59.8821E-03    -146.575E-03    -65.7553E-03     125.637E-03    -59.8821E-03     294.450E-03     151.655E+06     129.802E+06    -6.52424E+06    -6.42583E+06     151.556E+06     129.802E+06     3.83610E+06         71.4636
            1532     942.891E-06     85.4490E-03         11.5374        -3.34382        -5.78139        -3.63969         9.39574        -3.34382        -4.33958     119.452E-03    -59.4973E-03    -59.9548E-03    -59.7752E-03     119.452E-03    -59.6766E-03    -169.355E-06    -77.2579E+06    -80.3736E+06    -266.905E+06    -79.6657E+06    -266.900E+06    -77.9712E+06    -727.511E+03         29.5731
            1533     1.88404E-03     85.4507E-03         9.93183        -3.48298        -4.03697        -3.44645         9.34131        -3.48298         1.06295     119.464E-03    -59.5988E-03    -59.8656E-03    -59.7096E-03     119.464E-03    -59.7545E-03    -163.142E-06     -72.499E+06    -77.3010E+06    -265.412E+06    -77.3097E+06    -265.403E+06     -72.499E+06    -931.777E+03         29.6633
            1534     2.82648E-03     85.4488E-03         9.57547        -3.45913        -3.69400        -3.46836         9.36381        -3.47311        -1.40981     119.154E-03    -59.4179E-03    -59.7356E-03    -59.4178E-03     119.153E-03    -59.7356E-03     155.803E-06    -64.6258E+06    -73.1733E+06    -256.333E+06    -73.2425E+06    -256.263E+06    -64.6258E+06    -2.75865E+06         29.8173
            1535     3.77034E-03     85.4496E-03         9.40620        -3.45541        -3.54823        -3.44636         9.31831        -3.46939    -457.015E-03     119.199E-03    -59.3871E-03    -59.8117E-03    -59.4945E-03     119.197E-03    -59.7024E-03     908.438E-06    -56.5643E+06    -68.7515E+06    -244.733E+06    -68.9097E+06    -244.575E+06    -56.5643E+06    -5.09060E+06         30.0446
            1536     4.71084E-03     85.4511E-03         9.37452        -3.45731        -3.53270        -3.45912         9.30934        -3.46571        -1.55433     119.223E-03    -59.4058E-03    -59.8173E-03    -59.5092E-03     119.217E-03    -59.7080E-03     1.96817E-03    -48.1118E+06    -64.0345E+06    -233.506E+06    -64.2852E+06    -233.255E+06    -48.1118E+06    -6.37721E+06         30.3540
            1537     5.65391E-03     85.4524E-03         9.29645        -3.45479        -3.47855        -3.44411         9.27041        -3.46319        -1.04907     118.946E-03    -59.2430E-03    -59.7033E-03    -59.2255E-03     118.929E-03    -59.7033E-03     3.37409E-03    -39.0535E+06    -57.9506E+06    -221.810E+06    -58.3031E+06    -221.458E+06    -39.0535E+06    -7.26534E+06         30.7570
            1538     6.59792E-03     85.4567E-03         9.22635        -3.41261        -3.47269        -3.40456         9.20293        -3.45733    -605.411E-03     119.095E-03    -59.4188E-03    -59.6767E-03    -59.3871E-03     119.054E-03    -59.6667E-03     5.34504E-03    -33.1433E+06    -51.9998E+06    -198.984E+06    -52.5016E+06    -198.482E+06    -33.1433E+06    -8.10413E+06         31.2710
            1539     7.53882E-03     85.4636E-03         9.07025        -3.30945        -3.44434        -3.30835         9.06915        -3.44434     189.301E-03     118.977E-03    -59.3402E-03    -59.6373E-03    -59.2774E-03     118.905E-03    -59.6273E-03     7.13923E-03    -28.0372E+06    -45.9046E+06    -164.932E+06    -46.5554E+06    -164.281E+06    -28.0372E+06    -8.55823E+06         31.9231
            1540     8.48162E-03     85.4718E-03         8.90763        -3.20238        -3.42263        -3.20178         8.90702        -3.42263    -61.5698E-03     118.696E-03    -59.1207E-03    -59.5751E-03    -58.9712E-03     118.546E-03    -59.5751E-03     10.0757E-03    -24.0318E+06    -41.1414E+06    -132.673E+06    -41.6505E+06    -132.164E+06    -24.0318E+06    -6.61238E+06         32.7599
            1541     9.42503E-03     85.4843E-03         8.72040        -3.08419        -3.39345        -3.08250         8.71871        -3.39345     62.2097E-03     119.038E-03    -59.3337E-03    -59.7043E-03    -59.1818E-03     118.693E-03    -59.5115E-03     15.3567E-03    -23.3066E+06    -39.0930E+06    -95.7172E+06    -39.3138E+06    -95.4963E+06    -23.3066E+06    -3.31152E+06         33.8698
            1542     10.3665E-03     85.5043E-03         8.49080        -2.92813        -3.35644        -2.92460         8.48728        -3.35644     389.064E-03     119.043E-03    -59.3614E-03    -59.6820E-03    -59.0622E-03     118.538E-03    -59.4759E-03     18.9399E-03    -17.3057E+06    -26.9598E+06    -54.4486E+06    -34.9700E+06    -46.4384E+06    -17.3057E+06     379.699E+03         35.4329
            1543     11.3086E-03     85.5265E-03         8.23217        -2.74737        -3.31040        -2.73146         8.21626        -3.31040     764.833E-03     118.924E-03    -59.2160E-03    -59.7078E-03    -58.5730E-03     117.958E-03    -59.3850E-03     25.4248E-03     30.8598E+06    -15.1097E+06    -29.6847E+06    -28.6913E+06     27.7754E+06    -13.0187E+06     4.43601E+06         37.8024
            1544     12.2526E-03     85.5592E-03         7.94419        -2.54638        -3.25447        -2.51568         7.91349        -3.25447         1.12935     120.385E-03    -59.2925E-03    -61.0927E-03    -58.3297E-03     117.682E-03    -59.3519E-03     42.5931E-03     92.1627E+06    -1.13636E+06    -26.4506E+06    -25.8304E+06     91.5426E+06    -1.13636E+06     8.44289E+06         41.5489
            1545     13.1948E-03     85.6156E-03         7.60664        -2.31106        -3.18837        -2.28420         7.57978        -3.18837         1.02152     123.255E-03    -59.4754E-03    -63.7800E-03    -57.4693E-03     116.945E-03    -59.4754E-03     66.3939E-03     114.773E+06     30.0847E+06    -26.0364E+06    -25.2464E+06     113.983E+06     30.0847E+06     10.4329E+06         47.3007
            1546     14.1397E-03     85.7052E-03         7.23963        -2.06695        -3.11043        -2.04924         7.22191        -3.11043     809.579E-03     144.256E-03    -59.6466E-03    -84.6094E-03    -59.4699E-03     119.116E-03    -59.6466E-03     136.554E-03     124.338E+06     70.8160E+06    -22.6864E+06    -22.2692E+06     123.921E+06     70.8160E+06     6.80662E+06         55.1753
            1547     15.0851E-03     85.9219E-03         6.85024        -1.82190        -3.01525        -1.81351         6.84184        -3.01525     458.595E-03     203.831E-03    -59.8666E-03    -143.965E-03    -68.9559E-03     128.822E-03    -59.8666E-03     283.117E-03     137.868E+06     108.464E+06    -17.0564E+06    -16.9727E+06     137.785E+06     108.464E+06     2.62840E+06         64.0327
            1548     16.0228E-03     86.3534E-03         6.45275        -1.57788        -2.90689        -1.57420         6.44907        -2.90689     305.314E-03     205.983E-03    -59.9761E-03    -146.007E-03    -66.1795E-03     126.156E-03    -59.9761E-03     293.456E-03     152.822E+06     128.897E+06    -8.85595E+06    -8.78561E+06     152.752E+06     128.897E+06     2.28431E+06         71.5408
            1549     942.171E-06     86.5771E-03         12.0323        -3.70457        -5.95429        -2.92096         8.99895        -3.70457        -5.13509     119.155E-03    -59.3575E-03    -59.7980E-03    -59.7978E-03     119.155E-03    -59.3575E-03     196.762E-06    -77.1690E+06    -80.8631E+06    -265.966E+06    -79.8502E+06    -265.960E+06    -78.1878E+06    -683.136E+03         29.5644
            1550     1.88471E-03     86.5752E-03         9.77964        -3.30565        -4.09314        -3.27638         8.96289        -3.30565         1.39528     119.432E-03    -59.5695E-03    -59.8627E-03    -59.7759E-03     119.432E-03    -59.6559E-03    -246.616E-06    -71.1090E+06    -77.0187E+06    -263.570E+06    -77.0838E+06    -263.505E+06    -71.1090E+06    -2.61403E+06         29.6568
            1551     2.82732E-03     86.5750E-03         9.29797        -3.30141        -3.60852        -3.31934         9.00880        -3.30141        -1.43489     119.337E-03    -59.5931E-03    -59.7434E-03    -59.6343E-03     119.335E-03    -59.7009E-03     119.642E-06    -65.8468E+06    -72.5342E+06    -251.338E+06    -72.6695E+06    -251.202E+06    -65.8468E+06    -4.60737E+06         29.8121
            1552     3.76808E-03     86.5749E-03         9.10956        -3.30572        -3.43059        -3.31670         8.99568        -3.30572    -241.589E-03     119.133E-03    -59.4301E-03    -59.7024E-03    -59.4328E-03     119.130E-03    -59.6973E-03     1.08469E-03    -58.4709E+06    -68.9653E+06    -240.084E+06    -69.2243E+06    -239.825E+06    -58.4709E+06    -6.42806E+06         30.0392
            1553     4.71266E-03     86.5767E-03         9.04966        -3.30336        -3.39402        -3.32043         8.98085        -3.30813        -1.42484     119.038E-03    -59.3387E-03    -59.6996E-03    -59.3508E-03     119.033E-03    -59.6820E-03     1.87653E-03    -50.0011E+06    -64.0420E+06    -230.230E+06    -64.5749E+06    -229.697E+06    -50.0011E+06    -9.03827E+06         30.3482
            1554     5.65480E-03     86.5775E-03         8.97596        -3.30459        -3.34054        -3.31395         8.95414        -3.30936    -841.616E-03     119.348E-03    -59.5542E-03    -59.7933E-03    -59.6389E-03     119.332E-03    -59.6934E-03     3.16622E-03    -41.4456E+06    -57.5635E+06    -218.310E+06    -58.3999E+06    -217.474E+06    -41.4456E+06    -11.2683E+06         30.7505
            1555     6.59559E-03     86.5829E-03         8.93549        -3.29257        -3.33474        -3.29561         8.91197        -3.30817    -472.008E-03     119.136E-03    -59.3612E-03    -59.7746E-03    -59.4037E-03     119.096E-03    -59.6923E-03     5.17311E-03    -35.0736E+06    -51.0275E+06    -196.546E+06    -52.1421E+06    -195.432E+06    -35.0736E+06    -12.3867E+06         31.2626
            1556     7.53919E-03     86.5894E-03         8.80849        -3.22503        -3.30138        -3.22220         8.80567        -3.30138     320.723E-03     118.724E-03    -59.0904E-03    -59.6332E-03    -59.0176E-03     118.651E-03    -59.6332E-03     7.13359E-03    -31.0790E+06    -45.8591E+06    -165.242E+06    -47.0795E+06    -164.022E+06    -31.0790E+06    -11.8788E+06         31.9126
            1557     8.48230E-03     86.5965E-03         8.64857        -3.11310        -3.28553        -3.11278         8.64825        -3.28553     64.3913E-03     118.813E-03    -59.2419E-03    -59.5712E-03    -59.0850E-03     118.656E-03    -59.5712E-03     10.2971E-03    -27.9037E+06    -41.7456E+06    -136.826E+06    -42.7440E+06    -135.827E+06    -27.9037E+06    -9.40552E+06         32.7467
            1558     9.42431E-03     86.6108E-03         8.46192        -2.98939        -3.26036        -2.98761         8.46014        -3.26036     185.732E-03     118.985E-03    -59.2841E-03    -59.7007E-03    -59.1015E-03     118.609E-03    -59.5079E-03     15.9979E-03    -26.0846E+06    -37.0715E+06    -99.0397E+06    -37.7489E+06    -98.3623E+06    -26.0846E+06    -6.08232E+06         33.8498
            1559     10.3666E-03     86.6313E-03         8.25421        -2.85136        -3.22688        -2.84592         8.24878        -3.22688     480.164E-03     118.657E-03    -59.0248E-03    -59.6317E-03    -58.6601E-03     118.099E-03    -59.4389E-03     19.8644E-03    -22.1905E+06    -28.4692E+06    -55.6701E+06    -33.6702E+06    -50.4691E+06    -22.1905E+06    -3.42727E+06         35.4004
            1560     11.3106E-03     86.6507E-03         8.01978        -2.68956        -3.18503        -2.67107         8.00130        -3.18503     840.066E-03     118.284E-03    -58.9783E-03    -59.3061E-03    -57.9373E-03     117.243E-03    -59.3061E-03     26.4016E-03     21.1305E+06    -21.1784E+06    -32.1061E+06    -31.6443E+06     19.4794E+06    -19.9891E+06     2.21020E+06         37.7520
            1561     12.2543E-03     86.6850E-03         7.74155        -2.49048        -3.13289        -2.45645         7.70753        -3.13289         1.17418     120.185E-03    -59.1871E-03    -60.9974E-03    -58.0706E-03     117.319E-03    -59.2487E-03     43.8595E-03     86.1009E+06    -6.14658E+06    -30.3441E+06    -29.6184E+06     85.3752E+06    -6.14658E+06     9.12014E+06         41.4805
            1562     13.1967E-03     86.7441E-03         7.41657        -2.25924        -3.06953        -2.22901         7.38635        -3.06953         1.07114     123.386E-03    -59.3682E-03    -64.0173E-03    -57.6959E-03     117.064E-03    -59.3682E-03     66.7165E-03     115.112E+06     26.0036E+06    -27.6399E+06    -26.8103E+06     114.283E+06     26.0036E+06     10.7060E+06         47.2281
            1563     14.1409E-03     86.8265E-03         7.06958        -2.02436        -2.99282        -2.00461         7.04983        -2.99282     845.904E-03     145.112E-03    -59.5514E-03    -85.5605E-03    -59.3482E-03     118.900E-03    -59.5514E-03     139.095E-03     128.323E+06     69.9170E+06    -22.9234E+06    -22.3621E+06     127.762E+06     69.9170E+06     8.72940E+06         55.1325
            1564     15.0859E-03     87.0496E-03         6.70186        -1.78948        -2.89546        -1.78018         6.69256        -2.89546     483.362E-03     206.873E-03    -59.7336E-03    -147.139E-03    -68.5938E-03     128.327E-03    -59.7336E-03     291.288E-03     143.336E+06     110.816E+06    -16.6706E+06    -16.3622E+06     143.027E+06     110.816E+06     5.37989E+06         64.0521
            1565     16.0271E-03     87.4912E-03         6.34099        -1.56960        -2.78436        -1.56600         6.33739        -2.78436     307.686E-03     206.131E-03    -59.8242E-03    -146.307E-03    -67.2395E-03     127.064E-03    -59.8242E-03     291.412E-03     154.999E+06     129.724E+06    -9.29994E+06    -9.20484E+06     154.903E+06     129.724E+06     1.12248E+06         71.6096
            1566     942.978E-06     87.7013E-03         12.3033        -4.04335        -5.92144        -2.16534         8.54724        -4.04335        -5.63128     119.059E-03    -59.4028E-03    -59.6567E-03    -59.5646E-03     119.059E-03    -59.4943E-03     334.848E-06    -83.8420E+06    -86.6545E+06    -263.008E+06    -86.3763E+06    -262.981E+06    -84.1476E+06    -606.383E+03         29.5566
            1567     1.88479E-03     87.7018E-03         9.51200        -3.10039        -4.06727        -3.08419         8.52893        -3.10039         1.59799     119.239E-03    -59.5014E-03    -59.7374E-03    -59.6497E-03     119.238E-03    -59.5887E-03    -386.511E-06    -76.8426E+06    -82.2857E+06    -257.404E+06    -82.4303E+06    -257.260E+06    -76.8426E+06    -4.55460E+06         29.6508
            1568     2.82648E-03     87.6999E-03         8.90940        -3.09746        -3.45371        -3.10369         8.55937        -3.09746        -1.42463     119.342E-03    -59.6015E-03    -59.7404E-03    -59.6956E-03     119.340E-03    -59.6448E-03     189.620E-06    -71.4716E+06    -78.7196E+06    -247.963E+06    -78.9792E+06    -247.703E+06    -71.4716E+06    -6.39579E+06         29.8082
            1569     3.77017E-03     87.7014E-03         8.70350        -3.10096        -3.25738        -3.12105         8.56717        -3.10096    -90.9497E-03     119.242E-03    -59.4753E-03    -59.7669E-03    -59.5606E-03     119.241E-03    -59.6802E-03     820.965E-06    -62.4794E+06    -72.8807E+06    -233.656E+06    -73.4293E+06    -233.107E+06    -62.4794E+06    -8.68937E+06         30.0362
            1570     4.71122E-03     87.7004E-03         8.65446        -3.10747        -3.22262        -3.14984         8.58168        -3.10747        -1.29518     119.276E-03    -59.4689E-03    -59.8068E-03    -59.5623E-03     119.270E-03    -59.7076E-03     1.64359E-03    -52.6001E+06    -65.9127E+06    -224.864E+06    -67.1106E+06    -223.666E+06    -52.6001E+06    -13.2144E+06         30.3440
            1571     5.65345E-03     87.7055E-03         8.59957        -3.11528        -3.18360        -3.16412         8.58009        -3.11528    -657.646E-03     119.239E-03    -59.4180E-03    -59.8208E-03    -59.5004E-03     119.221E-03    -59.7209E-03     3.38845E-03    -44.8976E+06    -59.7313E+06    -213.922E+06    -61.3364E+06    -212.317E+06    -44.8976E+06    -15.4453E+06         30.7437
            1572     6.59634E-03     87.7078E-03         8.56621        -3.11712        -3.17038        -3.14344         8.54238        -3.12024    -353.606E-03     118.880E-03    -59.1104E-03    -59.7694E-03    -59.1513E-03     118.838E-03    -59.6871E-03     5.29027E-03    -39.3161E+06    -53.2883E+06    -194.687E+06    -55.2483E+06    -192.727E+06    -39.3161E+06    -16.2596E+06         31.2535
            1573     7.53938E-03     87.7140E-03         8.45582        -3.07660        -3.12349        -3.07695         8.45088        -3.11819     419.925E-03     118.719E-03    -59.1084E-03    -59.6109E-03    -59.0242E-03     118.635E-03    -59.6109E-03     7.59748E-03    -35.7842E+06    -47.1744E+06    -166.228E+06    -49.3837E+06    -164.019E+06    -35.7842E+06    -15.8377E+06         31.9018
            1574     8.48137E-03     87.7232E-03         8.32223        -2.98980        -3.10740        -2.98919         8.32162        -3.10740     155.778E-03     118.951E-03    -59.3855E-03    -59.5650E-03    -59.2180E-03     118.783E-03    -59.5650E-03     10.7252E-03    -31.0399E+06    -41.6176E+06    -139.413E+06    -43.7914E+06    -137.239E+06    -31.0399E+06    -14.1018E+06         32.7327
            1575     9.42421E-03     87.7361E-03         8.16311        -2.88527        -3.08821        -2.88307         8.16091        -3.08821     266.790E-03     118.537E-03    -59.0432E-03    -59.4943E-03    -58.6793E-03     118.174E-03    -59.4943E-03     15.7233E-03    -28.3586E+06    -36.1535E+06    -103.857E+06    -38.0724E+06    -101.938E+06    -28.3586E+06    -10.9523E+06         33.8289
            1576     10.3686E-03     87.7561E-03         7.97149        -2.75537        -3.06074        -2.74878         7.96491        -3.06074     519.639E-03     117.979E-03    -58.5903E-03    -59.3883E-03    -58.0569E-03     117.445E-03    -59.3883E-03     19.3520E-03    -23.3347E+06    -31.2496E+06    -59.0675E+06    -34.1160E+06    -56.2011E+06    -23.3347E+06    -5.00460E+06         35.3682
            1577     11.3112E-03     87.7762E-03         7.74719        -2.59808        -3.02421        -2.57898         7.72809        -3.02421     852.165E-03     118.410E-03    -58.8712E-03    -59.5392E-03    -58.1858E-03     117.434E-03    -59.2483E-03     25.6456E-03     16.0978E+06    -26.3702E+06    -34.1139E+06    -32.9725E+06     10.0900E+06    -21.5038E+06     2.29054E+06         37.7025
            1578     12.2548E-03     87.8096E-03         7.48707        -2.41023        -2.97681        -2.37614         7.45298        -2.97681         1.15536     119.716E-03    -59.1712E-03    -60.5443E-03    -57.8127E-03     116.986E-03    -59.1734E-03     42.5672E-03     79.1413E+06    -11.8021E+06    -32.8083E+06    -32.2493E+06     78.5822E+06    -11.8021E+06     7.82413E+06         41.4105
            1579     13.1993E-03     87.8705E-03         7.18577        -2.19052        -2.91785        -2.16031         7.15556        -2.91785         1.05291     121.899E-03    -59.2403E-03    -62.6588E-03    -56.7098E-03     115.950E-03    -59.2403E-03     64.3565E-03     114.782E+06     19.6670E+06    -28.4966E+06    -27.9655E+06     114.251E+06     19.6670E+06     8.50837E+06         47.1552
            1580     14.1441E-03     87.9498E-03         6.86050        -1.96408        -2.84436        -1.94523         6.84165        -2.84436     813.563E-03     145.065E-03    -59.4151E-03    -85.6497E-03    -59.6240E-03     119.039E-03    -59.4151E-03     138.308E-03     130.495E+06     66.6271E+06    -21.3031E+06    -20.8187E+06     130.010E+06     66.6271E+06     8.43903E+06         55.0869
            1581     15.0896E-03     88.1761E-03         6.52159        -1.74516        -2.74763        -1.73651         6.51295        -2.74763     458.725E-03     205.521E-03    -59.5803E-03    -145.940E-03    -66.8355E-03     126.416E-03    -59.5803E-03     290.249E-03     146.763E+06     111.591E+06    -13.7790E+06    -13.3783E+06     146.362E+06     111.591E+06     7.55784E+06         64.0628
            1582     16.0391E-03     88.6206E-03         6.20734        -1.55469        -2.63665        -1.55144         6.20409        -2.63665     289.979E-03     205.485E-03    -59.6519E-03    -145.833E-03    -67.5107E-03     127.163E-03    -59.6519E-03     288.730E-03     159.611E+06     132.333E+06    -7.32074E+06    -7.18501E+06     159.476E+06     132.333E+06     3.04225E+06         71.6761
            1583     941.388E-06     88.8266E-03         12.3709        -4.34721        -5.71918        -1.38723         8.03894        -4.34721        -5.86049     119.182E-03    -59.3937E-03    -59.7884E-03    -59.6954E-03     119.181E-03    -59.4852E-03     505.541E-06    -90.1301E+06    -92.1839E+06    -259.358E+06    -91.3816E+06    -259.300E+06    -90.9895E+06    -1.25103E+06         29.5518
            1584     1.88489E-03     88.8267E-03         9.15221        -2.86600        -3.96486        -2.85772         8.04507        -2.86600         1.76727     119.139E-03    -59.4718E-03    -59.6668E-03    -59.5298E-03     119.139E-03    -59.6088E-03    -201.562E-06    -82.6922E+06    -88.3633E+06    -249.311E+06    -88.5701E+06    -249.104E+06    -82.6922E+06    -5.55908E+06         29.6471
            1585     2.82736E-03     88.8265E-03         8.45400        -2.86486        -3.25988        -2.87019         8.06431        -2.86486        -1.36417     119.360E-03    -59.5580E-03    -59.8017E-03    -59.7087E-03     119.360E-03    -59.6510E-03     26.8165E-06    -74.4516E+06    -83.6304E+06    -242.156E+06    -84.1868E+06    -241.599E+06    -74.4516E+06    -8.88198E+06         29.8060
            1586     3.76849E-03     88.8259E-03         8.22984        -2.86851        -3.04469        -2.89113         8.07628        -2.86851     23.3230E-03     119.443E-03    -59.5683E-03    -59.8747E-03    -59.7459E-03     119.441E-03    -59.6954E-03     662.560E-06    -68.0378E+06    -77.7087E+06    -226.485E+06    -78.8171E+06    -225.376E+06    -68.0378E+06    -12.4675E+06         30.0345
            1587     4.71116E-03     88.8283E-03         8.19043        -2.87714        -3.01340        -2.93773         8.11477        -2.87714        -1.18299     119.284E-03    -59.4625E-03    -59.8217E-03    -59.5369E-03     119.277E-03    -59.7402E-03     1.96057E-03    -58.1465E+06    -71.6947E+06    -217.622E+06    -73.6291E+06    -215.688E+06    -58.1465E+06    -16.4227E+06         30.3405
            1588     5.65376E-03     88.8291E-03         8.15854        -2.88964        -2.99135        -2.97304         8.14023        -2.88964    -517.672E-03     118.844E-03    -59.1191E-03    -59.7254E-03    -59.1014E-03     118.827E-03    -59.7254E-03     3.42677E-03    -49.1797E+06    -64.5138E+06    -209.783E+06    -67.3285E+06    -206.968E+06    -49.1797E+06    -19.7313E+06         30.7377
            1589     6.59695E-03     88.8341E-03         8.14132        -2.90023        -2.98698        -2.96295         8.11729        -2.90023    -255.320E-03     118.779E-03    -59.1266E-03    -59.6521E-03    -59.0877E-03     118.740E-03    -59.6521E-03     5.15698E-03    -44.7898E+06    -57.0402E+06    -192.525E+06    -60.6972E+06    -188.868E+06    -44.7898E+06    -21.4011E+06         31.2459
            1590     7.53893E-03     88.8390E-03         8.04666        -2.88482        -2.92853        -2.90310         8.03980        -2.90339     478.773E-03     118.901E-03    -59.3108E-03    -59.5904E-03    -59.2276E-03     118.818E-03    -59.5904E-03     7.54011E-03    -41.3499E+06    -50.3706E+06    -166.786E+06    -54.3405E+06    -162.816E+06    -41.3499E+06    -20.8760E+06         31.8923
            1591     8.48227E-03     88.8494E-03         7.93956        -2.83475        -2.89793        -2.83381         7.93861        -2.89793     200.724E-03     118.705E-03    -59.1569E-03    -59.5481E-03    -58.9861E-03     118.534E-03    -59.5481E-03     10.8252E-03    -36.5682E+06    -44.6887E+06    -141.327E+06    -48.6274E+06    -137.388E+06    -36.5682E+06    -18.8616E+06         32.7200
            1592     9.42444E-03     88.8616E-03         7.81820        -2.75979        -2.88535        -2.75731         7.81573        -2.88535     301.746E-03     118.406E-03    -58.9399E-03    -59.4666E-03    -58.6130E-03     118.080E-03    -59.4666E-03     15.0342E-03    -34.5374E+06    -40.1627E+06    -109.193E+06    -44.0524E+06    -105.303E+06    -34.5374E+06    -15.6798E+06         33.8111
            1593     10.3674E-03     88.8796E-03         7.64672        -2.64295        -2.86514        -2.63609         7.63986        -2.86514     518.493E-03     118.208E-03    -58.8378E-03    -59.3700E-03    -58.3423E-03     117.712E-03    -59.3700E-03     18.6574E-03    -29.4620E+06    -36.8703E+06    -68.1592E+06    -38.5355E+06    -64.9790E+06    -30.9770E+06    -9.09018E+06         35.3399
            1594     11.3119E-03     88.9022E-03         7.43644        -2.49151        -2.83525        -2.47353         7.41846        -2.83525     817.548E-03     118.517E-03    -58.9747E-03    -59.5418E-03    -58.3317E-03     117.583E-03    -59.2510E-03     25.1823E-03     8.01467E+06    -31.9287E+06    -37.9183E+06    -33.6333E+06    -330.526E+03    -27.8684E+06    -155.141E+03         37.6545
            1595     12.2531E-03     88.9365E-03         7.19957        -2.31681        -2.79421        -2.28574         7.16851        -2.79421         1.08112     118.880E-03    -59.0960E-03    -59.7836E-03    -57.1644E-03     116.306E-03    -59.1421E-03     41.1130E-03     73.4828E+06    -18.3885E+06    -30.3987E+06    -30.0271E+06     73.1111E+06    -18.3885E+06     6.11454E+06         41.3401
            1596     13.1979E-03     88.9917E-03         6.91869        -2.10708        -2.74118        -2.08011         6.89172        -2.74118     973.380E-03     121.995E-03    -59.1850E-03    -62.8098E-03    -56.8832E-03     116.068E-03    -59.1850E-03     64.1912E-03     115.176E+06     13.7945E+06    -26.7466E+06    -26.3045E+06     114.734E+06     13.7945E+06     7.86146E+06         47.0758
            1597     14.1445E-03     89.0746E-03         6.61644        -1.89080        -2.67241        -1.87477         6.60041        -2.67241     736.179E-03     144.859E-03    -59.4138E-03    -85.4452E-03    -60.2299E-03     119.644E-03    -59.4138E-03     136.463E-03     130.568E+06     63.6762E+06    -22.2936E+06    -21.9689E+06     130.244E+06     63.6762E+06     6.69312E+06         55.0280
            1598     15.0850E-03     89.3036E-03         6.31614        -1.69643        -2.57914        -1.68925         6.30896        -2.57914     395.237E-03     203.189E-03    -59.6266E-03    -143.562E-03    -66.6280E-03     126.255E-03    -59.6266E-03     284.759E-03     146.034E+06     109.250E+06    -15.9250E+06    -15.7210E+06     145.830E+06     109.250E+06     5.42981E+06         64.0598
            1599     16.0315E-03     89.7298E-03         6.04696        -1.53902        -2.47141        -1.53659         6.04453        -2.47141     236.976E-03     205.644E-03    -59.7051E-03    -145.939E-03    -66.9647E-03     126.670E-03    -59.7051E-03     290.571E-03     163.170E+06     133.332E+06    -7.95985E+06    -7.84622E+06     163.056E+06     133.332E+06     4.12996E+06         71.7518
            1600     943.193E-06     89.9535E-03         12.2817        -4.39571        -5.60377    -595.537E-03         7.47803        -4.60026        -5.90908     119.137E-03    -59.2563E-03    -59.8810E-03    -59.5956E-03     119.136E-03    -59.5404E-03     313.206E-06    -91.3708E+06    -93.2407E+06    -254.028E+06    -91.9302E+06    -253.931E+06    -92.7787E+06    -2.96523E+06         29.5514
            1601     1.88418E-03     89.9513E-03         8.70071        -2.59776        -3.80538        -2.59928         7.49461        -2.59776         1.88203     119.339E-03    -59.5650E-03    -59.7735E-03    -59.7237E-03     119.338E-03    -59.6147E-03     127.356E-06    -85.5553E+06    -90.3106E+06    -241.210E+06    -90.0843E+06    -240.888E+06    -86.1038E+06    -6.74662E+06         29.6466
            1602     2.82650E-03     89.9526E-03         7.96384        -2.60339        -3.05587        -2.63494         7.54291        -2.60339        -1.28700     119.458E-03    -59.5400E-03    -59.9179E-03    -59.7539E-03     119.458E-03    -59.7039E-03     228.444E-06    -76.3579E+06    -84.2556E+06    -233.256E+06    -85.2020E+06    -232.310E+06    -76.3579E+06    -11.2231E+06         29.8050
            1603     3.76898E-03     89.9524E-03         7.74540        -2.61471        -2.83043        -2.66384         7.57881        -2.61471     128.421E-03     119.353E-03    -59.5218E-03    -59.8312E-03    -59.6174E-03     119.351E-03    -59.7335E-03     929.973E-06    -68.7849E+06    -78.7087E+06    -218.080E+06    -80.5392E+06    -216.249E+06    -68.7849E+06    -15.6283E+06         30.0328
            1604     4.71115E-03     89.9531E-03         7.68373        -2.62772        -2.77554        -2.69877         7.60697        -2.62772        -1.06519     119.206E-03    -59.4570E-03    -59.7487E-03    -59.4518E-03     119.201E-03    -59.7487E-03     1.84985E-03    -59.1189E+06    -72.5610E+06    -209.663E+06    -75.2839E+06    -206.940E+06    -59.1189E+06    -18.9021E+06         30.3384
            1605     5.65362E-03     89.9554E-03         7.65907        -2.64257        -2.75956        -2.74119         7.64069        -2.64257    -404.775E-03     119.014E-03    -59.2776E-03    -59.7362E-03    -59.2664E-03     119.003E-03    -59.7362E-03     2.73780E-03    -50.8779E+06    -65.5651E+06    -202.799E+06    -69.6384E+06    -198.726E+06    -50.8779E+06    -23.1124E+06         30.7349
            1606     6.59617E-03     89.9581E-03         7.67511        -2.65703        -2.78130        -2.75708         7.65089        -2.65703    -192.204E-03     118.875E-03    -59.1994E-03    -59.6760E-03    -59.1605E-03     118.836E-03    -59.6760E-03     4.99955E-03    -48.5668E+06    -59.0428E+06    -189.337E+06    -64.6215E+06    -183.758E+06    -48.5668E+06    -26.1750E+06         31.2410
            1607     7.53906E-03     89.9665E-03         7.61422        -2.66402        -2.73430        -2.72392         7.60617        -2.66635     493.508E-03     118.762E-03    -59.1582E-03    -59.6040E-03    -59.0826E-03     118.687E-03    -59.6040E-03     7.29819E-03    -47.0690E+06    -52.9912E+06    -167.212E+06    -59.3994E+06    -160.804E+06    -47.0690E+06    -26.0463E+06         31.8845
            1608     8.48090E-03     89.9732E-03         7.51959        -2.64800        -2.68324        -2.66247         7.51850        -2.66769     208.996E-03     118.419E-03    -58.8855E-03    -59.5335E-03    -58.7240E-03     118.258E-03    -59.5335E-03     10.4070E-03    -42.4180E+06    -47.6727E+06    -143.956E+06    -53.4945E+06    -137.127E+06    -43.4256E+06    -24.4982E+06         32.7094
            1609     9.42512E-03     89.9878E-03         7.41407        -2.59577        -2.66121        -2.59346         7.41176        -2.66121     294.702E-03     118.540E-03    -59.0060E-03    -59.5340E-03    -58.7642E-03     118.211E-03    -59.4473E-03     15.1048E-03    -38.8184E+06    -43.3809E+06    -115.603E+06    -47.4610E+06    -108.771E+06    -41.5704E+06    -21.4099E+06         33.7965
            1610     10.3676E-03     90.0047E-03         7.27876        -2.50630        -2.64744        -2.50046         7.27291        -2.64744     464.786E-03     118.851E-03    -59.3406E-03    -59.5106E-03    -58.9711E-03     118.350E-03    -59.3792E-03     18.8184E-03    -33.9643E+06    -40.3596E+06    -79.5326E+06    -41.6835E+06    -72.1670E+06    -40.0060E+06    -15.7561E+06         35.3146
            1611     11.3088E-03     90.0284E-03         7.10277        -2.38065        -2.62522        -2.36533         7.08744        -2.62522     737.998E-03     118.087E-03    -58.7789E-03    -59.3076E-03    -57.8825E-03     117.145E-03    -59.2629E-03     25.2090E-03    -2.96874E+06    -35.4556E+06    -47.0309E+06    -35.1653E+06    -12.2009E+06    -38.0890E+06    -6.80030E+06         37.6105
            1612     12.2548E-03     90.0603E-03         6.88151        -2.21152        -2.59192        -2.18537         6.85536        -2.59192     969.576E-03     118.701E-03    -58.6616E-03    -60.0390E-03    -57.1825E-03     116.316E-03    -59.1339E-03     39.7868E-03     66.3585E+06    -23.3769E+06    -31.6350E+06    -28.6598E+06     66.0166E+06    -26.0103E+06     2.10753E+06         41.2760
            1613     13.2020E-03     90.1131E-03         6.62169        -2.01099        -2.54564        -1.98876         6.59946        -2.54564     862.302E-03     122.995E-03    -59.2001E-03    -63.7951E-03    -57.8348E-03     117.035E-03    -59.2001E-03     64.1797E-03     113.738E+06     6.08740E+06    -26.0764E+06    -25.6282E+06     113.290E+06     6.08740E+06     7.55286E+06         46.9993
            1614     14.1383E-03     90.2092E-03         6.35603        -1.81965        -2.48317        -1.80744         6.34382        -2.48317     627.107E-03     144.223E-03    -59.4476E-03    -84.7753E-03    -59.3886E-03     118.836E-03    -59.4476E-03     136.604E-03     130.776E+06     58.8246E+06    -23.7098E+06    -23.2383E+06     130.304E+06     58.8246E+06     8.02078E+06         54.9780
            1615     15.0879E-03     90.4173E-03         6.09424        -1.65612        -2.39601        -1.65110         6.08921        -2.39601     300.323E-03     205.192E-03    -59.6692E-03    -145.523E-03    -67.7396E-03     127.409E-03    -59.6692E-03     288.356E-03     148.279E+06     108.774E+06    -17.8633E+06    -17.6244E+06     148.040E+06     108.774E+06     5.64546E+06         64.0846
            1616     16.0290E-03     90.8685E-03         5.85767        -1.52739        -2.29457        -1.52591         5.85618        -2.29457     164.014E-03     207.423E-03    -59.7662E-03    -147.657E-03    -67.4721E-03     127.238E-03    -59.7662E-03     294.615E-03     165.479E+06     133.980E+06    -9.57362E+06    -9.49206E+06     165.398E+06     133.980E+06     3.09729E+06         71.8601
            1617     941.659E-06     91.0760E-03         12.0693        -4.08016        -5.72832     167.275E-03         6.87889        -4.78532        -5.85437     119.475E-03    -59.3231E-03    -60.1522E-03    -59.7730E-03     119.475E-03    -59.7019E-03    -138.870E-06    -90.7636E+06    -93.9268E+06    -244.283E+06    -91.3656E+06    -244.008E+06    -93.5989E+06    -6.02086E+06         29.5555
            1618     1.88512E-03     91.0793E-03         8.19946        -2.31527        -3.60869        -2.33845         6.92923        -2.31527         1.93013     119.371E-03    -59.4943E-03    -59.8766E-03    -59.6478E-03     119.371E-03    -59.7228E-03     23.6784E-06    -87.2501E+06    -92.2546E+06    -231.545E+06    -91.1446E+06    -231.006E+06    -88.8990E+06    -8.38157E+06         29.6484
            1619     2.82624E-03     91.0776E-03         7.42741        -2.32758        -2.81246        -2.36684         6.98179        -2.32758        -1.19772     119.392E-03    -59.4931E-03    -59.8991E-03    -59.6507E-03     119.392E-03    -59.7412E-03     352.333E-06    -79.2221E+06    -86.3260E+06    -223.744E+06    -87.8661E+06    -222.203E+06    -79.2221E+06    -13.6740E+06         29.8047
            1620     3.76883E-03     91.0785E-03         7.21092        -2.34254        -2.58815        -2.41050         7.03327        -2.34254     220.132E-03     119.303E-03    -59.5151E-03    -59.7883E-03    -59.5555E-03     119.302E-03    -59.7467E-03     855.244E-06    -69.2557E+06    -78.2235E+06    -208.672E+06    -81.1537E+06    -205.742E+06    -69.2557E+06    -19.0544E+06         30.0313
            1621     4.71094E-03     91.0792E-03         7.15751        -2.36020        -2.53175        -2.45434         7.08010        -2.36020    -931.999E-03     119.273E-03    -59.5179E-03    -59.7551E-03    -59.5131E-03     119.268E-03    -59.7551E-03     1.74681E-03    -60.0929E+06    -70.5437E+06    -202.221E+06    -74.5959E+06    -198.169E+06    -60.0929E+06    -22.5330E+06         30.3372
            1622     5.65324E-03     91.0810E-03         7.15092        -2.37987        -2.52766        -2.50880         7.13206        -2.37987    -284.764E-03     119.303E-03    -59.5371E-03    -59.7654E-03    -59.5249E-03     119.290E-03    -59.7654E-03     2.89315E-03    -51.5311E+06    -63.8835E+06    -193.853E+06    -69.1876E+06    -188.549E+06    -51.5311E+06    -25.5333E+06         30.7340
            1623     6.59542E-03     91.0843E-03         7.18140        -2.39964        -2.56268        -2.53858         7.15730        -2.39964    -130.310E-03     118.975E-03    -59.2335E-03    -59.7419E-03    -59.1957E-03     118.938E-03    -59.7419E-03     4.94209E-03    -46.2780E+06    -57.1526E+06    -183.308E+06    -63.9138E+06    -176.547E+06    -46.2780E+06    -28.2984E+06         31.2384
            1624     7.53818E-03     91.0909E-03         7.14514        -2.41490        -2.53257        -2.52331         7.13588        -2.41490     502.421E-03     118.525E-03    -58.8875E-03    -59.6378E-03    -58.8063E-03     118.444E-03    -59.6378E-03     7.50297E-03    -45.7521E+06    -52.5210E+06    -165.781E+06    -59.2501E+06    -156.861E+06    -47.9421E+06    -30.5417E+06         31.8787
            1625     8.48196E-03     91.0995E-03         7.07602        -2.42082        -2.48282        -2.47971         7.07487        -2.42278     207.374E-03     118.630E-03    -58.9806E-03    -59.6494E-03    -58.9329E-03     118.478E-03    -59.5449E-03     10.2227E-03    -42.2828E+06    -48.0664E+06    -145.489E+06    -53.9413E+06    -134.655E+06    -47.2413E+06    -31.3224E+06         32.7006
            1626     9.42431E-03     91.1112E-03         6.98958        -2.40383        -2.44455        -2.42344         6.98762        -2.42299     269.599E-03     118.850E-03    -59.1684E-03    -59.6816E-03    -59.0342E-03     118.525E-03    -59.4904E-03     14.8890E-03    -36.5597E+06    -44.5950E+06    -122.483E+06    -47.4420E+06    -111.600E+06    -44.5950E+06    -28.4555E+06         33.7823
            1627     10.3665E-03     91.1333E-03         6.87726        -2.34761        -2.41954        -2.34675         6.87284        -2.41598     391.956E-03     118.468E-03    -58.9264E-03    -59.5419E-03    -58.5666E-03     117.977E-03    -59.4105E-03     18.6216E-03    -29.7629E+06    -44.0352E+06    -89.7775E+06    -41.1064E+06    -78.4340E+06    -44.0352E+06    -22.8673E+06         35.2901
            1628     11.3104E-03     91.1518E-03         6.73021        -2.24413        -2.40102        -2.23233         6.71840        -2.40102     629.608E-03     117.941E-03    -58.4632E-03    -59.4780E-03    -57.7876E-03     117.053E-03    -59.2655E-03     24.4273E-03    -7.36191E+06    -39.2264E+06    -57.2971E+06    -35.3441E+06    -24.1767E+06    -44.3646E+06    -14.0541E+06         37.5710
            1629     12.2548E-03     91.1831E-03         6.53684        -2.09218        -2.37510        -2.07198         6.51664        -2.37510     829.045E-03     120.062E-03    -58.7309E-03    -61.3307E-03    -58.3357E-03     117.493E-03    -59.1571E-03     41.1532E-03     55.1616E+06    -31.0767E+06    -39.1620E+06    -32.9673E+06     54.1304E+06    -36.2400E+06    -2.34431E+06         41.2161
            1630     13.1911E-03     91.2446E-03         6.31403        -1.91954        -2.33658        -1.90274         6.29723        -2.33658     728.328E-03     122.817E-03    -59.2511E-03    -63.5657E-03    -57.6944E-03     116.945E-03    -59.2511E-03     63.9111E-03     108.941E+06    -3.15593E+06    -30.1405E+06    -29.8257E+06     108.651E+06    -3.18101E+06     5.88119E+06         46.9285
            1631     14.1450E-03     91.3253E-03         6.08725        -1.75829        -2.28262        -1.75024         6.07921        -2.28262     493.612E-03     142.805E-03    -59.4651E-03    -83.3398E-03    -58.2985E-03     117.764E-03    -59.4651E-03     134.493E-03     130.973E+06     53.8237E+06    -24.2414E+06    -23.7425E+06     130.474E+06     53.8237E+06     8.62082E+06         54.9417
            1632     15.0887E-03     91.5475E-03         5.85649        -1.62055        -2.20341        -1.61768         5.85361        -2.20341     191.985E-03     205.497E-03    -59.6402E-03    -145.857E-03    -67.0303E-03     126.670E-03    -59.6402E-03     289.853E-03     151.663E+06     107.706E+06    -18.1364E+06    -17.8146E+06     151.341E+06     107.706E+06     6.78522E+06         64.1323
            1633     16.0320E-03     91.9963E-03         5.63516        -1.50617        -2.10945        -1.50526         5.63426        -2.10945     95.5644E-03     207.134E-03    -59.7178E-03    -147.416E-03    -67.0787E-03     126.796E-03    -59.7178E-03     294.024E-03     169.081E+06     136.045E+06    -9.35038E+06    -9.29317E+06     169.024E+06     136.045E+06     2.12238E+06         71.9909
            1634     941.817E-06     92.2053E-03         11.7925        -3.64787        -5.90604     860.576E-03         6.28360        -4.90557        -5.70313     119.836E-03    -59.5686E-03    -60.2675E-03    -60.1719E-03     119.835E-03    -59.6633E-03     341.437E-06    -87.5326E+06    -92.4527E+06    -231.749E+06    -90.5295E+06    -231.385E+06    -89.8194E+06    -7.10056E+06         29.5597
            1635     1.88297E-03     92.2028E-03         7.66776        -2.03114        -3.38831        -2.05758         6.33703        -2.03114         1.98021     119.531E-03    -59.6006E-03    -59.9306E-03    -59.6485E-03     119.531E-03    -59.8823E-03     99.7056E-06    -83.0091E+06    -88.5338E+06    -221.429E+06    -88.2328E+06    -220.629E+06    -84.1096E+06    -9.91743E+06         29.6513
            1636     2.82696E-03     92.2048E-03         6.85173        -2.04356        -2.54604        -2.07860         6.38429        -2.04356        -1.08953     119.362E-03    -59.5113E-03    -59.8505E-03    -59.5525E-03     119.361E-03    -59.8090E-03     269.562E-06    -77.9678E+06    -82.3100E+06    -210.120E+06    -84.5678E+06    -207.862E+06    -77.9678E+06    -16.1560E+06         29.8054
            1637     3.76824E-03     92.2040E-03         6.63577        -2.05799        -2.31750        -2.12732         6.44558        -2.05799     305.342E-03     119.323E-03    -59.5114E-03    -59.8117E-03    -59.5518E-03     119.322E-03    -59.7702E-03     701.863E-06    -71.5496E+06    -76.5602E+06    -199.287E+06    -80.7421E+06    -195.105E+06    -71.5496E+06    -22.0600E+06         30.0305
            1638     4.71104E-03     92.2051E-03         6.60064        -2.07810        -2.27395        -2.19501         6.52171        -2.07810    -795.667E-03     119.241E-03    -59.4713E-03    -59.7698E-03    -59.4663E-03     119.236E-03    -59.7698E-03     1.79544E-03    -62.3860E+06    -70.0430E+06    -194.153E+06    -75.9432E+06    -188.252E+06    -62.3860E+06    -26.1685E+06         30.3356
            1639     5.65323E-03     92.2071E-03         6.62435        -2.10368        -2.29595        -2.27671         6.60510        -2.10368    -148.032E-03     119.243E-03    -59.4728E-03    -59.7705E-03    -59.4579E-03     119.228E-03    -59.7705E-03     3.16222E-03    -53.8137E+06    -63.7769E+06    -187.734E+06    -70.7580E+06    -180.753E+06    -53.8137E+06    -28.4583E+06         30.7321
            1640     6.59533E-03     92.2106E-03         6.67404        -2.13052        -2.34036        -2.31677         6.65045        -2.13052    -41.2778E-03     119.118E-03    -59.3673E-03    -59.7502E-03    -59.3330E-03     119.083E-03    -59.7502E-03     4.85329E-03    -47.4832E+06    -55.6901E+06    -176.078E+06    -64.7592E+06    -166.813E+06    -47.6791E+06    -31.4770E+06         31.2362
            1641     7.53853E-03     92.2152E-03         6.65304        -2.15209        -2.31848        -2.30725         6.64181        -2.15209     531.550E-03     118.837E-03    -59.1607E-03    -59.6759E-03    -59.0879E-03     118.764E-03    -59.6759E-03     7.05468E-03    -42.3287E+06    -50.0690E+06    -160.071E+06    -57.9955E+06    -146.916E+06    -47.5577E+06    -36.0773E+06         31.8742
            1642     8.48090E-03     92.2253E-03         6.60757        -2.16619        -2.28596        -2.28447         6.60608        -2.16619     225.006E-03     118.793E-03    -59.0923E-03    -59.7009E-03    -59.0422E-03     118.639E-03    -59.5964E-03     10.2459E-03    -37.2798E+06    -49.3639E+06    -146.589E+06    -52.5129E+06    -131.356E+06    -49.3639E+06    -37.7219E+06         32.6911
            1643     9.42238E-03     92.2385E-03         6.55631        -2.17366        -2.25607        -2.25402         6.55427        -2.17366     266.807E-03     118.763E-03    -59.1224E-03    -59.6406E-03    -58.8755E-03     118.412E-03    -59.5361E-03     15.4149E-03    -31.5332E+06    -47.5806E+06    -128.326E+06    -46.8805E+06    -112.979E+06    -47.5806E+06      -35.26E+06         33.7660
            1644     10.3663E-03     92.2568E-03         6.46602        -2.15768        -2.21059        -2.19015         6.46234        -2.17444     347.269E-03     118.171E-03    -58.7419E-03    -59.4293E-03    -58.2636E-03     117.693E-03    -59.4293E-03     18.3663E-03    -26.5669E+06    -48.6449E+06    -99.7212E+06    -41.9043E+06    -84.3839E+06    -48.6449E+06    -29.4465E+06         35.2650
            1645     11.3106E-03     92.2765E-03         6.33651        -2.08918        -2.17372        -2.08726         6.32778        -2.16691     529.624E-03     118.477E-03    -58.7935E-03    -59.6834E-03    -58.3110E-03     117.603E-03    -59.2917E-03     24.1247E-03    -12.7254E+06    -46.3719E+06    -66.7716E+06    -38.1269E+06    -36.9005E+06    -50.8416E+06    -19.6162E+06         37.5310
            1646     12.2516E-03     92.3101E-03         6.17879        -1.97186        -2.14865        -1.95724         6.16417        -2.14865     685.202E-03     120.048E-03    -59.1862E-03    -60.8623E-03    -58.1387E-03     117.325E-03    -59.1862E-03     42.2875E-03     41.1641E+06    -38.5187E+06    -44.6229E+06    -35.5930E+06     38.2384E+06    -44.6229E+06    -6.05048E+06         41.1547
            1647     13.2006E-03     92.3710E-03         5.99996        -1.83364        -2.11903        -1.82183         5.98815        -2.11903     591.154E-03     122.365E-03    -59.2346E-03    -63.1308E-03    -57.3216E-03     116.556E-03    -59.2346E-03     63.9190E-03     102.068E+06    -11.0640E+06    -34.2394E+06    -32.4546E+06     101.918E+06    -12.6985E+06     3.67100E+06         46.8618
            1648     14.1371E-03     92.4468E-03         5.80610        -1.69835        -2.07460        -1.69360         5.80136        -2.07460     367.769E-03     143.994E-03    -59.4830E-03    -84.5112E-03    -59.7860E-03     119.269E-03    -59.4830E-03     134.280E-03     129.989E+06     45.7342E+06    -27.5459E+06    -27.2916E+06     129.735E+06     45.7342E+06     6.08486E+06         54.9054
            1649     15.0841E-03     92.6713E-03         5.59561        -1.57797        -2.00405        -1.57641         5.59404        -2.00405     107.857E-03     204.459E-03    -59.7115E-03    -144.747E-03    -66.2028E-03     125.914E-03    -59.7115E-03     287.873E-03     154.465E+06     105.861E+06    -18.3255E+06    -18.1303E+06     154.270E+06     105.861E+06     5.24034E+06         64.1664
            1650     16.0343E-03     93.1168E-03         5.37910        -1.47000        -1.91735        -1.46940         5.37850        -1.91735     44.0891E-03     205.981E-03    -59.7401E-03    -146.241E-03    -65.2261E-03     124.966E-03    -59.7401E-03     293.681E-03     173.598E+06     138.639E+06    -7.77962E+06    -7.72476E+06     173.543E+06     138.639E+06     2.06524E+06         72.1149
            1651     942.421E-06     93.3306E-03         11.4923        -3.27947        -6.00350         1.48203         5.67712        -4.94978        -5.51539     119.520E-03    -59.5936E-03    -59.9263E-03    -59.8842E-03     119.518E-03    -59.6342E-03     826.272E-06    -84.0426E+06    -87.4214E+06    -219.204E+06    -87.1932E+06    -218.850E+06    -84.6253E+06    -5.75077E+06         29.5604
            1652     1.88479E-03     93.3305E-03         7.12984        -1.73736        -3.16155        -1.75058         5.71886        -1.73736         2.03789     119.822E-03    -59.7625E-03    -60.0596E-03    -60.0061E-03     119.822E-03    -59.8157E-03     352.353E-06    -80.4360E+06    -84.3594E+06    -209.081E+06    -84.2498E+06    -207.669E+06    -81.9573E+06    -12.3022E+06         29.6529
            1653     2.82510E-03     93.3298E-03         6.27450        -1.74769        -2.28637        -1.78974         5.77787        -1.74769    -972.732E-03     119.538E-03    -59.6035E-03    -59.9347E-03    -59.6977E-03     119.538E-03    -59.8400E-03     471.652E-06    -76.4333E+06    -78.9990E+06    -195.104E+06    -80.2444E+06    -191.845E+06    -78.4465E+06    -18.7769E+06         29.8065
            1654     3.76872E-03     93.3305E-03         6.05548        -1.76469        -2.05120        -1.84517         5.84945        -1.76469     407.965E-03     119.345E-03    -59.5248E-03    -59.8199E-03    -59.5237E-03     119.344E-03    -59.8199E-03     718.648E-06    -70.0245E+06    -73.1786E+06    -188.445E+06    -77.7602E+06    -183.372E+06    -70.5164E+06    -23.5799E+06         30.0300
            1655     4.71032E-03     93.3308E-03         6.01833        -1.78791        -2.00260        -1.92185         5.93758        -1.78791    -650.372E-03     119.280E-03    -59.4748E-03    -59.8048E-03    -59.4706E-03     119.275E-03    -59.8048E-03     1.62298E-03    -62.6520E+06    -69.1934E+06    -184.668E+06    -75.9636E+06    -177.898E+06    -62.6520E+06    -27.0486E+06         30.3336
            1656     5.65299E-03     93.3332E-03         6.06342        -1.81750        -2.03860        -2.01812         6.04294        -1.81750    -2.52566E-03     119.116E-03    -59.3371E-03    -59.7790E-03    -59.3241E-03     119.103E-03    -59.7790E-03     2.94603E-03    -55.8934E+06    -62.3846E+06    -179.978E+06    -71.9700E+06    -169.967E+06    -56.3197E+06    -32.2407E+06         30.7288
            1657     6.59591E-03     93.3361E-03         6.13980        -1.84968        -2.10281        -2.07921         6.11620        -1.84968     64.8278E-03     119.196E-03    -59.4527E-03    -59.7433E-03    -59.4189E-03     119.162E-03    -59.7433E-03     4.76951E-03    -48.7097E+06    -53.1013E+06    -169.501E+06    -64.7170E+06    -155.467E+06    -51.1280E+06    -37.7844E+06         31.2318
            1658     7.53689E-03     93.3424E-03         6.14764        -1.87778        -2.10291        -2.08854         6.13328        -1.87778     586.764E-03     119.187E-03    -59.4781E-03    -59.7087E-03    -59.3988E-03     119.108E-03    -59.7087E-03     7.32708E-03    -40.5423E+06    -48.0208E+06    -154.197E+06     -58.138E+06    -136.601E+06    -48.0208E+06    -40.9353E+06         31.8679
            1659     8.47940E-03     93.3502E-03         6.12435        -1.89885        -2.08309        -2.08046         6.12172        -1.89885     284.360E-03     118.653E-03    -59.0096E-03    -59.6434E-03    -58.8421E-03     118.485E-03    -59.6434E-03     10.6759E-03    -33.6731E+06    -49.5568E+06    -145.975E+06    -53.4886E+06    -126.160E+06    -49.5568E+06    -42.7073E+06         32.6799
            1660     9.42445E-03     93.3637E-03         6.10199        -1.91361        -2.07373        -2.07077         6.09902        -1.91361     306.792E-03     118.381E-03    -58.8399E-03    -59.5411E-03    -58.4846E-03     118.026E-03    -59.5411E-03     15.5574E-03    -30.1311E+06    -51.8741E+06    -134.362E+06    -50.0074E+06    -114.486E+06    -51.8741E+06    -40.8316E+06         33.7484
            1661     10.3666E-03     93.3824E-03         6.04483        -1.92240        -2.03661        -2.03298         6.04120        -1.92240     336.324E-03     118.625E-03    -59.0886E-03    -59.5366E-03    -58.7062E-03     118.148E-03    -59.4419E-03     18.3893E-03    -25.6124E+06    -52.3514E+06    -108.674E+06    -46.1991E+06    -88.0876E+06    -52.3514E+06    -35.5388E+06         35.2384
            1662     11.3084E-03     93.4015E-03         5.95001        -1.90565        -1.98223        -1.95686         5.94263        -1.92364     475.352E-03     118.917E-03    -59.2189E-03    -59.6985E-03    -58.6343E-03     117.975E-03    -59.3410E-03     24.9719E-03    -16.7998E+06    -53.5421E+06    -75.8667E+06    -41.9975E+06    -48.6344E+06    -55.5767E+06    -26.1342E+06         37.4864
            1663     12.2528E-03     93.4370E-03         5.82369        -1.84544        -1.93176        -1.85078         5.81207        -1.91479     595.158E-03     119.392E-03    -59.2283E-03    -60.1635E-03    -57.6476E-03     116.876E-03    -59.2283E-03     41.1192E-03     27.0959E+06    -42.9695E+06    -49.7169E+06    -35.8705E+06     19.9968E+06    -49.7169E+06    -11.8034E+06         41.0882
            1664     13.1942E-03     93.4907E-03         5.67098        -1.74452        -1.89471        -1.73541         5.66188        -1.89471     504.867E-03     121.982E-03    -59.2005E-03    -62.7819E-03    -56.9857E-03     116.186E-03    -59.2005E-03     63.2895E-03     91.3830E+06    -18.5849E+06    -36.3924E+06    -31.4356E+06     91.1390E+06    -23.2978E+06     657.986E+03         46.7905
            1665     14.1439E-03     93.5794E-03         5.50424        -1.63097        -1.85926        -1.62771         5.50098        -1.85926     296.140E-03     144.984E-03    -59.4423E-03    -85.5421E-03    -60.5366E-03     119.979E-03    -59.4423E-03     136.279E-03     131.326E+06     35.6919E+06    -27.3714E+06    -27.2486E+06     131.203E+06     35.6919E+06     3.80137E+06         54.8650
            1666     15.0828E-03     93.7940E-03         5.31243        -1.52603        -1.79707        -1.52502         5.31142        -1.79707     62.5477E-03     204.260E-03    -59.7645E-03    -144.496E-03    -67.1002E-03     126.865E-03    -59.7645E-03     286.126E-03     156.756E+06     102.310E+06    -18.8600E+06    -18.8224E+06     156.719E+06     102.310E+06     1.32664E+06         64.1906
            1667     16.0282E-03     94.2339E-03         5.09881        -1.42670        -1.71764        -1.42625         5.09836        -1.71764     13.7458E-03     205.618E-03    -59.8080E-03    -145.810E-03    -63.8964E-03     123.704E-03    -59.8080E-03     295.262E-03     173.620E+06     136.782E+06    -8.48982E+06    -8.47076E+06     173.601E+06     136.782E+06     866.261E+03         72.2215
            1668     942.412E-06     94.4563E-03         11.2128        -2.98470        -6.01661         2.03757         5.05847        -4.88458        -5.37309     119.616E-03    -59.5688E-03    -60.0469E-03    -59.9080E-03     119.615E-03    -59.7065E-03     466.345E-06    -75.1338E+06    -76.6318E+06    -205.914E+06    -76.0390E+06    -205.543E+06     -76.097E+06    -5.71498E+06         29.5595
            1669     1.88369E-03     94.4573E-03         6.59978        -1.42874        -2.94808        -1.44751         5.09920        -1.42874         2.09886     119.678E-03    -59.6730E-03    -60.0054E-03    -59.8684E-03     119.678E-03    -59.8098E-03     152.610E-06    -73.4518E+06    -76.9238E+06    -192.276E+06    -76.7094E+06    -190.588E+06    -75.3536E+06    -13.0664E+06         29.6515
            1670     2.82675E-03     94.4565E-03         5.69504        -1.44224        -2.02598        -1.49471         5.16377        -1.44224    -856.574E-03     119.632E-03    -59.7117E-03    -59.9200E-03    -59.8060E-03     119.631E-03    -59.8252E-03     343.577E-06    -70.6258E+06    -74.2715E+06    -181.103E+06    -76.4415E+06    -176.694E+06    -72.8643E+06    -20.8657E+06         29.8051
            1671     3.76764E-03     94.4563E-03         5.46911        -1.46334        -1.78558        -1.56246         5.24600        -1.46334     521.215E-03     119.500E-03    -59.6557E-03    -59.8447E-03    -59.6535E-03     119.498E-03    -59.8447E-03     1.11679E-03    -64.3152E+06    -67.4417E+06    -177.911E+06    -72.9837E+06    -171.652E+06    -65.0323E+06    -25.5186E+06         30.0283
            1672     4.71049E-03     94.4575E-03         5.42784        -1.49092        -1.72772        -1.64503         5.34514        -1.49092    -482.142E-03     119.412E-03    -59.5611E-03    -59.8506E-03    -59.5565E-03     119.407E-03    -59.8506E-03     1.73776E-03    -55.3385E+06    -59.6172E+06    -174.510E+06    -67.5019E+06    -166.545E+06    -55.4190E+06    -28.9343E+06         30.3305
            1673     5.65262E-03     94.4585E-03         5.47862        -1.52388        -1.76414        -1.74044         5.45493        -1.52388     159.737E-03     119.237E-03    -59.4110E-03    -59.8264E-03    -59.3959E-03     119.222E-03    -59.8264E-03     3.05378E-03    -47.3929E+06    -50.5101E+06    -166.188E+06    -62.0410E+06    -154.150E+06    -47.8997E+06    -35.0463E+06         30.7236
            1674     6.59454E-03     94.4627E-03         5.57225        -1.55928        -1.84072        -1.81580         5.54733        -1.55928     191.827E-03     119.129E-03    -59.3494E-03    -59.7796E-03    -59.3092E-03     119.089E-03    -59.7796E-03     5.21681E-03    -40.7249E+06    -46.1038E+06    -160.673E+06    -58.9164E+06    -143.303E+06    -45.2822E+06    -41.6823E+06         31.2242
            1675     7.53823E-03     94.4681E-03         5.61962        -1.59243        -1.87338        -1.85389         5.60012        -1.59243     669.352E-03     118.960E-03    -59.2410E-03    -59.7190E-03    -59.1591E-03     118.878E-03    -59.7190E-03     7.49596E-03    -33.7887E+06    -44.2577E+06    -150.004E+06    -55.2785E+06    -128.514E+06    -44.2577E+06    -44.9109E+06         31.8580
            1676     8.48069E-03     94.4766E-03         5.62423        -1.62044        -1.87410        -1.86914         5.61927        -1.62044     374.278E-03     118.721E-03    -59.0550E-03    -59.6658E-03    -58.8933E-03     118.559E-03    -59.6658E-03     10.5089E-03    -29.7130E+06    -42.4233E+06    -142.857E+06    -51.8007E+06    -120.770E+06    -42.4233E+06    -44.8166E+06         32.6675
            1677     9.42207E-03     94.4875E-03         5.62800        -1.64275        -1.88252        -1.87742         5.62290        -1.64275     382.168E-03     118.591E-03    -59.0207E-03    -59.5700E-03    -58.6617E-03     118.232E-03    -59.5700E-03     15.5963E-03    -27.1947E+06    -47.3940E+06    -135.299E+06    -50.1768E+06    -112.317E+06    -47.3940E+06    -44.0502E+06         33.7304
            1678     10.3663E-03     94.5088E-03         5.60724        -1.65960        -1.87218        -1.86737         5.60243        -1.65960     373.322E-03     118.684E-03    -59.1212E-03    -59.5630E-03    -58.7010E-03     118.169E-03    -59.4683E-03     19.0956E-03    -22.0539E+06    -51.4216E+06    -115.715E+06    -47.4199E+06    -90.3491E+06    -51.4216E+06    -41.4495E+06         35.2088
            1679     11.3090E-03     94.5278E-03         5.55507        -1.67014        -1.83349        -1.82533         5.54692        -1.67014     484.118E-03     118.618E-03    -59.1295E-03    -59.4889E-03    -58.3001E-03     117.656E-03    -59.3554E-03     25.3671E-03    -14.2735E+06    -55.7636E+06    -86.4820E+06    -42.1541E+06    -58.5316E+06    -55.8334E+06    -34.2593E+06         37.4382
            1680     12.2514E-03     94.5609E-03         5.45980        -1.66173        -1.76442        -1.74313         5.44817        -1.67139     577.194E-03     119.560E-03    -59.1021E-03    -60.4579E-03    -57.6526E-03     116.861E-03    -59.2080E-03     42.3848E-03     16.8918E+06    -47.8124E+06    -59.3477E+06    -35.4272E+06     994.765E+03    -55.8359E+06    -20.5088E+06         41.0191
            1681     13.1977E-03     94.6170E-03         5.33185        -1.62028        -1.69526        -1.64536         5.32276        -1.66110     491.964E-03     122.797E-03    -59.1582E-03    -63.6389E-03    -57.6329E-03     116.791E-03    -59.1582E-03     64.9217E-03     80.0356E+06    -26.5193E+06    -38.0548E+06    -28.8158E+06     78.7504E+06    -34.4729E+06    -4.53746E+06         46.7097
            1682     14.1388E-03     94.6998E-03         5.18807        -1.55227        -1.64143        -1.55558         5.18460        -1.63465     294.296E-03     144.625E-03    -59.3593E-03    -85.2661E-03    -59.6194E-03     118.979E-03    -59.3593E-03     137.077E-03     132.444E+06     23.5084E+06    -23.9430E+06    -23.8858E+06     132.386E+06     23.5084E+06     2.21853E+06         54.8117
            1683     15.0852E-03     94.9276E-03         5.01517        -1.47300        -1.58040        -1.47203         5.01421        -1.58040     64.5981E-03     204.400E-03    -59.6717E-03    -144.728E-03    -66.7907E-03     126.462E-03    -59.6717E-03     287.609E-03     158.664E+06     97.0160E+06    -18.3015E+06    -18.2837E+06     158.646E+06     97.0160E+06     233.446E+03         64.2050
            1684     16.0290E-03     95.3529E-03         4.81234        -1.38575        -1.50839        -1.38538         4.81196        -1.50839     14.0515E-03     205.820E-03    -59.7386E-03    -146.081E-03    -64.2923E-03     124.031E-03    -59.7386E-03     295.547E-03     172.701E+06     135.261E+06    -10.4744E+06    -10.4440E+06     172.671E+06     135.261E+06    -1.15044E+06         72.3011
            1685     941.100E-06     95.5828E-03         10.8946        -2.78141        -5.91035         2.47772         4.40888        -4.68379        -5.25300     120.077E-03    -59.7367E-03    -60.3402E-03    -60.1466E-03     120.076E-03    -59.9294E-03     309.335E-06    -65.4519E+06    -68.5094E+06    -191.253E+06    -67.9864E+06    -190.799E+06    -66.4285E+06    -6.76003E+06         29.5571
            1686     1.88443E-03     95.5833E-03         6.06620        -1.11219        -2.74779        -1.14335         4.46175        -1.11219         2.15962     119.554E-03    -59.5829E-03    -59.9710E-03    -59.5826E-03     119.554E-03    -59.9710E-03     118.401E-06    -57.6162E+06    -62.2304E+06    -175.528E+06    -63.5806E+06    -173.797E+06    -57.9968E+06    -13.1862E+06         29.6463
            1687     2.82566E-03     95.5831E-03         5.10755        -1.13055        -1.76907        -1.19366         4.53215        -1.13055    -735.556E-03     119.516E-03    -59.6467E-03    -59.8689E-03    -59.6464E-03     119.515E-03    -59.8689E-03     320.331E-06    -52.4993E+06    -57.9458E+06    -165.622E+06    -61.7350E+06    -161.608E+06    -52.7245E+06    -19.7874E+06         29.7988
            1688     3.76878E-03     95.5827E-03         4.86287        -1.15445        -1.50635        -1.26169         4.61821        -1.15445     647.894E-03     119.585E-03    -59.7327E-03    -59.8521E-03    -59.7303E-03     119.582E-03    -59.8521E-03     1.13974E-03    -49.6255E+06    -54.3989E+06    -164.789E+06    -60.8854E+06    -158.077E+06    -49.8507E+06    -26.0401E+06         30.0215
            1689     4.71023E-03     95.5837E-03         4.81562        -1.18420        -1.43698        -1.34968         4.72832        -1.18420    -282.516E-03     119.444E-03    -59.6002E-03    -59.8442E-03    -59.5939E-03     119.438E-03    -59.8442E-03     2.03338E-03    -44.9539E+06    -48.0271E+06    -163.127E+06    -57.3334E+06    -152.599E+06    -46.1755E+06    -32.9903E+06         30.3221
            1690     5.65254E-03     95.5850E-03         4.88677        -1.22022        -1.49040        -1.45975         4.85612        -1.22022     360.331E-03     119.322E-03    -59.4958E-03    -59.8266E-03    -59.4774E-03     119.304E-03    -59.8266E-03     3.42875E-03    -37.8123E+06    -40.3681E+06    -154.366E+06    -52.6639E+06    -140.336E+06    -39.5465E+06    -37.5665E+06         30.7129
            1691     6.59563E-03     95.5883E-03         4.99274        -1.25960        -1.57396        -1.54518         4.96396        -1.25960     359.305E-03     119.164E-03    -59.3625E-03    -59.8015E-03    -59.3202E-03     119.122E-03    -59.8015E-03     5.40786E-03    -30.1607E+06    -34.5627E+06    -147.050E+06    -49.2808E+06    -128.752E+06    -33.7412E+06    -41.9282E+06         31.2114
            1692     7.53699E-03     95.5944E-03         5.06390        -1.29731        -1.62665        -1.59814         5.03539        -1.29731     781.897E-03     118.775E-03    -59.0468E-03    -59.7282E-03    -58.9739E-03     118.702E-03    -59.7282E-03     7.14148E-03    -26.2239E+06    -35.7537E+06    -142.939E+06    -48.5205E+06    -120.643E+06    -35.7537E+06    -45.8369E+06         31.8434
            1693     8.48034E-03     95.6013E-03         5.09412        -1.33101        -1.64797        -1.63812         5.08428        -1.33101     498.402E-03     118.636E-03    -58.9784E-03    -59.6573E-03    -58.8118E-03     118.469E-03    -59.6573E-03     10.5551E-03    -24.8089E+06    -36.2529E+06    -139.226E+06    -47.5602E+06    -116.474E+06    -36.2529E+06    -45.5893E+06         32.6505
            1694     9.42407E-03     95.6146E-03         5.13412        -1.36035        -1.68308        -1.67294         5.12398        -1.36035     509.117E-03     118.810E-03    -59.2363E-03    -59.5737E-03    -58.8632E-03     118.434E-03    -59.5705E-03     16.0789E-03    -19.4075E+06    -39.6572E+06    -130.295E+06    -44.5986E+06    -105.104E+06    -39.6572E+06    -46.2693E+06         33.7077
            1695     10.3658E-03     95.6325E-03         5.14859        -1.38532        -1.69824        -1.68956         5.13992        -1.38532     476.665E-03     118.461E-03    -58.9997E-03    -59.4615E-03    -58.4495E-03     117.908E-03    -59.4582E-03     19.7571E-03    -13.8593E+06    -47.6014E+06    -118.423E+06    -41.8740E+06    -90.4084E+06    -47.6014E+06    -46.2639E+06         35.1749
            1696     11.3094E-03     95.6546E-03         5.13129        -1.40478        -1.68383        -1.67211         5.11957        -1.40478     557.356E-03     118.074E-03    -58.7632E-03    -59.3109E-03    -57.8247E-03     117.136E-03    -59.3109E-03     25.2335E-03    -7.08154E+06    -55.1180E+06    -96.3527E+06    -38.3071E+06    -65.1271E+06    -55.1180E+06    -41.9951E+06         37.3881
            1697     12.2550E-03     95.6829E-03         5.07417        -1.41545        -1.63482        -1.62001         5.05936        -1.41545     625.412E-03     119.568E-03    -58.9698E-03    -60.5983E-03    -57.7042E-03     116.840E-03    -59.1362E-03     42.3074E-03     11.4249E+06    -49.8117E+06    -70.7434E+06    -32.0594E+06    -16.5452E+06    -60.5256E+06    -30.5785E+06         40.9467
            1698     13.1970E-03     95.7441E-03         4.98276        -1.41490        -1.56353        -1.55163         4.97086        -1.41490     545.746E-03     123.185E-03    -59.0378E-03    -64.1470E-03    -57.9002E-03     116.938E-03    -59.0378E-03     66.3399E-03     65.5292E+06    -32.3358E+06    -51.2036E+06    -26.9334E+06     60.0505E+06    -51.1273E+06    -12.4541E+06         46.6209
            1699     14.1398E-03     95.8278E-03         4.86596        -1.39303        -1.49427        -1.48386         4.86068        -1.39817     351.916E-03     144.177E-03    -59.2022E-03    -84.9745E-03    -59.2742E-03     118.476E-03    -59.2022E-03     137.128E-03     128.267E+06     12.3544E+06    -29.7968E+06    -21.6115E+06     128.159E+06     4.27679E+06    -696.885E+03         54.7424
            1700     15.0893E-03     96.0428E-03         4.71603        -1.34105        -1.43177        -1.41917         4.71455        -1.35218     125.797E-03     203.846E-03    -59.5032E-03    -144.342E-03    -65.3791E-03     124.882E-03    -59.5032E-03     288.263E-03     160.947E+06     88.8943E+06    -13.7029E+06    -13.6721E+06     160.916E+06     88.8943E+06     1.57417E+06         64.1930
            1701     16.0355E-03     96.4920E-03         4.53725        -1.27072        -1.36850        -1.35124         4.53685        -1.28759     57.6482E-03     204.557E-03    -59.5618E-03    -144.995E-03    -63.8892E-03     123.451E-03    -59.5618E-03     292.695E-03     173.909E+06     135.396E+06    -7.10801E+06    -7.05515E+06     173.856E+06     135.396E+06     492.637E+03         72.3434
            1702     942.204E-06     96.7105E-03         10.5185        -2.66354        -5.68386         2.78188         3.73692        -4.34769        -5.10921     119.996E-03    -59.6910E-03    -60.3045E-03    -60.1860E-03     119.995E-03    -59.8088E-03     368.621E-06    -56.6352E+06    -60.5362E+06    -175.568E+06    -59.4091E+06    -174.763E+06    -58.5671E+06    -8.54101E+06         29.5465
            1703     1.88309E-03     96.7092E-03         5.54046    -791.950E-03        -2.56941    -820.369E-03         3.79142    -791.950E-03         2.23142     119.562E-03    -59.6230E-03    -59.9392E-03    -59.6227E-03     119.562E-03    -59.9392E-03     211.454E-06    -49.9899E+06    -55.0593E+06    -159.565E+06    -56.1119E+06    -157.177E+06    -51.3257E+06    -15.1811E+06         29.6343
            1704     2.82694E-03     96.7092E-03         4.51369    -809.968E-03        -1.52429    -875.194E-03         3.86459    -809.968E-03    -596.671E-03     119.481E-03    -59.6099E-03    -59.8707E-03    -59.6093E-03     119.480E-03    -59.8707E-03     660.857E-06    -41.2321E+06    -46.1969E+06    -151.647E+06    -50.3479E+06    -147.496E+06    -41.2321E+06    -20.2297E+06         29.7846
            1705     3.76800E-03     96.7095E-03         4.24267    -834.425E-03        -1.22679    -943.404E-03         3.95928    -834.425E-03     807.425E-03     119.480E-03    -59.6317E-03    -59.8478E-03    -59.6303E-03     119.478E-03    -59.8478E-03     969.679E-06    -34.2962E+06    -38.5940E+06    -148.850E+06    -45.4044E+06    -142.039E+06    -34.2962E+06    -26.1554E+06         30.0046
            1706     4.71090E-03     96.7098E-03         4.18303    -865.573E-03        -1.14045        -1.04248         4.08506    -865.573E-03    -61.2449E-03     119.310E-03    -59.4949E-03    -59.8148E-03    -59.4884E-03     119.303E-03    -59.8148E-03     1.99494E-03    -31.0430E+06    -33.9168E+06    -147.428E+06    -43.3345E+06    -136.869E+06    -32.1841E+06    -32.9167E+06         30.3023
            1707     5.65334E-03     96.7112E-03         4.28118    -904.714E-03        -1.21330        -1.16801         4.23588    -904.714E-03     582.583E-03     119.197E-03    -59.4308E-03    -59.7667E-03    -59.4101E-03     119.177E-03    -59.7667E-03     3.70797E-03    -27.2942E+06    -32.0649E+06    -142.961E+06    -42.7604E+06    -127.870E+06    -31.6898E+06    -38.5735E+06         30.6902
            1708     6.59463E-03     96.7150E-03         4.40117    -948.590E-03        -1.30720        -1.26909         4.36307    -948.590E-03     553.059E-03     118.931E-03    -59.2069E-03    -59.7244E-03    -59.1554E-03     118.880E-03    -59.7244E-03     5.88568E-03    -23.2278E+06    -28.3823E+06    -135.754E+06    -41.7194E+06    -117.262E+06    -28.3823E+06    -41.6737E+06         31.1869
            1709     7.53840E-03     96.7199E-03         4.49018    -991.224E-03        -1.37528        -1.33072         4.44562    -991.224E-03     937.765E-03     118.785E-03    -59.0980E-03    -59.6866E-03    -59.0308E-03     118.695E-03    -59.6640E-03     7.93135E-03    -20.8533E+06    -28.8748E+06    -132.425E+06    -41.4431E+06    -111.835E+06    -28.8748E+06    -43.2421E+06         31.8182
            1710     8.48104E-03     96.7267E-03         4.53567        -1.02995        -1.40534        -1.38505         4.51537        -1.02995     671.942E-03     118.645E-03    -59.0324E-03    -59.6121E-03    -58.8796E-03     118.469E-03    -59.5895E-03     10.9325E-03    -16.4122E+06    -32.5884E+06    -131.658E+06    -40.3623E+06    -107.707E+06    -32.5884E+06    -46.7108E+06         32.6225
            1711     9.42339E-03     96.7400E-03         4.61164        -1.06533        -1.46856        -1.44764         4.59072        -1.06533     691.765E-03     118.469E-03    -58.9656E-03    -59.5032E-03    -58.5658E-03     118.066E-03    -59.5000E-03     16.5073E-03    -10.5381E+06    -36.0725E+06    -125.922E+06    -38.0023E+06    -98.4573E+06    -36.0725E+06    -49.0725E+06         33.6737
            1712     10.3669E-03     96.7589E-03         4.66380        -1.09779        -1.51010        -1.49271         4.64640        -1.09779     640.886E-03     118.274E-03    -58.8912E-03    -59.3824E-03    -58.3286E-03     117.708E-03    -59.3792E-03     19.9366E-03    -5.80929E+06    -43.8495E+06    -117.128E+06    -36.1171E+06    -86.8197E+06    -43.8495E+06    -49.4873E+06         35.1328
            1713     11.3111E-03     96.7770E-03         4.68286        -1.12565        -1.52063        -1.50075         4.66298        -1.12565     690.991E-03     118.390E-03    -58.8940E-03    -59.4960E-03    -58.2018E-03     117.449E-03    -59.2468E-03     25.2282E-03     126.744E+03    -53.3770E+06    -101.087E+06    -34.2384E+06    -66.7223E+06    -53.3770E+06    -47.5244E+06         37.3312
            1714     12.2529E-03     96.8097E-03         4.66640        -1.14532        -1.50134        -1.47882         4.64388        -1.14532     736.283E-03     119.791E-03    -59.0508E-03    -60.7405E-03    -58.0289E-03     117.140E-03    -59.1112E-03     41.9227E-03     7.57080E+06    -56.3172E+06    -77.9500E+06    -32.3270E+06    -31.8615E+06    -62.5079E+06    -38.3145E+06         40.8631
            1715     13.1979E-03     96.8673E-03         4.61693        -1.15452        -1.46344        -1.44496         4.59845        -1.15452     656.153E-03     122.129E-03    -58.9243E-03    -63.2050E-03    -56.9762E-03     115.900E-03    -58.9243E-03     65.6797E-03     50.6581E+06    -40.4392E+06    -68.3838E+06    -27.5559E+06     37.7747E+06    -68.3838E+06    -22.8918E+06         46.5167
            1716     14.1452E-03     96.9523E-03         4.53837        -1.14770        -1.41733        -1.40749         4.52853        -1.14770     468.067E-03     143.327E-03    -58.9862E-03    -84.3410E-03    -58.8814E-03     117.868E-03    -58.9862E-03     136.676E-03     118.571E+06     1.50257E+06    -42.7418E+06    -19.6789E+06     117.262E+06    -20.2512E+06    -8.04431E+06         54.6534
            1717     15.0841E-03     97.1690E-03         4.42642        -1.11076        -1.37247        -1.36897         4.42291        -1.11076     237.669E-03     203.114E-03    -59.3030E-03    -143.811E-03    -64.6926E-03     123.996E-03    -59.3030E-03     287.376E-03     159.533E+06     73.8408E+06    -13.1461E+06    -13.0853E+06     159.473E+06     73.8408E+06     1.12840E+06         64.1555
            1718     16.0364E-03     97.6032E-03         4.28599        -1.05466        -1.32839        -1.32754         4.28514        -1.05466     126.807E-03     204.164E-03    -59.3783E-03    -144.786E-03    -62.6302E-03     122.008E-03    -59.3783E-03     293.652E-03     175.286E+06     132.722E+06    -6.13225E+06    -6.07773E+06     175.232E+06     132.722E+06     2.90288E+06         72.3667
            1719     941.751E-06     97.8370E-03         10.0452        -2.55856        -5.34807         2.97767         3.03842        -3.87747        -4.89112     119.456E-03    -59.4483E-03    -60.0077E-03    -59.8598E-03     119.456E-03    -59.5958E-03     293.058E-06    -40.6326E+06    -42.4563E+06    -157.385E+06    -41.9641E+06    -156.542E+06    -41.9684E+06    -8.95038E+06         29.5207
            1720     1.88512E-03     97.8356E-03         5.00276    -457.470E-03        -2.40297    -484.351E-03         3.08414    -457.470E-03         2.30306     119.556E-03    -59.6604E-03    -59.8952E-03    -59.8299E-03     119.555E-03    -59.7253E-03     300.145E-06    -39.2264E+06    -44.3218E+06    -142.685E+06    -42.7277E+06    -140.125E+06    -43.3813E+06    -15.3516E+06         29.6082
            1721     2.82563E-03     97.8356E-03         3.91145    -474.254E-03        -1.29244    -534.168E-03         3.15318    -474.254E-03    -428.068E-03     119.375E-03    -59.5465E-03    -59.8287E-03    -59.6274E-03     119.374E-03    -59.7463E-03     965.769E-06    -37.1114E+06    -41.2315E+06    -136.873E+06    -43.5567E+06    -131.579E+06    -40.0807E+06    -21.9483E+06         29.7551
            1722     3.76894E-03     97.8360E-03         3.61741    -499.618E-03    -965.574E-03    -622.577E-03         3.27442    -499.618E-03     994.576E-03     119.105E-03    -59.3708E-03    -59.7341E-03    -59.3679E-03     119.102E-03    -59.7341E-03     1.36550E-03    -31.1570E+06    -32.3710E+06    -135.426E+06    -40.8478E+06    -126.680E+06    -31.4261E+06    -28.3977E+06         29.9704
            1723     4.71098E-03     97.8354E-03         3.54082    -534.823E-03    -851.729E-03    -734.434E-03         3.42353    -534.823E-03     179.668E-03     118.995E-03    -59.2925E-03    -59.7029E-03    -59.2812E-03     118.984E-03    -59.7029E-03     2.53374E-03    -22.8243E+06    -24.2518E+06    -134.056E+06    -35.5001E+06    -122.689E+06    -22.9432E+06    -33.2059E+06         30.2640
            1724     5.65334E-03     97.8378E-03         3.65606    -577.991E-03    -934.744E-03    -861.892E-03         3.58321    -577.991E-03     825.336E-03     118.730E-03    -59.0946E-03    -59.6352E-03    -59.0679E-03     118.703E-03    -59.6352E-03     4.24434E-03    -17.0344E+06    -21.4815E+06    -129.766E+06    -32.0627E+06    -115.345E+06    -20.8743E+06    -37.2499E+06         30.6485
            1725     6.59737E-03     97.8400E-03         3.78049    -625.381E-03        -1.02707    -970.541E-03         3.72396    -625.381E-03     768.068E-03     118.524E-03    -58.9674E-03    -59.5568E-03    -58.9083E-03     118.465E-03    -59.5568E-03     6.32179E-03    -12.9990E+06    -20.5695E+06    -125.720E+06    -30.9742E+06    -107.745E+06    -20.5695E+06    -41.2415E+06         31.1423
            1726     7.53969E-03     97.8454E-03         3.90347    -672.203E-03        -1.12323        -1.05150         3.83173    -672.203E-03         1.12207     118.610E-03    -59.0797E-03    -59.5304E-03    -58.9929E-03     118.501E-03    -59.5077E-03     8.73482E-03    -7.76115E+06    -18.0256E+06    -122.791E+06    -28.3641E+06    -102.188E+06    -18.0256E+06    -44.0353E+06         31.7714
            1727     8.48149E-03     97.8537E-03         3.96917    -716.474E-03        -1.16761        -1.12768         3.92924    -716.474E-03     880.376E-03     118.600E-03    -59.1201E-03    -59.4795E-03    -58.9371E-03     118.394E-03    -59.4569E-03     11.8615E-03    -2.80202E+06    -19.5713E+06    -119.841E+06    -26.2217E+06    -96.4210E+06    -19.5713E+06    -46.7780E+06         32.5737
            1728     9.42527E-03     97.8636E-03         4.06815    -758.125E-03        -1.24400        -1.20393         4.02808    -758.125E-03     897.695E-03     118.301E-03    -58.9207E-03    -59.3807E-03    -58.4828E-03     117.864E-03    -59.3807E-03     17.2496E-03    -612.533E+03    -24.8950E+06    -117.830E+06    -27.0205E+06    -91.4218E+06    -24.8950E+06    -48.8642E+06         33.6205
            1729     10.3692E-03     97.8844E-03         4.14982    -797.174E-03        -1.30337        -1.26994         4.11639    -797.174E-03     835.922E-03     118.144E-03    -58.8732E-03    -59.2707E-03    -58.2648E-03     117.535E-03    -59.2707E-03     20.6629E-03     1.73318E+06    -32.7307E+06    -110.986E+06    -28.6448E+06    -80.6077E+06    -32.7307E+06    -49.8570E+06         35.0714
            1730     11.3109E-03     97.9024E-03         4.21416    -832.646E-03        -1.34735        -1.31308         4.17989    -832.646E-03     858.796E-03     118.770E-03    -59.0601E-03    -59.7104E-03    -58.5354E-03     117.695E-03    -59.1593E-03     26.9162E-03     4.99977E+06    -44.5544E+06    -100.490E+06    -29.2903E+06    -66.2001E+06    -44.5544E+06    -49.2625E+06         37.2546
            1731     12.2547E-03     97.9356E-03         4.24061    -861.353E-03        -1.36015        -1.32440         4.20486    -861.353E-03     883.032E-03     119.905E-03    -59.0401E-03    -60.8648E-03    -58.0682E-03     117.108E-03    -59.0401E-03     43.3895E-03     10.4034E+06    -57.6651E+06    -80.9298E+06    -28.8865E+06    -41.3128E+06    -57.9922E+06    -44.2098E+06         40.7625
            1732     13.1979E-03     97.9901E-03         4.23470    -880.565E-03        -1.35171        -1.32197         4.20496    -880.565E-03     798.050E-03     121.922E-03    -58.8149E-03    -63.1071E-03    -56.6862E-03     115.501E-03    -58.8149E-03     66.5186E-03     43.5265E+06    -46.1199E+06    -74.5650E+06    -25.3982E+06     20.9615E+06    -72.7217E+06    -32.3279E+06         46.3968
            1733     14.1420E-03     98.0746E-03         4.20376    -883.916E-03        -1.33669        -1.31933         4.18640    -883.916E-03     607.144E-03     143.303E-03    -58.7461E-03    -84.5569E-03    -58.0481E-03     116.794E-03    -58.7461E-03     139.061E-03     101.776E+06    -17.4934E+06    -51.8508E+06    -22.2750E+06     98.4744E+06    -43.7680E+06    -14.7743E+06         54.5495
            1734     15.0946E-03     98.2945E-03         4.14349    -857.032E-03        -1.32555        -1.31823         4.13617    -857.032E-03     359.105E-03     202.235E-03    -59.0106E-03    -143.225E-03    -64.4122E-03     123.423E-03    -59.0106E-03     286.848E-03     150.844E+06     48.1994E+06    -18.8423E+06    -18.6948E+06     150.696E+06     48.1994E+06    -2.64405E+06         64.1082
            1735     16.0404E-03     98.7237E-03         4.06413    -811.629E-03        -1.31702        -1.31514         4.06225    -811.629E-03     197.213E-03     203.128E-03    -59.1572E-03    -143.971E-03    -62.0641E-03     121.221E-03    -59.1572E-03     292.883E-03     175.323E+06     124.413E+06    -9.54345E+06    -9.49444E+06     175.274E+06     124.413E+06     544.227E+03         72.3895
            1736     943.350E-06     98.9626E-03         9.38902        -2.42272        -4.86406         3.07707         2.30149        -3.27632        -4.59873     118.974E-03    -59.3657E-03    -59.6087E-03    -59.4827E-03     118.974E-03    -59.4909E-03     396.640E-06    -26.2448E+06    -27.4635E+06    -137.721E+06    -27.3361E+06    -136.857E+06    -27.2358E+06    -8.98088E+06         29.4715
            1737     1.88405E-03     98.9625E-03         4.43023    -107.650E-03        -2.21353    -141.461E-03         2.35816    -107.650E-03         2.31041     119.188E-03    -59.4834E-03    -59.7042E-03    -59.6737E-03     119.187E-03    -59.5132E-03     508.919E-06    -23.0232E+06    -27.9278E+06    -126.467E+06    -26.5616E+06    -124.158E+06    -26.6981E+06    -14.6913E+06         29.5561
            1738     2.82745E-03     98.9619E-03         3.31772    -127.698E-03        -1.08083    -196.229E-03         2.43312    -127.698E-03    -262.292E-03     118.863E-03    -59.2487E-03    -59.6140E-03    -59.3291E-03     118.861E-03    -59.5316E-03     1.07903E-03    -19.7636E+06    -24.3526E+06    -119.240E+06    -26.2491E+06    -113.951E+06    -23.1561E+06    -21.6724E+06         29.6983
            1739     3.76942E-03     98.9612E-03         2.97993    -156.533E-03    -708.903E-03    -294.977E-03         2.56601    -156.533E-03         1.14994     118.538E-03    -59.0461E-03    -59.4919E-03    -59.0384E-03     118.530E-03    -59.4919E-03     2.16510E-03    -14.9136E+06    -16.1519E+06    -119.608E+06    -24.6166E+06    -110.451E+06    -15.6059E+06    -29.2231E+06         29.9085
            1740     4.71257E-03     98.9617E-03         2.87625    -195.022E-03    -560.282E-03    -407.697E-03         2.72366    -195.022E-03     423.430E-03     118.403E-03    -58.9609E-03    -59.4424E-03    -58.9430E-03     118.385E-03    -59.4424E-03     3.42664E-03    -9.23827E+06    -11.3508E+06    -122.154E+06    -23.0448E+06    -110.341E+06    -9.35711E+06    -33.9949E+06         30.1973
            1741     5.65572E-03     98.9627E-03         3.02469    -241.116E-03    -665.663E-03    -543.831E-03         2.90286    -241.116E-03         1.06579     118.230E-03    -58.8595E-03    -59.3703E-03    -58.8219E-03     118.192E-03    -59.3703E-03     4.99557E-03    -3.74945E+06    -8.78767E+06    -117.629E+06    -20.3385E+06    -102.488E+06    -7.33994E+06    -38.1506E+06         30.5771
            1742     6.59805E-03     98.9652E-03         3.15068    -291.936E-03    -752.233E-03    -663.064E-03         3.06151    -291.936E-03     985.728E-03     118.159E-03    -58.8616E-03    -59.2975E-03    -58.7848E-03     118.082E-03    -59.2975E-03     7.17784E-03     2.05641E+06    -7.57393E+06    -114.254E+06    -16.3743E+06    -95.8228E+06    -7.57393E+06    -42.4648E+06         31.0658
            1743     7.54098E-03     98.9716E-03         3.31184    -343.303E-03    -879.553E-03    -765.680E-03         3.19797    -343.303E-03         1.30003     117.930E-03    -58.6899E-03    -59.2399E-03    -58.5511E-03     117.791E-03    -59.2399E-03     9.77449E-03     5.84588E+06    -7.26621E+06    -114.316E+06    -14.3594E+06    -94.1111E+06    -7.26621E+06    -44.9179E+06         31.6899
            1744     8.48562E-03     98.9776E-03         3.39840    -393.433E-03    -933.748E-03    -862.573E-03         3.32723    -393.433E-03         1.08066     118.047E-03    -58.8389E-03    -59.2081E-03    -58.6090E-03     117.787E-03    -59.1785E-03     13.3477E-03     6.62876E+06    -8.67321E+06    -109.970E+06    -15.1886E+06    -88.1522E+06    -8.67321E+06    -45.4467E+06         32.4891
            1745     9.42732E-03     98.9908E-03         3.52117    -441.572E-03        -1.02283    -953.177E-03         3.45151    -441.572E-03         1.09422     118.198E-03    -59.0145E-03    -59.1832E-03    -58.5938E-03     117.714E-03    -59.1206E-03     18.2562E-03     7.75318E+06    -13.4148E+06    -106.761E+06    -16.5242E+06    -82.4839E+06    -13.4148E+06    -46.7624E+06         33.5330
            1746     10.3701E-03     99.0068E-03         3.62559    -487.373E-03        -1.09495        -1.03699         3.56763    -487.373E-03         1.02548     117.965E-03    -58.8628E-03    -59.1026E-03    -58.2008E-03     117.234E-03    -59.0337E-03     22.5818E-03     11.0205E+06    -22.1888E+06    -102.444E+06    -16.9106E+06    -74.5133E+06    -22.1888E+06    -48.7639E+06         34.9749
            1747     11.3154E-03     99.0293E-03         3.72595    -530.239E-03        -1.16320        -1.10856         3.67131    -530.239E-03         1.01636     118.288E-03    -58.8547E-03    -59.4329E-03    -58.1133E-03     117.036E-03    -58.9230E-03     29.2739E-03     13.0822E+06    -34.5807E+06    -94.6582E+06    -18.4011E+06    -63.1749E+06    -34.5807E+06    -48.8490E+06         37.1426
            1748     12.2574E-03     99.0595E-03         3.80044    -567.742E-03        -1.20920        -1.15649         3.74773    -567.742E-03         1.01520     119.666E-03    -58.7921E-03    -60.8740E-03    -57.8761E-03     116.668E-03    -58.7921E-03     44.9359E-03     16.9167E+06    -50.7194E+06    -80.5156E+06    -20.2555E+06    -43.3435E+06    -50.7194E+06    -46.8392E+06         40.6343
            1749     13.2027E-03     99.1145E-03         3.84436    -597.167E-03        -1.23369        -1.18991         3.80058    -597.167E-03     925.166E-03     122.043E-03    -58.5835E-03    -63.4597E-03    -56.8800E-03     115.463E-03    -58.5835E-03     67.5738E-03     35.2615E+06    -47.1676E+06    -75.9808E+06    -21.8723E+06     4.67813E+06    -70.6927E+06    -36.6219E+06         46.2608
            1750     14.1500E-03     99.1962E-03         3.86368    -611.490E-03        -1.24925        -1.22241         3.83685    -611.490E-03     729.152E-03     143.247E-03    -58.4514E-03    -84.7959E-03    -57.9825E-03     116.434E-03    -58.4514E-03     139.708E-03     83.0178E+06    -28.3975E+06    -59.6922E+06    -22.5126E+06     76.9804E+06    -59.5397E+06    -18.8674E+06         54.4366
            1751     15.0928E-03     99.4151E-03         3.86548    -595.959E-03        -1.27283        -1.26014         3.85279    -595.959E-03     470.366E-03     202.595E-03    -58.6370E-03    -143.958E-03    -64.1143E-03     122.751E-03    -58.6370E-03     288.791E-03     142.310E+06     30.7522E+06    -26.1722E+06    -18.1110E+06     141.865E+06     23.1351E+06    -7.05249E+06         64.0558
            1752     16.0398E-03     99.8470E-03         3.86914    -563.541E-03        -1.31279        -1.30920         3.86555    -563.541E-03     268.072E-03     202.648E-03    -58.8172E-03    -143.830E-03    -61.2411E-03     120.058E-03    -58.8172E-03     293.388E-03     172.643E+06     113.562E+06    -9.71898E+06    -9.66200E+06     172.586E+06     113.562E+06    -2.23924E+06         72.4083
            1753     941.779E-06     100.088E-03         8.58645        -2.25484        -4.25625         3.08339         1.57583        -2.58386        -4.26329     118.538E-03    -58.8784E-03    -59.6592E-03    -59.5198E-03     118.537E-03    -59.0167E-03     657.615E-06    -4.24404E+06    -8.47232E+06    -118.608E+06    -7.52608E+06    -117.665E+06    -6.13339E+06    -9.34780E+06         29.3809
            1754     1.88598E-03     100.089E-03         3.84597     238.360E-03        -2.01281     198.902E-03         1.63426     238.360E-03         2.25948     118.146E-03    -58.9009E-03    -59.2449E-03    -58.9204E-03     118.144E-03    -59.2238E-03     1.02558E-03     741.883E+03    -3.91457E+06    -110.060E+06    -5.59643E+06    -107.523E+06    -113.903E+03    -15.9596E+06         29.4601
            1755     2.82773E-03     100.087E-03         2.75360     214.810E-03    -903.839E-03     134.348E-03         1.71541     214.810E-03    -100.323E-03     117.844E-03    -58.7392E-03    -59.1051E-03    -58.7343E-03     117.839E-03    -59.1051E-03     1.58929E-03     5.61239E+06     2.39022E+06    -101.970E+06    -1.14189E+06    -96.6773E+06     3.85197E+06    -22.6349E+06         29.5972
            1756     3.77187E-03     100.086E-03         2.35085     184.002E-03    -460.664E-03     46.3450E-03         1.84384     184.002E-03         1.26407     117.640E-03    -58.6172E-03    -59.0232E-03    -58.6017E-03     117.625E-03    -59.0232E-03     3.12915E-03     8.98295E+06     5.98031E+06    -102.476E+06     243.668E+03    -94.9789E+06     7.22252E+06    -27.7112E+06         29.8022
            1757     4.71468E-03     100.087E-03         2.21452     145.628E-03    -278.001E-03    -66.4002E-03         2.00292     145.628E-03     645.811E-03     117.515E-03    -58.5487E-03    -58.9665E-03    -58.5189E-03     117.485E-03    -58.9665E-03     4.45230E-03     13.1359E+06     7.78593E+06    -106.862E+06     599.121E+03    -96.7836E+06     10.2438E+06    -32.6348E+06         30.0848
            1758     5.65805E-03     100.087E-03         2.40655     98.5676E-03    -421.719E-03    -215.967E-03         2.20079     98.5676E-03         1.26869     117.365E-03    -58.4802E-03    -58.8845E-03    -58.4137E-03     117.298E-03    -58.8845E-03     6.54438E-03     16.8208E+06     7.52393E+06    -102.933E+06     1.15634E+06    -88.4846E+06     8.73962E+06    -38.5321E+06         30.4573
            1759     6.60132E-03     100.091E-03         2.53843     44.4041E-03    -504.269E-03    -359.022E-03         2.39318     44.4041E-03         1.18044     117.176E-03    -58.3709E-03    -58.8053E-03    -58.2413E-03     117.047E-03    -58.8053E-03     9.37522E-03     17.5500E+06     5.23197E+06    -102.699E+06     226.216E+03    -85.3749E+06     5.23197E+06    -42.0844E+06         30.9385
            1760     7.54543E-03     100.094E-03         2.73486    -12.0115E-03    -655.627E-03    -477.623E-03         2.55686    -12.0115E-03         1.45299     117.245E-03    -58.3651E-03    -58.8800E-03    -58.2854E-03     117.035E-03    -58.7494E-03     11.9827E-03     16.7109E+06     2.79213E+06    -104.061E+06    -1.38511E+06    -85.9651E+06     2.79213E+06    -42.9920E+06         31.5561
            1761     8.48797E-03     100.103E-03         2.82656    -67.4958E-03    -704.650E-03    -584.312E-03         2.70623    -67.4958E-03         1.25718     117.202E-03    -58.3415E-03    -58.8605E-03    -58.1514E-03     116.852E-03    -58.7002E-03     15.4483E-03     17.0098E+06     861.270E+03    -101.156E+06    -2.26592E+06    -81.8803E+06     861.270E+03    -43.4699E+06         32.3501
            1762     9.43239E-03     100.115E-03         2.98099    -121.687E-03    -815.355E-03    -701.382E-03         2.86702    -121.687E-03         1.26931     117.387E-03    -58.4371E-03    -58.9498E-03    -58.1146E-03     116.749E-03    -58.6348E-03     20.8421E-03     19.5446E+06    -3.90315E+06    -96.1032E+06    -2.89200E+06    -73.6666E+06    -3.90315E+06    -45.5730E+06         33.3903
            1763     10.3763E-03     100.132E-03         3.11638    -174.901E-03    -904.377E-03    -812.245E-03         3.02424    -174.901E-03         1.18856     117.701E-03    -58.5691E-03    -59.1324E-03    -58.2234E-03     116.793E-03    -58.5691E-03     25.2288E-03     20.2525E+06    -13.3418E+06    -93.3055E+06    -5.00027E+06    -68.0528E+06    -13.3418E+06    -47.1592E+06         34.8249
            1764     11.3185E-03     100.153E-03         3.24394    -226.045E-03    -986.051E-03    -905.508E-03         3.16339    -226.045E-03         1.14320     117.701E-03    -58.4880E-03    -59.2128E-03    -57.7483E-03     116.236E-03    -58.4880E-03     31.5751E-03     19.1681E+06    -25.6788E+06    -87.3060E+06    -8.54870E+06    -59.5892E+06    -25.6788E+06    -46.5592E+06         36.9794
            1765     12.2643E-03     100.184E-03         3.35380    -272.444E-03        -1.05274    -980.892E-03         3.28195    -272.444E-03         1.10973     119.387E-03    -58.3774E-03    -61.0100E-03    -57.7169E-03     116.094E-03    -58.3774E-03     47.2397E-03     19.2196E+06    -41.7383E+06    -75.9113E+06    -13.7463E+06    -42.9455E+06    -41.7383E+06    -44.8208E+06         40.4597
            1766     13.2069E-03     100.238E-03         3.44817    -311.834E-03        -1.10774        -1.04872         3.38915    -311.834E-03         1.01637     122.402E-03    -58.2147E-03    -64.1875E-03    -57.5255E-03     115.740E-03    -58.2147E-03     68.4318E-03     26.7801E+06    -45.2172E+06    -75.1259E+06    -17.5368E+06    -9.74285E+06    -66.2834E+06    -37.8015E+06         46.0888
            1767     14.1503E-03     100.318E-03         3.52584    -337.512E-03        -1.15593        -1.11849         3.48840    -337.512E-03     825.380E-03     143.547E-03    -58.0558E-03    -85.4908E-03    -58.4086E-03     116.464E-03    -58.0558E-03     140.334E-03     68.7939E+06    -28.1032E+06    -72.2983E+06    -16.6556E+06     57.3464E+06    -72.2983E+06    -23.8712E+06         54.2988
            1768     15.1011E-03     100.538E-03         3.59836    -335.125E-03        -1.21884        -1.20020         3.57972    -335.125E-03     560.788E-03     202.413E-03    -58.1377E-03    -144.275E-03    -62.4439E-03     120.582E-03    -58.1377E-03     291.082E-03     133.930E+06     22.6618E+06    -36.8986E+06    -12.5774E+06     132.737E+06    -467.051E+03    -10.1091E+06         63.9892
            1769     16.0550E-03     100.970E-03         3.69665    -318.291E-03        -1.31454        -1.30904         3.69114    -318.291E-03     326.615E-03     202.406E-03    -58.2777E-03    -144.128E-03    -59.8087E-03     118.086E-03    -58.2777E-03     295.189E-03     168.258E+06     100.381E+06    -7.80801E+06    -7.74846E+06     168.199E+06     100.381E+06    -2.61779E+06         72.4216
            1770     943.528E-06     101.213E-03         7.64075        -1.79574        -3.81567         2.98711     863.885E-03        -1.82166        -3.80895     116.834E-03    -57.9733E-03    -58.8602E-03    -58.7005E-03     116.828E-03    -58.1278E-03     1.64972E-03     17.3819E+06     10.3547E+06    -100.530E+06     12.8727E+06    -99.8559E+06     14.1898E+06    -7.11500E+06         29.2194
            1771     1.88597E-03     101.213E-03         3.28637     568.765E-03        -1.84020     522.319E-03     923.849E-03     568.765E-03         2.17209     116.424E-03    -57.9587E-03    -58.4648E-03    -58.0730E-03     116.418E-03    -58.3447E-03     1.87051E-03     18.7843E+06     12.5270E+06    -90.3736E+06     13.1351E+06    -87.3286E+06     15.1313E+06    -16.8459E+06         29.2954
            1772     2.83155E-03     101.211E-03         2.26805     545.963E-03    -800.041E-03     480.856E-03     987.152E-03     545.963E-03     73.5559E-03     116.137E-03    -57.9105E-03    -58.2261E-03    -57.8959E-03     116.122E-03    -58.2261E-03     2.96510E-03     19.1691E+06     14.8526E+06    -87.5857E+06     13.3909E+06    -82.0728E+06     15.1179E+06    -23.4116E+06         29.4278
            1773     3.77423E-03     101.210E-03         1.77267     517.739E-03    -264.787E-03     380.685E-03         1.12720     517.739E-03         1.37657     116.025E-03    -57.8724E-03    -58.1528E-03    -57.8412E-03     115.994E-03    -58.1528E-03     4.51521E-03     23.3889E+06     16.8920E+06    -87.9898E+06     15.1933E+06    -80.4904E+06     17.5882E+06    -27.6594E+06         29.6259
            1774     4.71890E-03     101.210E-03         1.60816     478.140E-03    -49.7524E-03     253.869E-03         1.30454     478.140E-03     856.151E-03     115.781E-03    -57.6863E-03    -58.0951E-03    -57.6158E-03     115.711E-03    -58.0951E-03     6.66214E-03     29.7880E+06     20.3079E+06    -92.1227E+06     18.5757E+06    -81.6066E+06     21.0041E+06    -33.8823E+06         29.8998
            1775     5.66249E-03     101.212E-03         1.86515     428.621E-03    -250.347E-03     99.9988E-03         1.51481     428.621E-03         1.42627     115.666E-03    -57.6201E-03    -58.0457E-03    -57.5196E-03     115.538E-03    -58.0180E-03     9.21330E-03     32.4560E+06     21.9440E+06    -89.6197E+06     19.6159E+06    -76.7795E+06     21.9440E+06    -37.4042E+06         30.2632
            1776     6.60769E-03     101.212E-03         1.96704     371.906E-03    -297.743E-03    -49.7718E-03         1.71907     371.906E-03         1.33772     115.682E-03    -57.6916E-03    -57.9906E-03    -57.5048E-03     115.468E-03    -57.9628E-03     11.9763E-03     32.8655E+06     21.9821E+06    -90.1231E+06     18.7303E+06    -75.9878E+06     21.9821E+06    -39.1360E+06         30.7352
            1777     7.55119E-03     101.219E-03         2.18399     312.362E-03    -461.044E-03    -181.924E-03         1.90487     312.362E-03         1.56322     115.869E-03    -57.8177E-03    -58.0511E-03    -57.5842E-03     115.505E-03    -57.9204E-03     15.5986E-03     31.6459E+06     18.6758E+06    -94.0297E+06     16.9135E+06    -79.2972E+06     18.6758E+06    -40.3130E+06         31.3442
            1778     8.49505E-03     101.226E-03         2.28596     252.274E-03    -508.423E-03    -313.724E-03         2.09127     252.274E-03         1.39733     116.022E-03    -57.6458E-03    -58.3760E-03    -57.5882E-03     115.465E-03    -57.8764E-03     19.4151E-03     32.3886E+06     14.1906E+06    -91.0418E+06     15.5678E+06    -74.2210E+06     14.1906E+06    -42.1423E+06         32.1322
            1779     9.43998E-03     101.237E-03         2.46669     191.795E-03    -631.603E-03    -457.751E-03         2.29284     191.795E-03         1.39742     116.517E-03    -57.6495E-03    -58.8674E-03    -57.7370E-03     115.584E-03    -57.8472E-03     25.0741E-03     33.6555E+06     10.2596E+06    -85.2551E+06     14.3812E+06    -65.9808E+06     10.2596E+06    -43.6881E+06         33.1684
            1780     10.3829E-03     101.258E-03         2.62107     131.089E-03    -726.149E-03    -592.513E-03         2.48744     131.089E-03         1.29705     116.941E-03    -57.8325E-03    -59.1088E-03    -57.9012E-03     115.734E-03    -57.8325E-03     28.9336E-03     30.1336E+06     2.21712E+06    -83.1695E+06     10.3711E+06    -63.4069E+06     2.21712E+06    -42.6851E+06         34.5991
            1781     11.3278E-03     101.274E-03         2.77969     71.4070E-03    -823.245E-03    -712.540E-03         2.66899     71.4070E-03         1.22910     117.266E-03    -57.7887E-03    -59.4769E-03    -57.6331E-03     115.422E-03    -57.7887E-03     35.2805E-03     24.9554E+06    -12.2315E+06    -77.9557E+06     3.60041E+06    -56.6008E+06    -12.2315E+06    -41.3134E+06         36.7466
            1782     12.2710E-03     101.308E-03         2.92540     15.7068E-03    -907.166E-03    -815.101E-03         2.83333     15.7068E-03         1.16821     119.524E-03    -57.7216E-03    -61.8027E-03    -57.8098E-03     115.531E-03    -57.7216E-03     52.1862E-03     24.0190E+06    -29.5434E+06    -66.7660E+06    -1.93204E+06    -40.8150E+06    -29.5434E+06    -40.4518E+06         40.2201
            1783     13.2155E-03     101.363E-03         3.06101    -33.8062E-03    -982.181E-03    -909.725E-03         2.98855    -33.8062E-03         1.05956     123.097E-03    -57.6253E-03    -65.4716E-03    -58.0420E-03     115.667E-03    -57.6253E-03     72.7225E-03     27.0626E+06    -40.1073E+06    -66.0314E+06    -7.11388E+06    -16.0688E+06    -55.8933E+06    -37.2622E+06         45.8596
            1784     14.1604E-03     101.441E-03         3.19496    -71.3946E-03        -1.06014        -1.01510         3.14992    -71.3946E-03     863.845E-03     144.266E-03    -57.4549E-03    -86.8114E-03    -58.9274E-03     116.382E-03    -57.4549E-03     143.235E-03     58.0062E+06    -28.4332E+06    -80.7848E+06    -10.7836E+06     40.3565E+06    -80.7848E+06    -27.5935E+06         54.1166
            1785     15.1058E-03     101.656E-03         3.34387    -84.3687E-03        -1.16640        -1.14416         3.32163    -84.3687E-03     593.574E-03     201.386E-03    -57.4559E-03    -143.930E-03    -61.9601E-03     119.416E-03    -57.4559E-03     290.597E-03     119.843E+06     5.75835E+06    -48.9682E+06    -10.0104E+06     117.450E+06    -30.8072E+06    -13.4249E+06         63.8921
            1786     16.0598E-03     102.081E-03         3.53711    -85.9281E-03        -1.31647        -1.30979         3.53043    -85.9281E-03     354.698E-03     200.867E-03    -57.6079E-03    -143.260E-03    -58.0536E-03     115.661E-03    -57.6079E-03     295.248E-03     161.518E+06     80.6509E+06    -5.71315E+06    -5.58223E+06     161.388E+06     80.6509E+06    -2.79617E+06         72.4270
            1787     945.334E-06     102.337E-03         6.52326        -1.03238        -3.54906         2.84011     134.086E-03        -1.03238        -3.18623     113.600E-03    -56.6116E-03    -56.9888E-03    -56.7242E-03     113.593E-03    -56.8687E-03     2.19973E-03     36.0443E+06     27.4599E+06    -83.4492E+06     33.8360E+06    -82.7370E+06     28.9560E+06    -6.75854E+06         28.9573
            1788     1.89052E-03     102.334E-03         2.76627     891.190E-03        -1.71410     840.095E-03     212.078E-03     891.190E-03         2.04252     113.601E-03    -56.5518E-03    -57.0496E-03    -56.8225E-03     113.587E-03    -56.7641E-03     2.86454E-03     33.9238E+06     27.2169E+06    -69.0298E+06     30.9249E+06    -66.0309E+06     27.2169E+06    -16.5524E+06         29.0311
            1789     2.83406E-03     102.333E-03         1.90466     867.951E-03    -822.063E-03     807.560E-03     275.042E-03     867.951E-03     282.433E-03     113.507E-03    -56.5608E-03    -56.9458E-03    -56.6879E-03     113.468E-03    -56.7805E-03     4.87671E-03     36.8732E+06     29.9127E+06    -72.8689E+06     31.0843E+06    -67.0800E+06     29.9127E+06    -24.3191E+06         29.1583
            1790     3.78010E-03     102.332E-03         1.47319     792.104E-03    -298.526E-03     683.645E-03     444.880E-03     838.246E-03         1.46634     113.178E-03    -56.4559E-03    -56.7223E-03    -56.3747E-03     113.097E-03    -56.7223E-03     7.05212E-03     42.2995E+06     30.1558E+06    -73.3485E+06     33.3269E+06    -64.3759E+06     30.1558E+06    -30.7211E+06         29.3480
            1791     4.72478E-03     102.331E-03         1.29723     747.683E-03    -64.3079E-03     544.082E-03     642.703E-03     793.825E-03         1.05273     113.019E-03    -56.3529E-03    -56.6665E-03    -56.2084E-03     112.868E-03    -56.6598E-03     9.82641E-03     45.1744E+06     32.4031E+06    -79.3937E+06     34.0475E+06    -68.2668E+06     32.4031E+06    -35.5090E+06         29.6116
            1792     5.67150E-03     102.332E-03         1.48688     739.929E-03    -236.802E-03     389.855E-03     860.227E-03     739.929E-03         1.55704     113.065E-03    -56.4309E-03    -56.6339E-03    -56.2039E-03     112.802E-03    -56.5982E-03     12.9751E-03     45.9090E+06     33.0273E+06    -79.7541E+06     33.8508E+06    -67.6959E+06     33.0273E+06    -36.9385E+06         29.9640
            1793     6.61526E-03     102.335E-03         1.52437     680.409E-03    -213.546E-03     245.038E-03         1.06579     680.409E-03         1.46371     113.279E-03    -56.5401E-03    -56.7390E-03    -56.2894E-03     112.849E-03    -56.5601E-03     16.6147E-03     45.2705E+06     32.1645E+06    -80.4365E+06     33.0548E+06    -68.2208E+06     32.1645E+06    -37.1343E+06         30.4252
            1794     7.56140E-03     102.339E-03         1.72034     617.983E-03    -346.484E-03     94.9417E-03         1.27891     617.983E-03         1.62874     113.373E-03    -56.4711E-03    -56.9018E-03    -56.2030E-03     112.727E-03    -56.5240E-03     20.5955E-03     44.6295E+06     27.8010E+06    -85.4092E+06     32.0042E+06    -72.7838E+06     27.8010E+06    -38.4036E+06         31.0247
            1795     8.50787E-03     102.348E-03         1.80811     553.173E-03    -366.555E-03    -63.8592E-03         1.50541     553.173E-03         1.47402     114.053E-03    -56.4468E-03    -57.6066E-03    -56.6061E-03     113.086E-03    -56.4798E-03     25.2927E-03     44.4982E+06     19.8407E+06    -81.2769E+06     29.4369E+06    -66.2157E+06     19.8407E+06    -40.6214E+06         31.8064
            1796     9.45063E-03     102.360E-03         1.99074     486.671E-03    -477.218E-03    -224.698E-03         1.73822     486.671E-03         1.46035     115.198E-03    -56.5158E-03    -58.6817E-03    -57.1621E-03     113.678E-03    -56.5158E-03     31.8430E-03     40.9098E+06     15.7433E+06    -78.1626E+06     25.2968E+06    -62.5496E+06     15.7433E+06    -40.0506E+06         32.8402
            1797     10.3963E-03     102.378E-03         2.15313     419.218E-03    -564.099E-03    -380.431E-03         1.96946     419.218E-03         1.34648     115.902E-03    -56.5736E-03    -59.3285E-03    -57.4409E-03     114.015E-03    -56.5736E-03     35.8903E-03     36.6127E+06     8.39379E+06    -75.6116E+06     21.7859E+06    -60.7847E+06     8.39379E+06    -37.9648E+06         34.2721
            1798     11.3399E-03     102.398E-03         2.33725     351.709E-03    -671.193E-03    -530.750E-03         2.19680     351.709E-03         1.25227     117.180E-03    -56.6278E-03    -60.5522E-03    -58.0306E-03     114.658E-03    -56.6278E-03     41.5353E-03     33.9045E+06    -4.10915E+06    -68.5265E+06     18.3596E+06    -52.9816E+06    -4.10915E+06    -36.5924E+06         36.4218
            1799     12.2848E-03     102.429E-03         2.52075     286.635E-03    -774.795E-03    -668.361E-03         2.41432     286.635E-03         1.16113     119.715E-03    -56.6780E-03    -63.0366E-03    -58.1833E-03     114.861E-03    -56.6780E-03     57.7993E-03     31.4919E+06    -20.1774E+06    -56.2970E+06     13.0195E+06    -37.8246E+06    -20.1774E+06    -35.2488E+06         39.8958
            1800     13.2283E-03     102.488E-03         2.70275     226.197E-03    -873.043E-03    -795.040E-03         2.62475     226.197E-03         1.02952     123.276E-03    -56.6782E-03    -66.5979E-03    -58.0259E-03     114.704E-03    -56.6782E-03     78.2766E-03     28.7102E+06    -33.1092E+06    -55.1408E+06     4.72660E+06    -19.0284E+06    -45.2380E+06    -32.9204E+06         45.5541
            1801     14.1713E-03     102.564E-03         2.88820     175.621E-03    -976.621E-03    -930.286E-03         2.84187     175.621E-03     834.814E-03     145.039E-03    -56.5494E-03    -88.4901E-03    -59.5117E-03     116.061E-03    -56.5494E-03     147.395E-03     50.5328E+06    -24.8573E+06    -78.8295E+06    -3.42588E+06     29.1014E+06    -78.8295E+06    -26.8479E+06         53.8829
            1802     15.1202E-03     102.778E-03         3.10741     145.581E-03        -1.12230        -1.09949         3.08460     145.581E-03     578.768E-03     202.854E-03    -56.5246E-03    -146.330E-03    -62.8802E-03     119.405E-03    -56.5246E-03     294.572E-03     106.108E+06    -7.83308E+06    -55.5354E+06    -8.54885E+06     102.710E+06    -51.4224E+06    -15.2369E+06         63.7807
            1803     16.0701E-03     103.198E-03         3.38349     123.482E-03        -1.31975        -1.31281         3.37655     123.482E-03     357.306E-03     201.181E-03    -56.6744E-03    -144.506E-03    -56.9863E-03     113.661E-03    -56.6744E-03     299.287E-03     152.826E+06     59.1039E+06    -8.82321E+06    -6.86557E+06     152.614E+06     57.3580E+06    -3.70475E+06         72.4514
            1804     946.187E-06     103.452E-03         5.36380    -268.880E-03        -3.24035         2.69760    -574.143E-03    -268.880E-03        -2.49097     109.404E-03    -54.4157E-03    -54.9881E-03    -54.7327E-03     109.392E-03    -54.6589E-03     2.51822E-03     52.1478E+06     44.0311E+06    -65.0715E+06     48.5585E+06    -64.0001E+06     46.5491E+06    -9.62267E+06         28.5652
            1805     1.89398E-03     103.453E-03         2.35934         1.20070        -1.69328         1.14635    -480.294E-03         1.20070         1.85827     109.047E-03    -54.2794E-03    -54.7672E-03    -54.4108E-03     109.013E-03    -54.6018E-03     4.34215E-03     51.4456E+06     43.9341E+06    -49.6664E+06     48.3161E+06    -46.5369E+06     43.9341E+06    -16.8961E+06         28.6336
            1806     2.84116E-03     103.451E-03         1.70614         1.17148        -1.00329         1.08032    -377.467E-03         1.17148     490.178E-03     108.928E-03    -54.2069E-03    -54.7211E-03    -54.3216E-03     108.837E-03    -54.5149E-03     7.34900E-03     54.5180E+06     42.3420E+06    -54.4151E+06     47.6401E+06    -47.5372E+06     42.3420E+06    -26.0258E+06         28.7538
            1807     3.78797E-03     103.449E-03         1.48972         1.04344    -636.627E-03     952.298E-03    -189.069E-03         1.13330         1.52779     108.815E-03    -54.2754E-03    -54.5396E-03    -54.1876E-03     108.627E-03    -54.4393E-03     10.7270E-03     55.7828E+06     38.3711E+06    -59.5868E+06     45.6787E+06    -49.4827E+06     38.3711E+06    -32.5115E+06         28.9350
            1808     4.73612E-03     103.449E-03         1.32505     993.877E-03    -408.374E-03     815.809E-03     11.0049E-03         1.08374         1.23196     108.923E-03    -54.3441E-03    -54.5788E-03    -54.1896E-03     108.590E-03    -54.4008E-03     14.2689E-03     55.4133E+06     37.3169E+06    -67.3950E+06     43.7952E+06    -55.7769E+06     37.3169E+06    -35.8920E+06         29.1882
            1809     5.68186E-03     103.449E-03         1.33541         1.02046    -434.412E-03     652.771E-03     242.635E-03         1.02605         1.66345     108.971E-03    -54.3636E-03    -54.6079E-03    -54.0581E-03     108.422E-03    -54.3636E-03     18.4329E-03     56.3071E+06     35.7648E+06    -72.5473E+06     43.8196E+06    -60.0598E+06     35.7648E+06    -38.0550E+06         29.5289
            1810     6.63125E-03     103.452E-03         1.29920     956.041E-03    -328.351E-03     485.520E-03     479.740E-03     961.630E-03         1.56419     109.320E-03    -54.3356E-03    -54.9847E-03    -54.1278E-03     108.463E-03    -54.3356E-03     23.2104E-03     57.4978E+06     35.5388E+06    -74.4664E+06     45.4014E+06    -62.3699E+06     35.5388E+06    -38.0056E+06         29.9798
            1811     7.57748E-03     103.457E-03         1.40342     893.298E-03    -361.342E-03     323.419E-03     718.654E-03     893.298E-03         1.66471     110.219E-03    -54.3524E-03    -55.8668E-03    -54.6481E-03     109.000E-03    -54.3524E-03     27.8562E-03     57.9465E+06     34.8664E+06    -76.7941E+06     45.9433E+06    -64.7909E+06     34.8664E+06    -38.2894E+06         30.5721
            1812     8.52342E-03     103.465E-03         1.43748     823.012E-03    -312.245E-03     161.453E-03     963.787E-03     823.012E-03         1.51087     111.198E-03    -54.3849E-03    -56.8127E-03    -55.0738E-03     109.459E-03    -54.3849E-03     33.4419E-03     55.1365E+06     27.7604E+06    -73.6524E+06     43.1454E+06    -61.6613E+06     27.7604E+06    -37.2599E+06         31.3493
            1813     9.47182E-03     103.479E-03         1.58338     751.278E-03    -371.988E-03    -12.4740E-03         1.22386     751.278E-03         1.47265     112.766E-03    -54.4857E-03    -58.2807E-03    -55.8115E-03     110.297E-03    -54.4857E-03     40.3820E-03     50.6030E+06     23.7626E+06    -71.9076E+06     38.6783E+06    -59.9830E+06     23.7626E+06    -36.1295E+06         32.3831
            1814     10.4160E-03     103.498E-03         1.73692     677.658E-03    -435.775E-03    -195.599E-03         1.49675     677.658E-03         1.34040     114.734E-03    -54.6410E-03    -60.0933E-03    -57.0972E-03     111.738E-03    -54.6410E-03     45.0908E-03     46.2091E+06     15.3927E+06    -71.2507E+06     34.3239E+06    -59.3656E+06     15.3927E+06    -35.1614E+06         33.8225
            1815     11.3604E-03     103.520E-03         1.93362     602.465E-03    -540.003E-03    -377.683E-03         1.77130     602.465E-03         1.20225     117.023E-03    -54.8417E-03    -62.1810E-03    -58.2693E-03     113.111E-03    -54.8417E-03     51.7315E-03     41.5993E+06     2.22504E+06    -63.0087E+06     29.7597E+06    -51.1691E+06     2.22504E+06    -32.8076E+06         35.9857
            1816     12.3013E-03     103.553E-03         2.14265     528.104E-03    -651.821E-03    -542.930E-03         2.03376     528.104E-03         1.07721     120.424E-03    -55.0636E-03    -65.3606E-03    -58.8170E-03     113.881E-03    -55.0636E-03     67.4814E-03     36.9258E+06    -12.2525E+06    -50.1986E+06     24.1715E+06    -37.4443E+06    -12.2525E+06    -30.4989E+06         39.4797
            1817     13.2465E-03     103.608E-03         2.37204     456.779E-03    -776.479E-03    -702.106E-03         2.29766     456.779E-03     936.899E-03     124.205E-03    -55.2127E-03    -68.9924E-03    -58.3666E-03     113.579E-03    -55.2127E-03     87.4549E-03     31.4913E+06    -23.3512E+06    -47.3984E+06     17.7693E+06    -21.7330E+06    -35.2947E+06    -26.2445E+06         45.1854
            1818     14.1920E-03     103.689E-03         2.61521     392.969E-03    -912.063E-03    -870.911E-03         2.57406     392.969E-03     750.108E-03     146.934E-03    -55.2044E-03    -91.7297E-03    -60.1301E-03     115.335E-03    -55.2044E-03     156.227E-03     46.8098E+06    -15.4322E+06    -67.1664E+06     6.51631E+06     24.8613E+06    -67.1664E+06    -18.9495E+06         53.6253
            1819     15.1370E-03     103.897E-03         2.89456     345.010E-03        -1.09146        -1.07139         2.87449     345.010E-03     525.289E-03     204.081E-03    -55.1939E-03    -148.887E-03    -62.8936E-03     118.088E-03    -55.1939E-03     299.851E-03     95.8499E+06    -6.90351E+06    -54.1110E+06    -4.77599E+06     93.7224E+06    -54.1110E+06    -10.9701E+06         63.6961
            1820     16.0947E-03     104.318E-03         3.22894     301.618E-03        -1.32235        -1.31611         3.22270     301.618E-03     333.372E-03     200.799E-03    -55.3420E-03    -145.457E-03    -56.9379E-03     112.280E-03    -55.3420E-03     300.505E-03     143.639E+06     50.4012E+06    -13.3304E+06    -5.71020E+06     143.435E+06     42.9845E+06    -4.02027E+06         72.5456
            1821     950.281E-06     104.566E-03         4.30785     419.558E-03        -2.95999         2.54023        -1.19237     419.558E-03        -1.83936     102.964E-03    -51.2916E-03    -51.6726E-03    -51.6240E-03     102.936E-03    -51.3125E-03     3.62862E-03     65.1853E+06     57.3221E+06    -43.7925E+06     61.2660E+06    -42.3911E+06     59.8401E+06    -10.8488E+06         28.0095
            1822     1.89906E-03     104.564E-03         2.10716         1.46253        -1.80023         1.39727        -1.09034         1.46253         1.62718     102.520E-03    -51.1264E-03    -51.3933E-03    -51.0857E-03     102.434E-03    -51.3481E-03     6.88978E-03     64.8488E+06     54.2689E+06    -30.5338E+06     60.7535E+06    -26.4386E+06     54.2689E+06    -18.7249E+06         28.0737
            1823     2.85052E-03     104.562E-03         1.68311         1.43027        -1.32791         1.33698    -981.774E-03         1.43027     654.118E-03     102.349E-03    -51.0209E-03    -51.3278E-03    -50.9322E-03     102.154E-03    -51.2217E-03     10.4887E-03     67.3532E+06     51.6759E+06    -34.7866E+06     59.5809E+06    -27.0142E+06     51.6759E+06    -26.9399E+06         28.1872
            1824     3.80099E-03     104.561E-03         1.59748         1.30725        -1.09610         1.20325    -785.551E-03         1.39093         1.55871     102.558E-03    -51.1594E-03    -51.3991E-03    -51.0216E-03     102.181E-03    -51.1594E-03     14.8179E-03     68.3653E+06     48.3249E+06    -46.3981E+06     57.7216E+06    -35.7544E+06     48.3249E+06    -33.2772E+06         28.3598
            1825     4.75025E-03     104.559E-03         1.44200         1.25467    -873.998E-03         1.04861    -564.289E-03         1.33835         1.37986     102.702E-03    -51.1188E-03    -51.5834E-03    -50.9075E-03     102.026E-03    -51.1188E-03     19.8461E-03     68.8764E+06     43.8065E+06    -55.3435E+06     56.6559E+06    -43.1230E+06     43.8065E+06    -36.9829E+06         28.6036
            1826     5.70203E-03     104.561E-03         1.37908         1.22688    -767.684E-03     865.932E-03    -303.084E-03         1.27542         1.72050     103.182E-03    -51.1014E-03    -52.0809E-03    -51.0019E-03     102.103E-03    -51.1014E-03     25.2857E-03     68.1051E+06     41.0840E+06    -64.2828E+06     55.1958E+06    -51.3734E+06     41.0840E+06    -39.2584E+06         28.9361
            1827     6.65065E-03     104.562E-03         1.28238         1.15607    -590.493E-03     681.671E-03    -38.3294E-03         1.20461         1.62277     104.079E-03    -51.1149E-03    -52.9641E-03    -51.3430E-03     102.458E-03    -51.1149E-03     31.1266E-03     66.1915E+06     37.4218E+06    -69.5900E+06     53.1027E+06    -56.5011E+06     37.4218E+06    -40.0502E+06         29.3814
            1828     7.60152E-03     104.570E-03         1.26265         1.10535    -502.158E-03     514.350E-03     221.430E-03         1.13006         1.67627     105.467E-03    -51.2070E-03    -54.2598E-03    -51.9900E-03     103.197E-03    -51.2070E-03     37.2312E-03     62.8387E+06     37.6980E+06    -72.3800E+06     50.9013E+06    -60.4426E+06     37.6980E+06    -38.2631E+06         29.9715
            1829     8.55038E-03     104.578E-03         1.23359         1.02937    -374.050E-03     342.585E-03     492.249E-03         1.05408         1.53254     107.492E-03    -51.3505E-03    -56.1419E-03    -53.0556E-03     104.406E-03    -51.3505E-03     43.8981E-03     59.3695E+06     33.9842E+06    -70.3344E+06     48.8921E+06    -59.8570E+06     33.9842E+06    -35.2969E+06         30.7520
            1830     9.49709E-03     104.593E-03         1.28396     976.181E-03    -347.653E-03     147.673E-03     788.633E-03     976.181E-03         1.45519     109.948E-03    -51.5785E-03    -58.3694E-03    -54.1737E-03     105.752E-03    -51.5785E-03     51.7916E-03     56.8877E+06     32.4323E+06    -65.8052E+06     46.9581E+06    -55.8756E+06     32.4323E+06    -33.3675E+06         31.7960
            1831     10.4448E-03     104.616E-03         1.39419     895.531E-03    -354.803E-03    -55.9880E-03         1.09537     895.531E-03         1.28778     112.746E-03    -51.8868E-03    -60.8589E-03    -55.7652E-03     107.652E-03    -51.8868E-03     57.9127E-03     52.2945E+06     27.8752E+06    -68.7219E+06     43.4852E+06    -59.9126E+06     27.8752E+06    -31.3393E+06         33.2556
            1832     11.3888E-03     104.639E-03         1.58111     812.631E-03    -436.053E-03    -258.310E-03         1.40337     812.631E-03         1.11130     116.191E-03    -52.2296E-03    -63.9614E-03    -57.6855E-03     109.915E-03    -52.2296E-03     65.4487E-03     45.9612E+06     13.7322E+06    -59.7318E+06     37.9496E+06    -51.7202E+06     13.7322E+06    -27.6614E+06         35.4549
            1833     12.3352E-03     104.674E-03         1.81165     729.530E-03    -551.674E-03    -448.606E-03         1.70859     729.530E-03     957.236E-03     121.156E-03    -52.6483E-03    -68.5081E-03    -59.2530E-03     111.901E-03    -52.6483E-03     81.0461E-03     38.6278E+06     864.188E+03    -45.5682E+06     30.3368E+06    -37.2772E+06     864.188E+03    -24.7851E+06         39.0102
            1834     13.2753E-03     104.732E-03         2.08224     648.048E-03    -697.695E-03    -634.482E-03         2.01902     648.048E-03     803.790E-03     126.761E-03    -53.0568E-03    -73.7043E-03    -60.4454E-03     113.502E-03    -53.0568E-03     99.3256E-03     29.2603E+06    -16.7833E+06    -39.8284E+06     22.2029E+06    -27.3099E+06    -22.2444E+06    -19.5133E+06         44.8155
            1835     14.2200E-03     104.807E-03         2.37529     571.689E-03    -862.446E-03    -831.532E-03         2.34437     571.689E-03     619.158E-03     149.982E-03    -53.3644E-03    -96.6171E-03    -62.5978E-03     115.962E-03    -53.3644E-03     165.154E-03     42.3518E+06    -9.36070E+06    -45.3913E+06     13.4432E+06     19.5096E+06    -45.3532E+06    -8.30104E+06         53.4120
            1836     15.1666E-03     105.029E-03         2.70377     506.277E-03        -1.06977        -1.05526         2.68926     506.277E-03     434.930E-03     203.799E-03    -53.5364E-03    -150.263E-03    -64.5284E-03     118.065E-03    -53.5364E-03     300.598E-03     92.4592E+06     3.99440E+06    -40.8232E+06     4.33743E+06     92.1162E+06    -40.8232E+06    -1.86606E+06         63.6999
            1837     16.1198E-03     105.425E-03         3.06610     442.945E-03        -1.31278        -1.30811         3.06143     442.945E-03     281.103E-03     198.688E-03    -53.8364E-03    -144.851E-03    -58.8294E-03     112.666E-03    -53.8364E-03     295.913E-03     139.554E+06     54.8827E+06    -14.5839E+06    -177.213E+03     139.434E+06     40.5964E+06    -709.389E+03         72.7802
            1838     953.857E-06     105.669E-03         3.42369     965.598E-03        -2.74619         2.38368        -1.70618     965.598E-03        -1.21578     93.5889E-03    -46.7074E-03    -46.8815E-03    -46.8100E-03     93.5362E-03    -46.7261E-03     4.99986E-03     79.3106E+06     70.9120E+06    -21.7556E+06     76.3380E+06    -20.0780E+06     72.2070E+06    -11.3967E+06         27.2708
            1839     1.90965E-03     105.667E-03         1.98883         1.65997        -1.99776         1.60437        -1.61363         1.66030         1.41737     93.6718E-03    -46.7002E-03    -46.9716E-03    -46.7845E-03     93.5034E-03    -46.7189E-03     9.27498E-03     78.2930E+06     64.5230E+06    -10.2571E+06     72.7535E+06    -4.71755E+06     64.5230E+06    -20.2699E+06         27.3346
            1840     2.86256E-03     105.665E-03         1.75817         1.63360        -1.71741         1.56160        -1.52116         1.63393     820.597E-03     93.8389E-03    -46.7172E-03    -47.1216E-03    -46.7380E-03     93.4552E-03    -46.7172E-03     14.2150E-03     77.5650E+06     57.8435E+06    -17.8388E+06     68.3675E+06     -8.6413E+06     57.8435E+06    -27.8488E+06         27.4445
            1841     3.81698E-03     105.664E-03         1.71545         1.52163        -1.53847         1.41263        -1.31239         1.59837         1.56549     93.8822E-03    -46.6917E-03    -47.1906E-03    -46.4539E-03     93.1456E-03    -46.6917E-03     19.7270E-03     76.9366E+06     51.9297E+06    -32.1901E+06     65.1962E+06    -20.4497E+06     51.9297E+06    -33.6131E+06         27.6113
            1842     4.77250E-03     105.663E-03         1.56764         1.45887        -1.30906         1.23006        -1.05629         1.54367         1.48876     94.3806E-03    -46.6414E-03    -47.7393E-03    -46.5024E-03     93.1438E-03    -46.6414E-03     25.8592E-03     74.5456E+06     43.6564E+06    -45.1542E+06     61.3903E+06    -31.9989E+06     43.6564E+06    -37.2820E+06         27.8509
            1843     5.72609E-03     105.663E-03         1.49960         1.36852        -1.13229         1.03318    -772.979E-03         1.47563         1.75322     95.4779E-03    -46.6532E-03    -48.8247E-03    -46.8710E-03     93.5242E-03    -46.6532E-03     32.7117E-03     70.0688E+06     37.6565E+06    -55.6785E+06     57.0387E+06    -42.6485E+06     37.6565E+06    -38.2717E+06         28.1830
            1844     6.68077E-03     105.668E-03         1.40212         1.25929    -907.256E-03     849.522E-03    -495.468E-03         1.40010         1.66483     97.1138E-03    -46.7436E-03    -50.3702E-03    -47.4955E-03     94.2392E-03    -46.7436E-03     40.1534E-03     62.3909E+06     32.6732E+06    -64.0586E+06     50.0593E+06    -51.7270E+06     32.6732E+06    -37.3599E+06         28.6325
            1845     7.63304E-03     105.673E-03         1.32307         1.17908    -718.769E-03     665.537E-03    -203.205E-03         1.32104         1.66757     99.2484E-03    -46.9169E-03    -52.3315E-03    -48.3692E-03     95.2861E-03    -46.9169E-03     47.7111E-03     53.8974E+06     29.3686E+06    -69.9037E+06     42.7286E+06    -58.7349E+06     29.3686E+06    -35.2861E+06         29.2338
            1846     8.58575E-03     105.686E-03         1.24977         1.07749    -511.546E-03     467.356E-03     109.216E-03         1.23914         1.52265     102.264E-03    -47.1642E-03    -55.0997E-03    -49.7909E-03     96.9551E-03    -47.1642E-03     56.0933E-03     47.1807E+06     25.1787E+06    -68.6519E+06     36.9826E+06    -58.4537E+06     25.1787E+06    -32.7104E+06         30.0366
            1847     9.53619E-03     105.702E-03         1.19724         1.04053    -391.902E-03     254.843E-03     436.902E-03         1.15412         1.42187     106.199E-03    -47.5361E-03    -58.6632E-03    -51.6896E-03     99.2258E-03    -47.5361E-03     65.6996E-03     39.6850E+06     23.7264E+06    -64.4710E+06     30.7986E+06    -55.5845E+06     23.7264E+06    -28.9445E+06         31.1176
            1848     10.4849E-03     105.726E-03         1.19217         1.01017    -327.322E-03     38.4167E-03     770.422E-03         1.06618         1.22864     110.365E-03    -48.0520E-03    -62.3133E-03    -54.1399E-03     102.192E-03    -48.0520E-03     72.9235E-03     34.0747E+06     21.5296E+06    -67.1000E+06     24.8940E+06    -59.5901E+06     23.2004E+06    -26.0807E+06         32.6307
            1849     11.4329E-03     105.754E-03         1.30353     972.070E-03    -370.945E-03    -180.174E-03         1.10889     975.934E-03         1.02174     115.368E-03    -48.6529E-03    -66.7151E-03    -57.3925E-03     106.045E-03    -48.6529E-03     79.9019E-03     27.5109E+06     10.5141E+06    -60.6773E+06     19.1939E+06    -54.0310E+06     12.1848E+06    -22.6084E+06         34.9069
            1850     12.3735E-03     105.793E-03         1.54652     884.661E-03    -487.802E-03    -394.442E-03         1.45316     884.661E-03     835.128E-03     121.915E-03    -49.4060E-03    -72.5089E-03    -60.4844E-03     109.890E-03    -49.4060E-03     93.3098E-03     22.1395E+06     3.59000E+06    -43.3089E+06     12.8937E+06    -36.6663E+06     6.19312E+06    -18.7991E+06         38.5750
            1851     13.3191E-03     105.852E-03         1.85087     793.952E-03    -648.837E-03    -599.576E-03         1.80161     793.952E-03     669.320E-03     130.379E-03    -50.2345E-03    -80.1442E-03    -64.2207E-03     114.455E-03    -50.2345E-03     111.156E-03     14.2026E+06    -16.8286E+06    -40.5360E+06     7.02795E+06    -35.9646E+06    -14.2255E+06     -14.151E+06         44.5392
            1852     14.2523E-03     105.938E-03         2.18063     706.447E-03    -833.099E-03    -811.332E-03         2.15886     706.447E-03     498.144E-03     153.543E-03    -51.0348E-03    -102.508E-03    -67.3646E-03     118.399E-03    -51.0348E-03     172.234E-03     34.5387E+06    -16.4978E+06    -33.1529E+06     3.89285E+06     10.7193E+06    -29.7240E+06    -5.28307E+06         53.3514
            1853     15.1955E-03     106.145E-03         2.53814     625.683E-03        -1.05563        -1.04581         2.52832     625.683E-03     355.704E-03     205.580E-03    -51.6413E-03    -153.938E-03    -69.1412E-03     120.783E-03    -51.6413E-03     302.536E-03     92.2687E+06     380.822E+03    -22.9342E+06     541.746E+03     92.1078E+06    -22.9342E+06     1.86609E+06         63.9048
            1854     16.1415E-03     106.554E-03         2.90710     545.519E-03        -1.29693        -1.29367         2.90384     545.519E-03     222.934E-03     199.233E-03    -52.3235E-03    -146.909E-03    -64.8504E-03     117.174E-03    -52.3235E-03     291.482E-03     139.312E+06     55.7907E+06    -12.0168E+06    -1.84686E+06     139.231E+06     45.7018E+06     3.10449E+06         73.2284
            1855     960.513E-06     106.761E-03         2.79235         1.37802        -2.66378         2.26490        -2.13634         1.37802    -652.455E-03     82.0144E-03    -40.7948E-03    -41.2196E-03    -41.1306E-03     81.9254E-03    -40.7948E-03     6.10904E-03     80.0713E+06     73.3546E+06    -137.445E+03     76.0980E+06     2.54096E+06     74.6495E+06    -11.8916E+06         26.3591
            1856     1.91928E-03     106.760E-03         1.97662         1.79952        -2.25945         1.77012        -2.06432         1.81089         1.25610     82.3162E-03    -40.9360E-03    -41.3803E-03    -41.0863E-03     82.0223E-03    -40.9360E-03     11.4443E-03     80.3871E+06     64.4446E+06     9.29031E+06     73.3400E+06     16.3374E+06     64.4446E+06    -20.2898E+06         26.4237
            1857     2.87976E-03     106.758E-03         1.84533         1.77519        -2.07911         1.70334        -1.94849         1.78657     975.717E-03     82.5616E-03    -40.9441E-03    -41.6174E-03    -40.9623E-03     81.9064E-03    -40.9441E-03     17.5256E-03     78.6375E+06     53.5032E+06    -2.24153E+06     67.5912E+06     8.80475E+06     53.5032E+06    -27.6137E+06         26.5344
            1858     3.83963E-03     106.755E-03         1.80647         1.67856        -1.91677         1.54952        -1.72896         1.74770         1.58969     83.1149E-03    -40.9358E-03    -42.1790E-03    -40.9294E-03     81.8653E-03    -40.9358E-03     24.3499E-03     74.3212E+06     42.9668E+06    -19.0103E+06     61.2863E+06    -5.97536E+06     42.9668E+06    -32.1949E+06         26.7042
            1859     4.79899E-03     106.755E-03         1.69076         1.59539        -1.69653         1.36950        -1.47063         1.69076         1.59969     84.2044E-03    -40.9553E-03    -43.2491E-03    -41.1537E-03     82.1090E-03    -40.9553E-03     31.8302E-03     66.9213E+06     32.3385E+06      -35.78E+06     53.4155E+06    -22.2742E+06     32.3385E+06    -34.6413E+06         26.9507
            1860     5.75857E-03     106.756E-03         1.62130         1.47444        -1.47960         1.17065        -1.17581         1.62130         1.78953     85.8371E-03    -41.0293E-03    -44.8078E-03    -41.5729E-03     82.6022E-03    -41.0293E-03     39.9485E-03     55.7583E+06     21.7530E+06    -50.4434E+06     43.7300E+06    -38.4151E+06     21.7530E+06    -33.4890E+06         27.2957
            1861     6.71721E-03     106.761E-03         1.54316         1.30792        -1.20550     966.208E-03    -863.789E-03         1.54316         1.70013     88.3263E-03    -41.1938E-03    -47.1325E-03    -42.4182E-03     83.6120E-03    -41.1938E-03     48.9908E-03     42.8454E+06     15.7174E+06    -59.6806E+06     33.5009E+06    -50.3361E+06     15.7174E+06    -29.3595E+06         27.7682
            1862     7.67531E-03     106.770E-03         1.45945         1.16744    -943.142E-03     761.217E-03    -536.915E-03         1.45945         1.65318     91.7918E-03    -41.4825E-03    -50.3093E-03    -43.9481E-03     85.4306E-03    -41.4825E-03     58.1497E-03     30.1483E+06     12.9659E+06    -64.8931E+06     22.1019E+06    -56.8467E+06     12.9659E+06    -26.2748E+06         28.4074
            1863     8.63089E-03     106.782E-03         1.37187         1.03046    -676.963E-03     549.473E-03    -195.975E-03         1.37187         1.50760     95.9806E-03    -41.9093E-03    -54.0713E-03    -45.8801E-03     87.7894E-03    -41.9093E-03     67.6803E-03     21.6924E+06     7.10810E+06    -66.2288E+06     10.0320E+06    -59.3226E+06     11.8623E+06    -22.7776E+06         29.2678
            1864     9.58616E-03     106.803E-03         1.28104     955.749E-03    -473.373E-03     326.907E-03     155.470E-03         1.28104         1.38401     101.735E-03    -42.5015E-03    -59.2335E-03    -49.0553E-03     91.5568E-03    -42.5015E-03     77.9966E-03     16.9440E+06     1.08302E+06    -62.6854E+06    -1.07670E+06    -56.0095E+06     12.4278E+06    -20.0305E+06         30.4289
            1865     10.5370E-03     106.832E-03         1.18709     952.335E-03    -341.255E-03     93.7021E-03     517.378E-03         1.18709         1.17492     108.101E-03    -43.3394E-03    -64.7617E-03    -53.4776E-03     96.8170E-03    -43.3394E-03     85.1846E-03     16.1294E+06    -4.22819E+06    -64.8799E+06    -9.48600E+06    -58.2430E+06     14.7503E+06    -18.9793E+06         32.0440
            1866     11.4818E-03     106.865E-03         1.16924         1.01665    -349.659E-03    -147.631E-03     893.750E-03         1.09011     951.131E-03     114.716E-03    -44.3563E-03    -70.3598E-03    -58.0340E-03     102.390E-03    -44.3563E-03     92.1264E-03     9.63888E+06    -10.3959E+06    -63.2355E+06    -15.1146E+06    -56.9655E+06     8.08760E+06    -17.1006E+06         34.4477
            1867     12.4265E-03     106.910E-03         1.35017     991.548E-03    -456.721E-03    -372.245E-03         1.26570     991.548E-03     738.719E-03     123.995E-03    -45.5807E-03    -78.4138E-03    -63.5458E-03     109.127E-03    -45.5807E-03     105.470E-03     8.05667E+06    -9.66686E+06    -45.9973E+06    -17.9139E+06    -36.1991E+06     6.50539E+06    -14.5831E+06         38.2810
            1868     13.3598E-03     106.975E-03         1.67435     893.411E-03    -624.260E-03    -584.347E-03         1.63443     893.411E-03     580.517E-03     134.718E-03    -46.9667E-03    -87.7516E-03    -69.4785E-03     116.445E-03    -46.9667E-03     122.081E-03    -800.229E+03    -22.2117E+06    -49.0557E+06    -19.0990E+06    -40.8336E+06    -12.1350E+06    -12.5276E+06         44.4577
            1869     14.2971E-03     107.071E-03         2.03149     797.083E-03    -824.406E-03    -807.084E-03         2.01416     797.083E-03     426.644E-03     157.176E-03    -48.4182E-03    -108.758E-03    -74.2445E-03     122.663E-03    -48.4182E-03     175.960E-03     23.6794E+06    -18.2521E+06    -41.1732E+06    -19.6434E+06     3.84556E+06    -19.9480E+06    -7.24562E+06         53.5285
            1870     15.2304E-03     107.274E-03         2.40052     703.992E-03        -1.04889        -1.04145         2.39308     703.992E-03     311.879E-03     205.961E-03    -49.6804E-03    -156.281E-03    -76.2555E-03     125.936E-03    -49.6804E-03     297.287E-03     89.4474E+06    -6.80830E+06    -22.3560E+06    -18.7855E+06     89.0462E+06    -9.97759E+06    -3.52165E+06         64.3418
            1871     16.1749E-03     107.684E-03         2.76525     610.697E-03        -1.27957        -1.27686         2.76253     610.697E-03     178.300E-03     200.510E-03    -51.0214E-03    -149.489E-03    -74.3831E-03     125.405E-03    -51.0214E-03     282.513E-03     135.917E+06     55.3337E+06    -13.7646E+06    -11.9059E+06     135.532E+06     53.8604E+06    -2.66806E+06         73.8401
            1872     966.384E-06     107.840E-03         2.42560         1.67416        -2.74422         2.18543        -2.50405         1.67416    -271.004E-03     68.6800E-03    -34.1554E-03    -34.5246E-03    -34.3371E-03     68.5325E-03    -34.1954E-03     7.08349E-03     77.1442E+06     69.9849E+06     22.4777E+06     73.2567E+06     26.3653E+06     69.9849E+06    -11.4683E+06         25.3143
            1873     1.93289E-03     107.839E-03         1.98702         1.89317        -2.51710         1.86061        -2.41332         1.91579         1.12650     68.8047E-03    -34.1588E-03    -34.6459E-03    -34.1525E-03     68.3514E-03    -34.1988E-03     13.1500E-03     78.8815E+06     59.7447E+06     25.7220E+06     68.6397E+06     35.9638E+06     59.7447E+06    -20.0510E+06         25.3807
            1874     2.89933E-03     107.836E-03         1.90980         1.86190        -2.38438         1.78061        -2.27781         1.88452         1.10688     69.3687E-03    -34.1648E-03    -35.2039E-03    -34.1856E-03     68.3504E-03    -34.1648E-03     19.9798E-03     75.6241E+06     47.4752E+06     11.2074E+06     62.7288E+06     24.1028E+06     47.4752E+06    -25.0201E+06         25.4991
            1875     3.86552E-03     107.835E-03         1.86635         1.78307        -2.23478         1.63290        -2.05934         1.84108         1.64358     70.5935E-03    -34.1833E-03    -36.4102E-03    -34.5099E-03     68.6932E-03    -34.1833E-03     27.6906E-03     63.8996E+06     30.2746E+06    -8.00473E+06     51.6353E+06     4.25955E+06     30.2746E+06    -26.9099E+06         25.6839
            1876     4.83139E-03     107.834E-03         1.78236         1.67730        -2.01717         1.45508        -1.79495         1.78236         1.72331     72.2925E-03    -34.2725E-03    -38.0201E-03    -34.8428E-03     69.1153E-03    -34.2725E-03     36.3222E-03     46.4923E+06     12.9785E+06    -28.0772E+06     36.1981E+06    -17.7830E+06     12.9785E+06    -25.1074E+06         25.9535
            1877     5.79683E-03     107.836E-03         1.71135         1.53051        -1.76271         1.24931        -1.48150         1.71135         1.83938     74.8312E-03    -34.4421E-03    -40.3891E-03    -35.5712E-03     70.0133E-03    -34.4421E-03     45.5925E-03     25.0062E+06    -1.32945E+06    -45.8594E+06     18.0377E+06    -38.8908E+06    -1.32945E+06    -20.7338E+06         26.3330
            1878     6.76137E-03     107.842E-03         1.63058         1.34132        -1.45413         1.03134        -1.14416         1.63058         1.74172     78.5039E-03    -34.7383E-03    -43.7655E-03    -36.9286E-03     71.6670E-03    -34.7383E-03     55.7003E-03     7.18578E+06    -10.7923E+06    -56.4241E+06     524.134E+03    -51.4960E+06    -9.05880E+06    -16.5178E+06         26.8559
            1879     7.72432E-03     107.853E-03         1.54334         1.17232        -1.14891     817.011E-03    -793.600E-03         1.54334         1.66460     83.2335E-03    -35.2320E-03    -48.0016E-03    -39.0543E-03     74.2862E-03    -35.2320E-03     65.8005E-03     261.595E+03    -15.2990E+06    -61.1084E+06    -13.7940E+06    -57.4908E+06    -4.86104E+06    -12.8198E+06         27.5677
            1880     8.68502E-03     107.870E-03         1.45190         1.00889    -845.346E-03     596.097E-03    -432.554E-03         1.45190         1.52257     89.6787E-03    -35.9527E-03    -53.7259E-03    -42.6535E-03     78.6062E-03    -35.9527E-03     76.2791E-03     4.33369E+06    -20.3342E+06    -63.3131E+06    -23.1273E+06    -60.2995E+06     4.11325E+06    -10.9625E+06         28.5272
            1881     9.64094E-03     107.895E-03         1.35673     881.085E-03    -577.507E-03     359.277E-03    -55.6979E-03         1.35673         1.36956     97.8378E-03    -36.9239E-03    -60.9139E-03    -47.6454E-03     84.5692E-03    -36.9239E-03     87.6818E-03     11.4425E+06    -24.3350E+06    -57.6338E+06    -27.8309E+06    -54.1379E+06     11.4425E+06    -9.95848E+06         29.8120
            1882     10.5921E-03     107.933E-03         1.25781     832.925E-03    -385.075E-03     112.735E-03     335.115E-03         1.25781         1.14799     105.857E-03    -38.1953E-03    -67.6617E-03    -53.4611E-03     91.6564E-03    -38.1953E-03     94.9601E-03     16.3881E+06    -26.9092E+06    -61.0611E+06    -30.8609E+06    -57.1095E+06     16.3881E+06    -10.7037E+06         31.5752
            1883     11.5387E-03     107.972E-03         1.16390     944.644E-03    -354.473E-03    -133.878E-03     732.163E-03         1.15578     921.338E-03     114.856E-03    -39.7073E-03    -75.1488E-03    -60.3083E-03     100.016E-03    -39.7073E-03     101.908E-03     11.0087E+06    -25.2090E+06    -62.0598E+06    -31.3861E+06    -55.8827E+06     11.0087E+06    -12.6285E+06         34.1563
            1884     12.4772E-03     108.026E-03         1.24390         1.01784    -450.364E-03    -365.772E-03         1.12488         1.05227     697.079E-03     127.003E-03    -41.5307E-03    -85.4727E-03    -68.4760E-03     110.007E-03    -41.5307E-03     115.264E-03     11.9883E+06    -17.7014E+06    -45.4280E+06    -29.4593E+06    -33.6700E+06     11.9883E+06    -12.4727E+06         38.1952
            1885     13.4119E-03     108.107E-03         1.54951     948.841E-03    -623.369E-03    -586.182E-03         1.51232     948.841E-03     547.600E-03     140.032E-03    -43.6181E-03    -96.4139E-03    -77.2757E-03     120.894E-03    -43.6181E-03     128.928E-03    -2.47316E+06    -23.3912E+06    -52.7293E+06    -28.7681E+06    -43.1691E+06    -6.65641E+06    -12.0965E+06         44.6000
            1886     14.3332E-03     108.203E-03         1.91648     846.081E-03    -826.994E-03    -810.719E-03         1.90021     846.081E-03     398.385E-03     162.502E-03    -45.9070E-03    -116.595E-03    -84.5763E-03     130.483E-03    -45.9070E-03     175.594E-03     19.5355E+06    -6.77461E+06    -45.2276E+06    -25.7206E+06      28.528E+03    -6.77461E+06    -9.54819E+06         53.9000
            1887     15.2565E-03     108.418E-03         2.28376     744.016E-03        -1.04354        -1.03677         2.27699     744.016E-03     297.561E-03     206.263E-03    -48.0564E-03    -158.207E-03    -88.0987E-03     136.155E-03    -48.0564E-03     284.078E-03     90.8403E+06     5.33527E+06    -20.3781E+06    -16.5703E+06     89.9857E+06     2.38208E+06    -8.95797E+06         64.8750
            1888     16.1799E-03     108.806E-03         2.63839     641.253E-03        -1.25330        -1.25036         2.63545     641.253E-03     162.591E-03     200.333E-03    -50.2337E-03    -150.099E-03    -84.3696E-03     134.603E-03    -50.2337E-03     269.233E-03     131.677E+06     63.0649E+06    -10.3228E+06    -6.80897E+06     131.116E+06     60.1117E+06    -7.89514E+06         74.4433
            1889     973.163E-06     108.903E-03         2.21660         1.84707        -2.87983         2.11526        -2.77849         1.84707     18.2137E-03     53.9820E-03    -26.8275E-03    -27.1545E-03    -26.9083E-03     53.7758E-03    -26.8675E-03     7.58475E-03     75.8607E+06     65.6446E+06     42.9851E+06     69.4106E+06     49.4351E+06     65.6446E+06    -10.7743E+06         24.2035
            1890     1.94756E-03     108.902E-03         1.97981         1.94872        -2.74001         1.89757        -2.67345         1.96440         1.05042     54.1330E-03    -26.7526E-03    -27.3804E-03    -26.7106E-03     53.5032E-03    -26.7926E-03     13.7360E-03     72.9994E+06     50.8076E+06     35.5294E+06     59.1635E+06     51.8677E+06     48.3052E+06    -15.9982E+06         24.2770
            1891     2.92103E-03     108.899E-03         1.93798         1.91351        -2.63987         1.81842        -2.53600         1.92920         1.23791     55.2037E-03    -26.7641E-03    -28.4397E-03    -27.0090E-03     53.7731E-03    -26.7641E-03     21.1414E-03     56.9211E+06     31.0926E+06     14.7106E+06     43.5176E+06     32.2322E+06     26.9745E+06    -16.9142E+06         24.4116
            1892     3.89424E-03     108.898E-03         1.89177         1.83061        -2.48285         1.66098        -2.30444         1.88298         1.71859     56.9168E-03    -26.8399E-03    -30.0769E-03    -27.4364E-03     54.2764E-03    -26.8399E-03     29.3582E-03     32.7172E+06     9.28067E+06    -8.63024E+06     24.2865E+06     6.25142E+06     2.82974E+06    -13.3878E+06         24.6235
            1893     4.86688E-03     108.898E-03         1.82061         1.70412        -2.24732         1.47372        -2.01693         1.82061         1.83206     59.5284E-03    -27.0280E-03    -32.5004E-03    -28.2153E-03     55.2433E-03    -27.0280E-03     38.3167E-03     6.60516E+06    -12.6299E+06    -29.1173E+06     2.43867E+06    -20.0380E+06    -17.5427E+06    -7.94821E+06         24.9341
            1894     5.83862E-03     108.902E-03         1.74637         1.54914        -1.97295         1.26956        -1.69337         1.74637         1.90291     63.3650E-03    -27.3914E-03    -35.9736E-03    -29.5910E-03     56.9824E-03    -27.3914E-03     48.3253E-03    -13.4166E+06    -26.6016E+06    -46.6209E+06    -17.6956E+06    -43.0193E+06    -25.9242E+06    -2.64568E+06         25.3715
            1895     6.80840E-03     108.910E-03         1.66379         1.36295        -1.65454         1.05899        -1.35058         1.66379         1.80818     68.4918E-03    -27.9509E-03    -40.5408E-03    -31.7344E-03     59.6853E-03    -27.9509E-03     59.0979E-03    -19.1235E+06    -32.8815E+06    -57.5756E+06    -33.8973E+06    -53.1079E+06    -22.5754E+06     353.885E+03         25.9728
            1896     7.77580E-03     108.925E-03         1.57525         1.17603        -1.32358     839.817E-03    -987.368E-03         1.57525         1.70053     75.0316E-03    -28.7480E-03    -46.2835E-03    -35.0866E-03     63.8347E-03    -28.7480E-03     70.0297E-03    -10.7812E+06    -40.7660E+06    -59.5038E+06    -43.1407E+06    -57.1291E+06    -10.7812E+06    -694.736E+03         26.7870
            1897     8.73993E-03     108.947E-03         1.48168     992.457E-03    -991.245E-03     606.766E-03    -605.553E-03         1.48168         1.55323     83.6859E-03    -29.8279E-03    -53.8579E-03    -40.2147E-03     70.0426E-03    -29.8279E-03     82.0717E-03     2.74731E+06    -42.7309E+06    -59.5331E+06    -45.2253E+06    -57.0387E+06     2.74731E+06    -4.10502E+06         27.8736
            1898     9.69752E-03     108.982E-03         1.38342     842.054E-03    -687.835E-03     359.993E-03    -205.774E-03         1.38342         1.39547     93.9029E-03    -31.2153E-03    -62.6876E-03    -46.6541E-03     77.8694E-03    -31.2153E-03     94.8241E-03     11.4164E+06    -40.5110E+06    -57.4921E+06    -43.0930E+06    -54.9100E+06     11.4164E+06    -5.13487E+06         29.3105
            1899     10.6497E-03     109.026E-03         1.28122     768.826E-03    -455.342E-03     111.679E-03     201.805E-03         1.28122         1.17351     104.324E-03    -32.9532E-03    -71.3706E-03    -54.5260E-03     87.4792E-03    -32.9532E-03     103.317E-03     16.9667E+06    -35.7164E+06    -57.0011E+06    -38.9020E+06    -53.8154E+06     16.9667E+06    -6.44913E+06         31.2564
            1900     11.5938E-03     109.078E-03         1.17649     862.368E-03    -382.992E-03    -129.815E-03     609.191E-03         1.17649     943.418E-03     116.768E-03    -35.0662E-03    -81.7013E-03    -64.7045E-03     99.7707E-03    -35.0662E-03     111.021E-03     13.3144E+06    -27.7644E+06    -55.9921E+06    -35.0859E+06    -48.6707E+06     13.3144E+06    -11.1363E+06         34.0483
            1901     12.5280E-03     109.146E-03         1.20029     985.005E-03    -464.585E-03    -368.716E-03         1.01906         1.07036     712.681E-03     131.604E-03    -37.6327E-03    -93.9713E-03    -75.6899E-03     113.323E-03    -37.6327E-03     123.112E-03     15.1612E+06    -17.7584E+06    -45.7335E+06    -30.5404E+06    -32.9515E+06     15.1612E+06    -13.2672E+06         38.3046
            1902     13.4515E-03     109.237E-03         1.46240     963.602E-03    -638.504E-03    -597.569E-03         1.42147     963.602E-03     566.321E-03     147.047E-03    -40.5383E-03    -106.508E-03    -86.7651E-03     127.303E-03    -40.5383E-03     135.867E-03     6.13293E+06    -15.3319E+06    -52.6757E+06    -23.6259E+06    -40.5580E+06     2.30928E+06    -16.0416E+06         44.9094
            1903     14.3666E-03     109.356E-03         1.82867     856.658E-03    -836.377E-03    -817.150E-03         1.80944     856.658E-03     424.920E-03     171.062E-03    -43.7083E-03    -127.354E-03    -97.3050E-03     141.013E-03    -43.7083E-03     178.040E-03     23.9481E+06     2.30773E+06    -40.3376E+06    -14.3972E+06    -1.99232E+06     2.30773E+06    -17.4601E+06         54.3484
            1904     15.2761E-03     109.566E-03         2.18947     748.758E-03        -1.03742        -1.02838         2.18043     748.758E-03     337.715E-03     212.125E-03    -46.8120E-03    -165.313E-03    -101.879E-03     148.691E-03    -46.8120E-03     278.852E-03     91.3278E+06     14.1901E+06    -11.0511E+06    -5.49924E+06     88.7291E+06     11.2369E+06    -12.2376E+06         65.3442
            1905     16.1812E-03     109.968E-03         2.53539     639.832E-03        -1.22514        -1.22061         2.53086     639.832E-03     195.971E-03     202.225E-03    -49.7684E-03    -152.456E-03    -92.9287E-03     142.697E-03    -49.7684E-03     261.292E-03     129.822E+06     68.2642E+06    -5.16212E+06    -1.85225E+06     127.564E+06     67.2119E+06    -6.07828E+06         74.8752
            1906     981.516E-06     109.951E-03         2.07417         1.91718        -3.00625         2.03226        -2.96434         1.91718     241.323E-03     38.8791E-03    -19.2141E-03    -19.6650E-03    -19.4241E-03     38.6382E-03    -19.2141E-03     6.89551E-03     71.9219E+06     47.0972E+06     38.4368E+06     47.2696E+06     63.9533E+06     46.2329E+06    -4.41184E+06         23.1159
            1907     1.96197E-03     109.948E-03         1.96715         1.94812        -2.92523         1.90081        -2.87075         1.95997         1.01573     39.5744E-03    -19.2885E-03    -20.2859E-03    -19.4933E-03     38.7818E-03    -19.2885E-03     13.1555E-03     63.9518E+06     29.3051E+06     21.6665E+06     33.2913E+06     58.8388E+06     22.7934E+06    -5.74007E+06         23.2040
            1908     2.94302E-03     109.947E-03         1.92466         1.90386        -2.81738         1.79464        -2.70722         1.92373         1.35063     41.0211E-03    -19.3763E-03    -21.6448E-03    -19.8756E-03     39.2519E-03    -19.3763E-03     20.3335E-03     36.8008E+06      5.7997E+06    -1.97495E+06     12.4153E+06     30.1852E+06    -1.97495E+06    -465.937E+03         23.3623
            1909     3.92317E-03     109.946E-03         1.87264         1.81527        -2.64150         1.62724        -2.45253         1.87171         1.79207     43.4708E-03    -19.5856E-03    -23.8852E-03    -20.6821E-03     40.2677E-03    -19.5856E-03     28.3107E-03     7.44420E+06    -17.0140E+06    -26.8551E+06    -11.4369E+06    -1.01154E+06    -23.9764E+06     6.59711E+06         23.6105
            1910     4.90235E-03     109.948E-03         1.80511         1.69142        -2.40474         1.44452        -2.15784         1.80511         1.93679     47.1802E-03    -19.9659E-03    -27.2143E-03    -22.0547E-03     42.0205E-03    -19.9659E-03     37.4856E-03    -15.9068E+06    -32.7000E+06    -48.3131E+06    -33.0317E+06    -26.2754E+06    -37.6127E+06     12.0962E+06         23.9736
            1911     5.87934E-03     109.953E-03         1.72913         1.54027        -2.12207         1.25048        -1.83228         1.72913         1.97552     52.3485E-03    -20.5785E-03    -31.7701E-03    -24.1562E-03     44.7347E-03    -20.5785E-03     48.0063E-03    -28.1082E+06    -40.9510E+06    -62.9335E+06    -48.4911E+06    -46.9984E+06    -36.5032E+06     13.5823E+06         24.4822
            1912     6.85440E-03     109.966E-03         1.64627         1.35506        -1.79612         1.04595        -1.48701         1.64627         1.86893     59.0752E-03    -21.4245E-03    -37.6507E-03    -27.2835E-03     48.7080E-03    -21.4245E-03     59.6659E-03    -23.7512E+06    -41.3558E+06    -65.2449E+06    -53.7834E+06    -52.8173E+06    -23.7512E+06     11.2157E+06         25.1762
            1913     7.82587E-03     109.986E-03         1.55756         1.16204        -1.45460     826.026E-03        -1.11858         1.55756         1.74552     67.7294E-03    -22.5427E-03    -45.1867E-03    -32.0400E-03     54.5827E-03    -22.5427E-03     72.2973E-03    -8.65639E+06    -45.5288E+06    -59.1013E+06    -52.6823E+06    -51.9478E+06    -8.65639E+06     5.85831E+06         26.1050
            1914     8.79091E-03     110.017E-03         1.46330     976.415E-03        -1.11154     590.789E-03    -725.915E-03         1.46330         1.60523     78.1250E-03    -23.9818E-03    -54.1432E-03    -38.1432E-03     62.1250E-03    -23.9818E-03     86.1394E-03     3.46500E+06    -47.5190E+06    -55.8735E+06    -50.8304E+06    -52.5621E+06     3.46500E+06     749.133E+03         27.3285
            1915     9.75174E-03     110.060E-03         1.36413     821.671E-03    -791.282E-03     348.774E-03    -318.386E-03         1.36413         1.44626     90.2800E-03    -25.7604E-03    -64.5196E-03    -45.9820E-03     71.7424E-03    -25.7604E-03     100.431E-03     10.4572E+06    -42.5539E+06    -57.7857E+06    -47.3382E+06    -53.0014E+06     10.4572E+06    -4.41429E+06         28.9312
            1916     10.7043E-03     110.116E-03         1.26122     738.678E-03    -534.768E-03     104.908E-03     99.0014E-03         1.26122         1.22791     104.030E-03    -27.9849E-03    -76.0446E-03    -56.6773E-03     84.6622E-03    -27.9849E-03     111.406E-03     16.7486E+06    -33.0963E+06    -54.7031E+06    -39.9876E+06    -47.8118E+06     16.7486E+06    -9.26564E+06         31.0738
            1917     11.6444E-03     110.185E-03         1.15572     814.177E-03    -431.452E-03    -138.225E-03     520.951E-03         1.15572     998.298E-03     119.891E-03    -30.7331E-03    -89.1575E-03    -69.5465E-03     100.280E-03    -30.7331E-03     121.791E-03     17.6268E+06    -23.8817E+06    -50.6298E+06    -32.0767E+06    -42.4347E+06     17.6268E+06    -12.1112E+06         34.0810
            1918     12.5725E-03     110.270E-03         1.15537     946.140E-03    -489.542E-03    -372.725E-03     936.076E-03         1.04862     774.562E-03     137.783E-03    -34.0037E-03    -103.779E-03    -82.8891E-03     116.893E-03    -34.0037E-03     135.699E-03     19.2367E+06    -14.6226E+06    -44.2573E+06    -26.8913E+06    -31.9886E+06     19.2367E+06    -13.4849E+06         38.5497
            1919     13.4894E-03     110.379E-03         1.39449     940.755E-03    -652.569E-03    -598.351E-03         1.34028     940.755E-03     641.243E-03     157.023E-03    -37.6735E-03    -119.349E-03    -96.8787E-03     134.552E-03    -37.6735E-03     150.998E-03     18.3535E+06    -6.81473E+06    -48.1313E+06    -20.4211E+06    -25.7321E+06     9.56072E+06    -23.3161E+06         45.3190
            1920     14.3955E-03     110.512E-03         1.76187     832.139E-03    -844.114E-03    -816.015E-03         1.73377     832.139E-03     511.712E-03     183.658E-03    -41.7167E-03    -141.941E-03    -111.222E-03     152.938E-03    -41.7167E-03     189.673E-03     26.4459E+06     3.56150E+06    -42.1233E+06    -11.4367E+06    -4.24068E+06     3.56150E+06    -29.7322E+06         54.7798
            1921     15.2880E-03     110.743E-03         2.12042     721.130E-03        -1.02862        -1.01391         2.10571     721.130E-03     425.091E-03     216.899E-03    -45.6718E-03    -171.227E-03    -112.464E-03     158.136E-03    -45.6718E-03     274.503E-03     79.1887E+06     9.33660E+06    -15.8830E+06    -7.35167E+06     70.6574E+06     9.33660E+06    -15.7482E+06         65.6299
            1922     16.1968E-03     111.120E-03         2.46222     608.926E-03        -1.19636        -1.18907         2.45492     608.926E-03     260.489E-03     203.791E-03    -49.2570E-03    -154.534E-03    -100.379E-03     149.636E-03    -49.2570E-03     252.327E-03     128.140E+06     66.6196E+06    -4.65672E+06    -4.51236E+06     122.236E+06     72.3794E+06    -3.19147E+06         74.9950
            1923     987.961E-06     110.982E-03         1.96429         1.88769        -3.09619         1.94050        -3.07516         1.89045     361.281E-03     25.0838E-03    -12.3337E-03    -12.7501E-03    -12.4824E-03     24.8161E-03    -12.3337E-03     5.83683E-03     63.9712E+06     13.6415E+06     9.32170E+06     13.2982E+06     62.7013E+06     10.9349E+06     6.26944E+06         22.1470
            1924     1.97599E-03     110.981E-03         1.90612         1.87970        -3.02082         1.83512        -2.96964         1.89952     986.891E-03     26.3156E-03    -12.4905E-03    -13.8251E-03    -12.9751E-03     25.4657E-03    -12.4905E-03     11.1800E-03     55.7630E+06    -2.76714E+06    -11.2737E+06    -4.12798E+06     52.6265E+06    -6.77647E+06     10.7561E+06         22.2529
            1925     2.96281E-03     110.980E-03         1.85893         1.83004        -2.89955         1.71135        -2.78086         1.85893         1.42900     28.4153E-03    -12.7810E-03    -15.6343E-03    -13.7401E-03     26.5211E-03    -12.7810E-03     17.5815E-03     26.1644E+06    -21.9608E+06    -36.6328E+06    -24.1837E+06     17.3719E+06    -25.6175E+06     19.0662E+06         22.4380
            1926     3.94898E-03     110.981E-03         1.80331         1.75765        -2.73001         1.55525        -2.52761         1.80331         1.85449     31.5586E-03    -13.1925E-03    -18.3662E-03    -14.9228E-03     28.1153E-03    -13.1925E-03     25.0584E-03     3.25959E+06    -38.3914E+06    -58.4862E+06    -41.7201E+06    -12.9951E+06    -38.9029E+06     26.8681E+06         22.7236
            1927     4.93327E-03     110.984E-03         1.73662         1.64928        -2.49950         1.38240        -2.23262         1.73662         2.02572     36.1742E-03    -13.7823E-03    -22.3919E-03    -16.7702E-03     30.5525E-03    -13.7823E-03     34.2861E-03    -12.9127E+06    -41.5628E+06    -74.6866E+06    -54.7673E+06    -32.8320E+06    -41.5628E+06     28.8133E+06         23.1374
            1928     5.91589E-03     110.994E-03         1.66155         1.49741        -2.20884         1.19300        -1.90443         1.66155         2.03346     42.4240E-03    -14.5943E-03    -27.8297E-03    -19.4984E-03     34.0927E-03    -14.5943E-03     45.2785E-03    -24.9611E+06    -38.5891E+06    -78.6008E+06    -60.9380E+06    -46.3944E+06    -34.8186E+06     23.8219E+06         23.7134
            1929     6.89479E-03     111.010E-03         1.57972         1.31681        -1.88406     995.318E-03        -1.56257         1.57972         1.91934     50.6475E-03    -15.6472E-03    -35.0003E-03    -23.4828E-03     39.1300E-03    -15.6472E-03     58.3075E-03    -23.7051E+06    -38.0452E+06    -71.8570E+06    -61.5384E+06    -47.9233E+06    -24.1456E+06     15.2642E+06         24.4931
            1930     7.86918E-03     111.038E-03         1.49210         1.13197        -1.54376     782.423E-03        -1.19421         1.49210         1.79748     60.8137E-03    -17.0022E-03    -43.8115E-03    -28.8875E-03     45.8897E-03    -17.0022E-03     73.0541E-03    -11.9075E+06    -42.1131E+06    -62.7973E+06    -58.6720E+06    -46.2385E+06    -11.9075E+06     7.92706E+06         25.5279
            1931     8.83876E-03     111.077E-03         1.39891     953.898E-03        -1.20056     556.134E-03    -802.799E-03         1.39891         1.65886     72.9315E-03    -18.7131E-03    -54.2185E-03    -35.9710E-03     54.6841E-03    -18.7131E-03     89.0564E-03     1.09736E+06    -43.0587E+06    -56.0753E+06    -51.8869E+06    -47.2472E+06     1.09736E+06     1.14109E+06         26.8850
            1932     9.80036E-03     111.130E-03         1.30097     805.594E-03    -875.461E-03     327.695E-03    -397.562E-03         1.30097         1.49658     88.0632E-03    -20.8447E-03    -67.2185E-03    -45.7845E-03     66.6291E-03    -20.8447E-03     107.011E-03     12.3873E+06    -36.1964E+06    -51.9009E+06    -42.7731E+06    -45.3242E+06     12.3873E+06    -5.80010E+06         28.6536
            1933     10.7513E-03     111.204E-03         1.19945     725.989E-03    -608.541E-03     95.2850E-03     22.1638E-03         1.19945         1.29165     104.768E-03    -23.5012E-03    -81.2671E-03    -58.3570E-03     81.8582E-03    -23.5012E-03     122.003E-03     19.6756E+06    -24.1627E+06    -50.5870E+06    -35.2659E+06    -39.4838E+06     19.6756E+06    -12.8413E+06         30.9845
            1934     11.6910E-03     111.290E-03         1.09535     788.860E-03    -482.025E-03    -138.310E-03     445.145E-03         1.09535         1.07378     123.008E-03    -26.7219E-03    -96.2860E-03    -72.5208E-03     99.2427E-03    -26.7219E-03     136.132E-03     20.0149E+06    -15.8450E+06    -52.9091E+06    -27.3920E+06    -41.3621E+06     20.0149E+06    -16.1429E+06         34.1933
            1935     12.6173E-03     111.397E-03         1.10305     898.176E-03    -516.514E-03    -367.171E-03     862.487E-03     989.393E-03     867.663E-03     144.131E-03    -30.5007E-03    -113.630E-03    -88.1727E-03     118.673E-03    -30.5007E-03     153.625E-03     24.7294E+06    -3.75899E+06    -42.2229E+06    -17.7577E+06    -28.2242E+06     24.7294E+06    -16.9134E+06         38.8649
            1936     13.5312E-03     111.524E-03         1.34406     882.278E-03    -660.600E-03    -585.595E-03         1.26905     882.278E-03     743.327E-03     168.840E-03    -34.8085E-03    -134.032E-03    -106.699E-03     141.507E-03    -34.8085E-03     173.418E-03     30.5247E+06     8.98411E+06    -33.3821E+06    -12.1280E+06    -2.69216E+06     20.9469E+06    -25.1136E+06         45.7587
            1937     14.4231E-03     111.691E-03         1.71026     773.803E-03    -838.730E-03    -796.367E-03         1.66789     773.803E-03     630.179E-03     198.181E-03    -39.6255E-03    -158.555E-03    -123.739E-03     163.364E-03    -39.6255E-03     211.315E-03     21.6240E+06     5.81926E+06    -43.3007E+06    -14.9902E+06    -6.68651E+06     5.81926E+06    -31.4488E+06         55.1260
            1938     15.3070E-03     111.929E-03         2.07429     662.109E-03        -1.01231    -988.836E-03         2.05082     662.109E-03     526.571E-03     223.034E-03    -44.3519E-03    -178.682E-03    -123.742E-03     168.094E-03    -44.3519E-03     273.751E-03     61.1566E+06     5.06135E+06    -30.4437E+06    -14.7828E+06     45.4957E+06     5.06135E+06    -19.9168E+06         65.6700
            1939     16.2027E-03     112.271E-03         2.42072     549.389E-03        -1.16255        -1.15234         2.41050     549.389E-03     327.589E-03     208.547E-03    -48.6364E-03    -159.910E-03    -111.174E-03     159.810E-03    -48.6364E-03     246.059E-03     124.173E+06     64.7127E+06    -8.76782E+06    -8.19852E+06     114.012E+06     74.3049E+06    -5.92488E+06         74.7434
            1940     993.719E-06     112.002E-03         1.82836         1.76581        -3.09215         1.80190        -3.07617         1.77628     412.229E-03     14.2011E-03    -6.85826E-03    -7.34285E-03    -7.08979E-03     13.9480E-03    -6.85826E-03     4.30951E-03     46.3731E+06    -28.6909E+06    -37.6233E+06    -32.2357E+06     42.8278E+06    -30.5333E+06     14.5420E+06         21.3736
            1941     1.98656E-03     112.001E-03         1.77026         1.74846        -3.00554         1.69457        -2.95165         1.77026     981.166E-03     15.7618E-03    -7.17600E-03    -8.58580E-03    -7.80537E-03     14.9814E-03    -7.17600E-03     8.36490E-03     42.1048E+06    -34.3399E+06    -52.6605E+06    -42.0699E+06     31.5143E+06    -34.3399E+06     28.8603E+06         21.4928
            1942     2.97848E-03     112.001E-03         1.73418         1.71310        -2.90218         1.58999        -2.77314         1.72825         1.48327     18.3238E-03    -7.62937E-03    -10.6945E-03    -8.92400E-03     16.5534E-03    -7.62937E-03     13.6919E-03     19.2026E+06    -40.2316E+06    -73.7095E+06    -53.7432E+06    -763.634E+03    -40.2316E+06     37.1542E+06         21.6984
            1943     3.96887E-03     112.003E-03         1.68203         1.65862        -2.74694         1.44622        -2.52861         1.67611         1.90225     21.9869E-03    -8.18579E-03    -13.8011E-03    -10.4000E-03     18.5858E-03    -8.18579E-03     20.8173E-03     529.769E+03    -45.9870E+06    -88.7326E+06    -62.0113E+06    -26.1915E+06    -45.9870E+06     40.8022E+06         22.0123
            1944     4.95802E-03     112.010E-03         1.61340         1.56743        -2.52446         1.28288        -2.23991         1.61340         2.07446     27.1646E-03    -8.89832E-03    -18.2663E-03    -12.5385E-03     21.4368E-03    -8.89832E-03     30.0229E-03    -10.0734E+06    -43.1800E+06    -92.2984E+06    -65.5040E+06    -36.8679E+06    -43.1800E+06     38.4976E+06         22.4635
            1945     5.94403E-03     112.023E-03         1.54259         1.42791        -2.24513         1.10985        -1.92707         1.54259         2.06378     34.1358E-03    -9.81640E-03    -24.3194E-03    -15.6173E-03     25.4337E-03    -9.81640E-03     41.5037E-03    -20.7001E+06    -35.3410E+06    -85.5268E+06    -65.7897E+06    -40.4372E+06    -35.3410E+06     29.3890E+06         23.0883
            1946     6.92721E-03     112.045E-03         1.46471         1.25523        -1.92345     916.513E-03        -1.58473         1.46471         1.95614     43.2879E-03    -10.9816E-03    -32.3063E-03    -19.8747E-03     30.8563E-03    -10.9816E-03     55.9354E-03    -22.3567E+06    -32.9523E+06    -72.6022E+06    -63.1255E+06    -39.4575E+06    -25.3281E+06     17.2374E+06         23.9309
            1947     7.90555E-03     112.080E-03         1.37998         1.07847        -1.58680     711.788E-03        -1.22012         1.37998         1.83069     54.3911E-03    -12.4496E-03    -41.9416E-03    -25.4988E-03     37.9484E-03    -12.4496E-03     72.3978E-03    -12.7301E+06    -36.9924E+06    -59.5659E+06    -56.3230E+06    -40.2353E+06    -12.7301E+06     6.87873E+06         25.0500
            1948     8.87805E-03     112.128E-03         1.28972     919.622E-03        -1.25357     507.524E-03    -841.471E-03         1.28972         1.69212     68.3293E-03    -14.2837E-03    -54.0457E-03    -33.3600E-03     47.6436E-03    -14.2837E-03     91.6101E-03     1.00230E+06    -35.6776E+06    -50.9101E+06    -47.9572E+06    -38.6305E+06     1.00230E+06    -1.87557E+06         26.5226
            1949     9.84208E-03     112.197E-03         1.19512     792.182E-03    -937.722E-03     300.491E-03    -446.032E-03         1.19512         1.54240     86.3219E-03    -16.5997E-03    -69.7222E-03    -44.4861E-03     61.0858E-03    -16.5997E-03     114.742E-03     13.1246E+06    -26.9937E+06    -49.3183E+06    -39.5185E+06    -36.7935E+06     13.1246E+06    -9.99703E+06         28.4366
            1950     10.7955E-03     112.287E-03         1.09712     724.737E-03    -674.387E-03     88.6429E-03    -38.2929E-03         1.09712         1.35941     105.311E-03    -19.4843E-03    -85.8267E-03    -58.0054E-03     77.4897E-03    -19.4843E-03     134.511E-03     21.9664E+06    -15.8365E+06    -46.9220E+06    -30.7966E+06    -31.9619E+06     21.9664E+06    -15.3708E+06         30.9349
            1951     11.7349E-03     112.394E-03     996.587E-03     773.825E-03    -524.958E-03    -126.456E-03     375.323E-03     996.587E-03         1.14825     125.872E-03    -22.9624E-03    -102.909E-03    -73.5478E-03     96.5101E-03    -22.9624E-03     152.792E-03     22.9798E+06    -6.72502E+06    -53.6385E+06    -22.7965E+06    -37.5670E+06     22.9798E+06    -21.2328E+06         34.3323
            1952     12.6626E-03     112.520E-03         1.03901     836.027E-03    -534.099E-03    -346.352E-03     793.608E-03     893.677E-03     962.329E-03     150.949E-03    -27.0797E-03    -123.870E-03    -92.3201E-03     119.400E-03    -27.0797E-03     174.945E-03     27.4372E+06     8.20370E+06    -46.7527E+06    -14.0047E+06    -24.5443E+06     27.4372E+06    -25.0904E+06         39.1830
            1953     13.5693E-03     112.681E-03         1.30856     788.524E-03    -660.323E-03    -559.007E-03         1.20724     788.524E-03     848.186E-03     179.912E-03    -31.8520E-03    -148.060E-03    -113.614E-03     145.465E-03    -31.8520E-03     200.832E-03     31.7765E+06     21.4817E+06    -25.7693E+06    -9.66356E+06     8.36613E+06     28.7863E+06    -22.7753E+06         46.1425
            1954     14.4605E-03     112.876E-03         1.67658     681.092E-03    -823.179E-03    -761.328E-03         1.61473     681.092E-03     761.940E-03     210.004E-03    -37.1684E-03    -172.835E-03    -131.592E-03     168.761E-03    -37.1684E-03     237.134E-03     17.1712E+06     11.2973E+06    -34.1325E+06    -12.9796E+06    -6.64456E+06     13.9602E+06    -20.9987E+06         55.3447
            1955     15.3396E-03     113.130E-03         2.05492     570.084E-03    -987.752E-03    -951.727E-03         2.01890     570.084E-03     636.800E-03     234.056E-03    -42.5117E-03    -191.544E-03    -136.673E-03     179.185E-03    -42.5117E-03     284.495E-03     56.8101E+06     7.35481E+06    -32.9711E+06    -15.6851E+06     36.9108E+06     9.96809E+06    -20.8359E+06         65.4894
            1956     16.2161E-03     113.455E-03         2.42068     458.676E-03        -1.13401        -1.12079         2.40747     458.676E-03     389.228E-03     221.560E-03    -47.6397E-03    -173.920E-03    -128.993E-03     176.633E-03    -47.6397E-03     246.761E-03     118.519E+06     57.7473E+06    -12.7338E+06    -10.7218E+06     102.357E+06     71.8978E+06    -13.5153E+06         74.1384
            1957     996.844E-06     113.011E-03         1.61328         1.58006        -2.97233         1.58855        -2.95532         1.58777     448.751E-03     7.15693E-03    -3.35538E-03    -3.80155E-03    -3.59414E-03     6.94952E-03    -3.35538E-03     2.74736E-03     15.2065E+06    -60.1063E+06    -85.4592E+06    -73.9399E+06     3.68723E+06    -60.1063E+06     28.2070E+06         20.8298
            1958     1.99325E-03     113.012E-03         1.57966         1.56258        -2.90317         1.50948        -2.84271         1.57229         1.00085     8.67677E-03    -3.72844E-03    -4.94833E-03    -4.30673E-03     8.03517E-03    -3.72844E-03     5.65766E-03     20.3113E+06    -56.7416E+06    -95.0453E+06    -75.8368E+06     1.10280E+06    -56.7416E+06     42.2240E+06         20.9523
            1959     2.98849E-03     113.013E-03         1.55941         1.53390        -2.81743         1.41437        -2.67439         1.53590         1.52018     11.1409E-03    -4.18133E-03    -6.95954E-03    -5.40685E-03     9.58818E-03    -4.18133E-03     9.99615E-03     8.22575E+06    -53.7773E+06    -101.156E+06    -73.6953E+06    -19.2352E+06    -53.7773E+06     46.9543E+06         21.1655
            1960     3.98268E-03     113.018E-03         1.53158         1.48827        -2.68930         1.29141        -2.45068         1.48982         1.93699     15.0436E-03    -4.74853E-03    -10.2951E-03    -7.04809E-03     11.7966E-03    -4.74853E-03     16.8089E-03    -4.68290E+06    -51.1125E+06    -102.116E+06    -69.6065E+06    -37.1925E+06    -51.1125E+06     45.7779E+06         21.4924
            1961     4.97439E-03     113.027E-03         1.46642         1.42435        -2.49208         1.15153        -2.18755         1.43472         2.10079     20.5498E-03    -5.47291E-03    -15.0769E-03    -9.33837E-03     14.8113E-03    -5.47291E-03     26.0968E-03    -9.11406E+06    -45.4635E+06    -96.5354E+06    -65.4567E+06    -40.1928E+06    -45.4635E+06     41.7210E+06         21.9616
            1962     5.96437E-03     113.044E-03         1.38144         1.31727        -2.22473     990.463E-03        -1.88784         1.37135         2.07803     27.8485E-03    -6.39954E-03    -21.4490E-03    -12.4162E-03     18.8158E-03    -6.39954E-03     38.0561E-03    -11.3719E+06    -35.3682E+06    -82.1551E+06    -61.2310E+06    -32.2960E+06    -35.3682E+06     31.8041E+06         22.6103
            1963     6.95017E-03     113.072E-03         1.29956         1.16353        -1.90941     809.096E-03        -1.55498         1.29956         1.95865     37.3855E-03    -7.56872E-03    -29.8168E-03    -16.5290E-03     24.0977E-03    -7.56872E-03     53.4430E-03    -15.1998E+06    -28.1577E+06    -66.0984E+06    -57.1425E+06    -28.8218E+06    -23.4916E+06     17.8393E+06         23.4883
            1964     7.93240E-03     113.114E-03         1.22045         1.00472        -1.58449     627.244E-03        -1.20701         1.22045         1.82229     49.1468E-03    -9.02220E-03    -40.1246E-03    -22.1505E-03     31.1727E-03    -9.02220E-03     71.5009E-03    -11.2157E+06    -28.0196E+06    -54.4707E+06    -52.1558E+06    -30.3345E+06    -11.2157E+06     4.93422E+06         24.6636
            1965     8.90849E-03     113.173E-03         1.13595     873.453E-03        -1.27072     449.097E-03    -846.365E-03         1.13595         1.69793     64.4971E-03    -10.8370E-03    -53.6601E-03    -30.2287E-03     41.0657E-03    -10.8370E-03     94.1148E-03     1.51741E+06    -25.6187E+06    -47.9329E+06    -44.5344E+06    -29.0172E+06     1.51741E+06    -5.35338E+06         26.2197
            1966     9.87680E-03     113.255E-03         1.04700     765.116E-03    -967.619E-03     269.635E-03    -472.138E-03         1.04700         1.55156     84.1733E-03    -13.1312E-03    -71.0421E-03    -41.3932E-03     54.5244E-03    -13.1312E-03     121.856E-03     13.8303E+06    -16.7786E+06    -47.1469E+06    -36.3930E+06    -27.5326E+06     13.8303E+06    -13.7283E+06         28.2419
            1967     10.8329E-03     113.365E-03     954.483E-03     709.314E-03    -709.137E-03     86.1991E-03    -86.0220E-03     954.483E-03         1.37949     104.690E-03    -15.9876E-03    -88.7029E-03    -55.1719E-03     71.1595E-03    -15.9876E-03     146.092E-03     22.6722E+06    -8.39799E+06    -47.9486E+06    -29.1637E+06    -27.1829E+06     22.6722E+06    -19.4491E+06         30.8783
            1968     11.7783E-03     113.489E-03     870.489E-03     740.196E-03    -545.521E-03    -107.992E-03     314.160E-03     858.995E-03         1.18173     128.808E-03    -19.5040E-03    -109.304E-03    -72.9951E-03     92.4991E-03    -19.5040E-03     170.861E-03     26.4903E+06    -863.830E+03    -50.9156E+06    -23.4906E+06    -28.2888E+06     26.4903E+06    -24.1669E+06         34.4428
            1969     12.7031E-03     113.647E-03     966.254E-03     742.256E-03    -532.133E-03    -308.922E-03     725.063E-03     760.237E-03         1.02984     157.669E-03    -23.7657E-03    -133.903E-03    -94.3433E-03     118.109E-03    -23.7657E-03     199.322E-03     26.8266E+06     9.89935E+06    -50.0100E+06    -20.8630E+06    -19.2476E+06     26.8266E+06    -28.8993E+06         39.4354
            1970     13.6130E-03     113.835E-03         1.27475     657.876E-03    -641.133E-03    -513.258E-03         1.14688     657.876E-03     929.486E-03     188.849E-03    -28.7336E-03    -160.116E-03    -116.419E-03     145.152E-03    -28.7336E-03     230.677E-03     24.9524E+06     18.4666E+06    -35.2452E+06    -17.0526E+06     273.983E+03     24.9524E+06    -24.7350E+06         46.4197
            1971     14.5030E-03     114.065E-03         1.65180     551.732E-03    -789.578E-03    -710.436E-03         1.57266     551.732E-03     856.538E-03     220.144E-03    -34.2817E-03    -185.863E-03    -136.215E-03     170.497E-03    -34.2817E-03     265.805E-03     19.8055E+06     14.9085E+06    -31.3223E+06    -8.73894E+06    -7.67482E+06     19.8055E+06    -19.5922E+06         55.4596
            1972     15.3797E-03     114.335E-03         2.04960     440.829E-03    -948.760E-03    -901.556E-03         2.00240     440.829E-03     715.183E-03     249.580E-03    -40.1861E-03    -209.394E-03    -151.775E-03     191.961E-03    -40.1861E-03     303.925E-03     62.9638E+06     21.9332E+06    -18.8674E+06    -117.190E+03     40.7697E+06     25.3770E+06    -17.1221E+06         65.1706
            1973     16.2480E-03     114.676E-03         2.44526     330.877E-03        -1.10084        -1.08561         2.43003     330.877E-03     423.843E-03     238.304E-03    -46.3454E-03    -191.959E-03    -152.252E-03     198.598E-03    -46.3454E-03     238.544E-03     114.726E+06     57.0543E+06    -4.87202E+06    -3.39086E+06     93.1599E+06     77.1388E+06    -9.08862E+06         73.2064
            1974     998.713E-06     114.016E-03         1.34893         1.33523        -2.77098         1.32466        -2.75100         1.33952     493.647E-03     3.69272E-03    -1.72182E-03    -1.97090E-03    -1.78805E-03     3.51515E-03    -1.72710E-03     1.73734E-03    -20.5908E+06    -75.5384E+06    -109.146E+06    -77.6290E+06    -52.1075E+06    -75.5384E+06     37.2174E+06         20.5015
            1975     1.99626E-03     114.017E-03         1.34460         1.31967        -2.72640         1.27206        -2.65386         1.31967         1.03616     4.75817E-03    -1.90861E-03    -2.84956E-03    -2.24441E-03     4.15302E-03    -1.90861E-03     4.00654E-03     2.98375E+06    -63.1811E+06    -112.555E+06    -77.0425E+06    -32.5288E+06    -63.1811E+06     51.0384E+06         20.6165
            1976     2.99381E-03     114.020E-03         1.35013         1.28914        -2.65968         1.18311        -2.49266         1.28914         1.56787     7.05214E-03    -2.23789E-03    -4.81425E-03    -3.24939E-03     5.48728E-03    -2.23789E-03     7.89924E-03     174.852E+03    -59.1888E+06    -115.427E+06    -78.5331E+06    -36.7188E+06    -59.1888E+06      53.187E+06         20.8241
            1977     3.98981E-03     114.027E-03         1.35121         1.24892        -2.56097         1.08364        -2.29340         1.24892         1.96285     10.8588E-03    -2.72809E-03    -8.13076E-03    -4.87460E-03     7.60269E-03    -2.72809E-03     14.2420E-03    -10.3893E+06    -58.4390E+06    -113.091E+06    -79.5980E+06    -43.8825E+06    -58.4390E+06     47.6181E+06         21.1488
            1978     4.98471E-03     114.039E-03         1.29630         1.20135        -2.38551     966.192E-03        -2.05540         1.20135         2.09743     16.3094E-03    -3.40424E-03    -12.9052E-03    -7.06542E-03     10.4697E-03    -3.40424E-03     23.3061E-03    -14.0887E+06    -49.9705E+06    -94.7076E+06    -70.7565E+06    -38.0398E+06    -49.9705E+06     35.6089E+06         21.6171
            1979     5.97610E-03     114.061E-03         1.19248         1.13171        -2.12871     822.432E-03        -1.77242         1.14548         2.04714     23.5110E-03    -4.26335E-03    -19.2476E-03    -9.85712E-03     14.1205E-03    -4.26335E-03     35.3447E-03    -11.8549E+06    -35.7644E+06    -69.3213E+06    -53.9785E+06    -27.1977E+06    -35.7644E+06     24.6763E+06         22.2662
            1980     6.96572E-03     114.093E-03         1.09079         1.02802        -1.83377     672.993E-03        -1.46932         1.08137         1.90855     33.1857E-03    -5.33844E-03    -27.8472E-03    -13.6515E-03     18.9899E-03    -5.33844E-03     51.5048E-03    -8.28328E+06    -21.9443E+06    -53.3040E+06    -42.7823E+06    -20.7144E+06    -20.0349E+06     17.9093E+06         23.1519
            1981     7.95036E-03     114.143E-03         1.01087     903.716E-03        -1.52862     527.384E-03        -1.15228         1.01087         1.75491     45.4039E-03    -6.68051E-03    -38.7234E-03    -18.9956E-03     25.6761E-03    -6.68051E-03     71.2104E-03    -4.00501E+06    -16.8332E+06    -46.0270E+06    -41.5154E+06    -18.7653E+06    -6.58451E+06     8.29266E+06         24.3514
            1982     8.93012E-03     114.209E-03     935.031E-03     793.330E-03        -1.23271     380.044E-03    -819.424E-03     935.031E-03         1.62443     61.8336E-03    -8.36390E-03    -53.4697E-03    -26.7824E-03     35.1463E-03    -8.36390E-03     97.1373E-03     4.68809E+06    -12.0490E+06     -45.793E+06    -41.9546E+06    -15.8875E+06     4.68809E+06    -5.69902E+06         25.9519
            1983     9.90119E-03     114.306E-03     854.033E-03     701.794E-03    -943.851E-03     233.264E-03    -475.321E-03     854.033E-03         1.47401     82.2814E-03    -10.4800E-03    -71.8014E-03    -37.2507E-03     47.7307E-03    -10.4800E-03     128.349E-03     14.4629E+06    -6.36923E+06    -48.4637E+06     -36.995E+06    -17.8379E+06     14.4629E+06    -16.8593E+06         28.0414
            1984     10.8652E-03     114.431E-03     770.810E-03     657.173E-03    -694.829E-03     85.0764E-03    -120.764E-03     768.843E-03         1.31564     104.165E-03    -13.1408E-03    -91.0237E-03    -51.1421E-03     64.2829E-03    -13.1408E-03     157.083E-03     23.7627E+06    -2.51218E+06    -48.6281E+06    -29.4592E+06    -21.6811E+06     23.7627E+06    -22.4024E+06         30.7763
            1985     11.8132E-03     114.580E-03     737.977E-03     646.132E-03    -527.143E-03    -78.9708E-03     256.250E-03     679.687E-03         1.14474     131.133E-03    -16.4894E-03    -114.644E-03    -70.0187E-03     86.5081E-03    -16.4894E-03     189.126E-03     28.7793E+06    -394.153E+03    -48.6384E+06    -24.9516E+06    -24.0809E+06     28.7793E+06    -23.2789E+06         34.4638
            1986     12.7455E-03     114.768E-03     899.102E-03     585.478E-03    -498.142E-03    -261.299E-03     662.259E-03     585.478E-03         1.02127     163.012E-03    -20.6409E-03    -142.371E-03    -93.2133E-03     113.854E-03    -20.6409E-03     223.990E-03     29.3744E+06     11.2894E+06    -47.7093E+06    -26.4552E+06    -9.96470E+06     29.3744E+06    -24.0388E+06         39.5595
            1987     13.6564E-03     114.984E-03         1.22882     485.707E-03    -589.316E-03    -451.173E-03         1.09068     485.707E-03     936.479E-03     195.778E-03    -25.6097E-03    -170.169E-03    -117.376E-03     142.986E-03    -25.6097E-03     256.918E-03     25.1708E+06     19.7664E+06    -49.1299E+06    -26.6598E+06    -2.70375E+06     25.1708E+06    -29.0576E+06         46.5724
            1988     14.5528E-03     115.249E-03         1.61744     380.042E-03    -726.744E-03    -641.954E-03         1.53265     380.042E-03     867.351E-03     229.732E-03    -31.3560E-03    -198.376E-03    -142.028E-03     173.384E-03    -31.3560E-03     289.319E-03     23.1250E+06     18.3773E+06    -50.6113E+06    -19.9040E+06    -12.3300E+06     23.1250E+06    -32.7645E+06         55.5063
            1989     15.4278E-03     115.551E-03         2.03913     266.417E-03    -885.524E-03    -835.390E-03         1.98900     266.417E-03     725.991E-03     268.721E-03    -37.9073E-03    -230.814E-03    -169.357E-03     207.265E-03    -37.9073E-03     328.136E-03     56.5704E+06     31.1276E+06    -35.3092E+06    -14.1225E+06     33.2882E+06     33.2230E+06    -27.8088E+06         64.7940
            1990     16.2572E-03     115.946E-03         2.47295     156.391E-03        -1.04667        -1.03114         2.45742     156.391E-03     420.355E-03     257.109E-03    -45.1350E-03    -211.974E-03    -175.605E-03     220.740E-03    -45.1350E-03     228.957E-03     103.909E+06     52.5931E+06    -13.4435E+06    -9.36351E+06     71.8604E+06     80.5612E+06    -11.2983E+06         72.1003
            1991     998.305E-06     115.018E-03         1.05863         1.03334        -2.51685         1.02964        -2.49215         1.03763     518.528E-03     2.20708E-03    -1.06908E-03    -1.13800E-03    -1.03112E-03     2.10928E-03    -1.07816E-03     912.046E-06    -79.3545E+06    -157.334E+06    -179.272E+06    -151.350E+06    -101.806E+06    -162.805E+06     18.5710E+06         20.3581
            1992     1.99819E-03     115.020E-03         1.06174         1.02071        -2.47845     972.319E-03        -2.38903         1.02071         1.06664     2.74438E-03    -1.11482E-03    -1.62956E-03    -1.20176E-03     2.31658E-03    -1.11482E-03     2.51570E-03    -39.9577E+06    -120.941E+06    -151.703E+06    -120.007E+06    -65.7857E+06    -126.809E+06     34.4365E+06         20.4567
            1993     2.99651E-03     115.024E-03         1.09759     991.764E-03        -2.43804     900.182E-03        -2.24062     991.764E-03         1.59405     4.82017E-03    -1.39053E-03    -3.42965E-03    -2.05759E-03     3.44812E-03    -1.39053E-03     6.09506E-03    -21.5391E+06    -85.3115E+06    -121.603E+06    -87.5032E+06    -55.2419E+06    -85.7087E+06     43.7503E+06         20.6446
            1994     3.99372E-03     115.032E-03         1.11467     955.187E-03        -2.35177     808.666E-03        -2.04577     955.187E-03         1.95224     8.79340E-03    -1.81435E-03    -6.97904E-03    -3.59068E-03     5.40503E-03    -1.81435E-03     12.9095E-03    -11.7171E+06    -59.5982E+06    -98.9751E+06    -64.0983E+06    -46.5938E+06    -59.5982E+06     40.9525E+06         20.9491
            1995     4.98822E-03     115.048E-03         1.07255     911.144E-03        -2.18632     705.196E-03        -1.81897     911.144E-03         2.05252     14.2976E-03    -2.40440E-03    -11.8932E-03    -5.67255E-03     8.07694E-03    -2.40440E-03     22.2573E-03    -8.62364E+06    -44.2858E+06    -78.2811E+06    -55.0072E+06    -31.8975E+06    -44.2858E+06     30.5132E+06         21.3965
            1996     5.98233E-03     115.072E-03     982.380E-03     861.262E-03        -1.95441     605.124E-03        -1.57716     861.262E-03         1.96068     21.2728E-03    -3.17368E-03    -18.0992E-03    -8.29944E-03     11.4731E-03    -3.17368E-03     34.0312E-03    -12.2638E+06    -37.8050E+06    -71.0349E+06    -58.4275E+06    -24.8712E+06    -37.8050E+06     22.2370E+06         22.0247
            1997     6.97295E-03     115.109E-03     874.340E-03     800.430E-03        -1.68302     501.661E-03        -1.31649     806.577E-03         1.78656     30.5151E-03    -4.13757E-03    -26.3776E-03    -11.6072E-03     15.7448E-03    -4.13757E-03     49.8665E-03    -6.72476E+06    -26.5911E+06    -64.4057E+06    -56.6906E+06    -14.4398E+06    -26.5911E+06     13.3717E+06         22.8921
            1998     7.96131E-03     115.165E-03     779.420E-03     721.362E-03        -1.39798     393.911E-03        -1.03786     746.755E-03         1.60365     42.6277E-03    -5.33048E-03    -37.2972E-03    -16.2362E-03     21.5667E-03    -5.33048E-03     70.3817E-03     1.24216E+06    -12.3022E+06    -44.5646E+06    -39.9875E+06    -8.16201E+06    -7.47506E+06     2.47213E+06         24.0800
            1999     8.94385E-03     115.240E-03     706.373E-03     641.149E-03        -1.12500     292.958E-03    -752.073E-03     681.638E-03         1.44926     59.5235E-03    -6.81137E-03    -52.7121E-03    -23.1834E-03     29.9948E-03    -6.81137E-03     98.7735E-03     11.5282E+06    -2.23403E+06    -29.0250E+06    -25.2732E+06    -5.57720E+06     11.1196E+06    -3.99101E+06         25.6806
            2000     9.92089E-03     115.349E-03     639.812E-03     568.266E-03    -859.822E-03     192.630E-03    -455.601E-03     611.227E-03         1.29637     80.5487E-03    -8.67629E-03    -71.8724E-03    -33.0922E-03     41.7685E-03    -8.67629E-03     132.668E-03     22.3135E+06     2.19271E+06    -34.2811E+06    -25.4583E+06    -6.63009E+06     22.3135E+06    -11.1906E+06         27.7919
            2001     10.8874E-03     115.487E-03     586.785E-03     513.816E-03    -621.517E-03     81.7591E-03    -138.209E-03     535.533E-03         1.14697     103.909E-03    -11.0586E-03    -92.8506E-03    -46.7792E-03     57.8378E-03    -11.0586E-03     166.412E-03     28.1903E+06     1.09531E+06    -43.5346E+06    -29.5676E+06    -12.8717E+06     28.1903E+06    -19.3740E+06         30.5779
            2002     11.8424E-03     115.661E-03     619.543E-03     453.634E-03    -454.960E-03    -50.3359E-03     214.919E-03     453.634E-03         1.00417     132.543E-03    -14.1153E-03    -118.428E-03    -65.6543E-03     79.7696E-03    -14.1153E-03     204.257E-03     31.4805E+06     1.31228E+06    -49.7572E+06    -26.2623E+06    -22.1826E+06     31.4805E+06    -24.5705E+06         34.3345
            2003     12.7817E-03     115.874E-03     824.247E-03     363.795E-03    -420.542E-03    -205.779E-03     609.485E-03     363.795E-03     914.429E-03     166.748E-03    -18.0160E-03    -148.732E-03    -90.3713E-03     108.387E-03    -18.0160E-03     244.596E-03     37.8113E+06     14.0338E+06    -41.0542E+06    -16.6914E+06    -10.3290E+06     37.8113E+06    -21.3371E+06         39.4912
            2004     13.6984E-03     116.135E-03         1.16725     265.495E-03    -507.391E-03    -380.642E-03         1.04050     265.495E-03     860.777E-03     202.261E-03    -22.9156E-03    -179.345E-03    -119.039E-03     141.955E-03    -22.9156E-03     277.943E-03     41.6100E+06     27.9884E+06    -33.3115E+06    -13.8382E+06     8.51506E+06     41.6100E+06    -18.5956E+06         46.5277
            2005     14.5901E-03     116.421E-03         1.57163     157.819E-03    -640.863E-03    -564.842E-03         1.49561     157.819E-03     794.148E-03     242.073E-03    -28.9033E-03    -213.169E-03    -150.858E-03     179.762E-03    -28.9033E-03     312.716E-03     37.4541E+06     25.1576E+06    -46.3723E+06    -21.7159E+06     501.244E+03     37.4541E+06    -28.7788E+06         55.3808
            2006     15.4486E-03     116.788E-03         2.01640     36.8336E-03    -795.536E-03    -751.815E-03         1.97268     36.8336E-03     669.189E-03     289.356E-03    -35.9218E-03    -253.434E-03    -183.086E-03     219.008E-03    -35.9218E-03     364.436E-03     52.0471E+06      30.675E+06    -43.4528E+06    -25.2133E+06     26.0228E+06     38.4598E+06    -29.9846E+06         64.3264
            2007     16.2885E-03     117.233E-03         2.49669    -76.8484E-03    -968.005E-03    -953.728E-03         2.48241    -76.8484E-03     387.441E-03     281.253E-03    -43.8986E-03    -237.355E-03    -197.358E-03     241.256E-03    -43.8986E-03     237.495E-03     91.9137E+06     43.0885E+06    -25.2357E+06    -16.1757E+06     47.6158E+06     78.3264E+06    -20.2551E+06         71.0800
            2008     998.425E-06     116.020E-03     706.284E-03     684.955E-03        -2.19295     673.504E-03        -2.16017     684.955E-03     546.605E-03     2.90688E-03    -1.41638E-03    -1.49050E-03    -1.47177E-03     2.89195E-03    -1.42018E-03     217.544E-06    -112.658E+06    -219.193E+06    -232.113E+06    -223.923E+06    -113.709E+06    -226.332E+06    -6.65081E+06         20.3916
            2009     1.99584E-03     116.021E-03     723.350E-03     665.020E-03        -2.15553     612.599E-03        -2.04478     665.020E-03         1.06224     3.07315E-03    -1.44013E-03    -1.63302E-03    -1.47773E-03     2.95926E-03    -1.48153E-03     967.469E-06    -80.1540E+06    -194.919E+06    -206.833E+06    -196.737E+06    -84.3828E+06    -200.787E+06    -5.02034E+06         20.4740
            2010     2.99463E-03     116.027E-03     783.342E-03     634.953E-03        -2.12761     546.727E-03        -1.89099     634.953E-03         1.55713     4.12055E-03    -1.57366E-03    -2.54689E-03    -1.80916E-03     3.42422E-03    -1.61506E-03     3.65079E-03    -56.3583E+06    -160.321E+06    -168.096E+06    -153.065E+06    -69.6174E+06    -162.093E+06     2.46428E+06         20.6321
            2011     3.99296E-03     116.036E-03     826.454E-03     599.606E-03        -2.06268     469.093E-03        -1.70532     599.606E-03         1.88372     7.19901E-03    -1.83308E-03    -5.36593E-03    -2.92648E-03     4.75956E-03    -1.83308E-03     9.72881E-03    -29.6918E+06    -116.547E+06    -138.041E+06    -106.179E+06    -49.7472E+06    -128.353E+06     6.74080E+06         20.8936
            2012     4.99068E-03     116.055E-03     812.349E-03     559.629E-03        -1.91750     395.121E-03        -1.50027     559.629E-03         1.95309     12.1659E-03    -2.29109E-03    -9.87480E-03    -4.80159E-03     7.09268E-03    -2.29109E-03     18.4748E-03    -19.1536E+06    -71.9041E+06    -106.204E+06    -68.6221E+06    -36.0708E+06    -92.5688E+06     12.6679E+06         21.2897
            2013     5.98398E-03     116.082E-03     742.113E-03     516.861E-03        -1.70241     331.124E-03        -1.29142     516.861E-03         1.81928     19.2540E-03    -3.04904E-03    -16.2050E-03    -7.33383E-03     10.3829E-03    -3.04904E-03     30.6794E-03    -9.19029E+06    -35.9465E+06    -70.1058E+06    -42.8632E+06    -26.2002E+06    -46.1792E+06     17.3065E+06         21.8639
            2014     6.97498E-03     116.124E-03     648.519E-03     471.755E-03        -1.45128     274.239E-03        -1.07700     471.755E-03         1.60052     28.7347E-03    -3.95838E-03    -24.7763E-03    -10.5112E-03     14.4696E-03    -3.95838E-03     47.3152E-03     9.98528E+06    -11.5477E+06    -45.5542E+06    -31.0130E+06    -4.55589E+06    -11.5477E+06     11.3230E+06         22.6774
            2015     7.96292E-03     116.182E-03     555.546E-03     423.588E-03        -1.18922     220.988E-03    -854.666E-03     423.588E-03         1.37079     40.7529E-03    -5.00118E-03    -35.7517E-03    -14.7510E-03     19.7522E-03    -5.00118E-03     68.2804E-03     6.76421E+06    -1.24118E+06    -39.7786E+06    -34.8066E+06     1.79225E+06    -1.24118E+06     675.509E+03         23.8114
            2016     8.94887E-03     116.266E-03     489.466E-03     371.385E-03    -943.943E-03     177.939E-03    -632.416E-03     371.385E-03         1.18010     56.9137E-03    -6.28887E-03    -50.6249E-03    -20.6688E-03     26.9577E-03    -6.28887E-03     96.4144E-03     8.30680E+06     19.5786E+03    -42.0904E+06    -38.1491E+06    -1.66433E+06     6.04937E+06    -6.56839E+06         25.3614
            2017     9.92874E-03     116.382E-03     442.739E-03     313.810E-03    -706.631E-03     131.174E-03    -395.066E-03     313.810E-03         1.01720     77.7380E-03    -7.91064E-03    -69.8274E-03    -29.1668E-03     37.0775E-03    -7.91064E-03     131.816E-03     26.1243E+06     7.22105E+06    -34.3974E+06    -28.1245E+06     2.53278E+06     24.5397E+06    -11.1107E+06         27.4370
            2018     10.9008E-03     116.539E-03     425.588E-03     249.147E-03    -482.426E-03     63.1323E-03    -119.970E-03     249.147E-03     872.125E-03     102.378E-03    -9.97922E-03    -92.3992E-03    -42.1168E-03     52.0961E-03    -9.97922E-03     170.328E-03     40.0890E+06     11.8376E+06    -30.3569E+06    -14.5428E+06    -3.97650E+06     40.0890E+06    -16.2032E+06         30.2131
            2019     11.8617E-03     116.728E-03     501.525E-03     175.232E-03    -330.899E-03    -30.1738E-03     200.800E-03     175.232E-03     764.937E-03     133.030E-03    -12.7094E-03    -120.321E-03    -61.4872E-03     74.1966E-03    -12.7094E-03     213.739E-03     46.9134E+06     9.36849E+06    -35.0074E+06    -9.68112E+06    -15.9578E+06     46.9134E+06    -19.2528E+06         33.9793
            2020     12.8038E-03     116.975E-03     726.347E-03     89.4919E-03    -307.094E-03    -150.769E-03     570.022E-03     89.4919E-03     713.768E-03     169.977E-03    -16.3411E-03    -153.636E-03    -88.2051E-03     104.546E-03    -16.3411E-03     259.549E-03     48.7278E+06     14.1521E+06    -36.4367E+06    -9.16962E+06    -13.1150E+06     48.7278E+06    -22.6047E+06         39.1287
            2021     13.7270E-03     117.265E-03         1.08642    -9.27795E-03    -399.582E-03    -305.642E-03     992.481E-03    -9.27795E-03     701.518E-03     208.813E-03    -21.1199E-03    -187.693E-03    -120.526E-03     141.646E-03    -21.1199E-03     296.882E-03     53.3944E+06     26.7253E+06    -26.0464E+06    -1.15980E+06     1.83864E+06     53.3944E+06    -17.1950E+06         46.0881
            2022     14.6166E-03     117.613E-03         1.51360    -122.629E-03    -538.433E-03    -482.894E-03         1.45806    -122.629E-03     646.828E-03     253.496E-03    -27.1365E-03    -226.360E-03    -155.864E-03     183.000E-03    -27.1365E-03     339.531E-03     63.2554E+06     41.8745E+06    -17.4499E+06     4.66128E+06     19.7632E+06     63.2554E+06    -4.81792E+06         54.7847
            2023     15.4844E-03     118.016E-03         1.98235    -255.918E-03    -690.955E-03    -660.703E-03         1.95210    -255.918E-03     546.142E-03     306.282E-03    -34.1701E-03    -272.112E-03    -189.879E-03     224.049E-03    -34.1701E-03     403.865E-03     67.6562E+06     52.4951E+06    -15.1947E+06     3.06953E+06     38.7883E+06     63.0989E+06    -10.8681E+06         63.5540
            2024     16.3155E-03     118.532E-03         2.49875    -380.693E-03    -863.653E-03    -852.765E-03         2.48787    -380.693E-03     321.840E-03     310.832E-03    -42.6060E-03    -268.226E-03    -220.293E-03     262.899E-03    -42.6060E-03     273.383E-03     103.818E+06     50.7162E+06    -18.0735E+06     8.16063E+06     29.0394E+06     99.2612E+06    -13.9366E+06         70.1881
            2025     996.547E-06     117.024E-03     288.608E-03     253.935E-03        -1.76585     235.321E-03        -1.71885     260.222E-03     547.889E-03     6.07066E-03    -2.96864E-03    -3.10202E-03    -3.04051E-03     6.06740E-03    -3.02689E-03    -233.463E-06    -92.4811E+06    -189.717E+06    -197.318E+06    -192.638E+06    -94.8108E+06    -192.067E+06    -14.8193E+06         20.6154
            2026     1.99314E-03     117.026E-03     342.299E-03     233.998E-03        -1.75346     184.916E-03        -1.59608     233.998E-03         1.03980     6.42689E-03    -3.06402E-03    -3.36287E-03    -3.30794E-03     6.41336E-03    -3.10542E-03    -112.946E-06    -71.1220E+06    -184.993E+06    -197.600E+06    -191.753E+06    -76.2871E+06    -185.674E+06    -24.4468E+06         20.6954
            2027     2.98930E-03     117.030E-03     435.941E-03     204.176E-03        -1.75088     116.775E-03        -1.43172     204.176E-03         1.49440     7.22408E-03    -3.24090E-03    -3.98318E-03    -3.76676E-03     7.04906E-03    -3.28230E-03     1.46537E-03    -58.1755E+06    -175.187E+06    -192.183E+06    -182.415E+06    -66.5693E+06    -176.561E+06    -30.5744E+06         20.8336
            2028     3.98532E-03     117.042E-03     520.838E-03     171.425E-03        -1.71444     71.4097E-03        -1.26501     171.425E-03         1.75840     8.72736E-03    -3.48822E-03    -5.23914E-03    -4.39157E-03     7.87979E-03    -3.48822E-03     5.34955E-03    -38.5435E+06    -154.170E+06    -183.352E+06    -161.293E+06    -48.7957E+06    -165.976E+06    -32.7350E+06         21.0482
            2029     4.98001E-03     117.061E-03     539.394E-03     139.722E-03        -1.59923     41.3498E-03        -1.10118     139.722E-03         1.78203     11.5523E-03    -3.80766E-03    -7.74468E-03    -5.31685E-03     9.12451E-03    -3.80766E-03     11.9448E-03    -34.0744E+06    -124.329E+06    -160.709E+06    -128.917E+06    -45.2015E+06    -144.994E+06    -28.0494E+06         21.3713
            2030     5.97576E-03     117.092E-03     480.783E-03     107.745E-03        -1.39332     10.3008E-03    -922.837E-03     107.745E-03         1.60399     16.8926E-03    -4.31588E-03    -12.5767E-03    -6.97860E-03     11.2945E-03    -4.31588E-03     22.6174E-03    -13.4396E+06    -90.6045E+06    -114.019E+06    -86.1070E+06    -31.1186E+06    -100.837E+06    -20.5747E+06         21.8507
            2031     6.96940E-03     117.137E-03     394.362E-03     74.0425E-03        -1.15143    -5.61817E-03    -751.447E-03     74.0425E-03         1.33650     25.2244E-03    -4.98179E-03    -20.2426E-03    -9.72799E-03     14.7098E-03    -4.98179E-03     38.0703E-03     10.4639E+06    -48.9006E+06    -69.8568E+06    -43.8459E+06    -7.56904E+06    -56.8785E+06    -9.95396E+06         22.5522
            2032     7.95904E-03     117.201E-03     315.864E-03     38.8872E-03    -910.406E-03     3.32807E-03    -597.870E-03     38.8872E-03         1.05795     37.1817E-03    -5.94091E-03    -31.2408E-03    -13.8350E-03     19.7759E-03    -5.94091E-03     59.4767E-03     13.6795E+06    -3.07742E+06    -37.1562E+06    -17.4458E+06     1.71144E+06    -10.8198E+06     2.22041E+06         23.5636
            2033     8.94212E-03     117.289E-03     261.272E-03     1.16651E-03    -684.892E-03     20.3034E-03    -443.923E-03     1.16651E-03     819.875E-03     53.5895E-03    -7.15864E-03    -46.4309E-03    -19.3881E-03     26.5467E-03    -7.15864E-03     88.8017E-03     28.1911E+06     22.5033E+06    -27.2154E+06    -10.9062E+06     8.04293E+06     26.3422E+06     730.797E+03         24.9880
            2034     9.92216E-03     117.413E-03     235.950E-03    -40.3174E-03    -478.166E-03     28.3634E-03    -268.613E-03    -42.2842E-03     643.322E-03     74.1052E-03    -8.55607E-03    -65.5492E-03    -27.0034E-03     35.5595E-03    -8.55607E-03     124.829E-03     38.1757E+06     21.9994E+06    -29.7064E+06    -16.0417E+06     9.91924E+06     36.5911E+06    -8.93188E+06         26.9467
            2035     10.8994E-03     117.576E-03     248.871E-03    -40.5083E-03    -339.463E-03     17.5352E-03    -54.0036E-03    -94.6317E-03     511.476E-03     98.4720E-03    -10.3558E-03    -88.1162E-03    -38.5092E-03     48.8650E-03    -10.3558E-03     164.804E-03     43.9456E+06     14.2773E+06    -36.1785E+06    -23.7431E+06     1.84189E+06     43.9456E+06    -14.5257E+06         29.6262
            2036     11.8630E-03     117.791E-03     366.305E-03    -36.3983E-03    -299.914E-03    -27.7366E-03     217.291E-03    -159.562E-03     439.793E-03     130.318E-03    -12.7971E-03    -117.521E-03    -57.2582E-03     70.0554E-03    -12.7971E-03     212.503E-03     54.7899E+06     12.9542E+06    -44.2595E+06    -21.6672E+06    -9.63808E+06     54.7899E+06    -20.4530E+06         33.3065
            2037     12.8133E-03     118.058E-03     628.336E-03    -98.9697E-03    -332.628E-03    -117.532E-03     556.250E-03    -241.979E-03     426.567E-03     171.023E-03    -16.1663E-03    -154.857E-03    -85.9403E-03     102.107E-03    -16.1663E-03     265.757E-03     62.4271E+06     18.2951E+06    -37.6466E+06    -10.8937E+06    -8.45779E+06     62.4271E+06    -24.7875E+06         38.3061
            2038     13.7318E-03     118.398E-03         1.00298    -202.775E-03    -432.262E-03    -244.886E-03     956.568E-03    -343.742E-03     457.511E-03     212.148E-03    -20.7440E-03    -191.404E-03    -119.670E-03     140.414E-03    -20.7440E-03     308.060E-03     61.3755E+06     15.1053E+06    -36.2235E+06    -10.0582E+06    -11.0600E+06     61.3755E+06    -21.6573E+06         44.9668
            2039     14.6327E-03     118.775E-03         1.44179    -327.036E-03    -568.439E-03    -400.739E-03         1.41252    -465.467E-03     436.425E-03     255.942E-03    -26.4684E-03    -229.474E-03    -152.693E-03     179.161E-03    -26.4684E-03     354.124E-03     71.0435E+06     38.6075E+06    -34.8401E+06    -2.83822E+06     6.60554E+06     71.0435E+06    -17.0333E+06         53.3521
            2040     15.5014E-03     119.245E-03         1.92347    -463.281E-03    -724.333E-03    -557.662E-03         1.90853    -615.014E-03     366.594E-03     315.593E-03    -33.1982E-03    -282.395E-03    -192.805E-03     226.004E-03    -33.1982E-03     426.671E-03      82.741E+06     70.9213E+06    -16.1365E+06     13.0397E+06     41.7451E+06      82.741E+06    -9.50243E+06         62.0968
            2041     16.3527E-03     119.807E-03         2.43666    -586.240E-03    -888.762E-03    -707.133E-03         2.43063    -761.839E-03     235.039E-03     335.417E-03    -41.8234E-03    -293.593E-03    -238.688E-03     280.511E-03    -41.8234E-03     319.699E-03     114.237E+06     51.3089E+06    -21.5445E+06     3.18698E+06     26.5774E+06     114.237E+06     4.12857E+06         68.9263
            2042     994.408E-06     118.032E-03    -149.049E-03    -279.328E-03        -1.26331    -278.775E-03        -1.13987    -273.041E-03     539.559E-03     11.3134E-03    -5.55503E-03    -5.75837E-03    -5.68086E-03     11.2941E-03    -5.61327E-03    -1.02479E-03    -66.8708E+06    -132.271E+06    -138.921E+06    -135.367E+06    -69.7428E+06    -132.953E+06    -13.5698E+06         21.0455
            2043     1.98882E-03     118.034E-03    -13.2455E-03    -289.581E-03        -1.33332    -334.627E-03        -1.01194    -289.581E-03     992.404E-03     12.4425E-03    -5.85366E-03    -6.58883E-03    -6.55115E-03     12.4048E-03    -5.85366E-03    -1.61340E-03    -48.2858E+06    -127.103E+06    -141.640E+06    -134.349E+06    -54.8954E+06    -127.784E+06    -23.2056E+06         21.1409
            2044     2.98137E-03     118.041E-03     158.561E-03    -314.702E-03        -1.39718    -372.201E-03    -866.421E-03    -314.702E-03         1.37759     14.0692E-03    -6.33614E-03    -7.73310E-03    -7.69482E-03     14.0310E-03    -6.33614E-03    -1.09491E-03    -33.3987E+06    -118.158E+06    -145.584E+06    -132.645E+06    -46.3384E+06    -118.158E+06    -35.4600E+06         21.2863
            2045     3.97243E-03     118.052E-03     295.437E-03    -336.870E-03        -1.40507    -379.693E-03    -729.944E-03    -336.870E-03         1.58657     15.3506E-03    -6.82088E-03    -8.52970E-03    -8.39084E-03     15.2117E-03    -6.82088E-03     1.32016E-03    -20.7504E+06    -114.439E+06    -148.352E+06    -130.687E+06    -38.4155E+06    -114.439E+06    -43.9776E+06         21.4859
            2046     4.96441E-03     118.073E-03     341.166E-03    -355.625E-03        -1.31141    -374.939E-03    -595.302E-03    -355.625E-03         1.56248     16.9871E-03    -7.26108E-03    -9.72605E-03    -9.07471E-03     16.3358E-03    -7.26108E-03     5.73892E-03    -18.9431E+06    -114.925E+06    -151.421E+06    -130.629E+06    -39.7344E+06    -114.925E+06    -48.0386E+06         21.7609
            2047     5.95476E-03     118.103E-03     292.283E-03    -373.314E-03        -1.11625    -357.137E-03    -466.835E-03    -373.314E-03         1.33194     19.7736E-03    -7.70586E-03    -12.0677E-03    -10.0671E-03     17.7729E-03    -7.70586E-03     12.8893E-03    -6.04431E+06    -110.974E+06    -148.551E+06    -125.018E+06    -29.5773E+06    -110.974E+06    -51.7073E+06         22.1486
            2048     6.94400E-03     118.152E-03     198.743E-03    -388.316E-03    -875.508E-03    -321.044E-03    -352.903E-03    -391.134E-03     998.241E-03     24.5074E-03    -8.23541E-03    -16.2720E-03    -11.5111E-03     19.7465E-03    -8.23541E-03     24.2040E-03     2.35080E+06    -89.2881E+06    -135.791E+06    -106.420E+06    -19.0428E+06    -97.2660E+06    -46.9898E+06         22.7087
            2049     7.93290E-03     118.217E-03     117.100E-03    -346.473E-03    -702.609E-03    -262.805E-03    -259.176E-03    -410.002E-03     663.824E-03     33.1173E-03    -8.98492E-03    -24.1324E-03    -14.0775E-03     23.0624E-03    -8.98492E-03     42.2633E-03     9.00881E+06    -50.8304E+06    -100.290E+06    -69.8839E+06    -13.6548E+06    -58.5727E+06    -32.9740E+06         23.5273
            2050     8.92080E-03     118.314E-03     72.3639E-03    -268.628E-03    -600.172E-03    -192.917E-03    -171.563E-03    -431.956E-03     379.593E-03     46.8480E-03    -9.95810E-03    -36.8899E-03    -18.4351E-03     28.3932E-03    -9.95810E-03     68.6685E-03     32.1946E+06    -13.0000E+06    -52.8975E+06    -29.0906E+06     4.54874E+06    -9.16104E+06    -15.2198E+06         24.7164
            2051     9.90233E-03     118.440E-03     88.4336E-03    -225.824E-03    -515.450E-03    -120.628E-03    -71.9312E-03    -460.281E-03     180.592E-03     66.5917E-03    -11.2478E-03    -55.3438E-03    -25.5112E-03     36.7591E-03    -11.2478E-03     104.498E-03     52.6673E+06     11.2495E+06    -26.3963E+06    -7.93535E+06     10.1356E+06     35.3202E+06    -1.59545E+06         26.4207
            2052     10.8718E-03     118.616E-03     159.728E-03    -162.617E-03    -498.853E-03    -68.3466E-03     65.4573E-03    -498.853E-03     64.3014E-03     91.4658E-03    -12.9206E-03    -78.5451E-03    -36.1397E-03     49.0604E-03    -12.9206E-03     147.003E-03     67.8558E+06     25.9412E+06    -24.0440E+06    -5.61681E+06     7.51404E+06     67.8558E+06     2.26894E+06         28.8513
            2053     11.8392E-03     118.836E-03     318.164E-03    -107.163E-03    -554.129E-03    -65.7700E-03     276.772E-03    -554.129E-03     35.1979E-03     125.080E-03    -15.1259E-03    -109.954E-03    -54.7880E-03     69.9140E-03    -15.1259E-03     199.037E-03     78.9994E+06     31.0381E+06    -30.9340E+06    -12.2095E+06     12.3136E+06     78.9994E+06    -11.6061E+06         32.2637
            2054     12.7859E-03     119.137E-03     588.475E-03    -137.609E-03    -633.886E-03    -120.038E-03     570.905E-03    -633.886E-03     66.9143E-03     166.772E-03    -18.3018E-03    -148.470E-03    -83.0313E-03     101.333E-03    -18.3018E-03     255.367E-03     77.4211E+06     17.0979E+06    -41.3860E+06    -19.7778E+06    -4.51031E+06     77.4211E+06    -24.7187E+06         36.8608
            2055     13.7167E-03     119.506E-03     953.285E-03    -231.722E-03    -739.735E-03    -220.225E-03     941.788E-03    -739.735E-03     143.159E-03     206.556E-03    -22.5820E-03    -183.974E-03    -112.994E-03     135.576E-03    -22.5820E-03     300.916E-03     80.3883E+06     15.1497E+06    -43.1385E+06    -10.2869E+06    -17.7019E+06     80.3883E+06    -23.2938E+06         42.9286
            2056     14.6109E-03     119.933E-03         1.38610    -352.602E-03    -871.043E-03    -344.967E-03         1.37847    -871.043E-03     175.437E-03     249.873E-03    -27.8391E-03    -222.034E-03    -145.441E-03     173.280E-03    -27.8391E-03     347.709E-03     90.8074E+06     39.5853E+06    -35.3021E+06    -155.722E+03     4.43888E+06     90.8074E+06    -23.1913E+06         50.7439
            2057     15.5053E-03     120.416E-03         1.82956    -446.506E-03        -1.03916    -442.593E-03         1.82564        -1.03916     132.090E-03     317.422E-03    -34.1125E-03    -283.310E-03    -193.892E-03     228.005E-03    -34.1125E-03     427.469E-03     63.3264E+06     39.4577E+06    -42.2760E+06    -18.4263E+06     16.9050E+06     62.0294E+06    -13.5320E+06         59.1850
            2058     16.3249E-03     121.103E-03         2.26283    -501.245E-03        -1.21631    -499.441E-03         2.26103        -1.21631     96.7770E-03     346.068E-03    -42.3683E-03    -303.700E-03    -238.485E-03     280.854E-03    -42.3683E-03     372.132E-03     92.0057E+06     22.6691E+06    -37.1912E+06    -25.8286E+06     12.6035E+06     90.7087E+06    -518.992E+03         65.9417
            2059     991.112E-06     119.046E-03    -150.673E-03    -910.482E-03        -1.16140    -910.867E-03    -401.205E-03    -910.482E-03     513.781E-03     19.5448E-03    -9.52987E-03    -10.0149E-03    -9.98117E-03     19.5110E-03    -9.52987E-03    -1.90057E-03    -41.3507E+06    -70.8791E+06    -80.5650E+06    -74.1654E+06    -47.7503E+06    -70.8791E+06    -10.7103E+06         21.6872
            2060     1.98059E-03     119.051E-03     30.8865E-03    -919.903E-03        -1.26362    -940.263E-03    -292.474E-03    -919.903E-03     924.918E-03     21.4064E-03    -10.0788E-03    -11.3276E-03    -11.2420E-03     21.3209E-03    -10.0788E-03    -3.28929E-03    -23.0586E+06    -68.1496E+06    -83.6613E+06    -73.7004E+06    -33.0195E+06    -68.1496E+06    -20.8044E+06         21.8080
            2061     2.96868E-03     119.059E-03     221.450E-03    -930.466E-03        -1.33438    -925.526E-03    -187.403E-03    -930.466E-03         1.21998     23.4627E-03    -10.7239E-03    -12.7388E-03    -12.6201E-03     23.3440E-03    -10.7239E-03    -4.06707E-03    -10.1666E+06    -69.1027E+06    -90.1571E+06    -75.6051E+06    -24.7186E+06    -69.1027E+06    -29.7461E+06         21.9878
            2062     3.95596E-03     119.073E-03     356.669E-03    -933.832E-03        -1.33651    -890.542E-03    -89.3024E-03    -933.832E-03         1.36064     25.8369E-03    -11.4774E-03    -14.3595E-03    -14.2480E-03     25.7255E-03    -11.4774E-03    -3.66235E-03    -5.80355E+06    -66.9470E+06    -99.7717E+06    -81.8792E+06    -23.6961E+06    -66.9470E+06    -36.1391E+06         22.2231
            2063     4.94064E-03     119.093E-03     401.894E-03    -926.366E-03        -1.24214    -838.301E-03     4.92126E-03    -933.232E-03         1.28698     28.2569E-03    -12.3104E-03    -15.9465E-03    -15.8435E-03     28.1538E-03    -12.3104E-03    -1.59435E-03    -1.86020E+06    -62.0769E+06    -106.891E+06    -84.4893E+06    -24.2621E+06    -62.0769E+06    -42.4668E+06         22.5170
            2064     5.92356E-03     119.127E-03     368.841E-03    -871.363E-03        -1.11591    -769.585E-03     81.9205E-03    -930.766E-03         1.02031     30.5708E-03    -13.1533E-03    -17.4175E-03    -17.1345E-03     30.2878E-03    -13.1533E-03     2.76847E-03     7.52025E+06    -57.0715E+06    -112.652E+06    -87.2937E+06    -17.8383E+06    -57.0715E+06    -48.8579E+06         22.8883
            2065     6.90616E-03     119.173E-03     294.057E-03    -780.104E-03    -989.193E-03    -684.278E-03     137.251E-03    -928.213E-03     626.832E-03     33.5655E-03    -14.0139E-03    -19.5516E-03    -18.4618E-03     32.4756E-03    -14.0139E-03     10.0697E-03     8.29402E+06    -53.1500E+06    -121.236E+06    -95.3390E+06    -17.6034E+06    -53.1500E+06    -51.6204E+06         23.3756
            2066     7.88674E-03     119.242E-03     234.287E-03    -644.680E-03    -927.677E-03    -581.420E-03     171.027E-03    -927.677E-03     220.755E-03     38.3474E-03    -14.8904E-03    -23.4570E-03    -20.3001E-03     35.1905E-03    -14.8904E-03     21.7758E-03     7.77367E+06    -56.3783E+06    -129.697E+06    -104.266E+06    -17.6568E+06    -56.3783E+06    -53.3665E+06         24.0362
            2067     8.86462E-03     119.336E-03     218.108E-03    -491.038E-03    -931.406E-03    -460.175E-03     187.245E-03    -931.406E-03    -110.763E-03     45.7340E-03    -15.8858E-03    -29.8481E-03    -22.6117E-03     38.4976E-03    -15.8858E-03     39.5620E-03     7.79724E+06    -49.8846E+06    -121.727E+06    -99.0673E+06    -14.8628E+06    -49.8846E+06    -47.1229E+06         24.9574
            2068     9.84118E-03     119.470E-03     262.208E-03    -390.455E-03    -942.611E-03    -330.739E-03     202.492E-03    -942.611E-03    -341.724E-03     58.4642E-03    -17.1651E-03    -41.2991E-03    -26.3344E-03     43.4995E-03    -17.1651E-03     67.4770E-03     28.8078E+06    -20.8627E+06    -93.9466E+06    -71.9486E+06    -7.14144E+06    -6.91144E+06    -30.1338E+06         26.2842
            2069     10.8194E-03     119.648E-03     349.498E-03    -315.329E-03    -966.361E-03    -221.758E-03     255.926E-03    -966.361E-03    -457.777E-03     78.3318E-03    -18.7399E-03    -59.5920E-03    -34.0622E-03     52.8020E-03    -18.7399E-03     104.900E-03     53.3920E+06     12.6135E+06    -62.5696E+06    -36.2816E+06    -1.70302E+06     41.4204E+06    -14.5789E+06         28.2447
            2070     11.7799E-03     119.885E-03     473.032E-03    -252.659E-03        -1.01180    -165.112E-03     385.486E-03        -1.01180    -449.966E-03     111.286E-03    -20.9421E-03    -90.3435E-03    -51.3932E-03     72.3354E-03    -20.9421E-03     158.092E-03     88.0935E+06     34.6919E+06    -33.0404E+06    -17.8604E+06     19.5118E+06     88.0935E+06    -539.656E+03         31.0594
            2071     12.7241E-03     120.202E-03     670.238E-03    -229.169E-03        -1.08824    -177.792E-03     618.861E-03        -1.08824    -357.509E-03     151.970E-03    -24.0402E-03    -127.930E-03    -75.5861E-03     99.6263E-03    -24.0402E-03     217.872E-03     117.461E+06     30.8696E+06    -24.3494E+06    -15.5798E+06     22.1001E+06     117.461E+06    -7.21798E+06         34.8528
            2072     13.6401E-03     120.597E-03     976.755E-03    -267.397E-03        -1.19685    -248.256E-03     957.614E-03        -1.19685    -223.792E-03     188.909E-03    -27.8573E-03    -161.052E-03    -100.639E-03     128.496E-03    -27.8573E-03     264.130E-03     98.9319E+06     23.2906E+06    -50.0773E+06    -15.5822E+06    -11.2045E+06     98.9319E+06    -30.9329E+06         39.9363
            2073     14.5670E-03     121.040E-03         1.36086    -331.588E-03        -1.33788    -323.498E-03         1.35277        -1.33788    -141.622E-03     232.294E-03    -32.7158E-03    -199.578E-03    -135.592E-03     168.308E-03    -32.7158E-03     305.883E-03     78.1391E+06     10.5809E+06    -60.1830E+06    -31.9506E+06    -17.6515E+06     78.1391E+06    -17.4657E+06         46.6383
            2074     15.4235E-03     121.593E-03         1.73281    -354.744E-03        -1.52305    -346.173E-03         1.72424        -1.52305    -182.432E-03     296.340E-03    -38.9998E-03    -257.341E-03    -183.616E-03     222.616E-03    -38.9998E-03     375.510E-03     74.8196E+06     17.4716E+06    -38.2757E+06    -32.9942E+06     13.4871E+06     73.5226E+06    -4.74029E+06         53.7220
            2075     16.2888E-03     122.297E-03         1.99206    -282.467E-03        -1.72117    -274.658E-03         1.98425        -1.72117    -170.375E-03     309.336E-03    -45.7877E-03    -263.548E-03    -188.538E-03     234.326E-03    -45.7877E-03     378.513E-03     76.1738E+06     21.4568E+06    -43.7843E+06    -25.6488E+06     7.23081E+06     72.2643E+06    -22.4324E+06         59.1635
            2076     985.636E-06     120.071E-03     553.484E-03        -1.67380        -1.72015        -1.67279     519.565E-03        -1.68724     418.142E-03     31.3953E-03    -15.2900E-03    -16.1052E-03    -15.6697E-03     31.3518E-03    -15.6821E-03    -2.58710E-03     1.44810E+06    -16.8753E+06    -39.3557E+06    -9.50939E+06    -28.3982E+06    -16.8753E+06    -10.8569E+06         22.4851
            2077     1.96908E-03     120.078E-03     647.294E-03        -1.64698        -1.74079        -1.62845     563.056E-03        -1.67509     759.949E-03     33.1494E-03    -15.9359E-03    -17.2136E-03    -17.1011E-03     33.0370E-03    -15.9359E-03    -4.68744E-03     6.04637E+06    -20.7280E+06    -35.5617E+06    -15.5692E+06    -13.9461E+06    -20.7280E+06    -17.0887E+06         22.6333
            2078     2.95199E-03     120.088E-03     750.221E-03        -1.61012        -1.73979        -1.56481     622.728E-03        -1.65760     961.224E-03     36.1547E-03    -16.7174E-03    -19.4373E-03    -19.2486E-03     35.9660E-03    -16.7174E-03    -6.42646E-03     5.69135E+06    -19.8170E+06    -40.5980E+06    -23.1265E+06    -11.7801E+06    -19.8170E+06    -20.7080E+06         22.8671
            2079     3.93165E-03     120.105E-03     814.128E-03        -1.53658        -1.70277        -1.46086     669.872E-03        -1.63423         1.03106     40.0990E-03    -17.8068E-03    -22.2923E-03    -22.0353E-03     39.8421E-03    -17.8068E-03    -7.98138E-03     8.16087E+06    -14.3947E+06    -47.4119E+06    -29.8002E+06    -9.45089E+06    -14.3947E+06    -24.5425E+06         23.1803
            2080     4.90792E-03     120.130E-03     814.537E-03        -1.43008        -1.62722        -1.33036     691.629E-03        -1.60403     916.617E-03     43.9988E-03    -19.0763E-03    -24.9225E-03    -24.6480E-03     43.7243E-03    -19.0763E-03    -8.49565E-03     10.3529E+06    -13.0407E+06    -57.7011E+06    -38.2011E+06    -10.5575E+06    -11.6303E+06    -30.0938E+06         23.5659
            2081     5.88281E-03     120.164E-03     779.998E-03        -1.27405        -1.57112        -1.20026     706.211E-03        -1.57112     637.996E-03     47.9360E-03    -20.4168E-03    -27.5192E-03    -27.2818E-03     47.6986E-03    -20.4168E-03    -7.54381E-03     12.1649E+06    -15.6309E+06    -67.4520E+06    -49.6315E+06    -7.06603E+06    -14.2205E+06    -32.3248E+06         24.0292
            2082     6.85342E-03     120.215E-03     736.284E-03        -1.10014        -1.54091        -1.07657     712.706E-03        -1.54091     234.153E-03     52.7373E-03    -21.9257E-03    -30.8116E-03    -30.5818E-03     52.5074E-03    -21.9257E-03    -5.25102E-03     10.2795E+06    -16.9502E+06    -76.0245E+06    -59.6513E+06    -10.1483E+06    -12.8955E+06    -32.6519E+06         24.5857
            2083     7.82067E-03     120.283E-03     709.221E-03    -960.493E-03        -1.51644    -942.497E-03     691.224E-03        -1.51644    -200.473E-03     57.7888E-03    -23.6316E-03    -34.1573E-03    -33.7119E-03     57.3435E-03    -23.6316E-03    -919.679E-06     15.8927E+06    -9.52979E+06    -82.9012E+06    -66.3942E+06    -6.83472E+06    -3.30936E+06    -34.8382E+06         25.2554
            2084     8.78349E-03     120.381E-03     704.859E-03    -854.714E-03        -1.49933    -791.314E-03     641.459E-03        -1.49933    -584.792E-03     63.0080E-03    -25.4516E-03    -37.5564E-03    -36.2957E-03     61.7474E-03    -25.4516E-03     6.78915E-03     15.8509E+06    -9.84872E+06    -96.0104E+06    -75.7884E+06    -13.7446E+06    -475.318E+03    -40.0824E+06         26.0765
            2085     9.74446E-03     120.508E-03     726.427E-03    -776.912E-03        -1.49256    -631.065E-03     580.581E-03        -1.49256    -872.532E-03     69.0441E-03    -27.3584E-03    -41.6857E-03    -38.4269E-03     65.7853E-03    -27.3584E-03     19.8368E-03     17.8706E+06    -12.6187E+06    -105.980E+06    -83.8478E+06    -16.3790E+06    -501.547E+03    -43.8965E+06         27.1331
            2086     10.6962E-03     120.688E-03     752.286E-03    -691.126E-03        -1.50187    -481.321E-03     542.481E-03        -1.50187        -1.01503     78.9452E-03    -29.5264E-03    -49.4188E-03    -42.4387E-03     71.9651E-03    -29.5264E-03     39.9955E-03     22.5447E+06    -7.82371E+06    -101.123E+06    -81.4853E+06    -15.4895E+06     10.5731E+06    -40.0542E+06         28.5670
            2087     11.6506E-03     120.921E-03     791.991E-03    -591.084E-03        -1.53739    -376.922E-03     577.829E-03        -1.53739    -999.959E-03     97.6506E-03    -32.3148E-03    -65.3358E-03    -51.1959E-03     83.5107E-03    -32.3148E-03     75.7338E-03     52.4321E+06     8.82775E+06    -81.6136E+06    -60.9766E+06    -11.8092E+06     52.4321E+06    -24.7278E+06         30.4990
            2088     12.5840E-03     121.259E-03     889.929E-03    -498.876E-03        -1.60808    -335.766E-03     726.820E-03        -1.60808    -873.580E-03     119.762E-03    -35.6966E-03    -84.0657E-03    -60.3962E-03     96.0929E-03    -35.6966E-03     119.546E-03     115.654E+06     47.9291E+06    -40.2162E+06    -26.0084E+06     33.7213E+06     115.654E+06    -18.3144E+06         33.0667
            2089     13.5237E-03     121.652E-03         1.08938    -435.273E-03        -1.71624    -343.189E-03     997.292E-03        -1.71624    -681.761E-03     146.132E-03    -39.5079E-03    -106.624E-03    -75.8561E-03     115.364E-03    -39.5079E-03     158.959E-03     111.505E+06     48.6515E+06    -65.8027E+06    -28.1772E+06     11.0260E+06     111.505E+06    -3.98955E+06         36.6543
            2090     14.4003E-03     122.132E-03         1.37425    -396.162E-03        -1.86546    -341.100E-03         1.31919        -1.86546    -565.712E-03     187.713E-03    -44.6029E-03    -143.110E-03    -109.468E-03     154.071E-03    -44.6029E-03     194.054E-03     99.8180E+06     17.2717E+06    -77.1576E+06    -31.0816E+06    -28.8043E+06     99.8180E+06     4.57418E+06         41.3616
            2091     15.2783E-03     122.698E-03         1.64322    -316.940E-03        -2.05868    -270.085E-03         1.59637        -2.05868    -556.327E-03     234.135E-03    -51.1023E-03    -183.033E-03    -139.573E-03     190.675E-03    -51.1023E-03     250.764E-03     134.553E+06     50.0863E+06    -16.9070E+06     8.89091E+06     24.2885E+06     134.553E+06    -17.4723E+06         45.7575
            2092     16.0751E-03     123.410E-03         1.72358    -85.1955E-03        -2.24647    -47.7082E-03         1.68610        -2.24647    -473.961E-03     209.820E-03    -47.8302E-03    -161.990E-03    -94.2973E-03     150.240E-03    -55.9430E-03     261.221E-03     104.374E+06     57.0901E+06    -49.2874E+06     11.4005E+06     16.5201E+06     84.2561E+06    -6.69781E+06         48.5048
            2093     976.847E-06     121.109E-03         1.69289        -2.61179        -2.65978        -2.60470         1.68579        -2.65978     198.694E-03     46.3232E-03    -22.5835E-03    -23.7397E-03    -23.2335E-03     46.2769E-03    -23.0433E-03    -3.32895E-03     46.9254E+06     33.8698E+06    -10.8331E+06     40.3765E+06    -8.54677E+06     38.1324E+06    -9.34282E+06         23.2214
            2094     1.95559E-03     121.117E-03         1.66319        -2.49200        -2.60944        -2.47572         1.64690        -2.60944     359.474E-03     47.9745E-03    -23.3371E-03    -24.6375E-03    -24.4673E-03     47.8722E-03    -23.4049E-03    -5.28983E-03     40.5389E+06     25.5242E+06    -8.31549E+06     31.5173E+06    -3.57406E+06     29.8044E+06    -10.4627E+06         23.3947
            2095     2.93022E-03     121.132E-03         1.63025        -2.31667        -2.54889        -2.29091         1.60449        -2.54889     434.079E-03     52.1228E-03    -24.3339E-03    -27.7889E-03    -27.6097E-03     51.9436E-03    -24.3339E-03    -7.44642E-03     34.2003E+06     26.3203E+06    -11.9083E+06     22.4811E+06    -4.72717E+06     30.8584E+06    -11.5993E+06         23.6819
            2096     3.90068E-03     121.154E-03         1.56935        -2.09089        -2.47544        -2.06094         1.53941        -2.47544     434.142E-03     57.4251E-03    -25.7451E-03    -31.6801E-03    -31.3997E-03     57.1447E-03    -25.7451E-03    -9.85985E-03     34.2777E+06     23.8736E+06    -12.7431E+06     15.3217E+06    -1.26644E+06     31.3528E+06    -12.3202E+06         24.0810
            2097     4.86831E-03     121.182E-03         1.48433        -1.84283        -2.39354        -1.81953         1.46103        -2.39354     332.077E-03     64.0920E-03    -27.5561E-03    -36.5359E-03    -36.1205E-03     63.6766E-03    -27.5561E-03    -12.8263E-03     37.6498E+06     20.4625E+06    -17.3704E+06     7.15333E+06    -1.96473E+06     35.5533E+06    -13.0406E+06         24.5898
            2098     5.82950E-03     121.223E-03         1.39270        -1.60827        -2.31109        -1.59563         1.38006        -2.31109     116.502E-03     72.1797E-03    -29.7641E-03    -42.4156E-03    -41.8294E-03     71.5935E-03    -29.7641E-03    -16.2844E-03     43.0668E+06     17.9857E+06    -21.6252E+06     671.009E+03    -2.64773E+06     41.4040E+06    -13.4812E+06         25.2053
            2099     6.78564E-03     121.278E-03         1.31700        -1.42229        -2.23607        -1.41331         1.30803        -2.23607    -186.576E-03     81.0188E-03    -32.3556E-03    -48.6632E-03    -47.8529E-03     80.2085E-03    -32.3556E-03    -20.1101E-03     49.2695E+06     15.4475E+06    -25.1643E+06    -4.92021E+06    -3.13380E+06     47.6067E+06    -14.4816E+06         25.9241
            2100     7.73213E-03     121.356E-03         1.27962        -1.30783        -2.17455        -1.27368         1.24547        -2.17455    -539.441E-03     90.3657E-03    -35.2875E-03    -55.0782E-03    -53.9182E-03     89.2058E-03    -35.2875E-03    -24.9003E-03     52.7952E+06     18.1888E+06    -31.0356E+06    -10.7476E+06    -2.09926E+06     52.7952E+06    -15.2252E+06         26.7500
            2101     8.67433E-03     121.452E-03         1.26141        -1.24731        -2.13045        -1.16079         1.17490        -2.13045    -892.675E-03     100.146E-03    -38.5693E-03    -61.5766E-03    -59.8585E-03     98.4277E-03    -38.5693E-03    -30.6228E-03     58.2540E+06     15.8645E+06    -31.9508E+06    -15.4008E+06    -685.576E+03     58.2540E+06    -15.2716E+06         27.6965
            2102     9.60294E-03     121.588E-03         1.25628        -1.22040        -2.10680        -1.05157         1.08745        -2.10680        -1.21372     110.681E-03    -42.2804E-03    -68.4010E-03    -65.6256E-03     107.906E-03    -42.2804E-03    -37.5595E-03     63.0853E+06     11.0796E+06    -38.1678E+06    -18.2867E+06    -8.80147E+06     63.0853E+06    -16.5984E+06         28.7714
            2103     10.5301E-03     121.755E-03         1.25858        -1.19702        -2.10804    -945.927E-03         1.00748        -2.10804        -1.46608     121.300E-03    -46.5002E-03    -74.8001E-03    -70.2392E-03     116.739E-03    -46.5002E-03    -44.0069E-03     65.7772E+06     12.2339E+06    -42.6345E+06    -21.0636E+06    -9.33696E+06     65.7772E+06    -20.1877E+06         29.9387
            2104     11.4286E-03     121.996E-03         1.27673        -1.15116        -2.14085    -846.737E-03     972.314E-03        -2.14085        -1.59655     127.540E-03    -51.1817E-03    -76.3580E-03    -69.3506E-03     120.532E-03    -51.1817E-03    -42.8690E-03     64.4847E+06     7.84124E+06    -52.3327E+06    -24.7237E+06    -19.7678E+06     64.4847E+06    -23.8107E+06         31.1486
            2105     12.3301E-03     122.292E-03         1.31768        -1.05775        -2.20995    -735.766E-03     995.687E-03        -2.20995        -1.62296     126.297E-03    -56.0541E-03    -70.2432E-03    -60.8943E-03     116.948E-03    -56.0541E-03    -32.8971E-03     81.4368E+06     36.6243E+06    -49.1219E+06    -25.6719E+06     13.1743E+06     81.4368E+06    -25.2960E+06         32.5445
            2106     13.2082E-03     122.677E-03         1.37919    -880.153E-03        -2.31846    -581.900E-03         1.08094        -2.31846        -1.49894     130.498E-03    -58.0661E-03    -72.4314E-03    -55.8508E-03     117.127E-03    -61.2764E-03    -17.2528E-03     95.8617E+06     47.2572E+06    -71.4233E+06    -19.9462E+06    -4.21999E+06     95.8617E+06     11.4831E+06         34.4629
            2107     14.1069E-03     123.149E-03         1.47625    -621.744E-03        -2.47049    -370.030E-03         1.22454        -2.47049        -1.29534     144.712E-03    -52.2428E-03    -92.4696E-03    -64.2857E-03     131.861E-03    -67.5758E-03     12.6488E-03     131.555E+06     59.9805E+06    -53.6033E+06     15.5773E+06    -9.20009E+06     131.555E+06     7.12784E+06         36.6539
            2108     14.8906E-03     123.749E-03         1.52849    -271.240E-03        -2.64882    -92.5045E-03         1.34976        -2.64882        -1.00352     141.813E-03    -31.7807E-03    -110.033E-03    -52.4787E-03     126.042E-03    -73.5637E-03     77.1109E-03     126.427E+06     55.6649E+06    -25.3284E+06     18.5915E+06     32.1520E+06     106.020E+06    -21.2423E+06         38.0170
            2109     15.8084E-03     124.345E-03         1.46254     170.805E-03        -2.79466     276.301E-03         1.35704        -2.79466    -658.412E-03     101.402E-03    -5.45700E-03    -95.9450E-03    -2.39123E-03     79.0152E-03    -76.6240E-03     91.4871E-03     76.6436E+06     20.6892E+06    -71.8850E+06     15.3843E+06     2.87988E+06     7.18368E+06     15.3082E+06         38.3605


