********************************************************************************
Field Output Report, written Tue May  6 09:57:28 2025

Source 1
---------

   ODB: D:/AISI_1020/Vel_40/aisi_1020_2a_24_red_500_cal_30_vel_40_fric_025.odb
   Step: Step-1
   Frame: Increment   1701785: Step Time =   0.2320

Loc 1 : Nodal values from source 1

Output sorted by column "Node Label".

Field Output reported at nodes for region: DIE_2A_24_D0_36-1.Region_1
   Computation algorithm: EXTRAPOLATE_COMPUTE_AVERAGE
   Averaged at nodes
   Averaging regions: ODB_REGIONS

      Node Label     COORD.COOR1     COORD.COOR2
                          @Loc 1          @Loc 1
-------------------------------------------------
               1     20.6553E-03     123.486E-03


Field Output reported at nodes for region: DIE_2A_24_D0_36-1.Region_2
   Computation algorithm: EXTRAPOLATE_COMPUTE_AVERAGE
   Averaged at nodes
   Averaging regions: ODB_REGIONS

      Node Label     COORD.COOR1     COORD.COOR2
                          @Loc 1          @Loc 1
-------------------------------------------------
               1     20.6553E-03     123.486E-03


Field Output reported at nodes for part: WIRE_1-1
   Computation algorithm: EXTRAPOLATE_COMPUTE_AVERAGE
   Averaged at nodes
   Averaging regions: ODB_REGIONS

      Node Label     COORD.COOR1     COORD.COOR2    ER.Max. Prin    ER.Mid. Prin    ER.Min. Prin         ER.ER11         ER.ER22         ER.ER33         ER.ER12    PE.Max. Prin    PE.Mid. Prin    PE.Min. Prin         PE.PE11         PE.PE22         PE.PE33         PE.PE12     S.Max. Prin     S.Mid. Prin     S.Min. Prin           S.S11           S.S22           S.S33           S.S12            TEMP
                          @Loc 1          @Loc 1          @Loc 1          @Loc 1          @Loc 1          @Loc 1          @Loc 1          @Loc 1          @Loc 1          @Loc 1          @Loc 1          @Loc 1          @Loc 1          @Loc 1          @Loc 1          @Loc 1          @Loc 1          @Loc 1          @Loc 1          @Loc 1          @Loc 1          @Loc 1          @Loc 1          @Loc 1
-----------------------------------------------------------------------------------------------------------------------------------------------------------------------------------------------------------------------------------------------------------------------------------------------------------------------------------------------------------------------------------------------------------------
               1     17.0238E-03     61.9406E-03     538.885E-03     405.807E-03        -1.66119     529.257E-03        -1.65156     405.807E-03     289.923E-03     112.170E-03    -55.6067E-03    -56.5634E-03    -54.5838E-03     111.147E-03    -56.5634E-03     26.1161E-03     150.006E+06     125.915E+06    -4.14417E+06    -4.14204E+06     150.004E+06     125.915E+06     23.2404E+03         49.2283
               2     259.046E-09     61.4767E-03         6.18490         1.75534        -8.57394        -1.35481        -1.03423         1.75534         14.7486     112.829E-03    -56.0389E-03    -56.7904E-03    -56.7870E-03     112.826E-03    -56.0389E-03     1.04658E-03    -70.6732E+06    -74.9956E+06    -280.005E+06    -73.2246E+06    -279.961E+06    -72.4884E+06     2.54436E+06         29.1394
               3     2.03504E-06    -62.4500E-18         1.99997     537.312E-03    -911.533E-03         1.56949    -481.047E-03     537.312E-03        -2.06693     254.658E-03    -126.775E-03    -127.883E-03    -127.873E-03     254.649E-03    -126.775E-03     3.84933E-03    -51.5715E+06    -53.4266E+06    -279.422E+06    -51.6032E+06    -279.390E+06    -53.4266E+06     2.68710E+06         38.2338
               4     16.6040E-03    -62.4500E-18         3.00622    -22.0659E-03        -1.16820        -1.16467         3.00269    -22.0659E-03     242.653E-03     210.761E-03    -77.3079E-03    -133.453E-03    -108.997E-03     186.305E-03    -77.3079E-03     176.860E-03     158.186E+06     140.604E+06     20.5697E+06     20.6506E+06     140.523E+06     158.186E+06     3.11383E+06         45.6501
               5     16.7401E-03     124.586E-03         1.24391    -221.321E-03    -413.715E-03    -247.782E-03    -387.254E-03         1.24391     132.527E-03     34.5555E-03     28.1320E-03    -62.6876E-03     34.2701E-03     28.4174E-03    -62.6876E-03     2.64712E-03     57.5365E+06    -29.0006E+06    -59.6796E+06     56.0800E+06    -27.5441E+06    -59.6796E+06     11.1321E+06         37.9589
               6     1.46717E-06     121.735E-03     889.191E-03     732.517E-03    -470.161E-03     732.471E-03    -470.116E-03     889.191E-03    -14.8132E-03     54.1856E-03    -26.4924E-03    -27.6932E-03    -27.6710E-03     54.1633E-03    -26.4924E-03    -2.69828E-03     74.8434E+06     74.2292E+06    -1.62212E+06     73.8898E+06    -1.28270E+06     74.8434E+06    -5.06260E+06         23.4582
               7     16.0774E-03     61.9137E-03     693.602E-03     406.640E-03        -1.81482     550.798E-03        -1.67201     406.640E-03    -690.157E-03     115.508E-03    -56.0642E-03    -59.4437E-03    -54.1160E-03     110.659E-03    -56.5426E-03     51.7372E-03     152.209E+06     118.365E+06    -7.57329E+06    -7.57004E+06     152.205E+06     118.365E+06    -143.342E+03         48.2275
               8     15.1298E-03     61.8287E-03     810.791E-03     409.763E-03        -1.92745     582.469E-03        -1.69912     409.763E-03        -1.50069     118.271E-03    -56.4387E-03    -61.8320E-03    -53.7051E-03     110.144E-03    -56.4387E-03     74.7235E-03     150.540E+06     87.7212E+06    -12.9726E+06    -12.9625E+06     150.530E+06     87.7212E+06     484.913E+03         46.0190
               9     14.1835E-03     61.7489E-03         1.05744     412.292E-03        -2.16325     609.783E-03        -1.71559     412.292E-03        -2.14239     116.626E-03    -56.2728E-03    -60.3536E-03    -54.1525E-03     110.425E-03    -56.2728E-03     64.6584E-03     140.531E+06     41.0577E+06    -18.2022E+06    -18.1721E+06     140.501E+06     41.0577E+06     1.48972E+06         43.5402
              10     13.2382E-03     61.6877E-03         1.28348     409.635E-03        -2.37297     641.045E-03        -1.73054     409.635E-03        -2.77149     115.003E-03    -56.1693E-03    -58.8341E-03    -55.0669E-03     111.236E-03    -56.1693E-03     50.0810E-03     110.061E+06     5.95435E+06    -23.2206E+06    -23.1912E+06     110.031E+06     5.95435E+06     1.45084E+06         41.0337
              11     12.2912E-03     61.6422E-03         1.08580     400.111E-03        -2.15492     675.441E-03        -1.74456     400.111E-03        -2.11359     113.411E-03    -56.0672E-03    -57.3436E-03    -55.1978E-03     111.421E-03    -56.2235E-03     36.0287E-03     43.4869E+06    -5.20375E+06    -24.8536E+06    -24.8090E+06     43.4423E+06    -5.20375E+06    -91.1964E+03         38.6757
              12     11.3451E-03     61.6085E-03     870.076E-03     383.186E-03        -1.91299     702.222E-03        -1.74514     383.186E-03        -1.27631     112.560E-03    -56.1420E-03    -56.4182E-03    -55.0837E-03     111.458E-03    -56.3743E-03     27.1018E-03    -1.11527E+06    -16.6890E+06    -40.2703E+06    -26.6486E+06    -27.2735E+06    -4.15248E+06    -1.49233E+06         36.5989
              13     10.3977E-03     61.5843E-03     877.805E-03     360.026E-03        -1.88794     700.055E-03        -1.71019     360.026E-03     382.082E-03     113.076E-03    -56.4028E-03    -56.6731E-03    -55.7854E-03     112.281E-03    -56.4961E-03     23.0568E-03    -2.58699E+06    -29.5806E+06    -77.5549E+06    -29.6322E+06    -77.5033E+06    -2.58699E+06    -1.12905E+06         34.8756
              14     9.45433E-03     61.5590E-03     849.758E-03     332.198E-03        -1.82276     674.286E-03        -1.64729     332.198E-03     413.842E-03     113.262E-03    -56.4369E-03    -56.8247E-03    -56.1741E-03     112.742E-03    -56.5674E-03     18.6007E-03    -762.647E+03    -31.7123E+06    -114.786E+06    -31.7218E+06    -114.776E+06    -762.647E+03    -454.920E+03         33.5020
              15     8.50824E-03     61.5427E-03     723.629E-03     300.613E-03        -1.66007     630.372E-03        -1.56681     300.613E-03     55.6096E-03     112.999E-03    -56.2944E-03    -56.7042E-03    -56.0440E-03     112.668E-03    -56.6239E-03     14.8898E-03    -237.269E+03    -34.4834E+06    -145.125E+06    -34.4948E+06    -145.114E+06    -237.269E+03    -661.027E+03         32.4251
              16     7.56243E-03     61.5274E-03     689.020E-03     266.482E-03        -1.59072     569.776E-03        -1.47147     266.482E-03    -31.6225E-03     112.979E-03    -56.3016E-03    -56.6777E-03    -56.0578E-03     112.735E-03    -56.6777E-03     12.8106E-03    -3.70039E+06    -38.8192E+06    -172.998E+06    -38.8261E+06    -172.992E+06    -3.70039E+06    -557.547E+03         31.5817
              17     6.61681E-03     61.5155E-03         1.20048     230.660E-03        -2.06750     504.776E-03        -1.37179     230.660E-03         1.44117     113.170E-03    -56.4481E-03    -56.7220E-03    -56.2644E-03     112.986E-03    -56.7220E-03     11.1149E-03    -8.32741E+06    -43.1330E+06    -198.236E+06    -43.1334E+06    -198.236E+06    -8.32741E+06     20.5937E+03         30.9185
              18     5.67156E-03     61.5042E-03         1.23506     195.332E-03        -2.06281     412.268E-03        -1.24002     195.332E-03         2.80612     113.271E-03    -56.5239E-03    -56.7471E-03    -56.3967E-03     113.144E-03    -56.7471E-03     9.22341E-03    -13.9823E+06    -47.9899E+06    -220.828E+06    -47.9907E+06    -220.827E+06    -13.9823E+06    -206.631E+03         30.3957
              19     4.72664E-03     61.4962E-03         1.89257     162.269E-03        -2.67924     331.544E-03        -1.11821     162.269E-03         4.20588     113.371E-03    -56.6255E-03    -56.7451E-03    -56.5518E-03     113.287E-03    -56.7347E-03     7.51003E-03    -23.8872E+06    -54.3512E+06    -242.221E+06    -54.3530E+06    -242.219E+06    -23.8872E+06    -154.093E+03         29.9858
              20     3.78129E-03     61.4883E-03         1.82478     135.253E-03        -2.57293     228.615E-03    -976.761E-03     135.253E-03         4.17275     113.225E-03    -56.5141E-03    -56.7110E-03    -56.4724E-03     113.173E-03    -56.7006E-03     5.87512E-03    -36.2863E+06    -60.5879E+06    -258.079E+06    -60.5909E+06    -258.076E+06    -36.2863E+06     137.154E+03         29.6699
              21     2.83572E-03     61.4837E-03         1.93326     110.940E-03        -2.65498     194.105E-03    -915.824E-03     110.940E-03         4.38268     113.075E-03    -56.3767E-03    -56.6986E-03    -56.3475E-03     113.046E-03    -56.6986E-03     4.39983E-03    -48.2970E+06    -65.1165E+06    -266.637E+06    -65.1187E+06    -266.635E+06    -48.2970E+06     209.952E+03         29.4346
              22     1.89010E-03     61.4795E-03         3.02778     102.904E-03        -3.73536     83.1305E-03    -790.706E-03     102.904E-03     441.092E-03     113.364E-03    -56.5321E-03    -56.8322E-03    -56.6825E-03     113.350E-03    -56.6675E-03     2.95049E-03    -60.7649E+06    -69.9202E+06    -274.352E+06    -69.9219E+06    -274.351E+06    -60.7649E+06    -173.251E+03         29.2714
              23     945.242E-06     61.4776E-03         4.48804     931.775E-03        -6.03283    -715.839E-03    -828.957E-03     931.775E-03         4.25169     113.200E-03    -56.3296E-03    -56.8701E-03    -56.8651E-03     113.195E-03    -56.3296E-03     1.55243E-03    -69.2357E+06    -74.1377E+06    -279.178E+06    -73.2536E+06    -279.154E+06    -70.1433E+06     930.468E+03         29.1732
              24     578.261E-09     60.3593E-03         3.52917         1.77278        -5.96703        -1.09078        -1.65526         2.08096         9.14966     113.454E-03    -56.2688E-03    -57.1852E-03    -57.1843E-03     113.453E-03    -56.2688E-03     523.077E-06    -72.2974E+06    -76.4380E+06    -281.538E+06    -74.8180E+06    -281.525E+06    -73.9308E+06    -669.094E+03         29.1492
              25     326.144E-09     59.2387E-03         2.23994     587.041E-03        -3.51819    -699.531E-03        -2.23161         2.23994         3.07730     113.713E-03    -56.6029E-03    -57.1101E-03    -57.1091E-03     113.712E-03    -56.6029E-03     730.850E-06    -74.4676E+06    -77.6652E+06    -283.890E+06    -76.0434E+06    -283.878E+06    -76.1010E+06    -1.08141E+06         29.1578
              26    -274.455E-09     58.1198E-03         2.12098     410.694E-03        -3.20195    -20.8067E-03        -2.77045         2.12098        -1.84798     113.575E-03    -56.7283E-03    -56.8468E-03    -56.8443E-03     113.573E-03    -56.7283E-03     1.07052E-03    -72.9739E+06    -77.4901E+06    -283.278E+06    -74.5502E+06    -283.266E+06    -75.9259E+06     1.15631E+06         29.1634
              27     424.051E-09     57.0008E-03         2.07129         1.46551        -4.19085     782.875E-03        -3.26800         1.83108        -4.28156     113.890E-03    -56.6424E-03    -57.2480E-03    -57.2453E-03     113.888E-03    -56.6424E-03     1.21519E-03    -71.5381E+06    -78.2369E+06    -283.973E+06    -75.2978E+06    -283.960E+06    -74.4901E+06     1.40837E+06         29.1659
              28     575.531E-09     55.8806E-03         2.16155         1.49679        -4.31316         1.59124        -3.74284         1.49679        -3.34437     113.714E-03    -56.4842E-03    -57.2298E-03    -57.2286E-03     113.713E-03    -56.4842E-03     870.128E-06    -71.8388E+06    -78.2089E+06    -285.022E+06    -75.6014E+06    -285.006E+06    -74.4620E+06    -989.882E+03         29.1654
              29    -154.109E-09     54.7634E-03         2.79119         1.17190        -4.59963         2.48854        -4.29697         1.17190     927.100E-03     113.193E-03    -56.2478E-03    -56.9454E-03    -56.9445E-03     113.192E-03    -56.2478E-03     632.936E-06    -75.9521E+06    -79.0681E+06    -287.563E+06    -76.4602E+06    -287.548E+06    -78.5754E+06    -1.45539E+06         29.1637
              30     1.02225E-06     53.6436E-03         4.92033     997.791E-03        -6.53624         3.30313        -4.91903     997.791E-03         7.59137     113.051E-03    -56.1417E-03    -56.9092E-03    -56.9063E-03     113.048E-03    -56.1417E-03     1.06044E-03    -78.0627E+06    -79.1776E+06    -287.881E+06    -79.1831E+06    -287.876E+06    -78.0627E+06     541.858E+03         29.1625
              31    -431.452E-09     52.5256E-03         8.19101     997.327E-03        -9.80454         3.84868        -5.46221     997.327E-03         15.3090     113.171E-03    -56.3951E-03    -56.7760E-03    -56.7038E-03     113.168E-03    -56.4644E-03     1.16051E-03    -74.3998E+06    -78.1251E+06    -286.275E+06    -75.0348E+06    -286.262E+06    -77.5030E+06     1.64971E+06         29.1627
              32     259.978E-09     51.4079E-03         11.3619         1.12726        -13.1283         4.24580        -6.01229         1.12726         22.2228     113.098E-03    -56.3731E-03    -56.7250E-03    -56.6555E-03     113.098E-03    -56.4425E-03     171.787E-06    -73.1014E+06    -80.1988E+06    -288.405E+06    -77.1140E+06    -288.387E+06    -76.2047E+06    -133.185E+03         29.1652
              33     325.337E-09     50.2887E-03         13.4122         1.46089        -15.4815         4.53116        -6.60041         1.46089         26.6626     112.941E-03    -56.2001E-03    -56.7409E-03    -56.7383E-03     112.938E-03    -56.2001E-03     933.219E-06    -72.4600E+06    -79.1923E+06    -288.767E+06    -76.4771E+06    -288.744E+06    -75.1983E+06     105.779E+03         29.1705
              34     121.919E-09     49.1703E-03         13.7860         1.91797        -16.3376         4.67373        -7.22527         1.91797         27.6692     113.261E-03    -56.4064E-03    -56.8541E-03    -56.8515E-03     113.258E-03    -56.4064E-03     912.418E-06    -70.6510E+06    -76.0005E+06    -286.822E+06    -73.2793E+06    -286.805E+06    -73.3892E+06     455.837E+03         29.1773
              35     269.360E-09     48.0528E-03         12.4349         2.26167        -15.3362         4.74886        -7.65009         2.26167         24.8206     113.321E-03    -56.5121E-03    -56.8087E-03    -56.8068E-03     113.319E-03    -56.5121E-03     776.572E-06    -73.8250E+06    -79.1717E+06    -290.050E+06    -76.4415E+06    -290.045E+06    -76.5604E+06    -930.896E+03         29.1828
              36    -106.117E-09     46.9314E-03         9.81944         2.37636        -12.7978         4.77566        -7.75405         2.37636         18.7145     113.366E-03    -56.5108E-03    -56.8557E-03    -56.8532E-03     113.364E-03    -56.5108E-03     1.26360E-03    -74.3883E+06    -78.3115E+06    -290.260E+06    -75.5943E+06    -290.242E+06    -77.1236E+06     1.14050E+06         29.1852
              37     569.163E-09     45.8157E-03         6.92363         2.23319        -9.75317         4.76593        -7.59548         2.23319         10.7377     113.562E-03    -56.4528E-03    -57.1087E-03    -57.1081E-03     113.561E-03    -56.4528E-03     452.507E-06    -74.6417E+06    -76.5210E+06    -289.563E+06    -75.8867E+06    -289.506E+06    -75.3332E+06    -685.923E+03         29.1845
              38     212.698E-09     44.6952E-03         5.20774         1.82205        -7.58398         4.78394        -7.16019         1.82205         2.52860     112.968E-03    -56.1371E-03    -56.8309E-03    -56.5547E-03     112.967E-03    -56.4127E-03     430.957E-06    -76.1583E+06    -77.8611E+06    -291.765E+06    -76.2061E+06    -291.718E+06    -77.8611E+06    -1.10811E+06         29.1830
              39    -748.350E-09     43.5772E-03         5.44344         1.23929        -7.17299         4.86985        -6.59939         1.23929        -4.40122     112.624E-03    -55.7619E-03    -56.8625E-03    -56.5860E-03     112.623E-03    -56.0375E-03     799.327E-06    -76.0156E+06    -78.6041E+06    -291.921E+06    -77.6160E+06    -291.898E+06    -77.0269E+06     2.20903E+06         29.1838
              40     2.32708E-06     42.4600E-03         6.58728     601.576E-03        -7.64362         4.95305        -6.00939     601.576E-03        -8.96491     113.013E-03    -56.0749E-03    -56.9378E-03    -56.9363E-03     113.011E-03    -56.0749E-03     986.024E-06    -74.5672E+06    -76.9564E+06    -290.348E+06    -77.0001E+06    -290.305E+06    -74.5672E+06    -494.940E+03         29.1887
              41    -2.24772E-06     41.3412E-03         7.22158    -52.7901E-03        -7.57183         4.94196        -5.29221    -52.7901E-03        -10.6742     113.281E-03    -56.5538E-03    -56.7269E-03    -56.5905E-03     113.279E-03    -56.6890E-03     752.922E-06    -74.0206E+06    -78.1429E+06    -291.670E+06    -74.8623E+06    -291.641E+06    -77.3309E+06    -2.07155E+06         29.1969
              42     1.94894E-06     40.2223E-03         6.97469    -613.154E-03        -6.70566         4.78736        -4.51833    -613.154E-03        -10.0263     113.786E-03    -56.5079E-03    -57.2782E-03    -57.1425E-03     113.786E-03    -56.6431E-03     550.473E-06    -71.8029E+06    -79.0162E+06    -292.292E+06    -75.7094E+06    -292.289E+06    -75.1132E+06     203.873E+03         29.2056
              43    -700.243E-09     39.1031E-03         6.08097    -975.689E-03        -5.43627         4.42751        -3.78281    -975.689E-03        -8.06613     113.665E-03    -56.4871E-03    -57.1777E-03    -57.1217E-03     113.664E-03    -56.5425E-03     556.926E-06    -72.2060E+06    -78.4777E+06    -292.982E+06    -76.1173E+06    -292.974E+06    -74.5747E+06    -277.053E+03         29.2119
              44     564.905E-09     37.9837E-03         4.99479        -1.16366        -4.16335         3.89191        -3.06048        -1.16366        -5.95428     113.491E-03    -56.4994E-03    -56.9916E-03    -56.9346E-03     113.489E-03    -56.5548E-03     860.010E-06    -74.7813E+06    -78.4305E+06    -294.571E+06    -76.0753E+06    -294.557E+06    -77.1500E+06     121.434E+03         29.2149
              45     273.874E-09     36.8654E-03         4.18786        -1.20015        -3.32051         3.22189        -2.35453        -1.20015        -5.00550     113.687E-03    -56.5248E-03    -57.1619E-03    -57.1604E-03     113.685E-03    -56.5248E-03     790.587E-06    -76.6320E+06    -78.0986E+06    -295.852E+06    -77.9328E+06    -295.832E+06    -76.8182E+06    -255.763E+03         29.2160
              46     102.630E-09     35.7458E-03         4.14464        -1.11883        -3.37945         2.42135        -1.65615        -1.11883        -6.18650     113.286E-03    -56.3912E-03    -56.8951E-03    -56.8936E-03     113.285E-03    -56.3912E-03     766.037E-06    -78.8519E+06    -79.4715E+06    -297.661E+06    -78.8739E+06    -297.639E+06    -79.4715E+06    -159.922E+03         29.2172
              47     462.831E-09     34.6274E-03         5.34081        -1.04707        -4.65915         1.66261    -980.958E-03        -1.04707        -9.56412     113.235E-03    -56.2665E-03    -56.9681E-03    -56.9660E-03     113.233E-03    -56.2665E-03     1.17602E-03    -78.3579E+06    -79.2612E+06    -297.260E+06    -78.8371E+06    -297.250E+06    -78.7913E+06     996.381E+03         29.2200
              48     293.654E-09     33.5091E-03         7.64639        -1.08089        -6.93652         1.04254    -332.660E-03        -1.08089        -14.4912     113.631E-03    -56.5702E-03    -57.0610E-03    -57.0579E-03     113.628E-03    -56.5702E-03     1.39228E-03    -76.7014E+06    -78.2490E+06    -296.289E+06    -77.2011E+06    -296.259E+06    -77.7792E+06     1.79551E+06         29.2247
              49    -136.965E-09     32.3886E-03         10.3907        -1.21582        -9.53370     506.270E-03     350.688E-03        -1.21582        -19.9135     113.449E-03    -56.6643E-03    -56.7848E-03    -56.7823E-03     113.447E-03    -56.6643E-03     1.11249E-03    -75.7822E+06    -77.5936E+06    -296.116E+06    -76.5670E+06    -296.065E+06    -76.8599E+06     286.507E+03         29.2301
              50     198.874E-09     31.2720E-03         12.8195        -1.49561        -11.6464     154.369E-03         1.01876        -1.49561        -24.4482     113.196E-03    -56.3693E-03    -56.8271E-03    -56.8263E-03     113.196E-03    -56.3693E-03     698.620E-06    -74.8584E+06    -75.6858E+06    -294.274E+06    -75.7122E+06    -294.248E+06    -74.8584E+06    -2.27375E+06         29.2350
              51     614.752E-09     30.1529E-03         14.2318        -1.88335        -12.6274     15.0299E-03         1.58939        -1.88335        -26.8117     113.680E-03    -56.4356E-03    -57.2442E-03    -57.2429E-03     113.679E-03    -56.4356E-03     932.246E-06    -74.5843E+06    -75.1713E+06    -294.060E+06    -74.7028E+06    -294.035E+06    -75.0776E+06    -2.22349E+06         29.2393
              52     93.7409E-09     29.0328E-03         14.1916        -2.25052        -12.1628    -79.4913E-03         2.10826        -2.25052        -26.2604     113.504E-03    -56.4808E-03    -57.0233E-03    -57.0227E-03     113.504E-03    -56.4808E-03     552.884E-06    -76.2621E+06    -77.2810E+06    -296.878E+06    -76.8234E+06    -296.842E+06    -76.7555E+06    -148.918E+03         29.2429
              53     223.480E-09     27.9156E-03         12.7820        -2.62929        -10.3178    -231.824E-03         2.69604        -2.62929        -22.9022     113.370E-03    -56.3960E-03    -56.9737E-03    -56.9721E-03     113.368E-03    -56.3960E-03     855.651E-06    -77.3509E+06    -78.4647E+06    -298.327E+06    -78.4861E+06    -298.306E+06    -77.3509E+06     553.626E+03         29.2440
              54     562.811E-09     26.7955E-03         10.3116        -2.96461        -7.44652    -437.768E-03         3.30288        -2.96461        -17.3259     114.057E-03    -56.6615E-03    -57.3960E-03    -57.3924E-03     114.054E-03    -56.6615E-03     1.56864E-03    -77.6146E+06    -79.8923E+06    -299.717E+06    -78.2230E+06    -299.696E+06    -79.3040E+06     507.791E+03         29.2421
              55     17.5276E-09     25.6745E-03         7.31033        -2.99073        -4.36253    -694.222E-03         3.65392        -3.00263        -10.7136     113.564E-03    -56.5392E-03    -57.0251E-03    -56.8574E-03     113.562E-03    -56.7042E-03     1.31367E-03    -76.4755E+06    -78.9437E+06    -299.760E+06    -77.2704E+06    -299.744E+06    -78.1650E+06     893.937E+03         29.2369
              56    -321.189E-09     24.5590E-03         4.89302        -2.12669        -2.75221    -984.029E-03         3.75037        -2.75221        -4.77953     112.899E-03    -56.1915E-03    -56.7078E-03    -56.5416E-03     112.898E-03    -56.3565E-03     874.095E-06    -76.5106E+06    -78.4371E+06    -299.324E+06    -77.2907E+06    -299.323E+06    -77.6584E+06    -357.697E+03         29.2264
              57     969.367E-09     23.4390E-03         3.89033        -1.44174        -2.39003        -1.31925         3.76784        -2.39003    -834.633E-03     112.766E-03    -56.0157E-03    -56.7500E-03    -56.7495E-03     112.765E-03    -56.0157E-03     486.871E-06    -77.7976E+06    -80.1775E+06    -300.290E+06    -79.0402E+06    -300.280E+06    -78.9454E+06    -1.04624E+06         29.2072
              58    -229.701E-09     22.3231E-03         3.70668        -1.58009        -2.04026        -1.69915         3.70023        -1.91475     211.331E-03     112.282E-03    -55.9121E-03    -56.3697E-03    -56.2948E-03     112.281E-03    -55.9866E-03     392.946E-06    -79.5762E+06    -82.1600E+06    -302.291E+06    -80.8198E+06    -302.279E+06    -80.9280E+06    -1.41215E+06         29.1738
              59     70.4267E-09     21.2048E-03         3.89638        -1.41438        -2.34850        -2.02439         3.57226        -1.41438        -2.06933     112.019E-03    -55.7153E-03    -56.3034E-03    -56.2284E-03     112.018E-03    -55.7899E-03     551.868E-06    -81.9275E+06    -84.9192E+06    -303.891E+06    -83.5714E+06    -303.887E+06    -83.2793E+06    -902.064E+03         29.1181
              60     920.931E-09     20.0869E-03         5.32313        -1.03129        -4.12006        -2.23646         3.43953        -1.03129        -7.26271     111.597E-03    -55.4389E-03    -56.1584E-03    -56.1571E-03     111.596E-03    -55.4389E-03     852.875E-06    -80.4609E+06    -83.6333E+06    -302.277E+06    -82.1220E+06    -302.256E+06    -81.9933E+06     857.229E+03         29.0292
              61    -554.780E-09     18.9723E-03         8.18819    -829.114E-03        -7.11784        -2.31508         3.38543    -829.114E-03        -14.1372     110.743E-03    -55.2169E-03    -55.5263E-03    -55.5249E-03     110.742E-03    -55.2169E-03     244.017E-06    -76.4537E+06    -80.1280E+06    -300.527E+06    -78.6148E+06    -300.508E+06    -77.9861E+06     1.09933E+06         28.8920
              62     775.554E-09     17.8561E-03         11.6054    -893.827E-03        -10.3936        -2.28478         3.49662    -893.827E-03        -21.2088     109.271E-03    -54.3444E-03    -54.9262E-03    -54.9253E-03     109.270E-03    -54.3444E-03     32.2050E-06    -76.0564E+06    -80.2623E+06    -299.315E+06    -78.2178E+06    -299.296E+06    -78.1204E+06     1.10126E+06         28.6891
              63     101.585E-09     16.7425E-03         14.6056        -1.10180        -13.1108        -2.11255         3.60733        -1.10180        -27.1122     106.608E-03    -53.0419E-03    -53.5665E-03    -53.5659E-03     106.608E-03    -53.0419E-03     180.138E-06    -78.8133E+06    -82.9952E+06    -299.403E+06    -80.9505E+06    -299.384E+06    -80.8772E+06     1.72733E+06         28.4059
              64     12.2585E-09     15.6344E-03         16.4317        -1.30038        -14.6217        -1.71818         3.52818        -1.30038        -30.6026     102.246E-03    -50.9344E-03    -51.3117E-03    -51.3072E-03     102.242E-03    -50.9344E-03    -1.34397E-03    -79.2557E+06    -83.3940E+06    -301.259E+06    -81.3787E+06    -301.254E+06    -81.2760E+06    -373.556E+03         28.0365
              65     583.611E-09     14.5311E-03         16.8173        -1.49846        -14.6983        -1.24848         3.36751        -1.49846        -31.1749     95.6236E-03    -47.5087E-03    -48.1150E-03    -48.1052E-03     95.6139E-03    -47.5087E-03    -2.36091E-03    -77.5101E+06    -80.3939E+06    -299.800E+06    -78.3788E+06    -299.794E+06    -79.5303E+06    -1.02125E+06         27.5903
              66    -55.3691E-09     13.4363E-03         15.9212        -1.58776        -13.6080    -881.672E-03         3.19483        -1.58776        -29.2464     87.1665E-03    -43.3888E-03    -43.7777E-03    -43.7645E-03     87.1533E-03    -43.3888E-03    -2.60707E-03    -72.2219E+06    -74.3979E+06    -293.622E+06    -73.1012E+06    -293.606E+06    -73.5344E+06     932.873E+03         27.0985
              67     244.961E-09     12.3511E-03         14.1349        -1.51162        -11.7999    -561.077E-03         2.89607        -1.51162        -25.7031     77.5117E-03    -38.6974E-03    -38.8143E-03    -38.7960E-03     77.4934E-03    -38.6974E-03    -2.89621E-03    -64.2034E+06    -65.9250E+06    -285.706E+06    -64.6663E+06    -285.652E+06    -65.5159E+06     3.35359E+06         26.6185
              68    -249.865E-09     11.2779E-03         11.9460        -1.32434        -9.66968    -263.606E-03         2.53993        -1.32434        -21.4331     67.6251E-03    -33.5585E-03    -34.0666E-03    -34.0327E-03     67.5912E-03    -33.5585E-03    -3.61224E-03    -55.6661E+06    -56.5559E+06    -277.193E+06    -56.5956E+06    -277.153E+06    -55.6661E+06     1.80320E+06         26.2334
              69     1.18990E-06     10.2157E-03         9.73783        -1.02716        -7.63884    -87.8060E-03         2.18680        -1.02716        -17.2271     58.6895E-03    -29.0547E-03    -29.6348E-03    -29.5973E-03     58.6520E-03    -29.0547E-03    -3.62148E-03    -49.8663E+06    -51.0397E+06    -272.214E+06    -50.3940E+06    -272.167E+06    -50.5590E+06     2.00082E+06         26.0440
              70    -1.08025E-06     9.15981E-03         7.88542    -671.063E-03        -6.06194     12.1895E-03         1.81129    -671.063E-03        -13.8307     52.6978E-03    -26.3038E-03    -26.3940E-03    -26.3577E-03     52.6765E-03    -26.3187E-03    -2.56746E-03    -45.9768E+06    -48.4474E+06    -268.912E+06    -47.8096E+06    -268.857E+06    -46.6696E+06     3.24241E+06         26.1532
              71     1.05768E-06     8.11060E-03         6.50962    -326.830E-03        -4.92649     154.320E-03         1.42881    -326.830E-03        -11.3637     52.8769E-03    -26.3102E-03    -26.5667E-03    -26.5445E-03     52.8697E-03    -26.3252E-03    -1.05320E-03    -43.8879E+06    -45.9105E+06    -266.529E+06    -45.9305E+06    -266.509E+06    -43.8879E+06    -157.179E+03         26.6477
              72    -581.584E-09     7.05594E-03         5.53409     19.2357E-03        -4.20849     313.695E-03         1.01190     19.2357E-03        -9.71434     61.7703E-03    -30.7621E-03    -31.0082E-03    -31.0009E-03     61.7676E-03    -30.7667E-03     734.013E-06    -48.6419E+06    -50.0349E+06    -271.200E+06    -48.9118E+06    -271.175E+06    -49.7900E+06    -2.36014E+06         27.5838
              73     571.798E-09     5.98809E-03         4.96359     356.957E-03        -3.92519     457.016E-03     581.383E-03     356.957E-03        -8.88354     82.2776E-03    -41.0116E-03    -41.2660E-03    -41.2239E-03     82.2402E-03    -41.0163E-03     3.90376E-03    -53.5733E+06    -55.6711E+06    -277.992E+06    -54.5369E+06    -277.978E+06    -54.7215E+06    -1.04446E+06         28.9734
              74    -87.8459E-09     4.88799E-03         4.69438     567.695E-03        -3.80019     643.575E-03     250.609E-03     567.695E-03        -8.48199     115.493E-03    -57.4700E-03    -58.0234E-03    -57.6335E-03     115.407E-03    -57.7737E-03     7.72539E-03    -53.7999E+06    -56.2056E+06    -279.857E+06    -54.8022E+06    -279.804E+06    -55.2560E+06    -2.24590E+06         30.7703
              75    -503.799E-09     3.74626E-03         4.45051     645.904E-03        -3.58374     884.245E-03    -17.4688E-03     645.904E-03        -7.97750     158.992E-03    -79.1679E-03    -79.8240E-03    -79.4230E-03     158.895E-03    -79.4716E-03     9.58345E-03    -55.6663E+06    -57.4866E+06    -282.946E+06    -55.7399E+06    -282.873E+06    -57.4866E+06    -877.412E+03         32.8599
              76     1.17478E-06     2.54773E-03         3.86915     666.755E-03        -2.98352         1.18873    -303.107E-03     666.755E-03        -6.66754     204.973E-03    -102.298E-03    -102.674E-03    -102.605E-03     204.904E-03    -102.298E-03     8.98446E-03    -54.8001E+06    -57.4590E+06    -283.640E+06    -57.1166E+06    -283.618E+06    -55.1643E+06     1.80945E+06         35.0685
              77    -1.10008E-06     1.29090E-03         2.72328     600.694E-03        -1.71849         1.46722    -462.429E-03     600.694E-03        -3.87923     240.840E-03    -120.131E-03    -120.709E-03    -120.681E-03     240.812E-03    -120.131E-03     5.88701E-03    -51.5875E+06    -54.8098E+06    -280.151E+06    -53.8987E+06    -280.134E+06    -52.5151E+06     1.59616E+06         37.2057
              78     876.593E-06    -62.4500E-18         1.67435     824.300E-03    -882.116E-03         1.39860    -606.360E-03     824.300E-03    -531.685E-03     251.915E-03    -124.992E-03    -126.922E-03    -125.527E-03     251.896E-03    -126.369E-03     5.13891E-03    -50.4796E+06    -52.6722E+06    -279.623E+06    -51.7638E+06    -279.604E+06    -51.4071E+06     731.279E+03         38.1625
              79     1.76028E-03    -62.4500E-18         1.22454         1.03802    -627.235E-03         1.08458    -555.077E-03         1.10582     324.906E-03     244.528E-03    -119.806E-03    -124.721E-03    -119.747E-03     244.468E-03    -124.721E-03     8.90151E-03    -51.3761E+06    -52.8396E+06    -279.806E+06    -52.6447E+06    -279.802E+06    -51.5745E+06    -452.147E+03         37.9624
              80     2.64629E-03    -62.4500E-18         1.07448     944.397E-03    -360.731E-03     920.425E-03    -336.759E-03         1.07448    -3.50562E-03     233.751E-03    -111.930E-03    -121.821E-03    -111.813E-03     233.634E-03    -121.821E-03     12.6068E-03    -53.0748E+06    -54.0079E+06    -280.178E+06    -53.0750E+06    -280.177E+06    -54.0079E+06     181.490E+03         37.6552
              81     3.54499E-03    -62.4500E-18         1.01623     773.550E-03    -132.908E-03     761.172E-03    -120.530E-03         1.01623     165.707E-03     220.730E-03    -102.554E-03    -118.176E-03    -102.379E-03     220.555E-03    -118.176E-03     14.9195E-03    -52.8953E+06    -56.3079E+06    -280.710E+06    -52.9007E+06    -280.704E+06    -56.3079E+06    -765.755E+03         37.2616
              82     4.45035E-03    -62.4500E-18     942.221E-03     550.445E-03     156.085E-03     534.210E-03     172.320E-03     942.221E-03     70.1751E-03     206.860E-03    -92.8330E-03    -114.027E-03    -92.5991E-03     206.626E-03    -114.027E-03     16.6867E-03    -52.1532E+06    -60.3857E+06    -282.607E+06    -52.1879E+06    -282.573E+06    -60.3857E+06    -2.63326E+06         36.8117
              83     5.36668E-03    -62.4500E-18     855.940E-03     539.935E-03     237.688E-03     334.014E-03     443.609E-03     855.940E-03     123.441E-03     192.928E-03    -83.3400E-03    -109.587E-03    -83.0575E-03     192.645E-03    -109.587E-03     17.6305E-03    -49.7825E+06    -69.5736E+06    -285.069E+06    -49.9159E+06    -284.936E+06    -69.5736E+06    -5.36141E+06         36.3431
              84     6.29128E-03    -62.4500E-18     812.845E-03     661.962E-03     156.390E-03     159.559E-03     705.046E-03     766.593E-03     70.4064E-03     179.312E-03    -74.3219E-03    -104.990E-03    -73.9961E-03     178.986E-03    -104.990E-03     18.1384E-03    -44.8861E+06    -85.7858E+06    -277.128E+06    -45.1532E+06    -276.861E+06    -85.7858E+06    -7.81175E+06         35.8996
              85     7.22409E-03    -62.4500E-18     926.451E-03     679.623E-03     24.5626E-03     25.8413E-03     925.172E-03     679.623E-03     67.7235E-03     167.247E-03    -66.8295E-03    -100.418E-03    -66.4493E-03     166.867E-03    -100.418E-03     18.8193E-03    -38.3553E+06    -102.287E+06    -249.162E+06    -38.8474E+06    -248.670E+06    -102.287E+06    -9.94690E+06         35.5294
              86     8.16464E-03    -62.4500E-18         1.14123     596.349E-03    -117.059E-03    -116.206E-03         1.14038     596.349E-03     39.8873E-03     157.218E-03    -61.1324E-03    -96.0853E-03    -60.6738E-03     156.759E-03    -96.0853E-03     19.9460E-03    -29.6380E+06    -111.831E+06    -204.923E+06    -30.4822E+06    -204.079E+06    -111.831E+06    -11.9659E+06         35.2858
              87     9.10482E-03    -62.4500E-18         1.35679     514.415E-03    -275.131E-03    -274.694E-03         1.35636     514.415E-03     36.8508E-03     148.041E-03    -55.9976E-03    -92.0434E-03    -55.4977E-03     147.541E-03    -92.0434E-03     20.1727E-03    -19.2363E+06    -118.615E+06    -152.113E+06    -20.4009E+06    -150.948E+06    -118.615E+06    -12.2528E+06         35.2326
              88     10.0589E-03    -62.4500E-18         1.58014     432.145E-03    -444.786E-03    -444.351E-03         1.57971     432.145E-03     39.2132E-03     140.501E-03    -52.1820E-03    -88.3189E-03    -51.5805E-03     139.899E-03    -88.3189E-03     21.3895E-03    -9.96337E+06    -88.2546E+06    -119.660E+06    -11.6719E+06    -87.0039E+06    -119.202E+06    -10.8484E+06         35.4494
              89     11.0034E-03    -62.4500E-18         1.78244     350.556E-03    -581.518E-03    -581.435E-03         1.78235     350.556E-03     19.7224E-03     135.254E-03    -50.2241E-03    -85.0300E-03    -49.5186E-03     134.549E-03    -85.0300E-03     22.8335E-03     16.1569E+06    -28.9657E+06    -102.181E+06    -6.02911E+06     -6.7797E+06    -102.181E+06    -6.74567E+06         36.0316
              90     11.9627E-03    -62.4500E-18         1.95955     272.634E-03    -674.755E-03    -674.617E-03         1.95941     272.634E-03     3.07603E-03     132.123E-03    -49.7873E-03    -82.3360E-03    -48.7901E-03     131.126E-03    -82.3360E-03     26.5494E-03     60.9664E+06    -6.38105E+06    -56.3367E+06    -6.16755E+06     60.7529E+06    -56.3367E+06    -255.399E+03         37.0730
              91     12.9026E-03    -62.4500E-18         2.11831     200.389E-03    -739.099E-03    -739.028E-03         2.11824     200.389E-03    -27.3654E-03     131.648E-03    -51.4327E-03    -80.2152E-03    -49.9267E-03     130.142E-03    -80.2152E-03     32.9986E-03     95.8351E+06     10.6130E+06    -17.9379E+06    -9.99270E+06     95.5770E+06     2.92592E+06     5.07204E+06         38.6183
              92     13.8604E-03    -62.4500E-18         2.28117     133.760E-03    -805.021E-03    -804.986E-03         2.28114     133.760E-03    -20.6431E-03     135.064E-03    -56.4811E-03    -78.5832E-03    -53.7078E-03     132.291E-03    -78.5832E-03     45.0225E-03     108.646E+06     51.8016E+06    -12.8689E+06    -12.6399E+06     108.417E+06     51.8016E+06     4.73623E+06         40.5947
              93     14.7827E-03    -62.4500E-18         2.47419     70.9814E-03    -892.664E-03    -892.641E-03         2.47417     70.9814E-03    -16.9505E-03     138.386E-03    -61.0260E-03    -77.3603E-03    -55.1840E-03     132.544E-03    -77.3603E-03     66.1898E-03     114.220E+06     93.1984E+06    -7.94956E+06    -7.92371E+06     114.195E+06     93.1984E+06     1.44888E+06         42.7721
              94     15.7188E-03    -62.4500E-18         2.79200     9.09838E-03        -1.05418        -1.05241         2.79023     9.09838E-03     114.974E-03     174.727E-03    -69.5913E-03    -105.135E-03    -81.5074E-03     158.570E-03    -77.0631E-03     127.342E-03     138.457E+06     126.327E+06     8.96882E+06     9.00993E+06     129.625E+06     135.118E+06     1.76246E+06         44.7612
              95     16.7193E-03     1.28774E-03         2.87400    -34.9552E-03        -1.13822        -1.13141         2.86718    -34.9552E-03     318.291E-03     187.366E-03    -74.6663E-03    -112.699E-03    -88.6987E-03     163.365E-03    -74.6663E-03     162.399E-03     145.975E+06     134.674E+06     5.35141E+06     5.76417E+06     134.262E+06     145.975E+06     6.62320E+06         45.4103
              96     16.8107E-03     2.37843E-03         2.67676    -65.2685E-03        -1.07227        -1.06407         2.66856    -65.2685E-03     348.474E-03     151.707E-03    -69.5710E-03    -82.1363E-03    -64.8438E-03     134.415E-03    -69.5710E-03     121.042E-03     133.075E+06     128.868E+06    -7.91249E+06    -7.05964E+06     128.016E+06     133.075E+06     10.7400E+06         45.2213
              97     16.8811E-03     3.49303E-03         2.58282    -105.202E-03        -1.00954        -1.00492         2.57820    -105.202E-03     253.480E-03     145.126E-03    -64.9032E-03    -80.2223E-03    -73.6254E-03     138.529E-03    -64.9032E-03     69.6605E-03     132.487E+06     130.381E+06    -6.65334E+06    -5.89119E+06     130.027E+06     132.078E+06     10.1040E+06         45.4296
              98     16.9346E-03     4.67124E-03         2.53528    -157.528E-03    -961.197E-03    -959.024E-03         2.53311    -157.528E-03     171.591E-03     148.348E-03    -61.3027E-03    -87.0457E-03    -84.8931E-03     146.196E-03    -61.3027E-03     44.8128E-03     133.655E+06     132.403E+06    -7.54187E+06    -7.14870E+06     133.262E+06     132.403E+06     7.24652E+06         45.7648
              99     16.9753E-03     5.82793E-03         2.50058    -225.889E-03    -910.760E-03    -909.582E-03         2.49941    -225.889E-03     126.265E-03     143.625E-03    -58.9741E-03    -84.6512E-03    -82.9478E-03     141.922E-03    -58.9741E-03     38.9794E-03     135.370E+06     134.040E+06    -4.96965E+06    -4.84483E+06     134.758E+06     134.527E+06     3.77113E+06         46.1256
             100     16.9992E-03     6.98618E-03         2.45500    -313.440E-03    -845.648E-03    -844.619E-03         2.45397    -313.440E-03     116.412E-03     140.128E-03    -57.4739E-03    -82.6540E-03    -81.5501E-03     139.024E-03    -57.4739E-03     31.2202E-03     134.527E+06     132.321E+06    -4.05293E+06    -4.03442E+06     132.303E+06     134.527E+06     1.54964E+06         46.4859
             101     17.0134E-03     8.13691E-03         2.38446    -421.939E-03    -770.161E-03    -768.530E-03         2.38283    -421.939E-03     141.159E-03     137.120E-03    -56.6158E-03    -80.5047E-03    -79.6376E-03     136.253E-03    -56.6158E-03     27.3947E-03     131.112E+06     128.712E+06    -4.47615E+06    -4.47028E+06     128.706E+06     131.112E+06     800.252E+03         46.8214
             102     17.0211E-03     9.28646E-03         2.29283    -549.171E-03    -692.412E-03    -689.826E-03         2.29024    -549.171E-03     174.800E-03     134.306E-03    -56.2235E-03    -78.0828E-03    -77.1655E-03     133.389E-03    -56.2235E-03     27.7689E-03     129.837E+06     128.379E+06    -5.23108E+06    -5.22995E+06     129.155E+06     129.061E+06     389.037E+03         47.1098
             103     17.0217E-03     10.4362E-03         2.17835    -584.473E-03    -707.555E-03    -599.343E-03         2.17473    -689.066E-03     199.461E-03     131.605E-03    -56.1432E-03    -75.4617E-03    -74.3245E-03     130.468E-03    -56.1432E-03     30.5737E-03     130.544E+06     128.439E+06    -5.74376E+06    -5.74322E+06     130.543E+06     128.439E+06     124.813E+03         47.3413
             104     17.0233E-03     11.5714E-03         2.04875    -505.175E-03    -833.007E-03    -500.007E-03         2.04358    -833.007E-03     228.049E-03     127.051E-03    -56.2136E-03    -70.8375E-03    -69.7489E-03     125.962E-03    -56.2136E-03     29.2415E-03     133.508E+06     129.557E+06    -3.21718E+06    -3.21419E+06     133.505E+06     129.557E+06     392.834E+03         47.5226
             105     17.0232E-03     12.7030E-03         1.92400    -411.749E-03    -971.586E-03    -404.788E-03         1.91703    -971.586E-03     253.752E-03     121.790E-03    -56.3302E-03    -65.4600E-03    -64.4380E-03     120.768E-03    -56.3302E-03     27.5619E-03     134.307E+06     128.250E+06    -4.44881E+06    -4.44586E+06     134.304E+06     128.250E+06     471.670E+03         47.6689
             106     17.0237E-03     13.8312E-03         1.82431    -329.952E-03        -1.09713    -320.968E-03         1.81532        -1.09713     276.689E-03     117.984E-03    -56.4401E-03    -61.5436E-03    -60.4677E-03     116.908E-03    -56.4401E-03     27.7118E-03     135.268E+06     128.433E+06    -3.90323E+06    -3.90322E+06     135.268E+06     128.433E+06     20.4133E+03         47.7957
             107     17.0231E-03     14.9511E-03         1.74987    -265.617E-03        -1.20465    -254.425E-03         1.73868        -1.20465     298.963E-03     115.249E-03    -56.5271E-03    -58.7223E-03    -57.7141E-03     114.241E-03    -56.5271E-03     26.4056E-03     137.218E+06     129.713E+06    -2.98368E+06    -2.98326E+06     137.218E+06     129.713E+06    -171.621E+03         47.9114
             108     17.0234E-03     16.0746E-03         1.70306    -217.330E-03        -1.29133    -204.691E-03         1.69042        -1.29133     310.464E-03     113.574E-03    -56.5733E-03    -57.0007E-03    -56.0112E-03     112.598E-03    -56.5864E-03     25.7336E-03     136.573E+06     128.284E+06    -4.07447E+06    -4.07377E+06     136.572E+06     128.284E+06    -32.0411E+03         48.0176
             109     17.0224E-03     17.1900E-03         1.66651    -180.424E-03        -1.35716    -167.647E-03         1.65373        -1.35716     306.172E-03     112.766E-03    -56.1585E-03    -56.6079E-03    -55.3837E-03     111.992E-03    -56.6079E-03     22.5897E-03     137.900E+06     129.012E+06    -3.15416E+06    -3.15181E+06     137.898E+06     129.012E+06    -243.089E+03         48.1132
             110     17.0240E-03     18.3068E-03         1.60877    -136.163E-03        -1.40376    -123.603E-03         1.59621        -1.40376     294.960E-03     112.046E-03    -55.4512E-03    -56.5950E-03    -54.7963E-03     111.391E-03    -56.5950E-03     20.8352E-03     137.718E+06     128.046E+06    -4.06827E+06    -4.05644E+06     137.706E+06     128.046E+06    -1.21530E+06         48.1954
             111     17.0236E-03     19.4312E-03         1.53765    -99.3959E-03        -1.43195    -87.4227E-03         1.52568        -1.43195     278.958E-03     111.985E-03    -55.3960E-03    -56.5895E-03    -54.5112E-03     111.101E-03    -56.5895E-03     24.2142E-03     136.966E+06     127.847E+06    -3.70066E+06    -3.68797E+06     136.953E+06     127.847E+06    -1.28323E+06         48.2621
             112     17.0238E-03     20.5493E-03         1.44441    -67.2287E-03        -1.44174    -57.6629E-03         1.43485        -1.44174     239.197E-03     112.262E-03    -55.6723E-03    -56.5902E-03    -54.7107E-03     111.301E-03    -56.5902E-03     25.3332E-03     136.715E+06     128.153E+06    -3.74477E+06    -3.73579E+06     136.706E+06     128.153E+06    -1.10594E+06         48.3141
             113     17.0236E-03     21.6662E-03         1.29948    -11.0283E-03        -1.43284    -3.61204E-03         1.29206        -1.43284     196.569E-03     112.719E-03    -56.1385E-03    -56.5807E-03    -55.2524E-03     111.833E-03    -56.5807E-03     24.3964E-03     135.490E+06     127.580E+06    -3.21658E+06    -3.20999E+06     135.484E+06     127.580E+06     -845.24E+03         48.3546
             114     17.0233E-03     22.7891E-03         1.11479     50.7915E-03        -1.40357     57.8773E-03         1.10770        -1.40357     172.740E-03     112.736E-03    -56.1494E-03    -56.5862E-03    -55.2607E-03     111.847E-03    -56.5862E-03     24.4341E-03     134.880E+06     126.971E+06    -3.40772E+06    -3.40714E+06     134.879E+06     126.971E+06    -245.259E+03         48.3868
             115     17.0236E-03     23.9059E-03     905.266E-03     111.550E-03        -1.35137     117.977E-03     898.839E-03        -1.35137     142.165E-03     111.925E-03    -55.3205E-03    -56.6041E-03    -54.4188E-03     111.023E-03    -56.6041E-03     24.4936E-03     135.339E+06     126.102E+06    -2.71203E+06    -2.70747E+06     135.335E+06     126.102E+06     497.149E+03         48.4142
             116     17.0233E-03     25.0258E-03     673.483E-03     173.305E-03        -1.27413     180.008E-03     666.779E-03        -1.27413     112.098E-03     111.616E-03    -55.0143E-03    -56.6019E-03    -54.1473E-03     110.749E-03    -56.6019E-03     23.9743E-03     136.745E+06     125.633E+06    -3.65516E+06    -3.65065E+06     136.740E+06     125.633E+06     548.774E+03         48.4406
             117     17.0241E-03     26.1402E-03     443.067E-03     213.207E-03        -1.16909     238.233E-03     418.040E-03        -1.16909     103.684E-03     111.558E-03    -54.9853E-03    -56.5732E-03    -54.1980E-03     110.771E-03    -56.5732E-03     22.8300E-03     137.592E+06     125.532E+06    -4.14232E+06    -4.13327E+06     137.583E+06     125.532E+06    -793.748E+03         48.4668
             118     17.0246E-03     27.2620E-03     324.137E-03     130.483E-03        -1.03359     289.003E-03     165.617E-03        -1.03359     93.1784E-03     112.213E-03    -55.6382E-03    -56.5750E-03    -54.6791E-03     111.254E-03    -56.5750E-03     25.1263E-03     139.152E+06     127.278E+06    -3.53417E+06    -3.51019E+06     139.128E+06     127.278E+06     258.417E+03         48.4913
             119     17.0222E-03     28.3860E-03     327.563E-03    -76.0067E-03    -866.875E-03     323.427E-03    -71.8710E-03    -866.875E-03     74.5033E-03     112.828E-03    -56.2218E-03    -56.6062E-03    -55.1331E-03     111.739E-03    -56.6062E-03     27.0154E-03     140.321E+06     127.382E+06    -4.07387E+06    -4.05741E+06     140.305E+06     127.382E+06     1.37685E+06         48.5138
             120     17.0235E-03     29.4975E-03     344.468E-03    -292.093E-03    -670.576E-03     342.967E-03    -290.592E-03    -670.576E-03     58.8863E-03     111.799E-03    -55.1916E-03    -56.6073E-03    -54.3285E-03     110.936E-03    -56.6073E-03     23.8950E-03     139.801E+06     126.137E+06    -3.19510E+06    -3.18928E+06     139.795E+06     126.137E+06     885.307E+03         48.5359
             121     17.0242E-03     30.6171E-03     350.342E-03    -364.673E-03    -575.949E-03     349.815E-03    -490.596E-03    -449.499E-03     38.6673E-03     111.169E-03    -54.5800E-03    -56.5893E-03    -53.7639E-03     110.353E-03    -56.5893E-03     23.1793E-03     140.378E+06     125.375E+06    -5.03849E+06    -5.01810E+06     140.358E+06     125.375E+06    -527.703E+03         48.5581
             122     17.0236E-03     31.7382E-03     355.341E-03    -211.635E-03    -684.085E-03     355.246E-03    -683.990E-03    -211.635E-03     11.2194E-03     111.334E-03    -54.7496E-03    -56.5847E-03    -53.7839E-03     110.369E-03    -56.5847E-03     25.2355E-03     140.449E+06     125.201E+06    -3.82330E+06    -3.79947E+06     140.425E+06     125.201E+06    -1.82679E+06         48.5795
             123     17.0242E-03     32.8532E-03     358.427E-03     32.7697E-03    -881.977E-03     358.377E-03    -881.927E-03     32.7697E-03    -13.4045E-03     111.610E-03    -55.0209E-03    -56.5892E-03    -54.0332E-03     110.622E-03    -56.5892E-03     25.5702E-03     138.862E+06     126.713E+06    -2.45634E+06    -2.44316E+06     138.849E+06     126.713E+06    -123.690E+03         48.6006
             124     17.0234E-03     33.9743E-03     374.893E-03     251.337E-03        -1.08035     351.472E-03        -1.08019     274.598E-03    -29.8535E-03     112.106E-03    -55.5170E-03    -56.5886E-03    -54.5349E-03     111.124E-03    -56.5886E-03     25.5782E-03     138.491E+06     126.105E+06    -4.06751E+06    -4.06022E+06     138.484E+06     126.105E+06     253.087E+03         48.6224
             125     17.0235E-03     35.0921E-03     507.616E-03     346.584E-03        -1.28089     346.263E-03        -1.28057     507.616E-03    -45.3460E-03     112.261E-03    -55.6827E-03    -56.5781E-03    -54.7097E-03     111.288E-03    -56.5781E-03     25.4825E-03     137.252E+06     124.806E+06    -4.70102E+06    -4.68718E+06     137.238E+06     124.806E+06    -1.27890E+06         48.6458
             126     17.0243E-03     36.2090E-03     727.155E-03     348.367E-03        -1.49267     348.063E-03        -1.49237     727.155E-03    -46.1801E-03     112.672E-03    -56.1054E-03    -56.5666E-03    -55.1717E-03     111.733E-03    -56.5608E-03     25.1121E-03     137.043E+06     126.158E+06    -2.80160E+06    -2.78941E+06     137.031E+06     126.158E+06    -796.626E+03         48.6706
             127     17.0233E-03     37.3338E-03     931.189E-03     362.180E-03        -1.72024     362.083E-03        -1.72014     931.189E-03    -21.6109E-03     112.752E-03    -56.1702E-03    -56.5822E-03    -55.2264E-03     111.803E-03    -56.5765E-03     25.2584E-03     139.163E+06     126.511E+06    -2.58734E+06    -2.54463E+06     139.120E+06     126.511E+06     1.86015E+06         48.6941
             128     17.0233E-03     38.4483E-03         1.12025     376.235E-03        -1.93777     376.130E-03        -1.93766         1.12025     20.0499E-03     112.048E-03    -55.4433E-03    -56.6043E-03    -54.5500E-03     111.154E-03    -56.6043E-03     24.3934E-03     142.051E+06     125.441E+06    -4.51827E+06    -4.45824E+06     141.991E+06     125.441E+06     2.88957E+06         48.7168
             129     17.0232E-03     39.5679E-03         1.29475     388.168E-03        -2.13421     387.450E-03        -2.13349         1.29475     79.1592E-03     111.430E-03    -54.8226E-03    -56.6069E-03    -54.0076E-03     110.614E-03    -56.6069E-03     23.2200E-03     145.710E+06     126.237E+06    -4.84485E+06    -4.81332E+06     145.679E+06     126.237E+06     118.096E+03         48.7402
             130     17.0241E-03     40.6844E-03         1.45451     400.249E-03        -2.31905     398.067E-03        -2.31687         1.45451     150.632E-03     111.228E-03    -54.6339E-03    -56.5940E-03    -53.8070E-03     110.401E-03    -56.5940E-03     23.3550E-03     144.908E+06     126.516E+06    -2.68028E+06    -2.66524E+06     144.893E+06     126.516E+06    -756.100E+03         48.7639
             131     17.0236E-03     41.8045E-03         1.60051     405.873E-03        -2.47863     401.430E-03        -2.47418         1.60051     224.127E-03     111.800E-03    -55.2157E-03    -56.5847E-03    -54.3240E-03     110.909E-03    -56.5847E-03     24.3415E-03     144.747E+06     127.003E+06    -3.60496E+06    -3.59999E+06     144.742E+06     127.003E+06    -275.737E+03         48.7867
             132     17.0236E-03     42.9233E-03         1.73354     407.120E-03        -2.59548     399.776E-03        -2.58813         1.73354     295.058E-03     111.694E-03    -55.1102E-03    -56.5834E-03    -54.2261E-03     110.809E-03    -56.5834E-03     24.2214E-03     146.182E+06     126.653E+06    -3.30373E+06    -3.29732E+06     146.176E+06     126.653E+06    -122.480E+03         48.8077
             133     17.0241E-03     44.0406E-03         1.85098     390.671E-03        -2.66504     380.718E-03        -2.65509         1.85098     347.784E-03     111.312E-03    -54.7247E-03    -56.5871E-03    -53.6945E-03     110.282E-03    -56.5871E-03     25.9860E-03     145.334E+06     125.102E+06    -4.75125E+06    -4.74329E+06     145.326E+06     125.102E+06    -223.653E+03         48.8279
             134     17.0236E-03     45.1628E-03         1.94897     366.254E-03        -2.70191     354.756E-03        -2.69041         1.94897     374.852E-03     112.461E-03    -55.7511E-03    -56.7094E-03    -54.7345E-03     111.313E-03    -56.5789E-03     27.6860E-03     145.918E+06     127.222E+06    -3.68367E+06    -3.67811E+06     145.913E+06     127.222E+06    -720.705E+03         48.8494
             135     17.0233E-03     46.2775E-03         2.02429     343.795E-03        -2.71131     331.831E-03        -2.69935         2.02429     381.619E-03     112.984E-03    -56.2868E-03    -56.6969E-03    -55.5131E-03     112.079E-03    -56.5664E-03     24.5576E-03     146.930E+06     128.489E+06    -2.24687E+06    -2.22220E+06     146.906E+06     128.489E+06     1.29943E+06         48.8719
             136     17.0240E-03     47.3979E-03         2.07172     327.852E-03        -2.70720     316.607E-03        -2.69595         2.07172     368.643E-03     112.066E-03    -55.4959E-03    -56.5696E-03    -54.7173E-03     111.287E-03    -56.5696E-03     22.7708E-03     148.477E+06     127.435E+06    -5.13618E+06    -5.10932E+06     148.450E+06     127.435E+06     953.098E+03         48.8948
             137     17.0240E-03     48.5166E-03         2.08562     326.739E-03        -2.71262     316.992E-03        -2.70287         2.08562     343.328E-03     111.364E-03    -54.7746E-03    -56.5897E-03    -53.9068E-03     110.496E-03    -56.5897E-03     23.9487E-03     149.077E+06     127.746E+06    -4.01217E+06    -3.99936E+06     149.064E+06     127.746E+06    -1.31265E+06         48.9183
             138     17.0235E-03     49.6363E-03         2.06387     343.482E-03        -2.73435     335.694E-03        -2.72657         2.06387     308.332E-03     111.636E-03    -55.0411E-03    -56.5950E-03    -54.0952E-03     110.690E-03    -56.5950E-03     25.0339E-03     146.965E+06     127.161E+06    -3.23764E+06    -3.22695E+06     146.954E+06     127.161E+06    -792.256E+03         48.9439
             139     17.0237E-03     50.7518E-03         2.00636     387.375E-03        -2.76983     381.123E-03        -2.76358         2.00636     280.463E-03     112.368E-03    -55.8114E-03    -56.5562E-03    -54.9400E-03     111.496E-03    -56.5562E-03     24.0827E-03     147.903E+06     127.427E+06    -3.67953E+06    -3.64420E+06     147.868E+06     127.427E+06    -1.54607E+06         48.9724
             140     17.0247E-03     51.8723E-03         1.91436     437.710E-03        -2.80887     431.762E-03        -2.80292         1.91436     277.690E-03     112.353E-03    -55.8085E-03    -56.5446E-03    -54.9178E-03     111.462E-03    -56.5446E-03     24.3276E-03     148.834E+06     128.630E+06    -2.75119E+06    -2.71310E+06     148.796E+06     128.630E+06    -1.18426E+06         49.0007
             141     17.0236E-03     52.9969E-03         1.79321     480.799E-03        -2.82961     475.172E-03        -2.82399         1.79321     272.507E-03     112.109E-03    -55.5143E-03    -56.5952E-03    -54.3225E-03     110.918E-03    -56.5952E-03     28.1062E-03     148.876E+06     128.137E+06    -3.16850E+06    -3.14883E+06     148.857E+06     128.137E+06     1.60613E+06         49.0261
             142     17.0226E-03     54.1127E-03         1.65059     525.063E-03        -2.82044     520.038E-03        -2.81542         1.65059     259.064E-03     112.003E-03    -55.3792E-03    -56.6235E-03    -54.1628E-03     110.786E-03    -56.6235E-03     28.3924E-03     149.157E+06     126.305E+06    -4.56082E+06      -4.539E+06     149.135E+06     126.305E+06     1.76122E+06         49.0503
             143     17.0236E-03     55.2282E-03         1.49333     570.506E-03        -2.77994     565.005E-03        -2.77444         1.49333     270.812E-03     111.906E-03    -55.2872E-03    -56.6185E-03    -54.2961E-03     110.915E-03    -56.6185E-03     25.6384E-03     150.787E+06     127.624E+06    -3.27380E+06    -3.26851E+06     150.781E+06     127.624E+06     754.977E+03         49.0755
             144     17.0228E-03     56.3487E-03         1.32660     606.402E-03        -2.69764     599.740E-03        -2.69097         1.32660     296.123E-03     111.839E-03    -55.2311E-03    -56.6077E-03    -54.3271E-03     110.935E-03    -56.6077E-03     24.5111E-03     152.239E+06     128.494E+06    -3.87405E+06    -3.86772E+06     152.232E+06     128.494E+06     -553.82E+03         49.1019
             145     17.0243E-03     57.4641E-03         1.15314     616.163E-03        -2.55596     608.629E-03        -2.54843         1.15314     308.609E-03     111.768E-03    -55.1794E-03    -56.5882E-03    -54.3143E-03     110.903E-03    -56.5882E-03     23.9647E-03     151.924E+06     128.624E+06    -2.83528E+06    -2.82759E+06     151.917E+06     128.624E+06    -339.331E+03         49.1288
             146     17.0234E-03     58.5857E-03     974.284E-03     604.703E-03        -2.36565     596.381E-03        -2.35733     974.284E-03     313.697E-03     111.973E-03    -55.3955E-03    -56.5779E-03    -54.5001E-03     111.078E-03    -56.5779E-03     24.3966E-03     152.688E+06     127.991E+06    -4.37549E+06    -4.37014E+06     152.683E+06     127.991E+06    -199.033E+03         49.1542
             147     17.0238E-03     59.7042E-03     790.596E-03     586.148E-03        -2.14332     577.251E-03        -2.13443     790.596E-03     311.000E-03     111.850E-03    -55.2666E-03    -56.5838E-03    -54.2694E-03     110.853E-03    -56.5838E-03     25.7384E-03     152.245E+06     127.178E+06    -4.11523E+06    -4.11081E+06     152.240E+06     127.178E+06    -773.933E+03         49.1782
             148     17.0237E-03     60.8234E-03     628.790E-03     540.346E-03        -1.90746     558.775E-03        -1.89837     601.274E-03     299.305E-03     111.780E-03    -55.1944E-03    -56.5857E-03    -54.1539E-03     110.740E-03    -56.5857E-03     26.2799E-03     150.634E+06     127.453E+06    -2.40599E+06    -2.40417E+06     150.632E+06     127.453E+06     73.3814E+03         49.2028
             149     17.0241E-03     63.0605E-03     497.355E-03     206.680E-03        -1.40484     486.869E-03        -1.39435     206.680E-03     281.238E-03     112.446E-03    -55.8914E-03    -56.5545E-03    -54.9128E-03     111.467E-03    -56.5545E-03     25.5958E-03     150.928E+06     126.366E+06    -3.45083E+06    -3.44968E+06     150.926E+06     126.366E+06    -159.945E+03         49.2536
             150     17.0234E-03     64.1797E-03     465.896E-03     8.59996E-03        -1.15413     454.374E-03        -1.14260     8.59996E-03     271.576E-03     112.442E-03    -55.8738E-03    -56.5686E-03    -54.9306E-03     111.499E-03    -56.5686E-03     25.1267E-03     152.815E+06     127.883E+06    -2.80953E+06    -2.80436E+06     152.809E+06     127.883E+06     741.347E+03         49.2774
             151     17.0238E-03     65.2976E-03     436.742E-03    -184.088E-03    -915.138E-03     423.399E-03    -901.794E-03    -184.088E-03     266.130E-03     111.824E-03    -55.2436E-03    -56.5802E-03    -54.3438E-03     110.924E-03    -56.5802E-03     24.4551E-03     154.305E+06     127.593E+06    -4.04031E+06    -4.03426E+06     154.299E+06     127.593E+06     915.675E+03         49.3008
             152     17.0239E-03     66.4170E-03     409.754E-03    -366.398E-03    -692.915E-03     392.900E-03    -676.062E-03    -366.398E-03     268.428E-03     111.580E-03    -55.0027E-03    -56.5772E-03    -54.0750E-03     110.652E-03    -56.5772E-03     24.7876E-03     154.446E+06     126.960E+06    -4.19820E+06    -4.19323E+06     154.441E+06     126.960E+06    -266.671E+03         49.3272
             153     17.0239E-03     67.5339E-03     388.848E-03    -416.697E-03    -596.777E-03     362.724E-03    -455.646E-03    -531.703E-03     290.772E-03     111.879E-03    -55.3101E-03    -56.5685E-03    -54.4709E-03     111.039E-03    -56.5685E-03     23.5532E-03     153.361E+06     126.967E+06    -3.75560E+06    -3.74996E+06     153.355E+06     126.967E+06    -922.927E+03         49.3587
             154     17.0237E-03     68.6525E-03     372.303E-03    -283.103E-03    -674.554E-03     325.948E-03    -236.749E-03    -674.554E-03     326.437E-03     111.658E-03    -55.0909E-03    -56.5668E-03    -54.3180E-03     110.885E-03    -56.5668E-03     22.6288E-03     151.977E+06     126.114E+06    -4.07497E+06    -4.06937E+06     151.972E+06     126.114E+06    -916.273E+03         49.3934
             155     17.0243E-03     69.7715E-03     378.111E-03    -115.569E-03    -790.879E-03     277.346E-03    -14.8042E-03    -790.879E-03     374.966E-03     111.840E-03    -55.2784E-03    -56.5620E-03    -54.3151E-03     110.877E-03    -56.5620E-03     25.2547E-03     153.461E+06     127.643E+06    -2.85398E+06    -2.84980E+06     153.457E+06     127.643E+06    -395.929E+03         49.4280
             156     17.0240E-03     70.8939E-03     442.601E-03    -10.2965E-03    -875.983E-03     206.701E-03     225.604E-03    -875.983E-03     420.485E-03     112.463E-03    -55.9012E-03    -56.5618E-03    -54.8047E-03     111.366E-03    -56.5618E-03     27.0854E-03     154.621E+06     127.771E+06    -3.41681E+06    -3.41616E+06     154.621E+06     127.771E+06     319.811E+03         49.4585
             157     17.0232E-03     72.0115E-03     614.061E-03     8.95367E-03    -927.571E-03     123.733E-03     499.282E-03    -927.571E-03     454.402E-03     112.270E-03    -55.6903E-03    -56.5795E-03    -54.7235E-03     111.303E-03    -56.5795E-03     25.3485E-03     155.335E+06     126.950E+06    -3.62193E+06    -3.62010E+06     155.333E+06     126.950E+06     509.945E+03         49.4853
             158     17.0237E-03     73.1263E-03     875.131E-03    -57.8461E-03    -949.198E-03     13.6122E-03     803.673E-03    -949.198E-03     483.346E-03     111.561E-03    -54.9731E-03    -56.5879E-03    -54.1413E-03     110.729E-03    -56.5879E-03     23.4797E-03     155.862E+06     126.038E+06    -3.92670E+06    -3.92159E+06     155.857E+06     126.038E+06     882.454E+03         49.5126
             159     17.0236E-03     74.2492E-03         1.15318    -153.887E-03    -947.621E-03    -106.196E-03         1.10549    -947.621E-03     483.222E-03     111.741E-03    -55.1613E-03    -56.5797E-03    -54.1730E-03     110.753E-03    -56.5797E-03     25.5392E-03     156.466E+06     125.907E+06    -4.07781E+06    -4.06792E+06     156.456E+06     125.907E+06    -171.109E+03         49.5420
             160     17.0237E-03     75.3660E-03         1.41607    -242.108E-03    -929.578E-03    -208.431E-03         1.38240    -929.578E-03     463.777E-03     112.202E-03    -55.6439E-03    -56.5578E-03    -54.5687E-03     111.126E-03    -56.5578E-03     26.7698E-03     156.657E+06     125.964E+06     -3.1017E+06    -3.09458E+06     156.650E+06     125.964E+06    -449.498E+03         49.5698
             161     17.0243E-03     76.4868E-03         1.67775    -343.742E-03    -902.297E-03    -319.280E-03         1.65328    -902.297E-03     438.152E-03     112.174E-03    -55.6246E-03    -56.5498E-03    -54.6343E-03     111.184E-03    -56.5498E-03     25.7047E-03     156.674E+06     125.411E+06    -3.32121E+06    -3.31776E+06     156.670E+06     125.411E+06     718.122E+03         49.5946
             162     17.0233E-03     77.6029E-03         1.91976    -450.832E-03    -872.872E-03    -433.973E-03         1.90290    -872.872E-03     394.541E-03     111.777E-03    -55.2103E-03    -56.5669E-03    -54.3919E-03     110.959E-03    -56.5669E-03     23.2265E-03     157.788E+06     125.473E+06    -3.74706E+06    -3.73750E+06     157.779E+06     125.473E+06     1.20804E+06         49.6198
             163     17.0240E-03     78.7201E-03         2.12427    -541.339E-03    -844.482E-03    -529.526E-03         2.11245    -844.482E-03     352.642E-03     111.330E-03    -54.7499E-03    -56.5797E-03    -53.9708E-03     110.551E-03    -56.5797E-03     22.6369E-03     159.440E+06     125.406E+06    -4.05298E+06    -4.04431E+06     159.432E+06     125.406E+06     1.12664E+06         49.6490
             164     17.0234E-03     79.8415E-03         2.32142    -622.621E-03    -816.660E-03    -613.587E-03         2.31239    -816.660E-03     324.258E-03     111.344E-03    -54.7680E-03    -56.5756E-03    -53.9103E-03     110.486E-03    -56.5756E-03     23.8054E-03     162.263E+06     126.261E+06    -3.88688E+06    -3.88032E+06     162.256E+06     126.261E+06     1.01234E+06         49.6811
             165     17.0243E-03     80.9563E-03         2.52796    -714.905E-03    -790.281E-03    -708.274E-03         2.52133    -790.281E-03     291.116E-03     111.631E-03    -55.0843E-03    -56.5463E-03    -54.2493E-03     110.796E-03    -56.5463E-03     23.5375E-03     166.180E+06     127.593E+06    -2.93675E+06    -2.92394E+06     166.168E+06     127.593E+06     1.46186E+06         49.7129
             166     17.0244E-03     82.0772E-03         2.73781    -760.875E-03    -816.019E-03    -805.611E-03         2.73301    -766.486E-03     259.666E-03     112.248E-03    -55.7260E-03    -56.5217E-03    -54.8505E-03     111.372E-03    -56.5217E-03     24.1878E-03     172.269E+06     129.523E+06    -3.55483E+06    -3.53814E+06     172.253E+06     129.523E+06     1.71288E+06         49.7440
             167     17.0239E-03     83.1990E-03         2.95797    -744.182E-03    -903.170E-03    -899.270E-03         2.95407    -744.182E-03     244.988E-03     112.111E-03    -55.5777E-03    -56.5331E-03    -54.5923E-03     111.125E-03    -56.5331E-03     25.6084E-03     176.415E+06     130.882E+06    -4.79486E+06    -4.78566E+06     176.406E+06     130.882E+06     678.023E+03         49.7748
             168     17.0247E-03     84.3154E-03         3.20155    -723.402E-03        -1.00913        -1.00602         3.19844    -723.402E-03     227.303E-03     111.711E-03    -55.1704E-03    -56.5409E-03    -54.1589E-03     110.700E-03    -56.5409E-03     25.8959E-03     177.964E+06     131.566E+06    -3.62950E+06    -3.62645E+06     177.961E+06     131.566E+06     273.767E+03         49.8046
             169     17.0239E-03     85.4350E-03         3.45748    -706.387E-03        -1.11573        -1.11351         3.45526    -706.387E-03     200.421E-03     111.755E-03    -55.2100E-03    -56.5449E-03    -54.2737E-03     110.819E-03    -56.5449E-03     24.9348E-03     178.384E+06     131.331E+06    -3.98417E+06    -3.98057E+06     178.381E+06     131.331E+06     788.452E+03         49.8338
             170     17.0241E-03     86.5528E-03         3.71328    -695.825E-03        -1.21696        -1.21521         3.71153    -695.825E-03     185.223E-03     111.366E-03    -54.8062E-03    -56.5595E-03    -53.9115E-03     110.471E-03    -56.5595E-03     24.3193E-03     178.078E+06     130.872E+06    -3.92802E+06    -3.92696E+06     178.077E+06     130.872E+06     365.820E+03         49.8648
             171     17.0241E-03     87.6698E-03         3.97419    -695.038E-03        -1.31889        -1.31738         3.97268    -695.038E-03     178.154E-03     111.135E-03    -54.5693E-03    -56.5661E-03    -53.6950E-03     110.261E-03    -56.5661E-03     24.0090E-03     177.011E+06     130.320E+06    -3.43201E+06    -3.43195E+06     177.011E+06     130.320E+06     96.5278E+03         49.8987
             172     17.0238E-03     88.7896E-03         4.21839    -708.775E-03        -1.41124        -1.41011         4.21726    -708.775E-03     157.981E-03     111.490E-03    -54.9367E-03    -56.5534E-03    -54.0502E-03     110.604E-03    -56.5534E-03     24.2284E-03     177.709E+06     131.308E+06    -3.82873E+06    -3.82628E+06     177.706E+06     131.308E+06     508.682E+03         49.9332
             173     17.0248E-03     89.9046E-03         4.42078    -741.882E-03        -1.47531        -1.47458         4.42004    -741.882E-03     131.302E-03     112.046E-03    -55.5341E-03    -56.5114E-03    -54.7024E-03     111.214E-03    -56.5114E-03     23.5328E-03     181.519E+06     133.141E+06    -4.97719E+06    -4.97089E+06     181.513E+06     133.141E+06    -133.346E+03         49.9660
             174     17.0249E-03     91.0278E-03         4.57584    -797.921E-03        -1.51048        -1.50991         4.57526    -797.921E-03     118.013E-03     111.850E-03    -55.3515E-03    -56.4981E-03    -54.4890E-03     110.987E-03    -56.4981E-03     23.9133E-03     181.093E+06     133.930E+06    -3.69298E+06    -3.67971E+06     181.080E+06     133.930E+06    -1.52421E+06         49.9973
             175     17.0253E-03     92.1464E-03         4.69462    -877.959E-03        -1.53787        -1.53731         4.69406    -877.959E-03     118.310E-03     111.252E-03    -54.7172E-03    -56.5352E-03    -53.7253E-03     110.260E-03    -56.5352E-03     25.5806E-03     178.444E+06     133.756E+06    -3.06566E+06    -3.05163E+06     178.430E+06     133.756E+06    -267.629E+03         50.0264
             176     17.0237E-03     93.2644E-03         4.76075    -979.408E-03        -1.53748        -1.53692         4.76019    -979.408E-03     119.047E-03     111.133E-03    -54.5706E-03    -56.5625E-03    -53.6017E-03     110.164E-03    -56.5625E-03     25.2573E-03     178.686E+06     134.114E+06    -3.47061E+06    -3.45236E+06     178.668E+06     134.114E+06     1.76097E+06         50.0510
             177     17.0251E-03     94.3793E-03         4.74781        -1.09801        -1.48821        -1.48766         4.74726        -1.09801     117.400E-03     111.090E-03    -54.5543E-03    -56.5360E-03    -53.7139E-03     110.250E-03    -56.5360E-03     23.5133E-03     181.158E+06     134.396E+06    -3.76118E+06    -3.74037E+06     181.137E+06     134.396E+06     1.93319E+06         50.0751
             178     17.0253E-03     95.4974E-03         4.68445        -1.22776        -1.41671        -1.41590         4.68364        -1.22776     138.978E-03     110.961E-03    -54.4561E-03    -56.5046E-03    -53.6879E-03     110.193E-03    -56.5046E-03     22.4928E-03     185.570E+06     135.750E+06    -2.68709E+06    -2.62878E+06     185.512E+06     135.750E+06     3.01153E+06         50.1021
             179     17.0255E-03     96.6179E-03         4.59902        -1.29910        -1.40314        -1.34071         4.59791        -1.36043     161.695E-03     110.065E-03    -53.5891E-03    -56.4761E-03    -52.6741E-03     109.150E-03    -56.4761E-03     24.3171E-03     191.072E+06     136.981E+06    -4.14562E+06    -4.06615E+06     190.993E+06     136.981E+06     3.88391E+06         50.1243
             180     17.0287E-03     97.7309E-03         4.49824        -1.25124        -1.48885        -1.25007         4.49707        -1.48885     163.618E-03     109.631E-03    -53.2258E-03    -56.4057E-03    -52.2007E-03     108.606E-03    -56.4057E-03     25.7544E-03     196.152E+06     138.601E+06    -7.10147E+06    -7.06851E+06     196.119E+06     138.601E+06     1.00895E+06         50.1326
             181     17.0280E-03     98.8520E-03         4.38977        -1.15197        -1.60937        -1.15068         4.38848        -1.60937     169.010E-03     109.740E-03    -53.4220E-03    -56.3183E-03    -52.4891E-03     108.807E-03    -56.3183E-03     24.5934E-03     196.317E+06     139.771E+06    -3.08130E+06    -3.07374E+06     196.309E+06     139.771E+06    -1.22078E+06         50.1273
             182     17.0314E-03     99.9609E-03         4.28544        -1.07219        -1.72008        -1.07075         4.28399        -1.72008     175.812E-03     108.383E-03    -52.2092E-03    -56.1734E-03    -51.4253E-03     107.599E-03    -56.1734E-03     22.3543E-03     192.706E+06     135.710E+06    -3.36632E+06    -3.36314E+06     192.703E+06     135.710E+06    -695.597E+03         50.1159
             183     17.0358E-03     101.076E-03         4.18617    -995.683E-03        -1.81858    -994.397E-03         4.18488        -1.81858     162.947E-03     107.769E-03    -51.8258E-03    -55.9431E-03    -50.9492E-03     106.892E-03    -55.9431E-03     23.4648E-03     190.861E+06     132.150E+06    -5.03059E+06    -5.01562E+06     190.846E+06     132.150E+06    -1.35872E+06         50.0986
             184     17.0389E-03     102.196E-03         4.07852    -909.149E-03        -1.90494    -908.386E-03         4.07775        -1.90494     120.488E-03     107.626E-03    -51.9983E-03    -55.6281E-03    -50.8413E-03     106.469E-03    -55.6281E-03     27.0539E-03     188.804E+06     127.510E+06    -1.54443E+06    -1.52158E+06     188.781E+06     127.510E+06    -328.101E+03         50.0692
             185     17.0477E-03     103.303E-03         3.94089    -823.242E-03        -1.98150    -822.983E-03         3.94063        -1.98150     66.1598E-03     106.356E-03    -51.2464E-03    -55.1097E-03    -50.0438E-03     105.153E-03    -55.1097E-03     27.4246E-03     183.907E+06     112.289E+06    -4.83495E+06    -4.81548E+06     183.888E+06     112.289E+06    -173.365E+03         50.0382
             186     17.0583E-03     104.414E-03         3.76862    -732.405E-03        -2.04754    -732.348E-03         3.76857        -2.04754     10.4708E-03     106.526E-03    -52.1819E-03    -54.3441E-03    -51.0510E-03     105.395E-03    -54.3441E-03     26.6948E-03     177.914E+06     100.446E+06    -2.72555E+06    -2.69609E+06     177.884E+06     100.446E+06    -2.28187E+06         50.0555
             187     17.0734E-03     105.523E-03         3.56832    -635.959E-03        -2.10015    -635.510E-03         3.56787        -2.10015    -69.5452E-03     108.467E-03    -53.1232E-03    -55.3434E-03    -54.2174E-03     107.580E-03    -53.3631E-03     23.7896E-03     168.533E+06     91.9279E+06    -2.77614E+06    -2.73240E+06     168.489E+06     91.9279E+06    -2.72803E+06         50.2182
             188     17.0897E-03     106.635E-03         3.33655    -534.289E-03        -2.13715    -532.122E-03         3.33438        -2.13715    -172.471E-03     113.786E-03    -52.3092E-03    -61.4764E-03    -61.0244E-03     113.334E-03    -52.3092E-03     17.1420E-03     160.621E+06     92.3529E+06    -2.51024E+06    -2.45665E+06     160.567E+06     92.3529E+06    -2.95244E+06         50.6311
             189     17.1003E-03     107.760E-03         3.08252    -435.586E-03        -2.15489    -430.254E-03         3.07719        -2.15489    -267.991E-03     124.660E-03    -51.4619E-03    -73.1984E-03    -73.0086E-03     124.471E-03    -51.4619E-03     12.0699E-03     155.791E+06     108.624E+06    -2.91205E+06    -2.84918E+06     155.728E+06     108.624E+06    -3.15612E+06         51.3666
             190     17.1036E-03     108.909E-03         2.81975    -339.708E-03        -2.14611    -330.724E-03         2.81076        -2.14611    -333.667E-03     138.022E-03    -50.9222E-03    -87.0998E-03    -86.9299E-03     137.852E-03    -50.9222E-03     12.3400E-03     146.012E+06     124.580E+06    -4.59019E+06    -4.42354E+06     145.846E+06     124.580E+06    -4.69303E+06         52.3766
             191     17.1042E-03     110.067E-03         2.55735    -250.490E-03        -2.10351    -238.378E-03         2.54523        -2.10351    -366.674E-03     150.022E-03    -50.5614E-03    -99.4602E-03    -99.3061E-03     149.868E-03    -50.5614E-03     12.2007E-03     133.495E+06     129.454E+06    -2.09773E+06    -1.93579E+06     133.333E+06     129.454E+06    -4.42375E+06         53.4556
             192     17.1047E-03     111.234E-03         2.29594    -183.316E-03        -2.02086    -170.747E-03         2.28337        -2.02086    -352.161E-03     160.992E-03    -50.2419E-03    -110.750E-03    -110.608E-03     160.850E-03    -50.2419E-03     12.3882E-03     129.653E+06     122.889E+06    -1.55638E+06    -1.46543E+06     123.504E+06     128.947E+06    -3.29993E+06         54.4420
             193     17.1055E-03     112.420E-03         2.03620    -132.223E-03        -1.88949    -122.500E-03         2.02648        -1.88949    -289.098E-03     173.495E-03    -49.8723E-03    -123.623E-03    -123.332E-03     173.205E-03    -49.8723E-03     18.2873E-03     126.565E+06     111.631E+06    -2.60556E+06    -2.34956E+06     111.375E+06     126.565E+06    -5.18371E+06         55.3942
             194     17.1067E-03     113.624E-03         1.79816    -102.775E-03        -1.70184    -96.3363E-03         1.79172        -1.70184    -220.297E-03     188.587E-03    -49.4411E-03    -139.146E-03    -138.455E-03     187.897E-03    -49.4411E-03     29.5075E-03     124.385E+06     96.7878E+06    -346.181E+03     -99.602E+03     96.5412E+06     124.385E+06    -1.85816E+06         56.2986
             195     17.1073E-03     114.853E-03         1.57728    -96.1566E-03        -1.45799    -91.5726E-03         1.57269        -1.45799    -174.877E-03     203.291E-03    -49.0369E-03    -154.254E-03    -153.135E-03     202.172E-03    -49.0369E-03     39.8894E-03     118.527E+06     80.0824E+06    -9.77597E+06    -8.95905E+06     79.2655E+06     118.527E+06    -4.62373E+06         57.0795
             196     17.1079E-03     116.089E-03         1.36619    -117.034E-03        -1.16479    -113.045E-03         1.36221        -1.16479    -153.595E-03     213.918E-03    -48.7336E-03    -165.184E-03    -163.767E-03     212.500E-03    -48.7336E-03     46.2272E-03     117.286E+06     61.1970E+06    -2.57106E+06    -1.00271E+06     59.6287E+06     117.286E+06    -9.42892E+06         57.9273
             197     17.1098E-03     117.335E-03         1.15890    -161.117E-03    -831.706E-03    -156.914E-03         1.15470    -831.706E-03    -148.420E-03     222.865E-03    -48.4828E-03    -174.382E-03    -172.653E-03     221.136E-03    -48.4828E-03     52.2719E-03     118.774E+06     44.5264E+06    -2.76864E+06    -1.92758E+06     43.6853E+06     118.774E+06    -4.47059E+06         58.6407
             198     17.1100E-03     118.594E-03     923.889E-03    -201.369E-03    -469.368E-03    -196.854E-03     919.373E-03    -469.368E-03    -142.080E-03     232.326E-03    -48.2197E-03    -184.107E-03    -182.106E-03     230.326E-03    -48.2197E-03     57.5722E-03     123.179E+06     35.3596E+06    -7.13696E+06    -7.07605E+06     35.2987E+06     123.179E+06    -638.130E+03         58.9322
             199     17.1125E-03     119.860E-03     639.639E-03    -55.4001E-03    -261.918E-03    -225.808E-03     635.504E-03    -87.3749E-03    -119.583E-03     242.049E-03    -47.9750E-03    -194.074E-03    -190.139E-03     238.114E-03    -47.9750E-03     80.3063E-03     136.675E+06     47.3024E+06     2.46723E+06     3.46057E+06     46.3091E+06     136.675E+06     6.20628E+06         58.7722
             200     17.1139E-03     121.189E-03     494.882E-03     141.378E-03    -245.892E-03    -243.678E-03     327.427E-03     306.620E-03    -69.0877E-03     245.840E-03    -47.9521E-03    -197.888E-03    -186.435E-03     234.387E-03    -47.9521E-03     135.619E-03     124.684E+06     62.8391E+06    -8.78301E+06    -7.21590E+06     61.2720E+06     124.684E+06     1.08199E+06         57.0402
             201     17.1155E-03     122.491E-03     695.602E-03     27.4136E-03    -268.791E-03    -268.271E-03     26.8938E-03     695.602E-03    -9.61355E-03     196.208E-03    -49.4183E-03    -146.789E-03    -120.504E-03     169.922E-03    -49.4183E-03     171.414E-03     63.4002E+06     35.6295E+06    -36.2286E+06    -32.8443E+06     32.2452E+06     63.4002E+06    -14.1297E+06         51.5316
             202     17.1113E-03     123.583E-03         1.06472    -170.847E-03    -350.522E-03    -267.383E-03    -253.985E-03         1.06472     73.8368E-03     91.1904E-03    -11.3302E-03    -79.8602E-03    -13.6745E-03     70.4145E-03    -56.7400E-03     87.4468E-03     37.3417E+06    -11.2879E+06    -61.6607E+06    -993.022E+03    -13.3476E+06    -21.2663E+06    -3.91531E+06         42.7474
             203     15.8030E-03     124.232E-03         1.22761    -148.289E-03    -396.444E-03    -187.389E-03    -357.343E-03         1.22761     180.489E-03     50.5428E-03     13.3585E-03    -63.9013E-03     16.4904E-03     47.4109E-03    -63.9013E-03     4.24447E-03     95.4613E+06     24.7364E+06    -30.5045E+06     27.5748E+06     25.2651E+06     36.8533E+06     2.75101E+06         36.8416
             204     14.8087E-03     123.931E-03         1.18309     300.679E-06    -395.231E-03    -91.4694E-03    -303.461E-03         1.18309     330.639E-03     91.8320E-03    -27.5738E-03    -64.2582E-03    -26.7820E-03     91.0402E-03    -64.2582E-03    -12.7938E-03     123.226E+06     38.7803E+06    -28.4105E+06    -927.294E+03     11.2971E+06     123.226E+06    -2.42052E+06         34.8958
             205     13.9583E-03     123.534E-03         1.12379     149.204E-03    -424.375E-03     14.4852E-03    -289.657E-03         1.12379     484.551E-03     100.615E-03    -38.5139E-03    -62.1016E-03    -37.5271E-03     99.6287E-03    -62.1016E-03    -23.1395E-03     120.025E+06     11.3532E+06    -25.6648E+06     2.79833E+06    -17.1099E+06     120.025E+06    -2.78100E+06         33.1595
             206     13.0475E-03     123.206E-03         1.06491     273.102E-03    -451.474E-03     127.611E-03    -305.982E-03         1.06491     580.382E-03     91.1059E-03    -31.0459E-03    -60.0600E-03    -29.6240E-03     89.6840E-03    -60.0600E-03    -25.1250E-03     114.676E+06     15.1061E+06    -8.74452E+06     6.49010E+06    -128.556E+03     114.676E+06    -4.14424E+06         31.5785
             207     12.1219E-03     122.936E-03         1.00829     362.287E-03    -440.941E-03     242.606E-03    -321.261E-03         1.00829     563.047E-03     109.370E-03    -47.7015E-03    -61.6686E-03    -47.6867E-03     105.649E-03    -57.9624E-03    -48.0012E-03     113.587E+06     12.4666E+06    -7.01971E+06     9.19592E+06    -3.74899E+06     113.587E+06    -3.59972E+06         30.5636
             208     11.2424E-03     122.677E-03     952.234E-03     463.504E-03    -424.218E-03     358.872E-03    -319.586E-03     952.234E-03     571.583E-03     120.565E-03    -54.7641E-03    -65.8014E-03    -61.0215E-03     115.786E-03    -54.7641E-03    -58.8740E-03     117.947E+06     18.4249E+06    -1.04435E+06     14.9139E+06     2.46658E+06     117.947E+06    -4.68906E+06         29.8800
             209     10.3537E-03     122.467E-03     901.928E-03     558.346E-03    -422.199E-03     462.852E-03    -326.705E-03     901.928E-03     572.470E-03     119.674E-03    -51.1383E-03    -68.5360E-03    -64.5873E-03     115.726E-03    -51.1383E-03    -53.8348E-03     112.604E+06     20.6982E+06    -7.36505E+06     20.3405E+06    -7.00735E+06     112.604E+06    -2.89794E+06         29.1493
             210     9.45681E-03     122.294E-03     859.445E-03     628.877E-03    -415.827E-03     550.194E-03    -337.145E-03     859.445E-03     550.596E-03     116.563E-03    -47.5416E-03    -69.0212E-03    -66.0398E-03     113.581E-03    -47.5416E-03    -46.5412E-03     110.737E+06     23.1995E+06     401.193E+03     23.0596E+06     541.106E+03     110.737E+06    -1.72335E+06         28.3761
             211     8.54886E-03     122.154E-03     823.593E-03     683.749E-03    -411.204E-03     621.358E-03    -348.814E-03     823.593E-03     492.690E-03     110.904E-03    -43.9348E-03    -66.9696E-03    -64.8528E-03     108.788E-03    -43.9348E-03    -38.4509E-03     103.778E+06     23.1388E+06    -1.42708E+06     22.9772E+06    -1.26558E+06     103.778E+06    -1.94741E+06         27.6082
             212     7.63460E-03     122.041E-03     793.013E-03     721.664E-03    -401.429E-03     680.745E-03    -360.511E-03     793.013E-03     419.990E-03     101.949E-03    -40.4506E-03    -61.4985E-03    -60.0866E-03     100.537E-03    -40.4506E-03    -30.1483E-03     98.6499E+06     24.8875E+06     149.138E+03     24.2679E+06     768.696E+03     98.6499E+06    -3.21628E+06         26.8439
             213     6.70704E-03     121.952E-03     768.144E-03     734.613E-03    -388.288E-03     700.314E-03    -353.989E-03     768.144E-03     380.123E-03     91.5212E-03    -37.3011E-03    -54.2201E-03    -53.2968E-03     90.5979E-03    -37.3011E-03    -23.0717E-03     92.6686E+06     29.4814E+06    -979.713E+03     27.6895E+06     812.178E+03     92.6686E+06    -7.16700E+06         26.1092
             214     5.76762E-03     121.886E-03     751.453E-03     716.136E-03    -380.099E-03     685.330E-03    -349.293E-03     751.453E-03     358.058E-03     82.6144E-03    -34.5075E-03    -48.1069E-03    -47.5002E-03     82.0077E-03    -34.5075E-03    -17.6983E-03     82.7336E+06     33.6495E+06    -6.43324E+06     32.1127E+06    -4.89644E+06     82.7336E+06    -7.32952E+06         25.4439
             215     4.82199E-03     121.835E-03     744.693E-03     689.220E-03    -380.676E-03     666.428E-03    -357.884E-03     744.693E-03     282.531E-03     74.1173E-03    -32.0338E-03    -42.0835E-03    -41.7214E-03     73.7551E-03    -32.0338E-03    -12.8672E-03     74.9773E+06     39.0077E+06     57.3918E+03     37.9411E+06     1.12402E+06     74.9773E+06    -6.20519E+06         24.8618
             216     3.86646E-03     121.796E-03     746.304E-03     680.643E-03    -386.725E-03     674.861E-03    -380.944E-03     746.304E-03     156.661E-03     66.2630E-03    -30.0381E-03    -36.2250E-03    -36.0103E-03     66.0483E-03    -30.0381E-03    -9.35025E-03     71.1280E+06     45.6320E+06    -4.11361E+06     44.6183E+06    -3.09989E+06     71.1280E+06    -6.53294E+06         24.3666
             217     2.90466E-03     121.769E-03     755.294E-03     688.958E-03    -377.793E-03     686.034E-03    -374.870E-03     755.294E-03     65.0286E-03     60.3273E-03    -28.5245E-03    -31.8028E-03    -31.6613E-03     60.1859E-03    -28.5245E-03    -7.18632E-03     64.8826E+06     51.3203E+06     -758.55E+03     53.7735E+06    -116.356E+03     61.7872E+06    -5.83818E+06         23.9713
             218     1.93743E-03     121.749E-03     774.529E-03     719.823E-03    -368.481E-03     708.954E-03    -357.612E-03     774.529E-03     141.208E-03     56.4017E-03    -27.5856E-03    -28.8160E-03    -28.7339E-03     56.3196E-03    -27.5856E-03    -5.22275E-03     64.6568E+06     59.8907E+06     964.369E+03     62.2636E+06     1.68679E+06     61.5615E+06    -6.58484E+06         23.6875
             219     969.642E-06     121.739E-03     838.187E-03     741.561E-03    -423.502E-03     730.752E-03    -412.694E-03     838.187E-03     147.044E-03     54.5920E-03    -26.8978E-03    -27.6942E-03    -27.6558E-03     54.5536E-03    -26.8978E-03    -3.47181E-03     71.9599E+06      69.982E+06    -4.22030E+06     69.4928E+06    -3.73113E+06     71.9599E+06    -5.92054E+06         23.5163
             220    -322.238E-09     120.681E-03     809.891E-03     504.115E-03    -167.291E-03     524.234E-03     110.096E-03     512.385E-03    -136.642E-03     45.9077E-03    -22.5261E-03    -23.3816E-03    -23.1082E-03     45.8895E-03    -22.7812E-03    -2.24642E-03     47.2314E+06     46.1450E+06    -14.2812E+06     45.1131E+06    -13.2493E+06     47.2314E+06    -6.85046E+06         23.1635
             221    -172.172E-09     119.640E-03         1.16193    -950.098E-06    -95.9389E-03    -5.71875E-03         1.14178    -71.0175E-03    -122.876E-03     30.6644E-03    -15.1901E-03    -15.4743E-03    -15.2110E-03     30.6562E-03    -15.4452E-03    -1.17463E-03    -8.51825E+06    -10.8980E+06    -33.5586E+06    -10.2484E+06    -32.4476E+06    -10.2788E+06    -4.68528E+06         22.4689
             222     203.675E-09     118.620E-03         2.05050    -533.060E-03    -567.810E-03    -567.797E-03         2.05049    -533.060E-03     10.7706E-03     19.2267E-03    -9.59394E-03    -9.63273E-03    -9.62331E-03     19.2173E-03    -9.59394E-03    -884.633E-06    -44.2566E+06    -57.4979E+06    -60.0139E+06    -57.8994E+06    -46.2109E+06    -57.6580E+06    -2.81530E+06         21.7210
             223    -178.953E-09     117.604E-03         2.94610    -993.651E-03        -1.06150        -1.00217         2.94479        -1.05167     113.994E-03     12.0542E-03    -5.97531E-03    -6.07887E-03    -5.97654E-03     12.0458E-03    -6.06922E-03    -658.309E-06    -61.1861E+06    -103.908E+06    -107.457E+06    -105.713E+06    -62.9302E+06    -103.908E+06    -8.79849E+06         21.1298
             224    -11.8478E-09     116.595E-03         3.75570        -1.42219        -1.51558        -1.41620         3.74971        -1.51558     341.934E-03     7.62626E-03    -3.75662E-03    -3.86963E-03    -3.77527E-03     7.62579E-03    -3.85053E-03    -131.963E-06    -85.1003E+06    -157.709E+06    -161.933E+06    -157.377E+06    -86.6262E+06    -160.740E+06    -9.39313E+06         20.7525
             225     3.50726E-09     115.589E-03         4.45192        -1.84692        -1.88496        -1.83130         4.43630        -1.88496     618.159E-03     4.95081E-03    -2.42911E-03    -2.52170E-03    -2.44412E-03     4.94671E-03    -2.50259E-03     129.308E-06    -106.490E+06    -207.510E+06    -211.776E+06    -208.511E+06    -106.725E+06    -210.540E+06    -3.83268E+06         20.5951
             226    -141.295E-09     114.585E-03         5.16235        -2.21135        -2.27923        -2.17437         5.12537        -2.27923         1.02594     4.58251E-03    -2.25084E-03    -2.33166E-03    -2.23704E-03     4.56136E-03    -2.32432E-03     728.644E-06    -96.0799E+06    -222.049E+06    -229.949E+06    -221.231E+06    -98.1327E+06    -228.714E+06     10.6833E+06         20.6706
             227     1.97289E-09     113.580E-03         5.90796        -2.53443        -2.71167        -2.44999         5.82353        -2.71167         1.65661     8.27353E-03    -4.10309E-03    -4.17044E-03    -4.11299E-03     8.21607E-03    -4.10309E-03     1.68712E-03    -40.9893E+06    -151.682E+06    -169.810E+06    -157.609E+06    -46.5259E+06    -158.346E+06     24.9752E+06         21.0040
             228     147.494E-09     112.569E-03         6.64270        -2.91948        -3.07254        -2.71768         6.44090        -3.07254         2.69933     16.8176E-03    -8.25443E-03    -8.56319E-03    -8.46529E-03     16.7197E-03    -8.25443E-03     3.13788E-03     13.6816E+06    -63.2906E+06    -74.9840E+06    -70.9018E+06     9.82915E+06    -63.5203E+06     16.9110E+06         21.6078
             229     227.464E-09     111.546E-03         7.45934        -3.36541        -3.41092        -2.91720         7.00666        -3.40645         4.27687     29.3895E-03    -14.5420E-03    -14.8475E-03    -14.7362E-03     29.2782E-03    -14.5420E-03     4.38784E-03     34.5913E+06    -9.28158E+06    -11.3876E+06    -10.7752E+06     34.2086E+06     -9.5113E+06     3.96877E+06         22.4580
             230    -186.125E-09     110.509E-03         8.35079        -3.73007        -3.87981        -2.98790         7.45888        -3.73007         6.30199     44.7365E-03    -22.0762E-03    -22.6603E-03    -22.5710E-03     44.6472E-03    -22.0762E-03     4.81184E-03     42.1921E+06     30.8537E+06     21.2389E+06     28.0432E+06     35.1652E+06     31.0764E+06    -1.98839E+06         23.4879
             231     1.17017E-06     109.454E-03         9.31926        -3.93899        -4.61618        -3.05108         7.75415        -3.93899         8.75073     60.4468E-03    -29.8611E-03    -30.5856E-03    -30.3128E-03     60.3711E-03    -30.0583E-03     5.23960E-03     53.2988E+06     52.2732E+06     20.4183E+06     51.8363E+06     21.6581E+06     52.4959E+06    -5.18188E+06         24.5965
             232    -1.62920E-06     108.383E-03         10.2759        -4.03014        -5.47243        -3.09905         7.90253        -4.03014         11.2405     74.7661E-03    -37.2603E-03    -37.5058E-03    -37.2375E-03     74.6949E-03    -37.4574E-03     5.61385E-03     59.7117E+06     57.0698E+06    -3.14737E+06     58.8547E+06    -2.29034E+06     57.0698E+06    -7.27071E+06         25.6750
             233     1.64756E-06     107.297E-03         10.8833        -4.01503        -6.05407        -3.04946         7.87868        -4.01503         12.9334     86.9507E-03    -43.2203E-03    -43.7304E-03    -43.6787E-03     86.8990E-03    -43.2203E-03     5.14885E-03     61.3122E+06     58.2438E+06    -25.3124E+06     59.3135E+06    -24.5430E+06     59.4731E+06    -7.66369E+06         26.6337
             234    -785.801E-09     106.202E-03         10.8421        -3.86418        -6.13413        -3.02377         7.73170        -3.86418         13.1334     96.2768E-03    -47.8395E-03    -48.4373E-03    -48.2688E-03     96.2444E-03    -47.9756E-03     4.28306E-03     50.1881E+06     46.8625E+06    -52.4074E+06     48.5273E+06    -51.9759E+06     48.0918E+06    -6.59836E+06         27.4186
             235     481.741E-09     105.097E-03         10.0540        -3.66730        -5.48457        -2.96740         7.53679        -3.66730         11.4221     103.793E-03    -51.6346E-03    -52.1588E-03    -52.0026E-03     103.773E-03    -51.7707E-03     3.52196E-03     41.5913E+06     38.4379E+06    -74.2907E+06     40.1695E+06    -73.9259E+06     39.4950E+06    -6.35028E+06         28.0131
             236     253.575E-09     103.983E-03         8.68951        -3.45577        -4.21437        -2.74824         7.30598        -3.53837         7.78632     108.603E-03    -53.9441E-03    -54.6586E-03    -54.6493E-03     108.593E-03    -53.9441E-03     2.24847E-03     26.2755E+06     23.0312E+06    -95.2874E+06     24.9889E+06    -95.0579E+06     24.0883E+06     -5.2478E+06         28.4260
             237     335.262E-09     102.869E-03         7.34322        -2.81714        -3.43547        -2.45400         6.98007        -3.43547         2.81102     110.664E-03    -54.9428E-03    -55.7208E-03    -55.7155E-03     110.658E-03    -54.9428E-03     1.80955E-03     1.53702E+06    -3.65518E+06    -119.325E+06    -1.59766E+06    -119.195E+06    -650.165E+03    -3.72634E+06         28.6884
             238     549.997E-09     101.749E-03         6.88756        -2.26847        -3.45209        -1.98756         6.60665        -3.45209        -2.15666     111.922E-03    -55.6864E-03    -56.2356E-03    -56.1304E-03     111.914E-03    -55.7839E-03     2.27351E-03    -6.66308E+06    -12.3615E+06    -133.356E+06    -10.0497E+06    -132.974E+06    -9.35646E+06    -6.05889E+06         28.8451
             239    -771.861E-09     100.634E-03         7.24165        -2.26914        -3.71694        -1.32450         6.29700        -3.71694        -5.55895     112.928E-03    -56.2121E-03    -56.7163E-03    -56.6137E-03     112.923E-03    -56.3097E-03     1.80508E-03    -27.8654E+06    -31.1133E+06    -157.092E+06    -28.8857E+06    -156.626E+06    -30.5588E+06    -7.45306E+06         28.9340
             240     1.54632E-06     99.5127E-03         7.17039        -1.82005        -4.02393    -644.360E-03         5.99470        -4.02393        -6.06064     113.471E-03    -56.2403E-03    -57.2306E-03    -57.2280E-03     113.468E-03    -56.2403E-03     1.33795E-03    -47.6092E+06    -49.8049E+06    -178.756E+06    -50.2057E+06    -178.355E+06    -47.6092E+06    -7.00172E+06         28.9800
             241    -420.337E-09     98.3942E-03         6.09369    -403.709E-03        -4.28234     108.174E-03         5.58181        -4.28234        -2.68245     113.699E-03    -56.3525E-03    -57.3463E-03    -57.3428E-03     113.695E-03    -56.3525E-03     1.53089E-03    -58.1617E+06    -62.7963E+06    -195.516E+06    -60.1219E+06    -195.197E+06    -61.1550E+06    -5.78984E+06         29.0004
             242     1.15320E-06     97.2744E-03         6.62949    -670.181E-03        -4.46752     873.910E-03         5.08540        -4.46752         4.57375     113.785E-03    -56.6324E-03    -57.1529E-03    -57.0379E-03     113.781E-03    -56.7427E-03     1.76784E-03    -69.4623E+06    -75.5964E+06    -208.939E+06    -72.7915E+06    -208.750E+06    -72.4557E+06    -4.68057E+06         29.0079
             243    -1.32329E-06     96.1526E-03         10.6683        -3.10323        -5.99308         1.36295         4.63496        -4.42590         14.8898     113.305E-03    -56.4538E-03    -56.8515E-03    -56.7354E-03     113.300E-03    -56.5641E-03     1.96925E-03    -82.1053E+06    -90.6685E+06    -228.089E+06    -85.4245E+06    -227.910E+06    -87.5277E+06    -4.46594E+06         29.0121
             244     1.78922E-06     95.0367E-03         16.3416        -4.20692        -10.5063         1.52885         4.30648        -4.20692         26.6921     113.098E-03    -56.2368E-03    -56.8607E-03    -56.8564E-03     113.093E-03    -56.2368E-03     1.57885E-03    -82.3548E+06    -93.8055E+06    -238.401E+06    -88.4296E+06    -238.354E+06    -87.7772E+06    -2.63157E+06         29.0167
             245    -1.07682E-06     93.9167E-03         21.6916        -3.76632        -16.2624         1.45259         3.97661        -3.76632         37.8673     112.912E-03    -56.2569E-03    -56.6553E-03    -56.5918E-03     112.911E-03    -56.3189E-03     1.00989E-03    -84.3788E+06    -96.9293E+06    -246.043E+06    -90.6551E+06    -245.795E+06    -90.9010E+06    -5.66312E+06         29.0205
             246     877.332E-09     92.7999E-03         25.6365        -2.97918        -20.9767         1.14678         3.51298        -2.97918         46.5525     113.516E-03    -56.3941E-03    -57.1219E-03    -57.0567E-03     113.513E-03    -56.4561E-03     1.41671E-03    -93.6020E+06    -103.836E+06    -262.622E+06    -97.5564E+06    -262.379E+06    -100.124E+06    -2.90887E+06         29.0235
             247     424.502E-09     91.6778E-03         27.3202        -1.97799        -23.7110     671.117E-03         2.93807        -1.97799         50.9807     113.886E-03    -56.4848E-03    -57.4014E-03    -57.3991E-03     113.884E-03    -56.4848E-03     818.144E-06    -89.2269E+06    -93.9341E+06    -267.856E+06    -93.0240E+06    -267.770E+06    -90.2226E+06    -1.07234E+06         29.0236
             248     38.5164E-09     90.5615E-03         26.3711    -937.610E-03        -23.8737     92.9838E-03         2.40445    -937.610E-03         50.1914     113.060E-03    -56.1804E-03    -56.8797E-03    -56.8786E-03     113.059E-03    -56.1804E-03     543.649E-06    -93.6667E+06    -95.3348E+06    -278.711E+06    -94.4035E+06    -278.646E+06    -94.6625E+06    -2.65208E+06         29.0201
             249     816.788E-09     89.4410E-03         23.0866    -35.8266E-03        -21.5393    -485.108E-03         2.03242    -35.8266E-03         44.5535     113.065E-03    -56.1556E-03    -56.9090E-03    -56.9067E-03     113.062E-03    -56.1556E-03     1.24596E-03    -93.9151E+06    -94.8785E+06    -282.487E+06    -94.5881E+06    -282.486E+06    -94.2061E+06    -235.020E+03         29.0194
             250    -246.689E-09     88.3236E-03         17.9874     605.621E-03        -17.1683        -1.02643         1.84555     605.621E-03         35.0312     113.303E-03    -56.4721E-03    -56.8311E-03    -56.7749E-03     113.301E-03    -56.5262E-03     1.19204E-03    -89.5126E+06    -90.5142E+06    -280.959E+06    -89.5157E+06    -280.956E+06    -90.5142E+06    -548.797E+03         29.0251
             251     133.655E-09     87.2042E-03         11.9885     954.933E-03        -11.6215        -1.52401         1.89095     954.933E-03         23.3292     113.265E-03    -56.4493E-03    -56.8158E-03    -56.7605E-03     113.264E-03    -56.5034E-03     909.487E-06    -87.5127E+06    -89.1296E+06    -279.649E+06    -87.5243E+06    -279.637E+06    -89.1296E+06     355.122E+03         29.0342
             252     444.700E-09     86.0856E-03         6.29936     986.024E-03        -6.03575        -1.83898         2.10258     986.024E-03         11.4587     113.030E-03    -56.1069E-03    -56.9228E-03    -56.9221E-03     113.029E-03    -56.1069E-03     678.698E-06    -85.4099E+06    -89.0913E+06    -278.550E+06    -88.1935E+06    -278.541E+06    -86.3162E+06     908.170E+03         29.0440
             253     542.042E-09     84.9681E-03         3.36845     800.093E-03        -3.00230        -1.97719         2.34334     800.093E-03         1.11047     113.211E-03    -56.2973E-03    -56.9135E-03    -56.9103E-03     113.208E-03    -56.2973E-03     1.31893E-03    -82.7770E+06    -88.0985E+06    -276.810E+06    -85.5528E+06    -276.810E+06    -85.3234E+06     265.483E+03         29.0541
             254    -367.207E-09     83.8475E-03         4.29547     476.970E-03        -3.71333        -2.03995         2.62209     476.970E-03        -6.31106     113.581E-03    -56.4790E-03    -57.1023E-03    -57.0993E-03     113.578E-03    -56.4790E-03     1.15245E-03    -81.4997E+06    -85.8972E+06    -274.784E+06    -83.3515E+06    -274.783E+06    -84.0461E+06     312.844E+03         29.0637
             255     1.35602E-06     82.7295E-03         6.07413     84.0845E-03        -5.21188        -2.02637         2.88862     84.0845E-03        -10.1525     113.126E-03    -56.0294E-03    -57.0970E-03    -57.0958E-03     113.125E-03    -56.0294E-03     765.055E-06    -81.6706E+06    -85.6988E+06    -276.206E+06    -83.5250E+06    -276.202E+06    -83.8477E+06     619.986E+03         29.0711
             256    -332.966E-09     81.6116E-03         6.48522    -244.220E-03        -5.40426        -2.00079         3.08174    -244.220E-03        -10.7450     112.773E-03    -55.9761E-03    -56.7967E-03    -56.5320E-03     112.772E-03    -56.2396E-03     793.151E-06    -79.1555E+06    -83.8883E+06    -275.393E+06    -81.7204E+06    -275.384E+06    -81.3327E+06    -189.034E+03         29.0765
             257    -132.680E-09     80.4935E-03         5.80936    -448.571E-03        -4.64848        -2.09297         3.25384    -448.571E-03        -8.94697     113.102E-03    -56.0811E-03    -57.0213E-03    -56.7571E-03     113.102E-03    -56.3446E-03     622.375E-06    -80.9498E+06    -86.4790E+06    -278.454E+06    -83.5115E+06    -278.448E+06    -83.9234E+06    -661.026E+03         29.0816
             258     1.37227E-06     79.3736E-03         4.65957    -500.468E-03        -3.58737        -2.23593         3.30814    -500.468E-03        -6.00653     113.608E-03    -56.2336E-03    -57.3740E-03    -57.3715E-03     113.605E-03    -56.2336E-03     1.25912E-03    -78.7003E+06    -84.2898E+06    -278.701E+06    -81.3260E+06    -278.691E+06    -81.6739E+06     1.06696E+06         29.0862
             259    -466.793E-09     78.2552E-03         3.69208    -375.579E-03        -2.86869        -2.36709         3.19047    -375.579E-03        -3.36445     113.656E-03    -56.5009E-03    -57.1549E-03    -57.1523E-03     113.653E-03    -56.5009E-03     1.27979E-03    -78.1721E+06    -81.2866E+06    -277.391E+06    -80.7994E+06    -277.380E+06    -78.6707E+06     566.415E+03         29.0892
             260     818.639E-09     77.1348E-03         3.24322    -163.413E-03        -2.77830        -2.60074         3.06565    -163.413E-03        -2.01510     113.290E-03    -56.4756E-03    -56.8147E-03    -56.8113E-03     113.287E-03    -56.4756E-03     1.43440E-03    -80.0722E+06    -81.6556E+06    -278.610E+06    -80.0749E+06    -278.607E+06    -81.6556E+06    -734.542E+03         29.0907
             261    -557.515E-09     76.0175E-03         3.26255    -22.5001E-03        -3.06111        -2.83105         3.03249    -22.5001E-03        -2.31326     113.120E-03    -56.4156E-03    -56.7048E-03    -56.7017E-03     113.117E-03    -56.4156E-03     1.28264E-03    -78.0391E+06    -79.4556E+06    -278.715E+06    -78.3922E+06    -278.694E+06    -79.1239E+06     1.09986E+06         29.0928
             262     826.287E-09     74.8988E-03         3.67070     57.4274E-03        -3.64223        -2.95304         2.98151     57.4274E-03        -4.14501     112.745E-03    -56.1531E-03    -56.5922E-03    -56.5919E-03     112.745E-03    -56.1531E-03     230.757E-06    -76.5781E+06    -77.6963E+06    -276.061E+06    -76.9324E+06    -276.038E+06    -77.3645E+06     953.536E+03         29.0963
             263    -271.737E-09     73.7823E-03         4.44938     117.445E-03        -4.59132        -2.97989         2.83795     117.445E-03        -6.84358     112.722E-03    -56.1868E-03    -56.5350E-03    -56.5336E-03     112.720E-03    -56.1868E-03     620.550E-06    -76.4489E+06    -78.3505E+06    -275.545E+06    -77.5773E+06    -275.532E+06    -77.2354E+06    -1.52270E+06         29.0996
             264     377.225E-09     72.6624E-03         5.28903     76.2013E-03        -5.47779        -2.79820         2.60943     76.2013E-03        -9.27930     113.330E-03    -56.3267E-03    -57.0032E-03    -57.0017E-03     113.328E-03    -56.3267E-03     819.874E-06    -75.2707E+06    -78.4718E+06    -275.593E+06    -76.4076E+06    -275.571E+06    -77.3567E+06    -12.6348E+03         29.1013
             265     781.616E-09     71.5432E-03         5.68329    -89.3242E-03        -5.76985        -2.48211         2.39555    -89.3242E-03        -10.3596     113.087E-03    -56.0210E-03    -57.0662E-03    -57.0628E-03     113.084E-03    -56.0210E-03     1.17852E-03    -73.1366E+06      -78.82E+06    -274.767E+06    -76.7512E+06    -274.750E+06    -75.2226E+06     1.83504E+06         29.1014
             266     47.9748E-09     70.4251E-03         5.27211    -332.843E-03        -5.18597        -2.23346         2.31959    -332.843E-03        -9.40763     112.747E-03    -56.1335E-03    -56.6131E-03    -56.6096E-03     112.743E-03    -56.1335E-03     1.25237E-03    -71.2044E+06    -77.5026E+06    -274.660E+06    -74.8102E+06    -274.652E+06    -73.9053E+06     366.619E+03         29.1025
             267     32.7988E-09     69.3084E-03         3.89803    -588.886E-03        -3.60938        -1.97768         2.26633    -588.886E-03        -6.08016     112.783E-03    -56.2449E-03    -56.5386E-03    -56.5383E-03     112.783E-03    -56.2449E-03     413.543E-06    -72.7350E+06    -77.0572E+06    -275.698E+06    -74.3582E+06    -275.696E+06    -75.4358E+06    -470.975E+03         29.1067
             268     426.699E-09     68.1889E-03         2.61821    -711.460E-03        -2.24441        -1.65348         2.02728    -711.460E-03    -621.084E-03     113.101E-03    -56.3017E-03    -56.7998E-03    -56.7971E-03     113.099E-03    -56.3017E-03     1.15664E-03    -75.6464E+06    -77.6939E+06    -278.799E+06    -77.2700E+06    -278.797E+06    -76.0725E+06    -515.513E+03         29.1136
             269     64.8485E-09     67.0703E-03         3.59872    -591.791E-03        -3.40209        -1.46159         1.65822    -591.791E-03         5.95591     113.846E-03    -56.5242E-03    -57.3217E-03    -57.3182E-03     113.842E-03    -56.5242E-03     1.52083E-03    -76.2436E+06    -77.2269E+06    -279.842E+06    -76.8030E+06    -279.840E+06    -76.6698E+06    -518.859E+03         29.1215
             270     944.786E-09     65.9499E-03         6.21259    -295.032E-03        -6.38477        -1.41418         1.24201    -295.032E-03         12.2826     113.643E-03    -56.2622E-03    -57.3808E-03    -57.3797E-03     113.642E-03    -56.2622E-03     672.260E-06    -73.2697E+06    -74.2704E+06    -278.182E+06    -73.8314E+06    -278.177E+06    -73.7133E+06     648.724E+03         29.1269
             271     158.901E-09     64.8333E-03         8.31433     117.415E-03        -8.92170        -1.37614     768.770E-03     117.415E-03         17.0947     113.225E-03    -56.3092E-03    -56.9162E-03    -56.9157E-03     113.225E-03    -56.3092E-03     528.212E-06    -73.0076E+06    -73.4618E+06    -279.763E+06    -73.0232E+06    -279.758E+06    -73.4512E+06     489.233E+03         29.1286
             272    -121.256E-09     63.7138E-03         9.08856     671.106E-03        -10.3049        -1.42063     204.302E-03     671.106E-03         19.3232     113.387E-03    -56.6288E-03    -56.7579E-03    -56.7571E-03     113.386E-03    -56.6288E-03     742.548E-06    -76.1724E+06    -76.3128E+06    -284.128E+06    -76.2087E+06    -284.102E+06    -76.3022E+06    -1.82307E+06         29.1294
             273     325.792E-09     62.5932E-03         8.29334         1.28062        -10.1793        -1.48838    -397.562E-03         1.28062         18.4392     113.032E-03    -56.2989E-03    -56.7333E-03    -56.7296E-03     113.029E-03    -56.2989E-03     1.37799E-03    -75.2335E+06    -77.1785E+06    -284.617E+06    -75.3011E+06    -284.550E+06    -77.1785E+06     486.352E+03         29.1324
             274     16.0764E-03     60.7937E-03     749.850E-03     576.110E-03        -2.06118     596.191E-03        -1.93798     606.574E-03    -671.095E-03     115.676E-03    -55.8705E-03    -59.8060E-03    -54.2309E-03     110.797E-03    -56.5661E-03     52.0706E-03     151.365E+06     120.093E+06    -6.24720E+06    -6.24084E+06     151.358E+06     120.093E+06    -619.348E+03         48.2071
             275     15.1317E-03     60.7102E-03     853.978E-03     617.916E-03        -2.19619     662.861E-03        -2.00508     617.916E-03        -1.46373     118.399E-03    -56.4728E-03    -61.9260E-03    -54.0212E-03     110.494E-03    -56.4728E-03     73.7392E-03     148.106E+06     92.9664E+06    -13.8247E+06    -13.7949E+06     148.077E+06     92.9664E+06     408.240E+03         46.0095
             276     14.1831E-03     60.6323E-03         1.11696     627.508E-03        -2.45301     725.526E-03        -2.06158     627.508E-03        -2.13268     116.462E-03    -56.3003E-03    -60.1619E-03    -53.9490E-03     110.249E-03    -56.3003E-03     64.9103E-03     139.148E+06     46.0467E+06    -19.6862E+06    -19.6371E+06     139.099E+06     46.0467E+06     2.31760E+06         43.5404
             277     13.2350E-03     60.5673E-03         1.34168     631.016E-03        -2.66696     784.420E-03        -2.10970     631.016E-03        -2.76190     115.044E-03    -56.1849E-03    -58.8594E-03    -54.9738E-03     111.159E-03    -56.1849E-03     50.4388E-03     111.064E+06     8.07852E+06    -22.2024E+06    -22.1753E+06     111.037E+06     8.07852E+06     1.60886E+06         41.0409
             278     12.2923E-03     60.5219E-03         1.18903     626.672E-03        -2.49889     837.764E-03        -2.14762     626.672E-03        -2.12893     113.465E-03    -56.0760E-03    -57.3891E-03    -55.3793E-03     111.612E-03    -56.2324E-03     34.9219E-03     45.3087E+06    -3.57098E+06    -24.3481E+06    -24.3307E+06     45.2913E+06    -3.57098E+06     40.8023E+03         38.6879
             279     11.3448E-03     60.4935E-03         1.02552     614.214E-03        -2.31295     883.565E-03        -2.17100     614.214E-03        -1.28001     112.783E-03    -56.1674E-03    -56.6158E-03    -55.3130E-03     111.674E-03    -56.3613E-03     27.2249E-03    -252.227E+03    -16.4226E+06    -40.7445E+06    -27.2810E+06    -26.3488E+06    -3.78956E+06    -799.684E+03         36.6130
             280     10.4002E-03     60.4623E-03         1.03699     594.718E-03        -2.29542     903.525E-03        -2.16196     594.718E-03     396.919E-03     113.123E-03    -56.3575E-03    -56.7653E-03    -55.8628E-03     112.327E-03    -56.4642E-03     23.0742E-03    -3.48491E+06    -29.5226E+06    -79.1599E+06    -29.5937E+06    -79.0889E+06    -3.48491E+06    -1.47635E+06         34.8882
             281     9.45369E-03     60.4419E-03         1.01405     569.694E-03        -2.23889     886.455E-03        -2.11130     569.694E-03     454.706E-03     112.956E-03    -56.2359E-03    -56.7204E-03    -55.8959E-03     112.439E-03    -56.5434E-03     18.5329E-03    -1.50198E+06    -30.8090E+06    -116.170E+06    -30.8588E+06    -116.121E+06    -1.50198E+06    -1.25091E+06         33.5113
             282     8.50797E-03     60.4230E-03     903.565E-03     540.983E-03        -2.09508     842.844E-03        -2.03436     540.983E-03     94.2781E-03     112.772E-03    -56.1398E-03    -56.6325E-03    -55.7994E-03     112.432E-03    -56.6325E-03     15.0960E-03     188.817E+03    -33.5509E+06    -145.775E+06    -33.5565E+06    -145.769E+06     188.817E+03    -137.778E+03         32.4314
             283     7.56243E-03     60.4100E-03     859.982E-03     510.230E-03        -2.02221     786.383E-03        -1.94861     510.230E-03     26.2917E-03     113.071E-03    -56.3420E-03    -56.7290E-03    -56.1171E-03     112.817E-03    -56.7001E-03     13.0619E-03    -3.11850E+06    -38.6565E+06    -173.564E+06    -38.6591E+06    -173.561E+06    -3.11850E+06     169.023E+03         31.5866
             284     6.61687E-03     60.3958E-03         1.28676     477.696E-03        -2.41889     731.478E-03        -1.86361     477.696E-03         1.48474     113.200E-03    -56.4355E-03    -56.7650E-03    -56.2882E-03     113.024E-03    -56.7361E-03     10.8535E-03    -8.95617E+06    -43.8926E+06    -198.739E+06    -43.8954E+06    -198.737E+06    -8.95617E+06    -202.060E+03         30.9230
             285     5.67143E-03     60.3863E-03         1.36734     445.183E-03        -2.46240     646.983E-03        -1.74205     445.183E-03         2.94845     113.189E-03    -56.4214E-03    -56.7679E-03    -56.2968E-03     113.065E-03    -56.7679E-03     9.17938E-03    -15.6570E+06    -49.1169E+06    -222.718E+06    -49.1199E+06    -222.715E+06    -15.6570E+06    -272.125E+03         30.4002
             286     4.72582E-03     60.3764E-03         1.92208     414.466E-03        -2.97793     574.020E-03        -1.62986     414.466E-03         4.22050     113.302E-03    -56.5007E-03    -56.8011E-03    -56.4179E-03     113.209E-03    -56.7912E-03     7.88210E-03    -23.7605E+06    -54.5879E+06    -242.975E+06    -54.5926E+06    -242.971E+06    -23.7605E+06    -192.538E+03         29.9907
             287     3.78099E-03     60.3703E-03         1.92688     390.017E-03        -2.94568     471.158E-03        -1.48996     390.017E-03         4.40145     113.346E-03    -56.5097E-03    -56.8360E-03    -56.5115E-03     113.290E-03    -56.7784E-03     6.08338E-03    -36.3173E+06    -60.2455E+06    -258.077E+06    -60.2506E+06    -258.072E+06    -36.3173E+06    -545.105E+03         29.6757
             288     2.83530E-03     60.3653E-03         1.81629     368.344E-03        -2.81539     445.138E-03        -1.44424     368.344E-03         4.16170     113.374E-03    -56.5624E-03    -56.8115E-03    -56.6003E-03     113.343E-03    -56.7430E-03     4.49537E-03    -49.7162E+06    -65.6842E+06    -267.348E+06    -65.6860E+06    -267.346E+06    -49.7162E+06    -363.275E+03         29.4417
             289     1.89036E-03     60.3605E-03         2.10757     366.761E-03        -3.09935     325.799E-03        -1.31757     366.761E-03         1.02131     113.331E-03    -56.5309E-03    -56.8000E-03    -56.6003E-03     113.317E-03    -56.7167E-03     2.89686E-03    -60.7864E+06    -70.0934E+06    -274.520E+06    -70.0951E+06    -274.518E+06    -60.7864E+06    -323.878E+03         29.2795
             290     945.380E-06     60.3587E-03         2.55446         1.07510        -4.26610    -474.865E-03        -1.39087         1.22919         2.64562     113.361E-03    -56.3538E-03    -57.0076E-03    -56.8709E-03     113.358E-03    -56.4869E-03     1.25480E-03    -69.3874E+06    -74.1215E+06    -279.514E+06    -73.3129E+06    -279.506E+06    -70.2041E+06    -670.488E+03         29.1824
             291     16.0767E-03     59.6766E-03     841.786E-03     693.595E-03        -2.29255     621.590E-03        -2.17952     800.765E-03    -665.667E-03     115.596E-03    -55.9162E-03    -59.6803E-03    -54.0061E-03     110.581E-03    -56.5748E-03     52.4119E-03     149.982E+06     119.655E+06    -7.52836E+06    -7.52213E+06     149.975E+06     119.655E+06    -897.737E+03         48.1868
             292     15.1295E-03     59.5880E-03     896.993E-03     808.325E-03        -2.44265     712.419E-03        -2.27129     821.539E-03        -1.45454     118.493E-03    -56.5087E-03    -61.9838E-03    -54.1446E-03     110.653E-03    -56.5087E-03     73.3648E-03     145.055E+06     96.9395E+06    -13.6714E+06    -13.6353E+06     145.019E+06     96.9395E+06    -94.6402E+03         45.9987
             293     14.1843E-03     59.5180E-03         1.18282     831.472E-03        -2.73153     812.741E-03        -2.36972     839.740E-03        -2.15688     116.987E-03    -56.3213E-03    -60.6660E-03    -54.4729E-03     110.794E-03    -56.3213E-03     65.1194E-03     138.880E+06     52.6649E+06    -17.6504E+06    -17.5758E+06     138.806E+06     52.6649E+06     1.97330E+06         43.5393
             294     13.2389E-03     59.4451E-03         1.41250     850.827E-03        -2.96375     906.126E-03        -2.45738     850.827E-03        -2.78581     114.790E-03    -56.1828E-03    -58.6070E-03    -54.5850E-03     110.768E-03    -56.1828E-03     50.9562E-03     111.616E+06     11.0115E+06    -20.8148E+06    -20.7685E+06     111.570E+06     11.0115E+06     1.99176E+06         41.0467
             295     12.2900E-03     59.4059E-03         1.29426     853.323E-03        -2.83695     977.389E-03        -2.52008     853.323E-03        -2.17109     113.310E-03    -56.2370E-03    -57.0732E-03    -55.2786E-03     111.516E-03    -56.2370E-03     34.4112E-03     46.2701E+06    -2.84614E+06    -23.4849E+06    -23.4564E+06     46.2415E+06    -2.84614E+06     834.829E+03         38.6981
             296     11.3460E-03     59.3715E-03         1.16702     847.627E-03        -2.69517         1.03499        -2.56314     847.627E-03        -1.31445     113.255E-03    -56.3487E-03    -56.9059E-03    -55.7787E-03     112.127E-03    -56.3487E-03     27.5365E-03     1.26726E+06    -15.3289E+06    -40.1232E+06    -25.3704E+06    -25.6774E+06    -3.13705E+06     13.8168E+03         36.6257
             297     10.3995E-03     59.3463E-03         1.17264     834.938E-03        -2.67894         1.07114        -2.57744     834.938E-03     366.646E-03     112.933E-03    -56.3202E-03    -56.6126E-03    -55.6682E-03     112.111E-03    -56.4424E-03     23.4566E-03    -2.69804E+06    -28.0925E+06    -78.9026E+06    -28.1512E+06    -78.8439E+06    -2.69804E+06    -1.27147E+06         34.9000
             298     9.45390E-03     59.3212E-03         1.16743     816.344E-03        -2.64758         1.07300        -2.55315     816.344E-03     439.583E-03     112.704E-03    -56.1654E-03    -56.5390E-03    -55.6493E-03     112.188E-03    -56.5390E-03     18.4102E-03    -2.58357E+06    -31.9264E+06    -117.900E+06    -31.9849E+06    -117.842E+06    -2.58357E+06    -1.40641E+06         33.5202
             299     8.50794E-03     59.3068E-03         1.08937     793.290E-03        -2.54269         1.05080        -2.50411     793.290E-03     65.9029E-03     112.798E-03    -56.1603E-03    -56.6375E-03    -55.8314E-03     112.469E-03    -56.6375E-03     14.8790E-03    -1.38735E+06    -35.3664E+06    -147.848E+06    -35.3804E+06    -147.834E+06    -1.38735E+06    -235.911E+03         32.4381
             300     7.56179E-03     59.2893E-03         1.05333     767.435E-03        -2.48340         1.00879        -2.43886     767.435E-03     19.9362E-03     113.019E-03    -56.2791E-03    -56.7396E-03    -56.0502E-03     112.761E-03    -56.7107E-03     13.1507E-03    -3.12894E+06    -38.5522E+06    -173.674E+06    -38.5553E+06    -173.671E+06    -3.12894E+06     241.926E+03         31.5920
             301     6.61718E-03     59.2780E-03         1.39969     739.490E-03        -2.80553     962.584E-03        -2.36843     739.490E-03         1.46255     113.169E-03    -56.3770E-03    -56.7917E-03    -56.2256E-03     112.988E-03    -56.7628E-03     10.9961E-03    -7.85395E+06    -42.8979E+06    -199.045E+06    -42.9015E+06    -199.042E+06    -7.85395E+06    -230.012E+03         30.9278
             302     5.67131E-03     59.2672E-03         1.51766     711.073E-03        -2.89193     891.941E-03        -2.26621     711.073E-03         3.04387     113.192E-03    -56.3862E-03    -56.8056E-03    -56.2564E-03     113.062E-03    -56.8056E-03     9.35157E-03    -15.0171E+06    -48.4053E+06    -223.040E+06    -48.4089E+06    -223.036E+06    -15.0171E+06    -249.497E+03         30.4049
             303     4.72594E-03     59.2583E-03         1.97433     683.500E-03        -3.31332     830.547E-03        -2.16954     683.500E-03         4.19794     113.209E-03    -56.3581E-03    -56.8506E-03    -56.2697E-03     113.120E-03    -56.8506E-03     7.66645E-03    -24.4672E+06    -54.1751E+06    -243.481E+06    -54.1800E+06    -243.476E+06    -24.4672E+06    -240.550E+03         29.9958
             304     3.77969E-03     59.2512E-03         2.05795     662.023E-03        -3.36352     730.633E-03        -2.03620     662.023E-03         4.61985     113.486E-03    -56.5710E-03    -56.9150E-03    -56.5651E-03     113.432E-03    -56.8674E-03     5.99880E-03    -36.3821E+06    -60.1662E+06    -258.394E+06    -60.1709E+06    -258.389E+06    -36.3821E+06    -519.816E+03         29.6817
             305     2.83571E-03     59.2456E-03         1.73493     645.065E-03        -3.02730     703.751E-03        -1.99613     645.065E-03         3.88683     113.642E-03    -56.7562E-03    -56.8859E-03    -56.7933E-03     113.611E-03    -56.8174E-03     4.53743E-03    -49.7570E+06    -66.1320E+06    -267.829E+06    -66.1344E+06    -267.827E+06    -49.7570E+06    -661.997E+03         29.4487
             306     1.89056E-03     59.2425E-03         1.46136     596.853E-03        -2.69420     602.666E-03        -1.88618     647.517E-03         1.59996     113.419E-03    -56.6223E-03    -56.7969E-03    -56.6318E-03     113.405E-03    -56.7735E-03     3.01088E-03    -61.8303E+06    -70.3694E+06    -275.354E+06     -70.371E+06    -275.353E+06    -61.8303E+06    -508.015E+03         29.2874
             307     944.387E-06     59.2399E-03         1.55967     572.428E-03        -2.78415    -131.122E-03        -1.97047         1.44954     876.311E-03     113.495E-03    -56.5526E-03    -56.9421E-03    -56.8044E-03     113.490E-03    -56.6858E-03     1.53606E-03    -71.0833E+06    -74.8510E+06    -281.205E+06    -74.0404E+06    -281.199E+06    -71.9000E+06    -729.013E+03         29.1908
             308     16.0775E-03     58.5573E-03     989.203E-03     753.661E-03        -2.51395     643.384E-03        -2.40367     989.203E-03    -686.492E-03     115.431E-03    -55.9795E-03    -59.4515E-03    -53.8044E-03     110.375E-03    -56.5706E-03     52.0115E-03     149.463E+06     119.231E+06    -8.25564E+06    -8.24669E+06     149.454E+06     119.231E+06    -714.142E+03         48.1666
             309     15.1299E-03     58.4717E-03         1.01976     911.024E-03        -2.67206     745.893E-03        -2.50693         1.01976        -1.48436     118.477E-03    -56.5088E-03    -61.9679E-03    -54.0152E-03     110.524E-03    -56.5088E-03     73.8263E-03     143.763E+06     94.7363E+06    -15.2120E+06    -15.1969E+06     143.748E+06     94.7363E+06    -1.37164E+06         45.9869
             310     14.1836E-03     58.3949E-03         1.27835     989.996E-03        -2.98385     865.626E-03        -2.62912         1.04799        -2.21996     117.121E-03    -56.3198E-03    -60.8016E-03    -54.6707E-03     110.990E-03    -56.3198E-03     64.8176E-03     135.809E+06     49.7164E+06    -20.3125E+06    -20.2631E+06     135.760E+06     49.7164E+06     306.199E+03         43.5360
             311     13.2362E-03     58.3307E-03         1.47548         1.06892        -3.24128     986.600E-03        -2.75240         1.06892        -2.85828     114.770E-03    -56.1831E-03    -58.5869E-03    -54.5201E-03     110.703E-03    -56.1831E-03     51.5392E-03     111.467E+06     10.4978E+06    -22.3724E+06    -22.3134E+06     111.408E+06     10.4978E+06     2.02489E+06         41.0504
             312     12.2917E-03     58.2840E-03         1.39604         1.08079        -3.16270         1.09022        -2.85688         1.08079        -2.25965     113.397E-03    -56.2399E-03    -57.1573E-03    -55.2579E-03     111.498E-03    -56.2399E-03     35.2126E-03     48.1617E+06    -2.64597E+06    -23.7273E+06    -23.6804E+06     48.1148E+06    -2.64597E+06     1.53271E+06         38.7066
             313     11.3451E-03     58.2544E-03         1.29142         1.08429        -3.05521         1.15908        -2.92287         1.08429        -1.38484     113.208E-03    -56.3535E-03    -56.8543E-03    -55.7543E-03     112.108E-03    -56.3535E-03     27.2129E-03     857.184E+03    -16.2737E+06    -40.8203E+06    -25.8535E+06    -26.4517E+06    -3.93170E+06     361.801E+03         36.6370
             314     10.4000E-03     58.2259E-03         1.27389         1.08192        -3.02922         1.19515        -2.95048         1.08192     303.209E-03     112.883E-03    -56.3404E-03    -56.5430E-03    -55.6065E-03     112.066E-03    -56.4594E-03     23.3814E-03    -1.28059E+06    -28.2626E+06    -77.6041E+06    -28.2779E+06    -77.5888E+06    -1.28059E+06     10.0548E+03         34.9116
             315     9.45374E-03     58.2047E-03         1.29729         1.07437        -3.03852         1.22496        -2.96619         1.07437     372.429E-03     112.863E-03    -56.3071E-03    -56.5563E-03    -55.7822E-03     112.335E-03    -56.5524E-03     18.7005E-03    -1.43214E+06    -31.9033E+06    -117.396E+06    -31.9185E+06    -117.381E+06    -1.43214E+06    -184.878E+03         33.5306
             316     8.50800E-03     58.1864E-03         1.26893         1.06107        -2.99512         1.24271        -2.96890         1.06107    -9.81998E-03     112.943E-03    -56.3111E-03    -56.6319E-03    -55.9821E-03     112.610E-03    -56.6280E-03     14.9469E-03    -2.50264E+06    -35.9968E+06    -149.290E+06    -36.0175E+06    -149.270E+06    -2.50264E+06    -817.550E+03         32.4470
             317     7.56299E-03     58.1724E-03         1.26196         1.04281        -2.97343         1.23357        -2.94505         1.04281    -31.5077E-03     112.802E-03    -56.0971E-03    -56.7046E-03    -55.8460E-03     112.551E-03    -56.7046E-03     12.9907E-03    -4.38500E+06    -39.4978E+06    -175.132E+06    -39.5066E+06    -175.123E+06    -4.38500E+06    -746.242E+03         31.5994
             318     6.61570E-03     58.1584E-03         1.55460         1.02108        -3.24830         1.20486        -2.89856         1.02108         1.41431     112.980E-03    -56.1893E-03    -56.7903E-03    -56.0051E-03     112.795E-03    -56.7903E-03     11.0890E-03    -8.40522E+06    -43.7634E+06    -200.411E+06    -43.7687E+06    -200.406E+06    -8.40522E+06    -618.626E+03         30.9338
             319     5.67108E-03     58.1486E-03         1.68412     998.308E-03        -3.35448         1.14810        -2.81846     998.308E-03         3.08190     113.315E-03    -56.4682E-03    -56.8464E-03    -56.3434E-03     113.190E-03    -56.8464E-03     9.14869E-03    -15.2212E+06    -49.1603E+06    -223.311E+06    -49.1650E+06    -223.307E+06    -15.2212E+06    -463.689E+03         30.4102
             320     4.72539E-03     58.1397E-03         2.05759     975.865E-03        -3.70006         1.09943        -2.74190     975.865E-03         4.13964     113.376E-03    -56.5036E-03    -56.8724E-03    -56.4173E-03     113.290E-03    -56.8724E-03     7.60609E-03    -24.9497E+06    -54.5789E+06    -243.633E+06    -54.5816E+06    -243.631E+06    -24.9497E+06    -203.536E+03         30.0007
             321     3.78085E-03     58.1324E-03         2.21058     958.182E-03        -3.82354         1.01703        -2.62999     958.182E-03         4.77906     113.448E-03    -56.5627E-03    -56.8856E-03    -56.5081E-03     113.394E-03    -56.8856E-03     6.02096E-03    -36.9652E+06    -59.9038E+06    -258.789E+06    -59.9066E+06    -258.786E+06    -36.9652E+06    -344.177E+03         29.6864
             322     2.83457E-03     58.1265E-03         1.76063     946.813E-03        -3.35935     980.349E-03        -2.57906     946.813E-03         3.64386     113.525E-03    -56.6343E-03    -56.8904E-03    -56.6059E-03     113.496E-03    -56.8904E-03     4.29824E-03    -50.2332E+06    -65.2653E+06    -268.230E+06    -65.2675E+06    -268.228E+06    -50.2332E+06    -616.016E+03         29.4536
             323     1.88964E-03     58.1235E-03         1.33848     903.241E-03        -2.88865     907.569E-03        -2.50841     953.905E-03         2.04310     113.685E-03    -56.7701E-03    -56.9147E-03    -56.7938E-03     113.672E-03    -56.8778E-03     2.92211E-03    -62.9823E+06    -70.7610E+06    -276.650E+06    -70.7626E+06    -276.649E+06    -62.9823E+06    -306.995E+03         29.2926
             324     945.735E-06     58.1210E-03         1.54749     637.647E-03        -2.83842     388.854E-03        -2.58558         1.54345    -574.749E-03     113.685E-03    -56.7946E-03    -56.8907E-03    -56.8853E-03     113.680E-03    -56.7946E-03     1.73159E-03    -71.1045E+06    -75.4493E+06    -282.046E+06    -73.9798E+06    -282.040E+06    -72.5805E+06     568.605E+03         29.1963
             325     16.0768E-03     57.4415E-03         1.17281     772.990E-03        -2.71459     660.736E-03        -2.60234         1.17281    -727.783E-03     115.678E-03    -55.8690E-03    -59.8090E-03    -54.0639E-03     110.637E-03    -56.5733E-03     51.9557E-03     150.281E+06     120.315E+06    -6.48952E+06    -6.46941E+06     150.261E+06     120.315E+06    -19.0882E+03         48.1455
             326     15.1299E-03     57.3513E-03         1.21335     938.237E-03        -2.88513     769.499E-03        -2.71639         1.21335        -1.55191     118.573E-03    -56.4955E-03    -62.0777E-03    -54.0503E-03     110.546E-03    -56.4955E-03     74.2542E-03     143.305E+06     93.3394E+06    -15.3862E+06    -15.3687E+06     143.288E+06     93.3394E+06     57.0190E+03         45.9749
             327     14.1837E-03     57.2771E-03         1.40396         1.10880        -3.21589     893.013E-03        -2.84872         1.25259        -2.33080     116.641E-03    -56.3194E-03    -60.3216E-03    -54.2710E-03     110.590E-03    -56.3194E-03     64.1844E-03     133.459E+06     47.2783E+06     -22.421E+06    -22.4181E+06     133.456E+06     47.2783E+06    -446.946E+03         43.5322
             328     13.2380E-03     57.2116E-03         1.52861         1.28550        -3.49762         1.02916        -2.99817         1.28550        -2.98589     114.845E-03    -56.1925E-03    -58.6522E-03    -54.6416E-03     110.834E-03    -56.1925E-03     51.4936E-03     110.426E+06     8.53131E+06    -24.9466E+06    -24.9286E+06     110.408E+06     8.53131E+06     478.735E+03         41.0531
             329     12.2902E-03     57.1655E-03         1.47460         1.30983        -3.45891         1.15818        -3.14249         1.30983        -2.40112     113.506E-03    -56.2482E-03    -57.2579E-03    -55.2933E-03     111.542E-03    -56.2482E-03     35.6347E-03     48.0549E+06    -3.43773E+06    -26.0618E+06    -26.0418E+06     48.0348E+06    -3.43773E+06     998.660E+03         38.7147
             330     11.3456E-03     57.1346E-03         1.41540         1.30670        -3.39211         1.25307        -3.24885         1.32576        -1.49904     112.955E-03    -56.3391E-03    -56.6163E-03    -55.5105E-03     111.884E-03    -56.3731E-03     26.8434E-03     261.769E+03    -16.0292E+06     -41.202E+06    -27.2257E+06    -25.8774E+06    -3.86638E+06     440.276E+03         36.6481
             331     10.3990E-03     57.1084E-03         1.39165         1.31606        -3.37497         1.30989        -3.31310         1.33595     208.628E-03     112.950E-03    -56.3849E-03    -56.5654E-03    -55.6429E-03     112.128E-03    -56.4849E-03     23.4482E-03    -2.37601E+06    -29.4484E+06    -78.5750E+06    -29.4557E+06    -78.5677E+06    -2.37601E+06     491.064E+03         34.9238
             332     9.45336E-03     57.0853E-03         1.41870         1.34053        -3.42396         1.36259        -3.36868         1.34136     280.664E-03     113.002E-03    -56.3778E-03    -56.6245E-03    -55.8860E-03     112.464E-03    -56.5776E-03     18.9281E-03    -1.26052E+06    -32.3239E+06    -117.530E+06    -32.3268E+06    -117.527E+06    -1.26052E+06     431.325E+03         33.5428
             333     8.50827E-03     57.0679E-03         1.43655         1.34055        -3.44031         1.41600        -3.41976         1.34055    -77.3447E-03     112.975E-03    -56.3220E-03    -56.6527E-03    -55.9773E-03     112.626E-03    -56.6488E-03     15.2922E-03    -2.29279E+06    -35.5671E+06    -148.851E+06    -35.5754E+06    -148.843E+06    -2.29279E+06    -254.434E+03         32.4581
             334     7.56189E-03     57.0538E-03         1.46784         1.33305        -3.46787         1.44740        -3.44744         1.33305    -79.3566E-03     113.047E-03    -56.3059E-03    -56.7413E-03    -56.0811E-03     112.791E-03    -56.7101E-03     13.1249E-03    -5.24821E+06    -39.7197E+06    -175.784E+06    -39.7300E+06    -175.774E+06    -5.24821E+06    -914.271E+03         31.6090
             335     6.61717E-03     57.0407E-03         1.73650         1.32059        -3.73126         1.44364        -3.43841         1.32059         1.38468     113.036E-03    -56.2326E-03    -56.8036E-03    -56.0839E-03     112.856E-03    -56.7724E-03     10.9595E-03    -9.93421E+06    -44.5423E+06    -201.064E+06    -44.5490E+06    -201.057E+06    -9.93421E+06    -764.481E+03         30.9416
             336     5.67065E-03     57.0291E-03         1.86971         1.30639        -3.85327         1.40777        -3.39132         1.30639         3.09666     113.169E-03    -56.3345E-03    -56.8344E-03    -56.2183E-03     113.053E-03    -56.8344E-03     8.82566E-03    -16.1439E+06    -49.6061E+06    -224.043E+06    -49.6113E+06    -224.038E+06    -16.1439E+06    -548.371E+03         30.4161
             337     4.72588E-03     57.0212E-03         2.18711         1.29329        -4.15315         1.36580        -3.33184         1.29329         4.10805     113.435E-03    -56.5736E-03    -56.8612E-03    -56.4917E-03     113.353E-03    -56.8612E-03     7.43650E-03    -25.8320E+06    -55.2766E+06    -243.796E+06    -55.2837E+06    -243.789E+06    -25.8320E+06    -925.975E+03         30.0050
             338     3.77995E-03     57.0130E-03         2.37311         1.28330        -4.32019         1.32271        -3.26980         1.28330         4.83895     113.401E-03    -56.5359E-03    -56.8653E-03    -56.4830E-03     113.348E-03    -56.8653E-03     5.89777E-03    -38.4786E+06     -60.794E+06    -259.846E+06    -60.8014E+06    -259.838E+06    -38.4786E+06    -1.10822E+06         29.6895
             339     2.83550E-03     57.0083E-03         1.91529         1.27651        -3.84862         1.29811        -3.23144         1.27651         3.50753     113.427E-03    -56.5374E-03    -56.8899E-03    -56.5096E-03     113.400E-03    -56.8899E-03     4.26947E-03    -51.4169E+06    -65.9716E+06    -269.810E+06    -65.9771E+06    -269.804E+06    -51.4169E+06    -39.9159E+03         29.4559
             340     1.88994E-03     57.0037E-03         1.54768         1.27748        -3.47899         1.26422        -3.19553         1.27748         2.25424     113.669E-03    -56.7063E-03    -56.9628E-03    -56.7270E-03     113.656E-03    -56.9286E-03     2.85798E-03    -62.5638E+06    -70.8629E+06    -277.326E+06    -70.8696E+06    -277.320E+06    -62.5638E+06     91.5489E+03         29.2947
             341     944.305E-06     57.0019E-03         1.72813         1.37341        -3.75484         1.00681        -3.21631         1.55620        -1.30399     113.843E-03    -56.7115E-03    -57.1312E-03    -57.0439E-03     113.838E-03    -56.7943E-03     1.63488E-03    -69.4513E+06    -75.6211E+06    -282.400E+06    -74.1545E+06    -282.390E+06    -70.9273E+06     423.674E+03         29.1985
             342     16.0765E-03     56.3198E-03         1.35158     773.901E-03        -2.87119     655.622E-03        -2.75291         1.35158    -781.185E-03     115.828E-03    -55.9025E-03    -59.9258E-03    -54.1599E-03     110.751E-03    -56.5908E-03     52.3515E-03     149.444E+06     119.748E+06    -8.04273E+06    -8.02787E+06     149.429E+06     119.748E+06     587.866E+03         48.1234
             343     15.1312E-03     56.2343E-03         1.40308     952.748E-03        -3.06643     773.299E-03        -2.88699         1.40308        -1.64064     118.729E-03    -56.5099E-03    -62.2190E-03    -54.0914E-03     110.601E-03    -56.5099E-03     74.7854E-03     143.639E+06     93.5044E+06    -15.2303E+06    -15.2173E+06     143.626E+06     93.5044E+06     1.16745E+06         45.9628
             344     14.1833E-03     56.1579E-03         1.52872         1.22128        -3.43210     909.707E-03        -3.04584         1.45403        -2.46164     116.909E-03    -56.3341E-03    -60.5746E-03    -54.4344E-03     110.768E-03    -56.3341E-03     64.7091E-03     134.641E+06     49.0190E+06    -21.0563E+06    -21.0540E+06     134.638E+06     49.0190E+06     189.183E+03         43.5296
             345     13.2359E-03     56.0936E-03         1.59759         1.47354        -3.73372         1.05407        -3.21635         1.49969        -3.12270     115.034E-03    -56.1887E-03    -58.8456E-03    -54.8639E-03     111.053E-03    -56.1887E-03     51.3185E-03     107.855E+06     7.65618E+06    -24.9230E+06    -24.9168E+06     107.849E+06     7.65618E+06    -302.687E+03         41.0577
             346     12.2918E-03     56.0455E-03         1.57783         1.48074        -3.71301         1.18914        -3.38183         1.53825        -2.53551     113.210E-03    -56.1294E-03    -57.0806E-03    -55.0340E-03     111.279E-03    -56.2450E-03     35.3253E-03     46.1281E+06    -4.29911E+06    -25.6313E+06    -25.6221E+06     46.1189E+06    -4.29911E+06    -366.262E+03         38.7240
             347     11.3445E-03     56.0168E-03         1.58544         1.45828        -3.69800         1.31932        -3.54267         1.56907        -1.60966     112.758E-03    -56.2446E-03    -56.5131E-03    -55.3027E-03     111.697E-03    -56.3942E-03     26.6579E-03     616.263E+03    -14.8382E+06    -40.2224E+06    -26.5597E+06    -24.9625E+06    -2.92217E+06     355.809E+03         36.6600
             348     10.3990E-03     55.9893E-03         1.59291         1.48020        -3.72811         1.42815        -3.67606         1.59291     135.213E-03     112.981E-03    -56.3540E-03    -56.6266E-03    -55.6540E-03     112.164E-03    -56.5098E-03     23.3954E-03    -3.38250E+06    -28.9940E+06    -79.7991E+06    -29.0195E+06    -79.7737E+06    -3.38250E+06     683.319E+03         34.9372
             349     9.45362E-03     55.9663E-03         1.61366         1.55414        -3.82209         1.51246        -3.77732         1.61058     214.651E-03     112.969E-03    -56.3138E-03    -56.6556E-03    -55.8100E-03     112.423E-03    -56.6127E-03     19.0481E-03    -1.72606E+06    -31.7426E+06    -119.116E+06    -31.7445E+06    -119.114E+06    -1.72606E+06     368.123E+03         33.5562
             350     8.50695E-03     55.9499E-03         1.64040         1.57933        -3.87464         1.57883        -3.85607         1.62232    -108.572E-03     113.156E-03    -56.4252E-03    -56.7306E-03    -56.1240E-03     112.809E-03    -56.6849E-03     15.2645E-03    -1.98738E+06    -35.4430E+06    -148.179E+06    -35.4452E+06    -148.177E+06    -1.98738E+06     50.4239E+03         32.4705
             351     7.56216E-03     55.9342E-03         1.67373         1.60827        -3.94260         1.63539        -3.92410         1.62812    -115.923E-03     113.348E-03    -56.5516E-03    -56.7959E-03    -56.3834E-03     113.102E-03    -56.7189E-03     12.8489E-03    -5.58320E+06    -39.8968E+06    -175.350E+06    -39.9003E+06    -175.346E+06    -5.58320E+06    -486.380E+03         31.6197
             352     6.61675E-03     55.9219E-03         1.93382         1.62849        -4.23075         1.66499        -3.96193         1.62849         1.39881     113.237E-03    -56.4595E-03    -56.7777E-03    -56.3169E-03     113.063E-03    -56.7465E-03     10.8209E-03    -9.87328E+06    -44.2401E+06    -201.156E+06    -44.2427E+06    -201.153E+06    -9.87328E+06    -292.241E+03         30.9503
             353     5.67162E-03     55.9114E-03         2.07110         1.62597        -4.37301         1.66172        -3.96362         1.62597         3.11462     113.160E-03    -56.3801E-03    -56.7803E-03    -56.2589E-03     113.039E-03    -56.7803E-03     9.01696E-03    -16.3349E+06    -49.2552E+06    -223.571E+06    -49.2573E+06    -223.569E+06    -16.3349E+06    -371.674E+03         30.4224
             354     4.72555E-03     55.9014E-03         2.37776         1.62509        -4.68076         1.63086        -3.93385         1.62509         4.15938     113.234E-03    -56.4211E-03    -56.8130E-03    -56.3429E-03     113.156E-03    -56.8130E-03     7.22249E-03    -25.7419E+06    -55.2036E+06    -244.350E+06    -55.2102E+06    -244.343E+06    -25.7419E+06    -921.234E+03         30.0090
             355     3.78105E-03     55.8950E-03         2.55119         1.62609        -4.84932         1.63131        -3.92944         1.62609         4.82644     113.319E-03    -56.4934E-03    -56.8256E-03    -56.4447E-03     113.270E-03    -56.8256E-03     5.71534E-03    -39.4313E+06    -61.8033E+06    -262.095E+06    -61.8097E+06    -262.088E+06    -39.4313E+06    -646.086E+03         29.6918
             356     2.83471E-03     55.8890E-03         2.15760         1.62649        -4.44574         1.63091        -3.91905         1.62649         3.54535     113.429E-03    -56.5998E-03    -56.8294E-03    -56.5708E-03     113.400E-03    -56.8294E-03     4.31471E-03    -52.1000E+06    -67.4102E+06    -271.155E+06    -67.4251E+06    -271.140E+06    -52.1000E+06    -387.847E+03         29.4569
             357     1.88998E-03     55.8850E-03         1.90862         1.61515        -4.18546         1.66304        -3.93987         1.61515         2.16389     113.527E-03    -56.6647E-03    -56.8621E-03    -56.6750E-03     113.514E-03    -56.8389E-03     2.77790E-03    -62.1101E+06    -71.0324E+06    -277.648E+06    -71.0483E+06    -277.632E+06    -62.1101E+06    -611.452E+03         29.2948
             358     945.230E-06     55.8825E-03         1.98787         1.55027        -4.19972         1.65787        -3.86972         1.55027        -1.04530     113.636E-03    -56.5788E-03    -57.0576E-03    -56.9711E-03     113.633E-03    -56.6616E-03     1.45581E-03    -70.0026E+06    -75.4427E+06    -283.235E+06    -74.1417E+06    -283.224E+06    -71.3142E+06    -841.955E+03         29.1982
             359     16.0765E-03     55.2028E-03         1.52405     752.055E-03        -2.97778     627.348E-03        -2.85307         1.52405    -835.544E-03     115.539E-03    -55.9466E-03    -59.5929E-03    -53.8947E-03     110.507E-03    -56.6123E-03     52.3941E-03     148.514E+06     119.481E+06    -7.42025E+06    -7.41403E+06     148.508E+06     119.481E+06     901.540E+03         48.1015
             360     15.1280E-03     55.1141E-03         1.58703     955.356E-03        -3.21547     764.918E-03        -3.02503         1.58703        -1.71990     118.699E-03    -56.5489E-03    -62.1500E-03    -54.0579E-03     110.607E-03    -56.5489E-03     74.6309E-03     143.930E+06     95.0264E+06    -14.7118E+06    -14.7072E+06     143.925E+06     95.0264E+06     685.322E+03         45.9512
             361     14.1830E-03     55.0401E-03         1.66765         1.30363        -3.61993     922.202E-03        -3.22046         1.64961        -2.56617     117.622E-03    -56.3487E-03    -61.2732E-03    -55.1241E-03     111.473E-03    -56.3487E-03     64.9836E-03     135.798E+06     50.3202E+06    -19.7665E+06    -19.7648E+06     135.796E+06     50.3202E+06     88.2733E+03         43.5284
             362     13.2388E-03     54.9728E-03         1.72549         1.58208        -3.94164         1.07659        -3.41810         1.70745        -3.21110     115.009E-03    -56.1760E-03    -58.8334E-03    -54.9974E-03     111.173E-03    -56.1760E-03     50.3158E-03     107.600E+06     9.13053E+06    -22.1905E+06    -22.1841E+06     107.594E+06     9.13053E+06    -606.899E+03         41.0641
             363     12.2907E-03     54.9290E-03         1.75925         1.55716        -3.94618         1.22422        -3.61324         1.75925        -2.61290     112.673E-03    -56.0744E-03    -56.5982E-03    -54.5177E-03     110.763E-03    -56.2450E-03     35.3141E-03     43.7278E+06    -4.23383E+06    -24.5102E+06    -24.4777E+06     43.6953E+06    -4.23383E+06    -324.411E+03         38.7346
             364     11.3447E-03     54.8973E-03         1.80407         1.54145        -3.97787         1.38224        -3.81865         1.80407        -1.67048     112.786E-03    -56.2456E-03    -56.5403E-03    -55.2396E-03     111.656E-03    -56.4162E-03     27.4249E-03     283.899E+03    -16.1544E+06    -40.0333E+06    -26.9057E+06    -25.7644E+06    -3.23376E+06     648.828E+03         36.6730
             365     10.3990E-03     54.8707E-03         1.84138         1.57934        -4.05744         1.53134        -4.00944         1.84138     127.670E-03     113.124E-03    -56.4105E-03    -56.7136E-03    -55.7965E-03     112.329E-03    -56.5323E-03     23.0987E-03    -2.65580E+06    -28.5259E+06    -79.2953E+06    -28.5539E+06    -79.2673E+06    -2.65580E+06     865.500E+03         34.9513
             366     9.45208E-03     54.8484E-03         1.87141         1.69222        -4.20347         1.65159        -4.16284         1.87141     210.466E-03     113.085E-03    -56.4077E-03    -56.6768E-03    -55.9445E-03     112.564E-03    -56.6196E-03     18.5498E-03    -2.09933E+06    -31.3652E+06    -120.115E+06    -31.3725E+06    -120.108E+06    -2.09933E+06     568.603E+03         33.5697
             367     8.50772E-03     54.8298E-03         1.89573         1.75043        -4.28885         1.73211        -4.27052         1.89573    -79.7455E-03     113.254E-03    -56.5268E-03    -56.7273E-03    -56.2423E-03     112.924E-03    -56.6816E-03     14.9103E-03    -1.54297E+06    -35.1654E+06    -148.321E+06    -35.1680E+06    -148.319E+06    -1.54297E+06     91.8019E+03         32.4823
             368     7.56243E-03     54.8156E-03         1.91775         1.82661        -4.39317         1.80869        -4.37264         1.91514    -126.550E-03     113.327E-03    -56.5614E-03    -56.7656E-03    -56.3801E-03     113.091E-03    -56.7109E-03     12.5805E-03    -4.41512E+06    -39.2338E+06    -175.285E+06    -39.2353E+06    -175.284E+06    -4.41512E+06    -108.059E+03         31.6295
             369     6.61684E-03     54.8029E-03         2.16196         1.90815        -4.72901         1.86608        -4.45452         1.92954         1.47736     113.302E-03    -56.5629E-03    -56.7395E-03    -56.4075E-03     113.138E-03    -56.7305E-03     10.5356E-03    -9.13045E+06    -44.4588E+06    -202.225E+06    -44.4590E+06    -202.225E+06    -9.13045E+06    -35.4834E+03         30.9581
             370     5.67158E-03     54.7923E-03         2.28177         1.94004        -4.89357         1.90289        -4.51470         1.94004         3.14594     113.240E-03    -56.5020E-03    -56.7381E-03    -56.3809E-03     113.119E-03    -56.7381E-03     9.03191E-03    -16.1189E+06    -50.0325E+06    -223.509E+06    -50.0343E+06    -223.507E+06    -16.1189E+06    -349.020E+03         30.4283
             371     4.72672E-03     54.7833E-03         2.63999         1.95012        -5.26706         1.90544        -4.53251         1.95012         4.31831     113.126E-03    -56.3680E-03    -56.7580E-03    -56.2884E-03     113.046E-03    -56.7580E-03     7.27982E-03    -25.2078E+06    -55.4098E+06    -245.005E+06    -55.4116E+06    -245.004E+06    -25.2078E+06    -349.294E+03         30.0131
             372     3.78009E-03     54.7762E-03         2.76845         1.95954        -5.40441         1.93675        -4.57271         1.95954         4.78478     113.225E-03    -56.4500E-03    -56.7745E-03    -56.3993E-03     113.174E-03    -56.7745E-03     5.84355E-03    -37.4318E+06    -61.5102E+06    -262.560E+06    -61.5112E+06    -262.559E+06    -37.4318E+06    -11.6312E+03         29.6940
             373     2.83608E-03     54.7701E-03         2.45789         1.96986        -5.09213         1.93528        -4.56952         1.96986         3.78431     113.387E-03    -56.6179E-03    -56.7687E-03    -56.6091E-03     113.356E-03    -56.7473E-03     4.38168E-03    -51.6696E+06    -67.2634E+06    -271.304E+06    -67.2745E+06    -271.293E+06    -51.6696E+06    -553.153E+03         29.4577
             374     1.89043E-03     54.7664E-03         2.36223         1.96060        -4.99434         2.02591        -4.65801         1.96060         1.80194     113.381E-03    -56.6448E-03    -56.7365E-03    -56.6761E-03     113.368E-03    -56.6919E-03     2.89647E-03    -64.0998E+06    -72.3195E+06    -279.028E+06    -72.3302E+06    -279.017E+06    -64.0998E+06    -667.240E+03         29.2944
             375     945.144E-06     54.7631E-03         2.51257         1.55836        -4.73533         2.33234        -4.55510         1.55836     200.758E-03     113.274E-03    -56.4484E-03    -56.8259E-03    -56.8158E-03     113.270E-03    -56.4538E-03     1.51160E-03    -72.7668E+06    -76.9246E+06    -285.004E+06    -75.6214E+06    -284.995E+06    -74.0784E+06    -875.075E+03         29.1969
             376     16.0757E-03     54.0814E-03         1.68672     725.553E-03        -3.04823     595.899E-03        -2.91858         1.68672    -872.388E-03     115.390E-03    -55.9905E-03    -59.3996E-03    -54.0307E-03     110.643E-03    -56.6127E-03     51.9887E-03     148.339E+06     119.047E+06    -7.84169E+06    -7.82390E+06     148.321E+06     119.047E+06     743.139E+03         48.0811
             377     15.1303E-03     53.9987E-03         1.76025     955.479E-03        -3.33481     758.291E-03        -3.13763         1.76025        -1.77247     118.712E-03    -56.5332E-03    -62.1790E-03    -54.3272E-03     110.860E-03    -56.5332E-03     73.6665E-03     144.116E+06     94.8895E+06    -14.1797E+06    -14.1728E+06     144.109E+06     94.8895E+06    -184.689E+03         45.9410
             378     14.1828E-03     53.9173E-03         1.83330         1.33467        -3.77365     933.504E-03        -3.37248         1.83330        -2.62184     117.397E-03    -56.3264E-03    -61.0703E-03    -54.8710E-03     111.197E-03    -56.3264E-03     65.0361E-03     134.663E+06     48.7724E+06    -19.4144E+06    -19.4120E+06     134.661E+06     48.7724E+06    -450.752E+03         43.5275
             379     13.2375E-03     53.8543E-03         1.90175         1.62272        -4.12315         1.10760        -3.60803         1.90175        -3.24553     114.595E-03    -56.1818E-03    -58.4131E-03    -54.6780E-03     110.860E-03    -56.1818E-03     49.6109E-03     107.317E+06     9.05863E+06    -23.2888E+06    -23.2840E+06     107.313E+06     9.05863E+06    -414.215E+03         41.0698
             380     12.2911E-03     53.8126E-03         1.96414         1.60526        -4.16850         1.28270        -3.84594         1.96414        -2.64153     112.923E-03    -56.2016E-03    -56.7218E-03    -54.7416E-03     110.998E-03    -56.2566E-03     35.5078E-03     43.3718E+06    -3.56868E+06    -25.2760E+06    -25.2476E+06     43.3435E+06    -3.56868E+06     517.924E+03         38.7454
             381     11.3439E-03     53.7776E-03         2.01985         1.61337        -4.23899         1.45818        -4.08380         2.01985        -1.68517     112.919E-03    -56.3413E-03    -56.5781E-03    -55.4026E-03     111.811E-03    -56.4088E-03     27.1258E-03    -229.321E+03    -16.8707E+06    -40.9884E+06    -26.7833E+06    -27.8631E+06    -3.44197E+06     792.110E+03         36.6868
             382     10.3983E-03     53.7523E-03         2.06905         1.65920        -4.34358         1.61368        -4.29806         2.06905     157.564E-03     113.153E-03    -56.5031E-03    -56.6502E-03    -55.9037E-03     112.419E-03    -56.5155E-03     22.1831E-03    -1.58006E+06    -29.7709E+06    -78.6651E+06    -29.7927E+06    -78.6433E+06    -1.58006E+06     1.00082E+06         34.9650
             383     9.45444E-03     53.7285E-03         2.11192         1.79535        -4.52978         1.75687        -4.49130         2.11192     244.888E-03     113.113E-03    -56.4467E-03    -56.6663E-03    -56.0330E-03     112.615E-03    -56.5819E-03     18.2299E-03    -2.27423E+06    -32.3303E+06    -119.248E+06    -32.3471E+06    -119.231E+06    -2.27423E+06     581.938E+03         33.5814
             384     8.50784E-03     53.7121E-03         2.14885         1.89177        -4.66861         1.87235        -4.64920         2.14885     9.71663E-03     113.045E-03    -56.3982E-03    -56.6465E-03    -56.0596E-03     112.706E-03    -56.6465E-03     15.0581E-03    -1.79672E+06    -35.1203E+06    -149.432E+06    -35.1221E+06    -149.431E+06    -1.79672E+06     100.710E+03         32.4915
             385     7.56208E-03     53.6957E-03         2.18046         1.99856        -4.81525         1.97347        -4.79016         2.18046    -99.6397E-03     113.219E-03    -56.5161E-03    -56.7029E-03    -56.2898E-03     112.984E-03    -56.6940E-03     12.5502E-03    -3.72457E+06    -39.4663E+06    -176.494E+06    -39.4689E+06    -176.491E+06    -3.72457E+06     458.671E+03         31.6366
             386     6.61741E-03     53.6847E-03         2.41048         2.14173        -5.20019         2.04862        -4.90423         2.20763         1.60102     113.274E-03    -56.5525E-03    -56.7218E-03    -56.3972E-03     113.110E-03    -56.7128E-03     10.5373E-03    -8.83333E+06    -44.3871E+06    -202.261E+06    -44.3892E+06    -202.259E+06    -8.83333E+06     126.871E+03         30.9639
             387     5.67185E-03     53.6732E-03         2.49059         2.23010        -5.38304         2.12711        -5.01957         2.23010         3.16247     113.169E-03    -56.4417E-03    -56.7268E-03    -56.3202E-03     113.047E-03    -56.7268E-03     9.03900E-03    -15.0501E+06    -49.7869E+06    -223.319E+06    -49.7887E+06    -223.317E+06    -15.0501E+06    -250.568E+03         30.4333
             388     4.72599E-03     53.6651E-03         2.93324         2.24879        -5.85280         2.16989        -5.08945         2.24879         4.52111     113.219E-03    -56.4498E-03    -56.7694E-03    -56.3994E-03     113.136E-03    -56.7363E-03     7.48831E-03    -24.4463E+06    -56.0826E+06    -245.046E+06    -56.0839E+06    -245.044E+06    -24.4463E+06    -130.589E+03         30.0171
             389     3.78166E-03     53.6575E-03         3.02022         2.26281        -5.95863         2.22884        -5.16724         2.26281         4.69704     113.253E-03    -56.5032E-03    -56.7494E-03    -56.4832E-03     113.199E-03    -56.7163E-03     5.95213E-03    -37.3427E+06    -62.5356E+06    -262.178E+06    -62.5367E+06    -262.177E+06    -37.3427E+06    -271.625E+03         29.6966
             390     2.83506E-03     53.6516E-03         2.83550         2.27991        -5.77714         2.21196        -5.15361         2.27991         4.16601     113.205E-03    -56.5060E-03    -56.6995E-03    -56.4967E-03     113.175E-03    -56.6781E-03     4.50825E-03    -51.6122E+06    -68.1462E+06    -272.152E+06    -68.1479E+06    -272.151E+06    -51.6122E+06    -189.371E+03         29.4589
             391     1.89053E-03     53.6473E-03         3.02409         2.28308        -5.97950         2.32029        -5.27570         2.28308         1.22065     113.248E-03    -56.5669E-03    -56.6816E-03    -56.6059E-03     113.234E-03    -56.6283E-03     2.97249E-03    -64.2783E+06    -72.4276E+06    -279.844E+06    -72.4295E+06    -279.842E+06    -64.2783E+06     125.314E+03         29.2945
             392     945.354E-06     53.6454E-03         3.91332         1.63603        -6.20878         2.91364        -5.20910         1.63603         2.12779     113.148E-03    -56.3634E-03    -56.7846E-03    -56.7746E-03     113.143E-03    -56.3688E-03     1.56572E-03    -74.0243E+06    -76.6487E+06    -285.672E+06    -76.6527E+06    -285.668E+06    -74.0243E+06     269.715E+03         29.1961
             393     16.0765E-03     52.9604E-03         1.83399     702.292E-03        -3.09199     570.070E-03        -2.95977         1.83399    -883.678E-03     115.436E-03    -56.0375E-03    -59.3986E-03    -54.1628E-03     110.741E-03    -56.5780E-03     51.6807E-03     147.644E+06     120.423E+06    -6.82007E+06    -6.80558E+06     147.629E+06     120.423E+06     324.353E+03         48.0611
             394     15.1302E-03     52.8805E-03         1.91632     953.898E-03        -3.42657     757.353E-03        -3.23002         1.91632        -1.78378     118.698E-03    -56.4792E-03    -62.2183E-03    -54.3746E-03     110.854E-03    -56.4792E-03     73.6522E-03     143.712E+06      93.944E+06    -14.0889E+06    -14.0764E+06     143.700E+06      93.944E+06     71.9274E+03         45.9300
             395     14.1849E-03     52.7978E-03         1.99784         1.33916        -3.89416     946.723E-03        -3.50172         1.99784        -2.62643     116.594E-03    -56.2883E-03    -60.3059E-03    -54.1035E-03     110.392E-03    -56.2883E-03     64.7544E-03     133.423E+06     46.0632E+06    -20.6484E+06    -20.6388E+06     133.413E+06     46.0632E+06     309.231E+03         43.5246
             396     13.2365E-03     52.7379E-03         2.07483         1.64553        -4.27938         1.14682        -3.78067         2.07483        -3.24561     114.320E-03    -56.1843E-03    -58.1353E-03    -54.4297E-03     110.614E-03    -56.1843E-03     49.2895E-03     106.226E+06     7.60767E+06    -24.9091E+06    -24.9053E+06     106.223E+06     7.60767E+06    -219.059E+03         41.0736
             397     12.2906E-03     52.6911E-03         2.14546         1.65456        -4.36575         1.34682        -4.05801         2.14546        -2.64250     113.620E-03    -56.2457E-03    -57.3743E-03    -55.5205E-03     111.766E-03    -56.2457E-03     34.8644E-03     44.3538E+06    -2.43476E+06    -26.3081E+06    -26.3027E+06     44.3484E+06    -2.43476E+06     213.164E+03         38.7555
             398     11.3463E-03     52.6612E-03         2.20978         1.67764        -4.46456         1.52886        -4.31578         2.20978        -1.67805     112.998E-03    -56.3365E-03    -56.6615E-03    -55.5741E-03     111.923E-03    -56.3489E-03     26.8342E-03    -1.55555E+06    -16.1862E+06    -42.6983E+06    -27.8526E+06    -28.4189E+06    -4.16856E+06     924.697E+03         36.6999
             399     10.4003E-03     52.6313E-03         2.26913         1.72829        -4.58725         1.68483        -4.54380         2.26913     193.762E-03     112.841E-03    -56.3235E-03    -56.5175E-03    -55.6312E-03     112.086E-03    -56.4544E-03     22.3636E-03    -2.75284E+06    -29.9635E+06    -80.7295E+06    -30.0193E+06    -80.6738E+06    -2.75284E+06     1.05831E+06         34.9770
             400     9.45315E-03     52.6116E-03         2.32353         1.88099        -4.80682         1.84310        -4.76894         2.32353     264.056E-03     112.915E-03    -56.3364E-03    -56.5791E-03    -55.8762E-03     112.419E-03    -56.5432E-03     18.2381E-03    -992.256E+03    -32.5079E+06    -117.394E+06    -32.5280E+06    -117.374E+06    -992.256E+03     631.285E+03         33.5906
             401     8.50809E-03     52.5918E-03         2.37218         2.01061        -4.99548         1.98812        -4.97299         2.37218     91.8313E-03     112.938E-03    -56.3203E-03    -56.6177E-03    -55.9903E-03     112.599E-03    -56.6091E-03     15.0140E-03    -2.40354E+06    -36.1105E+06    -149.508E+06    -36.1277E+06    -149.491E+06    -2.40354E+06    -63.2646E+03         32.4980
             402     7.56300E-03     52.5783E-03         2.41525         2.14526        -5.18346         2.11351        -5.15171         2.41525    -79.5807E-03     112.915E-03    -56.2382E-03    -56.6768E-03    -55.9997E-03     112.676E-03    -56.6768E-03     12.6730E-03    -4.36368E+06    -39.6808E+06    -178.265E+06    -39.6905E+06    -178.255E+06    -4.36368E+06    -70.9037E+03         31.6413
             403     6.61675E-03     52.5645E-03         2.64111         2.34490        -5.62049         2.21313        -5.30143         2.45383         1.70236     113.127E-03    -56.3981E-03    -56.7288E-03    -56.2188E-03     112.948E-03    -56.7288E-03     10.9405E-03    -8.27361E+06    -43.8480E+06    -201.895E+06    -43.8534E+06    -201.890E+06    -8.27361E+06     539.491E+03         30.9679
             404     5.67176E-03     52.5557E-03         2.68901         2.47050        -5.81013         2.32079        -5.45848         2.48708         3.11436     113.286E-03    -56.5294E-03    -56.7569E-03    -56.4115E-03     113.162E-03    -56.7510E-03     9.14255E-03    -14.8421E+06    -49.6037E+06    -223.606E+06    -49.6076E+06    -223.602E+06    -14.8421E+06     307.484E+03         30.4373
             405     4.72640E-03     52.5458E-03         3.21832         2.49828        -6.37813         2.39505        -5.57145         2.51486         4.67989     113.339E-03    -56.5522E-03    -56.7866E-03    -56.5018E-03     113.249E-03    -56.7476E-03     7.75474E-03    -23.7569E+06    -56.3713E+06    -244.842E+06    -56.3725E+06    -244.840E+06    -23.7569E+06    -195.519E+03         30.0210
             406     3.78075E-03     52.5388E-03         3.27972         2.53470        -6.48085         2.48530        -5.68644         2.53470         4.52917     113.408E-03    -56.5679E-03    -56.8399E-03    -56.6603E-03     113.353E-03    -56.6929E-03     6.02001E-03    -36.5612E+06    -62.1562E+06    -262.496E+06    -62.1579E+06    -262.494E+06    -36.5612E+06    -357.213E+03         29.6999
             407     2.83652E-03     52.5335E-03         3.28385         2.55550        -6.49691         2.47583        -5.68890         2.55550         4.56081     113.184E-03    -56.4613E-03    -56.7222E-03    -56.5469E-03     113.155E-03    -56.6083E-03     4.32163E-03    -51.0383E+06    -67.8884E+06    -272.683E+06    -67.8891E+06    -272.682E+06    -51.0383E+06    -236.257E+03         29.4610
             408     1.89033E-03     52.5285E-03         3.92999         2.56137        -7.16009         2.59504        -5.82513         2.56137     503.086E-03     112.996E-03    -56.3914E-03    -56.6042E-03    -56.4108E-03     112.983E-03    -56.5722E-03     2.81159E-03    -63.7346E+06    -73.2083E+06    -280.558E+06    -73.2098E+06    -280.557E+06    -63.7346E+06    -144.075E+03         29.2955
             409     945.280E-06     52.5269E-03         6.06868         1.77535        -8.49877         3.33214        -5.76222         1.77535         4.33833     113.097E-03    -56.3909E-03    -56.7058E-03    -56.5742E-03     113.092E-03    -56.5180E-03     1.60055E-03    -72.0678E+06    -76.6548E+06    -285.303E+06    -75.1109E+06    -285.295E+06    -73.6194E+06     822.559E+03         29.1965
             410     16.0784E-03     51.8478E-03         1.95885     673.286E-03        -3.10363     545.598E-03        -2.97594         1.95885    -866.979E-03     115.653E-03    -56.1605E-03    -59.4926E-03    -54.0650E-03     110.594E-03    -56.5286E-03     51.9949E-03     146.834E+06     120.230E+06    -6.25629E+06    -6.20747E+06     146.786E+06     120.230E+06     449.075E+03         48.0393
             411     15.1312E-03     51.7560E-03         2.04806     941.450E-03        -3.48366     756.554E-03        -3.29876         2.04806        -1.73495     118.395E-03    -56.4494E-03    -61.9452E-03    -53.8390E-03     110.288E-03    -56.4494E-03     74.5182E-03     142.253E+06     93.1315E+06    -14.0010E+06    -13.9627E+06     142.215E+06     93.1315E+06     1.43388E+06         45.9160
             412     14.1839E-03     51.6845E-03         2.13583         1.33589        -3.98024     961.158E-03        -3.60550         2.13583        -2.58228     116.562E-03    -56.2749E-03    -60.2871E-03    -54.2318E-03     110.507E-03    -56.2749E-03     64.1454E-03     134.207E+06     47.1322E+06    -19.3926E+06    -19.3811E+06     134.195E+06     47.1322E+06     742.772E+03         43.5192
             413     13.2371E-03     51.6167E-03         2.21935         1.65224        -4.39300         1.17574        -3.91650         2.21935        -3.20891     114.571E-03    -56.1625E-03    -58.4088E-03    -54.5802E-03     110.743E-03    -56.1625E-03     50.1321E-03     106.150E+06     9.31343E+06    -22.0098E+06    -22.0045E+06     106.144E+06     9.31343E+06     388.198E+03         41.0758
             414     12.2924E-03     51.5729E-03         2.29728         1.67528        -4.50622         1.38366        -4.21461         2.29728        -2.61355     113.571E-03    -56.2166E-03    -57.3545E-03    -55.4723E-03     111.689E-03    -56.2166E-03     35.1117E-03     43.0052E+06    -2.54526E+06    -26.2247E+06    -26.2038E+06     42.9843E+06    -2.54526E+06     468.702E+03         38.7630
             415     11.3456E-03     51.5411E-03         2.36973         1.71724        -4.63454         1.57535        -4.49265         2.36973        -1.65035     112.933E-03    -56.2002E-03    -56.7329E-03    -55.5099E-03     111.835E-03    -56.3249E-03     27.1303E-03    -332.413E+03    -15.8646E+06    -43.8775E+06    -28.4308E+06    -28.1421E+06    -3.50151E+06     946.813E+03         36.7098
             416     10.3996E-03     51.5146E-03         2.43788         1.78767        -4.78967         1.74591        -4.74791         2.43788     238.982E-03     112.790E-03    -56.1913E-03    -56.5986E-03    -55.5352E-03     111.970E-03    -56.4344E-03     23.3538E-03    -2.41024E+06    -29.2325E+06    -81.8297E+06    -29.2762E+06     -81.786E+06    -2.41024E+06     655.246E+03         34.9864
             417     9.45461E-03     51.4916E-03         2.50218         1.94718        -5.02895         1.90866        -4.99042         2.50218     273.552E-03     112.985E-03    -56.3238E-03    -56.6617E-03    -55.9351E-03     112.460E-03    -56.5248E-03     18.6050E-03    -44.7134E+03    -32.1014E+06    -116.967E+06    -32.1138E+06    -116.955E+06    -44.7134E+03     699.420E+03         33.5982
             418     8.50893E-03     51.4740E-03         2.56239         2.08643        -5.24201         2.06177        -5.21735         2.56239     126.354E-03     112.761E-03    -56.1582E-03    -56.6033E-03    -55.8316E-03     112.426E-03    -56.5947E-03     14.9906E-03    -1.28437E+06    -35.4466E+06    -148.782E+06    -35.4676E+06    -148.761E+06    -1.28437E+06     435.129E+03         32.5036
             419     7.56226E-03     51.4596E-03         2.61754         2.25717        -5.48122         2.21891        -5.44296         2.61754    -113.143E-03     112.771E-03    -56.0976E-03    -56.6737E-03    -55.8425E-03     112.516E-03    -56.6737E-03     13.0328E-03    -5.33308E+06    -39.9362E+06    -179.541E+06    -39.9526E+06    -179.525E+06    -5.33308E+06    -473.133E+03         31.6455
             420     6.61673E-03     51.4467E-03         2.83629         2.52083        -5.97654         2.35353        -5.64001         2.66705         1.74588     113.041E-03    -56.2904E-03    -56.7504E-03    -56.1139E-03     112.864E-03    -56.7504E-03     10.8538E-03    -8.22991E+06    -44.7586E+06    -202.946E+06    -44.7664E+06    -202.938E+06    -8.22991E+06     9.15858E+03         30.9716
             421     5.67104E-03     51.4358E-03         2.87981         2.65306        -6.16729         2.48025        -5.82524         2.71057         3.02776     113.351E-03    -56.5385E-03    -56.8123E-03    -56.4526E-03     113.229E-03    -56.7763E-03     9.06998E-03    -14.8952E+06    -49.5040E+06    -223.615E+06    -49.5094E+06    -223.610E+06    -14.8952E+06     62.6949E+03         30.4410
             422     4.72622E-03     51.4277E-03         3.47851         2.69167        -6.81628         2.57193        -5.96721         2.74919         4.78229     113.525E-03    -56.6866E-03    -56.8388E-03    -56.6875E-03     113.441E-03    -56.7531E-03     7.54401E-03    -23.6377E+06    -54.6136E+06    -244.855E+06    -54.6180E+06    -244.851E+06    -23.6377E+06    -786.457E+03         30.0249
             423     3.78115E-03     51.4197E-03         3.52208         2.76425        -6.94356         2.67820        -6.11670         2.78126         4.32243     113.374E-03    -56.5166E-03    -56.8576E-03    -56.6282E-03     113.322E-03    -56.6941E-03     5.88491E-03    -35.0904E+06    -60.5777E+06    -263.286E+06    -60.5802E+06    -263.283E+06    -35.0904E+06    -500.733E+03         29.7035
             424     2.83587E-03     51.4143E-03         3.74321         2.79183        -7.18801         2.72778        -6.18959         2.80884         4.85743     113.205E-03    -56.4651E-03    -56.7394E-03    -56.5666E-03     113.175E-03    -56.6087E-03     4.40410E-03    -49.6928E+06    -66.3819E+06    -272.492E+06    -66.3824E+06    -272.492E+06    -49.6928E+06     24.0372E+03         29.4642
             425     1.89115E-03     51.4115E-03         4.86061         2.81188        -8.33115         2.85732        -6.32785         2.81188    -187.688E-03     113.025E-03    -56.4269E-03    -56.5984E-03    -56.4578E-03     113.010E-03    -56.5517E-03     3.21051E-03    -62.6995E+06    -71.7982E+06    -280.191E+06    -71.7998E+06    -280.189E+06    -62.6995E+06     9.53946E+03         29.2983
             426     945.016E-06     51.4076E-03         8.20722         1.96407        -10.8294         3.63842        -6.26056         1.96407         6.29082     113.023E-03    -56.3625E-03    -56.6608E-03    -56.5281E-03     113.018E-03    -56.4895E-03     1.43502E-03    -70.9174E+06    -77.5056E+06    -286.289E+06    -75.9643E+06    -286.278E+06    -72.4691E+06    -89.7020E+03         29.1990
             427     16.0784E-03     50.7289E-03         2.05384     625.983E-03        -3.07862     508.184E-03        -2.96082         2.05384    -820.147E-03     116.023E-03    -56.1641E-03    -59.8588E-03    -54.3305E-03     110.867E-03    -56.5365E-03     52.4829E-03     145.884E+06     119.582E+06    -7.46219E+06    -7.41105E+06     145.833E+06     119.582E+06    -63.7562E+03         48.0149
             428     15.1302E-03     50.6402E-03         2.14824     912.345E-03        -3.49824     745.689E-03        -3.33158         2.14824        -1.64112     118.487E-03    -56.4593E-03    -62.0279E-03    -53.8020E-03     110.261E-03    -56.4593E-03     75.0813E-03     142.513E+06     94.7355E+06    -13.2463E+06    -13.2101E+06     142.477E+06     94.7355E+06     823.200E+03         45.9003
             429     14.1841E-03     50.5631E-03         2.24041         1.31708        -4.02390     965.583E-03        -3.67241         2.24041        -2.49796     116.772E-03    -56.2770E-03    -60.4954E-03    -54.3808E-03     110.658E-03    -56.2770E-03     64.5190E-03     133.974E+06     47.7007E+06    -18.0761E+06    -18.0562E+06     133.954E+06     47.7007E+06     1.16953E+06         43.5122
             430     13.2389E-03     50.5002E-03         2.32912         1.62457        -4.44225         1.17567        -3.99335         2.32912        -3.12438     114.969E-03    -56.1482E-03    -58.8210E-03    -54.8990E-03     111.047E-03    -56.1482E-03     50.9217E-03     104.856E+06     8.72240E+06    -23.2121E+06    -23.1857E+06     104.830E+06     8.72240E+06     1.71813E+06         41.0764
             431     12.2904E-03     50.4530E-03         2.41399         1.65508        -4.57567         1.38156        -4.30214         2.41399        -2.54700     113.212E-03    -56.0871E-03    -57.1251E-03    -55.0781E-03     111.288E-03    -56.2100E-03     35.3650E-03     42.0878E+06    -1.84734E+06    -25.8664E+06    -25.8384E+06     42.0598E+06    -1.84734E+06     1.10452E+06         38.7686
             432     11.3462E-03     50.4225E-03         2.49449         1.72264        -4.74038         1.58882        -4.60656         2.49449        -1.59244     112.822E-03    -56.0912E-03    -56.7311E-03    -55.4210E-03     111.760E-03    -56.3387E-03     26.6549E-03    -4.33861E+03    -16.1775E+06    -42.5036E+06    -27.5300E+06    -28.7899E+06    -2.36548E+06     488.823E+03         36.7179
             433     10.3995E-03     50.3970E-03         2.57109         1.81503        -4.92631         1.77489        -4.88618         2.57109     297.463E-03     112.943E-03    -56.1951E-03    -56.7480E-03    -55.6858E-03     112.128E-03    -56.4417E-03     23.4086E-03    -1.61862E+06    -29.3532E+06    -80.1995E+06    -29.3623E+06    -80.1904E+06    -1.61862E+06    -32.5796E+03         34.9953
             434     9.45381E-03     50.3711E-03         2.64495         1.97885        -5.18180         1.94004        -5.14298         2.64495     300.971E-03     112.840E-03    -56.1797E-03    -56.6604E-03    -55.7634E-03     112.295E-03    -56.5320E-03     18.8737E-03    -294.026E+03    -30.9922E+06    -118.314E+06    -31.0010E+06    -118.305E+06    -294.026E+03     62.2812E+03         33.6062
             435     8.50804E-03     50.3574E-03         2.71650         2.12531        -5.41742         2.10057        -5.39268         2.71650     154.174E-03     112.835E-03    -56.1880E-03    -56.6470E-03    -55.8773E-03     112.498E-03    -56.6204E-03     15.0682E-03     617.856E+03    -34.4831E+06    -149.298E+06    -34.5076E+06    -149.273E+06     617.856E+03     1.29512E+06         32.5101
             436     7.56245E-03     50.3401E-03         2.78371         2.32856        -5.70149         2.28618        -5.65911         2.78371    -151.459E-03     112.985E-03    -56.2792E-03    -56.7056E-03    -56.0495E-03     112.729E-03    -56.6791E-03     13.0650E-03    -4.08452E+06    -39.3426E+06    -177.977E+06    -39.3710E+06    -177.949E+06    -4.08452E+06     697.908E+03         31.6509
             437     6.61724E-03     50.3285E-03         2.99584         2.65811        -6.25476         2.46233        -5.90695         2.84380         1.77700     113.085E-03    -56.3533E-03    -56.7320E-03    -56.1818E-03     112.914E-03    -56.7320E-03     10.7359E-03    -8.78607E+06    -44.2828E+06    -204.143E+06    -44.3016E+06    -204.124E+06    -8.78607E+06    -1.25826E+06         30.9759
             438     5.67143E-03     50.3173E-03         3.04923         2.78930        -6.45402         2.60243        -6.11511         2.89719         2.98147     113.290E-03    -56.5032E-03    -56.7864E-03    -56.4100E-03     113.166E-03    -56.7562E-03     9.11445E-03    -14.5471E+06    -48.8681E+06    -223.199E+06    -48.8849E+06    -223.182E+06    -14.5471E+06    -1.25086E+06         30.4447
             439     4.72629E-03     50.3078E-03         3.68942         2.83916        -7.15837         2.70787        -6.28472         2.94706         4.85244     113.436E-03    -56.6231E-03    -56.8130E-03    -56.6233E-03     113.356E-03    -56.7332E-03     7.27207E-03    -25.1520E+06    -54.3370E+06    -245.602E+06    -54.3425E+06    -245.596E+06    -25.1520E+06    -997.288E+03         30.0283
             440     3.78146E-03     50.3016E-03         3.73544         2.94097        -7.31962         2.82543        -6.46171         2.99308         4.18597     113.226E-03    -56.4744E-03    -56.7519E-03    -56.4744E-03     113.177E-03    -56.7023E-03     5.78087E-03    -36.8426E+06    -60.6060E+06    -265.060E+06    -60.6090E+06    -265.056E+06    -36.8426E+06    -630.625E+03         29.7071
             441     2.83555E-03     50.2960E-03         4.10621         2.97953        -7.73158         2.93165        -6.60912         3.03164         5.03651     113.168E-03    -56.4740E-03    -56.6939E-03    -56.4602E-03     113.137E-03    -56.6772E-03     4.43925E-03    -48.8957E+06    -65.7226E+06    -272.485E+06    -65.7240E+06    -272.484E+06    -48.8957E+06    -185.681E+03         29.4682
             442     1.89002E-03     50.2923E-03         5.49368         3.04775        -9.19176         3.05291        -6.75099         3.04775    -622.689E-03     113.289E-03    -56.6026E-03    -56.6862E-03    -56.6589E-03     113.275E-03    -56.6159E-03     3.01070E-03    -61.4031E+06    -70.0621E+06    -279.720E+06    -70.0640E+06    -279.718E+06    -61.4031E+06    -16.6838E+03         29.3030
             443     945.757E-06     50.2900E-03         9.60085         2.25383        -12.4886         3.84067        -6.72839         2.25383         7.55539     113.088E-03    -56.3819E-03    -56.7059E-03    -56.6996E-03     113.082E-03    -56.3819E-03     1.71973E-03    -70.1962E+06    -75.7297E+06    -286.323E+06    -74.3727E+06    -286.311E+06    -71.5653E+06     140.430E+03         29.2042
             444     16.0755E-03     49.6067E-03         2.11340     576.520E-03        -3.04087     465.822E-03        -2.93017         2.11340    -763.587E-03     115.913E-03    -55.8059E-03    -60.1071E-03    -54.2874E-03     110.870E-03    -56.5828E-03     52.4697E-03     144.555E+06     120.591E+06    -5.91573E+06    -5.89080E+06     144.530E+06     120.591E+06    -1.54368E+06         47.9902
             445     15.1321E-03     49.5229E-03         2.21128     866.066E-03        -3.47405     715.753E-03        -3.32373         2.21128        -1.53845     119.022E-03    -56.4988E-03    -62.5229E-03    -54.4321E-03     110.931E-03    -56.4988E-03     74.7747E-03     141.213E+06     97.6361E+06    -11.9799E+06    -11.9307E+06     141.164E+06     97.6361E+06     165.534E+03         45.8846
             446     14.1833E-03     49.4450E-03         2.30658         1.27139        -4.01449     942.958E-03        -3.68606         2.30658        -2.38755     117.007E-03    -56.2930E-03    -60.7137E-03    -54.5715E-03     110.865E-03    -56.2930E-03     64.7541E-03     133.263E+06     50.6484E+06    -18.5133E+06    -18.4642E+06     133.214E+06     50.6484E+06     2.47298E+06         43.5061
             447     13.2365E-03     49.3798E-03         2.39945         1.56700        -4.43290         1.14828        -4.01419         2.39945        -2.99959     114.882E-03    -56.1483E-03    -58.7333E-03    -54.8870E-03     111.035E-03    -56.1483E-03     50.2490E-03     106.012E+06     10.8166E+06    -22.2981E+06    -22.2711E+06     105.985E+06     10.8166E+06     1.62102E+06         41.0777
             448     12.2935E-03     49.3351E-03         2.49008         1.60514        -4.58277         1.35258        -4.33020         2.49008        -2.44498     112.967E-03    -56.0870E-03    -56.8796E-03    -54.8794E-03     111.089E-03    -56.2098E-03     35.0519E-03     41.7349E+06    -1.24500E+06    -23.3694E+06    -23.3274E+06     41.6928E+06    -1.24500E+06     933.190E+03         38.7752
             449     11.3445E-03     49.3046E-03         2.57798         1.68636        -4.76884         1.56115        -4.64363         2.57798        -1.49854     112.891E-03    -56.2225E-03    -56.6687E-03    -55.4216E-03     111.767E-03    -56.3453E-03     27.3856E-03    -1.53345E+06    -15.2627E+06    -40.4026E+06    -25.0920E+06    -29.6879E+06    -2.41893E+06     490.834E+03         36.7276
             450     10.4006E-03     49.2764E-03         2.66323         1.79373        -4.97866         1.75490        -4.93983         2.66323     386.593E-03     113.049E-03    -56.2822E-03    -56.7665E-03    -55.8069E-03     112.256E-03    -56.4488E-03     23.0419E-03    -398.271E+03    -27.7470E+06    -78.7887E+06    -27.7674E+06    -78.7682E+06    -398.271E+03     205.261E+03         35.0061
             451     9.45386E-03     49.2556E-03         2.74624         1.98076        -5.26861         1.94183        -5.22968         2.74624     362.700E-03     112.676E-03    -56.1355E-03    -56.5406E-03    -55.6153E-03     112.156E-03    -56.5406E-03     18.5707E-03    -799.372E+03    -31.8749E+06    -119.809E+06    -31.8969E+06    -119.787E+06    -799.372E+03     475.687E+03         33.6162
             452     8.50779E-03     49.2361E-03         2.82667         2.15164        -5.53853         2.12735        -5.51424         2.82667     219.447E-03     112.960E-03    -56.3074E-03    -56.6528E-03    -56.0013E-03     112.627E-03    -56.6262E-03     14.9082E-03    -538.923E+03    -35.7445E+06    -150.258E+06    -35.7676E+06    -150.235E+06    -538.923E+03     909.824E+03         32.5186
             453     7.56304E-03     49.2231E-03         2.90314         2.36423        -5.84150         2.32053        -5.79780         2.90314    -131.156E-03     113.066E-03    -56.3648E-03    -56.7010E-03    -56.1460E-03     112.820E-03    -56.6744E-03     12.8727E-03    -3.28817E+06    -39.0338E+06    -175.688E+06    -39.0552E+06    -175.666E+06    -3.28817E+06     769.374E+03         31.6577
             454     6.61662E-03     49.2088E-03         3.10174         2.74090        -6.42603         2.51756        -6.07417         2.97323         1.82344     113.188E-03    -56.4701E-03    -56.7178E-03    -56.2974E-03     113.003E-03    -56.7054E-03     11.1390E-03    -9.38511E+06    -43.5294E+06    -203.186E+06    -43.5490E+06    -203.166E+06    -9.38511E+06    -1.05331E+06         30.9810
             455     5.67208E-03     49.1990E-03         3.16495         2.89346        -6.65175         2.68112        -6.31089         3.03645         3.00845     113.272E-03    -56.5419E-03    -56.7297E-03    -56.4294E-03     113.147E-03    -56.7172E-03     9.17050E-03    -15.9242E+06    -49.0479E+06    -224.763E+06    -49.0721E+06    -224.739E+06    -15.9242E+06    -1.83735E+06         30.4482
             456     4.72638E-03     49.1888E-03         3.83228         2.95144        -7.39221         2.82000        -6.52291         3.09443         4.90371     113.073E-03    -56.3411E-03    -56.7324E-03    -56.2595E-03     112.992E-03    -56.7324E-03     7.35268E-03    -25.4170E+06    -54.7425E+06    -247.182E+06    -54.7502E+06    -247.174E+06    -25.4170E+06    -810.645E+03         30.0311
             457     3.78064E-03     49.1832E-03         3.88639         3.06000        -7.57072         2.94125        -6.71411         3.14853         4.17041     113.262E-03    -56.4408E-03    -56.8216E-03    -56.4708E-03     113.213E-03    -56.7418E-03     5.77018E-03    -36.6783E+06    -59.9146E+06    -265.066E+06    -59.9189E+06    -265.062E+06    -36.6783E+06    -537.543E+03         29.7104
             458     2.83568E-03     49.1775E-03         4.28153         3.10852        -8.02645         3.06502        -6.89848         3.19705         5.07046     113.311E-03    -56.5266E-03    -56.7842E-03    -56.5771E-03     113.281E-03    -56.7043E-03     4.37561E-03    -50.0202E+06    -65.8189E+06    -273.262E+06    -65.8222E+06    -273.259E+06    -50.0202E+06    -581.497E+03         29.4727
             459     1.89084E-03     49.1734E-03         5.66046         3.23897        -9.52747         3.16126        -7.02828         3.23897    -693.766E-03     113.239E-03    -56.5452E-03    -56.6938E-03    -56.5552E-03     113.225E-03    -56.6701E-03     2.94305E-03    -62.9347E+06    -71.0028E+06    -281.308E+06    -71.0043E+06    -281.306E+06    -62.9347E+06    -432.547E+03         29.3085
             460     944.855E-06     49.1716E-03         9.85932         2.58830        -13.0718         3.92970        -7.14217         2.58830         7.86128     113.290E-03    -56.5083E-03    -56.7819E-03    -56.7503E-03     113.285E-03    -56.5344E-03     1.61641E-03    -69.5705E+06    -74.5156E+06    -285.870E+06    -73.1555E+06    -285.862E+06    -70.9396E+06     14.6713E+03         29.2106
             461     16.0771E-03     48.4908E-03         2.13556     547.356E-03        -3.01139     442.474E-03        -2.90651         2.13556    -708.958E-03     115.582E-03    -55.6738E-03    -59.9079E-03    -53.8769E-03     110.458E-03    -56.5814E-03     52.3303E-03     144.764E+06     118.433E+06    -8.64023E+06    -8.61800E+06     144.742E+06     118.433E+06    -1.42007E+06         47.9679
             462     15.1281E-03     48.4000E-03         2.23429     811.494E-03        -3.42564     676.511E-03        -3.29066         2.23429        -1.42993     119.263E-03    -56.5000E-03    -62.7634E-03    -54.7930E-03     111.293E-03    -56.5000E-03     74.1799E-03     137.346E+06     94.2033E+06    -16.5663E+06    -16.4814E+06     137.261E+06     94.2033E+06    -993.732E+03         45.8711
             463     14.1854E-03     48.3286E-03         2.33118         1.19853        -3.95177     891.963E-03        -3.64521         2.33118        -2.25578     117.067E-03    -56.2915E-03    -60.7751E-03    -54.8478E-03     111.139E-03    -56.2915E-03     63.7584E-03     131.374E+06     52.6056E+06    -19.9717E+06    -19.8933E+06     131.296E+06     52.6056E+06    -182.881E+03         43.5026
             464     13.2397E-03     48.2589E-03         2.42683         1.48981        -4.37158         1.10069        -3.98246         2.42683        -2.85170     114.234E-03    -56.1549E-03    -58.0789E-03    -54.1233E-03     110.278E-03    -56.1549E-03     50.8252E-03     106.407E+06     12.8413E+06    -19.9703E+06    -19.9195E+06     106.356E+06     12.8413E+06     1.08096E+06         41.0814
             465     12.2899E-03     48.2191E-03         2.52131         1.53390        -4.53114         1.30500        -4.30224         2.52131        -2.30964     113.266E-03    -56.2289E-03    -57.0371E-03    -55.0709E-03     111.300E-03    -56.2289E-03     35.7752E-03     41.9984E+06    -1.34721E+06    -21.5723E+06    -21.4912E+06     41.9173E+06    -1.34721E+06     1.64096E+06         38.7839
             466     11.3460E-03     48.1844E-03         2.61471         1.61861        -4.72357         1.50406        -4.60902         2.61471        -1.35993     113.076E-03    -56.1493E-03    -56.9266E-03    -55.5942E-03     111.950E-03    -56.3559E-03     27.4365E-03    -939.626E+03    -14.1593E+06    -40.4536E+06    -24.5827E+06    -28.9579E+06    -2.01176E+06     1.14570E+06         36.7398
             467     10.3990E-03     48.1582E-03         2.70690         1.74467        -4.95880         1.70503        -4.91916         2.70690     516.342E-03     112.906E-03    -56.2103E-03    -56.6958E-03    -55.6629E-03     112.124E-03    -56.4615E-03     22.8375E-03    -370.942E+03    -28.0363E+06    -79.7986E+06    -28.1101E+06    -79.7247E+06    -370.942E+03     1.50383E+06         35.0190
             468     9.45411E-03     48.1366E-03         2.79696         1.95526        -5.27932         1.91483        -5.23890         2.79696     472.207E-03     113.001E-03    -56.3612E-03    -56.6400E-03    -55.9351E-03     112.481E-03    -56.5455E-03     18.6594E-03     6.30355E+03    -31.7240E+06    -119.406E+06    -31.7565E+06    -119.373E+06     6.30355E+03     1.54350E+06         33.6281
             469     8.50855E-03     48.1182E-03         2.88357         2.14902        -5.57910         2.12639        -5.55646         2.88357     306.250E-03     112.858E-03    -56.2467E-03    -56.6111E-03    -55.8989E-03     112.510E-03    -56.6111E-03     15.2349E-03    -1.52761E+06    -34.9749E+06    -150.343E+06    -34.9825E+06    -150.335E+06    -1.52761E+06     333.732E+03         32.5287
             470     7.56218E-03     48.1036E-03         2.96611         2.36604        -5.89118         2.32541        -5.85054         2.96611    -62.0855E-03     113.111E-03    -56.3617E-03    -56.7493E-03    -56.1983E-03     112.865E-03    -56.6667E-03     12.8565E-03    -3.36680E+06    -38.6993E+06    -175.661E+06    -38.7022E+06    -175.658E+06    -3.36680E+06    -221.960E+03         31.6654
             471     6.61749E-03     48.0910E-03         3.14261         2.77136        -6.47822         2.52741        -6.13508         3.04343         1.87022     113.242E-03    -56.4582E-03    -56.7843E-03    -56.3706E-03     113.060E-03    -56.6892E-03     11.0904E-03    -8.64574E+06    -43.3553E+06    -201.390E+06    -43.3616E+06    -201.384E+06    -8.64574E+06    -298.998E+03         30.9865
             472     5.67174E-03     48.0787E-03         3.21301         2.95915        -6.74278         2.71612        -6.40057         3.11383         3.10074     113.041E-03    -56.3191E-03    -56.7224E-03    -56.2094E-03     112.919E-03    -56.7099E-03     9.01844E-03    -16.6133E+06    -48.7554E+06    -226.252E+06    -48.7691E+06    -226.238E+06    -16.6133E+06    -1.25158E+06         30.4520
             473     4.72640E-03     48.0723E-03         3.87849         3.02116        -7.48399         2.89075        -6.65093         3.17584         4.92330     113.062E-03    -56.3035E-03    -56.7588E-03    -56.2212E-03     112.980E-03    -56.7588E-03     7.45389E-03    -24.3479E+06    -54.4025E+06    -248.784E+06    -54.4142E+06    -248.772E+06    -24.3479E+06    -1.13233E+06         30.0340
             474     3.78057E-03     48.0634E-03         3.93664         3.10999        -7.64866         2.99932        -6.83534         3.23399         4.26762     113.263E-03    -56.4059E-03    -56.8568E-03    -56.4312E-03     113.208E-03    -56.7769E-03     5.97728E-03    -36.5093E+06    -60.1161E+06    -265.091E+06    -60.1212E+06    -265.086E+06    -36.5093E+06    -692.831E+03         29.7135
             475     2.83593E-03     48.0589E-03         4.25495         3.16444        -8.04088         3.13929        -7.04922         3.28844         4.92858     113.401E-03    -56.5006E-03    -56.9002E-03    -56.6298E-03     113.372E-03    -56.7421E-03     4.39896E-03    -51.0742E+06    -66.1739E+06    -274.201E+06    -66.1768E+06    -274.198E+06    -51.0742E+06    -374.205E+03         29.4765
             476     1.88978E-03     48.0554E-03         5.35769         3.34938        -9.31382         3.20583        -7.16196         3.34938    -435.132E-03     113.352E-03    -56.5770E-03    -56.7751E-03    -56.6407E-03     113.338E-03    -56.6969E-03     2.93883E-03    -62.6277E+06    -71.2123E+06    -281.775E+06    -71.2130E+06    -281.774E+06    -62.6277E+06     66.1328E+03         29.3132
             477     945.338E-06     48.0521E-03         8.95193         2.82352        -12.3857         3.94740        -7.38113         2.82352         7.01347     113.300E-03    -56.5589E-03    -56.7415E-03    -56.7029E-03     113.296E-03    -56.5932E-03     1.37524E-03    -70.8424E+06    -76.0829E+06    -287.505E+06    -74.7183E+06    -287.502E+06    -72.2101E+06    -515.626E+03         29.2159
             478     16.0769E-03     47.3726E-03         2.12055     528.321E-03        -2.98160     432.235E-03        -2.88552         2.12055    -645.011E-03     115.910E-03    -56.0123E-03    -59.8978E-03    -54.2139E-03     110.763E-03    -56.5491E-03     52.0127E-03     146.529E+06     118.612E+06    -9.45342E+06    -9.43986E+06     146.515E+06     118.612E+06     554.034E+03         47.9484
             479     15.1317E-03     47.2822E-03         2.21730     761.016E-03        -3.35935     642.540E-03        -3.24087         2.21730        -1.31401     118.780E-03    -56.4399E-03    -62.3398E-03    -54.1374E-03     110.577E-03    -56.4399E-03     75.0370E-03     138.697E+06     87.0341E+06    -17.0731E+06    -17.0035E+06     138.627E+06     87.0341E+06    -2.21772E+06         45.8600
             480     14.1851E-03     47.2050E-03         2.31326         1.12552        -3.86102     837.334E-03        -3.57284         2.31326        -2.12909     116.502E-03    -56.2638E-03    -60.2378E-03    -54.2328E-03     110.497E-03    -56.2638E-03     63.8164E-03     127.302E+06     41.1347E+06    -22.8269E+06    -22.7371E+06     127.212E+06     41.1347E+06    -3.45545E+06         43.4998
             481     13.2357E-03     47.1478E-03         2.40937         1.40097        -4.26173         1.03748        -3.89824         2.40937        -2.70069     114.508E-03    -56.1810E-03    -58.3270E-03    -54.3160E-03     110.497E-03    -56.1810E-03     51.5188E-03     102.763E+06     8.03928E+06    -25.1415E+06    -25.0791E+06     102.700E+06     8.03928E+06     11.7010E+03         41.0861
             482     12.2911E-03     47.0948E-03         2.50542         1.44647        -4.42089         1.23994        -4.21436         2.50542        -2.16168     113.631E-03    -56.2311E-03    -57.3995E-03    -55.3437E-03     111.595E-03    -56.2510E-03     36.1938E-03     41.9284E+06    -2.58519E+06    -25.9290E+06    -25.8663E+06     41.8657E+06    -2.58519E+06     1.68870E+06         38.7946
             483     11.3459E-03     47.0677E-03         2.60124         1.54585        -4.62802         1.44171        -4.52388         2.60124        -1.20242     113.077E-03    -56.1372E-03    -56.9401E-03    -55.6613E-03     112.025E-03    -56.3637E-03     26.6115E-03    -1.02169E+06    -15.2744E+06    -42.0091E+06    -27.1314E+06    -28.4612E+06    -2.71251E+06     1.60541E+06         36.7535
             484     10.3994E-03     47.0397E-03         2.69636         1.68898        -4.87962         1.64710        -4.83774         2.69636     650.752E-03     112.861E-03    -56.1495E-03    -56.7113E-03    -55.5932E-03     112.059E-03    -56.4657E-03     23.1576E-03    -1.66157E+06    -28.5531E+06    -80.7771E+06    -28.6460E+06    -80.6842E+06    -1.66157E+06     1.65160E+06         35.0329
             485     9.45380E-03     47.0166E-03         2.78998         1.89949        -5.20282         1.85681        -5.16014         2.78998     594.346E-03     113.086E-03    -56.3962E-03    -56.6900E-03    -56.0108E-03     112.566E-03    -56.5548E-03     18.5538E-03     426.500E+03    -30.9377E+06    -118.813E+06    -30.9561E+06    -118.795E+06     426.500E+03     1.10433E+06         33.6408
             486     8.50810E-03     47.0009E-03         2.88082         2.09582        -5.51020         2.07550        -5.48987         2.88082     388.000E-03     113.056E-03    -56.4095E-03    -56.6468E-03    -56.1163E-03     112.722E-03    -56.6061E-03     15.0003E-03    -540.729E+03    -34.1271E+06    -148.836E+06    -34.1334E+06    -148.830E+06    -540.729E+03     380.583E+03         32.5394
             487     7.56270E-03     46.9843E-03         2.96720         2.32788        -5.83890         2.29400        -5.80502         2.96720     38.7646E-03     113.100E-03    -56.3757E-03    -56.7239E-03    -56.2059E-03     112.847E-03    -56.6413E-03     13.0147E-03    -4.53415E+06    -38.1668E+06    -176.998E+06    -38.1683E+06    -176.997E+06    -4.53415E+06    -433.991E+03         31.6737
             488     6.61758E-03     46.9717E-03         3.12935         2.75619        -6.43208         2.51776        -6.11101         3.04672         1.91004     113.030E-03    -56.2633E-03    -56.7667E-03    -56.1704E-03     112.855E-03    -56.6841E-03     10.8378E-03    -7.84665E+06    -42.6596E+06    -201.228E+06    -42.6613E+06    -201.227E+06    -7.84665E+06    -61.1776E+03         30.9927
             489     5.67174E-03     46.9617E-03         3.20121         2.96593        -6.71623         2.70634        -6.37400         3.11857         3.22870     112.932E-03    -56.1985E-03    -56.7335E-03    -56.0736E-03     112.807E-03    -56.7335E-03     9.14021E-03    -15.3477E+06    -48.7783E+06    -225.226E+06    -48.7832E+06    -225.221E+06    -15.3477E+06    -110.638E+03         30.4566
             490     4.72577E-03     46.9525E-03         3.81762         3.02946        -7.40923         2.88782        -6.63206         3.18210         4.90098     113.236E-03    -56.4675E-03    -56.7687E-03    -56.3819E-03     113.151E-03    -56.7687E-03     7.52248E-03    -26.2230E+06    -55.4556E+06    -249.862E+06    -55.4631E+06    -249.854E+06    -26.2230E+06    -875.443E+03         30.0377
             491     3.78119E-03     46.9456E-03         3.87829         3.10773        -7.56718         2.99127        -6.81520         3.24277         4.47332     113.275E-03    -56.5028E-03    -56.7721E-03    -56.4520E-03     113.224E-03    -56.7721E-03     5.80406E-03    -38.0363E+06    -61.6425E+06    -266.452E+06    -61.6490E+06    -266.446E+06    -38.0363E+06    -1.09417E+06         29.7165
             492     2.83450E-03     46.9401E-03         4.05060         3.16327        -7.81756         3.15278        -7.05479         3.29832         4.63805     113.310E-03    -56.4688E-03    -56.8411E-03    -56.5195E-03     113.282E-03    -56.7629E-03     4.24216E-03    -50.4198E+06    -67.1447E+06    -274.434E+06    -67.1484E+06    -274.430E+06    -50.4198E+06    -401.696E+03         29.4791
             493     1.89112E-03     46.9356E-03         4.69872         3.36458        -8.65026         3.19609        -7.14763         3.36458     114.184E-03     113.425E-03    -56.6139E-03    -56.8114E-03    -56.6790E-03     113.412E-03    -56.7332E-03     2.81712E-03    -62.2993E+06    -71.7770E+06    -282.033E+06    -71.7791E+06    -282.031E+06    -62.2993E+06    -65.5345E+03         29.3157
             494     945.132E-06     46.9350E-03         7.19491         2.89151        -10.6648         3.92190        -7.39178         2.89151         5.22171     113.364E-03    -56.5828E-03    -56.7808E-03    -56.7496E-03     113.358E-03    -56.6083E-03     1.73116E-03    -71.3765E+06    -76.1628E+06    -288.098E+06    -74.8060E+06    -288.087E+06    -72.7442E+06     365.046E+03         29.2183
             495     16.0786E-03     46.2538E-03         2.07095     517.645E-03        -2.94939     428.386E-03        -2.86013         2.07095    -595.516E-03     116.133E-03    -56.3925E-03    -59.7405E-03    -54.6293E-03     111.162E-03    -56.5323E-03     51.8108E-03     146.946E+06     120.465E+06    -5.43865E+06    -5.42196E+06     146.930E+06     120.465E+06     1.12104E+06         47.9300
             496     15.1308E-03     46.1634E-03         2.16349     722.926E-03        -3.28278     615.390E-03        -3.17524         2.16349        -1.23141     117.834E-03    -56.4106E-03    -61.4239E-03    -53.1910E-03     109.602E-03    -56.4106E-03     74.9624E-03     140.209E+06     83.4228E+06    -13.4011E+06    -13.3488E+06     140.156E+06     83.4228E+06     306.194E+03         45.8500
             497     14.1812E-03     46.0899E-03         2.25574         1.07506        -3.76152     795.481E-03        -3.48194         2.25574        -2.04772     116.298E-03    -56.2655E-03    -60.0327E-03    -53.9181E-03     110.184E-03    -56.2655E-03     64.1202E-03     127.060E+06     33.9437E+06    -21.5369E+06    -21.4710E+06     126.994E+06     33.9437E+06    -1.18850E+06         43.4978
             498     13.2381E-03     46.0251E-03         2.34928         1.32393        -4.12892     973.543E-03        -3.77853         2.34928        -2.59455     115.294E-03    -56.1865E-03    -59.1079E-03    -55.3041E-03     111.491E-03    -56.1865E-03     50.5148E-03     100.726E+06     4.62586E+06    -26.5058E+06    -26.4585E+06     100.679E+06     4.62586E+06    -1.75923E+06         41.0922
             499     12.2916E-03     45.9789E-03         2.44406         1.36521        -4.27716         1.16906        -4.08102         2.44406        -2.06691     113.421E-03    -56.1630E-03    -57.2585E-03    -55.1946E-03     111.429E-03    -56.2339E-03     35.8834E-03     40.2516E+06    -4.38738E+06    -27.6617E+06    -27.5990E+06     40.1889E+06    -4.38738E+06    -68.3401E+03         38.8063
             500     11.3443E-03     45.9468E-03         2.53886         1.48190        -4.49452         1.38072        -4.39333         2.53886        -1.09548     112.807E-03    -56.2906E-03    -56.5165E-03    -55.4101E-03     111.776E-03    -56.3654E-03     26.2685E-03    -1.08345E+06    -16.2411E+06    -42.5877E+06    -27.5781E+06    -29.1220E+06    -3.21204E+06     1.03878E+06         36.7671
             501     10.4000E-03     45.9220E-03         2.63253         1.63244        -4.74879         1.58881        -4.70516         2.63253     739.847E-03     113.068E-03    -56.3532E-03    -56.7151E-03    -55.8107E-03     112.277E-03    -56.4666E-03     23.0709E-03    -2.29147E+06    -28.9315E+06    -81.1332E+06    -28.9702E+06    -81.0945E+06    -2.29147E+06     712.578E+03         35.0467
             502     9.45335E-03     45.8980E-03         2.72498         1.83265        -5.05976         1.78870        -5.01581         2.72498     695.981E-03     113.009E-03    -56.3244E-03    -56.6844E-03    -55.9358E-03     112.482E-03    -56.5465E-03     18.5990E-03    -827.488E+03    -31.4354E+06    -119.252E+06    -31.4416E+06    -119.245E+06    -827.488E+03     519.836E+03         33.6533
             503     8.50866E-03     45.8809E-03         2.81563         2.01782        -5.35439         1.99918        -5.33574         2.81563     463.654E-03     113.131E-03    -56.4839E-03    -56.6466E-03    -56.2010E-03     112.800E-03    -56.5995E-03     14.9369E-03    -1.00637E+06    -34.7416E+06    -148.592E+06    -34.7446E+06    -148.589E+06    -1.00637E+06     234.781E+03         32.5499
             504     7.56334E-03     45.8665E-03         2.90199         2.25240        -5.68436         2.22509        -5.65705         2.90199     145.951E-03     113.021E-03    -56.3810E-03    -56.6395E-03    -56.1244E-03     112.757E-03    -56.6330E-03     13.2929E-03    -5.25505E+06    -38.3767E+06    -177.168E+06    -38.3782E+06    -177.166E+06    -5.25505E+06     94.1997E+03         31.6822
             505     6.61696E-03     45.8527E-03         3.05672         2.68582        -6.27120         2.46259        -5.97138         2.98014         1.94353     112.937E-03    -56.2485E-03    -56.6888E-03    -56.0752E-03     112.764E-03    -56.6888E-03     10.7227E-03    -8.66468E+06    -43.0435E+06    -202.007E+06    -43.0455E+06    -202.005E+06    -8.66468E+06    -38.9041E+03         30.9995
             506     5.67138E-03     45.8440E-03         3.12635         2.92082        -6.57403         2.64635        -6.22297         3.04976         3.36790     113.134E-03    -56.3988E-03    -56.7357E-03    -56.2815E-03     113.017E-03    -56.7357E-03     8.89043E-03    -14.0817E+06    -48.6393E+06    -224.647E+06    -48.6417E+06    -224.645E+06    -14.0817E+06     242.618E+03         30.4622
             507     4.72641E-03     45.8330E-03         3.66926         2.98269        -7.19103         2.82069        -6.47139         3.11163         4.82990     113.207E-03    -56.4543E-03    -56.7527E-03    -56.3732E-03     113.126E-03    -56.7527E-03     7.29033E-03    -24.6032E+06    -54.9579E+06    -249.192E+06    -54.9602E+06    -249.190E+06    -24.6032E+06     23.5873E+03         30.0420
             508     3.78053E-03     45.8276E-03         3.72843         3.07551        -7.36078         2.92454        -6.65219         3.17080         4.72065     113.299E-03    -56.5449E-03    -56.7538E-03    -56.5094E-03     113.251E-03    -56.7419E-03     5.64535E-03    -37.1357E+06    -61.9233E+06    -267.171E+06    -61.9278E+06    -267.166E+06    -37.1357E+06    -543.980E+03         29.7195
             509     2.83672E-03     45.8208E-03         3.73357         3.12590        -7.44210         3.10007        -6.90389         3.22120         4.25059     113.196E-03    -56.4621E-03    -56.7336E-03    -56.4459E-03     113.168E-03    -56.7218E-03     4.23309E-03    -50.3903E+06    -67.3511E+06    -275.593E+06    -67.3650E+06    -275.579E+06    -50.3903E+06    -959.795E+03         29.4808
             510     1.88923E-03     45.8182E-03         3.95649         3.25250        -7.76762         3.12327        -6.96206         3.28015     868.307E-03     113.232E-03    -56.4877E-03    -56.7444E-03    -56.4750E-03     113.219E-03    -56.7444E-03     2.85466E-03    -63.8965E+06    -71.8045E+06    -282.956E+06    -71.8186E+06    -282.942E+06    -63.8965E+06    -685.569E+03         29.3162
             511     944.980E-06     45.8144E-03         5.28537         2.74853        -8.58944         3.86222        -7.19394         2.77618         2.91964     113.512E-03    -56.5713E-03    -56.9406E-03    -56.8940E-03     113.507E-03    -56.6126E-03     1.46472E-03    -72.5020E+06    -75.3839E+06    -288.438E+06    -75.0703E+06    -288.406E+06    -72.8477E+06    -316.843E+03         29.2180
             512     16.0772E-03     45.1282E-03         1.99241     526.067E-03        -2.91416     438.763E-03        -2.82686         1.99241    -584.077E-03     115.519E-03    -56.1488E-03    -59.3705E-03    -54.1450E-03     110.708E-03    -56.5627E-03     52.0396E-03     144.452E+06     119.504E+06    -7.00970E+06    -7.00186E+06     144.444E+06     119.504E+06    -137.924E+03         47.9111
             513     15.1312E-03     45.0523E-03         2.07856     705.125E-03        -3.20313     600.107E-03        -3.09812         2.07856        -1.20239     118.218E-03    -56.4766E-03    -61.7417E-03    -53.7580E-03     110.235E-03    -56.4766E-03     74.0739E-03     140.107E+06     91.4130E+06    -13.1506E+06    -13.1068E+06     140.063E+06     91.4130E+06     1.94319E+06         45.8403
             514     14.1838E-03     44.9685E-03         2.16482         1.04072        -3.65206     757.629E-03        -3.36896         2.16482        -2.01956     117.111E-03    -56.2854E-03    -60.8257E-03    -54.6014E-03     110.887E-03    -56.2854E-03     65.0390E-03     130.428E+06     42.9407E+06    -18.1498E+06    -18.0937E+06     130.372E+06     42.9407E+06     2.21416E+06         43.4982
             515     13.2369E-03     44.9059E-03         2.25317         1.27646        -3.99442     922.398E-03        -3.64036         2.25317        -2.55758     115.050E-03    -56.1524E-03    -58.8975E-03    -55.1930E-03     111.345E-03    -56.1524E-03     49.4741E-03     101.304E+06     6.27837E+06    -23.1609E+06    -23.1089E+06     101.252E+06     6.27837E+06    -763.164E+03         41.0995
             516     12.2917E-03     44.8600E-03         2.34327         1.31398        -4.12644         1.11390        -3.92637         2.34327        -2.04745     113.007E-03    -56.0668E-03    -56.9397E-03    -54.9060E-03     111.118E-03    -56.2123E-03     35.1588E-03     38.9804E+06    -3.86953E+06    -26.2278E+06    -26.1573E+06     38.9099E+06    -3.86953E+06    -1.24375E+06         38.8174
             517     11.3462E-03     44.8292E-03         2.43313         1.43087        -4.33281         1.32516        -4.22709         2.43313        -1.05413     112.690E-03    -56.2062E-03    -56.4833E-03    -55.2342E-03     111.590E-03    -56.3556E-03     27.0005E-03    -2.25671E+06    -17.4389E+06    -43.6686E+06    -27.9121E+06    -30.9772E+06    -4.47495E+06    -86.5114E+03         36.7800
             518     10.3988E-03     44.8023E-03         2.52105         1.57898        -4.57657         1.53488        -4.53247         2.52105     776.004E-03     113.124E-03    -56.4352E-03    -56.6885E-03    -55.8868E-03     112.350E-03    -56.4635E-03     22.8123E-03    -2.68630E+06    -29.4504E+06    -81.6548E+06    -29.4561E+06    -81.6491E+06    -2.68630E+06     66.4311E+03         35.0598
             519     9.45475E-03     44.7795E-03         2.60699         1.77437        -4.87435         1.73027        -4.83025         2.60699     761.634E-03     112.958E-03    -56.3209E-03    -56.6376E-03    -55.8896E-03     112.430E-03    -56.5403E-03     18.7142E-03    -1.15965E+06    -30.5297E+06    -119.852E+06    -30.5342E+06    -119.848E+06    -1.15965E+06    -10.0907E+03         33.6652
             520     8.50777E-03     44.7626E-03         2.69110         1.94050        -5.14165         1.92390        -5.12505         2.69110     502.346E-03     112.907E-03    -56.2823E-03    -56.6248E-03    -55.9414E-03     112.560E-03    -56.6183E-03     15.2863E-03    -272.051E+03    -33.6521E+06    -150.178E+06    -33.6578E+06    -150.172E+06    -272.051E+03     336.901E+03         32.5597
             521     7.56240E-03     44.7470E-03         2.77212         2.14612        -5.43346         2.12451        -5.41186         2.77212     214.109E-03     113.145E-03    -56.3941E-03    -56.7511E-03    -56.2197E-03     112.886E-03    -56.6661E-03     13.1870E-03    -3.38776E+06    -38.4184E+06    -175.868E+06    -38.4247E+06    -175.861E+06    -3.38776E+06     807.003E+03         31.6904
             522     6.61726E-03     44.7356E-03         2.91418         2.55687        -5.98011         2.34152        -5.69743         2.84685         1.94039     113.246E-03    -56.4853E-03    -56.7610E-03    -56.3934E-03     113.076E-03    -56.6825E-03     10.6800E-03    -9.47875E+06    -43.7021E+06    -201.819E+06    -43.7073E+06    -201.814E+06    -9.47875E+06    -262.205E+03         31.0065
             523     5.67224E-03     44.7233E-03         2.98131         2.82381        -6.30855         2.52265        -5.94005         2.91398         3.47613     113.169E-03    -56.4674E-03    -56.7021E-03    -56.3540E-03     113.056E-03    -56.7021E-03     8.73653E-03    -14.4871E+06    -48.9026E+06    -226.531E+06    -48.9090E+06    -226.525E+06    -14.4871E+06    -86.8053E+03         30.4681
             524     4.72651E-03     44.7164E-03         3.45494         2.88261        -6.85064         2.69762        -6.18348         2.97278         4.70224     113.126E-03    -56.4049E-03    -56.7214E-03    -56.3236E-03     113.045E-03    -56.7214E-03     7.39013E-03    -21.9883E+06    -54.6424E+06    -248.374E+06    -54.6464E+06    -248.370E+06    -21.9883E+06     672.627E+03         30.0467
             525     3.78131E-03     44.7073E-03         3.53395         2.99540        -7.06161         2.80999        -6.36846         3.02620         4.90585     113.165E-03    -56.4422E-03    -56.7230E-03    -56.4030E-03     113.114E-03    -56.7112E-03     5.77687E-03    -35.9815E+06    -60.6055E+06    -266.180E+06    -60.6135E+06    -266.172E+06    -35.9815E+06    -216.658E+03         29.7227
             526     2.83492E-03     44.7035E-03         3.39954         3.03602        -6.99047         2.97990        -6.60163         3.06682         3.82454     113.243E-03    -56.4270E-03    -56.8156E-03    -56.5464E-03     113.216E-03    -56.6697E-03     4.16670E-03    -51.5488E+06    -66.7010E+06    -276.959E+06    -66.7200E+06    -276.940E+06    -51.5488E+06    -835.390E+03         29.4825
             527     1.89120E-03     44.6989E-03         3.41911         3.01287        -6.96150         2.98653        -6.62801         3.11197         1.64606     113.240E-03    -56.4527E-03    -56.7874E-03    -56.6303E-03     113.229E-03    -56.5984E-03     2.63647E-03    -64.4275E+06    -72.0562E+06    -284.024E+06    -72.0725E+06    -284.007E+06    -64.4275E+06    -403.017E+03         29.3163
             528     945.124E-06     44.6962E-03         4.17538         2.38343        -7.08067         3.80285        -6.80725         2.48253     546.980E-03     113.068E-03    -56.3208E-03    -56.7467E-03    -56.5824E-03     113.065E-03    -56.4826E-03     1.08518E-03    -73.2965E+06    -76.0069E+06    -289.788E+06    -75.1831E+06    -289.760E+06    -74.1479E+06    -541.314E+03         29.2169
             529     16.0757E-03     44.0147E-03         1.89036     541.366E-03        -2.86041     456.410E-03        -2.77546         1.89036    -583.676E-03     115.164E-03    -55.6584E-03    -59.5052E-03    -53.7879E-03     110.378E-03    -56.5896E-03     51.4231E-03     142.828E+06     118.423E+06    -8.29709E+06    -8.28004E+06     142.811E+06     118.423E+06    -966.207E+03         47.8929
             530     15.1285E-03     43.9279E-03         1.96839     697.261E-03        -3.11045     592.170E-03        -3.00536         1.96839        -1.19514     118.934E-03    -56.5209E-03    -62.4134E-03    -54.6137E-03     111.135E-03    -56.5209E-03     73.4657E-03     138.549E+06     96.9143E+06    -13.8764E+06    -13.8398E+06     138.512E+06     96.9143E+06    -427.606E+03         45.8309
             531     14.1847E-03     43.8531E-03         2.04690         1.02046        -3.53103     726.728E-03        -3.23729         2.04690        -2.02608     117.403E-03    -56.3024E-03    -61.1010E-03    -54.7776E-03     111.080E-03    -56.3024E-03     65.8436E-03     130.758E+06     50.5516E+06    -17.8009E+06    -17.7479E+06     130.705E+06     50.5516E+06     1.88307E+06         43.4979
             532     13.2391E-03     43.7839E-03         2.12766         1.25614        -3.85599     888.943E-03        -3.48880         2.12766        -2.56015     114.705E-03    -56.1623E-03    -58.5427E-03    -54.5482E-03     110.710E-03    -56.1623E-03     50.8799E-03     103.291E+06     10.0798E+06    -20.7619E+06    -20.7069E+06     103.236E+06     10.0798E+06     1.77837E+06         41.1049
             533     12.2923E-03     43.7444E-03         2.20949         1.29243        -3.97147         1.08084        -3.75987         2.20949        -2.06711     113.191E-03    -56.1350E-03    -57.0556E-03    -55.0431E-03     111.273E-03    -56.2294E-03     35.6100E-03     38.6309E+06    -3.45263E+06    -24.3290E+06    -24.2789E+06     38.5808E+06    -3.45263E+06     175.724E+03         38.8267
             534     11.3440E-03     43.7096E-03         2.29030         1.39610        -4.15142         1.28291        -4.03824         2.29030        -1.05373     112.946E-03    -56.1926E-03    -56.7534E-03    -55.4158E-03     111.774E-03    -56.3582E-03     27.9092E-03    -3.57976E+06    -17.4379E+06    -43.4295E+06    -26.8233E+06    -32.3096E+06    -5.31423E+06    -543.597E+03         36.7921
             535     10.4006E-03     43.6836E-03         2.36872         1.52231        -4.36054         1.47975        -4.31798         2.36872     762.424E-03     113.026E-03    -56.3750E-03    -56.6508E-03    -55.7642E-03     112.235E-03    -56.4705E-03     23.0443E-03    -2.40050E+06    -28.8378E+06    -81.7425E+06    -28.8590E+06    -81.7213E+06    -2.40050E+06    -420.018E+03         35.0721
             536     9.45302E-03     43.6611E-03         2.44468         1.70679        -4.63696         1.66426        -4.59443         2.44468     761.669E-03     113.035E-03    -56.4310E-03    -56.6040E-03    -55.9575E-03     112.509E-03    -56.5515E-03     18.6557E-03    -1.42584E+06    -31.8387E+06    -120.765E+06    -31.8399E+06    -120.763E+06    -1.42584E+06    -113.936E+03         33.6762
             537     8.50848E-03     43.6438E-03         2.51854         1.85117        -4.86995         1.83776        -4.85654         2.51854     469.661E-03     112.971E-03    -56.3507E-03    -56.6205E-03    -56.0213E-03     112.642E-03    -56.6205E-03     14.8743E-03    -683.113E+03    -34.7244E+06    -151.120E+06    -34.7296E+06    -151.115E+06    -683.113E+03     241.579E+03         32.5690
             538     7.56224E-03     43.6289E-03         2.59043         2.01936        -5.10900         2.00291        -5.09255         2.59043     214.066E-03     113.056E-03    -56.3100E-03    -56.7464E-03    -56.1427E-03     112.811E-03    -56.6679E-03     12.8627E-03    -3.25762E+06    -38.5205E+06    -175.674E+06    -38.5257E+06    -175.669E+06    -3.25762E+06     495.837E+03         31.6981
             539     6.61752E-03     43.6149E-03         2.71610         2.38934        -5.59401         2.17953        -5.32715         2.65905         1.87263     113.195E-03    -56.4194E-03    -56.7752E-03    -56.3203E-03     113.017E-03    -56.6967E-03     10.9207E-03    -9.02248E+06    -43.2723E+06    -201.987E+06    -43.2814E+06    -201.978E+06    -9.02248E+06     270.906E+03         31.0130
             540     5.67191E-03     43.6067E-03         2.77978         2.67410        -5.93542         2.34563        -5.54989         2.72272         3.50542     113.278E-03    -56.5036E-03    -56.7743E-03    -56.4431E-03     113.152E-03    -56.7086E-03     9.22566E-03    -15.6871E+06    -49.1650E+06    -226.615E+06    -49.1749E+06    -226.605E+06    -15.6871E+06     385.754E+03         30.4738
             541     4.72647E-03     43.5963E-03         3.20061         2.72956        -6.42109         2.52074        -5.78983         2.77818         4.54277     113.261E-03    -56.4919E-03    -56.7687E-03    -56.4723E-03     113.175E-03    -56.7030E-03     7.52878E-03    -23.7131E+06    -54.6736E+06    -248.394E+06    -54.6836E+06    -248.385E+06    -23.7131E+06    -51.7482E+03         30.0515
             542     3.78110E-03     43.5903E-03         3.34773         2.82590        -6.68348         2.63869        -5.97444         2.82590         5.01269     113.174E-03    -56.4562E-03    -56.7174E-03    -56.4479E-03     113.124E-03    -56.6763E-03     5.68717E-03    -35.9442E+06    -60.2073E+06    -266.320E+06    -60.2262E+06    -266.302E+06    -35.9442E+06    -415.186E+03         29.7265
             543     2.83625E-03     43.5841E-03         3.10933         2.86153        -6.49781         2.78143        -6.16990         2.86153         3.42296     113.249E-03    -56.4682E-03    -56.7810E-03    -56.6167E-03     113.223E-03    -56.6059E-03     4.16401E-03    -50.9006E+06    -66.8074E+06    -277.093E+06    -66.8199E+06    -277.080E+06    -50.9006E+06     267.729E+03         29.4852
             544     1.89054E-03     43.5801E-03         3.04923         2.82477        -6.37930         2.79381        -6.19992         2.90082         2.25419     113.128E-03    -56.4543E-03    -56.6735E-03    -56.6319E-03     113.116E-03    -56.4844E-03     2.67525E-03    -63.2063E+06    -72.3184E+06    -284.920E+06    -72.3225E+06    -284.916E+06    -63.2063E+06    -66.7144E+03         29.3180
             545     946.102E-06     43.5788E-03         4.18535         2.00722        -6.67473         3.77142        -6.33685         2.08327        -1.48127     112.765E-03    -56.0731E-03    -56.6919E-03    -56.5375E-03     112.762E-03    -56.2244E-03     1.34518E-03    -72.0994E+06    -76.4506E+06    -289.935E+06    -75.9586E+06    -289.921E+06    -72.6051E+06     684.583E+03         29.2179
             546     16.0771E-03     42.8964E-03         1.76865     545.981E-03        -2.77100     463.220E-03        -2.68824         1.76865    -593.606E-03     115.483E-03    -55.8341E-03    -59.6492E-03    -53.9693E-03     110.540E-03    -56.5707E-03     51.5633E-03     143.691E+06     117.697E+06    -7.82217E+06    -7.79841E+06     143.668E+06     117.697E+06    -165.069E+03         47.8761
             547     15.1317E-03     42.8083E-03         1.83779     695.981E-03        -2.99694     587.338E-03        -2.88829         1.83779        -1.20769     118.793E-03    -56.4741E-03    -62.3185E-03    -54.3399E-03     110.814E-03    -56.4741E-03     74.1458E-03     136.179E+06     88.3096E+06    -15.7690E+06    -15.7282E+06     136.139E+06     88.3096E+06    -1.29104E+06         45.8215
             548     14.1840E-03     42.7336E-03         1.90679         1.02426        -3.40438     717.535E-03        -3.09766         1.90679        -2.05425     116.767E-03    -56.2944E-03    -60.4729E-03    -54.2873E-03     110.582E-03    -56.2944E-03     64.8805E-03     127.586E+06     44.1093E+06    -20.1053E+06    -20.0692E+06     127.550E+06     44.1093E+06    -755.572E+03         43.4957
             549     13.2353E-03     42.6675E-03         1.97735         1.25653        -3.70866     870.452E-03        -3.32258         1.97735        -2.58877     114.486E-03    -56.2042E-03    -58.2821E-03    -54.2288E-03     110.433E-03    -56.2042E-03     51.4839E-03     102.160E+06     8.28279E+06    -22.3687E+06    -22.3113E+06     102.103E+06     8.28279E+06      1.9006E+06         41.1083
             550     12.2894E-03     42.6234E-03         2.04832         1.28603        -3.80012         1.05228        -3.56636         2.04832        -2.12798     113.755E-03    -56.2688E-03    -57.4862E-03    -55.5349E-03     111.804E-03    -56.2688E-03     35.6053E-03     40.2837E+06    -3.69819E+06    -24.1902E+06    -24.1414E+06     40.2349E+06    -3.69819E+06     1.67901E+06         38.8349
             551     11.3468E-03     42.5918E-03         2.11789         1.36462        -3.94163         1.23968        -3.81668         2.11789        -1.11295     113.197E-03    -56.2716E-03    -56.9250E-03    -55.7232E-03     112.096E-03    -56.3732E-03     27.1760E-03    -2.46102E+06    -15.8868E+06    -43.0859E+06    -26.4188E+06    -30.6130E+06    -4.40194E+06    -107.479E+03         36.8034
             552     10.3979E-03     42.5647E-03         2.18486         1.45385        -4.10314         1.41574        -4.06503         2.18486     676.193E-03     112.948E-03    -56.3720E-03    -56.5760E-03    -55.6684E-03     112.142E-03    -56.4735E-03     23.1288E-03    -3.33202E+06    -29.3403E+06    -82.8984E+06    -29.3624E+06    -82.8763E+06    -3.33202E+06    -295.388E+03         35.0839
             553     9.45445E-03     42.5420E-03         2.24943         1.61506        -4.34284         1.57696        -4.30474         2.24943     690.673E-03     113.170E-03    -56.5126E-03    -56.6570E-03    -56.1110E-03     112.666E-03    -56.5546E-03     18.3166E-03    -1.51696E+06    -32.7102E+06    -120.821E+06    -32.7108E+06    -120.820E+06    -1.51696E+06     143.492E+03         33.6868
             554     8.50817E-03     42.5252E-03         2.31235         1.73391        -4.53397         1.72365        -4.52371         2.31235     390.350E-03     113.061E-03    -56.4608E-03    -56.5997E-03    -56.1279E-03     112.728E-03    -56.5997E-03     14.9554E-03    -2.51073E+06    -36.3719E+06    -150.623E+06    -36.3736E+06    -150.621E+06    -2.51073E+06    -129.400E+03         32.5780
             555     7.56352E-03     42.5099E-03         2.37401         1.87628        -4.73343         1.86299        -4.72015         2.37401     157.776E-03     112.839E-03    -56.1867E-03    -56.6525E-03    -55.9350E-03     112.587E-03    -56.6525E-03     13.0132E-03    -5.65333E+06    -39.6954E+06    -177.428E+06    -39.6968E+06    -177.427E+06    -5.65333E+06    -278.985E+03         31.7053
             556     6.61635E-03     42.4976E-03         2.50221         2.19935        -5.16990         2.00883        -4.91080         2.43362         1.76948     112.952E-03    -56.2293E-03    -56.7224E-03    -56.0455E-03     112.768E-03    -56.7224E-03     11.0825E-03    -9.87598E+06    -43.7717E+06    -203.532E+06    -43.7811E+06    -203.522E+06    -9.87598E+06     865.617E+03         31.0189
             557     5.67116E-03     42.4864E-03         2.56743         2.47614        -5.50319         2.15446        -5.10362         2.48955         3.45938     113.421E-03    -56.6106E-03    -56.8103E-03    -56.5526E-03     113.297E-03    -56.7446E-03     9.12248E-03    -16.3616E+06    -48.4714E+06    -224.772E+06    -48.4833E+06    -224.760E+06    -16.3616E+06     575.735E+03         30.4789
             558     4.72675E-03     42.4783E-03         2.93714         2.52599        -5.93395         2.30038        -5.31059         2.53939         4.38505     113.439E-03    -56.6445E-03    -56.7943E-03    -56.6378E-03     113.358E-03    -56.7200E-03     7.34523E-03    -25.0242E+06    -54.4718E+06    -248.504E+06    -54.4813E+06    -248.495E+06    -25.0242E+06    -845.251E+03         30.0563
             559     3.78130E-03     42.4714E-03         3.15028         2.58502        -6.22547         2.39811        -5.47329         2.58502         5.04298     113.318E-03    -56.5966E-03    -56.7213E-03    -56.5936E-03     113.265E-03    -56.6716E-03     5.95652E-03    -35.9350E+06    -61.3192E+06    -268.326E+06    -61.3308E+06    -268.314E+06    -35.9350E+06    -148.257E+03         29.7311
             560     2.83602E-03     42.4655E-03         2.84375         2.62221        -5.96739         2.51035        -5.63824         2.62645         3.11457     113.166E-03    -56.5301E-03    -56.6363E-03    -56.5402E-03     113.135E-03    -56.5953E-03     4.46364E-03    -49.0157E+06    -66.8669E+06    -276.886E+06    -66.8717E+06    -276.882E+06    -49.0157E+06     479.935E+03         29.4895
             561     1.89098E-03     42.4622E-03         2.80027         2.66157        -5.93969         2.56854        -5.71681         2.67041         2.61961     112.990E-03    -56.4494E-03    -56.5408E-03    -56.4382E-03     112.979E-03    -56.5408E-03     2.66058E-03    -61.6912E+06    -71.3530E+06    -284.775E+06    -71.3535E+06    -284.775E+06    -61.6912E+06    -84.0799E+03         29.3223
             562     944.650E-06     42.4602E-03         4.73080         1.64397        -6.82754         3.74296        -5.84431         1.64857        -2.83373     112.995E-03    -56.2642E-03    -56.7311E-03    -56.6922E-03     112.992E-03    -56.2997E-03     1.45419E-03    -71.2744E+06    -75.2809E+06    -289.610E+06    -75.3031E+06    -289.588E+06    -71.2744E+06    -432.607E+03         29.2226
             563     16.0775E-03     41.7770E-03         1.63125     546.794E-03        -2.64731     462.634E-03        -2.56315         1.63125    -627.551E-03     115.592E-03    -55.8866E-03    -59.7056E-03    -53.9069E-03     110.478E-03    -56.5711E-03     52.3460E-03     143.002E+06     117.814E+06    -7.31537E+06    -7.30452E+06     142.991E+06     117.814E+06     387.821E+03         47.8583
             564     15.1286E-03     41.6913E-03         1.69085     707.209E-03        -2.86922     587.691E-03        -2.74970         1.69085        -1.25640     118.788E-03    -56.4618E-03    -62.3257E-03    -54.0756E-03     110.537E-03    -56.4618E-03     75.3576E-03     137.271E+06     84.2449E+06    -14.6571E+06    -14.6080E+06     137.222E+06     84.2449E+06     746.982E+03         45.8107
             565     14.1837E-03     41.6125E-03         1.74885         1.04956        -3.27434     721.671E-03        -2.94645         1.74885        -2.11803     116.749E-03    -56.2808E-03    -60.4679E-03    -54.5038E-03     110.785E-03    -56.2808E-03     63.6135E-03     126.265E+06     37.7177E+06    -22.1831E+06    -22.1399E+06     126.222E+06     37.7177E+06    -164.616E+03         43.4929
             566     13.2377E-03     41.5538E-03         1.80740         1.27700        -3.55645     860.774E-03        -3.14022         1.80740        -2.65453     114.624E-03    -56.1827E-03    -58.4411E-03    -54.6162E-03     110.799E-03    -56.1827E-03     50.4930E-03     100.631E+06     4.44514E+06    -26.0236E+06    -25.9993E+06     100.606E+06     4.44514E+06     295.792E+03         41.1127
             567     12.2913E-03     41.4996E-03         1.86635         1.28155        -3.60917         1.01288        -3.34050         1.86635        -2.22582     113.403E-03    -56.0684E-03    -57.3344E-03    -55.2081E-03     111.457E-03    -56.2492E-03     35.0756E-03     40.4321E+06    -5.52014E+06    -26.4700E+06    -26.4337E+06     40.3958E+06    -5.52014E+06     434.387E+03         38.8437
             568     11.3442E-03     41.4755E-03         1.92447         1.32063        -3.69847         1.17749        -3.55532         1.92447        -1.22181     113.032E-03    -56.1646E-03    -56.8675E-03    -55.6274E-03     112.003E-03    -56.3759E-03     26.3429E-03    -2.75312E+06    -16.1036E+06    -42.8359E+06    -27.3973E+06    -29.9386E+06    -4.35662E+06    -47.5263E+03         36.8140
             569     10.4006E-03     41.4446E-03         1.97988         1.36950        -3.80720         1.33655        -3.77425         1.97988     541.688E-03     113.170E-03    -56.4369E-03    -56.7330E-03    -55.8647E-03     112.332E-03    -56.4673E-03     23.5840E-03    -3.96193E+06    -29.2528E+06    -83.3618E+06    -29.2556E+06    -83.3590E+06    -3.96193E+06     115.787E+03         35.0949
             570     9.45335E-03     41.4240E-03         2.03256         1.50896        -4.01145         1.47630        -3.97879         2.03256     577.124E-03     113.021E-03    -56.4169E-03    -56.6040E-03    -55.9754E-03     112.521E-03    -56.5455E-03     18.2092E-03    -2.10177E+06    -32.0491E+06    -121.201E+06    -32.0496E+06    -121.201E+06    -2.10177E+06     45.3656E+03         33.6969
             571     8.50849E-03     41.4055E-03         2.08401         1.60135        -4.16048         1.59299        -4.15212         2.08401     298.265E-03     112.874E-03    -56.2623E-03    -56.6120E-03    -55.9241E-03     112.536E-03    -56.6120E-03     15.0732E-03    -2.20931E+06    -35.5940E+06    -149.578E+06    -35.5969E+06    -149.575E+06    -2.20931E+06     121.593E+03         32.5863
             572     7.56199E-03     41.3923E-03         2.13479         1.72030        -4.31942         1.70762        -4.30675         2.13479     81.1803E-03     113.037E-03    -56.2608E-03    -56.7758E-03    -56.1188E-03     112.785E-03    -56.6664E-03     12.9653E-03    -6.47928E+06    -40.5034E+06    -178.710E+06    -40.5060E+06    -178.707E+06    -6.47928E+06     20.5112E+03         31.7121
             573     6.61727E-03     41.3789E-03         2.28868         1.99181        -4.72732         1.83455        -4.46490         2.18352         1.66395     113.104E-03    -56.2849E-03    -56.8193E-03    -56.2183E-03     112.928E-03    -56.7099E-03     10.8728E-03    -11.3576E+06    -45.2914E+06    -204.753E+06    -45.2983E+06    -204.746E+06    -11.3576E+06     118.657E+03         31.0246
             574     5.67177E-03     41.3674E-03         2.36627         2.22862        -5.03466         1.95563        -4.62402         2.22862         3.35763     113.076E-03    -56.3271E-03    -56.7488E-03    -56.2038E-03     112.953E-03    -56.7488E-03     9.07705E-03    -17.2850E+06    -49.4413E+06    -225.020E+06    -49.4507E+06    -225.011E+06    -17.2850E+06    -136.029E+03         30.4837
             575     4.72586E-03     41.3593E-03         2.69239         2.27139        -5.41431         2.04960        -4.77152         2.27139         4.24535     113.401E-03    -56.5906E-03    -56.8106E-03    -56.5468E-03     113.319E-03    -56.7718E-03     7.45618E-03    -24.9821E+06    -55.1343E+06    -248.574E+06    -55.1373E+06    -248.571E+06    -24.9821E+06    -39.7781E+03         30.0609
             576     3.78111E-03     41.3526E-03         2.92834         2.31557        -5.71314         2.12560        -4.91040         2.31557         4.98419     113.454E-03    -56.6805E-03    -56.7740E-03    -56.6648E-03     113.400E-03    -56.7352E-03     6.03363E-03    -36.1084E+06    -61.5829E+06    -268.878E+06    -61.5847E+06    -268.877E+06    -36.1084E+06    -166.739E+03         29.7360
             577     2.83591E-03     41.3471E-03         2.58591         2.34529        -5.40535         2.21957        -5.05537         2.36165         2.94942     113.183E-03    -56.4993E-03    -56.6838E-03    -56.4685E-03     113.152E-03    -56.6838E-03     4.49948E-03    -49.2527E+06    -66.6629E+06    -277.305E+06    -66.6710E+06    -277.297E+06    -49.2527E+06    -869.815E+03         29.4952
             578     1.89021E-03     41.3439E-03         2.62735         2.38719        -5.46503         2.32683        -5.18087         2.40355         2.74452     113.198E-03    -56.5226E-03    -56.6758E-03    -56.5087E-03     113.185E-03    -56.6758E-03     2.95022E-03    -60.9615E+06    -71.0220E+06    -284.459E+06    -71.0288E+06    -284.452E+06    -60.9615E+06    -625.867E+03         29.3292
             579     945.856E-06     41.3418E-03         5.04576         1.18478        -6.64758         3.65919        -5.26101         1.18478        -3.34043     113.294E-03    -56.5920E-03    -56.7019E-03    -56.6068E-03     113.290E-03    -56.6830E-03     1.45550E-03    -70.3593E+06    -75.6584E+06    -289.882E+06    -74.0183E+06    -289.867E+06    -72.0144E+06    -1.14519E+06         29.2304
             580     16.0757E-03     40.6610E-03         1.48051     547.569E-03        -2.49372     461.367E-03        -2.40751         1.48051    -661.798E-03     115.598E-03    -55.6088E-03    -59.9891E-03    -53.8371E-03     110.426E-03    -56.5889E-03     52.3493E-03     141.958E+06     118.046E+06    -6.19892E+06    -6.18053E+06     141.939E+06     118.046E+06     213.092E+03         47.8386
             581     15.1309E-03     40.5702E-03         1.52988     717.961E-03        -2.71893     584.855E-03        -2.58583         1.52988        -1.30821     118.949E-03    -56.5055E-03    -62.4435E-03    -54.2541E-03     110.760E-03    -56.5055E-03     75.0831E-03     135.795E+06     89.4470E+06    -14.4865E+06    -14.4286E+06     135.737E+06     89.4470E+06     2.47853E+06         45.7985
             582     14.1830E-03     40.4961E-03         1.57647         1.06966        -3.12170     714.300E-03        -2.76634         1.57647        -2.18836     117.111E-03    -56.3109E-03    -60.7997E-03    -54.9061E-03     111.217E-03    -56.3109E-03     63.4687E-03     127.817E+06     45.1981E+06    -21.2372E+06    -21.1879E+06     127.768E+06     45.1981E+06     2.04386E+06         43.4894
             583     13.2380E-03     40.4308E-03         1.62269         1.29781        -3.38992     846.073E-03        -2.93818         1.62269        -2.71942     115.070E-03    -56.1593E-03    -58.9110E-03    -55.0467E-03     111.206E-03    -56.1593E-03     50.7886E-03     102.170E+06     7.77969E+06    -24.3712E+06    -24.3631E+06     102.162E+06     7.77969E+06    -300.341E+03         41.1166
             584     12.2916E-03     40.3859E-03         1.66898         1.27717        -3.40225     973.127E-03        -3.09820         1.66898        -2.30491     112.995E-03    -55.9808E-03    -57.0139E-03    -54.8032E-03     111.016E-03    -56.2132E-03     35.5686E-03     38.7144E+06    -5.55030E+06    -25.9668E+06    -25.9323E+06     38.6800E+06    -5.55030E+06    -1.02351E+06         38.8520
             585     11.3455E-03     40.3533E-03         1.71489         1.26550        -3.42836         1.10454        -3.26740         1.71489        -1.30775     112.720E-03    -56.1352E-03    -56.5852E-03    -55.2975E-03     111.665E-03    -56.3676E-03     26.5569E-03    -3.81733E+06    -17.0425E+06    -42.9269E+06    -27.4332E+06    -31.6744E+06    -4.67905E+06    -655.801E+03         36.8242
             586     10.3986E-03     40.3280E-03         1.75882         1.26639        -3.47642         1.23419        -3.44421         1.75882     444.523E-03     113.126E-03    -56.4230E-03    -56.7028E-03    -55.8242E-03     112.301E-03    -56.4766E-03     23.5304E-03    -3.58136E+06    -29.2213E+06    -83.8723E+06    -29.2272E+06    -83.8664E+06    -3.58136E+06    -174.385E+03         35.1054
             587     9.45440E-03     40.3031E-03         1.80046         1.38291        -3.64335         1.35148        -3.61193         1.80046     483.100E-03     112.947E-03    -56.3760E-03    -56.5707E-03    -55.8617E-03     112.424E-03    -56.5621E-03     18.5288E-03    -2.04478E+06    -31.3313E+06    -122.374E+06    -31.3316E+06    -122.374E+06    -2.04478E+06    -33.2581E+03         33.7065
             588     8.50779E-03     40.2893E-03         1.84064         1.46070        -3.76216         1.45241        -3.75387         1.84064     221.464E-03     112.999E-03    -56.3464E-03    -56.6524E-03    -56.0380E-03     112.673E-03    -56.6355E-03     14.8108E-03    -1.10570E+06    -35.1345E+06    -150.462E+06    -35.1444E+06    -150.452E+06    -1.10570E+06     767.431E+03         32.5948
             589     7.56248E-03     40.2718E-03         1.87930         1.56672        -3.89259         1.55150        -3.87736         1.87930     4.11941E-03     113.178E-03    -56.3737E-03    -56.8038E-03    -56.2498E-03     112.927E-03    -56.6775E-03     12.9467E-03    -4.51917E+06    -39.7766E+06    -177.551E+06    -39.7883E+06    -177.539E+06    -4.51917E+06     1.03289E+06         31.7193
             590     6.61764E-03     40.2605E-03         2.07394         1.77635        -4.27752         1.64763        -3.99075         1.91589         1.58796     113.165E-03    -56.3524E-03    -56.8122E-03    -56.2869E-03     112.990E-03    -56.7028E-03     10.8393E-03    -10.4196E+06    -44.6063E+06    -204.053E+06    -44.6112E+06    -204.049E+06    -10.4196E+06    -149.613E+03         31.0305
             591     5.67135E-03     40.2497E-03         2.16607         1.95063        -4.53629         1.73166        -4.10188         1.95063         3.26237     112.956E-03    -56.2149E-03    -56.7407E-03    -56.0887E-03     112.829E-03    -56.7407E-03     9.20050E-03    -18.1975E+06    -50.3390E+06    -226.194E+06    -50.3440E+06    -226.189E+06    -18.1975E+06    -642.968E+03         30.4887
             592     4.72578E-03     40.2403E-03         2.48730         1.98583        -4.90393         1.79315        -4.20979         1.98583         4.16299     113.137E-03    -56.3031E-03    -56.8335E-03    -56.2487E-03     113.052E-03    -56.8034E-03     7.51194E-03    -26.0656E+06    -55.5444E+06    -249.032E+06    -55.5470E+06    -249.029E+06    -26.0656E+06    -206.513E+03         30.0656
             593     3.78067E-03     40.2333E-03         2.72194         2.02297        -5.19453         1.86503        -4.33762         2.02297         4.87642     113.418E-03    -56.5544E-03    -56.8634E-03    -56.5333E-03     113.367E-03    -56.8333E-03     5.85291E-03    -35.7348E+06    -60.4293E+06    -268.297E+06    -60.4369E+06    -268.289E+06    -35.7348E+06    -837.773E+03         29.7411
             594     2.83532E-03     40.2292E-03         2.32440         2.04878        -4.81916         1.94327        -4.45014         2.06089         2.91098     113.414E-03    -56.5955E-03    -56.8181E-03    -56.5657E-03     113.384E-03    -56.8181E-03     4.44716E-03    -49.4148E+06    -66.1101E+06    -277.941E+06    -66.1263E+06    -277.924E+06    -49.4148E+06    -1.76870E+06         29.5015
             595     1.89014E-03     40.2248E-03         2.34524         2.07773        -4.84649         2.04811        -4.56147         2.08984         2.64555     113.448E-03    -56.6188E-03    -56.8293E-03    -56.6042E-03     113.434E-03    -56.8293E-03     3.05342E-03    -62.1658E+06    -70.8119E+06    -285.497E+06    -70.7494E+06    -285.486E+06    -62.2395E+06    -1.34098E+06         29.3368
             596     944.391E-06     40.2231E-03         4.78403     743.326E-03        -5.90596         3.45651        -4.57843     743.326E-03        -3.17449     113.650E-03    -56.5876E-03    -57.0619E-03    -56.9010E-03     113.645E-03    -56.7444E-03     1.43743E-03    -69.8640E+06    -75.8306E+06    -290.420E+06    -74.1056E+06    -290.416E+06    -71.5929E+06    -277.479E+03         29.2389
             597     16.0770E-03     39.5415E-03         1.31577     535.441E-03        -2.30755     450.720E-03        -2.22283         1.31577    -671.242E-03     115.928E-03    -55.7064E-03    -60.2215E-03    -54.0518E-03     110.650E-03    -56.5985E-03     52.8391E-03     140.506E+06     117.259E+06    -9.53940E+06    -9.50201E+06     140.469E+06     117.259E+06     1.33046E+06         47.8180
             598     15.1288E-03     39.4518E-03         1.35451     713.649E-03        -2.53383     571.850E-03        -2.39203         1.35451        -1.31787     119.231E-03    -56.5255E-03    -62.7053E-03    -54.4895E-03     111.015E-03    -56.5255E-03     75.2430E-03     134.362E+06     93.7395E+06    -15.9882E+06    -15.9304E+06     134.304E+06     93.7395E+06     1.43775E+06         45.7855
             599     14.1843E-03     39.3762E-03         1.40604         1.04908        -2.92530     689.838E-03        -2.54952         1.38950        -2.20525     117.039E-03    -56.3267E-03    -60.7118E-03    -54.8011E-03     111.128E-03    -56.3267E-03     63.6094E-03     129.004E+06     51.2497E+06    -19.2291E+06    -19.1909E+06     128.965E+06     51.2497E+06     354.334E+03         43.4845
             600     13.2377E-03     39.3121E-03         1.44020         1.27218        -3.17658     809.871E-03        -2.69774         1.42366        -2.72455     114.847E-03    -56.1713E-03    -58.6756E-03    -54.8090E-03     110.980E-03    -56.1713E-03     50.5437E-03     102.655E+06     10.6405E+06    -22.0047E+06    -21.9961E+06     102.646E+06     10.6405E+06    -46.7870E+03         41.1185
             601     12.2918E-03     39.2670E-03         1.45707         1.25952        -3.16755     929.731E-03        -2.83776         1.45707        -2.32340     113.223E-03    -56.1716E-03    -57.0513E-03    -55.0486E-03     111.272E-03    -56.2232E-03     35.7175E-03     38.5216E+06    -3.47766E+06    -24.5602E+06    -24.5324E+06     38.4819E+06    -3.46580E+06    -717.145E+03         38.8595
             602     11.3449E-03     39.2362E-03         1.48957         1.20504        -3.13629         1.03366        -2.96491         1.48957        -1.32762     112.806E-03    -56.2825E-03    -56.5232E-03    -55.3373E-03     111.698E-03    -56.3606E-03     27.1893E-03    -3.55255E+06    -16.3962E+06    -43.7371E+06    -26.8263E+06    -32.6918E+06    -4.16772E+06    -570.970E+03         36.8349
             603     10.4002E-03     39.2078E-03         1.52105         1.15677        -3.12096         1.11929        -3.08349         1.52105     424.098E-03     112.758E-03    -56.2643E-03    -56.4938E-03    -55.4810E-03     111.964E-03    -56.4834E-03     23.0383E-03    -3.46559E+06    -29.3211E+06    -85.3814E+06    -29.3267E+06    -85.3758E+06    -3.46559E+06    -173.321E+03         35.1165
             604     9.45253E-03     39.1865E-03         1.55177         1.23818        -3.24000         1.20203        -3.20386         1.55177     471.776E-03     112.957E-03    -56.3587E-03    -56.5981E-03    -55.8464E-03     112.430E-03    -56.5834E-03     18.6789E-03    -2.62678E+06    -32.5558E+06    -123.299E+06    -32.5563E+06    -123.298E+06    -2.62678E+06     20.4626E+03         33.7166
             605     8.50813E-03     39.1681E-03         1.58130         1.29958        -3.32809         1.28873        -3.31724         1.58130     222.904E-03     113.284E-03    -56.6092E-03    -56.6751E-03    -56.3140E-03     112.958E-03    -56.6436E-03     14.8292E-03    -1.74444E+06    -35.9944E+06    -152.001E+06     -36.005E+06    -151.990E+06    -1.74444E+06     399.016E+03         32.6036
             606     7.56302E-03     39.1549E-03         1.60810         1.40192        -3.44030         1.38148        -3.41986         1.60810    -12.2426E-03     113.075E-03    -56.3778E-03    -56.6970E-03    -56.1485E-03     112.829E-03    -56.6801E-03     12.8905E-03    -3.49493E+06    -38.6594E+06    -177.382E+06    -38.6716E+06    -177.370E+06    -3.49493E+06     627.707E+03         31.7267
             607     6.61623E-03     39.1406E-03         1.87355         1.54639        -3.82959         1.45048        -3.49213         1.63201         1.59812     113.029E-03    -56.2994E-03    -56.7296E-03    -56.1210E-03     112.851E-03    -56.7296E-03     10.9007E-03    -7.87898E+06    -42.5099E+06    -202.339E+06    -42.5130E+06    -202.336E+06    -7.87898E+06     377.652E+03         31.0368
             608     5.67207E-03     39.1318E-03         1.98924         1.65501        -4.04596         1.50062        -3.55734         1.65501         3.24127     113.200E-03    -56.4352E-03    -56.7650E-03    -56.3102E-03     113.075E-03    -56.7650E-03     9.19440E-03    -16.1091E+06    -48.3525E+06    -226.204E+06    -48.3554E+06    -226.201E+06    -16.1091E+06    -205.249E+03         30.4943
             609     4.72623E-03     39.1218E-03         2.33088         1.67961        -4.42364         1.53738        -3.63014         1.67961         4.17759     113.081E-03    -56.2704E-03    -56.8103E-03    -56.1809E-03     112.991E-03    -56.8103E-03     7.69521E-03    -25.9004E+06    -54.0741E+06    -249.145E+06    -54.0898E+06    -249.129E+06    -25.9004E+06    -1.22845E+06         30.0708
             610     3.77999E-03     39.1152E-03         2.53507         1.70527        -4.66982         1.59708        -3.73183         1.70527         4.77793     113.242E-03    -56.3607E-03    -56.8812E-03    -56.3111E-03     113.192E-03    -56.8812E-03     5.73614E-03    -36.1955E+06    -59.8426E+06    -268.347E+06    -59.8632E+06    -268.326E+06    -36.1955E+06    -1.73554E+06         29.7463
             611     2.83499E-03     39.1094E-03         2.04772         1.73156        -4.20480         1.64535        -3.80244         1.73156         2.94566     113.589E-03    -56.6866E-03    -56.9021E-03    -56.6600E-03     113.562E-03    -56.9021E-03     4.17861E-03    -49.7810E+06    -65.6304E+06    -279.089E+06    -65.6400E+06    -279.079E+06    -49.7810E+06    -1.28025E+06         29.5071
             612     1.89000E-03     39.1068E-03         1.98597         1.75025        -4.13924         1.72828        -3.88155         1.75025         2.41728     113.690E-03    -56.7481E-03    -56.9421E-03    -56.8068E-03     113.678E-03    -56.8712E-03     2.80302E-03    -63.5016E+06    -70.9469E+06    -287.318E+06    -70.8786E+06    -287.313E+06    -63.5754E+06    -754.952E+03         29.3428
             613     945.172E-06     39.1033E-03         4.10889     389.780E-03        -4.85979         3.12083        -3.87173     389.780E-03        -2.63600     113.664E-03    -56.5802E-03    -57.0840E-03    -56.9649E-03     113.661E-03    -56.6956E-03     1.35944E-03    -70.9727E+06    -75.9950E+06    -291.910E+06    -74.7435E+06    -291.904E+06    -72.2308E+06    -369.360E+03         29.2451
             614     16.0758E-03     38.4241E-03         1.13595     519.647E-03        -2.10102     436.796E-03        -2.01817         1.13595    -666.079E-03     116.124E-03    -56.0061E-03    -60.1178E-03    -54.4076E-03     110.994E-03    -56.5866E-03     52.6128E-03     140.006E+06     118.182E+06    -7.75587E+06    -7.71446E+06     139.965E+06     118.182E+06     2.22554E+06         47.7977
             615     15.1310E-03     38.3314E-03         1.16342     700.075E-03        -2.31956     551.902E-03        -2.17139         1.16342        -1.29960     118.880E-03    -56.5029E-03    -62.3770E-03    -54.2334E-03     110.736E-03    -56.5029E-03     74.8777E-03     135.889E+06     93.8930E+06    -14.3442E+06    -14.3136E+06     135.858E+06     93.8930E+06    -382.217E+03         45.7723
             616     14.1838E-03     38.2578E-03         1.26509     967.180E-03        -2.69482     657.983E-03        -2.30677         1.18624        -2.17347     116.788E-03    -56.3180E-03    -60.4704E-03    -54.4393E-03     110.757E-03    -56.3180E-03     64.0843E-03     128.002E+06     48.7292E+06    -19.9286E+06    -19.9011E+06     127.975E+06     48.7292E+06    -1.78121E+06         43.4790
             617     13.2375E-03     38.1933E-03         1.29671         1.16839        -2.92194     759.857E-03        -2.42451         1.20782        -2.67672     114.798E-03    -56.1917E-03    -58.6059E-03    -54.7461E-03     110.938E-03    -56.1917E-03     50.4591E-03     102.087E+06     10.8705E+06    -22.5231E+06    -22.5081E+06     102.072E+06     10.8705E+06    -865.831E+03         41.1204
             618     12.2906E-03     38.1487E-03         1.26412         1.17641        -2.88466     863.967E-03        -2.53640         1.22830        -2.28322     113.360E-03    -56.2463E-03    -57.1142E-03    -55.1715E-03     111.418E-03    -56.2463E-03     35.6825E-03     38.9086E+06    -1.74794E+06    -23.6421E+06    -23.6021E+06     38.8567E+06    -1.73608E+06    -70.3858E+03         38.8675
             619     11.3461E-03     38.1164E-03         1.27303         1.10210        -2.80979     952.456E-03        -2.63437         1.24725        -1.27427     112.999E-03    -56.3420E-03    -56.6569E-03    -55.5210E-03     111.890E-03    -56.3686E-03     27.2329E-03    -3.32960E+06    -16.0201E+06    -43.7665E+06    -25.8719E+06    -33.6893E+06    -3.55504E+06     486.766E+03         36.8465
             620     10.3987E-03     38.0908E-03         1.26489         1.05894        -2.75861         1.01077        -2.71045         1.26489     477.125E-03     112.873E-03    -56.3123E-03    -56.5605E-03    -55.6140E-03     112.092E-03    -56.4779E-03     22.8582E-03    -2.65093E+06    -28.8617E+06    -85.4049E+06    -28.8685E+06    -85.3982E+06    -2.65093E+06     376.664E+03         35.1289
             621     9.45398E-03     38.0671E-03         1.28203         1.10721        -2.82746         1.06056        -2.78081         1.28203     542.755E-03     112.904E-03    -56.2646E-03    -56.6396E-03    -55.8193E-03     112.387E-03    -56.5672E-03     18.5341E-03    -2.83051E+06    -32.3294E+06    -123.553E+06    -32.3305E+06    -123.551E+06    -2.83051E+06     149.287E+03         33.7278
             622     8.50776E-03     38.0493E-03         1.29858         1.13465        -2.86636         1.11613        -2.84783         1.29858     323.356E-03     113.002E-03    -56.3451E-03    -56.6570E-03    -56.0348E-03     112.677E-03    -56.6423E-03     14.7578E-03    -2.43078E+06    -35.4607E+06    -153.115E+06    -35.4662E+06    -153.109E+06    -2.43078E+06    -483.076E+03         32.6129
             623     7.56231E-03     38.0356E-03         1.31340         1.20300        -2.93197         1.17514        -2.90411         1.31340     91.3424E-03     113.113E-03    -56.4075E-03    -56.7056E-03    -56.1806E-03     112.875E-03    -56.6940E-03     12.6859E-03    -4.34310E+06    -39.2237E+06    -178.193E+06    -39.2291E+06    -178.187E+06    -4.34310E+06    -402.779E+03         31.7346
             624     6.61749E-03     38.0232E-03         1.68293         1.27762        -3.35461         1.22598        -2.94570         1.32566         1.70813     113.040E-03    -56.2851E-03    -56.7552E-03    -56.1199E-03     112.863E-03    -56.7436E-03     10.8833E-03    -8.59572E+06    -43.5906E+06    -202.375E+06    -43.5921E+06    -202.373E+06    -8.59572E+06     208.503E+03         31.0437
             625     5.67062E-03     38.0118E-03         1.84433         1.33574        -3.56579         1.26288        -2.98434         1.33574         3.28924     113.132E-03    -56.3351E-03    -56.7972E-03    -56.2107E-03     113.008E-03    -56.7972E-03     9.13606E-03    -14.9957E+06    -48.0443E+06    -225.876E+06    -48.0457E+06    -225.875E+06    -14.9957E+06    -20.1864E+03         30.5006
             626     4.72585E-03     38.0041E-03         2.20695         1.34673        -3.94988         1.27069        -3.01362         1.34673         4.24473     113.306E-03    -56.4809E-03    -56.8253E-03    -56.3936E-03     113.219E-03    -56.8253E-03     7.62881E-03    -26.2796E+06    -54.1731E+06    -248.151E+06    -54.1873E+06    -248.137E+06    -26.2796E+06    -754.399E+03         30.0765
             627     3.78080E-03     37.9961E-03         2.35710         1.36082        -4.13053         1.29069        -3.06413         1.36082         4.71936     113.309E-03    -56.4577E-03    -56.8515E-03    -56.4061E-03     113.258E-03    -56.8515E-03     5.83935E-03    -39.3527E+06    -60.7634E+06    -268.723E+06    -60.7843E+06    -268.702E+06    -39.3527E+06    -1.46303E+06         29.7514
             628     2.83497E-03     37.9911E-03         1.79776         1.37911        -3.58834         1.31102        -3.10161         1.37911         3.03740     113.490E-03    -56.6100E-03    -56.8796E-03    -56.5837E-03     113.463E-03    -56.8796E-03     4.15663E-03    -51.4157E+06    -66.5071E+06    -281.417E+06    -66.5144E+06    -281.409E+06    -51.4157E+06    -902.068E+03         29.5113
             629     1.89003E-03     37.9866E-03         1.64787         1.39226        -3.43245         1.37975        -3.16433         1.39226         2.22033     113.691E-03    -56.7600E-03    -56.9308E-03    -56.8189E-03     113.679E-03    -56.8599E-03     2.78301E-03    -63.0269E+06    -71.8627E+06    -288.463E+06    -71.8636E+06    -288.462E+06    -63.0269E+06    -126.659E+03         29.3462
             630     945.309E-06     37.9853E-03         3.31915     115.591E-03        -3.79173         2.67392        -3.14650     115.591E-03        -2.02265     113.612E-03    -56.6290E-03    -56.9825E-03    -56.9141E-03     113.607E-03    -56.6933E-03     1.51045E-03    -71.8127E+06    -76.5446E+06    -293.196E+06    -75.3675E+06    -293.189E+06    -72.9970E+06     61.2833E+03         29.2481
             631     16.0781E-03     37.3004E-03     941.176E-03     506.730E-03        -1.88183     424.225E-03        -1.79932     941.176E-03    -656.585E-03     115.985E-03    -56.3475E-03    -59.6372E-03    -54.4513E-03     111.002E-03    -56.5506E-03     52.1103E-03     139.869E+06     119.037E+06    -5.85623E+06    -5.82890E+06     139.842E+06     119.037E+06     1.52734E+06         47.7783
             632     15.1307E-03     37.2167E-03     956.534E-03     686.573E-03        -2.09077     533.525E-03        -1.93772     956.534E-03        -1.26498     118.270E-03    -56.4704E-03    -61.7992E-03    -53.7225E-03     110.193E-03    -56.4704E-03     74.4229E-03     137.403E+06     93.3340E+06    -13.4347E+06    -13.4231E+06     137.392E+06     93.3340E+06     350.791E+03         45.7599
             633     14.1828E-03     37.1374E-03         1.14125     846.081E-03        -2.44231     624.931E-03        -2.04601     966.101E-03        -2.11034     116.583E-03    -56.3049E-03    -60.2782E-03    -54.1935E-03     110.498E-03    -56.3049E-03     64.2290E-03     128.026E+06     46.9164E+06    -19.4073E+06    -19.3767E+06     127.996E+06     46.9164E+06    -1.56035E+06         43.4744
             634     13.2372E-03     37.0751E-03         1.21783     973.895E-03        -2.64258     708.494E-03        -2.13324     973.895E-03        -2.58914     114.749E-03    -56.1918E-03    -58.5571E-03    -54.7985E-03     110.990E-03    -56.1918E-03     49.7581E-03     100.499E+06     9.73858E+06    -22.5822E+06    -22.5462E+06     100.463E+06     9.73858E+06    -2.06883E+06         41.1235
             635     12.2917E-03     37.0295E-03         1.14171     980.675E-03        -2.56135     783.373E-03        -2.20301     980.675E-03        -2.18781     113.202E-03    -56.2007E-03    -57.0015E-03    -55.0352E-03     111.288E-03    -56.2531E-03     35.4809E-03     37.0470E+06    -2.64743E+06    -25.2687E+06    -25.1866E+06     36.9649E+06    -2.64743E+06     107.773E+03         38.8764
             636     11.3444E-03     36.9980E-03         1.07830     931.575E-03        -2.43822     848.172E-03        -2.26256     986.050E-03        -1.16465     113.018E-03    -56.3271E-03    -56.6907E-03    -55.5169E-03     111.896E-03    -56.3796E-03     27.3523E-03     -3.8042E+06    -16.9338E+06    -45.0025E+06    -27.0693E+06    -34.3858E+06    -4.28535E+06     930.021E+03         36.8586
             637     10.4002E-03     36.9716E-03         1.03203     921.403E-03        -2.37835     897.865E-03        -2.31205     989.259E-03     584.742E-03     113.225E-03    -56.4742E-03    -56.7513E-03    -55.9694E-03     112.444E-03    -56.4742E-03     22.9356E-03    -2.46254E+06    -28.9120E+06    -84.8930E+06    -28.9205E+06    -84.8844E+06    -2.46254E+06     297.844E+03         35.1418
             638     9.45401E-03     36.9483E-03         1.04177     944.982E-03        -2.41210     930.770E-03        -2.34667     990.553E-03     650.154E-03     112.877E-03    -56.2513E-03    -56.6261E-03    -55.8012E-03     112.350E-03    -56.5490E-03     18.7005E-03    -1.77870E+06    -30.4176E+06    -123.050E+06    -30.4199E+06    -123.047E+06    -1.77870E+06     66.4267E+03         33.7397
             639     8.50814E-03     36.9317E-03         1.02633     944.206E-03        -2.38920     946.820E-03        -2.35648     990.995E-03     451.559E-03     112.735E-03    -56.0975E-03    -56.6372E-03    -55.7611E-03     112.398E-03    -56.6372E-03     15.0051E-03    -2.10321E+06    -33.6665E+06    -153.203E+06    -33.6709E+06    -153.199E+06    -2.10321E+06    -493.855E+03         32.6228
             640     7.56210E-03     36.9161E-03         1.02475     959.610E-03        -2.38487     952.099E-03        -2.34422     991.611E-03     231.474E-03     113.036E-03    -56.3122E-03    -56.7239E-03    -56.0841E-03     112.796E-03    -56.7123E-03     12.6835E-03    -4.48578E+06    -38.4667E+06    -178.946E+06    -38.4724E+06    -178.940E+06    -4.48578E+06    -518.299E+03         31.7429
             641     6.61662E-03     36.9045E-03         1.48994     974.812E-03        -2.84583     965.272E-03        -2.33856     992.216E-03         1.83630     113.200E-03    -56.4043E-03    -56.7960E-03    -56.2672E-03     113.026E-03    -56.7587E-03     10.8457E-03    -9.39721E+06    -43.3626E+06    -203.764E+06    -43.3692E+06    -203.758E+06    -9.39721E+06     92.7867E+03         31.0512
             642     5.67174E-03     36.8942E-03         1.71021     991.690E-03        -3.07323     981.023E-03        -2.34404     991.690E-03         3.37514     113.192E-03    -56.3712E-03    -56.8204E-03    -56.2735E-03     113.068E-03    -56.7948E-03     9.07787E-03    -16.2258E+06    -48.5798E+06    -225.665E+06    -48.5866E+06    -225.658E+06    -16.2258E+06    -123.778E+03         30.5075
             643     4.72565E-03     36.8843E-03         2.09622     990.952E-03        -3.46640     978.257E-03        -2.34844     990.952E-03         4.31012     113.316E-03    -56.4908E-03    -56.8253E-03    -56.4105E-03     113.236E-03    -56.8253E-03     7.34496E-03    -25.3730E+06    -53.8519E+06    -247.790E+06    -53.8548E+06    -247.788E+06    -25.3730E+06    -153.810E+03         30.0825
             644     3.78042E-03     36.8781E-03         2.22288     993.307E-03        -3.61186     965.264E-03        -2.35424     993.307E-03         4.72043     113.491E-03    -56.6299E-03    -56.8607E-03    -56.6214E-03     113.440E-03    -56.8188E-03     5.77980E-03    -38.4926E+06    -60.0781E+06    -269.260E+06    -60.0862E+06    -269.252E+06    -38.4926E+06    -45.3487E+03         29.7562
             645     2.83553E-03     36.8719E-03         1.59417     999.249E-03        -2.99157     972.954E-03        -2.37036     999.249E-03         3.10579     113.425E-03    -56.5899E-03    -56.8356E-03    -56.6056E-03     113.399E-03    -56.7938E-03     4.14371E-03    -51.8001E+06    -67.1091E+06    -282.484E+06    -67.1173E+06    -282.476E+06    -51.8001E+06    -468.153E+03         29.5147
             646     1.89008E-03     36.8682E-03         1.33500         1.00504        -2.72468     993.513E-03        -2.38318         1.00504         2.16927     113.395E-03    -56.5960E-03    -56.7989E-03    -56.5849E-03     113.384E-03    -56.7989E-03     2.63468E-03    -63.3456E+06    -72.3246E+06    -289.474E+06    -72.3256E+06    -289.472E+06    -63.3456E+06    -210.705E+03         29.3483
             647     944.576E-06     36.8656E-03         2.68398    -96.4206E-03        -2.94181         2.11115        -2.36898    -96.4206E-03        -1.71963     113.574E-03    -56.5875E-03    -56.9869E-03    -56.9027E-03     113.571E-03    -56.6683E-03     1.33885E-03    -72.7715E+06    -75.9256E+06    -293.966E+06    -75.8430E+06    -293.956E+06    -72.8646E+06    -167.104E+03         29.2494
             648     16.0782E-03     36.1854E-03     731.098E-03     488.531E-03        -1.64732     409.298E-03        -1.56809     731.098E-03    -622.556E-03     115.817E-03    -56.3187E-03    -59.4979E-03    -54.2488E-03     110.795E-03    -56.5465E-03     52.1589E-03     138.996E+06     120.181E+06    -5.89105E+06    -5.87945E+06     138.984E+06     120.181E+06    -8.67770E+03         47.7578
             649     15.1307E-03     36.0963E-03     751.039E-03     645.440E-03        -1.84104     513.736E-03        -1.69173     733.430E-03        -1.18444     118.510E-03    -56.4693E-03    -62.0408E-03    -53.8876E-03     110.357E-03    -56.4693E-03     74.8499E-03     139.743E+06     96.3612E+06    -11.7641E+06    -11.7576E+06     139.737E+06     96.3612E+06     648.418E+03         45.7474
             650     14.1851E-03     36.0213E-03         1.02084     693.846E-03        -2.16695     590.401E-03        -1.77132     728.663E-03        -1.99975     116.668E-03    -56.2807E-03    -60.3870E-03    -54.2697E-03     110.550E-03    -56.2807E-03     64.4385E-03     129.475E+06     46.7825E+06    -17.7578E+06    -17.7346E+06     129.452E+06     46.7825E+06    -82.6028E+03         43.4710
             651     13.2375E-03     35.9544E-03         1.16025     721.833E-03        -2.33061     646.911E-03        -1.81727     721.833E-03        -2.45369     114.427E-03    -56.1712E-03    -58.2560E-03    -54.4410E-03     110.612E-03    -56.1712E-03     50.0990E-03     97.4277E+06     6.28306E+06    -23.3931E+06    -23.3640E+06     97.3985E+06     6.28306E+06    -492.114E+03         41.1271
             652     12.2910E-03     35.9124E-03         1.05398     714.422E-03        -2.20485     689.020E-03        -1.83988     714.422E-03        -2.05267     113.315E-03    -56.2005E-03    -57.1145E-03    -55.1304E-03     111.383E-03    -56.2530E-03     35.4953E-03     34.7774E+06    -4.00155E+06    -26.3386E+06    -26.2296E+06     34.6075E+06    -3.94066E+06    -203.870E+03         38.8852
             653     11.3453E-03     35.8790E-03     909.118E-03     697.213E-03        -2.02951     722.921E-03        -1.85228     706.181E-03        -1.03915     112.962E-03    -56.1486E-03    -56.8131E-03    -55.4731E-03     111.851E-03    -56.3781E-03     27.2720E-03    -4.09195E+06    -16.0263E+06    -45.0611E+06    -26.5978E+06    -34.2340E+06    -4.34766E+06    -32.1753E+03         36.8705
             654     10.3990E-03     35.8518E-03     856.095E-03     686.652E-03        -1.95785     755.693E-03        -1.86642     695.620E-03     687.350E-03     112.987E-03    -56.3047E-03    -56.6825E-03    -55.6975E-03     112.186E-03    -56.4881E-03     23.1387E-03    -2.60015E+06    -28.1406E+06    -85.2814E+06    -28.1481E+06    -85.2739E+06    -2.60015E+06    -40.1295E+03         35.1541
             655     9.45386E-03     35.8307E-03     860.830E-03     682.453E-03        -1.95430     769.164E-03        -1.86263     682.453E-03     748.828E-03     113.000E-03    -56.4077E-03    -56.5925E-03    -55.8940E-03     112.467E-03    -56.5731E-03     18.8647E-03    -2.28249E+06    -31.3942E+06    -123.189E+06    -31.3975E+06    -123.185E+06    -2.28249E+06    -183.209E+03         33.7510
             656     8.50783E-03     35.8126E-03     803.087E-03     668.220E-03        -1.87373     753.757E-03        -1.82440     668.220E-03     538.548E-03     112.913E-03    -56.2658E-03    -56.6467E-03    -55.9120E-03     112.559E-03    -56.6467E-03     15.3898E-03    -2.87773E+06    -34.2255E+06    -152.541E+06    -34.2295E+06    -152.537E+06    -2.87773E+06    -426.854E+03         32.6327
             657     7.56243E-03     35.7981E-03     782.458E-03     654.550E-03        -1.82392     726.081E-03        -1.76755     654.550E-03     311.030E-03     112.978E-03    -56.2553E-03    -56.7231E-03    -56.0108E-03     112.734E-03    -56.7231E-03     12.8016E-03    -4.82389E+06    -37.6958E+06    -180.192E+06    -37.7009E+06    -180.187E+06    -4.82389E+06    -674.648E+03         31.7515
             658     6.61641E-03     35.7855E-03         1.31738     642.047E-03        -2.32755     699.706E-03        -1.70987     642.047E-03         1.89409     113.292E-03    -56.4898E-03    -56.8021E-03    -56.3409E-03     113.117E-03    -56.7765E-03     10.8473E-03    -8.72072E+06    -42.1277E+06    -205.244E+06    -42.1344E+06    -205.237E+06    -8.72072E+06    -102.092E+03         31.0588
             659     5.67123E-03     35.7747E-03         1.60537     631.052E-03        -2.59263     672.454E-03        -1.65972     631.052E-03         3.44330     113.481E-03    -56.6208E-03    -56.8597E-03    -56.5813E-03     113.362E-03    -56.7806E-03     8.89723E-03    -15.1058E+06    -47.0291E+06    -224.907E+06    -47.0362E+06    -224.900E+06    -15.1058E+06     117.753E+03         30.5143
             660     4.72622E-03     35.7667E-03         2.00246     621.204E-03        -2.98556     655.789E-03        -1.63889     621.204E-03         4.33262     113.344E-03    -56.5091E-03    -56.8347E-03    -56.4869E-03     113.268E-03    -56.7812E-03     7.12760E-03    -23.1575E+06    -53.1850E+06    -248.900E+06    -53.1889E+06    -248.896E+06    -23.1575E+06     199.273E+03         30.0884
             661     3.78077E-03     35.7581E-03         2.16647     613.198E-03        -3.15229     629.745E-03        -1.61556     613.198E-03         4.76913     113.336E-03    -56.5232E-03    -56.8132E-03    -56.5177E-03     113.289E-03    -56.7714E-03     5.59512E-03    -35.3281E+06    -59.8255E+06    -270.149E+06    -59.8321E+06    -270.142E+06    -35.3281E+06     1.07926E+06         29.7610
             662     2.83582E-03     35.7537E-03         1.41786     605.033E-03        -2.40456     629.876E-03        -1.61657     605.033E-03         3.04250     113.361E-03    -56.5639E-03    -56.7975E-03    -56.6136E-03     113.336E-03    -56.7222E-03     4.12878E-03    -50.7249E+06    -66.3259E+06    -281.284E+06    -66.3357E+06    -281.274E+06    -50.7249E+06     984.274E+03         29.5183
             663     1.89054E-03     35.7495E-03         1.11696     603.513E-03        -2.09117     587.269E-03        -1.56147     603.513E-03         2.29680     113.286E-03    -56.5708E-03    -56.7156E-03    -56.5956E-03     113.274E-03    -56.6784E-03     2.77521E-03    -63.5527E+06    -72.3812E+06    -289.982E+06    -72.3858E+06    -289.977E+06    -63.5527E+06     353.684E+03         29.3508
             664     945.532E-06     35.7470E-03         2.58559    -255.933E-03        -2.68316         1.46945        -1.56701    -255.933E-03        -2.04468     113.264E-03    -56.4820E-03    -56.7819E-03    -56.7340E-03     113.260E-03    -56.5262E-03     1.36904E-03    -74.0854E+06    -77.3222E+06    -295.631E+06    -77.0234E+06    -295.620E+06    -74.3952E+06     19.3731E+03         29.2510
             665     16.0767E-03     35.0643E-03     553.535E-03     421.217E-03        -1.40983     396.729E-03        -1.33674     504.927E-03    -560.853E-03     115.738E-03    -56.1149E-03    -59.6233E-03    -54.3334E-03     110.896E-03    -56.5625E-03     51.5676E-03     139.148E+06     119.098E+06    -7.96680E+06    -7.93135E+06     139.113E+06     119.098E+06    -1.74832E+06         47.7365
             666     15.1307E-03     34.9801E-03     628.062E-03     490.277E-03        -1.56742     483.402E-03        -1.42596     493.471E-03        -1.07623     118.599E-03    -56.4839E-03    -62.1147E-03    -53.9368E-03     110.421E-03    -56.4839E-03     75.0710E-03     138.481E+06     95.3952E+06    -13.6998E+06    -13.6710E+06     138.452E+06     95.3952E+06    -1.02871E+06         45.7342
             667     14.1837E-03     34.8993E-03     934.605E-03     474.271E-03        -1.86387     538.184E-03        -1.46745     474.271E-03        -1.86441     116.848E-03    -56.3070E-03    -60.5410E-03    -54.1940E-03     110.501E-03    -56.3070E-03     65.5588E-03     128.674E+06     47.8604E+06    -18.5509E+06    -18.5410E+06     128.664E+06     47.8604E+06     910.255E+03         43.4664
             668     13.2374E-03     34.8404E-03         1.08414     453.375E-03        -1.98785     557.800E-03        -1.46151     453.375E-03        -2.30035     114.782E-03    -56.1915E-03    -58.5903E-03    -54.7154E-03     110.907E-03    -56.1915E-03     50.6635E-03     97.3299E+06     7.96869E+06    -21.6205E+06    -21.6068E+06     97.3162E+06     7.96869E+06     1.26374E+06         41.1300
             669     12.2906E-03     34.7899E-03     953.708E-03     432.902E-03        -1.82324     563.712E-03        -1.43324     432.902E-03        -1.92310     113.490E-03    -56.2398E-03    -57.2501E-03    -55.2764E-03     111.532E-03    -56.2552E-03     35.6708E-03     34.8668E+06    -3.47707E+06    -23.6562E+06    -23.5941E+06     34.2675E+06    -2.93989E+06    -182.693E+03         38.8936
             670     11.3460E-03     34.7623E-03     760.004E-03     412.525E-03        -1.59179     568.234E-03        -1.40002     412.525E-03    -931.203E-03     112.898E-03    -56.1858E-03    -56.7126E-03    -55.4309E-03     111.809E-03    -56.3783E-03     27.0308E-03    -3.60940E+06    -16.0445E+06    -44.2340E+06    -26.2105E+06    -34.0680E+06    -3.60940E+06    -614.717E+03         36.8817
             671     10.3990E-03     34.7331E-03     695.249E-03     390.557E-03        -1.49075     570.220E-03        -1.36572     390.557E-03     744.861E-03     112.720E-03    -56.1457E-03    -56.5742E-03    -55.4199E-03     111.920E-03    -56.5000E-03     23.0715E-03    -2.97739E+06    -28.3002E+06    -86.4229E+06    -28.3083E+06    -86.4148E+06    -2.97739E+06    -285.968E+03         35.1658
             672     9.45286E-03     34.7116E-03     683.322E-03     366.689E-03        -1.44482     555.527E-03        -1.31702     366.689E-03     818.284E-03     112.962E-03    -56.3564E-03    -56.6054E-03    -55.8397E-03     112.445E-03    -56.6054E-03     18.5341E-03    -1.74823E+06    -30.8618E+06    -123.842E+06    -30.8648E+06    -123.839E+06    -1.74823E+06    -396.730E+03         33.7617
             673     8.50782E-03     34.6940E-03     594.074E-03     342.069E-03        -1.32092     522.250E-03        -1.24909     342.069E-03     587.065E-03     113.086E-03    -56.4104E-03    -56.6752E-03    -56.0658E-03     112.741E-03    -56.6752E-03     15.2172E-03    -2.62522E+06    -34.4154E+06    -152.877E+06    -34.4194E+06    -152.873E+06    -2.62522E+06    -503.216E+03         32.6422
             674     7.56185E-03     34.6795E-03     550.141E-03     317.793E-03        -1.23878     475.533E-03        -1.16418     317.793E-03     361.165E-03     113.193E-03    -56.4481E-03    -56.7446E-03    -56.2157E-03     112.945E-03    -56.7291E-03     12.9038E-03    -5.56430E+06    -38.8308E+06    -181.243E+06    -38.8351E+06    -181.239E+06    -5.56430E+06    -675.684E+03         31.7597
             675     6.61685E-03     34.6667E-03         1.14918     294.478E-03        -1.79795     428.666E-03        -1.07744     294.478E-03         1.88583     113.341E-03    -56.5599E-03    -56.7815E-03    -56.4009E-03     113.167E-03    -56.7660E-03     10.8489E-03    -8.98732E+06    -43.1831E+06    -205.772E+06    -43.1848E+06    -205.770E+06    -8.98732E+06    -379.533E+03         31.0658
             676     5.67150E-03     34.6555E-03         1.56612     273.266E-03        -2.17987     372.817E-03    -986.569E-03     273.266E-03         3.45823     113.427E-03    -56.6064E-03    -56.8202E-03    -56.5410E-03     113.308E-03    -56.7667E-03     8.91141E-03    -15.4578E+06    -48.3260E+06    -225.713E+06    -48.3291E+06    -225.710E+06    -15.4578E+06     357.155E+03         30.5203
             677     4.72672E-03     34.6474E-03         1.94544     254.321E-03        -2.53925     333.061E-03    -926.865E-03     254.321E-03         4.25491     113.459E-03    -56.6373E-03    -56.8217E-03    -56.6298E-03     113.380E-03    -56.7503E-03     7.29141E-03    -23.7689E+06    -54.7792E+06    -249.831E+06    -54.7864E+06    -249.824E+06    -23.7689E+06     1.12830E+06         30.0938
             678     3.78138E-03     34.6405E-03         2.20300     239.123E-03        -2.78865     279.302E-03    -864.948E-03     239.123E-03         4.82383     113.208E-03    -56.4602E-03    -56.7481E-03    -56.4264E-03     113.157E-03    -56.7301E-03     5.85806E-03    -35.2301E+06    -61.4470E+06    -270.503E+06      -61.46E+06    -270.490E+06    -35.2301E+06     1.61035E+06         29.7659
             679     2.83535E-03     34.6346E-03         1.27622     224.411E-03        -1.86058     271.474E-03    -855.834E-03     224.411E-03         2.84675     113.169E-03    -56.4196E-03    -56.7492E-03    -56.4241E-03     113.140E-03    -56.7157E-03     4.38858E-03    -49.8842E+06    -67.3348E+06    -280.644E+06    -67.3492E+06    -280.630E+06    -49.8842E+06     1.74176E+06         29.5226
             680     1.89056E-03     34.6309E-03         1.15134     222.330E-03        -1.72682     193.869E-03    -769.358E-03     222.330E-03         2.59887     113.326E-03    -56.5956E-03    -56.7300E-03    -56.6178E-03     113.311E-03    -56.6928E-03     3.12709E-03    -63.5780E+06    -72.5281E+06    -289.534E+06    -72.5370E+06    -289.525E+06    -63.5780E+06     1.22050E+06         29.3545
             681     945.094E-06     34.6288E-03         3.44833    -409.089E-03        -3.38965     866.626E-03    -807.944E-03    -409.089E-03        -3.02320     113.291E-03    -56.4681E-03    -56.8226E-03    -56.8171E-03     113.285E-03    -56.4681E-03     1.81445E-03     -74.376E+06    -77.3712E+06    -295.649E+06    -77.1620E+06    -295.641E+06    -74.5927E+06     914.055E+03         29.2541
             682     16.0772E-03     33.9443E-03     471.498E-03     253.151E-03        -1.18197     388.388E-03        -1.11050     264.782E-03    -508.277E-03     115.561E-03    -56.0286E-03    -59.5324E-03    -54.2059E-03     110.770E-03    -56.5644E-03     51.3389E-03     139.534E+06     117.374E+06    -9.04346E+06    -9.00836E+06     139.498E+06     117.374E+06    -1.26336E+06         47.7163
             683     15.1310E-03     33.8618E-03     580.133E-03     239.305E-03        -1.28222     439.472E-03        -1.14156     239.305E-03    -982.468E-03     118.239E-03    -56.4679E-03    -61.7712E-03    -53.8073E-03     110.275E-03    -56.4679E-03     73.9448E-03     136.069E+06     87.6257E+06    -16.8428E+06    -16.7661E+06     135.992E+06     87.6257E+06    -2.70363E+06         45.7216
             684     14.1822E-03     33.7835E-03     873.157E-03     206.785E-03        -1.54244     451.084E-03        -1.12037     206.785E-03        -1.74595     116.649E-03    -56.3143E-03    -60.3343E-03    -54.0283E-03     110.343E-03    -56.3143E-03     65.3660E-03     126.497E+06     43.1670E+06    -20.5193E+06    -20.4696E+06     126.447E+06     43.1670E+06    -918.524E+03         43.4619
             685     13.2368E-03     33.7173E-03         1.00825     173.705E-03        -1.63627     432.047E-03        -1.06007     173.705E-03        -2.16883     115.080E-03    -56.2191E-03    -58.8606E-03    -54.9273E-03     111.146E-03    -56.2191E-03     50.9149E-03     98.5737E+06     8.50586E+06    -22.5420E+06    -22.5308E+06     98.5625E+06     8.50586E+06     967.606E+03         41.1323
             686     12.2921E-03     33.6748E-03     860.342E-03     142.458E-03        -1.44086     402.500E-03    -983.020E-03     142.458E-03        -1.82165     113.519E-03    -56.2526E-03    -57.2662E-03    -55.2940E-03     111.562E-03    -56.2681E-03     35.8781E-03     35.2063E+06    -4.66700E+06    -24.7980E+06    -24.7904E+06     34.7223E+06    -4.19071E+06     521.707E+03         38.9009
             687     11.3441E-03     33.6406E-03     610.010E-03     112.673E-03        -1.13825     373.123E-03    -901.366E-03     112.673E-03    -847.835E-03     112.937E-03    -56.3805E-03    -56.5562E-03    -55.4243E-03     111.820E-03    -56.3960E-03     27.2809E-03    -4.27238E+06    -17.3957E+06    -44.9646E+06    -27.0346E+06    -35.1436E+06    -4.45452E+06    -409.221E+03         36.8917
             688     10.3999E-03     33.6170E-03     530.240E-03     82.6845E-03        -1.00701     342.931E-03    -819.703E-03     82.6845E-03     782.817E-03     113.044E-03    -56.3337E-03    -56.7098E-03    -55.7429E-03     112.248E-03    -56.5047E-03     23.1250E-03    -3.44216E+06    -28.9972E+06    -86.6163E+06    -29.0049E+06    -86.6085E+06    -3.44216E+06    -490.603E+03         35.1768
             689     9.45334E-03     33.5917E-03     506.194E-03     51.8202E-03    -936.102E-03     307.854E-03    -737.762E-03     51.8202E-03     861.725E-03     112.916E-03    -56.2302E-03    -56.6853E-03    -55.7950E-03     112.394E-03    -56.5991E-03     18.5050E-03    -1.89521E+06    -31.1270E+06    -124.422E+06    -31.1296E+06    -124.420E+06    -1.89521E+06    -453.628E+03         33.7721
             690     8.50741E-03     33.5760E-03     392.178E-03     20.6210E-03    -778.132E-03     259.753E-03    -645.706E-03     20.6210E-03     614.835E-03     113.011E-03    -56.3354E-03    -56.6757E-03    -56.0150E-03     112.691E-03    -56.6757E-03     14.6937E-03    -2.28161E+06    -34.7037E+06    -153.335E+06    -34.7062E+06    -153.332E+06    -2.28161E+06    -292.831E+03         32.6510
             691     7.56220E-03     33.5601E-03     311.523E-03    -475.913E-06    -663.334E-03     187.407E-03    -530.437E-03    -9.25743E-03     405.624E-03     113.260E-03    -56.5205E-03    -56.7397E-03    -56.2860E-03     113.010E-03    -56.7242E-03     12.9768E-03    -5.73895E+06    -38.9890E+06    -181.601E+06    -38.9919E+06    -181.598E+06    -5.73895E+06    -396.396E+03         31.7670
             692     6.61701E-03     33.5477E-03     976.137E-03    -28.0449E-03        -1.28634     125.178E-03    -426.597E-03    -36.8264E-03         1.84100     113.356E-03    -56.5837E-03    -56.7722E-03    -56.4232E-03     113.180E-03    -56.7567E-03     10.8629E-03    -9.09256E+06    -43.9750E+06    -207.091E+06    -43.9775E+06    -207.088E+06    -9.09256E+06    -310.430E+03         31.0718
             693     5.67148E-03     33.5372E-03         1.62417    -62.1554E-03        -1.88411     66.0366E-03    -325.974E-03    -62.1554E-03         3.45100     113.196E-03    -56.4176E-03    -56.7781E-03    -56.2954E-03     113.073E-03    -56.7781E-03     9.07746E-03    -15.1688E+06    -49.4039E+06    -227.106E+06    -49.4070E+06    -227.103E+06    -15.1688E+06     626.728E+03         30.5255
             694     4.72572E-03     33.5281E-03         1.95403    -86.2702E-03        -2.18396     22.8249E-03    -252.754E-03    -86.2702E-03         4.09796     113.307E-03    -56.4830E-03    -56.8239E-03    -56.4136E-03     113.220E-03    -56.8059E-03     7.65734E-03    -23.9060E+06    -55.3262E+06    -250.956E+06    -55.3337E+06    -250.949E+06    -23.9060E+06     1.17642E+06         30.0987
             695     3.78095E-03     33.5220E-03         2.34128    -105.968E-03        -2.55449    -51.8476E-03    -161.360E-03    -105.968E-03         4.86896     113.478E-03    -56.6161E-03    -56.8624E-03    -56.6280E-03     113.422E-03    -56.7942E-03     6.14565E-03    -35.1041E+06    -61.5020E+06    -270.351E+06    -61.5137E+06    -270.339E+06    -35.1041E+06     1.52534E+06         29.7708
             696     2.83593E-03     33.5165E-03         1.26502    -93.5819E-03        -1.50591    -64.1294E-03    -145.955E-03    -124.384E-03         2.55751     113.318E-03    -56.5138E-03    -56.8043E-03    -56.5323E-03     113.286E-03    -56.7540E-03     4.55747E-03    -48.7728E+06    -67.3725E+06    -279.989E+06    -67.3829E+06    -279.979E+06    -48.7728E+06     1.43681E+06         29.5274
             697     1.88980E-03     33.5122E-03         1.51373    -96.3298E-03        -1.75533    -161.281E-03    -49.5200E-03    -127.132E-03         3.05175     113.288E-03    -56.5287E-03    -56.7595E-03    -56.5150E-03     113.274E-03    -56.7595E-03     2.95292E-03    -62.1281E+06    -72.4723E+06    -288.671E+06    -72.4784E+06    -288.665E+06    -62.1281E+06     1.01930E+06         29.3591
             698     945.116E-06     33.5097E-03         5.18333    -600.004E-03        -4.93191     361.288E-03    -109.868E-03    -600.004E-03        -4.43886     113.498E-03    -56.5791E-03    -56.9190E-03    -56.8192E-03     113.493E-03    -56.6735E-03     1.80426E-03    -72.5117E+06    -76.3303E+06    -294.330E+06    -75.8091E+06    -294.313E+06    -73.0506E+06     1.34122E+06         29.2588
             699     16.0769E-03     32.8283E-03     449.027E-03     15.9189E-03    -953.925E-03     372.454E-03    -877.352E-03     15.9189E-03    -470.219E-03     115.376E-03    -55.7971E-03    -59.5793E-03    -53.8517E-03     110.433E-03    -56.5813E-03     52.0010E-03     139.086E+06     119.146E+06    -5.36407E+06    -5.35277E+06     139.074E+06     119.146E+06    -647.144E+03         47.6973
             700     15.1294E-03     32.7405E-03     525.355E-03    -22.8190E-03    -985.207E-03     373.057E-03    -832.909E-03    -22.8190E-03    -904.606E-03     118.531E-03    -56.4743E-03    -62.0563E-03    -54.1384E-03     110.613E-03    -56.4743E-03     73.8085E-03     136.687E+06     87.2749E+06    -13.1469E+06    -13.0735E+06     136.613E+06     87.2749E+06    -956.427E+03         45.7097
             701     14.1852E-03     32.6677E-03     820.776E-03    -66.8463E-03        -1.22717     333.611E-03    -740.006E-03    -66.8463E-03        -1.65727     116.924E-03    -56.2817E-03    -60.6423E-03    -54.4158E-03     110.698E-03    -56.2817E-03     65.2293E-03     125.639E+06     38.0227E+06    -21.3864E+06    -21.3156E+06     125.568E+06     38.0227E+06    -97.2741E+03         43.4587
             702     13.2359E-03     32.5979E-03     964.074E-03    -109.893E-03        -1.31255     276.876E-03    -625.351E-03    -109.893E-03        -2.07189     114.640E-03    -56.1786E-03    -58.4617E-03    -54.4811E-03     110.684E-03    -56.2025E-03     50.7047E-03     97.1178E+06     4.93394E+06    -26.5071E+06    -26.4592E+06     97.0700E+06     4.93394E+06    -409.252E+03         41.1352
             703     12.2898E-03     32.5547E-03     809.578E-03    -149.679E-03        -1.09704     212.291E-03    -499.755E-03    -149.679E-03        -1.73838     113.254E-03    -56.2591E-03    -56.9950E-03    -55.1112E-03     111.394E-03    -56.2830E-03     34.9969E-03     35.2396E+06    -5.50555E+06    -26.9596E+06    -26.9112E+06     34.7422E+06    -5.05651E+06    -773.222E+03         38.9074
             704     11.3453E-03     32.5238E-03     500.137E-03    -134.539E-03    -776.700E-03     144.929E-03    -369.785E-03    -186.246E-03    -776.005E-03     113.131E-03    -56.4113E-03    -56.7194E-03    -55.6178E-03     112.029E-03    -56.4113E-03     27.1195E-03    -4.72461E+06    -17.9874E+06    -45.6467E+06    -26.9158E+06    -36.5362E+06    -4.90675E+06    -402.847E+03         36.9008
             705     10.3982E-03     32.4958E-03     431.590E-03    -169.510E-03    -646.128E-03     86.2559E-03    -249.087E-03    -221.217E-03     815.258E-03     113.175E-03    -56.5023E-03    -56.6725E-03    -55.9005E-03     112.408E-03    -56.5078E-03     22.6911E-03    -3.35364E+06    -30.0023E+06    -86.8337E+06    -30.0079E+06    -86.8281E+06    -3.35364E+06    -369.683E+03         35.1869
             706     9.45394E-03     32.4747E-03     468.589E-03    -206.249E-03    -623.899E-03     31.4692E-03    -137.458E-03    -255.570E-03     881.005E-03     113.042E-03    -56.3739E-03    -56.6681E-03    -55.9430E-03     112.525E-03    -56.5819E-03     18.5117E-03    -2.82747E+06    -32.9483E+06    -124.643E+06    -32.9501E+06    -124.641E+06    -2.82747E+06    -356.874E+03         33.7818
             707     8.50804E-03     32.4562E-03     369.642E-03    -236.578E-03    -477.983E-03    -33.4520E-03    -22.4351E-03    -289.032E-03     612.711E-03     112.958E-03    -56.3034E-03    -56.6550E-03    -55.9715E-03     112.626E-03    -56.6550E-03     14.9282E-03    -2.18168E+06    -35.6297E+06    -153.595E+06    -35.6322E+06    -153.592E+06    -2.18168E+06    -296.413E+03         32.6593
             708     7.56229E-03     32.4422E-03     369.137E-03    -271.561E-03    -429.774E-03    -123.546E-03     110.930E-03    -319.581E-03     430.149E-03     113.099E-03    -56.3864E-03    -56.7125E-03    -56.1349E-03     112.847E-03    -56.7125E-03     13.0178E-03    -5.52644E+06    -39.7090E+06    -181.471E+06    -39.7120E+06    -181.468E+06    -5.52644E+06    -74.3900E+03         31.7736
             709     6.61657E-03     32.4280E-03         1.05086    -300.816E-03        -1.06742    -199.883E-03     228.213E-03    -345.703E-03         1.78109     113.112E-03    -56.3425E-03    -56.7699E-03    -56.1634E-03     112.933E-03    -56.7699E-03     10.9328E-03    -9.95432E+06    -44.9663E+06    -208.481E+06    -44.9696E+06    -208.478E+06    -9.95432E+06    -216.548E+03         31.0770
             710     5.67165E-03     32.4189E-03         1.79790    -367.863E-03        -1.73067    -260.423E-03     327.663E-03    -367.863E-03         3.44414     113.155E-03    -56.3302E-03    -56.8243E-03    -56.2041E-03     113.028E-03    -56.8243E-03     9.22609E-03    -15.7284E+06    -50.3720E+06    -228.920E+06    -50.3749E+06    -228.917E+06    -15.7284E+06     264.945E+03         30.5300
             711     4.72571E-03     32.4099E-03         2.05917    -388.899E-03        -1.96334    -290.860E-03     386.694E-03    -388.899E-03         3.93459     113.313E-03    -56.4407E-03    -56.8718E-03    -56.3509E-03     113.223E-03    -56.8718E-03     7.72814E-03    -25.0014E+06    -55.8890E+06    -251.847E+06    -55.8918E+06    -251.844E+06    -25.0014E+06     629.305E+03         30.1031
             712     3.77996E-03     32.4024E-03         2.56314    -408.722E-03        -2.44519    -343.181E-03     461.135E-03    -408.722E-03         4.92400     113.596E-03    -56.6685E-03    -56.9276E-03    -56.6662E-03     113.544E-03    -56.8774E-03     5.92548E-03    -36.2819E+06    -61.4017E+06    -270.477E+06    -61.4058E+06    -270.473E+06    -36.2819E+06     485.000E+03         29.7755
             713     2.83526E-03     32.3977E-03         1.68068    -401.669E-03        -1.58726    -347.388E-03     471.605E-03    -432.471E-03         2.22669     113.655E-03    -56.7527E-03    -56.9019E-03    -56.8120E-03     113.625E-03    -56.8134E-03     4.38237E-03    -48.4968E+06    -66.9939E+06    -279.433E+06    -66.9985E+06    -279.429E+06    -48.4968E+06     685.968E+03         29.5325
             714     1.89089E-03     32.3937E-03         2.35320    -414.261E-03        -2.25575    -455.541E-03     583.785E-03    -445.063E-03         3.55332     113.422E-03    -56.6101E-03    -56.8115E-03    -56.6640E-03     113.408E-03    -56.7437E-03     2.98819E-03    -61.0310E+06    -72.1787E+06    -287.878E+06    -72.1822E+06    -287.875E+06    -61.0310E+06     780.495E+03         29.3644
             715     944.777E-06     32.3912E-03         7.24476    -829.356E-03        -6.74731    -57.0663E-03     554.515E-03    -829.356E-03        -5.98782     113.377E-03    -56.5963E-03    -56.7804E-03    -56.6803E-03     113.371E-03    -56.6907E-03     1.75355E-03    -71.7518E+06    -76.0104E+06    -294.076E+06    -75.4988E+06    -294.049E+06    -72.2907E+06     497.070E+03         29.2641
             716     16.0760E-03     31.7076E-03     431.694E-03    -234.773E-03    -725.905E-03     335.602E-03    -629.813E-03    -234.773E-03    -444.722E-03     115.157E-03    -55.6680E-03    -59.4893E-03    -53.5849E-03     110.170E-03    -56.5856E-03     52.0196E-03     137.577E+06     116.557E+06    -7.55576E+06    -7.54137E+06     137.563E+06     116.557E+06    -1.32916E+06         47.6786
             717     15.1302E-03     31.6238E-03     474.180E-03    -285.079E-03    -695.296E-03     280.982E-03    -502.097E-03    -285.079E-03    -852.699E-03     118.919E-03    -56.5141E-03    -62.4050E-03    -54.4174E-03     110.932E-03    -56.5141E-03     74.2482E-03     133.823E+06     91.2500E+06    -14.1432E+06    -14.1126E+06     133.793E+06     91.2500E+06     944.447E+03         45.6978
             718     14.1821E-03     31.5458E-03     805.246E-03    -338.709E-03    -949.047E-03     200.383E-03    -344.185E-03    -338.709E-03        -1.59884     117.338E-03    -56.3041E-03    -61.0340E-03    -55.0033E-03     111.307E-03    -56.3041E-03     64.2893E-03     126.870E+06     46.1814E+06    -19.6170E+06    -19.5837E+06     126.836E+06     46.1814E+06     1.30928E+06         43.4552
             719     13.2392E-03     31.4819E-03     995.857E-03    -389.636E-03        -1.06584     103.002E-03    -172.986E-03    -389.636E-03        -2.01467     114.417E-03    -56.1530E-03    -58.2639E-03    -54.3620E-03     110.539E-03    -56.1769E-03     50.4887E-03     98.2264E+06     8.07719E+06    -22.1997E+06    -22.1529E+06     98.1797E+06     8.07719E+06    -982.674E+03         41.1385
             720     12.2910E-03     31.4358E-03     868.041E-03    -435.752E-03    -866.965E-03    -25.5900E-06     1.10244E-03    -435.752E-03        -1.69095     113.078E-03    -56.2417E-03    -56.8367E-03    -54.8820E-03     111.148E-03    -56.2657E-03     35.2725E-03     34.7967E+06    -4.77216E+06    -24.6566E+06    -24.6117E+06     33.8213E+06    -3.84163E+06    -1.09664E+06         38.9145
             721     11.3445E-03     31.4040E-03     622.803E-03    -340.067E-03    -686.860E-03    -99.5116E-03     172.211E-03    -476.824E-03    -742.397E-03     112.999E-03    -56.3377E-03    -56.6615E-03    -55.5365E-03     111.937E-03    -56.4009E-03     26.6942E-03    -5.32088E+06    -18.6899E+06    -46.0429E+06    -28.3021E+06    -36.4306E+06    -5.32088E+06    -218.012E+03         36.9097
             722     10.4002E-03     31.3780E-03     597.126E-03    -377.688E-03    -592.305E-03    -183.749E-03     325.327E-03    -514.444E-03     812.365E-03     112.954E-03    -56.4094E-03    -56.5442E-03    -55.6444E-03     112.155E-03    -56.5103E-03     23.1123E-03    -4.08785E+06    -30.8407E+06    -87.3492E+06    -30.8427E+06    -87.3471E+06    -4.08785E+06    -113.320E+03         35.1962
             723     9.45325E-03     31.3549E-03     729.810E-03    -448.051E-03    -627.330E-03    -264.123E-03     468.021E-03    -549.469E-03     884.440E-03     113.112E-03    -56.5081E-03    -56.6041E-03    -55.9768E-03     112.574E-03    -56.5973E-03     18.8964E-03    -3.25823E+06    -33.6921E+06    -125.415E+06    -33.6930E+06    -125.415E+06    -3.25823E+06    -96.1896E+03         33.7904
             724     8.50793E-03     31.3386E-03     710.964E-03    -453.385E-03    -581.242E-03    -349.179E-03     606.758E-03    -581.242E-03     600.515E-03     113.148E-03    -56.4810E-03    -56.6671E-03    -56.1372E-03     112.798E-03    -56.6604E-03     15.3642E-03    -2.85562E+06    -36.9872E+06    -154.531E+06    -36.9885E+06    -154.530E+06    -2.85562E+06    -229.533E+03         32.6670
             725     7.56244E-03     31.3225E-03     816.719E-03    -515.389E-03    -608.596E-03    -437.913E-03     739.242E-03    -608.596E-03     441.402E-03     112.995E-03    -56.2768E-03    -56.7184E-03    -56.0214E-03     112.740E-03    -56.7184E-03     13.0919E-03    -5.40039E+06    -40.8231E+06    -181.599E+06    -40.8246E+06    -181.597E+06    -5.40039E+06     55.8842E+03         31.7800
             726     6.61692E-03     31.3107E-03         1.41923    -563.889E-03        -1.14882    -515.449E-03     852.630E-03    -630.657E-03         1.73539     112.938E-03    -56.1477E-03    -56.7902E-03    -55.9690E-03     112.759E-03    -56.7902E-03     10.9391E-03    -11.0718E+06    -44.9738E+06    -208.442E+06    -44.9804E+06    -208.435E+06    -11.0718E+06    -411.733E+03         31.0823
             727     5.67005E-03     31.2998E-03         2.08532    -647.126E-03        -1.71515    -579.449E-03     949.624E-03    -647.126E-03         3.45454     113.252E-03    -56.3935E-03    -56.8581E-03    -56.2682E-03     113.126E-03    -56.8581E-03     9.16301E-03    -17.3791E+06    -49.8694E+06    -230.573E+06    -49.8787E+06    -230.563E+06    -17.3791E+06    -840.438E+03         30.5347
             728     4.72567E-03     31.2909E-03         2.27999    -660.701E-03        -1.88438    -602.668E-03     998.280E-03    -660.701E-03         3.81828     113.528E-03    -56.6336E-03    -56.8939E-03    -56.5485E-03     113.442E-03    -56.8939E-03     7.53605E-03    -24.9089E+06    -55.1480E+06    -252.237E+06    -55.1520E+06    -252.232E+06    -24.9089E+06    -40.4315E+03         30.1077
             729     3.78061E-03     31.2840E-03         2.84093    -674.216E-03        -2.42950    -625.991E-03         1.03742    -674.216E-03         4.97789     113.523E-03    -56.6312E-03    -56.8920E-03    -56.5804E-03     113.472E-03    -56.8920E-03     5.81796E-03    -37.1453E+06    -61.6853E+06    -270.958E+06    -61.6861E+06    -270.957E+06    -37.1453E+06     81.8972E+03         29.7803
             730     2.83523E-03     31.2778E-03         2.36581    -694.807E-03        -1.94796    -614.764E-03         1.03261    -694.807E-03         1.92988     113.566E-03    -56.6566E-03    -56.9095E-03    -56.6676E-03     113.539E-03    -56.8712E-03     4.24070E-03    -50.5505E+06    -67.2613E+06    -280.414E+06    -67.2628E+06    -280.413E+06    -50.5505E+06     11.4120E+03         29.5378
             731     1.88983E-03     31.2754E-03         3.37615    -714.119E-03        -2.94883    -693.581E-03         1.12091    -714.119E-03         3.96444     113.686E-03    -56.7286E-03    -56.9573E-03    -56.8636E-03     113.671E-03    -56.8069E-03     3.22727E-03    -62.6507E+06    -71.6211E+06    -288.273E+06    -71.6240E+06    -288.270E+06    -62.6507E+06     466.592E+03         29.3700
             732     945.786E-06     31.2719E-03         9.05110        -1.10760        -8.24601    -331.926E-03         1.13701        -1.10760        -7.26748     113.462E-03    -56.5603E-03    -56.9013E-03    -56.8946E-03     113.455E-03    -56.5603E-03     1.82093E-03    -72.0785E+06    -75.0517E+06    -293.450E+06    -75.0668E+06    -293.435E+06    -72.0785E+06    -738.638E+03         29.2693
             733     16.0773E-03     30.5928E-03     434.166E-03    -396.498E-03    -605.754E-03     290.231E-03    -380.119E-03    -478.199E-03    -447.576E-03     115.537E-03    -55.5827E-03    -59.9542E-03    -53.7669E-03     110.354E-03    -56.5873E-03     52.3097E-03     137.421E+06     116.795E+06    -9.68943E+06    -9.67467E+06     137.406E+06     116.795E+06    -63.8766E+03         47.6601
             734     15.1284E-03     30.5030E-03     484.535E-03    -401.998E-03    -609.363E-03     177.810E-03    -166.227E-03    -538.409E-03    -858.199E-03     119.181E-03    -56.5036E-03    -62.6773E-03    -54.5170E-03     111.021E-03    -56.5036E-03     75.0176E-03     132.590E+06     90.0856E+06    -16.8412E+06    -16.7947E+06     132.544E+06     90.0856E+06    -569.355E+03         45.6860
             735     14.1865E-03     30.4258E-03     871.653E-03    -502.658E-03    -859.561E-03     60.0984E-03     49.1180E-03    -599.783E-03        -1.59407     116.891E-03    -56.3041E-03    -60.5874E-03    -54.6542E-03     110.958E-03    -56.3041E-03     63.6522E-03     126.358E+06     46.3616E+06    -19.9183E+06    -19.8705E+06     126.310E+06     46.3616E+06    -1.41792E+06         43.4508
             736     13.2364E-03     30.3652E-03         1.13957    -636.241E-03    -961.262E-03    -80.1965E-03     278.906E-03    -656.644E-03        -2.00776     114.697E-03    -56.1864E-03    -58.5103E-03    -54.5289E-03     110.715E-03    -56.1864E-03     51.3638E-03     98.0217E+06     9.11363E+06    -22.6155E+06    -22.5893E+06     97.9955E+06     9.11363E+06     174.754E+03         41.1403
             737     12.2912E-03     30.3161E-03         1.07994    -686.455E-03    -820.874E-03    -222.943E-03     502.416E-03    -706.858E-03        -1.69982     113.326E-03    -56.1797E-03    -57.1461E-03    -55.0173E-03     111.277E-03    -56.2601E-03     36.3537E-03     34.3297E+06    -4.82005E+06    -26.0583E+06    -26.0359E+06     33.4498E+06    -3.96253E+06     681.770E+03         38.9209
             738     11.3458E-03     30.2863E-03     991.342E-03    -573.515E-03    -812.886E-03    -345.838E-03     701.113E-03    -750.333E-03    -766.058E-03     112.705E-03    -56.2580E-03    -56.4466E-03    -55.2101E-03     111.612E-03    -56.4017E-03     27.0330E-03    -5.54760E+06    -18.8676E+06    -46.4166E+06    -29.0060E+06    -36.2783E+06    -5.54760E+06    -135.215E+03         36.9182
             739     10.3977E-03     30.2590E-03         1.01223    -581.238E-03    -791.031E-03    -449.508E-03     878.427E-03    -788.960E-03     766.661E-03     112.913E-03    -56.3761E-03    -56.5370E-03    -55.5711E-03     112.102E-03    -56.5305E-03     23.2606E-03    -4.24177E+06    -31.1032E+06    -88.2324E+06    -31.1069E+06    -88.2288E+06    -4.24177E+06    -256.209E+03         35.2050
             740     9.45294E-03     30.2366E-03         1.18554    -686.527E-03    -825.566E-03    -547.760E-03         1.04470    -823.494E-03     860.032E-03     113.136E-03    -56.5043E-03    -56.6314E-03    -55.9752E-03     112.600E-03    -56.6247E-03     18.8631E-03    -2.86154E+06    -33.5934E+06    -125.774E+06    -33.5965E+06    -125.771E+06    -2.86154E+06    -177.878E+03         33.7988
             741     8.50758E-03     30.2187E-03         1.25010    -696.855E-03    -852.958E-03    -647.402E-03         1.20065    -852.958E-03     588.014E-03     113.185E-03    -56.4932E-03    -56.6917E-03    -56.1589E-03     112.844E-03    -56.6850E-03     15.1202E-03    -3.43502E+06    -37.1431E+06    -155.181E+06    -37.1450E+06    -155.179E+06    -3.43502E+06    -215.374E+03         32.6744
             742     7.56223E-03     30.2047E-03         1.37119    -775.650E-03    -876.383E-03    -739.445E-03         1.33498    -876.383E-03     448.402E-03     113.025E-03    -56.2790E-03    -56.7465E-03    -56.0304E-03     112.777E-03    -56.7465E-03     12.9358E-03    -5.57395E+06    -40.1911E+06    -182.767E+06    -40.1951E+06    -182.763E+06    -5.57395E+06    -508.459E+03         31.7864
             743     6.61590E-03     30.1920E-03         1.86675    -843.025E-03        -1.28862    -811.702E-03         1.44053    -893.720E-03         1.71462     113.204E-03    -56.3847E-03    -56.8198E-03    -56.2197E-03     113.022E-03    -56.8024E-03     11.0550E-03    -11.0026E+06    -44.6725E+06    -208.129E+06    -44.6802E+06    -208.121E+06    -11.0026E+06    -504.878E+03         31.0880
             744     5.67176E-03     30.1811E-03         2.43712    -905.288E-03        -1.78017    -866.197E-03         1.52315    -905.288E-03         3.45744     113.374E-03    -56.5192E-03    -56.8553E-03    -56.4192E-03     113.257E-03    -56.8379E-03     8.86756E-03    -18.0768E+06    -50.2274E+06    -231.383E+06    -50.2367E+06    -231.374E+06    -18.0768E+06    -889.034E+03         30.5397
             745     4.72543E-03     30.1720E-03         2.58879    -911.967E-03        -1.91301    -897.669E-03         1.57345    -911.967E-03         3.74439     113.323E-03    -56.4452E-03    -56.8774E-03    -56.3652E-03     113.243E-03    -56.8774E-03     7.34896E-03    -25.7773E+06    -56.0586E+06    -253.941E+06    -56.0629E+06    -253.937E+06    -25.7773E+06    -426.896E+03         30.1123
             746     3.78046E-03     30.1646E-03         3.15091    -915.968E-03        -2.46488    -907.951E-03         1.59399    -915.968E-03         4.98611     113.444E-03    -56.5409E-03    -56.9029E-03    -56.4856E-03     113.388E-03    -56.9029E-03     6.07848E-03    -37.8047E+06    -61.5168E+06    -270.876E+06    -61.5173E+06    -270.875E+06    -37.8047E+06     203.716E+03         29.7849
             747     2.83498E-03     30.1601E-03         2.89515    -922.863E-03        -2.20865    -894.419E-03         1.58092    -922.863E-03         1.76815     113.613E-03    -56.6820E-03    -56.9309E-03    -56.6879E-03     113.584E-03    -56.8960E-03     4.33925E-03    -51.7589E+06    -66.5575E+06    -280.789E+06    -66.5581E+06    -280.788E+06    -51.7589E+06    -209.358E+03         29.5426
             748     1.88991E-03     30.1552E-03         4.04518    -933.511E-03        -3.36799    -912.995E-03         1.59018    -933.511E-03         4.17970     113.681E-03    -56.6903E-03    -56.9906E-03    -56.7954E-03     113.669E-03    -56.8732E-03     2.80676E-03    -63.4727E+06    -71.2040E+06    -288.929E+06    -71.2047E+06    -288.928E+06    -63.4727E+06    -190.776E+03         29.3749
             749     944.589E-06     30.1535E-03         10.0977        -1.41115        -8.95972    -466.837E-03         1.60480        -1.41115        -7.92721     113.675E-03    -56.5417E-03    -57.1332E-03    -57.0240E-03     113.670E-03    -56.6463E-03     1.58236E-03    -71.7208E+06    -74.1005E+06    -293.213E+06    -73.8665E+06    -293.201E+06    -71.9674E+06    -1.05511E+06         29.2740
             750     16.0755E-03     29.4767E-03     473.873E-03    -359.573E-03    -704.292E-03     252.520E-03    -138.220E-03    -704.292E-03    -473.621E-03     116.167E-03    -55.8864E-03    -60.2804E-03    -54.3035E-03     110.898E-03    -56.5943E-03     53.0712E-03     138.788E+06     119.213E+06    -6.55040E+06    -6.54356E+06     138.781E+06     119.213E+06     888.493E+03         47.6409
             751     15.1323E-03     29.3804E-03     601.867E-03    -364.765E-03    -772.976E-03     81.2777E-03     155.824E-03    -772.976E-03    -915.270E-03     118.787E-03    -56.5077E-03    -62.2792E-03    -53.9014E-03     110.409E-03    -56.5077E-03     75.8565E-03     133.914E+06     90.6247E+06    -14.0306E+06    -13.9892E+06     133.873E+06     90.6247E+06    -643.797E+03         45.6730
             752     14.1813E-03     29.3108E-03         1.05082    -587.559E-03    -952.174E-03    -83.0697E-03     434.449E-03    -840.291E-03        -1.65075     116.846E-03    -56.3243E-03    -60.5217E-03    -54.3674E-03     110.692E-03    -56.3243E-03     64.6937E-03     122.918E+06     40.8878E+06    -21.8437E+06    -21.8022E+06     122.877E+06     40.8878E+06    -1.21181E+06         43.4442
             753     13.2374E-03     29.2439E-03         1.38072    -816.994E-03        -1.01338    -254.110E-03     705.957E-03    -901.493E-03        -2.05080     115.280E-03    -56.2104E-03    -59.0700E-03    -55.1396E-03     111.350E-03    -56.2104E-03     51.0510E-03     95.4435E+06     5.89352E+06    -26.3663E+06    -26.3361E+06     95.4133E+06     5.89352E+06     204.194E+03         41.1406
             754     12.2913E-03     29.1987E-03         1.39187    -845.981E-03    -961.014E-03    -427.617E-03     967.184E-03    -954.693E-03        -1.74051     113.189E-03    -56.1668E-03    -57.0224E-03    -54.9688E-03     111.244E-03    -56.2749E-03     35.6006E-03     34.4181E+06    -4.22465E+06    -27.6038E+06    -27.5697E+06     33.8073E+06    -3.64798E+06     436.352E+03         38.9266
             755     11.3436E-03     29.1676E-03         1.42045    -794.284E-03        -1.00583    -582.362E-03         1.20220    -999.514E-03    -817.480E-03     112.772E-03    -56.3073E-03    -56.4647E-03    -55.2554E-03     111.671E-03    -56.4154E-03     27.1299E-03    -5.11673E+06    -18.7874E+06    -46.5372E+06    -29.0755E+06    -36.2491E+06    -5.11673E+06    -111.214E+03         36.9264
             756     10.3999E-03     29.1404E-03         1.47833    -782.297E-03        -1.03773    -705.389E-03         1.40142        -1.03773     693.600E-03     113.173E-03    -56.4703E-03    -56.7028E-03    -55.8561E-03     112.385E-03    -56.5293E-03     22.9495E-03    -3.95997E+06    -31.2144E+06    -88.4952E+06    -31.2215E+06    -88.4881E+06    -3.95997E+06    -584.542E+03         35.2142
             757     9.45319E-03     29.1179E-03         1.65001    -883.725E-03        -1.07106    -801.567E-03         1.56785        -1.07106     785.415E-03     113.061E-03    -56.3286E-03    -56.7329E-03    -55.9472E-03     112.556E-03    -56.6087E-03     18.3216E-03    -2.78588E+06    -33.0786E+06    -126.055E+06    -33.0915E+06    -126.043E+06    -2.78588E+06    -863.949E+03         33.8076
             758     8.50758E-03     29.0995E-03         1.75341    -926.427E-03        -1.09960    -896.309E-03         1.72329        -1.09960     544.390E-03     112.854E-03    -56.1669E-03    -56.6876E-03    -55.8484E-03     112.536E-03    -56.6876E-03     14.5824E-03    -3.05416E+06    -35.9728E+06    -155.394E+06    -35.9847E+06    -155.382E+06    -3.05416E+06    -917.368E+03         32.6819
             759     7.56160E-03     29.0866E-03         1.89615        -1.02405        -1.12148        -1.00139         1.87348        -1.12148     423.405E-03     113.154E-03    -56.3521E-03    -56.8017E-03    -56.1567E-03     112.915E-03    -56.7587E-03     12.6909E-03    -6.06215E+06    -40.2143E+06    -184.273E+06    -40.2201E+06    -184.267E+06    -6.06215E+06    -898.079E+03         31.7928
             760     6.61681E-03     29.0726E-03         2.32729        -1.09787        -1.46132        -1.08750         1.99064        -1.13504         1.67676     113.387E-03    -56.5260E-03    -56.8609E-03    -56.4056E-03     113.206E-03    -56.8006E-03     11.0166E-03    -9.93516E+06    -45.0535E+06    -208.573E+06    -45.0582E+06    -208.568E+06    -9.93516E+06    -113.901E+03         31.0934
             761     5.67092E-03     29.0620E-03         2.79525        -1.14172        -1.87010        -1.12900         2.05414        -1.14172         3.39388     113.292E-03    -56.4518E-03    -56.8400E-03    -56.3482E-03     113.171E-03    -56.8226E-03     9.02561E-03    -17.7449E+06    -50.8436E+06    -231.801E+06    -50.8466E+06    -231.798E+06    -17.7449E+06     264.322E+03         30.5443
             762     4.72632E-03     29.0538E-03         2.93356        -1.14315        -1.99377        -1.15718         2.09697        -1.14315         3.68840     113.276E-03    -56.4162E-03    -56.8593E-03    -56.3316E-03     113.191E-03    -56.8593E-03     7.54540E-03    -27.4743E+06    -56.5511E+06    -255.286E+06    -56.5552E+06    -255.282E+06    -27.4743E+06    -466.346E+03         30.1161
             763     3.77971E-03     29.0463E-03         3.44185        -1.14197        -2.49385        -1.15183         2.09983        -1.14197         4.91049     113.441E-03    -56.5533E-03    -56.8880E-03    -56.5003E-03     113.388E-03    -56.8880E-03     5.90894E-03    -38.2620E+06    -61.8046E+06    -271.056E+06    -61.8075E+06    -271.053E+06    -38.2620E+06    -458.402E+03         29.7882
             764     2.83516E-03     29.0400E-03         3.23001        -1.13833        -2.28680        -1.15953         2.10274        -1.13833         1.76516     113.635E-03    -56.7350E-03    -56.9004E-03    -56.7434E-03     113.609E-03    -56.8655E-03     4.16018E-03    -51.6137E+06    -67.1305E+06    -280.733E+06    -67.1317E+06    -280.732E+06    -51.6137E+06    -417.169E+03         29.5456
             765     1.89052E-03     29.0370E-03         4.29721        -1.13560        -3.37932        -1.13550         2.05339        -1.13560         4.11114     113.609E-03    -56.6719E-03    -56.9372E-03    -56.7856E-03     113.598E-03    -56.8121E-03     2.67107E-03    -63.7728E+06    -71.8239E+06    -289.098E+06    -71.8275E+06    -289.095E+06    -63.7728E+06    -732.096E+03         29.3778
             766     945.065E-06     29.0343E-03         10.1124        -1.69322        -8.64800    -578.653E-03         2.04304        -1.69322        -7.76343     113.521E-03    -56.5273E-03    -56.9934E-03    -56.8855E-03     113.517E-03    -56.6319E-03     1.25982E-03    -72.7040E+06    -75.5599E+06    -294.775E+06    -75.3337E+06    -294.755E+06    -72.9507E+06    -484.536E+03         29.2772
             767     16.0779E-03     28.3495E-03     545.775E-03    -225.064E-03    -904.595E-03     214.991E-03     105.721E-03    -904.595E-03    -519.707E-03     115.708E-03    -56.3933E-03    -59.3151E-03    -54.2331E-03     110.819E-03    -56.5855E-03     52.1372E-03     139.393E+06     119.017E+06    -7.83426E+06    -7.82045E+06     139.379E+06     119.017E+06     309.188E+03         47.6214
             768     15.1280E-03     28.2699E-03     799.014E-03    -343.078E-03    -980.038E-03     1.41818E-03     454.518E-03    -980.038E-03    -993.676E-03     118.083E-03    -56.4926E-03    -61.5908E-03    -53.6143E-03     110.107E-03    -56.4926E-03     73.9088E-03     132.390E+06     87.3715E+06    -15.7317E+06    -15.7123E+06     132.371E+06     87.3715E+06     426.806E+03         45.6597
             769     14.1823E-03     28.1877E-03         1.29591    -688.017E-03        -1.07995    -207.422E-03     787.539E-03        -1.05218        -1.72645     116.887E-03    -56.3135E-03    -60.5734E-03    -54.5297E-03     110.843E-03    -56.3135E-03     64.0341E-03     121.067E+06     38.5986E+06    -22.0082E+06    -21.9927E+06     121.052E+06     38.5986E+06     1.14032E+06         43.4382
             770     13.2375E-03     28.1250E-03         1.66655    -951.824E-03        -1.14464    -405.903E-03         1.09286        -1.11687        -2.12457     114.856E-03    -56.2053E-03    -58.6506E-03    -54.9451E-03     111.150E-03    -56.2053E-03     49.6114E-03     95.0560E+06     5.41023E+06    -25.1524E+06    -25.1442E+06     95.0479E+06     5.41023E+06    -128.326E+03         41.1409
             771     12.2906E-03     28.0809E-03         1.73153    -952.145E-03        -1.17256    -601.993E-03         1.38137        -1.17256        -1.79918     113.225E-03    -56.2464E-03    -56.9790E-03    -55.0223E-03     111.296E-03    -56.2741E-03     35.4858E-03     34.4477E+06    -4.33153E+06    -27.3810E+06    -27.3568E+06     34.2228E+06    -4.13090E+06    -524.704E+03         38.9316
             772     11.3458E-03     28.0487E-03         1.83211    -969.647E-03        -1.21862    -787.797E-03         1.65026        -1.21862    -893.191E-03     113.039E-03    -56.3761E-03    -56.6631E-03    -55.5353E-03     111.939E-03    -56.4038E-03     27.1468E-03    -4.59908E+06    -17.2223E+06    -47.4489E+06    -28.3249E+06    -36.0583E+06    -4.88713E+06    -399.486E+03         36.9345
             773     10.3981E-03     28.0215E-03         1.91850    -979.590E-03        -1.25636    -930.627E-03         1.86953        -1.25636     605.931E-03     113.205E-03    -56.4699E-03    -56.7356E-03    -55.9114E-03     112.414E-03    -56.5030E-03     23.0391E-03    -3.46670E+06    -29.6871E+06    -88.7489E+06    -29.6983E+06    -88.7377E+06    -3.46670E+06    -763.226E+03         35.2232
             774     9.45429E-03     27.9982E-03         2.09001        -1.07937        -1.28829        -1.02752         2.03816        -1.28829     689.840E-03     112.958E-03    -56.2556E-03    -56.7026E-03    -55.8796E-03     112.458E-03    -56.5785E-03     18.1544E-03    -3.40613E+06    -33.0243E+06    -126.940E+06    -33.0389E+06    -126.926E+06    -3.40613E+06    -949.391E+03         33.8159
             775     8.50776E-03     27.9829E-03         2.21133        -1.13692        -1.31553        -1.11770         2.19211        -1.31553     477.148E-03     112.775E-03    -56.1114E-03    -56.6638E-03    -55.7950E-03     112.459E-03    -56.6638E-03     14.5862E-03    -3.26175E+06    -36.4109E+06    -156.208E+06    -36.4224E+06    -156.197E+06    -3.26175E+06     -904.24E+03         32.6889
             776     7.56198E-03     27.9664E-03         2.35525        -1.23280        -1.33666        -1.21730         2.33976        -1.33666     344.220E-03     113.163E-03    -56.3860E-03    -56.7770E-03    -56.1832E-03     112.917E-03    -56.7341E-03     12.8479E-03    -5.82914E+06    -41.0838E+06    -183.939E+06    -41.0870E+06    -183.936E+06    -5.82914E+06    -624.075E+03         31.7984
             777     6.61679E-03     27.9542E-03         2.75097        -1.30927        -1.63699        -1.31325         2.46694        -1.34897         1.60926     113.214E-03    -56.3938E-03    -56.8203E-03    -56.2678E-03     113.045E-03    -56.7774E-03     10.6423E-03    -11.0082E+06    -45.9050E+06    -210.715E+06    -45.9162E+06    -210.704E+06    -11.0082E+06    -677.853E+03         31.0977
             778     5.67125E-03     27.9435E-03         3.13479        -1.35286        -1.96136        -1.35964         2.53307        -1.35286         3.27740     113.147E-03    -56.3217E-03    -56.8257E-03    -56.2040E-03     113.030E-03    -56.8257E-03     8.90725E-03    -16.7375E+06    -49.9830E+06    -232.425E+06    -49.9940E+06    -232.414E+06    -16.7375E+06    -152.118E+03         30.5474
             779     4.72504E-03     27.9349E-03         3.28622        -1.35073        -2.10090        -1.38220         2.56753        -1.35073         3.65073     113.548E-03    -56.6142E-03    -56.9341E-03    -56.6206E-03     113.465E-03    -56.8449E-03     7.45367E-03    -25.8639E+06    -56.0252E+06    -254.432E+06    -56.0289E+06    -254.428E+06    -25.8639E+06    -173.539E+03         30.1184
             780     3.78143E-03     27.9272E-03         3.67603        -1.34714        -2.48763        -1.36110         2.54950        -1.34714         4.71698     113.487E-03    -56.5860E-03    -56.9008E-03    -56.6267E-03     113.438E-03    -56.8116E-03     5.66428E-03    -38.5854E+06    -62.5822E+06    -272.324E+06    -62.5861E+06    -272.320E+06    -38.5854E+06    -744.448E+03         29.7897
             781     2.83543E-03     27.9216E-03         3.39852        -1.33996        -2.21145        -1.37850         2.56557        -1.33996         1.83955     113.246E-03    -56.4358E-03    -56.8102E-03    -56.4075E-03     113.218E-03    -56.8102E-03     4.35229E-03    -51.6206E+06    -67.8278E+06    -281.556E+06    -67.8308E+06    -281.553E+06    -51.6206E+06    -749.880E+03         29.5463
             782     1.88974E-03     27.9176E-03         4.19962        -1.34134        -3.03171        -1.31300         2.48091        -1.34134         3.73687     113.550E-03    -56.6385E-03    -56.9118E-03    -56.7134E-03     113.535E-03    -56.8216E-03     3.07802E-03    -64.0270E+06    -72.6440E+06    -290.099E+06    -72.6495E+06    -290.094E+06    -64.0270E+06    -586.552E+03         29.3782
             783     945.631E-06     27.9156E-03         9.16942        -1.98900        -7.36295    -708.334E-03         2.51480        -1.98900        -6.79726     113.573E-03    -56.5924E-03    -56.9810E-03    -56.9670E-03     113.569E-03    -56.6019E-03     1.52367E-03     -73.939E+06    -76.7276E+06    -296.378E+06    -76.7419E+06    -296.364E+06     -73.939E+06     151.583E+03         29.2780
             784     16.0770E-03     27.2346E-03     642.406E-03    -116.862E-03        -1.07401     167.599E-03     357.945E-03        -1.07401    -562.252E-03     115.476E-03    -56.0918E-03    -59.3841E-03    -54.0526E-03     110.613E-03    -56.5602E-03     51.3835E-03     137.070E+06     118.909E+06    -7.00309E+06    -6.95230E+06     137.020E+06     118.909E+06     755.659E+03         47.6015
             785     15.1318E-03     27.1497E-03         1.01947    -356.717E-03        -1.15422    -66.1296E-03     728.883E-03        -1.15422        -1.07020     118.619E-03    -56.4564E-03    -62.1628E-03    -54.1814E-03     110.638E-03    -56.4564E-03     74.1450E-03     131.883E+06     88.4106E+06    -15.0815E+06    -15.0108E+06     131.813E+06     88.4106E+06     2.16134E+06         45.6466
             786     14.1859E-03     27.0697E-03         1.54168    -752.766E-03        -1.23022    -298.537E-03         1.08745        -1.23022        -1.79671     116.702E-03    -56.2674E-03    -60.4348E-03    -54.2899E-03     110.557E-03    -56.2674E-03     64.6024E-03     122.690E+06     40.6569E+06    -21.5073E+06    -21.4738E+06     122.656E+06     40.6569E+06     1.85968E+06         43.4324
             787     13.2366E-03     27.0073E-03         1.95306        -1.05321        -1.29773    -533.127E-03         1.43298        -1.29773        -2.21175     114.301E-03    -56.1804E-03    -58.1204E-03    -54.3304E-03     110.511E-03    -56.1804E-03     49.7508E-03     96.0749E+06      5.8654E+06    -24.8617E+06    -24.8599E+06     96.0731E+06      5.8654E+06     219.973E+03         41.1403
             788     12.2910E-03     26.9613E-03         2.06337        -1.06897        -1.35500    -753.603E-03         1.74800        -1.35500        -1.88129     113.380E-03    -56.2601E-03    -57.1195E-03    -55.2392E-03     111.499E-03    -56.2601E-03     35.1279E-03     35.6919E+06    -4.94763E+06    -26.6847E+06    -26.5761E+06     34.6567E+06    -4.02097E+06    -1.02652E+06         38.9350
             789     11.3444E-03     26.9302E-03         2.18676        -1.10907        -1.40222    -944.711E-03         2.02240        -1.40222    -997.579E-03     113.086E-03    -56.3816E-03    -56.7045E-03    -55.6016E-03     111.983E-03    -56.3816E-03     27.1918E-03    -3.74253E+06    -17.1950E+06    -46.7138E+06    -27.2840E+06    -36.3367E+06    -4.03059E+06    -1.34453E+06         36.9408
             790     10.4008E-03     26.9023E-03         2.28583        -1.13018        -1.44101        -1.09640         2.25206        -1.44101     494.134E-03     112.928E-03    -56.3228E-03    -56.6056E-03    -55.6430E-03     112.130E-03    -56.4871E-03     23.1136E-03    -3.38508E+06    -29.1860E+06    -89.9905E+06    -29.2015E+06    -89.9750E+06    -3.38508E+06     -881.64E+03         35.2301
             791     9.45303E-03     26.8801E-03         2.47829        -1.24992        -1.47292        -1.21500         2.44337        -1.47292     580.414E-03     112.903E-03    -56.3195E-03    -56.5834E-03    -55.8100E-03     112.392E-03    -56.5816E-03     18.3459E-03    -2.43760E+06    -32.1472E+06    -127.931E+06    -32.1530E+06    -127.925E+06    -2.43760E+06    -546.934E+03         33.8221
             792     8.50809E-03     26.8637E-03         2.62381        -1.33226        -1.49848        -1.31862         2.61017        -1.49848     409.366E-03     113.166E-03    -56.4626E-03    -56.7037E-03    -56.1949E-03     112.842E-03    -56.6466E-03     14.8100E-03    -2.48783E+06    -36.0527E+06    -156.963E+06    -36.0543E+06    -156.961E+06    -2.48783E+06    -133.280E+03         32.6940
             793     7.56264E-03     26.8482E-03         2.75798        -1.41645        -1.51786        -1.40361         2.74513        -1.51786     255.036E-03     113.054E-03    -56.3055E-03    -56.7488E-03    -56.1158E-03     112.809E-03    -56.6935E-03     12.8127E-03    -5.22104E+06    -40.4050E+06    -184.398E+06    -40.4078E+06    -184.395E+06    -5.22104E+06    -317.902E+03         31.8022
             794     6.61685E-03     26.8349E-03         3.12765        -1.48585        -1.79443        -1.48925         2.86641        -1.52978         1.55182     112.992E-03    -56.2410E-03    -56.7513E-03    -56.0776E-03     112.829E-03    -56.7513E-03     10.4526E-03    -10.3249E+06    -45.3574E+06    -211.574E+06    -45.3679E+06    -211.564E+06    -10.3249E+06    -886.497E+03         31.1001
             795     5.67120E-03     26.8259E-03         3.42708        -1.53347        -2.03145        -1.54283         2.93847        -1.53347         3.10326     113.326E-03    -56.4678E-03    -56.8578E-03    -56.4215E-03     113.208E-03    -56.7860E-03     8.93818E-03    -17.3206E+06    -51.2046E+06    -233.616E+06    -51.2168E+06    -233.604E+06    -17.3206E+06    -784.878E+03         30.5486
             796     4.72652E-03     26.8151E-03         3.62197        -1.52840        -2.21807        -1.58465         2.98856        -1.52840         3.59623     113.384E-03    -56.4362E-03    -56.9476E-03    -56.5156E-03     113.302E-03    -56.7867E-03     7.35020E-03    -26.0486E+06    -56.4224E+06    -254.236E+06    -56.4255E+06    -254.233E+06    -26.0486E+06    -300.434E+03         30.1185
             797     3.78071E-03     26.8083E-03         3.86263        -1.52023        -2.45808        -1.54890         2.95344        -1.52023         4.41315     113.248E-03    -56.3801E-03    -56.8683E-03    -56.4208E-03     113.200E-03    -56.7791E-03     5.71609E-03    -38.9921E+06    -61.9393E+06    -272.971E+06    -61.9432E+06    -272.967E+06    -38.9921E+06    -733.561E+03         29.7888
             798     2.83549E-03     26.8041E-03         3.47514        -1.51277        -2.07054        -1.54071         2.94532        -1.51277         1.96830     113.307E-03    -56.4860E-03    -56.8210E-03    -56.4914E-03     113.274E-03    -56.7821E-03     4.73067E-03    -52.6817E+06    -68.0965E+06    -283.185E+06    -68.1041E+06    -283.177E+06    -52.6817E+06    -472.500E+03         29.5448
             799     1.89012E-03     26.7981E-03         3.88601        -1.53243        -2.48472        -1.43770         2.83899        -1.53243         3.12417     113.361E-03    -56.4892E-03    -56.8720E-03    -56.5129E-03     113.346E-03    -56.8331E-03     2.90929E-03    -64.0004E+06    -72.9394E+06    -291.061E+06    -72.9490E+06    -291.051E+06    -64.0004E+06    -130.525E+03         29.3764
             800     944.272E-06     26.7969E-03         7.50731        -2.26050        -5.37750    -852.199E-03         2.98201        -2.26050        -5.19944     113.698E-03    -56.5625E-03    -57.1358E-03    -56.9260E-03     113.694E-03    -56.7685E-03     1.58648E-03    -73.5109E+06    -77.3644E+06    -297.115E+06    -76.5355E+06    -297.099E+06    -74.3556E+06    -8.38025E+03         29.2761
             801     16.0776E-03     26.1199E-03     798.952E-03    -77.0572E-03        -1.21114     113.706E-03     608.188E-03        -1.21114    -590.621E-03     115.984E-03    -55.7674E-03    -60.2169E-03    -54.2281E-03     110.789E-03    -56.5614E-03     52.3691E-03     133.659E+06     117.670E+06    -8.00106E+06    -7.96173E+06     133.620E+06     117.670E+06     909.992E+03         47.5795
             802     15.1300E-03     26.0263E-03         1.23616    -383.283E-03        -1.29411    -130.021E-03     982.895E-03        -1.29411        -1.12549     119.055E-03    -56.4849E-03    -62.5705E-03    -54.3322E-03     110.817E-03    -56.4849E-03     75.3329E-03     130.822E+06     94.8477E+06    -14.0817E+06    -14.0219E+06     130.762E+06     94.8477E+06     2.63016E+06         45.6307
             803     14.1832E-03     25.9552E-03         1.77111    -794.387E-03        -1.37208    -378.506E-03         1.35523        -1.37208        -1.84632     116.741E-03    -56.2976E-03    -60.4435E-03    -54.3147E-03     110.612E-03    -56.2976E-03     64.6274E-03     125.473E+06     49.8630E+06    -19.0704E+06    -19.0299E+06     125.432E+06     49.8630E+06     2.22296E+06         43.4234
             804     13.2378E-03     25.8866E-03         2.20417        -1.11848        -1.44100    -635.602E-03         1.72129        -1.44100        -2.27729     114.767E-03    -56.1691E-03    -58.5981E-03    -54.6850E-03     110.854E-03    -56.1691E-03     50.5585E-03     98.3098E+06     9.65795E+06    -22.3582E+06    -22.3166E+06     98.2682E+06     9.65795E+06     57.2844E+03         41.1376
             805     12.2917E-03     25.8439E-03         2.35242        -1.17218        -1.49909    -873.322E-03         2.05356        -1.49909        -1.96192     113.255E-03    -56.2279E-03    -57.0267E-03    -55.1804E-03     111.408E-03    -56.2279E-03     34.7979E-03     36.3785E+06    -4.64811E+06    -23.7188E+06    -23.5829E+06     34.2731E+06    -2.67865E+06    -1.31040E+06         38.9368
             806     11.3463E-03     25.8103E-03         2.48687        -1.22236        -1.54708        -1.06470         2.32921        -1.54708        -1.11610     112.686E-03    -56.1820E-03    -56.5037E-03    -55.2096E-03     111.575E-03    -56.3651E-03     27.2572E-03    -4.01504E+06    -18.3606E+06    -46.0447E+06    -26.1578E+06    -38.2474E+06    -4.01504E+06    -1.00934E+06         36.9445
             807     10.3984E-03     25.7846E-03         2.58214        -1.24060        -1.58710        -1.21671         2.55825        -1.58710     358.412E-03     112.800E-03    -56.1812E-03    -56.6187E-03    -55.4858E-03     111.981E-03    -56.4954E-03     23.3564E-03    -2.93149E+06    -29.1663E+06    -89.9910E+06    -29.1834E+06    -89.9738E+06    -2.93149E+06    -554.701E+03         35.2340
             808     9.45367E-03     25.7617E-03         2.78322        -1.36972        -1.62018        -1.34640         2.75990        -1.62018     443.548E-03     113.079E-03    -56.4179E-03    -56.6607E-03    -55.9659E-03     112.555E-03    -56.5887E-03     18.6338E-03    -2.43141E+06    -32.2562E+06    -128.361E+06    -32.2598E+06    -128.358E+06    -2.43141E+06    -253.914E+03         33.8253
             809     8.50793E-03     25.7440E-03         2.95356        -1.47492        -1.64601        -1.46479         2.94344        -1.64601     315.907E-03     113.254E-03    -56.5575E-03    -56.6963E-03    -56.2806E-03     112.920E-03    -56.6393E-03     15.0041E-03    -2.93489E+06    -35.8100E+06    -157.848E+06    -35.8118E+06    -157.846E+06    -2.93489E+06    -138.286E+03         32.6961
             810     7.56317E-03     25.7296E-03         3.10760        -1.57757        -1.66399        -1.56470         3.09474        -1.66399     138.281E-03     113.147E-03    -56.4153E-03    -56.7317E-03    -56.2318E-03     112.906E-03    -56.6738E-03     12.7398E-03    -5.51513E+06    -39.6020E+06    -185.616E+06    -39.6046E+06    -185.614E+06    -5.51513E+06     63.2779E+03         31.8029
             811     6.61689E-03     25.7175E-03         3.46423        -1.64308        -1.92947        -1.65511         3.21970        -1.67290         1.46339     113.113E-03    -56.3958E-03    -56.7176E-03    -56.2304E-03     112.945E-03    -56.7148E-03     10.6290E-03    -9.47817E+06    -45.0406E+06    -211.660E+06    -45.0426E+06    -211.658E+06    -9.47817E+06    -12.6618E+03         31.0994
             812     5.67173E-03     25.7057E-03         3.67328        -1.67305        -2.08984        -1.70061         3.28405        -1.67305         2.86165     113.252E-03    -56.4542E-03    -56.7977E-03    -56.4053E-03     113.131E-03    -56.7260E-03     9.01749E-03    -17.8372E+06    -51.3323E+06    -233.747E+06    -51.3347E+06    -233.744E+06    -17.8372E+06    -364.559E+03         30.5468
             813     4.72665E-03     25.6969E-03         3.89757        -1.66477        -2.30912        -1.73396         3.32241        -1.66477         3.49981     113.060E-03    -56.2482E-03    -56.8118E-03    -56.2390E-03     112.979E-03    -56.7401E-03     7.33042E-03    -28.4321E+06    -56.9776E+06    -255.561E+06    -56.9867E+06    -255.552E+06    -28.4321E+06    -1.02740E+06         30.1155
             814     3.78042E-03     25.6908E-03         3.99466        -1.65572        -2.40789        -1.67856         3.26533        -1.65572         4.04087     113.204E-03    -56.4132E-03    -56.7912E-03    -56.3868E-03     113.154E-03    -56.7674E-03     5.80803E-03    -39.6526E+06    -62.7378E+06    -273.266E+06    -62.7490E+06    -273.255E+06    -39.6526E+06    -718.910E+03         29.7850
             815     2.83531E-03     25.6838E-03         3.58169        -1.65140        -1.98905        -1.66384         3.25648        -1.65140         2.13659     113.436E-03    -56.6342E-03    -56.8015E-03    -56.6676E-03     113.406E-03    -56.7388E-03     4.34603E-03    -52.7951E+06    -68.5298E+06    -283.791E+06    -68.5395E+06    -283.782E+06    -52.7951E+06    -58.2108E+03         29.5405
             816     1.89073E-03     25.6807E-03         3.63551        -1.67516        -2.03494        -1.57371         3.17429        -1.67516         2.42093     113.273E-03    -56.4422E-03    -56.8310E-03    -56.5482E-03     113.260E-03    -56.7118E-03     2.82481E-03    -64.3922E+06    -73.5665E+06    -291.579E+06    -73.5817E+06    -291.564E+06    -64.3922E+06     62.3051E+03         29.3718
             817     945.125E-06     25.6778E-03         5.59650        -2.34572        -3.32179        -1.04977         3.33043        -2.35167        -3.29384     113.382E-03    -56.4309E-03    -56.9508E-03    -56.6660E-03     113.376E-03    -56.7099E-03     1.78383E-03    -73.0922E+06    -77.4160E+06    -297.364E+06    -76.5894E+06    -297.346E+06    -73.9369E+06     485.096E+03         29.2711
             818     16.0760E-03     24.9972E-03         1.00763    -101.176E-03        -1.31691     57.9928E-03     848.463E-03        -1.31691    -603.734E-03     116.010E-03    -55.8004E-03    -60.2095E-03    -54.1507E-03     110.745E-03    -56.5942E-03     53.0575E-03     132.699E+06     117.818E+06    -7.74718E+06    -7.74222E+06     132.694E+06     117.818E+06     710.198E+03         47.5554
             819     15.1312E-03     24.9108E-03         1.43667    -410.244E-03        -1.40082    -191.756E-03         1.21818        -1.40082        -1.13950     119.301E-03    -56.5161E-03    -62.7844E-03    -54.5640E-03     111.080E-03    -56.5161E-03     75.3214E-03     129.590E+06     95.0309E+06    -14.4932E+06    -14.4818E+06     129.578E+06     95.0309E+06     654.976E+03         45.6123
             820     14.1846E-03     24.8339E-03         1.96958    -828.101E-03        -1.47892    -455.413E-03         1.59690        -1.47892        -1.84186     117.231E-03    -56.3057E-03    -60.9249E-03    -54.9771E-03     111.283E-03    -56.3057E-03     63.8526E-03     126.599E+06     52.5744E+06    -17.3024E+06    -17.2736E+06     126.570E+06     52.5744E+06     485.528E+03         43.4127
             821     13.2379E-03     24.7699E-03         2.40537        -1.15984        -1.54771    -719.082E-03         1.96461        -1.54771        -2.28300     114.732E-03    -56.1499E-03    -58.5824E-03    -54.7532E-03     110.903E-03    -56.1499E-03     50.2431E-03     98.9122E+06     12.4916E+06    -19.0071E+06    -18.9512E+06     98.8563E+06     12.4916E+06    -63.2259E+03         41.1332
             822     12.2920E-03     24.7230E-03         2.58166        -1.24343        -1.60585    -962.085E-03         2.30032        -1.60585        -1.99537     112.937E-03    -56.2099E-03    -56.7273E-03    -54.8198E-03     111.030E-03    -56.2099E-03     35.2661E-03     34.8331E+06    -4.85625E+06    -21.9336E+06    -21.8845E+06     32.7247E+06    -2.79693E+06    -78.4714E+03         38.9358
             823     11.3450E-03     24.6946E-03         2.73872        -1.31841        -1.65367        -1.16555         2.58586        -1.65367        -1.20695     112.697E-03    -56.1799E-03    -56.5175E-03    -55.2195E-03     111.583E-03    -56.3631E-03     27.2861E-03    -3.67530E+06    -17.6175E+06    -46.2122E+06    -24.4784E+06    -39.3513E+06    -3.67530E+06     349.521E+03         36.9451
             824     10.3994E-03     24.6650E-03         2.83523        -1.33991        -1.69304        -1.32189         2.81721        -1.69304     235.297E-03     112.917E-03    -56.2573E-03    -56.6599E-03    -55.6302E-03     112.117E-03    -56.4864E-03     23.1119E-03    -2.68290E+06    -28.0923E+06    -90.7101E+06    -28.1185E+06    -90.6839E+06    -2.68290E+06     509.224E+03         35.2347
             825     9.45354E-03     24.6430E-03         3.02622        -1.46061        -1.72575        -1.44399         3.00959        -1.72575     292.363E-03     113.091E-03    -56.4559E-03    -56.6347E-03    -56.0211E-03     112.586E-03    -56.5644E-03     18.2823E-03    -3.26350E+06    -32.0648E+06    -128.838E+06    -32.0703E+06    -128.833E+06    -3.26350E+06     275.610E+03         33.8248
             826     8.50812E-03     24.6252E-03         3.20519        -1.57666        -1.75134        -1.56893         3.19746        -1.75134     183.478E-03     112.999E-03    -56.3759E-03    -56.6234E-03    -56.0553E-03     112.679E-03    -56.6234E-03     14.6770E-03    -4.09027E+06    -36.0356E+06    -159.088E+06    -36.0368E+06    -159.087E+06    -4.09027E+06    -154.231E+03         32.6936
             827     7.56195E-03     24.6107E-03         3.38928        -1.70437        -1.77340        -1.69496         3.37351        -1.76705    -38.8340E-03     113.190E-03    -56.4802E-03    -56.7099E-03    -56.2907E-03     112.956E-03    -56.6651E-03     12.5460E-03    -6.71322E+06    -40.6054E+06    -185.888E+06    -40.6071E+06    -185.887E+06    -6.71322E+06     338.750E+03         31.7984
             828     6.61778E-03     24.5985E-03         3.73367        -1.76249        -2.02963        -1.79155         3.50405        -1.77095         1.30610     113.356E-03    -56.6331E-03    -56.7232E-03    -56.5056E-03     113.184E-03    -56.6784E-03     10.7998E-03    -10.6243E+06    -45.1888E+06    -211.449E+06    -45.1917E+06    -211.446E+06    -10.6243E+06     595.646E+03         31.0936
             829     5.67236E-03     24.5872E-03         3.86219        -1.76552        -2.13402        -1.82138         3.54955        -1.76552         2.60437     113.038E-03    -56.3511E-03    -56.6872E-03    -56.2317E-03     112.919E-03    -56.6872E-03     8.89380E-03    -17.1987E+06    -50.5021E+06    -233.618E+06    -50.5043E+06    -233.616E+06    -17.1987E+06    -16.1145E+03         30.5398
             830     4.72581E-03     24.5792E-03         4.08997        -1.75529        -2.35724        -1.81649         3.54922        -1.75529         3.37463     113.071E-03    -56.3350E-03    -56.7363E-03    -56.2897E-03     112.997E-03    -56.7077E-03     7.04584E-03    -27.3264E+06    -57.1392E+06    -255.667E+06    -57.1556E+06    -255.651E+06    -27.3264E+06    -158.853E+03         30.1076
             831     3.78124E-03     24.5715E-03         4.09636        -1.74866        -2.36349        -1.75632         3.48920        -1.74866         3.66364     113.299E-03    -56.5587E-03    -56.7400E-03    -56.5620E-03     113.250E-03    -56.6876E-03     5.72454E-03    -40.2098E+06    -64.1974E+06    -274.288E+06    -64.2183E+06    -274.267E+06    -40.2098E+06    -49.5811E+03         29.7765
             832     2.83627E-03     24.5655E-03         3.74771        -1.74550        -2.00795        -1.76090         3.50066        -1.74550         2.25948     113.136E-03    -56.4702E-03    -56.6662E-03    -56.4685E-03     113.111E-03    -56.6423E-03     4.05822E-03    -53.2120E+06    -69.7229E+06    -284.497E+06    -69.7311E+06    -284.489E+06    -53.2120E+06    -622.711E+03         29.5313
             833     1.89001E-03     24.5623E-03         3.62802        -1.72459        -1.91835        -1.70301         3.44465        -1.75655         1.77873     113.164E-03    -56.4768E-03    -56.6871E-03    -56.5481E-03     113.150E-03    -56.6020E-03     3.02766E-03    -65.0598E+06    -74.1072E+06    -292.317E+06    -74.1160E+06    -292.308E+06    -65.0598E+06    -136.210E+03         29.3619
             834     945.724E-06     24.5584E-03         4.19545        -1.91639        -2.28952        -1.27879         3.52945        -2.26111        -1.58092     113.111E-03    -56.3840E-03    -56.7272E-03    -56.6379E-03     113.104E-03    -56.4664E-03     1.87994E-03    -73.6960E+06    -77.3312E+06    -297.757E+06    -76.7641E+06    -297.750E+06    -74.2699E+06     162.936E+03         29.2608
             835     16.0766E-03     23.8807E-03         1.20791    -136.362E-03        -1.39397    -2.10776E-03         1.07365        -1.39397    -580.791E-03     115.818E-03    -55.9529E-03    -59.8649E-03    -54.1664E-03     110.761E-03    -56.5947E-03     52.2271E-03     133.430E+06     119.000E+06    -6.17744E+06    -6.17389E+06     133.426E+06     119.000E+06     437.923E+03         47.5312
             836     15.1283E-03     23.7893E-03         1.61125    -431.578E-03        -1.47720    -251.256E-03         1.43093        -1.47720        -1.10404     119.202E-03    -56.5086E-03    -62.6933E-03    -54.5962E-03     111.105E-03    -56.5086E-03     74.8323E-03     130.905E+06     95.4219E+06    -12.7491E+06    -12.7361E+06     130.892E+06     95.4219E+06    -677.833E+03         45.5935
             837     14.1843E-03     23.7148E-03         2.12771    -843.560E-03        -1.55429    -518.125E-03         1.80228        -1.55429        -1.78018     117.251E-03    -56.2876E-03    -60.9630E-03    -55.0102E-03     111.298E-03    -56.2876E-03     63.8283E-03     124.585E+06     49.7168E+06    -18.2025E+06    -18.1788E+06     124.562E+06     49.7168E+06    -1.78012E+06         43.4000
             838     13.2394E-03     23.6505E-03         2.56005        -1.17894        -1.62210    -785.097E-03         2.16621        -1.62210        -2.23366     114.462E-03    -56.1402E-03    -58.3218E-03    -54.5042E-03     110.644E-03    -56.1402E-03     50.2757E-03     96.7456E+06     9.34304E+06    -21.4609E+06    -21.4361E+06     96.7207E+06     9.34304E+06    -155.401E+03         41.1254
             839     12.2910E-03     23.6074E-03         2.75757        -1.28828        -1.67934        -1.03371         2.50300        -1.67934        -1.96286     113.082E-03    -56.2127E-03    -56.8697E-03    -54.8904E-03     111.103E-03    -56.2127E-03     35.7940E-03     34.1428E+06    -5.96295E+06    -23.4666E+06    -23.2942E+06     32.0708E+06    -4.06334E+06     1.54505E+06         38.9311
             840     11.3456E-03     23.5733E-03         2.94217        -1.39268        -1.72567        -1.25241         2.80191        -1.72567        -1.22748     113.122E-03    -56.3413E-03    -56.7809E-03    -55.7110E-03     112.052E-03    -56.3413E-03     26.7840E-03    -5.07057E+06    -18.8205E+06    -47.0151E+06    -25.8981E+06    -39.9375E+06    -5.07057E+06     1.38652E+06         36.9418
             841     10.4001E-03     23.5483E-03         3.05634        -1.43501        -1.76229        -1.41996         3.04128        -1.76229     158.674E-03     113.073E-03    -56.3842E-03    -56.6885E-03    -55.8675E-03     112.298E-03    -56.4301E-03     22.8174E-03    -3.48698E+06    -28.1812E+06    -90.9446E+06    -28.2172E+06    -90.9086E+06    -3.48698E+06     1.40668E+06         35.2308
             842     9.45414E-03     23.5228E-03         3.24338        -1.55827        -1.79124        -1.54429         3.22940        -1.79124     179.342E-03     112.910E-03    -56.3538E-03    -56.5560E-03    -55.9193E-03     112.420E-03    -56.5009E-03     17.9063E-03    -3.37979E+06    -31.2462E+06    -130.170E+06    -31.2682E+06    -130.148E+06    -3.37979E+06     1.19768E+06         33.8182
             843     8.50864E-03     23.5076E-03         3.41266        -1.67240        -1.81253        -1.66468         3.40494        -1.81253     88.4185E-03     112.809E-03    -56.2451E-03    -56.5643E-03    -55.9590E-03     112.523E-03    -56.5643E-03     13.8646E-03    -4.02823E+06    -35.7128E+06    -159.616E+06    -35.7226E+06    -159.606E+06    -4.02823E+06     825.926E+03         32.6837
             844     7.56312E-03     23.4917E-03         3.58702        -1.78331        -1.84195        -1.78170         3.56735        -1.82389    -157.859E-03     112.885E-03    -56.2239E-03    -56.6607E-03    -56.0391E-03     112.658E-03    -56.6186E-03     12.3546E-03    -7.14488E+06    -40.4095E+06    -186.489E+06    -40.4158E+06    -186.483E+06    -7.14488E+06     587.221E+03         31.7858
             845     6.61718E-03     23.4792E-03         3.90348        -1.82400        -2.08496        -1.86489         3.68340        -1.82400         1.17979     113.155E-03    -56.4570E-03    -56.6983E-03    -56.3294E-03     112.986E-03    -56.6562E-03     10.6372E-03    -10.7834E+06    -44.6633E+06    -211.342E+06    -44.6660E+06    -211.340E+06    -10.7834E+06     548.398E+03         31.0789
             846     5.67191E-03     23.4692E-03         3.98152        -1.81580        -2.14689        -1.88288         3.71751        -1.81580         2.38476     113.256E-03    -56.5163E-03    -56.7400E-03    -56.4860E-03     113.147E-03    -56.6606E-03     8.54384E-03    -15.6987E+06    -50.3920E+06    -233.049E+06    -50.4042E+06    -233.037E+06    -15.6987E+06     880.632E+03         30.5239
             847     4.72724E-03     23.4607E-03         4.21405        -1.80445        -2.37378        -1.86447         3.70474        -1.80445         3.22351     113.213E-03    -56.4735E-03    -56.7400E-03    -56.5086E-03     113.141E-03    -56.6320E-03     7.01126E-03    -24.9867E+06    -57.7211E+06    -255.820E+06    -57.7407E+06    -255.801E+06    -24.9867E+06     1.01970E+06         30.0911
             848     3.78164E-03     23.4523E-03         4.19351        -1.79561        -2.35376        -1.81984         3.65960        -1.79561         3.36538     112.995E-03    -56.3849E-03    -56.6098E-03    -56.3678E-03     112.949E-03    -56.5812E-03     5.46979E-03    -39.3730E+06    -64.2528E+06    -273.944E+06    -64.2667E+06    -273.930E+06    -39.3730E+06     303.963E+03         29.7593
             849     2.83578E-03     23.4482E-03         3.89032        -1.78825        -2.05615        -1.81494         3.64911        -1.78825         2.30722     112.888E-03    -56.3360E-03    -56.5524E-03    -56.3146E-03     112.862E-03    -56.5475E-03     4.19294E-03    -54.7493E+06    -69.9947E+06    -285.590E+06    -70.0007E+06    -285.584E+06    -54.7493E+06    -600.885E+03         29.5134
             850     1.89113E-03     23.4431E-03         3.76216        -1.74001        -1.98118        -1.76461         3.59587        -1.79029         1.32956     113.025E-03    -56.4577E-03    -56.5673E-03    -56.4997E-03     113.009E-03    -56.5098E-03     3.12539E-03    -66.7275E+06    -74.6257E+06    -293.761E+06    -74.6279E+06    -293.759E+06    -66.7275E+06    -544.564E+03         29.3433
             851     944.927E-06     23.4410E-03         3.70884        -1.56896        -2.09338        -1.49984         3.63973        -2.09338    -444.009E-03     112.912E-03    -56.2460E-03    -56.6657E-03    -56.6614E-03     112.907E-03    -56.2460E-03     1.40933E-03    -75.0965E+06    -78.5006E+06    -298.981E+06    -77.9327E+06    -298.975E+06    -75.6704E+06    -698.981E+03         29.2417
             852     16.0776E-03     22.7594E-03         1.38499    -171.420E-03        -1.44531    -60.1048E-03         1.27367        -1.44531    -540.610E-03     116.216E-03    -56.3413E-03    -59.8751E-03    -54.6897E-03     111.249E-03    -56.5597E-03     51.8632E-03     134.234E+06     120.222E+06    -6.75983E+06    -6.75517E+06     134.229E+06     120.222E+06    -536.190E+03         47.5062
             853     15.1328E-03     22.6737E-03         1.75946    -449.064E-03        -1.52668    -303.870E-03         1.61426        -1.52668        -1.03954     118.602E-03    -56.4576E-03    -62.1443E-03    -54.0295E-03     110.487E-03    -56.4576E-03     74.7270E-03     131.377E+06     93.5653E+06    -13.0678E+06    -13.0533E+06     131.363E+06     93.5653E+06    -1.12545E+06         45.5730
             854     14.1843E-03     22.5926E-03         2.24877    -844.166E-03        -1.60204    -564.095E-03         1.96870        -1.60204        -1.68317     116.418E-03    -56.2771E-03    -60.1406E-03    -54.1068E-03     110.384E-03    -56.2771E-03     63.8588E-03     121.567E+06     45.0612E+06    -19.9914E+06    -19.9749E+06     121.550E+06     45.0612E+06    -1.22529E+06         43.3830
             855     13.2365E-03     22.5354E-03         2.67039        -1.17750        -1.66845    -832.665E-03         2.32555        -1.66845        -2.13576     114.878E-03    -56.1516E-03    -58.7265E-03    -54.9670E-03     111.119E-03    -56.1516E-03     49.9270E-03     94.4124E+06     5.89700E+06    -24.7477E+06    -24.7321E+06     94.3968E+06     5.89700E+06     155.182E+03         41.1119
             856     12.2917E-03     22.4859E-03         2.89132        -1.31361        -1.72398        -1.09221         2.66992        -1.72398        -1.87587     113.693E-03    -56.1814E-03    -57.5120E-03    -55.6166E-03     111.798E-03    -56.1814E-03     35.0958E-03     33.6253E+06    -7.76804E+06    -26.7212E+06    -26.5432E+06     31.8171E+06    -6.13781E+06     1.62766E+06         38.9207
             857     11.3463E-03     22.4564E-03         3.09829        -1.44222        -1.76789        -1.31955         2.97563        -1.76789        -1.18739     113.065E-03    -56.2750E-03    -56.7898E-03    -55.7602E-03     112.035E-03    -56.2750E-03     26.3131E-03    -6.84645E+06    -19.9329E+06    -48.5271E+06    -28.3214E+06    -40.1387E+06    -6.84645E+06     1.74129E+06         36.9313
             858     10.4006E-03     22.4275E-03         3.23084        -1.50794        -1.80121        -1.49390         3.21680        -1.80121     145.792E-03     113.050E-03    -56.3535E-03    -56.6966E-03    -55.9476E-03     112.301E-03    -56.3535E-03     22.3722E-03    -4.77548E+06    -30.0868E+06    -91.5278E+06    -30.1424E+06    -91.4722E+06    -4.77548E+06     1.60906E+06         35.2173
             859     9.45546E-03     22.4062E-03         3.41982        -1.64019        -1.82559        -1.62729         3.40692        -1.82559     169.429E-03     112.703E-03    -56.2075E-03    -56.4958E-03    -55.8057E-03     112.226E-03    -56.4199E-03     17.7926E-03    -3.84907E+06    -32.6434E+06    -129.647E+06    -32.6842E+06    -129.607E+06    -3.84907E+06     1.87865E+06         33.8003
             860     8.50944E-03     22.3875E-03         3.57126        -1.74362        -1.84176        -1.73526         3.56290        -1.84176     103.000E-03     112.714E-03    -56.1919E-03    -56.5222E-03    -55.9339E-03     112.414E-03    -56.4797E-03     14.1462E-03    -4.59987E+06    -35.6550E+06    -159.573E+06    -35.6842E+06    -159.544E+06    -4.59987E+06     1.68729E+06         32.6614
             861     7.56368E-03     22.3749E-03         3.71685        -1.82237        -1.87635        -1.83012         3.69733        -1.84908    -133.162E-03     112.829E-03    -56.2595E-03    -56.5694E-03    -56.0877E-03     112.615E-03    -56.5269E-03     11.9927E-03    -6.77968E+06    -39.4859E+06    -186.975E+06    -39.5042E+06    -186.957E+06    -6.77968E+06     1.27232E+06         31.7598
             862     6.61760E-03     22.3600E-03         4.00253        -1.84671        -2.10455        -1.89884         3.79682        -1.84671         1.14622     112.773E-03    -56.2081E-03    -56.5654E-03    -56.0586E-03     112.624E-03    -56.5654E-03     9.93104E-03    -11.7136E+06    -45.9952E+06    -212.158E+06    -46.0180E+06    -212.135E+06    -11.7136E+06     1.48201E+06         31.0502
             863     5.67251E-03     22.3505E-03         4.07489        -1.83622        -2.15675        -1.91867         3.83681        -1.83622         2.26779     113.069E-03    -56.4117E-03    -56.6569E-03    -56.3927E-03     112.970E-03    -56.5775E-03     8.15008E-03    -17.8910E+06    -52.7659E+06    -233.650E+06    -52.7870E+06    -233.629E+06    -17.8910E+06     1.64841E+06         30.4935
             864     4.72728E-03     22.3413E-03         4.28902        -1.82173        -2.36795        -1.89860         3.81968        -1.82173         3.08219     113.082E-03    -56.4555E-03    -56.6267E-03    -56.4630E-03     113.010E-03    -56.5474E-03     6.93700E-03    -26.0919E+06    -58.3682E+06    -255.302E+06    -58.3785E+06    -255.292E+06    -26.0919E+06     668.309E+03         30.0597
             865     3.78206E-03     22.3353E-03         4.25734        -1.80769        -2.34529        -1.85867         3.77071        -1.80769         3.19869     112.824E-03    -56.2977E-03    -56.5261E-03    -56.2773E-03     112.779E-03    -56.5016E-03     5.44500E-03    -38.7940E+06    -63.9637E+06    -273.478E+06    -63.9652E+06    -273.477E+06    -38.7940E+06    -30.9367E+03         29.7274
             866     2.83641E-03     22.3295E-03         3.94981        -1.79864        -2.05117        -1.81473         3.71337        -1.79864         2.26862     112.870E-03    -56.3220E-03    -56.5481E-03    -56.4093E-03     112.844E-03    -56.4346E-03     4.11274E-03    -54.2205E+06    -70.2546E+06    -285.385E+06    -70.2600E+06    -285.380E+06    -54.2205E+06     263.789E+03         29.4812
             867     1.89046E-03     22.3253E-03         3.86640        -1.77986        -1.98656        -1.78931         3.68747        -1.79818         1.18748     112.789E-03    -56.3195E-03    -56.4693E-03    -56.4575E-03     112.777E-03    -56.3195E-03     2.61434E-03    -67.7091E+06    -76.0033E+06    -294.997E+06    -76.0080E+06    -294.992E+06    -67.7091E+06     35.3301E+03         29.3106
             868     946.157E-06     22.3223E-03         3.70561        -1.67192        -1.93752        -1.74304         3.69678        -1.85757    -126.601E-03     112.449E-03    -56.0799E-03    -56.3695E-03    -56.3298E-03     112.447E-03    -56.1172E-03     1.05827E-03    -76.4531E+06    -80.0821E+06    -300.522E+06    -79.4124E+06    -300.515E+06     -77.129E+06    -830.558E+03         29.2086
             869     16.0782E-03     21.6423E-03         1.53515    -204.368E-03        -1.47330    -111.709E-03         1.44249        -1.47330    -495.529E-03     116.458E-03    -56.3278E-03    -60.1301E-03    -54.7996E-03     111.348E-03    -56.5488E-03     52.5583E-03     134.009E+06     120.113E+06    -6.70417E+06    -6.69226E+06     133.997E+06     120.113E+06    -1.20631E+06         47.4756
             870     15.1307E-03     21.5522E-03         1.87229    -455.526E-03        -1.55226    -338.871E-03         1.75563        -1.55226    -959.434E-03     118.551E-03    -56.4407E-03    -62.1099E-03    -53.9739E-03     110.415E-03    -56.4407E-03     74.7217E-03     129.802E+06     91.9247E+06    -14.1998E+06    -14.1902E+06     129.792E+06     91.9247E+06    -1.05485E+06         45.5459
             871     14.1834E-03     21.4799E-03         2.33054    -828.513E-03        -1.62564    -592.019E-03         2.09405        -1.62564        -1.55822     116.332E-03    -56.2644E-03    -60.0675E-03    -54.0195E-03     110.284E-03    -56.2644E-03     63.9796E-03     120.327E+06     43.7544E+06    -20.2816E+06    -20.2634E+06     120.308E+06     43.7544E+06     442.848E+03         43.3590
             872     13.2379E-03     21.4114E-03         2.74374        -1.15844        -1.69023    -865.934E-03         2.45123        -1.69023        -1.98928     115.318E-03    -56.1314E-03    -59.1867E-03    -55.3711E-03     111.503E-03    -56.1314E-03     50.1966E-03     93.2629E+06     5.54459E+06    -24.6230E+06    -24.5877E+06     93.2275E+06     5.54459E+06     1.65316E+06         41.0896
             873     12.2938E-03     21.3687E-03         2.98186        -1.31588        -1.74364        -1.13093         2.79691        -1.74364        -1.74141     114.055E-03    -56.1274E-03    -57.9272E-03    -56.1237E-03     112.251E-03    -56.1274E-03     34.4189E-03     33.1221E+06    -7.45369E+06    -27.5080E+06    -27.4673E+06     31.5876E+06    -5.95997E+06     1.39224E+06         38.8984
             874     11.3471E-03     21.3368E-03         3.19864        -1.45744        -1.78541        -1.35375         3.09495        -1.78541        -1.09460     112.979E-03    -56.1625E-03    -56.8169E-03    -55.7822E-03     111.972E-03    -56.1900E-03     26.0226E-03    -7.15785E+06    -19.7013E+06    -49.0689E+06    -28.9441E+06    -39.8261E+06    -7.15785E+06     1.42252E+06         36.9063
             875     10.4019E-03     21.3092E-03         3.34326        -1.53580        -1.81700        -1.52118         3.32864        -1.81700     199.868E-03     112.724E-03    -56.2390E-03    -56.4850E-03    -55.7188E-03     111.985E-03    -56.2666E-03     22.1919E-03    -6.33830E+06    -30.6185E+06    -92.9161E+06    -30.6833E+06    -92.8512E+06    -6.33830E+06     1.76871E+06         35.1869
             876     9.45569E-03     21.2874E-03         3.52918        -1.66814        -1.83983        -1.65485         3.51589        -1.83983     243.731E-03     112.691E-03    -56.2005E-03    -56.4902E-03    -55.8921E-03     112.227E-03    -56.3348E-03     17.4508E-03    -4.19747E+06    -32.7656E+06    -129.615E+06    -32.8025E+06    -129.578E+06    -4.19747E+06     1.75356E+06         33.7638
             877     8.50947E-03     21.2704E-03         3.67652        -1.77324        -1.85412        -1.76529         3.66857        -1.85412     169.465E-03     112.731E-03    -56.2122E-03    -56.5190E-03    -56.0750E-03     112.447E-03    -56.3722E-03     13.7494E-03    -4.94973E+06    -36.4780E+06    -159.071E+06    -36.5172E+06    -159.032E+06    -4.94973E+06     1.91664E+06         32.6192
             878     7.56465E-03     21.2545E-03         3.81728        -1.84220        -1.89354        -1.86096         3.80151        -1.85901    -43.3518E-03     112.832E-03    -56.3422E-03    -56.4902E-03    -56.2580E-03     112.641E-03    -56.3833E-03     11.2858E-03    -8.23048E+06    -41.6040E+06    -187.769E+06    -41.6562E+06    -187.716E+06    -8.23048E+06     2.56577E+06         31.7127
             879     6.61985E-03     21.2436E-03         4.07022        -1.85456        -2.09779        -1.91586         3.88828        -1.85456         1.14204     112.554E-03    -56.1010E-03    -56.4528E-03    -56.0352E-03     112.424E-03    -56.3884E-03     9.34946E-03    -13.0306E+06    -46.5899E+06    -212.322E+06    -46.6498E+06    -212.263E+06    -13.0306E+06     3.11112E+06         30.9994
             880     5.67302E-03     21.2315E-03         4.15707        -1.84213        -2.16675        -1.93908         3.92940        -1.84213         2.26965     112.396E-03    -55.9843E-03    -56.4114E-03    -55.8881E-03     112.299E-03    -56.4114E-03     8.01003E-03    -20.1454E+06    -51.6871E+06    -233.138E+06    -51.7140E+06    -233.111E+06    -20.1454E+06     1.75875E+06         30.4402
             881     4.72763E-03     21.2235E-03         4.32956        -1.82457        -2.33865        -1.91952         3.91042        -1.82457         2.97970     112.706E-03    -56.2174E-03    -56.4887E-03    -56.2194E-03     112.646E-03    -56.4270E-03     6.24811E-03    -28.1450E+06    -57.5286E+06    -254.863E+06    -57.5293E+06    -254.862E+06    -28.1450E+06     188.568E+03         30.0050
             882     3.78175E-03     21.2170E-03         4.30523        -1.80565        -2.32878        -1.88103         3.85748        -1.80565         3.15630     112.867E-03    -56.3108E-03    -56.5562E-03    -56.4665E-03     112.832E-03    -56.3653E-03     4.79462E-03    -39.5318E+06    -64.5333E+06    -274.093E+06    -64.5384E+06    -274.088E+06    -39.5318E+06     330.410E+03         29.6722
             883     2.83682E-03     21.2113E-03         3.94372        -1.79589        -1.99115        -1.79780         3.75038        -1.79589         2.06679     112.691E-03    -56.2232E-03    -56.4679E-03    -56.4472E-03     112.670E-03    -56.2232E-03     3.60212E-03    -53.0533E+06    -71.2593E+06    -285.419E+06    -71.2675E+06    -285.411E+06    -53.0533E+06     808.934E+03         29.4259
             884     1.89235E-03     21.2072E-03         3.89556        -1.78945        -1.94760        -1.81378         3.76174        -1.78945         1.37444     112.227E-03    -56.0188E-03    -56.2079E-03    -56.1397E-03     112.219E-03    -56.0793E-03     2.16551E-03    -66.6078E+06    -76.6303E+06    -294.988E+06    -76.6347E+06    -294.984E+06    -66.6078E+06     495.017E+03         29.2554
             885     945.393E-06     21.2057E-03         3.90607        -1.59887        -2.15377        -1.96796         3.72025        -1.59887    -741.624E-03     111.979E-03    -55.8059E-03    -56.1734E-03    -56.0737E-03     111.977E-03    -55.9037E-03     1.02406E-03    -77.9654E+06    -82.0610E+06    -301.963E+06    -81.3884E+06    -301.960E+06    -78.6413E+06    -372.057E+03         29.1531
             886     16.0765E-03     20.5211E-03         1.65198    -233.297E-03        -1.48066    -155.697E-03         1.57438        -1.48066    -434.020E-03     115.946E-03    -56.1070E-03    -59.8394E-03    -54.3742E-03     110.940E-03    -56.5660E-03     52.3104E-03     133.089E+06     119.061E+06    -7.47275E+06    -7.45779E+06     133.074E+06     119.061E+06    -1.40674E+06         47.4356
             887     15.1316E-03     20.4352E-03         1.95761    -457.554E-03        -1.55665    -365.349E-03         1.86540        -1.55665    -864.972E-03     118.865E-03    -56.4625E-03    -62.4025E-03    -54.4557E-03     110.918E-03    -56.4625E-03     74.0297E-03     128.191E+06     92.3588E+06    -14.0421E+06    -14.0302E+06     128.179E+06     92.3588E+06    -834.782E+03         45.5078
             888     14.1853E-03     20.3605E-03         2.38723    -807.442E-03        -1.62735    -609.982E-03         2.18977        -1.62735        -1.42083     117.347E-03    -56.2400E-03    -61.1067E-03    -55.1108E-03     111.351E-03    -56.2400E-03     64.1289E-03     119.955E+06     45.9649E+06    -19.7607E+06    -19.7275E+06     119.922E+06     45.9649E+06     1.48489E+06         43.3228
             889     13.2385E-03     20.2934E-03         2.78076        -1.12271        -1.68975    -876.743E-03         2.53479        -1.68975        -1.83203     115.243E-03    -56.0566E-03    -59.1861E-03    -55.4023E-03     111.459E-03    -56.0566E-03     49.9763E-03     92.6740E+06     6.11028E+06    -23.5437E+06    -23.4988E+06     92.6291E+06     6.11028E+06     2.16421E+06         41.0524
             890     12.2920E-03     20.2474E-03         3.01790        -1.28124        -1.74182        -1.13051         2.86717        -1.74182        -1.57937     113.672E-03    -56.0507E-03    -57.6216E-03    -55.8769E-03     111.928E-03    -56.0507E-03     33.7016E-03     32.4353E+06    -7.87840E+06    -25.6762E+06    -25.5684E+06     30.6728E+06    -6.22375E+06     1.48048E+06         38.8564
             891     11.3492E-03     20.2181E-03         3.24636        -1.43437        -1.78300        -1.35029         3.16228        -1.78300    -963.297E-03     113.120E-03    -56.0791E-03    -57.0410E-03    -56.0619E-03     112.168E-03    -56.1066E-03     25.3148E-03    -7.24193E+06    -19.5613E+06    -48.4200E+06    -27.5880E+06    -40.3933E+06    -7.24193E+06     1.92305E+06         36.8579
             892     10.4020E-03     20.1921E-03         3.40390        -1.52696        -1.81450        -1.51222         3.38916        -1.81450     263.844E-03     112.782E-03    -56.1245E-03    -56.6576E-03    -55.9328E-03     112.085E-03    -56.1521E-03     21.5647E-03    -6.66435E+06    -29.7406E+06    -92.9467E+06    -29.8476E+06    -92.8398E+06    -6.66435E+06     2.40362E+06         35.1313
             893     9.45660E-03     20.1680E-03         3.58557        -1.65520        -1.83784        -1.64134         3.57170        -1.83784     309.742E-03     112.819E-03    -56.1772E-03    -56.6422E-03    -56.2316E-03     112.409E-03    -56.1772E-03     16.3397E-03    -6.06572E+06    -33.6534E+06    -130.956E+06    -33.7256E+06    -130.884E+06    -6.06572E+06     2.43040E+06         33.7003
             894     8.51249E-03     20.1522E-03         3.73707        -1.76397        -1.85280        -1.75741         3.73051        -1.85280     202.648E-03     112.648E-03    -56.1448E-03    -56.5027E-03    -56.2449E-03     112.415E-03    -56.1706E-03     12.4913E-03    -6.32615E+06    -37.9022E+06    -159.416E+06    -37.9763E+06    -159.342E+06    -6.32615E+06     2.81367E+06         32.5480
             895     7.56597E-03     20.1364E-03         3.88183        -1.83818        -1.89180        -1.86159         3.87118        -1.85774     41.1718E-03     112.343E-03    -56.0397E-03    -56.3028E-03    -56.0206E-03     112.179E-03    -56.1587E-03     10.3782E-03    -10.0008E+06    -42.0814E+06    -188.332E+06    -42.1538E+06    -188.260E+06    -10.0008E+06     3.19734E+06         31.6346
             896     6.62018E-03     20.1249E-03         4.10551        -1.85293        -2.06503        -1.91585         3.95633        -1.85293         1.11245     112.261E-03    -55.9467E-03    -56.3140E-03    -56.0053E-03     112.154E-03    -56.1486E-03     8.41155E-03    -14.7291E+06    -46.2051E+06    -212.094E+06    -46.2659E+06    -212.033E+06    -14.7291E+06     3.13824E+06         30.9161
             897     5.67506E-03     20.1152E-03         4.21850        -1.84028        -2.15760        -1.93741         3.99830        -1.84028         2.29437     112.077E-03    -55.8386E-03    -56.2383E-03    -55.8631E-03     112.001E-03    -56.1374E-03     7.06632E-03    -21.2698E+06    -51.1079E+06    -231.079E+06    -51.1591E+06    -231.028E+06    -21.2698E+06     2.70483E+06         30.3535
             898     4.72826E-03     20.1050E-03         4.32673        -1.82293        -2.26666        -1.91509         3.97516        -1.82293         2.82501     112.144E-03    -55.9381E-03    -56.2063E-03    -55.9719E-03     112.100E-03    -56.1282E-03     5.33327E-03    -30.2545E+06    -58.1154E+06    -254.797E+06    -58.1391E+06    -254.773E+06    -30.2545E+06     1.34335E+06         29.9162
             899     3.78373E-03     20.0989E-03         4.35616        -1.80191        -2.31635        -1.89612         3.93593        -1.80191         3.18522     112.346E-03    -56.0543E-03    -56.2920E-03    -56.2697E-03     112.324E-03    -56.0543E-03     3.84185E-03    -40.5240E+06    -64.8108E+06    -274.438E+06    -64.8174E+06    -274.432E+06    -40.5240E+06     796.049E+03         29.5824
             900     2.83820E-03     20.0934E-03         3.98776        -1.76897        -1.99989        -1.80847         3.81381        -1.78645         1.73050     111.942E-03    -55.8257E-03    -56.1164E-03    -56.0039E-03     111.929E-03    -55.9253E-03     2.89106E-03    -53.5397E+06    -70.7542E+06    -285.944E+06    -70.7602E+06    -285.938E+06    -53.5397E+06     825.013E+03         29.3361
             901     1.89137E-03     20.0906E-03         4.04150        -1.74772        -2.06856        -1.83537         3.82579        -1.76519         1.82091     111.606E-03    -55.6883E-03    -55.9172E-03    -55.7511E-03     111.599E-03    -55.8484E-03     1.89614E-03    -66.8558E+06    -76.2615E+06    -295.341E+06    -76.2647E+06    -295.338E+06    -66.8558E+06     728.352E+03         29.1660
             902     946.160E-06     20.0889E-03         4.83398        -1.38945        -3.23375        -2.10606         3.70629        -1.38945        -2.22087     111.606E-03    -55.5742E-03    -56.0318E-03    -55.9692E-03     111.604E-03    -55.6347E-03     1.10338E-03    -76.9313E+06    -81.1772E+06    -301.056E+06    -80.4237E+06    -301.043E+06    -77.6974E+06     902.581E+03         29.0641
             903     16.0777E-03     19.4015E-03         1.73097    -252.272E-03        -1.46919    -185.567E-03         1.66426        -1.46919    -377.752E-03     115.815E-03    -55.9734E-03    -59.8412E-03    -54.2233E-03     110.793E-03    -56.5702E-03     51.9702E-03     133.233E+06     118.794E+06    -7.22013E+06    -7.20754E+06     133.220E+06     118.794E+06    -1.07970E+06         47.3835
             904     15.1293E-03     19.3174E-03         2.02572    -467.136E-03        -1.54142    -393.397E-03         1.95198        -1.54142    -777.625E-03     119.290E-03    -56.4633E-03    -62.8264E-03    -54.8683E-03     111.332E-03    -56.4633E-03     74.1951E-03     126.390E+06     91.9638E+06    -15.3312E+06    -15.3233E+06     126.382E+06     91.9638E+06    -93.4625E+03         45.4551
             905     14.1847E-03     19.2381E-03         2.42635    -791.080E-03        -1.60822    -625.304E-03         2.26057        -1.60822        -1.28970     118.150E-03    -56.2031E-03    -61.9471E-03    -55.9807E-03     112.184E-03    -56.2031E-03     64.2863E-03     118.344E+06     46.7805E+06    -21.0019E+06    -20.9848E+06     118.327E+06     46.7805E+06     889.234E+03         43.2682
             906     13.2417E-03     19.1757E-03         2.78828        -1.07697        -1.66785    -866.011E-03         2.57733        -1.66785        -1.69724     115.717E-03    -55.9564E-03    -59.7610E-03    -56.0464E-03     112.003E-03    -55.9564E-03     49.5320E-03     92.9833E+06     7.05293E+06    -22.4755E+06    -22.4403E+06     92.9482E+06     7.05293E+06     1.36638E+06         40.9931
             907     12.2960E-03     19.1282E-03         3.01654        -1.22658        -1.71895        -1.09871         2.88867        -1.71895        -1.45021     113.211E-03    -55.9193E-03    -57.2919E-03    -55.6640E-03     111.583E-03    -55.9193E-03     32.5322E-03     31.7822E+06    -9.13806E+06    -24.4105E+06    -24.1070E+06     29.4709E+06    -7.13039E+06     2.08159E+06         38.7887
             908     11.3480E-03     19.0994E-03         3.25454        -1.38832        -1.76021        -1.31784         3.18406        -1.76021    -869.964E-03     113.140E-03    -55.9641E-03    -57.1763E-03    -56.3057E-03     112.270E-03    -55.9641E-03     24.1882E-03    -8.12474E+06    -20.5756E+06    -47.9625E+06    -26.9101E+06    -41.6280E+06    -8.12474E+06     2.98569E+06         36.7800
             909     10.4050E-03     19.0725E-03         3.42809        -1.49674        -1.79180        -1.48394         3.41529        -1.79180     260.566E-03     113.513E-03    -55.9339E-03    -57.5794E-03    -57.0072E-03     112.941E-03    -55.9339E-03     19.4772E-03    -7.65523E+06    -29.8151E+06    -93.5505E+06    -30.0423E+06    -93.3233E+06    -7.65523E+06     3.55465E+06         35.0432
             910     9.45995E-03     19.0504E-03         3.60167        -1.61734        -1.81561        -1.60526         3.58960        -1.81561     322.943E-03     112.672E-03    -55.8687E-03    -56.8030E-03    -56.4947E-03     112.363E-03    -55.8687E-03     14.1933E-03    -7.10283E+06    -32.8533E+06    -131.020E+06    -33.0176E+06    -130.856E+06    -7.10283E+06     3.96580E+06         33.6015
             911     8.51362E-03     19.0328E-03         3.74296        -1.71397        -1.83241        -1.70975         3.73873        -1.83241     186.440E-03     112.135E-03    -55.8221E-03    -56.3126E-03    -56.1448E-03     111.967E-03    -55.8221E-03     10.3647E-03    -6.92596E+06    -36.5008E+06    -160.028E+06    -36.6431E+06    -159.885E+06    -6.92596E+06     4.12365E+06         32.4382
             912     7.56914E-03     19.0200E-03         3.89519        -1.80171        -1.86490        -1.82104         3.88966        -1.84003     93.2691E-03     111.768E-03    -55.6882E-03    -56.0801E-03    -55.8811E-03     111.663E-03    -55.7815E-03     8.23419E-03    -10.7406E+06    -41.5036E+06    -188.432E+06    -41.6130E+06    -188.323E+06    -10.7406E+06     3.87045E+06         31.5152
             913     6.62267E-03     19.0070E-03         4.10572        -1.83661        -2.00494        -1.89695         3.99773        -1.83661         1.02000     111.661E-03    -55.6412E-03    -56.0194E-03    -55.8586E-03     111.593E-03    -55.7345E-03     6.56226E-03    -16.3059E+06    -47.1447E+06    -211.778E+06    -47.2321E+06    -211.691E+06    -16.3059E+06     3.63672E+06         30.7892
             914     5.67702E-03     18.9973E-03         4.25273        -1.82366        -2.13309        -1.92445         4.04409        -1.82366         2.26200     111.624E-03    -55.6225E-03    -56.0012E-03    -55.9262E-03     111.584E-03    -55.6581E-03     4.97500E-03    -22.8888E+06    -52.9521E+06    -230.084E+06    -53.0266E+06    -230.010E+06    -22.8888E+06     3.61217E+06         30.2211
             915     4.73188E-03     18.9889E-03         4.27330        -1.80775        -2.15654        -1.88099         3.99775        -1.80775         2.56373     111.165E-03    -55.4140E-03    -55.7511E-03    -55.5517E-03     111.139E-03    -55.5876E-03     4.03329E-03    -31.8806E+06    -58.4673E+06    -252.755E+06    -58.5168E+06    -252.706E+06    -31.8806E+06     2.85934E+06         29.7803
             916     3.78479E-03     18.9808E-03         4.39307        -1.79070        -2.29361        -1.86733         3.96680        -1.79070         3.22904     110.936E-03    -55.3125E-03    -55.6237E-03    -55.3689E-03     110.921E-03    -55.5524E-03     3.04414E-03    -43.0041E+06    -64.3695E+06    -274.833E+06    -64.3832E+06    -274.819E+06    -43.0041E+06     1.41029E+06         29.4445
             917     2.83879E-03     18.9776E-03         4.16065        -1.75849        -2.11601        -1.80644         3.86855        -1.77597         1.32735     110.955E-03    -55.3028E-03    -55.6524E-03    -55.4441E-03     110.948E-03    -55.5042E-03     1.98834E-03    -55.5320E+06    -69.9652E+06    -286.722E+06    -69.9688E+06    -286.719E+06    -55.5320E+06     746.503E+03         29.1977
             918     1.89277E-03     18.9741E-03         4.52410        -1.72637        -2.50578        -1.85190         3.88770        -1.74384         2.42493     110.873E-03    -55.3009E-03    -55.5723E-03    -55.4290E-03     110.871E-03    -55.4418E-03     1.20592E-03    -66.8317E+06    -74.4077E+06    -294.477E+06    -74.4126E+06    -294.472E+06    -66.8317E+06     956.541E+03         29.0281
             919     946.196E-06     18.9719E-03         6.71366        -1.27297        -5.15930        -2.16084         3.71520        -1.27297        -4.18219     110.780E-03    -55.2732E-03    -55.5066E-03    -55.4639E-03     110.778E-03    -55.3146E-03     582.614E-06    -74.1235E+06    -78.3286E+06    -299.264E+06    -77.5757E+06    -299.250E+06    -74.8897E+06     1.16994E+06         28.9267
             920     16.0764E-03     18.2888E-03         1.78676    -273.326E-03        -1.43873    -214.781E-03         1.72822        -1.43873    -339.304E-03     116.446E-03    -55.9940E-03    -60.4516E-03    -54.6229E-03     111.189E-03    -56.5659E-03     51.9848E-03     132.700E+06     118.540E+06    -8.54666E+06    -8.53951E+06     132.693E+06     118.540E+06    -375.629E+03         47.3162
             921     15.1320E-03     18.1924E-03         2.06596    -473.187E-03        -1.50622    -411.453E-03         2.00422        -1.50622    -711.781E-03     120.006E-03    -56.4320E-03    -63.5736E-03    -55.4684E-03     111.900E-03    -56.4320E-03     74.9666E-03     125.433E+06     92.3390E+06    -15.8481E+06    -15.8459E+06     125.431E+06     92.3390E+06     324.688E+03         45.3851
             922     14.1867E-03     18.1229E-03         2.44238    -773.970E-03        -1.56837    -630.631E-03         2.29904        -1.56837        -1.18746     118.464E-03    -56.1211E-03    -62.3434E-03    -56.6021E-03     112.723E-03    -56.1211E-03     63.3041E-03     116.873E+06     45.6996E+06    -20.7842E+06    -20.7801E+06     116.869E+06     45.6996E+06     200.336E+03         43.1923
             923     13.2404E-03     18.0499E-03         2.78908        -1.04393        -1.62400    -857.226E-03         2.60238        -1.62400        -1.59857     116.095E-03    -55.8200E-03    -60.2751E-03    -56.7425E-03     112.563E-03    -55.8200E-03     48.0574E-03     91.0406E+06     5.33010E+06    -23.7145E+06    -23.6924E+06     91.0184E+06     5.33010E+06     878.812E+03         40.9081
             924     12.2973E-03     18.0133E-03         3.01531        -1.19165        -1.67196        -1.07482         2.89848        -1.67196        -1.38221     114.040E-03    -55.6982E-03    -58.3418E-03    -56.9350E-03     112.633E-03    -55.6982E-03     30.3429E-03     30.7671E+06    -8.73679E+06    -25.8915E+06    -25.4672E+06     29.2432E+06    -7.63716E+06     2.45099E+06         38.6927
             925     11.3524E-03     17.9791E-03         3.23548        -1.33709        -1.71136        -1.27187         3.17025        -1.71136    -851.751E-03     113.621E-03    -55.6223E-03    -57.9988E-03    -57.2975E-03     112.920E-03    -55.6223E-03     21.5846E-03    -9.71474E+06    -20.2649E+06    -50.2498E+06    -27.4590E+06    -42.9591E+06    -9.81131E+06     3.57408E+06         36.6713
             926     10.4083E-03     17.9515E-03         3.39679        -1.43222        -1.74267        -1.42198         3.38655        -1.74267     192.811E-03     113.369E-03    -55.4969E-03    -57.8725E-03    -57.4946E-03     112.991E-03    -55.4969E-03     15.5627E-03    -8.16724E+06    -29.2915E+06    -94.6369E+06    -29.5640E+06    -94.3644E+06    -8.16724E+06     4.05766E+06         34.9196
             927     9.46462E-03     17.9328E-03         3.56845        -1.54916        -1.76737        -1.54012         3.55942        -1.76737     285.503E-03     112.389E-03    -55.3449E-03    -57.0441E-03    -56.8722E-03     112.217E-03    -55.3449E-03     10.3458E-03    -6.47751E+06    -31.5510E+06    -130.507E+06    -31.8037E+06    -130.255E+06    -6.47751E+06     4.96792E+06         33.4623
             928     8.51974E-03     17.9153E-03         3.71261        -1.64815        -1.78551        -1.64657         3.71103        -1.78551     105.585E-03     111.339E-03    -55.2239E-03    -56.1154E-03    -56.0358E-03     111.260E-03    -55.2239E-03     6.95223E-03    -6.76705E+06    -35.4105E+06    -160.489E+06    -35.6998E+06    -160.200E+06    -6.76705E+06     5.85788E+06         32.2837
             929     7.57301E-03     17.9027E-03         3.86925        -1.74600        -1.81158        -1.76125         3.86746        -1.79453     70.9977E-03     111.053E-03    -55.1150E-03    -55.9381E-03    -55.8960E-03     111.011E-03    -55.1150E-03     4.81832E-03    -9.76679E+06    -40.6333E+06    -187.962E+06    -40.8867E+06    -187.709E+06    -9.76679E+06     5.93261E+06         31.3469
             930     6.62773E-03     17.8907E-03         4.04557        -1.79268        -1.90589        -1.83858         3.97825        -1.79268     840.997E-03     110.653E-03    -54.9800E-03    -55.6734E-03    -55.6481E-03     110.628E-03    -54.9800E-03     3.31494E-03    -15.9302E+06    -46.1772E+06    -210.484E+06    -46.3486E+06    -210.312E+06    -15.9302E+06     5.20286E+06         30.6093
             931     5.68158E-03     17.8804E-03         4.22690        -1.78161        -2.06982        -1.86894         4.02602        -1.78161         2.17490     110.047E-03    -54.8293E-03    -55.2177E-03    -55.1822E-03     110.036E-03    -54.8537E-03     2.16575E-03    -23.6074E+06    -51.5747E+06    -229.389E+06    -51.6760E+06    -229.288E+06    -23.6074E+06     4.16752E+06         30.0321
             932     4.73500E-03     17.8730E-03         4.20148        -1.76788        -2.04731        -1.82858         3.98274        -1.76788         2.25945     109.592E-03    -54.6094E-03    -54.9827E-03    -54.8125E-03     109.584E-03    -54.7718E-03     1.74275E-03    -32.2984E+06    -57.5168E+06    -251.012E+06    -57.5948E+06    -250.934E+06    -32.2984E+06     3.80360E+06         29.5849
             933     3.78808E-03     17.8671E-03         4.41873        -1.75510        -2.28118        -1.80629         3.94384        -1.75510         3.23345     109.237E-03    -54.4370E-03    -54.7996E-03    -54.4957E-03     109.232E-03    -54.7360E-03     1.12916E-03    -43.8828E+06    -63.8508E+06    -273.621E+06    -63.8972E+06    -273.575E+06    -43.8828E+06     2.72921E+06         29.2450
             934     2.84037E-03     17.8611E-03         4.42541        -1.75029        -2.31619        -1.73942         3.84864        -1.75029     861.380E-03     109.266E-03    -54.4508E-03    -54.8156E-03    -54.5421E-03     109.265E-03    -54.7224E-03     352.380E-06    -55.2663E+06    -69.1249E+06    -286.421E+06    -69.1317E+06    -286.414E+06    -55.2663E+06     1.11102E+06         28.9959
             935     1.89406E-03     17.8591E-03         5.26299        -1.73476        -3.16618        -1.80369         3.90050        -1.73476         3.02458     109.342E-03    -54.5374E-03    -54.8041E-03    -54.6512E-03     109.341E-03    -54.6894E-03     243.905E-06    -65.6773E+06    -73.7575E+06    -293.686E+06    -73.7616E+06    -293.682E+06    -65.6773E+06     607.061E+03         28.8254
             936     947.011E-06     17.8571E-03         9.01762        -1.30567        -7.35976        -2.12967         3.78754        -1.30567        -6.18086     109.277E-03    -54.4615E-03    -54.8153E-03    -54.7733E-03     109.276E-03    -54.5029E-03     188.499E-06    -73.7329E+06    -78.0534E+06    -298.405E+06    -77.0339E+06    -298.393E+06    -74.7648E+06     816.172E+03         28.7238
             937     16.0780E-03     17.1665E-03         1.83256    -304.743E-03        -1.38901    -252.679E-03         1.78050        -1.38901    -308.516E-03     117.272E-03    -56.3214E-03    -60.9501E-03    -55.6834E-03     112.230E-03    -56.5461E-03     51.9193E-03     132.723E+06     119.579E+06    -7.27696E+06    -7.27456E+06     132.721E+06     119.579E+06     104.294E+03         47.2331
             938     15.1307E-03     17.0759E-03         2.09394    -485.586E-03        -1.45016    -431.777E-03         2.04013        -1.45016    -671.749E-03     120.835E-03    -56.3346E-03    -64.5004E-03    -56.5842E-03     112.919E-03    -56.3346E-03     74.6108E-03     124.642E+06     91.7561E+06    -14.9113E+06    -14.9098E+06     124.641E+06     91.7561E+06     189.131E+03         45.2983
             939     14.1879E-03     16.9964E-03         2.44937    -764.161E-03        -1.50614    -632.862E-03         2.31807        -1.50614        -1.13183     119.002E-03    -55.9420E-03    -63.0602E-03    -57.6185E-03     113.560E-03    -55.9420E-03     61.6601E-03     115.614E+06     44.1882E+06    -20.5312E+06    -20.5279E+06     115.611E+06     44.1882E+06     400.957E+03         43.0977
             940     13.2463E-03     16.9349E-03         2.78621        -1.02627        -1.55595    -852.196E-03         2.61214        -1.55595        -1.54592     116.695E-03    -55.5363E-03    -61.1587E-03    -58.1595E-03     113.696E-03    -55.5363E-03     44.5318E-03     88.6419E+06     2.92853E+06    -24.3979E+06    -24.3659E+06     88.6099E+06     2.92853E+06     1.34788E+06         40.8024
             941     12.3006E-03     16.8883E-03         3.00459        -1.16915        -1.59836        -1.05721         2.89266        -1.59836        -1.34836     115.263E-03    -55.2588E-03    -60.0047E-03    -58.9143E-03     114.173E-03    -55.2588E-03     26.4591E-03     28.9435E+06    -10.2546E+06    -27.2062E+06    -26.8185E+06     27.9281E+06    -9.62687E+06     2.62390E+06         38.5738
             942     11.3613E-03     16.8601E-03         3.19655        -1.28756        -1.63351        -1.22418         3.13318        -1.63351    -867.939E-03     114.286E-03    -55.0000E-03    -59.2862E-03    -58.8560E-03     113.856E-03    -55.0000E-03     16.9220E-03    -10.1742E+06    -19.5559E+06    -50.9820E+06    -27.8854E+06    -42.5559E+06    -10.2708E+06     3.96565E+06         36.5363
             943     10.4164E-03     16.8331E-03         3.32730        -1.35435        -1.66271        -1.34633         3.31928        -1.66271     87.1086E-03     112.703E-03    -54.7313E-03    -57.9720E-03    -57.7715E-03     112.503E-03    -54.7313E-03     10.8196E-03    -9.41221E+06    -29.2922E+06    -95.8137E+06    -29.6610E+06    -95.4450E+06    -9.41221E+06     4.62868E+06         34.7648
             944     9.47226E-03     16.8129E-03         3.49291        -1.46620        -1.68662        -1.46035         3.48706        -1.68662     193.784E-03     111.606E-03    -54.4770E-03    -57.1293E-03    -57.0734E-03     111.550E-03    -54.4770E-03     4.80617E-03    -7.84313E+06    -32.6870E+06    -131.700E+06    -33.0180E+06    -131.369E+06    -7.84313E+06     5.70081E+06         33.2857
             945     8.52693E-03     16.8006E-03         3.64784        -1.57501        -1.70371        -1.57452         3.64735        -1.70371    -32.8778E-03     110.677E-03    -54.2210E-03    -56.4558E-03    -56.4316E-03     110.653E-03    -54.2210E-03     1.79115E-03    -7.90918E+06    -36.3806E+06    -160.707E+06    -36.7801E+06    -160.307E+06    -7.90918E+06     7.01477E+06         32.0858
             946     7.58168E-03     16.7855E-03         3.79151        -1.66826        -1.72227        -1.67838         3.79115        -1.71179    -402.562E-06     109.716E-03    -53.9700E-03    -55.7465E-03    -55.7273E-03     109.697E-03    -53.9700E-03    -355.074E-06    -10.0533E+06    -39.8694E+06    -186.803E+06    -40.2254E+06    -186.447E+06    -10.0533E+06     7.17462E+06         31.1290
             947     6.63593E-03     16.7755E-03         3.91469        -1.71130        -1.76973        -1.73375         3.87871        -1.71130     626.045E-03     108.585E-03    -53.7447E-03    -54.8401E-03    -54.8241E-03     108.569E-03    -53.7447E-03    -1.66743E-03    -15.2087E+06     -44.191E+06    -208.734E+06    -44.4501E+06    -208.475E+06    -15.2087E+06     6.44040E+06         30.3734
             948     5.68860E-03     16.7668E-03         4.12397        -1.70441        -1.95808        -1.75850         3.92439        -1.70441         2.03826     107.613E-03    -53.5507E-03    -54.0625E-03    -54.0234E-03     107.598E-03    -53.5751E-03    -1.86533E-03    -23.6753E+06    -50.0493E+06    -228.372E+06    -50.2583E+06    -228.163E+06    -23.6753E+06     5.91540E+06         29.7811
             949     4.74036E-03     16.7596E-03         4.10180        -1.69422        -1.93706        -1.74475         3.90949        -1.69422         1.94063     107.184E-03    -53.4364E-03    -53.7480E-03    -53.7082E-03     107.169E-03    -53.4608E-03    -2.06331E-03    -32.3585E+06    -56.2716E+06    -249.539E+06    -56.4399E+06    -249.371E+06    -32.3585E+06     5.45463E+06         29.3222
             950     3.79298E-03     16.7532E-03         4.42209        -1.68314        -2.27561        -1.72744         3.87391        -1.68314         3.16228     106.810E-03    -53.3008E-03    -53.5092E-03    -53.4247E-03     106.798E-03    -53.3735E-03    -1.96383E-03    -42.1094E+06    -62.8242E+06    -271.113E+06    -62.9104E+06    -271.027E+06    -42.1094E+06     3.98247E+06         28.9737
             951     2.84526E-03     16.7494E-03         4.70146        -1.68349        -2.57595        -1.64587         3.77139        -1.68349     424.348E-03     106.406E-03    -53.0770E-03    -53.3292E-03    -53.0711E-03     106.400E-03    -53.3292E-03    -1.61347E-03    -54.5649E+06    -69.4796E+06    -284.113E+06    -69.5150E+06    -284.077E+06    -54.5649E+06     2.45058E+06         28.7187
             952     1.89581E-03     16.7453E-03         5.95796        -1.68800        -3.83186        -1.69395         3.82006        -1.68800         3.44999     106.485E-03    -53.1262E-03    -53.3583E-03    -53.1439E-03     106.481E-03    -53.3368E-03    -1.29505E-03    -67.3369E+06    -75.6787E+06    -292.948E+06    -75.6898E+06    -292.937E+06    -67.3369E+06     964.575E+03         28.5445
             953     948.119E-06     16.7444E-03         11.0216        -1.39410        -9.20536        -1.97890         3.79511        -1.39410        -7.90127     106.641E-03    -53.1632E-03    -53.4780E-03    -53.4445E-03     106.639E-03    -53.1942E-03    -528.543E-06    -76.1916E+06    -80.8689E+06    -298.586E+06    -79.8471E+06    -298.576E+06    -77.2236E+06     864.456E+03         28.4411
             954     16.0765E-03     16.0419E-03         1.87103    -341.215E-03        -1.31934    -292.185E-03         1.82200        -1.31934    -299.287E-03     118.353E-03    -56.4813E-03    -61.8718E-03    -56.9815E-03     113.469E-03    -56.4878E-03     52.7606E-03     132.839E+06     120.391E+06    -6.87025E+06    -6.86982E+06     132.838E+06     120.391E+06    -45.3279E+03         47.1366
             955     15.1371E-03     15.9562E-03         2.12888    -516.730E-03        -1.37225    -465.470E-03         2.07762        -1.37225    -672.063E-03     122.313E-03    -56.1639E-03    -66.1491E-03    -58.5846E-03     114.749E-03    -56.1639E-03     73.7283E-03     124.617E+06     92.0757E+06    -14.1774E+06    -14.1673E+06     124.607E+06     92.0757E+06     602.608E+03         45.1987
             956     14.1924E-03     15.8740E-03         2.45629    -770.783E-03        -1.41962    -646.989E-03         2.33249        -1.41962        -1.10741     120.404E-03    -55.6102E-03    -64.7940E-03    -59.7794E-03     115.390E-03    -55.6102E-03     59.5696E-03     113.269E+06     41.7767E+06    -21.3459E+06    -21.3176E+06     113.240E+06     41.7767E+06     1.54873E+06         42.9921
             957     13.2500E-03     15.8114E-03         2.76620        -1.00924        -1.46157    -840.496E-03         2.59745        -1.46157        -1.52533     118.378E-03    -55.0040E-03    -63.3744E-03    -60.9077E-03     115.912E-03    -55.0040E-03     40.4504E-03     87.1386E+06     1.12919E+06    -25.6762E+06    -25.6088E+06     87.0712E+06     1.12919E+06     2.43990E+06         40.6874
             958     12.3128E-03     15.7665E-03         2.96452        -1.13573        -1.49737        -1.02173         2.85051        -1.49737        -1.34790     116.200E-03    -54.5016E-03    -61.6986E-03    -60.9490E-03     115.451E-03    -54.5016E-03     21.2818E-03     28.6246E+06    -10.8307E+06    -27.3719E+06    -26.9893E+06     27.5429E+06    -10.1317E+06     3.08881E+06         38.4450
             959     11.3688E-03     15.7382E-03         3.13810        -1.24157        -1.52684        -1.17604         3.07257        -1.52684    -919.231E-03     114.316E-03    -54.0435E-03    -60.2720E-03    -60.0804E-03     114.124E-03    -54.0435E-03     10.4683E-03    -10.0226E+06    -19.6774E+06    -50.3985E+06    -27.2918E+06    -42.7841E+06    -10.0226E+06     3.95531E+06         36.3877
             960     10.4291E-03     15.7143E-03         3.25264        -1.29671        -1.55063        -1.28883         3.24475        -1.55063    -46.4598E-03     112.541E-03    -53.5740E-03    -58.9666E-03    -58.8939E-03     112.468E-03    -53.5740E-03     4.20514E-03    -9.69823E+06    -28.7840E+06    -96.0203E+06    -29.2585E+06    -95.5458E+06    -9.69823E+06     5.41833E+06         34.5919
             961     9.48430E-03     15.6975E-03         3.38855        -1.38285        -1.56986        -1.37948         3.38518        -1.56986     91.1693E-03     110.845E-03    -53.1119E-03    -57.7334E-03    -57.6932E-03     110.805E-03    -53.1119E-03    -2.16063E-03    -8.73259E+06    -32.3013E+06    -132.914E+06    -32.7639E+06    -132.451E+06    -8.73259E+06     6.75882E+06         33.0852
             962     8.54046E-03     15.6829E-03         3.51565        -1.46757        -1.58421        -1.46604         3.51412        -1.58421    -162.007E-03     109.368E-03    -52.6536E-03    -56.7148E-03    -56.6404E-03     109.294E-03    -52.6536E-03    -5.69805E-03    -8.37444E+06    -35.7917E+06    -160.352E+06    -36.2369E+06    -159.906E+06    -8.37444E+06     7.38248E+06         31.8563
             963     7.59572E-03     15.6723E-03         3.64175        -1.54975        -1.59655        -1.55343         3.64067        -1.59179    -70.3342E-03     107.379E-03    -52.2297E-03    -55.1490E-03    -55.0526E-03     107.282E-03    -52.2297E-03    -7.04726E-03    -11.0227E+06    -39.1912E+06    -185.596E+06    -39.5672E+06    -185.220E+06    -11.0227E+06     7.39048E+06         30.8709
             964     6.64747E-03     15.6634E-03         3.74656        -1.59167        -1.62752        -1.61148         3.73053        -1.59167     428.435E-03     105.666E-03    -51.8934E-03    -53.7722E-03    -53.6543E-03     105.548E-03    -51.8934E-03    -7.87275E-03    -14.8367E+06    -43.3155E+06    -208.142E+06    -43.7018E+06    -207.755E+06    -14.8367E+06     7.87386E+06         30.0885
             965     5.69914E-03     15.6560E-03         3.97079        -1.58516        -1.83377        -1.63516         3.77218        -1.58516         1.86185     104.480E-03    -51.6168E-03    -52.8636E-03    -52.7504E-03     104.367E-03    -51.6168E-03    -7.65158E-03    -22.4424E+06    -49.0629E+06    -227.346E+06    -49.4474E+06    -226.961E+06    -22.4424E+06     8.16235E+06         29.4728
             966     4.75084E-03     15.6490E-03         3.93654        -1.57362        -1.80363        -1.61324         3.74905        -1.57651         1.63578     103.467E-03    -51.3999E-03    -52.0670E-03    -51.9783E-03     103.378E-03    -51.3999E-03    -6.92479E-03    -32.2090E+06    -55.5402E+06    -247.059E+06    -55.8161E+06    -246.784E+06    -32.2090E+06     7.09738E+06         28.9943
             967     3.80078E-03     15.6440E-03         4.33708        -1.56551        -2.21744        -1.59861         3.72115        -1.56840         3.01395     102.755E-03    -51.2477E-03    -51.5076E-03    -51.4273E-03     102.689E-03    -51.2613E-03    -5.94247E-03    -41.7050E+06    -61.9097E+06    -267.817E+06    -62.0643E+06    -267.663E+06    -41.7050E+06     5.48896E+06         28.6302
             968     2.85021E-03     15.6400E-03         4.87016        -1.56557        -2.76853        -1.55681         3.65843        -1.56557     92.8799E-03     102.346E-03    -51.0783E-03    -51.2676E-03    -51.1438E-03     102.305E-03    -51.1608E-03    -4.53189E-03    -54.1518E+06    -68.8745E+06    -281.548E+06    -68.9630E+06    -281.460E+06    -54.1518E+06     4.23816E+06         28.3635
             969     1.90088E-03     15.6369E-03         6.38897        -1.56331        -4.29968        -1.57645         3.66575        -1.56331         3.65816     102.119E-03    -50.9657E-03    -51.1534E-03    -50.9920E-03     102.099E-03    -51.1073E-03    -3.08890E-03    -66.5106E+06    -74.5090E+06    -290.264E+06    -74.5521E+06    -290.221E+06    -66.5106E+06     2.68298E+06         28.1813
             970     950.082E-06     15.6345E-03         12.2143        -1.43010        -10.2636        -1.68928         3.63998        -1.43010        -8.90195     102.151E-03    -50.9448E-03    -51.2062E-03    -51.1267E-03     102.144E-03    -51.0176E-03    -1.83877E-03    -75.4832E+06    -80.0331E+06    -298.145E+06    -79.0359E+06    -298.132E+06    -76.4933E+06     676.205E+03         28.0732
             971     16.0804E-03     14.9240E-03         1.91177    -383.233E-03        -1.22800    -334.151E-03         1.86269        -1.22800    -315.644E-03     120.014E-03    -56.3697E-03    -63.6444E-03    -58.6637E-03     115.033E-03    -56.3697E-03     53.8287E-03     131.111E+06     119.318E+06    -7.45222E+06    -7.45117E+06     131.110E+06     119.318E+06     25.3185E+03         47.0304
             972     15.1357E-03     14.8265E-03         2.15766    -549.327E-03        -1.27111    -495.512E-03         2.10384        -1.27111    -706.067E-03     124.732E-03    -55.8969E-03    -68.8353E-03    -61.5458E-03     117.443E-03    -55.8969E-03     73.1030E-03     122.740E+06     91.7204E+06    -14.9171E+06    -14.9001E+06     122.724E+06     91.7204E+06     1.16100E+06         45.0928
             973     14.2000E-03     14.7534E-03         2.45761    -782.193E-03        -1.30830    -661.440E-03         2.33686        -1.30830        -1.10993     123.241E-03    -55.0979E-03    -68.1428E-03    -63.7822E-03     118.880E-03    -55.0979E-03     56.4037E-03     112.833E+06     43.7687E+06    -21.1291E+06    -21.0694E+06     112.774E+06     43.7687E+06     2.72038E+06         42.8861
             974     13.2634E-03     14.6824E-03         2.73586    -996.451E-03        -1.34079    -825.796E-03         2.56521        -1.34079        -1.53643     119.989E-03    -54.2000E-03    -65.7889E-03    -63.8628E-03     118.063E-03    -54.2000E-03     35.6239E-03     87.1896E+06     3.08213E+06    -24.3915E+06    -24.3094E+06     87.1076E+06     3.08213E+06     3.01183E+06         40.5771
             975     12.3242E-03     14.6444E-03         2.90643        -1.10287        -1.36850    -980.187E-03         2.78374        -1.36850        -1.38026     117.176E-03    -53.4213E-03    -63.7548E-03    -63.3332E-03     116.755E-03    -53.4213E-03     15.2592E-03     29.1509E+06    -9.40543E+06    -25.5736E+06    -24.9747E+06     28.0190E+06    -8.87239E+06     3.23744E+06         38.3227
             976     11.3874E-03     14.6164E-03         3.05534        -1.19191        -1.39079        -1.11942         2.98286        -1.39079        -1.00180     114.718E-03    -52.6916E-03    -62.0262E-03    -61.9735E-03     114.665E-03    -52.6916E-03     3.13080E-03    -9.89713E+06    -19.5293E+06    -51.5660E+06    -26.5447E+06    -44.5506E+06    -9.89713E+06     4.09938E+06         36.2456
             977     10.4443E-03     14.5963E-03         3.14376        -1.22850        -1.40775        -1.21720         3.13247        -1.40775    -184.975E-03     112.349E-03    -51.9437E-03    -60.4057E-03    -60.3501E-03     112.294E-03    -51.9437E-03    -3.89022E-03    -9.24733E+06    -28.4616E+06    -96.5261E+06    -28.9576E+06    -96.0301E+06    -9.24733E+06     5.78064E+06         34.4224
             978     9.50400E-03     14.5801E-03         3.23806        -1.27954        -1.42130        -1.27708         3.23561        -1.42130     2.26200E-03     110.083E-03    -51.1884E-03    -58.8949E-03    -58.7115E-03     109.900E-03    -51.1884E-03    -9.91179E-03    -8.18133E+06    -30.7895E+06    -132.630E+06    -31.3262E+06    -132.094E+06    -8.18133E+06     7.29920E+06         32.8827
             979     8.56004E-03     14.5697E-03         3.33407        -1.33673        -1.43235        -1.33302         3.33036        -1.43235    -254.294E-03     107.152E-03    -50.4774E-03    -56.6746E-03    -56.3639E-03     106.841E-03    -50.4774E-03    -13.6304E-03    -7.06086E+06    -33.0426E+06    -159.958E+06    -33.5236E+06    -159.477E+06    -7.06086E+06     7.77639E+06         31.6169
             980     7.61233E-03     14.5618E-03         3.44855        -1.40318        -1.44941        -1.41176         3.44599        -1.43826    -135.321E-03     104.442E-03    -49.8511E-03    -54.5908E-03    -54.2064E-03     104.058E-03    -49.8511E-03    -14.8992E-03    -9.46301E+06    -36.8388E+06    -184.959E+06    -37.3126E+06    -184.486E+06    -9.46301E+06     8.31928E+06         30.5934
             981     6.66517E-03     14.5548E-03         3.54621        -1.43583        -1.48494        -1.47901         3.54028        -1.43583     253.953E-03     102.213E-03    -49.3130E-03    -52.8997E-03    -52.4988E-03     101.812E-03    -49.3130E-03    -15.1810E-03    -13.6597E+06    -41.8066E+06    -207.960E+06    -42.3324E+06    -207.434E+06    -13.6597E+06      9.2938E+06         29.7746
             982     5.71577E-03     14.5493E-03         3.76488        -1.42579        -1.69208        -1.49908         3.57188        -1.42579         1.66500     100.102E-03    -48.8576E-03    -51.2448E-03    -50.8927E-03     99.7503E-03    -48.8576E-03    -14.1461E-03    -20.0171E+06    -46.9432E+06    -225.633E+06    -47.4986E+06    -225.078E+06    -20.0171E+06     9.87804E+06         29.1254
             983     4.76409E-03     14.5438E-03         3.71758        -1.41131        -1.65202        -1.46125         3.52970        -1.41421         1.38728     98.3480E-03    -48.5061E-03    -49.8419E-03    -49.5617E-03     98.0677E-03    -48.5061E-03    -12.4022E-03    -30.4652E+06    -53.0895E+06    -243.577E+06    -53.5340E+06    -243.132E+06    -30.4652E+06     9.04658E+06         28.6174
             984     3.81208E-03     14.5402E-03         4.13574        -1.40221        -2.08749        -1.43479         3.48594        -1.40511         2.80336     97.2616E-03    -48.2631E-03    -48.9984E-03    -48.8040E-03     97.0671E-03    -48.2631E-03    -10.2979E-03    -41.2676E+06    -59.8677E+06    -264.466E+06    -60.1558E+06    -264.178E+06    -41.2676E+06     7.49443E+06         28.2286
             985     2.85998E-03     14.5360E-03         4.79276        -1.39779        -2.76014        -1.41584         3.44846        -1.39779    -86.1106E-03     96.5292E-03    -48.0741E-03    -48.4550E-03    -48.3354E-03     96.4095E-03    -48.0741E-03    -8.04650E-03    -52.0857E+06    -66.3129E+06    -278.338E+06    -66.4767E+06    -278.174E+06    -52.0857E+06     5.76021E+06         27.9425
             986     1.90629E-03     14.5340E-03         6.39728        -1.39189        -4.38350        -1.40148         3.41527        -1.39189         3.63084     95.9734E-03    -47.8891E-03    -48.0842E-03    -47.9863E-03     95.9173E-03    -47.9309E-03    -5.24977E-03    -63.5714E+06    -71.8737E+06    -286.416E+06    -71.9708E+06    -286.319E+06    -63.5714E+06     4.45790E+06         27.7464
             987     953.326E-06     14.5313E-03         12.4068        -1.44387        -10.3459        -1.33429         3.39513        -1.44387        -9.02614     95.7158E-03    -47.6526E-03    -48.0632E-03    -48.0038E-03     95.6982E-03    -47.6944E-03    -2.96616E-03    -73.1892E+06    -77.3483E+06    -295.858E+06    -76.3797E+06    -295.817E+06    -74.1993E+06     1.48386E+06         27.6299
             988     16.0815E-03     13.7966E-03         1.96750    -435.235E-03        -1.11485    -386.223E-03         1.91849        -1.11485    -339.277E-03     123.063E-03    -56.1840E-03    -66.8786E-03    -61.9619E-03     118.146E-03    -56.1840E-03     54.8146E-03     130.088E+06     119.147E+06    -7.48064E+06    -7.46640E+06     130.074E+06     119.147E+06     850.721E+03         46.9179
             989     15.1455E-03     13.7039E-03         2.17866    -578.067E-03        -1.14660    -520.269E-03         2.12086        -1.14660    -751.440E-03     127.810E-03    -55.4792E-03    -72.3310E-03    -65.3643E-03     120.844E-03    -55.4792E-03     72.7073E-03     121.103E+06     91.6076E+06    -15.0772E+06    -15.0419E+06     121.068E+06     91.6076E+06     2.01035E+06         44.9875
             990     14.2102E-03     13.6165E-03         2.44125    -783.195E-03        -1.17278    -661.550E-03         2.31961        -1.17278        -1.12844     125.902E-03    -54.4082E-03    -71.4935E-03    -67.6307E-03     122.039E-03    -54.4082E-03     53.8746E-03     113.180E+06     46.9026E+06    -20.0308E+06    -19.9829E+06     113.132E+06     46.9026E+06     1.94331E+06         42.7878
             991     13.2772E-03     13.5605E-03         2.69174    -981.651E-03        -1.19519    -802.813E-03         2.51290        -1.19519        -1.56797     122.207E-03    -53.1861E-03    -69.0210E-03    -67.4902E-03     120.676E-03    -53.1861E-03     31.8062E-03     89.5244E+06     6.06721E+06    -21.8076E+06    -21.7105E+06     89.4273E+06     6.06721E+06     2.52293E+06         40.4816
             992     12.3418E-03     13.5157E-03         2.82704        -1.06456        -1.21380    -933.600E-03         2.69608        -1.21380        -1.40040     118.474E-03    -52.0697E-03    -66.4047E-03    -66.1407E-03     118.210E-03    -52.0697E-03     9.92553E-03     29.1547E+06    -12.1663E+06    -24.8094E+06    -23.8282E+06     26.0044E+06    -9.99726E+06     3.72899E+06         38.2212
             993     11.4052E-03     13.4955E-03         2.93410        -1.12066        -1.22823        -1.04303         2.85647        -1.22823        -1.05631     115.516E-03    -51.0189E-03    -64.4975E-03    -64.4581E-03     115.477E-03    -51.0189E-03    -2.95009E-03    -8.91659E+06    -21.1336E+06    -50.3060E+06    -26.0500E+06    -45.3896E+06    -8.91659E+06     4.77373E+06         36.1278
             994     10.4685E-03     13.4779E-03         2.98339        -1.12758        -1.23893        -1.10986         2.96567        -1.23893    -300.364E-03     112.466E-03    -49.9121E-03    -62.5538E-03    -62.3794E-03     112.292E-03    -49.9121E-03    -10.0645E-03    -8.36583E+06    -27.3924E+06    -96.2464E+06    -28.0532E+06    -95.5855E+06    -8.36583E+06     6.51910E+06         34.2781
             995     9.52665E-03     13.4644E-03         3.04623        -1.15482        -1.24758        -1.15152         3.04293        -1.24758    -79.7500E-03     108.833E-03    -48.8119E-03    -60.0213E-03    -59.5363E-03     108.348E-03    -48.8119E-03    -17.2870E-03    -8.22985E+06    -29.1613E+06    -133.850E+06    -29.6469E+06    -133.365E+06    -8.22985E+06     6.94541E+06         32.7029
             996     8.58267E-03     13.4602E-03         3.13442        -1.20480        -1.25816        -1.20229         3.12780        -1.25405    -333.358E-03     105.039E-03    -47.7931E-03    -57.2461E-03    -56.5144E-03     104.307E-03    -47.7931E-03    -21.3728E-03    -5.30441E+06    -31.4819E+06     -159.49E+06    -31.9986E+06    -158.973E+06    -5.30441E+06     8.00486E+06         31.3956
             997     7.63724E-03     13.4541E-03         3.23197        -1.24209        -1.28885        -1.27188         3.22804        -1.25512    -192.382E-03     101.366E-03    -46.8595E-03    -54.5064E-03    -53.6598E-03     100.519E-03    -46.8595E-03    -22.6053E-03    -7.24610E+06    -35.3846E+06    -184.352E+06    -36.0136E+06    -183.723E+06    -7.24610E+06     9.59195E+06         30.3278
             998     6.68737E-03     13.4517E-03         3.30186        -1.24826        -1.32413        -1.32223         3.29996        -1.24826     120.549E-03     97.8377E-03    -46.0417E-03    -51.7960E-03    -50.9297E-03     96.9713E-03    -46.0417E-03    -22.3682E-03    -12.3702E+06    -39.9702E+06    -207.755E+06    -40.5547E+06    -207.170E+06    -12.3702E+06     9.88507E+06         29.4643
             999     5.73564E-03     13.4478E-03         3.49731        -1.23425        -1.51474        -1.33380         3.31636        -1.23425         1.46763     94.7040E-03    -45.3651E-03    -49.3388E-03    -48.5767E-03     93.9418E-03    -45.3651E-03    -20.5342E-03    -18.3303E+06    -44.5626E+06    -224.274E+06    -45.1941E+06    -223.643E+06    -18.3303E+06     10.6318E+06         28.7724
            1000     4.78237E-03     13.4464E-03         3.45332        -1.21691        -1.48430        -1.30316         3.27218        -1.21691         1.20514     92.2193E-03    -44.8248E-03    -47.3946E-03    -46.7950E-03     91.6198E-03    -44.8248E-03    -17.9221E-03    -27.3404E+06    -49.7358E+06    -240.321E+06    -50.4034E+06    -239.653E+06    -27.3404E+06     11.1841E+06         28.2253
            1001     3.82715E-03     13.4422E-03         3.84031        -1.20128        -1.89757        -1.25346         3.19621        -1.20128         2.56689     90.3395E-03    -44.4127E-03    -45.9267E-03    -45.5116E-03     89.9243E-03    -44.4127E-03    -14.6897E-03    -38.8226E+06    -56.0162E+06    -260.839E+06    -56.5389E+06    -260.316E+06    -38.8226E+06     10.0930E+06         27.8026
            1002     2.87094E-03     13.4407E-03         4.46668        -1.19165        -2.54240        -1.20746         3.13174        -1.19165    -100.323E-03     89.0155E-03    -44.0975E-03    -44.9180E-03    -44.6649E-03     88.7624E-03    -44.0975E-03    -11.2633E-03    -50.2557E+06    -62.6320E+06    -273.845E+06    -62.9318E+06    -273.545E+06    -50.2557E+06     7.78984E+06         27.4887
            1003     1.91458E-03     13.4382E-03         5.96623        -1.19725        -4.05766        -1.16259         3.07116        -1.19725         3.35037     88.1060E-03    -43.8388E-03    -44.2672E-03    -44.1493E-03     87.9881E-03    -43.8388E-03    -7.55342E-03    -61.9832E+06    -69.1166E+06    -281.211E+06    -69.2794E+06    -281.048E+06    -61.9832E+06     5.71463E+06         27.2720
            1004     957.501E-06     13.4366E-03         11.6838        -1.39674        -9.57965        -1.01431         3.11848        -1.39674        -8.47137     87.4408E-03    -43.5556E-03    -43.8853E-03    -43.8459E-03     87.4014E-03    -43.5556E-03    -4.17765E-03    -70.1639E+06    -73.3534E+06    -290.501E+06    -72.7582E+06    -290.440E+06    -70.8202E+06     2.85448E+06         27.1425
            1005     16.0861E-03     12.6713E-03         2.04163    -500.166E-03    -982.764E-03    -453.073E-03         1.99453    -982.764E-03    -354.744E-03     127.351E-03    -55.9485E-03    -71.4025E-03    -66.2673E-03     122.216E-03    -55.9485E-03     56.8912E-03     128.335E+06     119.811E+06    -7.69355E+06    -7.67572E+06     128.317E+06     119.811E+06     1.22132E+06         46.7972
            1006     15.1525E-03     12.5666E-03         2.19829    -607.024E-03        -1.00183    -546.447E-03         2.13771        -1.00183    -790.896E-03     131.213E-03    -54.9898E-03    -76.2229E-03    -69.1617E-03     124.152E-03    -54.9898E-03     74.2755E-03     121.139E+06     94.7270E+06    -13.7315E+06    -13.6996E+06     121.107E+06     94.7270E+06     1.84270E+06         44.8804
            1007     14.2217E-03     12.4899E-03         2.39636    -766.083E-03        -1.01659    -647.778E-03         2.27806        -1.01659        -1.12194     128.258E-03    -53.6433E-03    -74.6144E-03    -70.8578E-03     124.501E-03    -53.6433E-03     54.0346E-03     112.794E+06     47.1588E+06    -18.8246E+06    -18.7724E+06     112.741E+06     47.1588E+06     1.76221E+06         42.6949
            1008     13.2908E-03     12.4233E-03         2.60980    -939.688E-03        -1.02923    -757.708E-03         2.42782        -1.02923        -1.56077     124.995E-03    -52.1089E-03    -72.8866E-03    -71.4313E-03     123.540E-03    -52.1089E-03     29.9776E-03     88.9737E+06     4.53308E+06    -22.6713E+06    -22.5763E+06     88.8786E+06     4.53308E+06     2.40331E+06         40.4000
            1009     12.3623E-03     12.3923E-03         2.70787    -993.363E-03        -1.04149    -861.145E-03         2.57379        -1.03962        -1.37367     120.485E-03    -50.6376E-03    -69.8478E-03    -69.7090E-03     120.347E-03    -50.6376E-03     6.15537E-03     30.5169E+06    -11.9926E+06    -25.5239E+06    -24.2326E+06     26.4370E+06    -9.20393E+06     3.65485E+06         38.1439
            1010     11.4267E-03     12.3716E-03         2.77371        -1.01522        -1.05474    -943.689E-03         2.69455        -1.04711        -1.06346     116.702E-03    -49.2047E-03    -67.4968E-03    -67.3998E-03     116.604E-03    -49.2047E-03    -6.62418E-03    -8.03914E+06    -21.0446E+06    -50.9372E+06    -25.1852E+06    -46.7967E+06    -8.03914E+06     5.09010E+06         36.0432
            1011     10.4909E-03     12.3579E-03         2.80223        -1.01298        -1.05814    -993.015E-03         2.77593        -1.05180    -371.726E-03     112.870E-03    -47.7063E-03    -65.1639E-03    -64.7528E-03     112.459E-03    -47.7063E-03    -15.9698E-03    -5.38364E+06    -25.6131E+06    -95.2613E+06    -26.2598E+06    -94.6147E+06    -5.38364E+06     6.45860E+06         34.1743
            1012     9.55271E-03     12.3528E-03         2.84295        -1.02253        -1.06556        -1.02807         2.83760        -1.05466    -125.497E-03     107.839E-03    -46.2118E-03    -61.6276E-03    -60.7865E-03     106.998E-03    -46.2118E-03    -23.3959E-03    -6.20709E+06    -27.7996E+06    -133.615E+06    -28.3201E+06    -133.094E+06    -6.20709E+06     7.28528E+06         32.5689
            1013     8.60995E-03     12.3508E-03         2.91222        -1.04483        -1.08808        -1.06901         2.90325        -1.05493    -375.912E-03     102.983E-03    -44.8149E-03    -58.1685E-03    -56.9884E-03     101.803E-03    -44.8149E-03    -27.3047E-03    -4.83154E+06    -31.1066E+06    -161.099E+06    -31.6670E+06    -160.539E+06    -4.83154E+06     8.37863E+06         31.2228
            1014     7.66300E-03     12.3521E-03         2.97884        -1.05034        -1.11883        -1.11448         2.97449        -1.05034    -217.116E-03     98.0622E-03    -43.5245E-03    -54.5377E-03    -53.1924E-03     96.7169E-03    -43.5245E-03    -28.3737E-03    -5.03376E+06    -34.0746E+06    -183.892E+06    -34.7393E+06    -183.227E+06    -5.03376E+06     9.87225E+06         30.1110
            1015     6.71332E-03     12.3531E-03         3.02316        -1.03921        -1.14536        -1.14442         3.02222        -1.03921     48.1432E-03     93.2771E-03    -42.3719E-03    -50.9052E-03    -49.5344E-03     91.9064E-03    -42.3719E-03    -27.8539E-03    -10.1285E+06    -37.9626E+06    -206.899E+06    -38.6523E+06    -206.209E+06    -10.1285E+06     10.7379E+06         29.2007
            1016     5.75959E-03     12.3549E-03         3.19572        -1.02145        -1.31863        -1.14917         3.02626        -1.02145         1.31329     89.0227E-03    -41.3862E-03    -47.6365E-03    -46.3884E-03     87.7746E-03    -41.3862E-03    -25.8375E-03    -16.9520E+06    -42.8037E+06    -223.409E+06    -43.4912E+06    -222.722E+06    -16.9520E+06     11.1067E+06         28.4618
            1017     4.80306E-03     12.3544E-03         3.14045    -999.460E-03        -1.28610        -1.11539         2.96973    -999.460E-03         1.10545     85.3980E-03    -40.5763E-03    -44.8217E-03    -43.8232E-03     84.3995E-03    -40.5763E-03    -22.4910E-03    -24.5971E+06    -47.3012E+06    -237.847E+06    -48.0075E+06    -237.141E+06    -24.5971E+06     11.5462E+06         27.8697
            1018     3.84506E-03     12.3548E-03         3.47069    -979.331E-03        -1.65082        -1.04797         2.86785    -979.331E-03         2.33114     82.4649E-03    -39.9464E-03    -42.5184E-03    -41.8049E-03     81.7513E-03    -39.9464E-03    -18.5671E-03    -34.0290E+06    -51.7882E+06    -255.717E+06    -52.4855E+06    -255.020E+06    -34.0290E+06     11.7943E+06         27.4063
            1019     2.88471E-03     12.3533E-03         4.00593    -965.886E-03        -2.20936    -994.358E-03         2.79093    -965.886E-03    -13.3400E-03     80.3367E-03    -39.4578E-03    -40.8789E-03    -40.4515E-03     79.9093E-03    -39.4578E-03    -14.0668E-03    -46.5776E+06    -57.2648E+06    -268.296E+06    -57.7868E+06    -267.774E+06    -46.5776E+06     10.2898E+06         27.0580
            1020     1.92394E-03     12.3523E-03         5.28709    -972.269E-03        -3.50397    -926.906E-03         2.71003    -972.269E-03         2.93876     78.8934E-03    -39.0815E-03    -39.8120E-03    -39.6043E-03     78.6857E-03    -39.0815E-03    -9.59112E-03    -57.2333E+06    -62.1926E+06    -275.122E+06    -62.4217E+06    -274.893E+06    -57.2333E+06     6.51247E+06         26.8150
            1021     962.099E-06     12.3520E-03         10.3567        -1.24756        -8.30144    -719.183E-03         2.77442        -1.24756        -7.44149     77.8835E-03    -38.8110E-03    -39.0725E-03    -39.0018E-03     77.8128E-03    -38.8110E-03    -5.19855E-03    -62.4576E+06    -65.0090E+06    -282.728E+06    -64.4208E+06    -282.660E+06    -63.1139E+06     3.77028E+06         26.6686
            1022     16.0906E-03     11.5384E-03         2.12250    -566.855E-03    -837.431E-03    -525.742E-03         2.08139    -837.431E-03    -345.340E-03     131.334E-03    -55.7059E-03    -75.6286E-03    -70.3712E-03     126.077E-03    -55.7059E-03     58.7426E-03     127.646E+06     120.829E+06    -6.70009E+06    -6.69348E+06     127.639E+06     120.829E+06     775.713E+03         46.6585
            1023     15.1604E-03     11.4310E-03         2.20789    -630.395E-03    -843.656E-03    -571.441E-03         2.14893    -843.656E-03    -797.960E-03     133.860E-03    -54.5164E-03    -79.3437E-03    -72.2050E-03     126.721E-03    -54.5164E-03     75.6815E-03     120.015E+06     95.4918E+06    -13.5846E+06    -13.5682E+06     119.999E+06     95.4918E+06     1.32300E+06         44.7593
            1024     14.2311E-03     11.3552E-03         2.32900    -724.798E-03    -853.541E-03    -624.811E-03         2.22271    -847.237E-03        -1.06720     131.066E-03    -52.9269E-03    -78.1388E-03    -74.3717E-03     127.299E-03    -52.9269E-03     55.0046E-03     111.437E+06     47.9651E+06    -19.2469E+06    -19.1940E+06     111.384E+06     47.9651E+06     2.22276E+06         42.5954
            1025     13.3055E-03     11.2876E-03         2.49242    -834.263E-03    -885.604E-03    -693.208E-03         2.31659    -850.827E-03        -1.49542     127.188E-03    -51.1072E-03    -76.0811E-03    -74.6662E-03     125.773E-03    -51.1072E-03     28.8266E-03     87.3943E+06     5.56441E+06    -21.8326E+06    -21.7676E+06     87.3293E+06     5.56441E+06     2.47742E+06         40.3215
            1026     12.3759E-03     11.2627E-03         2.55209    -853.468E-03    -898.580E-03    -765.427E-03         2.41967    -854.193E-03        -1.30017     122.768E-03    -49.3070E-03    -73.4612E-03    -73.3767E-03     122.684E-03    -49.3070E-03     3.69251E-03     31.4289E+06    -9.94426E+06    -24.7541E+06    -23.4322E+06     26.7744E+06    -6.61174E+06     3.62143E+06         38.0817
            1027     11.4482E-03     11.2463E-03         2.59268    -855.724E-03    -909.575E-03    -832.461E-03         2.51557    -855.724E-03        -1.02343     118.493E-03    -47.4729E-03    -71.0200E-03    -70.8748E-03     118.348E-03    -47.4729E-03    -8.72789E-03    -6.44740E+06    -20.0308E+06    -51.7671E+06    -25.8142E+06    -45.9837E+06    -6.44740E+06     5.64743E+06         35.9893
            1028     10.5159E-03     11.2387E-03         2.61908    -854.299E-03    -916.878E-03    -880.810E-03         2.58301    -854.299E-03    -393.890E-03     112.966E-03    -45.5822E-03    -67.3843E-03    -66.8190E-03     112.401E-03    -45.5822E-03    -19.3148E-03    -4.30286E+06    -26.6502E+06    -96.1854E+06    -27.2425E+06    -95.5931E+06    -4.30286E+06     5.97031E+06         34.1173
            1029     9.57771E-03     11.2411E-03         2.62858    -850.543E-03    -913.799E-03    -905.585E-03         2.62037    -850.543E-03    -122.640E-03     107.068E-03    -43.7206E-03    -63.3476E-03    -62.3014E-03     106.022E-03    -43.7206E-03    -26.4714E-03    -2.61749E+06    -27.4491E+06    -132.366E+06    -27.9110E+06    -131.904E+06    -2.61749E+06     6.87836E+06         32.4974
            1030     8.63569E-03     11.2456E-03         2.66247    -844.636E-03    -930.534E-03    -920.900E-03         2.65284    -844.636E-03    -360.209E-03     101.105E-03    -41.9355E-03    -59.1694E-03    -57.7176E-03     99.6530E-03    -41.9355E-03    -30.2280E-03    -1.98210E+06    -28.7902E+06    -161.040E+06    -29.2378E+06    -160.592E+06    -1.98210E+06     7.56550E+06         31.1270
            1031     7.68948E-03     11.2536E-03         2.70058    -835.228E-03    -946.037E-03    -942.805E-03         2.69734    -835.228E-03    -194.128E-03     95.0843E-03    -40.2738E-03    -54.8105E-03    -53.0680E-03     93.3418E-03    -40.2738E-03    -32.0708E-03    -1.28150E+06    -31.1156E+06    -185.147E+06    -31.6612E+06    -184.602E+06    -1.28150E+06     9.04187E+06         29.9826
            1032     6.73814E-03     11.2604E-03         2.73052    -820.293E-03    -960.447E-03    -959.183E-03         2.72926    -820.293E-03     26.4630E-03     89.0959E-03    -38.7603E-03    -50.3356E-03    -48.5671E-03     87.3274E-03    -38.7603E-03    -31.1558E-03    -4.10926E+06    -34.3543E+06    -205.175E+06    -35.0450E+06    -204.484E+06    -4.10926E+06     10.7953E+06         29.0338
            1033     5.78375E-03     11.2674E-03         2.86638    -800.024E-03        -1.10160    -942.865E-03         2.70764    -800.024E-03         1.19118     83.6348E-03    -37.4180E-03    -46.2168E-03    -44.6160E-03     82.0340E-03    -37.4180E-03    -28.6110E-03    -10.1767E+06    -38.0469E+06    -221.036E+06    -38.6950E+06    -220.388E+06    -10.1767E+06     10.8287E+06         28.2525
            1034     4.82541E-03     11.2721E-03         2.79530    -777.228E-03        -1.05695    -898.386E-03         2.63673    -777.228E-03         1.06266     78.6690E-03    -36.2821E-03    -42.3869E-03    -41.0751E-03     77.3572E-03    -36.2821E-03    -25.0014E-03    -17.8750E+06    -42.1496E+06    -235.837E+06    -42.8076E+06    -235.179E+06    -17.8750E+06     11.2396E+06         27.6170
            1035     3.86330E-03     11.2752E-03         3.06790    -755.670E-03        -1.37095    -837.787E-03         2.53473    -755.670E-03         2.10089     74.6125E-03    -35.3715E-03    -39.2410E-03    -38.2969E-03     73.6684E-03    -35.3715E-03    -20.5130E-03    -26.9245E+06    -47.0782E+06    -251.589E+06    -47.7643E+06    -250.903E+06    -26.9245E+06     11.7619E+06         27.1121
            1036     2.89979E-03     11.2769E-03         3.48236    -736.099E-03        -1.81470    -794.681E-03         2.46234    -736.099E-03     124.110E-03     71.4668E-03    -34.6597E-03    -36.8072E-03    -36.2320E-03     70.8916E-03    -34.6597E-03    -15.5485E-03    -37.2911E+06    -51.0147E+06    -261.110E+06    -51.5462E+06    -260.578E+06    -37.2911E+06     10.3618E+06         26.7274
            1037     1.93371E-03     11.2771E-03         4.49825    -732.724E-03        -2.84920    -707.988E-03         2.35704    -732.724E-03         2.50215     69.2212E-03    -34.1629E-03    -35.0583E-03    -34.7721E-03     68.9351E-03    -34.1629E-03    -10.6199E-03    -47.8583E+06    -53.4960E+06    -268.205E+06    -53.7391E+06    -267.962E+06    -47.8583E+06     6.83285E+06         26.4556
            1038     967.324E-06     11.2779E-03         8.75872        -1.03165        -6.80271    -446.006E-03         2.40202        -1.03165        -6.18831     68.0291E-03    -33.7700E-03    -34.2591E-03    -34.1611E-03     67.9311E-03    -33.7700E-03    -5.88240E-03    -53.9262E+06    -55.5504E+06    -275.684E+06    -55.6267E+06    -275.608E+06    -53.9262E+06     3.33704E+06         26.2903
            1039     16.0949E-03     10.3967E-03         2.19831    -605.003E-03    -709.097E-03    -595.630E-03         2.16702    -687.178E-03    -305.640E-03     134.789E-03    -55.5272E-03    -79.2615E-03    -74.0414E-03     129.569E-03    -55.5272E-03     59.6684E-03     126.410E+06     121.037E+06    -8.38326E+06    -8.38064E+06     126.408E+06     121.037E+06     401.133E+03         46.4855
            1040     15.1660E-03     10.2992E-03         2.20734    -620.033E-03    -705.751E-03    -593.255E-03         2.15620    -681.392E-03    -753.042E-03     136.929E-03    -54.1232E-03    -82.8054E-03    -75.4084E-03     129.532E-03    -54.1232E-03     78.5728E-03     120.184E+06     97.4132E+06    -13.7730E+06    -13.7547E+06     120.165E+06     97.4132E+06     1.35652E+06         44.6068
            1041     14.2410E-03     10.2108E-03         2.25280    -642.883E-03    -723.081E-03    -605.001E-03         2.16620    -674.363E-03    -962.385E-03     133.660E-03    -52.3082E-03    -81.3518E-03    -77.4153E-03     129.723E-03    -52.3082E-03     56.5115E-03     111.589E+06     50.0862E+06    -18.6037E+06    -18.5818E+06     111.567E+06     50.0862E+06     1.34268E+06         42.4697
            1042     13.3169E-03     10.1550E-03         2.36479    -669.185E-03    -791.767E-03    -631.301E-03         2.20432    -669.185E-03        -1.38011     128.827E-03    -50.2488E-03    -78.5779E-03    -77.2974E-03     127.546E-03    -50.2488E-03     28.2887E-03     85.7596E+06     6.78717E+06    -21.6607E+06    -21.5571E+06     85.6559E+06     6.78717E+06     2.29172E+06         40.2261
            1043     12.3924E-03     10.1274E-03         2.39208    -665.453E-03    -798.193E-03    -673.495E-03         2.26738    -665.453E-03        -1.18653     124.107E-03    -48.2040E-03    -75.9033E-03    -75.7966E-03     124.001E-03    -48.2040E-03     3.38612E-03     31.6809E+06    -9.31292E+06    -25.3713E+06    -24.0499E+06     25.2850E+06    -4.23837E+06     4.72466E+06         38.0169
            1044     11.4652E-03     10.1197E-03         2.40944    -660.671E-03    -799.259E-03    -727.979E-03         2.33816    -660.671E-03    -940.256E-03     118.994E-03    -46.1142E-03    -72.8794E-03    -72.7585E-03     118.873E-03    -46.1142E-03    -8.75582E-03    -2.18700E+06    -19.1297E+06    -50.7188E+06    -25.7640E+06    -44.0845E+06    -2.18700E+06     5.85061E+06         35.9522
            1045     10.5330E-03     10.1200E-03         2.42704    -652.934E-03    -812.440E-03    -767.424E-03         2.38203    -652.934E-03    -385.059E-03     113.138E-03    -43.9434E-03    -69.1949E-03    -68.6859E-03     112.629E-03    -43.9434E-03    -18.1417E-03    -591.228E+03    -26.7770E+06    -96.0152E+06    -27.3331E+06    -95.4590E+06    -591.228E+03     5.60927E+06         34.1023
            1046     9.59786E-03     10.1300E-03         2.40046    -643.051E-03    -784.983E-03    -772.672E-03         2.38815    -643.051E-03    -108.309E-03     106.706E-03    -41.7651E-03    -64.9404E-03    -63.9250E-03     105.690E-03    -41.7651E-03    -26.1218E-03     1.72820E+06    -28.8259E+06    -131.843E+06    -29.0879E+06    -131.581E+06     1.72820E+06     5.05180E+06         32.4967
            1047     8.65702E-03     10.1427E-03         2.40432    -631.704E-03    -779.521E-03    -768.752E-03         2.39355    -631.704E-03    -334.978E-03     99.6100E-03    -39.6449E-03    -59.9651E-03    -58.5576E-03     98.2025E-03    -39.6449E-03    -29.7043E-03     2.59270E+06    -29.9336E+06    -160.336E+06    -30.1623E+06    -160.107E+06     2.59270E+06      5.2696E+06         31.1305
            1048     7.71147E-03     10.1574E-03         2.41939    -617.506E-03    -776.434E-03    -774.111E-03         2.41707    -617.506E-03    -168.019E-03     92.6482E-03    -37.6488E-03    -54.9995E-03    -53.3057E-03     90.9544E-03    -37.6488E-03    -31.3597E-03     3.30308E+06    -30.9228E+06    -186.199E+06    -31.2316E+06    -185.891E+06     3.30308E+06     6.63348E+06         29.9796
            1049     6.76068E-03     10.1737E-03         2.42828    -598.964E-03    -770.097E-03    -767.838E-03         2.42603    -598.964E-03     15.0320E-03     85.6397E-03    -35.8057E-03    -49.8340E-03    -48.0925E-03     83.8982E-03    -35.8057E-03    -30.4809E-03     3.62693E+06    -31.5611E+06    -203.729E+06    -31.9725E+06    -203.318E+06     3.62693E+06     8.17779E+06         29.0140
            1050     5.80401E-03     10.1852E-03         2.52323    -577.319E-03    -871.219E-03    -728.191E-03         2.38020    -577.319E-03         1.06047     78.9639E-03    -34.1501E-03    -44.8138E-03    -43.2288E-03     77.3790E-03    -34.1501E-03    -27.8162E-03    -1.19244E+06    -33.8922E+06    -219.743E+06    -34.3247E+06    -219.311E+06    -1.19244E+06     8.86989E+06         28.2073
            1051     4.84390E-03     10.1970E-03         2.44084    -554.710E-03    -821.826E-03    -679.773E-03         2.29879    -554.710E-03         1.00109     73.1276E-03    -32.7183E-03    -40.4093E-03    -39.1113E-03     71.8296E-03    -32.7183E-03    -24.0996E-03    -7.14701E+06    -37.5726E+06    -234.306E+06    -38.0912E+06    -233.788E+06    -7.14701E+06     9.95914E+06         27.5410
            1052     3.87983E-03     10.2044E-03         2.65870    -532.824E-03        -1.08656    -622.811E-03         2.19496    -532.824E-03         1.86804     68.0518E-03    -31.5073E-03    -36.5445E-03    -35.6099E-03     67.1172E-03    -31.5073E-03    -19.6182E-03    -15.1972E+06    -41.0702E+06    -246.974E+06    -41.5455E+06    -246.499E+06    -15.1972E+06     9.59247E+06         27.0033
            1053     2.91246E-03     10.2093E-03         2.95381    -510.779E-03        -1.41166    -583.178E-03         2.12533    -510.779E-03     254.166E-03     63.9088E-03    -30.5384E-03    -33.3704E-03    -32.7789E-03     63.3173E-03    -30.5384E-03    -15.0108E-03    -25.4384E+06    -43.9767E+06    -255.247E+06    -44.2395E+06    -254.984E+06    -25.4384E+06     6.93051E+06         26.5875
            1054     1.94306E-03     10.2131E-03         3.71877    -502.205E-03        -2.19587    -491.397E-03         2.01430    -502.205E-03         2.07266     60.9153E-03    -29.8509E-03    -31.0644E-03    -30.7681E-03     60.6191E-03    -29.8509E-03    -10.1637E-03    -35.7167E+06    -46.2462E+06    -261.732E+06    -46.3804E+06    -261.598E+06    -35.7167E+06     4.94533E+06         26.2899
            1055     971.444E-06     10.2137E-03         7.16273    -766.181E-03        -5.35912    -244.202E-03         2.04781    -766.181E-03        -4.95810     59.2004E-03    -29.3173E-03    -29.8831E-03    -29.7832E-03     59.1005E-03    -29.3173E-03    -5.62644E-03    -45.7029E+06    -49.1760E+06    -269.632E+06    -48.9034E+06    -269.558E+06    -46.0493E+06     3.23985E+06         26.1072
            1056     16.0950E-03     9.26142E-03         2.26361    -541.553E-03    -683.122E-03    -663.123E-03         2.24361    -541.553E-03    -236.106E-03     138.393E-03    -55.5261E-03    -82.8670E-03    -77.0388E-03     132.565E-03    -55.5261E-03     62.3666E-03     125.739E+06     121.497E+06    -7.96237E+06    -7.96160E+06     125.397E+06     121.838E+06     310.985E+03         46.2612
            1057     15.1704E-03     9.15374E-03         2.20444    -524.763E-03    -659.159E-03    -620.685E-03         2.16597    -524.763E-03    -654.733E-03     140.931E-03    -53.9546E-03    -86.9766E-03    -78.5488E-03     132.503E-03    -53.9546E-03     85.1180E-03     120.481E+06     100.129E+06    -13.3777E+06    -13.3679E+06     120.471E+06     100.129E+06     159.716E+03         44.4013
            1058     14.2483E-03     9.07199E-03         2.18476    -507.785E-03    -659.788E-03    -597.672E-03         2.12264    -507.785E-03    -813.097E-03     136.287E-03    -51.9599E-03    -84.3270E-03    -79.8691E-03     131.829E-03    -51.9599E-03     60.9562E-03     111.480E+06     52.6371E+06    -18.5332E+06    -18.4468E+06     111.394E+06     52.6371E+06     1.49443E+06         42.2925
            1059     13.3250E-03     9.01462E-03         2.25449    -493.483E-03    -730.423E-03    -598.411E-03         2.12247    -493.483E-03        -1.20528     130.117E-03    -49.7460E-03    -80.3707E-03    -78.8240E-03     128.570E-03    -49.7460E-03     32.0366E-03     83.4037E+06     7.96024E+06    -23.3908E+06    -23.1769E+06     83.1898E+06     7.96024E+06     3.91113E+06         40.0864
            1060     12.4017E-03     8.99401E-03         2.25840    -480.987E-03    -726.247E-03    -619.169E-03         2.15132    -480.987E-03        -1.03461     124.121E-03    -47.6074E-03    -76.5139E-03    -76.3589E-03     123.966E-03    -47.6074E-03     7.16077E-03     33.8939E+06    -8.14016E+06    -25.9007E+06    -25.0181E+06     24.4162E+06     454.935E+03     4.42793E+06         37.9228
            1061     11.4730E-03     8.99446E-03         2.24559    -467.895E-03    -711.377E-03    -648.486E-03         2.18270    -467.895E-03    -829.342E-03     118.596E-03    -45.4432E-03    -73.1531E-03    -73.0938E-03     118.537E-03    -45.4432E-03    -4.77537E-03     4.59958E+06    -19.7504E+06      -49.82E+06    -26.0125E+06    -43.5579E+06     4.59958E+06     4.51113E+06         35.9106
            1062     10.5430E-03     8.99963E-03         2.23574    -452.677E-03    -710.840E-03    -661.355E-03         2.18626    -452.677E-03    -367.522E-03     112.832E-03    -43.1707E-03    -69.6615E-03    -69.3379E-03     112.509E-03    -43.1707E-03    -13.8295E-03     6.97582E+06    -27.3519E+06    -94.0339E+06    -27.7018E+06     -93.684E+06     6.97582E+06     3.96558E+06         34.1171
            1063     9.60880E-03     9.01888E-03         2.17685    -436.124E-03    -664.355E-03    -647.449E-03         2.15994    -436.124E-03    -117.076E-03     105.932E-03    -40.8612E-03    -65.0708E-03    -64.4103E-03     105.272E-03    -40.8612E-03    -20.5711E-03     9.58172E+06    -29.2946E+06    -130.280E+06    -29.4029E+06    -130.172E+06     9.58172E+06     2.88971E+06         32.5656
            1064     8.66912E-03     9.04103E-03         2.15635    -418.369E-03    -644.192E-03    -630.395E-03         2.14255    -418.369E-03    -338.228E-03     98.3602E-03    -38.5956E-03    -59.7646E-03    -58.8874E-03     97.4831E-03    -38.5956E-03    -22.7405E-03     10.0469E+06    -31.0934E+06    -160.703E+06    -31.1642E+06    -160.632E+06     10.0469E+06     2.51679E+06         31.2456
            1065     7.72263E-03     9.06484E-03         2.13681    -398.677E-03    -608.922E-03    -605.694E-03         2.13358    -398.677E-03    -179.305E-03     90.9680E-03    -36.4277E-03    -54.5403E-03    -53.5043E-03     89.9320E-03    -36.4277E-03    -23.7928E-03     10.2548E+06    -31.6652E+06    -186.054E+06    -31.7457E+06    -185.973E+06     10.2548E+06      1.9455E+06         30.1287
            1066     6.77208E-03     9.08749E-03         2.11903    -376.672E-03    -578.305E-03    -574.600E-03         2.11533    -376.672E-03    -23.0511E-03     83.7253E-03    -34.3844E-03    -49.3409E-03    -48.2579E-03     82.6423E-03    -34.3844E-03    -23.3178E-03     10.9799E+06    -32.4191E+06    -204.844E+06    -32.5417E+06    -204.721E+06     10.9799E+06     2.85014E+06         29.1831
            1067     5.81635E-03     9.10962E-03         2.18340    -352.620E-03    -653.357E-03    -527.846E-03         2.05789    -352.620E-03     912.548E-03     76.5424E-03    -32.5059E-03    -44.0366E-03    -43.0336E-03     75.5395E-03    -32.5059E-03    -21.3270E-03     9.50556E+06    -33.7767E+06    -219.995E+06    -33.9643E+06    -219.807E+06     9.50556E+06     5.15168E+06         28.3829
            1068     4.85437E-03     9.12547E-03         2.09133    -327.294E-03    -599.493E-03    -474.475E-03         1.96631    -327.294E-03     890.589E-03     70.1105E-03    -30.8207E-03    -39.2897E-03    -38.4541E-03     69.2748E-03    -30.8207E-03    -18.6062E-03     3.95202E+06    -35.7251E+06    -232.577E+06    -35.9386E+06    -232.364E+06     3.95202E+06     5.49666E+06         27.7118
            1069     3.88975E-03     9.13955E-03         2.25155    -304.276E-03    -810.497E-03    -396.387E-03         1.83744    -304.276E-03         1.61573     64.4470E-03    -29.3406E-03    -35.1064E-03    -34.4826E-03     63.8232E-03    -29.3406E-03    -15.4062E-03    -5.16065E+06    -37.7194E+06    -242.579E+06    -37.8689E+06    -242.429E+06    -5.16065E+06     4.07052E+06         27.1615
            1070     2.92061E-03     9.14921E-03         2.45738    -284.404E-03        -1.05161    -348.950E-03         1.75472    -284.404E-03     303.623E-03     59.5685E-03    -28.1090E-03    -31.4595E-03    -31.0583E-03     59.1673E-03    -28.1090E-03    -11.7782E-03    -18.0615E+06    -39.9493E+06    -251.313E+06    -40.0095E+06    -251.253E+06    -18.0615E+06     2.53328E+06         26.7290
            1071     1.94876E-03     9.15545E-03         3.05327    -276.984E-03        -1.65460    -270.103E-03         1.66877    -276.984E-03         1.69367     55.9453E-03    -27.1818E-03    -28.7635E-03    -28.5587E-03     55.7405E-03    -27.1818E-03    -8.02243E-03    -30.2625E+06    -43.0824E+06    -259.045E+06    -43.1038E+06    -259.023E+06    -30.2625E+06     1.65892E+06         26.4152
            1072     975.352E-06     9.15947E-03         5.82893    -475.199E-03        -4.21627    -84.1402E-03         1.69680    -475.199E-03        -3.97335     53.5831E-03    -26.5507E-03    -27.0324E-03    -26.9554E-03     53.5136E-03    -26.5582E-03    -4.35102E-03    -40.6730E+06    -46.6884E+06    -265.746E+06    -46.3803E+06    -265.708E+06    -41.0194E+06     2.51824E+06         26.2208
            1073     16.0907E-03     8.12027E-03         2.31961    -409.258E-03    -737.711E-03    -728.681E-03         2.31058    -409.258E-03    -138.242E-03     142.276E-03    -55.8614E-03    -86.4146E-03    -79.4997E-03     135.361E-03    -55.8614E-03     67.8923E-03     128.299E+06     122.580E+06    -7.68080E+06    -7.67502E+06     127.093E+06     123.780E+06     140.662E+03         45.9770
            1074     15.1666E-03     8.00667E-03         2.21582    -382.448E-03    -689.146E-03    -665.061E-03         2.19174    -382.448E-03    -506.944E-03     144.688E-03    -54.1551E-03    -90.5326E-03    -80.5263E-03     134.681E-03    -54.1551E-03     93.8744E-03     119.205E+06     93.0198E+06    -14.8051E+06    -14.7881E+06     119.188E+06     93.0198E+06    -78.4086E+03         44.1292
            1075     14.2454E-03     7.92868E-03         2.15109    -355.605E-03    -658.928E-03    -620.911E-03         2.11307    -355.605E-03    -638.382E-03     138.400E-03    -52.1135E-03    -86.2862E-03    -80.8960E-03     133.010E-03    -52.1135E-03     67.9473E-03     106.780E+06     46.5445E+06    -21.9072E+06    -21.7669E+06     106.640E+06     46.5445E+06     2.97893E+06         42.0430
            1076     13.3250E-03     7.87373E-03         2.18255    -331.097E-03    -704.617E-03    -607.526E-03         2.08546    -331.097E-03    -993.424E-03     130.606E-03    -49.9551E-03    -80.6507E-03    -78.4695E-03     128.425E-03    -49.9551E-03     39.3091E-03     82.7220E+06     13.4493E+06    -25.9645E+06    -25.7097E+06     82.4671E+06     13.4493E+06     5.22242E+06         39.8755
            1077     12.3987E-03     7.86350E-03         2.16431    -307.778E-03    -692.134E-03    -608.844E-03         2.08102    -307.778E-03    -859.840E-03     123.425E-03    -47.8939E-03    -75.5309E-03    -75.1557E-03     123.050E-03    -47.8939E-03     14.9355E-03     37.2377E+06    -5.62190E+06    -28.9488E+06     -28.611E+06     24.7448E+06     6.53325E+06     3.69424E+06         37.7709
            1078     11.4718E-03     7.86639E-03         2.11859    -283.868E-03    -659.162E-03    -607.755E-03         2.06719    -283.868E-03    -694.198E-03     117.225E-03    -45.8721E-03    -71.3526E-03    -71.2327E-03     117.105E-03    -45.8721E-03     5.31502E-03     11.9121E+06    -22.2557E+06    -50.0939E+06    -30.4419E+06    -41.9077E+06     11.9121E+06     1.74521E+06         35.8386
            1079     10.5403E-03     7.88210E-03         2.06993    -258.539E-03    -636.520E-03    -588.921E-03         2.02233    -258.539E-03    -335.398E-03     110.728E-03    -43.8155E-03    -66.9124E-03    -66.7560E-03     110.572E-03    -43.8155E-03    -773.583E-06     15.5698E+06    -29.9074E+06    -92.1396E+06    -30.1402E+06    -91.9068E+06     15.5698E+06    -262.945E+03         34.1398
            1080     9.60288E-03     7.90871E-03         1.97628    -232.718E-03    -567.905E-03    -547.923E-03         1.95630    -232.718E-03    -124.914E-03     104.399E-03    -41.7616E-03    -62.6371E-03    -62.4263E-03     104.188E-03    -41.7616E-03    -4.99744E-03     20.0100E+06    -29.3423E+06    -130.195E+06    -29.4656E+06    -130.072E+06     20.0100E+06    -1.54802E+06         32.6896
            1081     8.66153E-03     7.94023E-03         1.91707    -206.730E-03    -517.076E-03    -500.834E-03         1.90083    -206.730E-03    -338.226E-03     98.1332E-03    -39.6942E-03    -58.4390E-03    -58.1840E-03     97.8782E-03    -39.6942E-03    -5.99329E-03     23.1787E+06    -28.6590E+06    -159.007E+06    -28.8093E+06    -158.856E+06     23.1787E+06    -2.42129E+06         31.4681
            1082     7.71699E-03     7.97167E-03         1.85654    -180.426E-03    -449.849E-03    -445.121E-03         1.85181    -180.426E-03    -193.330E-03     91.6580E-03    -37.6263E-03    -54.0318E-03    -53.7272E-03     91.3535E-03    -37.6263E-03    -6.82066E-03     22.7683E+06    -29.0837E+06    -186.290E+06    -29.2509E+06    -186.123E+06     22.7683E+06    -4.05100E+06         30.4385
            1083     6.76624E-03     8.00342E-03         1.82198    -152.635E-03    -408.720E-03    -403.535E-03         1.81680    -152.635E-03    -58.1331E-03     85.1681E-03    -35.6018E-03    -49.5664E-03    -49.2499E-03     84.8517E-03    -35.6018E-03    -7.49504E-03     23.1355E+06    -30.9064E+06    -208.110E+06    -31.0486E+06    -207.968E+06     23.1355E+06    -3.75702E+06         29.5638
            1084     5.81127E-03     8.03172E-03         1.84833    -122.841E-03    -451.210E-03    -342.040E-03         1.73917    -122.841E-03     761.038E-03     78.6927E-03    -33.6240E-03    -45.0687E-03    -44.7868E-03     78.4108E-03    -33.6240E-03    -7.42734E-03     21.6613E+06    -32.9034E+06    -220.814E+06    -33.0355E+06    -220.682E+06     21.6613E+06    -1.79986E+06         28.8163
            1085     4.85285E-03     8.05645E-03         1.73233    -92.2524E-03    -381.341E-03    -272.524E-03         1.62352    -92.2524E-03     744.354E-03     72.1183E-03    -31.7278E-03    -40.3906E-03    -40.1464E-03     71.8742E-03    -31.7278E-03    -6.97421E-03     11.1448E+06    -34.7054E+06    -231.630E+06    -34.8097E+06    -231.525E+06     11.1448E+06    -1.37163E+06         28.1803
            1086     3.88800E-03     8.07535E-03         1.85445    -65.5032E-03    -559.919E-03    -173.548E-03         1.46808    -65.5032E-03         1.36753     66.0467E-03    -30.0184E-03    -36.0283E-03    -35.8319E-03     65.8503E-03    -30.0184E-03    -6.45452E-03    -4.12664E+06    -37.1874E+06    -242.156E+06    -37.2457E+06    -242.097E+06    -4.12664E+06    -2.16713E+06         27.6495
            1087     2.92061E-03     8.09122E-03         2.01702    -45.0816E-03    -756.430E-03    -109.225E-03         1.36981    -45.0816E-03     285.206E-03     60.8459E-03    -28.5725E-03    -32.2734E-03    -32.1452E-03     60.7176E-03    -28.5725E-03    -5.26220E-03    -17.7651E+06    -40.5481E+06    -250.541E+06    -40.5936E+06    -250.495E+06    -17.7651E+06    -1.80559E+06         27.2251
            1088     1.94908E-03     8.10130E-03         2.50115    -37.8826E-03        -1.24952    -34.9723E-03         1.28660    -37.8826E-03         1.38505     56.6516E-03    -27.4360E-03    -29.2156E-03    -29.1490E-03     56.5850E-03    -27.4360E-03    -3.76356E-03    -31.4946E+06    -43.9946E+06    -259.337E+06    -44.0083E+06    -259.323E+06    -31.4946E+06    -1.04200E+06         26.9124
            1089     975.072E-06     8.10771E-03         4.80743    -183.290E-03        -3.39079     102.422E-03         1.31422    -183.290E-03        -3.27178     53.8707E-03    -26.6312E-03    -27.2394E-03    -27.2078E-03     53.8465E-03    -26.6387E-03    -2.07103E-03    -41.3097E+06    -45.6735E+06    -265.195E+06    -45.6918E+06    -265.177E+06    -41.3097E+06    -592.608E+03         26.7163
            1090     16.0783E-03     6.97224E-03         2.37129    -296.296E-03    -798.332E-03    -796.039E-03         2.36900    -296.296E-03    -28.4567E-03     146.252E-03    -56.7022E-03    -89.5501E-03    -81.1073E-03     137.809E-03    -56.7022E-03     76.1735E-03     129.062E+06     124.049E+06    -9.36909E+06    -9.33718E+06     127.927E+06     125.151E+06     1.28770E+06         45.6408
            1091     15.1560E-03     6.86089E-03         2.25044    -260.272E-03    -742.582E-03    -730.404E-03         2.23827    -260.272E-03    -329.965E-03     148.326E-03    -54.9846E-03    -93.3417E-03    -81.0813E-03     136.066E-03    -54.9846E-03     104.894E-03     115.643E+06     88.3904E+06    -19.0692E+06    -18.9827E+06     115.557E+06     88.3904E+06     2.41039E+06         43.7922
            1092     14.2346E-03     6.78099E-03         2.16631    -223.261E-03    -702.497E-03    -683.372E-03         2.14719    -223.261E-03    -454.276E-03     139.169E-03    -53.0499E-03    -86.1195E-03    -79.2618E-03     132.312E-03    -53.0499E-03     76.6096E-03     101.657E+06     40.0834E+06    -26.1315E+06    -25.9481E+06     101.474E+06     40.0834E+06     4.61280E+06         41.7133
            1093     13.3090E-03     6.73778E-03         2.15451    -187.373E-03    -715.957E-03    -654.259E-03         2.09281    -187.373E-03    -755.248E-03     129.312E-03    -51.1837E-03    -78.1284E-03    -74.7921E-03     125.976E-03    -51.1837E-03     49.9725E-03     83.0831E+06     14.4398E+06    -32.3439E+06    -32.0307E+06     82.7699E+06     14.4398E+06     5.90745E+06         39.5757
            1094     12.3828E-03     6.72959E-03         2.10349    -151.855E-03    -686.656E-03    -630.562E-03         2.04739    -151.855E-03    -668.597E-03     120.566E-03    -49.5660E-03    -70.9997E-03    -69.6420E-03     119.208E-03    -49.5660E-03     29.9029E-03     43.5895E+06    -62.8933E+03    -36.1254E+06    -35.7652E+06     29.9886E+06     13.1777E+06     3.10804E+06         37.5352
            1095     11.4500E-03     6.74526E-03         2.02584    -115.326E-03    -639.494E-03    -603.101E-03         1.98944    -115.326E-03    -541.036E-03     113.681E-03    -48.1495E-03    -65.5311E-03    -64.2197E-03     112.369E-03    -48.1495E-03     26.3535E-03     19.0607E+06    -21.3114E+06    -54.2717E+06    -35.1555E+06    -40.4276E+06     19.0607E+06    -3.42659E+06         35.7048
            1096     10.5107E-03     6.76686E-03         1.93513    -77.4597E-03    -588.370E-03    -549.593E-03         1.89636    -77.4597E-03    -256.925E-03     108.747E-03    -46.8117E-03    -61.9354E-03    -60.5716E-03     107.383E-03    -46.8117E-03     25.1751E-03     24.4763E+06    -32.0373E+06    -92.7724E+06    -33.3188E+06    -91.4908E+06     24.4763E+06    -7.37350E+06         34.1398
            1097     9.57044E-03     6.80131E-03         1.79534    -40.2575E-03    -484.625E-03    -464.431E-03         1.77515    -40.2575E-03    -93.5074E-03     105.015E-03    -45.4463E-03    -59.5689E-03    -58.2775E-03     103.724E-03    -45.4463E-03     23.0945E-03     29.9961E+06    -30.2052E+06    -130.680E+06    -31.4141E+06    -129.471E+06     29.9961E+06    -9.66515E+06         32.8424
            1098     8.62769E-03     6.83731E-03         1.68955    -4.58466E-03    -398.016E-03    -382.948E-03         1.67448    -4.58466E-03    -286.357E-03     101.668E-03    -43.9653E-03    -57.7030E-03    -56.3945E-03     100.360E-03    -43.9653E-03     22.8303E-03     34.3873E+06    -27.7284E+06    -160.751E+06    -28.9592E+06    -159.520E+06     34.3873E+06     -11.487E+06         31.7775
            1099     7.68181E-03     6.87640E-03         1.60706     30.8752E-03    -319.418E-03    -315.220E-03         1.60287     30.8752E-03    -152.807E-03     97.7912E-03    -42.3364E-03    -55.4548E-03    -54.3805E-03     96.7169E-03    -42.3364E-03     20.4962E-03     35.9057E+06    -26.9056E+06    -189.023E+06    -27.8375E+06    -188.091E+06     35.9057E+06    -11.4005E+06         30.8955
            1100     6.73459E-03     6.91369E-03         1.55169     68.8598E-03    -271.241E-03    -265.884E-03         1.54633     68.8598E-03    -47.0297E-03     93.2291E-03    -40.5586E-03    -52.6706E-03    -51.7808E-03     92.3393E-03    -40.5586E-03     17.8928E-03     32.9741E+06    -28.2245E+06    -211.479E+06    -28.9136E+06    -210.790E+06     32.9741E+06    -10.5880E+06         30.1518
            1101     5.78418E-03     6.94899E-03         1.52324     108.412E-03    -271.785E-03    -169.619E-03         1.42107     108.412E-03     644.167E-03     88.0292E-03    -38.6531E-03    -49.3761E-03    -48.7189E-03     87.3720E-03    -38.6531E-03     14.5371E-03     23.9282E+06    -30.4409E+06    -223.523E+06    -31.0106E+06    -222.954E+06     23.9282E+06    -9.84722E+06         29.5140
            1102     4.82911E-03     6.97993E-03         1.37258     146.198E-03    -171.718E-03    -70.6771E-03         1.27153     146.198E-03     602.498E-03     82.0865E-03    -36.7186E-03    -45.3679E-03    -44.9284E-03     81.6470E-03    -36.7186E-03     11.2300E-03     9.64440E+06    -33.8386E+06    -234.064E+06    -34.2691E+06    -233.634E+06     9.64440E+06    -8.60250E+06         28.9639
            1103     3.87115E-03     7.00685E-03         1.49592     178.033E-03    -351.031E-03     47.2728E-03         1.09762     178.033E-03         1.16861     76.0599E-03    -34.8893E-03    -41.1706E-03    -40.8950E-03     75.7843E-03    -34.8893E-03     8.04855E-03    -7.24364E+06    -37.6238E+06    -245.072E+06    -37.8920E+06    -244.804E+06    -7.24364E+06    -6.91633E+06         28.4963
            1104     2.90738E-03     7.02713E-03         1.66040     202.376E-03    -553.054E-03     123.985E-03     983.357E-03     202.376E-03     252.826E-03     70.5160E-03    -33.2941E-03    -37.2219E-03    -37.0795E-03     70.3736E-03    -33.2941E-03     5.14419E-03    -21.8632E+06    -41.7305E+06    -253.929E+06    -41.8842E+06    -253.776E+06    -21.8632E+06    -5.38735E+06         28.1152
            1105     1.94117E-03     7.04291E-03         2.09093     212.965E-03    -997.938E-03     207.428E-03     885.559E-03     212.965E-03         1.19190     65.9727E-03    -32.0301E-03    -33.9426E-03    -33.8785E-03     65.9086E-03    -32.0301E-03     3.10657E-03    -34.6054E+06    -45.8098E+06    -261.823E+06    -45.8877E+06    -261.745E+06    -34.6054E+06    -3.62714E+06         27.8296
            1106     971.387E-06     7.05222E-03         4.08739     115.977E-03        -2.88002     307.293E-03     900.079E-03     115.977E-03        -2.78054     62.9018E-03    -31.1246E-03    -31.7772E-03    -31.7531E-03     62.8800E-03    -31.1269E-03     1.52162E-03    -45.2171E+06    -48.8331E+06    -268.810E+06    -48.2885E+06    -268.781E+06    -45.7912E+06    -2.54060E+06         27.6479
            1107     16.0548E-03     5.82651E-03         2.42412    -204.725E-03    -868.908E-03    -867.964E-03         2.42317    -204.725E-03     77.7493E-03     150.871E-03    -58.2340E-03    -92.6368E-03    -82.1081E-03     140.342E-03    -58.2340E-03     87.5070E-03     127.514E+06     125.374E+06    -10.7512E+06    -10.5664E+06     127.045E+06     125.659E+06     4.57113E+06         45.2724
            1108     15.1308E-03     5.70669E-03         2.30653    -160.277E-03    -813.622E-03    -808.458E-03         2.30137    -160.277E-03    -150.464E-03     150.903E-03    -56.6927E-03    -94.2104E-03    -79.2376E-03     135.930E-03    -56.6927E-03     116.334E-03     113.453E+06     94.4126E+06    -21.4784E+06    -21.1515E+06     113.085E+06     94.4537E+06     6.27081E+06         43.4033
            1109     14.2071E-03     5.63985E-03         2.20775    -113.793E-03    -762.870E-03    -755.760E-03         2.20064    -113.793E-03    -267.898E-03     137.662E-03    -55.1408E-03    -82.5208E-03    -73.2291E-03     128.370E-03    -55.1408E-03     87.8942E-03     98.7858E+06     45.5317E+06    -30.4358E+06    -29.9716E+06     98.3216E+06     45.5317E+06     7.48917E+06         41.3060
            1110     13.2773E-03     5.60212E-03         2.15716    -66.8653E-03    -749.121E-03    -718.033E-03         2.12607    -66.8653E-03    -502.422E-03     124.733E-03    -53.9483E-03    -70.7847E-03    -64.6577E-03     118.606E-03    -53.9483E-03     66.2256E-03     85.6719E+06     17.4212E+06    -35.7989E+06    -35.4171E+06     85.2901E+06     17.4212E+06     5.86313E+06         39.1774
            1111     12.3390E-03     5.60563E-03         2.07105    -18.8504E-03    -700.540E-03    -670.903E-03         2.04141    -18.8504E-03    -453.491E-03     115.044E-03    -53.0985E-03    -61.9455E-03    -56.8920E-03     110.249E-03    -53.3573E-03     54.1890E-03     52.3552E+06     5.69538E+06    -37.4498E+06    -36.3311E+06     37.1392E+06     19.7927E+06    -1.45669E+06         37.1981
            1112     11.3934E-03     5.63199E-03         1.95754     31.0226E-03    -634.568E-03    -615.218E-03         1.93819     31.0226E-03    -353.993E-03     112.230E-03    -52.8636E-03    -59.3666E-03    -53.3509E-03     106.473E-03    -53.1225E-03     58.3156E-03     25.3101E+06    -17.5103E+06    -56.7254E+06    -35.5280E+06    -38.7076E+06     25.3101E+06    -10.2037E+06         35.4904
            1113     10.4471E-03     5.65424E-03         1.81768     82.0504E-03    -546.613E-03    -521.359E-03         1.79243     82.0504E-03    -130.544E-03     111.516E-03    -52.9152E-03    -58.6009E-03    -52.8467E-03     105.762E-03    -52.9152E-03     58.8320E-03     29.3884E+06    -29.9173E+06     -96.014E+06    -34.4812E+06    -91.4502E+06     29.3884E+06    -15.9554E+06         34.0989
            1114     9.50110E-03     5.69372E-03         1.64038     131.278E-03    -413.811E-03    -396.496E-03         1.62307     131.278E-03    -31.5548E-03     111.473E-03    -52.5966E-03    -58.8765E-03    -53.4053E-03     106.002E-03    -52.5966E-03     57.7558E-03     35.3756E+06    -27.8616E+06    -133.740E+06    -32.2484E+06    -129.353E+06     35.3756E+06    -20.4156E+06         33.0037
            1115     8.55557E-03     5.72970E-03         1.50579     178.499E-03    -308.511E-03    -297.532E-03         1.49481     178.499E-03    -181.216E-03     112.054E-03    -52.0493E-03    -60.0049E-03    -54.8596E-03     106.909E-03    -52.0493E-03     56.8367E-03     39.8144E+06    -25.8839E+06    -167.499E+06    -29.9010E+06    -163.482E+06     39.8144E+06    -22.7757E+06         32.1491
            1116     7.61388E-03     5.77164E-03         1.39669     226.122E-03    -218.863E-03    -216.468E-03         1.39430     226.122E-03    -56.3285E-03     111.507E-03    -51.1763E-03    -60.3303E-03    -55.9643E-03     107.141E-03    -51.1763E-03     52.4759E-03     40.0693E+06    -25.3516E+06    -197.434E+06    -28.2431E+06    -194.542E+06     40.0693E+06    -21.2468E+06         31.4719
            1117     6.67052E-03     5.81254E-03         1.30134     276.839E-03    -151.268E-03    -146.324E-03         1.29640     276.839E-03     9.44858E-03     109.596E-03    -49.9476E-03    -59.6486E-03    -56.0301E-03     105.978E-03    -49.9476E-03     47.5870E-03     31.6471E+06    -26.4352E+06     -217.62E+06    -28.2533E+06    -215.802E+06     31.6471E+06    -18.0938E+06         30.9180
            1118     5.72677E-03     5.85169E-03         1.23318     327.802E-03    -125.281E-03    -10.4216E-03         1.11832     327.802E-03     587.471E-03     106.187E-03    -48.4335E-03    -57.7532E-03    -54.9827E-03     103.416E-03    -48.4335E-03     41.0351E-03     16.1840E+06    -29.6274E+06    -229.575E+06    -30.8520E+06    -228.351E+06     16.1840E+06    -15.4192E+06         30.4486
            1119     4.78132E-03     5.88947E-03         1.05289     374.743E-03     1.83937E-03     113.803E-03     940.928E-03     374.743E-03     511.652E-03     101.693E-03    -46.7637E-03    -54.9296E-03    -52.9573E-03     99.7210E-03    -46.7637E-03     33.8053E-03     703.767E+03    -34.1326E+06    -240.103E+06    -34.9579E+06    -239.277E+06     703.767E+03    -12.9016E+06         30.0410
            1120     3.83127E-03     5.92122E-03         1.20278     412.825E-03    -201.661E-03     262.648E-03     738.468E-03     412.825E-03         1.03227     96.3779E-03    -45.0701E-03    -51.3078E-03    -50.0354E-03     95.1054E-03    -45.0701E-03     26.3576E-03    -14.2889E+06    -38.8096E+06    -250.328E+06    -39.3082E+06    -249.829E+06    -14.2889E+06    -10.0339E+06         29.6883
            1121     2.87911E-03     5.94880E-03         1.41954     439.216E-03    -458.323E-03     358.819E-03     602.393E-03     439.216E-03     206.646E-03     91.0328E-03    -43.5152E-03    -47.5176E-03    -46.7935E-03     90.3087E-03    -43.5152E-03     19.0681E-03    -28.8500E+06    -43.4306E+06    -259.573E+06    -43.6854E+06    -259.319E+06    -28.8500E+06    -7.20283E+06         29.3947
            1122     1.92119E-03     5.96890E-03         1.86216     451.189E-03    -915.890E-03     438.883E-03     507.386E-03     451.189E-03         1.11711     86.4833E-03    -42.2568E-03    -44.2265E-03    -43.8971E-03     86.1539E-03    -42.2568E-03     12.3510E-03    -40.8600E+06    -47.8152E+06    -267.009E+06    -47.9255E+06    -266.899E+06    -40.8600E+06    -4.64778E+06         29.1702
            1123     961.742E-06     5.98150E-03         3.68836     404.651E-03        -2.69560     497.373E-03     495.386E-03     404.651E-03        -2.50889     83.3764E-03    -41.3667E-03    -42.0098E-03    -41.9005E-03     83.2695E-03    -41.3690E-03     6.57318E-03    -49.5454E+06    -52.7595E+06    -274.124E+06    -52.2167E+06    -274.092E+06    -50.1195E+06    -2.14384E+06         29.0251
            1124     16.0177E-03     4.67019E-03         2.47526    -133.133E-03    -931.592E-03    -928.958E-03         2.47263    -133.133E-03     181.300E-03     154.823E-03    -60.7021E-03    -94.1210E-03    -80.0600E-03     140.762E-03    -60.7021E-03     100.329E-03     125.637E+06     124.843E+06    -12.5423E+06    -11.9548E+06     125.008E+06     124.884E+06     8.58577E+06         44.8935
            1125     15.0944E-03     4.55676E-03         2.37016    -81.6643E-03    -883.572E-03    -880.555E-03         2.36715    -81.6643E-03     4.67298E-03     152.818E-03    -59.6182E-03    -93.1998E-03    -72.7035E-03     132.322E-03    -59.6182E-03     134.237E-03     112.311E+06     100.014E+06    -22.3063E+06    -21.4671E+06     111.431E+06     100.055E+06     10.3433E+06         42.9768
            1126     14.1597E-03     4.50440E-03         2.25608    -27.1729E-03    -818.991E-03    -817.280E-03         2.25437    -27.1729E-03    -118.833E-03     134.620E-03    -58.1727E-03    -76.4468E-03    -62.2780E-03     121.138E-03    -58.8604E-03     102.275E-03     101.657E+06     61.0913E+06    -29.5497E+06    -28.8914E+06     100.998E+06     61.0913E+06     8.62999E+06         40.8321
            1127     13.2149E-03     4.47579E-03         2.16530     28.8852E-03    -776.193E-03    -763.312E-03         2.15242     28.8852E-03    -291.729E-03     118.426E-03    -54.7506E-03    -63.6756E-03    -48.5663E-03     107.335E-03    -58.7685E-03     84.6210E-03     91.3723E+06     23.3990E+06    -30.7217E+06    -30.4535E+06     91.1042E+06     23.3990E+06     2.06658E+06         38.6981
            1128     12.2576E-03     4.50247E-03         2.04870     87.5923E-03    -713.248E-03    -700.367E-03         2.03582     87.5923E-03    -247.136E-03     113.440E-03    -53.5519E-03    -59.8883E-03    -43.2446E-03     102.778E-03    -59.5335E-03     80.3899E-03     52.2128E+06     2.94608E+06    -32.0559E+06    -30.0045E+06     40.4316E+06     12.6760E+06    -6.57286E+06         36.7877
            1129     11.2997E-03     4.51552E-03         1.90642     149.406E-03    -632.539E-03    -625.516E-03         1.89940     149.406E-03    -157.508E-03     116.016E-03    -54.9472E-03    -61.0685E-03    -44.3513E-03     105.032E-03    -60.6809E-03     83.6159E-03     20.7965E+06    -12.1422E+06    -55.3781E+06    -31.7878E+06    -35.7325E+06     20.7965E+06    -15.7148E+06         35.2292
            1130     10.3486E-03     4.54544E-03         1.73208     212.775E-03    -519.807E-03    -505.536E-03         1.71781     212.775E-03    -536.047E-06     118.994E-03    -56.7112E-03    -62.2828E-03    -46.8037E-03     108.548E-03    -61.7444E-03     82.9947E-03     23.3863E+06    -22.7074E+06    -99.7488E+06    -32.1643E+06    -90.2919E+06     23.3863E+06    -24.5281E+06         34.0443
            1131     9.39864E-03     4.57715E-03         1.53394     274.547E-03    -371.796E-03    -359.443E-03         1.52159     274.547E-03     48.4124E-03     123.097E-03    -59.2466E-03    -63.8502E-03    -50.7831E-03     113.413E-03    -62.6302E-03     81.9316E-03     27.0628E+06    -22.5463E+06    -140.657E+06    -31.0210E+06    -132.182E+06     27.0628E+06    -30.1879E+06         33.1851
            1132     8.45575E-03     4.61216E-03         1.37117     334.747E-03    -249.077E-03    -242.420E-03         1.36451     334.747E-03    -56.7414E-03     126.780E-03    -61.0267E-03    -65.7529E-03    -54.8145E-03     118.045E-03    -63.2302E-03     79.5193E-03     30.7682E+06    -23.0039E+06    -177.082E+06    -30.3567E+06    -169.729E+06     30.7682E+06    -32.5066E+06         32.5759
            1133     7.51393E-03     4.65092E-03         1.21322     394.976E-03    -130.269E-03    -127.907E-03         1.21086     394.976E-03     54.9117E-03     129.424E-03    -62.4727E-03    -66.9517E-03    -58.4229E-03     121.873E-03    -63.4502E-03     75.2062E-03     27.3224E+06    -24.8027E+06    -210.726E+06    -30.2731E+06    -205.256E+06     27.3224E+06    -30.9319E+06         32.1416
            1134     6.57812E-03     4.69132E-03         1.07522     457.170E-03    -38.4116E-03    -30.6108E-03         1.06742     457.170E-03     100.289E-03     130.884E-03    -63.0336E-03    -67.8505E-03    -61.2398E-03     124.480E-03    -63.2404E-03     70.0123E-03     17.0240E+06    -27.1645E+06    -230.088E+06    -30.4597E+06    -226.792E+06     17.0240E+06    -25.1465E+06         31.8208
            1135     5.64233E-03     4.73326E-03         1.00174     518.901E-03    -17.9552E-03     125.807E-03     857.973E-03     518.901E-03     566.782E-03     130.682E-03    -62.6341E-03    -68.0477E-03    -62.9292E-03     125.563E-03    -62.6341E-03     62.7563E-03     2.50858E+06    -30.9649E+06    -239.232E+06    -32.7159E+06    -237.481E+06     2.50858E+06    -18.7479E+06         31.5683
            1136     4.70659E-03     4.77210E-03     853.346E-03     513.034E-03     134.010E-03     270.675E-03     653.680E-03     576.034E-03     452.341E-03     128.876E-03    -61.7344E-03    -67.1416E-03    -63.3671E-03     125.102E-03    -61.7344E-03     53.6410E-03    -11.1470E+06    -35.3159E+06    -248.152E+06    -36.2641E+06    -247.203E+06    -11.1470E+06    -13.9922E+06         31.3551
            1137     3.77104E-03     4.81027E-03         1.04504     558.345E-03    -108.400E-03     454.633E-03     419.009E-03     621.346E-03     930.843E-03     125.791E-03    -60.6636E-03    -65.1276E-03    -62.5718E-03     123.235E-03    -60.6636E-03     43.5849E-03    -24.8241E+06    -40.3479E+06    -257.923E+06    -40.8386E+06    -257.433E+06    -24.8241E+06    -10.0131E+06         31.1686
            1138     2.83065E-03     4.84138E-03         1.29794     649.701E-03    -460.668E-03     572.012E-03     265.264E-03     649.701E-03     150.235E-03     122.221E-03    -59.5813E-03    -62.6398E-03    -61.1177E-03     120.699E-03    -59.5813E-03     33.0088E-03    -37.5723E+06    -46.3680E+06    -266.630E+06    -46.5706E+06    -266.428E+06    -37.5723E+06    -6.21047E+06         31.0091
            1139     1.89034E-03     4.86640E-03         1.76533     659.677E-03    -955.299E-03     653.915E-03     156.120E-03     659.677E-03         1.09621     118.870E-03    -58.6379E-03    -60.2320E-03    -59.5058E-03     118.144E-03    -58.6379E-03     22.1184E-03    -47.2256E+06    -50.9184E+06    -272.956E+06    -50.9791E+06    -272.895E+06    -47.2256E+06    -2.87248E+06         30.8834
            1140     945.241E-06     4.88261E-03         3.50619     613.444E-03        -2.65893     702.381E-03     144.876E-03     613.444E-03        -2.36352     116.407E-03    -57.8432E-03    -58.5638E-03    -58.1718E-03     116.167E-03    -57.9951E-03     12.1700E-03    -52.7140E+06    -54.5311E+06    -277.752E+06    -53.8455E+06    -277.709E+06    -53.4420E+06    -1.81694E+06         30.8002
            1141     15.9658E-03     3.52465E-03         2.53233    -77.9756E-03    -983.853E-03    -978.564E-03         2.52704    -77.9756E-03     269.453E-03     158.806E-03    -64.5805E-03    -94.2255E-03    -73.9321E-03     138.513E-03    -64.5805E-03     126.398E-03     124.830E+06     122.375E+06    -11.3562E+06    -10.3897E+06     121.739E+06     124.498E+06     11.2072E+06         44.5302
            1142     15.0177E-03     3.41186E-03         2.43291    -20.8468E-03    -934.877E-03    -931.437E-03         2.42947    -20.8468E-03     87.7788E-03     155.643E-03    -63.4392E-03    -92.2043E-03    -66.4921E-03     130.606E-03    -64.1138E-03     147.889E-03     114.839E+06     104.309E+06    -17.2471E+06    -16.2965E+06     112.613E+06     105.584E+06     10.7590E+06         42.5538
            1143     14.0830E-03     3.36533E-03         2.29483     39.5208E-03    -851.065E-03    -850.587E-03         2.29435     39.5208E-03    -49.3532E-03     128.342E-03    -57.9530E-03    -70.3890E-03    -47.9973E-03     112.281E-03    -64.2840E-03     105.930E-03     108.959E+06     67.4907E+06    -19.0462E+06    -18.6594E+06     108.572E+06     67.4907E+06     5.22766E+06         40.3603
            1144     13.1202E-03     3.38385E-03         2.16053     102.003E-03    -779.404E-03    -774.648E-03         2.15577     102.003E-03    -154.140E-03     117.531E-03    -52.1444E-03    -65.3868E-03    -36.5884E-03     101.975E-03    -65.3868E-03     97.6527E-03     94.2181E+06     14.1965E+06    -21.3451E+06    -21.0568E+06     94.1314E+06     13.9948E+06    -214.279E+03         38.2340
            1145     12.1525E-03     3.38416E-03         2.02316     168.215E-03    -712.494E-03    -707.214E-03         2.01788     168.215E-03    -107.033E-03     119.004E-03    -51.7561E-03    -67.2476E-03    -37.7728E-03     105.020E-03    -67.2476E-03     93.5143E-03     46.5961E+06    -13.7695E+06    -27.3062E+06    -24.8730E+06     41.8748E+06    -11.4815E+06    -6.75468E+06         36.4194
            1146     11.1986E-03     3.40645E-03         1.86374     238.646E-03    -625.146E-03    -622.970E-03         1.86157     238.646E-03    -29.4872E-03     122.921E-03    -53.5051E-03    -69.4155E-03    -41.1243E-03     110.540E-03    -69.4155E-03     90.0377E-03     6.86024E+06    -17.1828E+06    -53.6293E+06    -27.9708E+06    -30.2138E+06    -5.76726E+06    -18.9157E+06         35.0334
            1147     10.2383E-03     3.42459E-03         1.67897     311.710E-03    -505.577E-03    -496.885E-03         1.67028     311.710E-03     84.2230E-03     128.005E-03    -56.4511E-03    -71.5535E-03    -45.3558E-03     116.909E-03    -71.5535E-03     87.4491E-03     2.34197E+06    -21.2694E+06    -101.839E+06    -28.4407E+06    -88.6024E+06    -3.72293E+06    -30.3532E+06         34.0667
            1148     9.29089E-03     3.44965E-03         1.46594     384.428E-03    -347.474E-03    -339.467E-03         1.45793     384.428E-03     126.635E-03     134.199E-03    -60.6229E-03    -73.5762E-03    -50.7982E-03     124.374E-03    -73.5762E-03     84.9795E-03     2.21446E+06    -22.0427E+06    -147.587E+06    -27.7640E+06    -136.466E+06    -3.18512E+06    -36.2050E+06         33.4473
            1149     8.34533E-03     3.47884E-03         1.26889     455.801E-03    -200.860E-03    -195.488E-03         1.26352     455.801E-03     64.2655E-03     140.281E-03    -64.8470E-03    -75.4344E-03    -56.1029E-03     131.537E-03    -75.4344E-03     82.5494E-03     3.19972E+06    -21.6020E+06    -187.677E+06    -28.7138E+06    -178.797E+06     1.43168E+06    -37.2216E+06         33.0859
            1150     7.40799E-03     3.51093E-03         1.07458     526.495E-03    -60.3390E-03    -54.3298E-03         1.06857     526.495E-03     151.346E-03     145.957E-03    -68.9241E-03    -77.0329E-03    -61.2875E-03     138.320E-03    -77.0329E-03     79.2425E-03    -159.136E+03    -25.0129E+06    -225.297E+06    -31.4518E+06    -218.858E+06    -159.136E+03    -35.0004E+06         32.9008
            1151     6.47241E-03     3.54788E-03     900.226E-03     598.285E-03     51.6101E-03     65.9927E-03     885.844E-03     598.285E-03     178.121E-03     151.252E-03    -72.4876E-03    -78.7647E-03    -66.3957E-03     144.673E-03    -78.2774E-03     75.3026E-03    -8.57854E+06    -30.1509E+06    -246.529E+06    -34.1862E+06    -242.494E+06    -8.57854E+06    -28.8717E+06         32.8274
            1152     5.54367E-03     3.58416E-03     828.687E-03     669.548E-03     56.9362E-03     232.172E-03     653.452E-03     669.548E-03     529.326E-03     155.377E-03    -74.9785E-03    -80.3987E-03    -70.8198E-03     149.963E-03    -79.1432E-03     69.5697E-03    -18.3992E+06    -34.2135E+06    -252.592E+06    -36.2294E+06    -250.576E+06    -18.3992E+06    -20.4697E+06         32.8153
            1153     4.61851E-03     3.62420E-03     803.572E-03     591.727E-03     166.907E-03     395.603E-03     430.312E-03     736.292E-03     388.365E-03     158.066E-03    -76.8462E-03    -81.2194E-03    -74.2157E-03     153.892E-03    -79.6768E-03     61.8817E-03    -27.2653E+06    -39.2073E+06    -259.333E+06    -40.0298E+06    -258.511E+06    -27.2653E+06    -12.6813E+06         32.8281
            1154     3.69337E-03     3.66073E-03         1.02463     645.211E-03    -106.542E-03     601.794E-03     171.726E-03     789.776E-03     807.618E-03     159.639E-03    -78.2536E-03    -81.3855E-03    -76.7746E-03     156.683E-03    -79.9088E-03     52.4112E-03    -35.9648E+06    -44.7974E+06    -266.719E+06    -45.0448E+06    -266.471E+06    -35.9648E+06    -6.50942E+06         32.8446
            1155     2.77196E-03     3.69493E-03         1.23212     824.995E-03    -504.798E-03     730.437E-03    -3.11604E-03     824.995E-03     74.0542E-03     160.080E-03    -79.1059E-03    -80.9737E-03    -78.3635E-03     158.263E-03    -79.8995E-03     41.0353E-03    -43.3302E+06    -48.7427E+06    -271.987E+06    -48.8041E+06    -271.926E+06    -43.3302E+06    -2.92092E+06         32.8557
            1156     1.84700E-03     3.72068E-03         1.71085     836.601E-03        -1.01675     838.850E-03    -144.751E-03     836.601E-03         1.04194     159.787E-03    -79.4170E-03    -80.3697E-03    -79.1385E-03     158.896E-03    -79.7580E-03     28.3117E-03    -49.3995E+06    -52.8177E+06    -276.946E+06    -52.8370E+06    -276.927E+06    -49.3995E+06    -1.13679E+06         32.8601
            1157     924.836E-06     3.73873E-03         3.34444     740.156E-03        -2.57011     926.330E-03    -151.999E-03     740.156E-03        -2.20309     159.278E-03    -79.2931E-03    -79.9849E-03    -79.4117E-03     158.980E-03    -79.5688E-03     15.6553E-03    -54.1326E+06    -56.2380E+06    -281.089E+06    -55.3699E+06    -281.047E+06    -55.0427E+06    -710.562E+03         32.8604
            1158     15.8510E-03     2.35686E-03         2.62123    -35.2174E-03        -1.03508        -1.02885         2.61500    -35.2174E-03     290.401E-03     161.549E-03    -69.4940E-03    -92.0545E-03    -70.5293E-03     140.023E-03    -69.4940E-03     138.829E-03     126.397E+06     121.022E+06    -8.35708E+06    -7.63345E+06     120.298E+06     126.397E+06     8.32697E+06         44.3058
            1159     14.9469E-03     2.24740E-03         2.47849     26.0516E-03    -945.435E-03    -942.960E-03         2.47601     26.0516E-03     68.3094E-03     148.325E-03    -62.4210E-03    -85.9041E-03    -59.0024E-03     128.629E-03    -69.6262E-03     125.973E-03     119.578E+06     103.424E+06    -7.72847E+06    -7.33876E+06     115.917E+06     106.695E+06     5.30845E+06         42.2949
            1160     13.9845E-03     2.27338E-03         2.30030     89.1927E-03    -841.164E-03    -840.798E-03         2.29994     89.1927E-03    -39.4345E-03     124.043E-03    -53.4005E-03    -70.6427E-03    -38.8362E-03     109.479E-03    -70.6427E-03     96.8042E-03     113.550E+06     61.4462E+06    -9.37587E+06    -9.20679E+06     113.381E+06     61.4462E+06     3.66467E+06         40.0816
            1161     13.0122E-03     2.26200E-03         2.14828     155.119E-03    -769.148E-03    -767.555E-03         2.14669     155.119E-03    -82.5557E-03     123.601E-03    -51.0947E-03    -72.5059E-03    -37.4261E-03     109.932E-03    -72.5059E-03     92.4552E-03     93.4348E+06     5.61772E+06    -18.0912E+06    -14.9148E+06     93.3091E+06     2.56706E+06     2.73424E+06         37.9982
            1162     12.0593E-03     2.27181E-03         1.99796     225.761E-03    -702.225E-03    -700.126E-03         1.99586     225.761E-03    -39.4943E-03     125.538E-03    -50.7389E-03    -74.7995E-03    -40.0434E-03     114.843E-03    -74.7995E-03     82.7283E-03     49.1278E+06    -20.6582E+06    -38.0905E+06    -19.2847E+06     47.6691E+06    -38.0053E+06    -3.58162E+06         36.3035
            1163     11.0941E-03     2.27977E-03         1.82439     301.231E-03    -607.930E-03    -607.127E-03         1.82358     301.231E-03     18.9252E-03     129.770E-03    -52.3334E-03    -77.4370E-03    -43.4512E-03     120.888E-03    -77.4370E-03     76.9206E-03     5.56350E+06    -34.0135E+06    -64.9760E+06    -21.0935E+06    -20.9095E+06    -51.4229E+06    -17.9955E+06         35.0868
            1164     10.1468E-03     2.29375E-03         1.62963     379.765E-03    -479.830E-03    -474.337E-03         1.62414     379.765E-03     107.677E-03     135.673E-03    -55.4092E-03    -80.2634E-03    -47.8962E-03     128.160E-03    -80.2634E-03     72.7222E-03    -9.94957E+06    -49.4836E+06    -102.954E+06    -22.3454E+06    -87.4449E+06    -52.5966E+06    -30.0628E+06         34.3162
            1165     9.19378E-03     2.30994E-03         1.41093     458.654E-03    -316.249E-03    -310.999E-03         1.40568     458.654E-03     148.037E-03     141.982E-03    -58.8048E-03    -83.1771E-03    -52.4057E-03     135.583E-03    -83.1771E-03     69.1110E-03    -14.4453E+06    -54.1542E+06    -152.543E+06    -24.3207E+06    -142.667E+06    -54.1542E+06    -34.8979E+06         33.9045
            1166     8.25101E-03     2.32866E-03         1.20067     536.812E-03    -161.094E-03    -155.788E-03         1.19536     536.812E-03     118.995E-03     149.591E-03    -63.4025E-03    -86.1885E-03    -57.7847E-03     143.973E-03    -86.1885E-03     66.7799E-03    -17.9916E+06    -51.0377E+06    -197.067E+06    -27.2064E+06    -189.878E+06    -49.0117E+06    -34.2577E+06         33.7564
            1167     7.31057E-03     2.35423E-03     992.367E-03     615.179E-03    -19.3375E-03    -11.3709E-03     984.401E-03     615.179E-03     178.097E-03     158.273E-03    -69.0852E-03    -89.1880E-03    -64.1419E-03     153.330E-03    -89.1880E-03     64.8434E-03    -22.8763E+06    -44.7908E+06    -237.777E+06    -32.0259E+06    -232.876E+06    -40.5417E+06    -31.1144E+06         33.7899
            1168     6.37981E-03     2.37898E-03     820.979E-03     664.262E-03     107.119E-03     124.643E-03     772.411E-03     695.306E-03     188.554E-03     166.940E-03    -74.9262E-03    -92.0138E-03    -70.6654E-03     162.679E-03    -92.0138E-03     62.1937E-03    -30.5696E+06    -42.7306E+06    -262.046E+06    -37.7066E+06    -259.007E+06    -38.6329E+06    -25.3896E+06         33.9397
            1169     5.45328E-03     2.40961E-03     786.067E-03     688.489E-03     123.807E-03     306.271E-03     517.368E-03     774.724E-03     427.646E-03     175.253E-03    -80.6348E-03    -94.6184E-03    -77.0778E-03     171.696E-03    -94.6184E-03     58.5702E-03    -37.8595E+06    -44.6856E+06    -267.818E+06    -42.2544E+06    -266.376E+06    -41.7328E+06    -16.9773E+06         34.1528
            1170     4.53227E-03     2.44001E-03     851.123E-03     622.696E-03     134.238E-03     480.271E-03     278.088E-03     849.697E-03     289.598E-03     183.506E-03    -86.5369E-03    -96.9691E-03    -83.6898E-03     180.659E-03    -96.9691E-03     53.7611E-03    -43.1678E+06    -47.1094E+06    -271.492E+06    -46.3357E+06    -271.042E+06    -44.3920E+06    -8.94344E+06         34.3867
            1171     3.61955E-03     2.47199E-03         1.01767     741.025E-03    -145.565E-03     690.713E-03     9.58477E-03     912.834E-03     612.569E-03     190.951E-03    -91.9974E-03    -98.9539E-03    -89.9238E-03     188.878E-03    -98.9539E-03     46.9157E-03    -45.7995E+06    -49.6308E+06    -273.873E+06    -49.4978E+06    -273.800E+06    -46.0060E+06    -3.67364E+06         34.6096
            1172     2.70897E-03     2.49953E-03         1.13730     960.656E-03    -491.626E-03     828.214E-03    -182.536E-03     960.656E-03    -2.44731E-03     196.964E-03    -96.4603E-03    -100.503E-03    -95.1455E-03     195.649E-03    -100.503E-03     37.8798E-03    -47.6542E+06    -51.0941E+06    -275.810E+06    -51.1034E+06    -275.801E+06    -47.6542E+06    -860.329E+03         34.8000
            1173     1.80581E-03     2.52428E-03         1.55896     986.027E-03    -964.095E-03     964.240E-03    -369.371E-03     986.027E-03     850.668E-03     201.334E-03    -99.7281E-03    -101.606E-03    -99.0641E-03     200.670E-03    -101.606E-03     27.0173E-03    -50.1791E+06    -52.8914E+06    -278.490E+06    -52.8988E+06    -278.482E+06    -50.1791E+06     37.6617E+03         34.9445
            1174     901.022E-06     2.53917E-03         2.93091     828.591E-03        -2.20219         1.15031    -421.587E-03     828.591E-03        -1.85168     204.027E-03    -101.666E-03    -102.361E-03    -101.627E-03     203.800E-03    -102.173E-03     15.1223E-03    -53.1871E+06    -55.7745E+06    -281.881E+06    -55.6104E+06    -281.863E+06    -53.3692E+06     800.104E+03         35.0363
            1175     15.8077E-03     1.13514E-03         2.73448    -3.68894E-03        -1.05682        -1.05299         2.73065    -3.68894E-03     194.856E-03     168.216E-03    -70.8118E-03    -97.4043E-03    -76.1025E-03     150.650E-03    -74.5477E-03     129.587E-03     133.326E+06     124.010E+06     1.41432E+06     1.62137E+06     125.472E+06     131.656E+06     3.31678E+06         44.5081
            1176     14.8529E-03     1.14951E-03         2.48294     58.6583E-03    -914.832E-03    -914.244E-03         2.48235     58.6583E-03     7.75203E-03     138.983E-03    -60.2225E-03    -78.7604E-03    -54.0828E-03     129.003E-03    -74.9203E-03     85.0037E-03     117.631E+06     96.9427E+06    -5.47334E+06    -5.43508E+06     115.596E+06     98.9393E+06     1.50371E+06         42.5049
            1177     13.8859E-03     1.14103E-03         2.28708     121.891E-03    -815.515E-03    -815.338E-03         2.28690     121.891E-03    -31.5208E-03     129.849E-03    -53.5997E-03    -76.2497E-03    -45.6067E-03     121.856E-03    -76.2497E-03     68.7324E-03     111.225E+06     55.1923E+06    -10.4237E+06    -10.2088E+06     111.010E+06     55.1923E+06     4.74986E+06         40.3090
            1178     12.9439E-03     1.13979E-03         2.13060     188.661E-03    -750.965E-03    -750.556E-03         2.13019     188.661E-03    -44.5393E-03     129.605E-03    -51.5136E-03    -78.0917E-03    -45.6153E-03     123.707E-03    -78.0917E-03     57.9566E-03     94.4660E+06     8.82873E+06    -18.9976E+06    -12.0588E+06     94.2198E+06     2.13624E+06     5.03378E+06         38.2950
            1179     11.9794E-03     1.13985E-03         1.97192     260.845E-03    -684.761E-03    -684.116E-03         1.97127     260.845E-03    -7.97056E-03     130.056E-03    -49.7448E-03    -80.3109E-03    -45.5928E-03     125.904E-03    -80.3109E-03     48.4971E-03     56.8498E+06    -11.4155E+06    -53.5387E+06    -10.9533E+06     56.3876E+06    -53.5387E+06    -965.072E+03         36.7066
            1180     11.0337E-03     1.14461E-03         1.79390     338.378E-03    -589.373E-03    -589.097E-03         1.79363     338.378E-03     24.2816E-03     133.993E-03    -50.9610E-03    -83.0320E-03    -47.6749E-03     130.707E-03    -83.0320E-03     43.6894E-03     13.7456E+06    -35.7652E+06    -89.7825E+06    -10.9452E+06    -11.0744E+06    -89.7825E+06    -11.3690E+06         35.6172
            1181     10.0758E-03     1.14917E-03         1.59185     419.245E-03    -453.275E-03    -451.030E-03         1.58961     419.245E-03     72.2815E-03     139.573E-03    -53.3596E-03    -86.2131E-03    -50.6487E-03     136.862E-03    -86.2131E-03     40.7963E-03    -8.91701E+06    -81.5318E+06    -111.631E+06    -15.0071E+06    -86.9541E+06    -100.118E+06    -19.4277E+06         34.9846
            1182     9.13242E-03     1.15804E-03         1.37103     500.658E-03    -286.211E-03    -283.960E-03         1.36878     500.658E-03     86.7661E-03     146.601E-03    -56.8876E-03    -89.7132E-03    -54.5853E-03     144.299E-03    -89.7132E-03     38.5963E-03    -17.3243E+06    -101.323E+06    -153.124E+06    -21.8486E+06    -148.600E+06    -101.323E+06    -21.9117E+06         34.7160
            1183     8.18492E-03     1.16960E-03         1.15825     581.820E-03    -130.897E-03    -128.195E-03         1.15555     581.820E-03     77.7878E-03     155.101E-03    -61.6113E-03    -93.4899E-03    -59.6310E-03     153.121E-03    -93.4899E-03     37.1669E-03    -25.9195E+06    -96.2679E+06    -203.192E+06    -29.0788E+06    -200.033E+06    -96.2679E+06    -21.2431E+06         34.7154
            1184     7.24746E-03     1.17928E-03     944.704E-03     664.203E-03     10.1034E-03     14.2139E-03     940.593E-03     664.203E-03     115.401E-03     165.212E-03    -67.7232E-03    -97.4886E-03    -65.9840E-03     163.473E-03    -97.4886E-03     35.9844E-03    -33.9484E+06    -83.5799E+06    -246.178E+06    -36.0045E+06    -244.122E+06    -83.5799E+06    -18.5831E+06         34.9024
            1185     6.31423E-03     1.19485E-03     813.243E-03     666.254E-03     141.843E-03     151.849E-03     719.878E-03     749.612E-03     122.144E-03     176.313E-03    -74.7374E-03    -101.576E-03    -73.2268E-03     174.803E-03    -101.576E-03     34.7775E-03    -41.3986E+06    -69.9118E+06    -273.018E+06    -42.5652E+06    -271.852E+06    -69.9118E+06    -14.6087E+06         35.2126
            1186     5.38907E-03     1.21105E-03     835.868E-03     591.630E-03     197.946E-03     333.806E-03     455.771E-03     835.868E-03     239.357E-03     188.284E-03    -82.6705E-03    -105.613E-03    -81.3835E-03     186.997E-03    -105.613E-03     33.3226E-03    -47.4208E+06    -61.1898E+06    -280.291E+06    -47.9070E+06    -279.805E+06    -61.1898E+06    -9.24786E+06         35.5925
            1187     4.47299E-03     1.22872E-03     918.418E-03     577.092E-03     140.990E-03     522.829E-03     195.254E-03     918.418E-03     147.879E-03     200.751E-03    -91.2764E-03    -109.475E-03    -90.2444E-03     199.719E-03    -109.475E-03     31.0094E-03    -50.4443E+06    -55.7847E+06    -279.768E+06    -50.5676E+06    -279.645E+06    -55.7847E+06    -4.65817E+06         35.9956
            1188     3.56360E-03     1.24560E-03         1.00937     777.949E-03    -141.527E-03     741.083E-03    -84.8278E-03     989.537E-03     329.108E-03     212.892E-03    -99.8895E-03    -113.002E-03    -99.1264E-03     212.129E-03    -113.002E-03     27.5154E-03    -51.1979E+06    -53.6232E+06    -278.704E+06    -51.7418E+06    -278.672E+06    -53.1108E+06    -2.04551E+06         36.3813
            1189     2.66532E-03     1.26337E-03         1.07322     981.268E-03    -408.565E-03     891.364E-03    -291.747E-03         1.04631    -17.2786E-03     223.862E-03    -107.834E-03    -116.029E-03    -107.338E-03     223.367E-03    -116.029E-03     22.7726E-03    -51.8006E+06    -53.2293E+06    -279.054E+06    -52.7673E+06    -279.050E+06    -52.2672E+06    -267.414E+03         36.7169
            1190     1.77034E-03     1.27673E-03         1.33055         1.04617    -759.168E-03         1.04654    -509.056E-03         1.08007     517.623E-03     232.778E-03    -114.391E-03    -118.386E-03    -114.129E-03     232.515E-03    -118.386E-03     16.5803E-03    -51.3053E+06    -52.8933E+06    -279.371E+06    -52.7988E+06    -279.366E+06    -51.4046E+06     290.549E+03         36.9772
            1191     885.106E-06     1.28747E-03         2.14915     844.450E-03        -1.39538         1.33132    -577.560E-03     844.450E-03        -1.06290     238.728E-03    -118.684E-03    -120.044E-03    -118.880E-03     238.635E-03    -119.755E-03     9.45181E-03    -51.0813E+06    -53.7316E+06    -280.110E+06    -53.2803E+06    -280.097E+06    -51.5451E+06     884.133E+03         37.1458
            1192     945.724E-06     62.5963E-03         5.99027     567.360E-03        -7.14586    -858.912E-03    -296.680E-03     567.360E-03         5.32200     113.063E-03    -56.3204E-03    -56.7425E-03    -56.6341E-03     113.057E-03    -56.4230E-03     1.84121E-03    -71.8266E+06    -74.7352E+06    -280.008E+06    -73.8000E+06    -279.970E+06    -72.7991E+06     575.471E+03         29.1665
            1193     1.89054E-03     62.5988E-03         3.71134    -144.565E-03        -4.14843    -137.982E-03    -299.102E-03    -144.565E-03     51.4672E-03     113.127E-03    -56.3990E-03    -56.7279E-03    -56.5303E-03     113.115E-03    -56.5844E-03     2.81819E-03    -61.1422E+06    -70.5583E+06    -273.493E+06    -70.5621E+06    -273.489E+06    -61.1422E+06     322.741E+03         29.2656
            1194     2.83587E-03     62.6013E-03         2.04549    -130.781E-03        -2.50540    -53.1125E-03    -406.792E-03    -130.781E-03         4.50035     113.257E-03    -56.5124E-03    -56.7445E-03    -56.5752E-03     113.229E-03    -56.6536E-03     4.26477E-03    -47.5061E+06    -65.7236E+06    -266.910E+06    -65.7268E+06    -266.907E+06    -47.5061E+06     532.544E+03         29.4296
            1195     3.78103E-03     62.6076E-03         1.77479    -105.489E-03        -2.26511     2.81724E-03    -493.146E-03    -105.489E-03         3.98043     113.377E-03    -56.6093E-03    -56.7679E-03    -56.6090E-03     113.327E-03    -56.7177E-03     5.82319E-03    -34.6004E+06    -59.4740E+06    -256.706E+06    -59.4774E+06    -256.703E+06    -34.6004E+06     541.036E+03         29.6652
            1196     4.72597E-03     62.6145E-03         1.88057    -76.4163E-03        -2.41057     94.0126E-03    -624.014E-03    -76.4163E-03         4.15856     113.286E-03    -56.5334E-03    -56.7530E-03    -56.4601E-03     113.213E-03    -56.7525E-03     7.05032E-03    -22.8015E+06    -52.9916E+06    -240.700E+06    -52.9979E+06    -240.694E+06    -22.8015E+06    -594.052E+03         29.9812
            1197     5.67180E-03     62.6233E-03         1.14362    -42.8039E-03        -1.71229     177.973E-03    -746.641E-03    -42.8039E-03         2.66501     113.110E-03    -56.3688E-03    -56.7412E-03    -56.2487E-03     112.990E-03    -56.7412E-03     8.92290E-03    -13.5599E+06    -46.9942E+06    -220.835E+06    -47.0006E+06    -220.828E+06    -13.5599E+06    -736.324E+03         30.3908
            1198     6.61735E-03     62.6339E-03         1.13672    -6.54143E-03        -1.74353     274.872E-03    -881.684E-03    -6.54143E-03         1.35618     113.083E-03    -56.3790E-03    -56.7039E-03    -56.1965E-03     112.900E-03    -56.7039E-03     11.0777E-03    -6.77814E+06    -41.3814E+06    -197.427E+06    -41.3820E+06    -197.427E+06    -6.77814E+06    -61.4860E+03         30.9133
            1199     7.56261E-03     62.6466E-03     539.349E-03     30.8456E-03        -1.18253     349.808E-03    -992.987E-03     30.8456E-03    -115.261E-03     113.221E-03    -56.4428E-03    -56.7780E-03    -56.3081E-03     112.980E-03    -56.6721E-03     12.7469E-03    -2.03770E+06    -37.1050E+06    -171.851E+06    -37.1136E+06    -171.842E+06    -2.03770E+06    -83.8821E+03         31.5757
            1200     8.50821E-03     62.6606E-03     552.400E-03     66.5073E-03        -1.23301     405.717E-03        -1.08633     66.5073E-03    -27.3883E-03     113.285E-03    -56.4517E-03    -56.8329E-03    -56.3070E-03     112.954E-03    -56.6467E-03     14.9043E-03     522.174E+03    -34.0814E+06    -145.053E+06    -34.0920E+06    -145.043E+06     522.174E+03    -129.779E+03         32.4169
            1201     9.45217E-03     62.6799E-03     691.784E-03     98.9506E-03        -1.41279     447.046E-03        -1.16805     98.9506E-03     326.178E-03     113.069E-03    -56.3988E-03    -56.6706E-03    -55.9440E-03     112.534E-03    -56.5903E-03     18.8279E-03     412.735E+03    -30.5683E+06    -113.645E+06    -30.5748E+06    -113.638E+06     412.735E+03    -220.348E+03         33.4909
            1202     10.4003E-03     62.7009E-03     726.050E-03     127.840E-03        -1.48480     483.092E-03        -1.24184     127.840E-03     298.449E-03     112.875E-03    -56.3519E-03    -56.5232E-03    -55.5859E-03     112.080E-03    -56.4945E-03     23.0690E-03    -1.64297E+06    -27.9612E+06    -76.1030E+06    -27.9938E+06    -76.0703E+06    -1.64297E+06    -841.368E+03         34.8621
            1203     11.3451E-03     62.7288E-03     733.011E-03     153.016E-03        -1.52640     502.737E-03        -1.29612     153.016E-03        -1.32903     112.857E-03    -56.3387E-03    -56.5182E-03    -55.3902E-03     111.767E-03    -56.3771E-03     26.9787E-03    -1.21811E+06    -16.1682E+06    -40.9580E+06    -27.1859E+06    -27.0865E+06    -4.07192E+06    -1.00760E+06         36.5842
            1204     12.2912E-03     62.7590E-03         1.00842     173.135E-03        -1.83073     499.987E-03        -1.32230     173.135E-03        -2.13730     113.291E-03    -56.2338E-03    -57.0570E-03    -55.0155E-03     111.249E-03    -56.2338E-03     36.3734E-03     42.1870E+06    -5.45460E+06    -26.2092E+06    -26.1810E+06     42.1587E+06    -5.45460E+06    -6.03999E+03         38.6623
            1205     13.2368E-03     62.8080E-03         1.25667     187.100E-03        -2.10352     489.654E-03        -1.33650     187.100E-03        -2.80881     114.502E-03    -56.1459E-03    -58.3561E-03    -54.6367E-03     110.783E-03    -56.1459E-03     49.7824E-03     109.007E+06     3.93626E+06    -23.3267E+06    -23.3104E+06     108.991E+06     3.93626E+06    -295.987E+03         41.0256
            1206     14.1832E-03     62.8673E-03         1.01670     195.303E-03        -1.88627     482.062E-03        -1.35164     195.303E-03        -2.18094     116.722E-03    -56.2329E-03    -60.4891E-03    -54.3602E-03     110.593E-03    -56.2329E-03     64.2820E-03     140.145E+06     37.2395E+06    -18.8001E+06    -18.7816E+06     140.126E+06     37.2395E+06    -69.7173E+03         43.5396
            1207     15.1309E-03     62.9466E-03     768.456E-03     199.196E-03        -1.65570     483.290E-03        -1.37054     199.196E-03        -1.54984     118.471E-03    -56.4188E-03    -62.0525E-03    -53.7825E-03     110.201E-03    -56.4188E-03     75.4281E-03     151.795E+06     86.4222E+06    -13.0674E+06    -13.0558E+06     151.783E+06     86.4222E+06     1.13396E+06         46.0279
            1208     16.0777E-03     63.0320E-03     657.750E-03     203.495E-03        -1.55865     486.869E-03        -1.38776     203.495E-03    -709.524E-03     115.612E-03    -56.2018E-03    -59.4105E-03    -54.1365E-03     110.670E-03    -56.5334E-03     51.9525E-03     154.205E+06     119.174E+06    -6.70513E+06    -6.70088E+06     154.201E+06     119.174E+06     411.224E+03         48.2473
            1209     944.492E-06     63.7142E-03         6.52795     151.848E-03        -7.23643    -886.114E-03     177.638E-03     151.848E-03         5.60316     113.094E-03    -56.4342E-03    -56.6597E-03    -56.4946E-03     113.090E-03    -56.5952E-03     1.48692E-03    -72.7230E+06    -74.7028E+06    -279.301E+06    -74.6547E+06    -279.285E+06    -72.7879E+06    -661.959E+03         29.1634
            1210     1.89105E-03     63.7168E-03         3.94876    -363.500E-03        -4.14718    -346.642E-03     148.220E-03    -363.500E-03    -42.3144E-03     113.106E-03    -56.4294E-03    -56.6770E-03    -56.5047E-03     113.095E-03    -56.5904E-03     2.72972E-03    -62.1776E+06    -71.2968E+06    -273.182E+06    -71.3028E+06    -273.176E+06    -62.1776E+06     478.421E+03         29.2622
            1211     2.83585E-03     63.7206E-03         2.17441    -351.678E-03        -2.38499    -301.410E-03     90.8301E-03    -351.678E-03         4.50013     113.508E-03    -56.6828E-03    -56.8256E-03    -56.7996E-03     113.482E-03    -56.6828E-03     4.11271E-03    -48.3620E+06    -65.6794E+06    -266.754E+06    -65.6860E+06    -266.747E+06    -48.3620E+06     159.650E+03         29.4259
            1212     3.78064E-03     63.7263E-03         1.83738    -331.504E-03        -2.08176    -228.387E-03    -15.9943E-03    -331.504E-03         3.86544     113.377E-03    -56.5559E-03    -56.8213E-03    -56.5637E-03     113.329E-03    -56.7651E-03     5.68991E-03    -34.9839E+06    -58.6880E+06    -255.089E+06    -58.6936E+06    -255.084E+06    -34.9839E+06    -161.258E+03         29.6610
            1213     4.72617E-03     63.7335E-03         1.90119    -304.128E-03        -2.18184    -145.172E-03    -135.481E-03    -304.128E-03         4.05507     113.183E-03    -56.4086E-03    -56.7746E-03    -56.3289E-03     113.103E-03    -56.7746E-03     7.28432E-03    -22.8364E+06    -52.6770E+06    -239.316E+06    -52.6840E+06    -239.309E+06    -22.8364E+06    -495.726E+03         29.9764
            1214     5.67128E-03     63.7415E-03         1.13073    -271.580E-03        -1.44648    -50.6876E-03    -265.058E-03    -271.580E-03         2.54091     113.194E-03    -56.4388E-03    -56.7552E-03    -56.3215E-03     113.077E-03    -56.7552E-03     8.88344E-03    -13.7568E+06    -47.7588E+06    -220.478E+06    -47.7655E+06    -220.471E+06    -13.7568E+06    -468.274E+03         30.3853
            1215     6.61716E-03     63.7524E-03         1.11593    -235.712E-03        -1.46563     39.1509E-03    -388.846E-03    -235.712E-03         1.24752     113.144E-03    -56.4206E-03    -56.7235E-03    -56.2527E-03     112.976E-03    -56.7235E-03     10.6116E-03    -7.84071E+06    -43.0744E+06    -197.378E+06    -43.0778E+06    -197.375E+06    -7.84071E+06    -358.912E+03         30.9068
            1216     7.56290E-03     63.7655E-03     432.878E-03    -199.465E-03    -816.221E-03     108.476E-03    -491.819E-03    -199.465E-03    -204.572E-03     113.210E-03    -56.4131E-03    -56.7971E-03    -56.2800E-03     112.971E-03    -56.6911E-03     12.6792E-03    -2.85141E+06    -37.7576E+06    -171.569E+06    -37.7685E+06    -171.558E+06    -2.85141E+06    -452.328E+03         31.5675
            1217     8.50697E-03     63.7809E-03     417.351E-03    -165.283E-03    -838.843E-03     159.195E-03    -580.686E-03    -165.283E-03    -137.278E-03     113.076E-03    -56.3203E-03    -56.7559E-03    -56.0849E-03     112.735E-03    -56.6500E-03     15.1184E-03     378.877E+03    -32.6689E+06    -144.820E+06    -32.6794E+06    -144.809E+06     378.877E+03    -489.944E+03         32.4064
            1218     9.45449E-03     63.7970E-03     577.322E-03    -133.792E-03        -1.04031     210.630E-03    -673.615E-03    -133.792E-03     211.176E-03     112.902E-03    -56.2924E-03    -56.6100E-03    -55.7833E-03     112.358E-03    -56.5744E-03     19.0028E-03     892.110E+03    -28.9459E+06    -112.602E+06    -28.9548E+06    -112.593E+06     892.110E+03     13.6660E+03         33.4781
            1219     10.3984E-03     63.8207E-03     610.431E-03    -104.540E-03        -1.11280     262.675E-03    -765.039E-03    -104.540E-03     183.244E-03     112.938E-03    -56.3896E-03    -56.5485E-03    -55.6565E-03     112.141E-03    -56.4843E-03     23.1213E-03     563.103E+03    -26.9995E+06    -74.6258E+06    -27.0438E+06    -74.5814E+06     563.103E+03     617.822E+03         34.8475
            1220     11.3450E-03     63.8466E-03     649.532E-03    -77.4777E-03        -1.18643     305.250E-03    -842.145E-03    -77.4777E-03        -1.40237     113.075E-03    -56.3697E-03    -56.7055E-03    -55.5850E-03     111.962E-03    -56.3774E-03     27.2720E-03     1.39731E+06    -15.6077E+06    -40.1019E+06    -26.1259E+06    -25.9210E+06    -2.26541E+06     193.103E+03         36.5692
            1221     12.2907E-03     63.8787E-03     978.515E-03    -53.8793E-03        -1.54720     326.258E-03    -894.942E-03    -53.8793E-03        -2.18111     113.243E-03    -56.2382E-03    -57.0049E-03    -54.9895E-03     111.228E-03    -56.2382E-03     36.2173E-03     42.7098E+06    -4.25931E+06    -24.6805E+06    -24.6745E+06     42.7039E+06    -4.25931E+06    -436.388E+03         38.6494
            1222     13.2380E-03     63.9251E-03         1.26761    -35.2157E-03        -1.86712     339.195E-03    -938.705E-03    -35.2157E-03        -2.85061     114.207E-03    -56.1349E-03    -58.0720E-03    -54.2349E-03     110.370E-03    -56.1349E-03     50.2930E-03     108.333E+06     4.58391E+06    -22.6671E+06    -22.6507E+06     108.317E+06     4.58391E+06    -869.187E+03         41.0178
            1223     14.1850E-03     63.9869E-03         1.00483    -21.3946E-03        -1.63462     354.782E-03    -984.569E-03    -21.3946E-03        -2.22201     116.607E-03    -56.2049E-03    -60.4017E-03    -54.3132E-03     110.518E-03    -56.2049E-03     64.2567E-03     139.450E+06     36.8203E+06    -20.2937E+06    -20.2644E+06     139.421E+06     36.8203E+06    -1.27968E+06         43.5393
            1224     15.1305E-03     64.0641E-03     746.491E-03    -10.9255E-03        -1.40337     383.639E-03        -1.04052    -10.9255E-03        -1.60022     118.768E-03    -56.4049E-03    -62.3633E-03    -54.1732E-03     110.578E-03    -56.4049E-03     75.1298E-03     151.580E+06     86.3369E+06    -14.5733E+06    -14.5497E+06     151.557E+06     86.3369E+06    -110.383E+03         46.0367
            1225     16.0774E-03     64.1514E-03     637.317E-03     1.16177E-03        -1.31603     428.979E-03        -1.10769     1.16177E-03    -733.907E-03     115.961E-03    -56.1913E-03    -59.7702E-03    -54.3702E-03     110.909E-03    -56.5387E-03     52.4052E-03     155.414E+06     119.892E+06    -6.56113E+06    -6.55330E+06     155.406E+06     119.892E+06     1.02803E+06         48.2662
            1226     945.794E-06     64.8326E-03         5.95982    -225.207E-03        -6.25640    -910.182E-03     613.602E-03    -225.207E-03         4.98063     113.362E-03    -56.4475E-03    -56.9141E-03    -56.8522E-03     113.358E-03    -56.5059E-03     1.29271E-03    -70.2160E+06    -73.3200E+06    -277.834E+06    -73.1013E+06    -277.830E+06    -70.4378E+06     5.67687E+03         29.1621
            1227     1.89005E-03     64.8351E-03         3.70414    -559.757E-03        -3.67806    -526.206E-03     552.284E-03    -559.757E-03     157.981E-03     113.476E-03    -56.5882E-03    -56.8874E-03    -56.7258E-03     113.463E-03    -56.7374E-03     2.79110E-03    -61.8520E+06    -70.3818E+06    -273.210E+06    -70.3852E+06    -273.207E+06    -61.8520E+06    -138.035E+03         29.2596
            1228     2.83523E-03     64.8400E-03         2.30223    -550.952E-03        -2.27997    -543.998E-03     566.257E-03    -550.952E-03         4.35792     113.392E-03    -56.5536E-03    -56.8383E-03    -56.5784E-03     113.365E-03    -56.7864E-03     4.22463E-03    -48.4702E+06    -64.4199E+06    -265.201E+06    -64.4266E+06    -265.195E+06    -48.4702E+06    -30.9577E+03         29.4220
            1229     3.78045E-03     64.8451E-03         2.01880    -541.997E-03        -2.02460    -471.813E-03     466.011E-03    -541.997E-03         3.83979     113.216E-03    -56.4205E-03    -56.7955E-03    -56.3805E-03     113.169E-03    -56.7889E-03     5.57648E-03    -35.4588E+06    -58.8443E+06    -254.743E+06    -58.8520E+06    -254.735E+06    -35.4588E+06    -705.838E+03         29.6563
            1230     4.72630E-03     64.8513E-03         1.99196    -521.479E-03        -2.02680    -390.860E-03     356.017E-03    -521.479E-03         3.90556     113.186E-03    -56.4155E-03    -56.7701E-03    -56.3332E-03     113.103E-03    -56.7701E-03     7.38201E-03    -24.2181E+06    -53.6213E+06    -239.561E+06    -53.6254E+06    -239.557E+06    -24.2181E+06    -456.282E+03         29.9711
            1231     5.67184E-03     64.8612E-03         1.23883    -492.750E-03        -1.30396    -284.009E-03     218.875E-03    -492.750E-03         2.44421     113.397E-03    -56.6262E-03    -56.7705E-03    -56.5056E-03     113.276E-03    -56.7705E-03     9.03774E-03    -13.4863E+06    -47.6065E+06    -219.438E+06    -47.6070E+06    -219.437E+06    -13.4863E+06     218.263E+03         30.3792
            1232     6.61627E-03     64.8709E-03         1.16829    -459.340E-03        -1.26057    -205.352E-03     113.079E-03    -459.340E-03         1.12018     113.308E-03    -56.5514E-03    -56.7568E-03    -56.3760E-03     113.133E-03    -56.7568E-03     10.8152E-03    -7.81583E+06    -42.2512E+06    -196.500E+06    -42.2540E+06    -196.497E+06    -7.81583E+06    -222.803E+03         30.8992
            1233     7.56141E-03     64.8846E-03     468.797E-03    -394.599E-03    -622.653E-03    -142.663E-03     20.2644E-03    -426.056E-03    -279.382E-03     112.927E-03    -56.2230E-03    -56.7044E-03    -55.9670E-03     112.671E-03    -56.7044E-03     13.0950E-03    -4.11713E+06    -37.9650E+06    -170.867E+06    -37.9744E+06    -170.858E+06    -4.11713E+06    -904.931E+03         31.5578
            1234     8.50893E-03     64.8988E-03     426.061E-03    -362.932E-03    -617.488E-03    -88.8050E-03    -71.1649E-03    -394.389E-03    -236.681E-03     112.843E-03    -56.2077E-03    -56.6356E-03    -55.8745E-03     112.510E-03    -56.6356E-03     14.9709E-03    -528.813E+03    -34.4096E+06    -143.939E+06    -34.4181E+06    -143.930E+06    -528.813E+03    -682.399E+03         32.3948
            1235     9.45302E-03     64.9162E-03     579.294E-03    -363.940E-03    -780.124E-03    -21.4079E-03    -179.422E-03    -363.940E-03     136.147E-03     112.873E-03    -56.2837E-03    -56.5889E-03    -55.7916E-03     112.345E-03    -56.5533E-03     18.6511E-03    -211.127E+03    -31.3373E+06    -113.034E+06    -31.3459E+06    -113.025E+06    -211.127E+03     176.128E+03         33.4646
            1236     10.4003E-03     64.9393E-03     587.172E-03    -333.928E-03    -827.571E-03     49.3133E-03    -289.712E-03    -333.928E-03     108.093E-03     112.848E-03    -56.3207E-03    -56.5275E-03    -55.5805E-03     112.043E-03    -56.4624E-03     23.2217E-03    -115.813E+03    -27.9207E+06    -74.8015E+06    -27.9598E+06    -74.7624E+06    -115.813E+03     752.810E+03         34.8326
            1237     11.3456E-03     64.9653E-03     637.020E-03    -304.536E-03    -914.162E-03     113.568E-03    -390.710E-03    -304.536E-03        -1.43401     113.047E-03    -56.3437E-03    -56.7030E-03    -55.5352E-03     111.887E-03    -56.3514E-03     27.8244E-03     2.56251E+06    -15.4212E+06    -39.2136E+06    -25.6540E+06    -24.3381E+06    -2.08015E+06     662.906E+03         36.5546
            1238     12.2911E-03     64.9986E-03     994.311E-03    -277.126E-03        -1.30563     157.245E-03    -468.565E-03    -277.126E-03        -2.19116     113.261E-03    -56.2242E-03    -57.0365E-03    -55.0927E-03     111.317E-03    -56.2242E-03     35.8002E-03     44.3456E+06    -2.57137E+06    -24.3575E+06    -24.3428E+06     44.3309E+06    -2.57137E+06    -471.453E+03         38.6380
            1239     13.2377E-03     65.0408E-03         1.30938    -253.412E-03        -1.65754     193.691E-03    -541.851E-03    -253.412E-03        -2.86245     114.211E-03    -56.1395E-03    -58.0713E-03    -54.2714E-03     110.411E-03    -56.1395E-03     49.8411E-03     109.991E+06     8.39038E+06    -22.3126E+06    -22.2962E+06     109.974E+06     8.39038E+06    -1.08389E+06         41.0118
            1240     14.1842E-03     65.1075E-03         1.01826    -233.717E-03        -1.40695     230.802E-03    -619.495E-03    -233.717E-03        -2.23515     116.638E-03    -56.2342E-03    -60.4037E-03    -54.3091E-03     110.543E-03    -56.2342E-03     64.3668E-03     139.799E+06     44.5560E+06    -19.5723E+06    -19.5401E+06     139.767E+06     44.5560E+06    -796.565E+03         43.5403
            1241     15.1312E-03     65.1815E-03     751.452E-03    -216.369E-03        -1.17845     290.908E-03    -717.904E-03    -216.369E-03        -1.63492     119.091E-03    -56.4412E-03    -62.6501E-03    -54.5366E-03     110.978E-03    -56.4412E-03     74.9160E-03     150.181E+06     92.0412E+06    -15.5265E+06    -15.5000E+06     150.155E+06     92.0412E+06    -228.820E+03         46.0462
            1242     16.0771E-03     65.2720E-03     635.148E-03    -196.015E-03        -1.09660     377.532E-03    -838.982E-03    -196.015E-03    -761.603E-03     115.924E-03    -55.8874E-03    -60.0367E-03    -54.3470E-03     110.903E-03    -56.5557E-03     52.1503E-03     155.478E+06     119.899E+06    -8.48073E+06    -8.47532E+06     155.473E+06     119.899E+06     600.207E+03         48.2849
            1243     944.745E-06     65.9520E-03         4.46939    -524.347E-03        -4.43447    -982.715E-03         1.01764    -524.347E-03         3.64237     113.747E-03    -56.5068E-03    -57.2401E-03    -57.1672E-03     113.743E-03    -56.5762E-03     1.34413E-03    -70.5090E+06    -72.7271E+06    -276.416E+06    -72.5087E+06    -276.413E+06    -70.7308E+06     473.337E+03         29.1598
            1244     1.88976E-03     65.9546E-03         3.07376    -744.069E-03        -2.82080    -704.585E-03     957.552E-03    -744.069E-03     625.954E-03     113.575E-03    -56.5883E-03    -56.9866E-03    -56.6805E-03     113.562E-03    -56.8820E-03     2.79434E-03    -61.6746E+06    -69.8990E+06    -272.077E+06    -69.9011E+06    -272.075E+06    -61.6746E+06    -1.32478E+03         29.2562
            1245     2.83517E-03     65.9582E-03         2.39473    -739.127E-03        -2.14497    -764.662E-03         1.01441    -739.127E-03         4.09443     113.134E-03    -56.3117E-03    -56.8225E-03    -56.2828E-03     113.105E-03    -56.8225E-03     4.35791E-03    -49.7919E+06    -65.4580E+06    -264.595E+06    -65.4642E+06    -264.588E+06    -49.7919E+06    -356.731E+03         29.4175
            1246     3.78113E-03     65.9637E-03         2.26139    -738.179E-03        -2.03593    -689.205E-03     914.665E-03    -738.179E-03         3.89842     113.192E-03    -56.4147E-03    -56.7771E-03    -56.3736E-03     113.142E-03    -56.7684E-03     5.77154E-03    -37.2277E+06    -59.8355E+06    -254.489E+06    -59.8450E+06    -254.480E+06    -37.2277E+06    -329.990E+03         29.6512
            1247     4.72590E-03     65.9702E-03         2.15243    -723.927E-03        -1.94877    -630.334E-03     833.997E-03    -723.927E-03         3.75507     113.340E-03    -56.5600E-03    -56.7802E-03    -56.4856E-03     113.257E-03    -56.7716E-03     7.43625E-03    -24.7228E+06    -54.4333E+06    -238.858E+06    -54.4376E+06    -238.854E+06    -24.7228E+06    -115.293E+03         29.9653
            1248     5.67110E-03     65.9797E-03         1.48243    -701.880E-03        -1.29966    -530.383E-03     713.151E-03    -701.880E-03         2.43644     113.187E-03    -56.4210E-03    -56.7656E-03    -56.2894E-03     113.055E-03    -56.7656E-03     9.38393E-03    -14.8040E+06    -48.4869E+06    -219.060E+06    -48.4897E+06    -219.057E+06    -14.8040E+06    -316.252E+03         30.3724
            1249     6.61690E-03     65.9906E-03         1.32175    -654.834E-03        -1.18059    -451.830E-03     611.863E-03    -673.709E-03         1.04412     113.113E-03    -56.3841E-03    -56.7286E-03    -56.1958E-03     112.924E-03    -56.7286E-03     11.2304E-03    -8.00694E+06    -42.6527E+06    -196.414E+06    -42.6555E+06    -196.411E+06    -8.00694E+06    -320.499E+03         30.8913
            1250     7.56306E-03     66.0021E-03     704.106E-03    -540.582E-03    -673.901E-03    -373.136E-03     506.100E-03    -643.342E-03    -263.927E-03     113.069E-03    -56.3809E-03    -56.6883E-03    -56.1258E-03     112.808E-03    -56.6826E-03     13.2283E-03    -3.21538E+06    -38.6923E+06    -170.186E+06    -38.7051E+06    -170.173E+06    -3.21538E+06     444.930E+03         31.5486
            1251     8.50729E-03     66.0180E-03     635.148E-03    -504.131E-03    -645.468E-03    -310.320E-03     408.337E-03    -612.468E-03    -250.179E-03     112.923E-03    -56.2874E-03    -56.6356E-03    -55.9546E-03     112.585E-03    -56.6299E-03     15.0982E-03    -46.7046E+03    -35.6990E+06    -143.380E+06    -35.7142E+06    -143.365E+06    -46.7046E+03     297.792E+03         32.3839
            1252     9.45413E-03     66.0349E-03     737.392E-03    -557.494E-03    -706.112E-03    -239.912E-03     295.645E-03    -581.947E-03     161.144E-03     112.906E-03    -56.2345E-03    -56.6712E-03    -55.8346E-03     112.388E-03    -56.5533E-03     18.5107E-03    -23.1333E+03    -31.8538E+06    -112.868E+06    -31.8598E+06    -112.862E+06    -23.1333E+03     37.0103E+03         33.4519
            1253     10.3992E-03     66.0569E-03     710.387E-03    -538.256E-03    -706.361E-03    -162.288E-03     179.399E-03    -551.342E-03     110.449E-03     112.926E-03    -56.3129E-03    -56.6130E-03    -55.6940E-03     112.160E-03    -56.4656E-03     22.6786E-03    -988.903E+03    -29.2336E+06    -74.4793E+06    -29.2441E+06    -74.4688E+06    -988.903E+03    -5.34122E+03         34.8182
            1254     11.3455E-03     66.0850E-03     717.254E-03    -507.169E-03    -748.592E-03    -77.6734E-03     59.4212E-03    -520.255E-03        -1.40450     112.616E-03    -56.1465E-03    -56.4699E-03    -55.1758E-03     111.525E-03    -56.3492E-03     26.9169E-03     2.32730E+06    -15.9283E+06    -38.8332E+06    -26.7623E+06    -23.5580E+06    -2.11391E+06    -17.3445E+03         36.5406
            1255     12.2922E-03     66.1162E-03         1.05795    -489.560E-03        -1.11414    -8.83297E-03    -47.3582E-03    -489.560E-03        -2.14963     113.013E-03    -56.0201E-03    -56.9933E-03    -54.8452E-03     111.049E-03    -56.2041E-03     35.7938E-03     45.7954E+06    -1.12690E+06    -24.2464E+06    -24.2369E+06     45.7860E+06    -1.12690E+06    -105.799E+03         38.6281
            1256     13.2373E-03     66.1615E-03         1.37180    -461.167E-03        -1.47276     50.2792E-03    -151.237E-03    -461.167E-03        -2.82418     114.714E-03    -56.1299E-03    -58.5844E-03    -54.7840E-03     110.914E-03    -56.1299E-03     50.1308E-03     110.833E+06     9.33203E+06    -23.1429E+06    -23.1304E+06     110.820E+06     9.33203E+06    -544.462E+03         41.0083
            1257     14.1849E-03     66.2227E-03         1.05449    -435.593E-03        -1.20542     114.170E-03    -265.093E-03    -435.593E-03        -2.20403     117.049E-03    -56.2617E-03    -60.7875E-03    -54.6890E-03     110.951E-03    -56.2617E-03     64.4662E-03     140.613E+06     46.2779E+06    -21.1314E+06    -21.1151E+06     140.597E+06     46.2779E+06     399.819E+03         43.5433
            1258     15.1304E-03     66.3043E-03     776.259E-03    -411.178E-03    -977.776E-03     202.649E-03    -404.167E-03    -411.178E-03        -1.63438     118.933E-03    -56.4710E-03    -62.4619E-03    -54.3599E-03     110.831E-03    -56.4710E-03     74.8274E-03     150.771E+06     93.2346E+06    -15.9404E+06    -15.9329E+06     150.764E+06     93.2346E+06     402.364E+03         46.0575
            1259     16.0760E-03     66.3887E-03     639.291E-03    -382.659E-03    -894.180E-03     324.203E-03    -579.092E-03    -382.659E-03    -772.128E-03     115.557E-03    -55.7743E-03    -59.7831E-03    -54.0371E-03     110.599E-03    -56.5615E-03     51.8884E-03     155.232E+06     119.268E+06    -8.26551E+06    -8.26217E+06     155.229E+06     119.268E+06    -401.326E+03         48.3063
            1260     944.736E-06     67.0714E-03         2.69040    -718.717E-03        -2.40841        -1.08626         1.40625    -756.714E-03         1.89382     113.654E-03    -56.5696E-03    -57.0841E-03    -56.9625E-03     113.648E-03    -56.6853E-03     1.93964E-03    -72.5607E+06    -75.1852E+06    -277.265E+06    -74.9767E+06    -277.260E+06    -72.7738E+06     314.616E+03         29.1544
            1261     1.88995E-03     67.0736E-03         2.37351    -876.190E-03        -1.94761    -883.548E-03         1.34744    -914.187E-03         1.28906     113.341E-03    -56.5295E-03    -56.8112E-03    -56.5163E-03     113.328E-03    -56.8112E-03     2.92933E-03    -62.8650E+06    -70.8144E+06    -271.179E+06    -70.8204E+06    -271.173E+06    -62.8650E+06     283.564E+03         29.2510
            1262     2.83545E-03     67.0765E-03         2.49348    -913.017E-03        -2.02279    -948.708E-03         1.41939    -913.017E-03         3.81208     113.174E-03    -56.4224E-03    -56.7512E-03    -56.3944E-03     113.146E-03    -56.7512E-03     4.28677E-03    -52.2504E+06    -66.8672E+06    -263.594E+06    -66.8740E+06    -263.587E+06    -52.2504E+06    -637.473E+03         29.4125
            1263     3.78077E-03     67.0820E-03         2.54592    -914.410E-03        -2.09812    -871.516E-03         1.31932    -914.410E-03         4.05289     113.187E-03    -56.4416E-03    -56.7451E-03    -56.3947E-03     113.131E-03    -56.7365E-03     6.04905E-03    -39.1303E+06    -61.4778E+06    -253.778E+06    -61.4842E+06    -253.772E+06    -39.1303E+06    -278.653E+03         29.6459
            1264     4.72613E-03     67.0898E-03         2.34955    -902.980E-03        -1.92260    -831.560E-03         1.25851    -902.980E-03         3.65409     113.271E-03    -56.5103E-03    -56.7609E-03    -56.4301E-03     113.182E-03    -56.7522E-03     7.73023E-03    -24.3395E+06    -54.8583E+06    -237.676E+06    -54.8613E+06    -237.673E+06    -24.3395E+06    -129.063E+03         29.9595
            1265     5.67164E-03     67.0977E-03         1.80642    -885.673E-03        -1.39810    -747.816E-03         1.15613    -885.673E-03         2.55085     113.070E-03    -56.3274E-03    -56.7429E-03    -56.2002E-03     112.943E-03    -56.7429E-03     9.22088E-03    -13.7177E+06    -48.9455E+06    -218.364E+06    -48.9493E+06     -218.36E+06    -13.7177E+06    -606.307E+03         30.3660
            1266     6.61772E-03     67.1088E-03         1.54903    -802.003E-03        -1.21590    -672.871E-03         1.06628    -862.279E-03         1.08681     112.967E-03    -56.2705E-03    -56.6967E-03    -56.0883E-03     112.785E-03    -56.6967E-03     11.0221E-03    -7.58132E+06    -44.0642E+06    -196.960E+06    -44.0698E+06    -196.954E+06    -7.58132E+06    -76.7774E+03         30.8840
            1267     7.56224E-03     67.1217E-03         1.04558    -674.790E-03    -835.077E-03    -584.577E-03     955.369E-03    -835.077E-03    -118.424E-03     113.161E-03    -56.5019E-03    -56.6593E-03    -56.2521E-03     112.906E-03    -56.6536E-03     13.1059E-03    -2.95704E+06    -39.5459E+06    -170.008E+06    -39.5607E+06    -169.993E+06    -2.95704E+06     973.244E+03         31.5403
            1268     8.50856E-03     67.1365E-03     969.724E-03    -632.929E-03    -805.863E-03    -519.509E-03     856.304E-03    -805.863E-03    -159.286E-03     113.050E-03    -56.4279E-03    -56.6224E-03    -56.1038E-03     112.720E-03    -56.6160E-03     14.9277E-03     83.4743E+03    -35.3707E+06    -142.093E+06    -35.3890E+06    -142.075E+06     83.4743E+03     713.629E+03         32.3742
            1269     9.45370E-03     67.1530E-03         1.01854    -701.577E-03    -794.447E-03    -451.009E-03     750.088E-03    -776.564E-03     272.361E-03     112.971E-03    -56.3008E-03    -56.6697E-03    -55.8908E-03     112.442E-03    -56.5512E-03     18.6540E-03    -391.608E+03    -32.0148E+06    -112.733E+06    -32.0319E+06    -112.716E+06    -391.608E+03    -53.1782E+03         33.4407
            1270     10.3991E-03     67.1773E-03     957.527E-03    -675.834E-03    -764.614E-03    -368.385E-03     632.194E-03    -746.730E-03     189.260E-03     113.043E-03    -56.3579E-03    -56.6855E-03    -55.7621E-03     112.232E-03    -56.4701E-03     23.3286E-03    -760.073E+03    -28.4785E+06    -74.0976E+06    -28.4970E+06    -74.0790E+06    -760.073E+03    -250.193E+03         34.8063
            1271     11.3445E-03     67.2020E-03     891.128E-03    -624.970E-03    -753.692E-03    -269.460E-03     497.222E-03    -715.296E-03        -1.30251     112.525E-03    -56.0742E-03    -56.4505E-03    -55.0932E-03     111.446E-03    -56.3529E-03     26.8118E-03     2.27260E+06    -15.1941E+06    -38.9238E+06    -26.6246E+06    -23.2138E+06    -2.00694E+06     194.662E+03         36.5294
            1272     12.2918E-03     67.2342E-03         1.17058    -661.211E-03        -1.00528    -176.091E-03     362.881E-03    -682.705E-03        -2.04730     112.773E-03    -55.9334E-03    -56.8394E-03    -54.5773E-03     110.771E-03    -56.1934E-03     35.9046E-03     46.1502E+06    -1.64680E+06    -25.7347E+06    -25.7111E+06     46.1265E+06    -1.64680E+06     766.739E+03         38.6207
            1273     13.2397E-03     67.2800E-03         1.44650    -650.732E-03        -1.30952    -89.9515E-03     226.929E-03    -650.732E-03        -2.72258     115.087E-03    -56.1225E-03    -58.9648E-03    -55.1697E-03     111.292E-03    -56.1225E-03     50.4124E-03     111.194E+06     8.65451E+06    -24.5910E+06    -24.5824E+06     111.186E+06     8.65451E+06     747.379E+03         41.0066
            1274     14.1825E-03     67.3441E-03         1.11227    -600.230E-03        -1.05490     363.376E-06     76.6329E-03    -619.860E-03        -2.13025     117.289E-03    -56.2537E-03    -61.0356E-03    -55.0386E-03     111.292E-03    -56.2537E-03     63.9762E-03     141.698E+06     41.0937E+06    -21.5767E+06    -21.5717E+06     141.693E+06     41.0937E+06     785.654E+03         43.5479
            1275     15.1296E-03     67.4206E-03     819.211E-03    -568.936E-03    -826.967E-03     121.626E-03    -109.751E-03    -588.567E-03        -1.59282     118.584E-03    -56.4553E-03    -62.1289E-03    -53.8610E-03     110.316E-03    -56.4553E-03     75.3544E-03     152.797E+06     88.1520E+06    -15.2905E+06    -15.2744E+06     152.781E+06     88.1520E+06    -374.067E+03         46.0715
            1276     16.0780E-03     67.5090E-03     648.037E-03    -494.602E-03    -762.609E-03     277.331E-03    -334.400E-03    -552.105E-03    -747.066E-03     115.566E-03    -55.9244E-03    -59.6418E-03    -53.9155E-03     110.469E-03    -56.5536E-03     51.9589E-03     155.322E+06     119.061E+06    -7.66954E+06    -7.65363E+06     155.306E+06     119.061E+06    -1.32138E+06         48.3321
            1277     945.392E-06     68.1905E-03         2.16963    -854.343E-03        -1.69712        -1.25385         1.76434    -892.340E-03     60.6840E-03     113.067E-03    -56.3808E-03    -56.6858E-03    -56.6342E-03     113.061E-03    -56.4272E-03     1.70867E-03    -72.6999E+06    -75.7690E+06    -277.251E+06    -75.5655E+06    -277.242E+06    -72.9130E+06    -456.375E+03         29.1468
            1278     1.89073E-03     68.1918E-03         2.15184        -1.02311        -1.52378        -1.01199         1.67804        -1.06110         1.99628     113.123E-03    -56.4966E-03    -56.6262E-03    -56.5341E-03     113.109E-03    -56.5754E-03     2.92820E-03    -64.1378E+06    -71.2623E+06    -271.222E+06    -71.2733E+06    -271.211E+06    -64.1378E+06    -549.067E+03         29.2442
            1279     2.83575E-03     68.1955E-03         2.63233        -1.05410        -1.96582        -1.08331         1.74982        -1.05410         3.57775     113.266E-03    -56.5863E-03    -56.6794E-03    -56.5981E-03     113.235E-03    -56.6371E-03     4.46886E-03    -51.3143E+06    -65.9698E+06    -261.791E+06    -65.9757E+06    -261.785E+06    -51.3143E+06    -644.754E+03         29.4067
            1280     3.78080E-03     68.2005E-03         2.85526        -1.05611        -2.21456        -1.02850         1.66921        -1.05611         4.28309     113.254E-03    -56.5512E-03    -56.7031E-03    -56.4945E-03     113.197E-03    -56.7021E-03     6.19115E-03    -36.8163E+06    -60.6818E+06    -252.826E+06    -60.6863E+06    -252.822E+06    -36.8163E+06    -616.131E+03         29.6405
            1281     4.72666E-03     68.2080E-03         2.55646        -1.04783        -1.93204    -991.427E-03         1.61585        -1.04783         3.61197     113.141E-03    -56.4164E-03    -56.7250E-03    -56.3296E-03     113.055E-03    -56.7250E-03     7.64126E-03    -23.3416E+06    -54.7730E+06    -237.785E+06    -54.7750E+06    -237.783E+06    -23.3416E+06    -568.337E+03         29.9541
            1282     5.67169E-03     68.2172E-03         2.12390        -1.03265        -1.51516    -906.212E-03         1.51495        -1.03265         2.70944     113.157E-03    -56.4337E-03    -56.7234E-03    -56.3190E-03     113.037E-03    -56.7183E-03     8.97156E-03    -13.2531E+06    -49.1329E+06    -218.021E+06    -49.1381E+06    -218.016E+06    -13.2531E+06     93.8556E+03         30.3604
            1283     6.61667E-03     68.2266E-03         1.79055    -926.886E-03        -1.28076    -843.715E-03         1.43798        -1.01137         1.18106     113.114E-03    -56.4137E-03    -56.7001E-03    -56.2368E-03     112.932E-03    -56.6951E-03     11.0090E-03    -6.87423E+06    -43.6076E+06    -196.195E+06    -43.6148E+06    -196.188E+06    -6.87423E+06     568.655E+03         30.8777
            1284     7.56336E-03     68.2409E-03         1.40377    -826.749E-03    -988.191E-03    -784.701E-03         1.36173    -988.191E-03     82.4400E-03     112.937E-03    -56.2906E-03    -56.6460E-03    -56.0368E-03     112.683E-03    -56.6460E-03     13.0725E-03    -2.81313E+06    -38.3332E+06    -169.729E+06    -38.3376E+06    -169.725E+06    -2.81313E+06     487.358E+03         31.5327
            1285     8.50789E-03     68.2551E-03         1.34138    -789.106E-03    -964.322E-03    -730.786E-03         1.28306    -964.322E-03    -13.9581E-03     112.915E-03    -56.3239E-03    -56.5910E-03    -55.9818E-03     112.572E-03    -56.5903E-03     15.1366E-03     488.555E+03    -34.3932E+06    -141.389E+06    -34.4004E+06    -141.381E+06     488.555E+03     762.694E+03         32.3656
            1286     9.45344E-03     68.2725E-03         1.35681    -835.519E-03    -939.123E-03    -648.967E-03         1.17026    -939.123E-03     442.991E-03     112.848E-03    -56.3301E-03    -56.5182E-03    -55.7732E-03     112.291E-03    -56.5175E-03     19.1752E-03     223.885E+03    -31.3504E+06    -112.372E+06    -31.3784E+06    -112.344E+06     223.885E+03     645.651E+03         33.4314
            1287     10.4002E-03     68.2944E-03         1.26186    -774.008E-03    -911.208E-03    -551.573E-03         1.03942    -911.208E-03     332.308E-03     112.940E-03    -56.3200E-03    -56.6203E-03    -55.6597E-03     112.083E-03    -56.4236E-03     23.9571E-03    -1.95870E+06    -29.8325E+06    -74.2820E+06    -29.9435E+06    -74.1710E+06    -1.95870E+06     750.252E+03         34.7973
            1288     11.3461E-03     68.3227E-03         1.11901    -666.178E-03    -880.311E-03    -446.978E-03     899.807E-03    -880.311E-03        -1.11904     113.061E-03    -56.2593E-03    -56.8013E-03    -55.6932E-03     112.028E-03    -56.3353E-03     26.3550E-03     2.39126E+06    -15.4775E+06    -38.6716E+06    -28.3391E+06    -21.5980E+06    -1.82063E+06     570.355E+03         36.5219
            1289     12.2919E-03     68.3497E-03         1.31801    -765.063E-03    -988.488E-03    -344.421E-03     756.225E-03    -847.346E-03        -1.87025     113.263E-03    -56.1451E-03    -57.1175E-03    -55.1063E-03     111.327E-03    -56.2210E-03     35.0769E-03     46.2811E+06    -1.70539E+06    -25.9025E+06    -25.8552E+06     46.2338E+06    -1.70539E+06     728.997E+03         38.6149
            1290     13.2369E-03     68.4010E-03         1.53331    -813.585E-03        -1.17646    -234.203E-03     591.055E-03    -813.585E-03        -2.56008     114.723E-03    -56.1365E-03    -58.5868E-03    -54.6105E-03     110.747E-03    -56.1365E-03     51.3264E-03     110.657E+06     6.64726E+06    -23.3903E+06    -23.3775E+06     110.645E+06     6.64726E+06     1.07290E+06         41.0047
            1291     14.1841E-03     68.4637E-03         1.18537    -674.394E-03        -1.00060    -113.063E-03     402.303E-03    -778.873E-03        -2.00270     116.939E-03    -56.2281E-03    -60.7106E-03    -54.6810E-03     110.909E-03    -56.2281E-03     64.1476E-03     143.147E+06     38.9695E+06    -19.3645E+06    -19.3456E+06     143.128E+06     38.9695E+06    -174.932E+03         43.5533
            1292     15.1308E-03     68.5378E-03     884.329E-03    -621.245E-03    -789.988E-03     41.8126E-03     173.045E-03    -741.762E-03        -1.51772     118.811E-03    -56.4361E-03    -62.3751E-03    -54.1677E-03     110.604E-03    -56.4361E-03     75.1168E-03     154.832E+06     87.8240E+06    -13.2280E+06    -13.1973E+06     154.802E+06     87.8240E+06    -990.151E+03         46.0873
            1293     16.0766E-03     68.6283E-03     667.908E-03    -486.699E-03    -746.689E-03     228.629E-03    -95.6470E-03    -698.463E-03    -706.791E-03     115.650E-03    -55.8162E-03    -59.8336E-03    -53.9589E-03     110.513E-03    -56.5541E-03     51.8835E-03     155.522E+06     119.524E+06    -6.93826E+06    -6.92154E+06     155.505E+06     119.524E+06    -967.319E+03         48.3603
            1294     945.490E-06     69.3078E-03         3.22572    -889.066E-03        -2.65837        -1.48936         2.05672    -889.066E-03        -1.47326     112.773E-03    -56.2927E-03    -56.4804E-03    -56.4462E-03     112.770E-03    -56.3241E-03     1.17480E-03    -71.4443E+06    -75.4301E+06    -274.933E+06    -74.0898E+06    -274.923E+06    -72.7947E+06    -1.18304E+06         29.1399
            1295     1.89089E-03     69.3107E-03         2.45942        -1.17392        -1.61426        -1.11206         1.95722        -1.17392         2.56872     112.918E-03    -56.4173E-03    -56.5002E-03    -56.4558E-03     112.905E-03    -56.4487E-03     2.82759E-03    -62.9823E+06    -71.3213E+06    -269.825E+06    -71.3327E+06    -269.814E+06    -62.9823E+06    -1.27795E+06         29.2374
            1296     2.83614E-03     69.3138E-03         2.79990        -1.16013        -1.96947        -1.16825         1.99868        -1.16013         3.38320     113.187E-03    -56.5467E-03    -56.6403E-03    -56.6104E-03     113.157E-03    -56.5467E-03     4.43490E-03    -49.8855E+06    -66.0364E+06    -261.599E+06    -66.0437E+06    -261.592E+06    -49.8855E+06    -1.02276E+06         29.4003
            1297     3.78147E-03     69.3196E-03         3.13180        -1.15994        -2.32240        -1.14410         1.95350        -1.15994         4.48072     113.289E-03    -56.5946E-03    -56.6940E-03    -56.5900E-03     113.232E-03    -56.6424E-03     6.09026E-03    -36.7140E+06    -60.3262E+06    -252.864E+06    -60.3320E+06    -252.859E+06    -36.7140E+06    -690.692E+03         29.6349
            1298     4.72588E-03     69.3266E-03         2.74738        -1.15476        -1.95324        -1.11695         1.91110        -1.15476         3.57792     113.173E-03    -56.4803E-03    -56.6930E-03    -56.3932E-03     113.086E-03    -56.6930E-03     7.65486E-03    -23.4771E+06    -54.6383E+06    -237.777E+06    -54.6401E+06    -237.775E+06    -23.4771E+06     150.881E+03         29.9491
            1299     5.67218E-03     69.3352E-03         2.39774        -1.14269        -1.61656        -1.03450         1.81568        -1.14269         2.82253     113.176E-03    -56.4722E-03    -56.7037E-03    -56.3507E-03     113.049E-03    -56.6987E-03     9.21574E-03    -13.4976E+06    -49.1257E+06    -217.560E+06    -49.1309E+06    -217.555E+06    -13.4976E+06     602.794E+03         30.3556
            1300     6.61752E-03     69.3464E-03         2.02332        -1.04265        -1.33393    -977.787E-03         1.74868        -1.12415         1.24392     113.145E-03    -56.4568E-03    -56.6881E-03    -56.2814E-03     112.964E-03    -56.6831E-03     11.0222E-03    -7.17231E+06    -43.7953E+06    -195.451E+06    -43.8002E+06    -195.446E+06    -7.17231E+06     499.240E+03         30.8724
            1301     7.56193E-03     69.3584E-03         1.72821    -968.531E-03        -1.10464    -941.681E-03         1.70136        -1.10464     259.000E-03     112.770E-03    -56.1372E-03    -56.6326E-03    -55.8795E-03     112.512E-03    -56.6326E-03     13.1186E-03    -2.62923E+06    -38.5884E+06    -169.542E+06    -38.5905E+06    -169.540E+06    -2.62923E+06     224.522E+03         31.5266
            1302     8.50922E-03     69.3740E-03         1.67647    -935.404E-03        -1.08550    -899.777E-03         1.64085        -1.08550     130.575E-03     112.659E-03    -56.1023E-03    -56.5571E-03    -55.7515E-03     112.309E-03    -56.5571E-03     15.3128E-03     520.151E+03    -34.2307E+06    -142.137E+06    -34.2428E+06    -142.125E+06     520.151E+03     842.614E+03         32.3583
            1303     9.45536E-03     69.3905E-03         1.68568    -965.569E-03        -1.06939    -813.751E-03         1.52882        -1.06434     627.004E-03     112.967E-03    -56.3525E-03    -56.6140E-03    -55.9667E-03     112.453E-03    -56.4865E-03     18.4537E-03     628.501E+03    -32.1258E+06    -111.782E+06    -32.1957E+06    -111.712E+06     628.501E+03     1.96871E+06         33.4230
            1304     10.4003E-03     69.4133E-03         1.57068    -878.577E-03        -1.04392    -706.421E-03         1.39348        -1.03887     506.636E-03     113.019E-03    -56.3765E-03    -56.6428E-03    -55.8133E-03     112.229E-03    -56.4160E-03     22.9509E-03    -516.163E+03    -30.1966E+06    -72.5560E+06    -30.3509E+06    -72.4017E+06    -516.163E+03     2.07026E+06         34.7879
            1305     11.3457E-03     69.4415E-03         1.36695    -713.538E-03        -1.00923    -597.081E-03         1.25049        -1.00923    -905.742E-03     113.380E-03    -56.3149E-03    -57.0653E-03    -55.9869E-03     112.331E-03    -56.3443E-03     26.5538E-03     4.77608E+06    -14.5538E+06    -37.9844E+06    -27.3360E+06    -19.7705E+06    -655.616E+03     566.532E+03         36.5130
            1306     12.2895E-03     69.4711E-03         1.48693    -834.892E-03        -1.01747    -494.049E-03         1.10542    -976.794E-03        -1.65698     113.728E-03    -56.2601E-03    -57.4681E-03    -55.6228E-03     111.883E-03    -56.2601E-03     34.5699E-03     46.8721E+06    -1.16010E+06    -25.1011E+06    -25.0543E+06     46.8253E+06    -1.16010E+06    -580.036E+03         38.6080
            1307     13.2377E-03     69.5162E-03         1.63854    -939.261E-03        -1.08442    -371.684E-03     929.015E-03    -942.474E-03        -2.36531     114.256E-03    -56.1721E-03    -58.0838E-03    -54.1008E-03     110.273E-03    -56.1721E-03     50.8686E-03     110.610E+06     6.72159E+06    -21.8614E+06    -21.8369E+06     110.586E+06     6.72159E+06    -218.615E+03         41.0014
            1308     14.1853E-03     69.5834E-03         1.28307    -693.674E-03        -1.00682    -224.358E-03     712.485E-03    -905.550E-03        -1.83353     116.551E-03    -56.2539E-03    -60.2971E-03    -54.2476E-03     110.502E-03    -56.2539E-03     64.2248E-03     144.691E+06     44.1914E+06    -17.9123E+06    -17.8936E+06     144.672E+06     44.1914E+06    -360.963E+03         43.5571
            1309     15.1297E-03     69.6578E-03     976.293E-03    -570.121E-03    -864.712E-03    -52.1062E-03     458.279E-03    -864.712E-03        -1.41029     118.665E-03    -56.4534E-03    -62.2119E-03    -54.2540E-03     110.707E-03    -56.4534E-03     73.9397E-03     154.217E+06     92.1205E+06    -13.7886E+06    -13.7697E+06     154.198E+06     92.1205E+06    -540.697E+03         46.1018
            1310     16.0772E-03     69.7457E-03     709.218E-03    -396.651E-03    -817.021E-03     159.839E-03     152.729E-03    -817.021E-03    -654.454E-03     115.496E-03    -55.9065E-03    -59.5893E-03    -53.8448E-03     110.393E-03    -56.5484E-03     52.5570E-03     155.184E+06     119.390E+06    -7.01801E+06    -7.01331E+06     155.179E+06     119.390E+06    -215.053E+03         48.3880
            1311     945.241E-06     70.4269E-03         4.31516    -794.423E-03        -3.77902        -1.71788         2.25402    -794.423E-03        -2.39446     112.900E-03    -56.2729E-03    -56.6276E-03    -56.5926E-03     112.897E-03    -56.3042E-03     1.44908E-03    -69.2211E+06    -75.1912E+06    -273.306E+06    -73.8487E+06    -273.298E+06    -70.5716E+06    -371.877E+03         29.1356
            1312     1.89083E-03     70.4280E-03         2.86892        -1.25248        -1.87406        -1.23796         2.23283        -1.25248         2.89941     112.944E-03    -56.3621E-03    -56.5824E-03    -56.4355E-03     112.934E-03    -56.4980E-03     2.54049E-03    -61.4942E+06    -70.7067E+06    -268.012E+06    -70.7128E+06    -268.005E+06    -61.4942E+06    -990.860E+03         29.2327
            1313     2.83623E-03     70.4332E-03         2.99999        -1.24793        -2.01037        -1.24061         2.23024        -1.24793         3.22388     112.985E-03    -56.3908E-03    -56.5942E-03    -56.4115E-03     112.954E-03    -56.5429E-03     4.40756E-03    -49.9734E+06    -66.4469E+06    -260.921E+06    -66.4512E+06    -260.916E+06    -49.9734E+06    -745.992E+03         29.3952
            1314     3.78103E-03     70.4378E-03         3.32938        -1.24333        -2.36356        -1.21299         2.17881        -1.24333         4.54991     113.151E-03    -56.4993E-03    -56.6515E-03    -56.4951E-03     113.096E-03    -56.6010E-03     6.01982E-03    -36.8300E+06    -60.9291E+06    -252.546E+06    -60.9392E+06    -252.536E+06    -36.8300E+06    -781.706E+03         29.6297
            1315     4.72736E-03     70.4454E-03         2.89551        -1.23528        -1.94751        -1.18784         2.13583        -1.23528         3.51664     113.215E-03    -56.5564E-03    -56.6584E-03    -56.4698E-03     113.128E-03    -56.6584E-03     7.59324E-03    -23.1017E+06    -54.2956E+06    -238.007E+06    -54.3059E+06    -237.997E+06    -23.1017E+06    -40.6265E+03         29.9442
            1316     5.67159E-03     70.4539E-03         2.63470        -1.22432        -1.69797        -1.14282         2.07954        -1.22432         2.88628     113.190E-03    -56.5066E-03    -56.6830E-03    -56.3776E-03     113.061E-03    -56.6830E-03     9.31747E-03    -12.1177E+06    -47.9719E+06    -217.828E+06    -47.9842E+06    -217.815E+06    -12.1177E+06     1.11685E+06         30.3510
            1317     6.61708E-03     70.4652E-03         2.25116        -1.13805        -1.39263        -1.09302         2.02337        -1.20987         1.28598     113.015E-03    -56.3511E-03    -56.6635E-03    -56.1743E-03     112.838E-03    -56.6635E-03     10.9091E-03    -5.91308E+06    -43.1124E+06    -194.616E+06    -43.1245E+06    -194.604E+06    -5.91308E+06     1.04210E+06         30.8678
            1318     7.56376E-03     70.4769E-03         1.98735        -1.06510        -1.19282        -1.04003         1.96228        -1.19282     386.690E-03     112.961E-03    -56.2567E-03    -56.7044E-03    -56.1007E-03     112.720E-03    -56.6198E-03     12.6891E-03    -2.39741E+06    -39.3827E+06    -169.075E+06    -39.3897E+06    -169.068E+06    -2.39741E+06     707.425E+03         31.5214
            1319     8.50862E-03     70.4917E-03         1.92942        -1.02151        -1.17419    -992.594E-03         1.90050        -1.17419     238.809E-03     112.982E-03    -56.3191E-03    -56.6626E-03    -56.0866E-03     112.665E-03    -56.5780E-03     14.5850E-03     378.401E+03    -35.6844E+06    -142.483E+06    -35.7083E+06    -142.459E+06     378.401E+03     1.29688E+06         32.3513
            1320     9.45364E-03     70.5100E-03         1.95567        -1.05702        -1.16665    -923.537E-03         1.80934        -1.15380     763.966E-03     113.080E-03    -56.4264E-03    -56.6540E-03    -56.0648E-03     112.591E-03    -56.5265E-03     17.9984E-03     763.491E+03    -31.5885E+06    -111.734E+06    -31.6520E+06    -111.670E+06     763.491E+03     1.72596E+06         33.4130
            1321     10.3988E-03     70.5326E-03         1.84198    -969.664E-03        -1.14277    -825.351E-03         1.68481        -1.12992     648.539E-03     113.027E-03    -56.4050E-03    -56.6216E-03    -55.8086E-03     112.263E-03    -56.4549E-03     22.5839E-03     395.837E+03    -27.1716E+06    -71.3131E+06    -27.2755E+06    -71.2093E+06     395.837E+03     1.47299E+06         34.7750
            1322     11.3456E-03     70.5591E-03         1.60476    -775.596E-03        -1.10164    -711.784E-03         1.54095        -1.10164    -723.006E-03     112.929E-03    -56.1835E-03    -56.7453E-03    -55.4351E-03     111.789E-03    -56.3536E-03     27.5587E-03     4.31637E+06    -13.7765E+06    -36.9989E+06    -25.4413E+06    -20.0562E+06    -961.594E+03     1.57661E+06         36.4995
            1323     12.2917E-03     70.5932E-03         1.65529    -864.779E-03        -1.06944    -596.632E-03         1.38714        -1.06944        -1.45616     113.611E-03    -56.1026E-03    -57.5085E-03    -55.4748E-03     111.718E-03    -56.2433E-03     35.4422E-03     48.9170E+06    -654.886E+03    -25.3056E+06    -25.2207E+06     48.8320E+06    -654.886E+03     278.705E+03         38.5982
            1324     13.2354E-03     70.6323E-03         1.74893    -985.283E-03        -1.06002    -472.138E-03         1.20997        -1.03420        -2.16770     115.009E-03    -56.1935E-03    -58.8151E-03    -54.8957E-03     111.089E-03    -56.1935E-03     50.5993E-03     113.624E+06     9.57124E+06    -24.0354E+06    -24.0164E+06     113.605E+06     9.57124E+06    -849.371E+03         40.9972
            1325     14.1828E-03     70.7016E-03         1.41222    -715.731E-03        -1.02174    -328.142E-03     998.815E-03    -995.925E-03        -1.66061     116.537E-03    -56.3020E-03    -60.2354E-03    -53.9251E-03     110.227E-03    -56.3020E-03     65.4140E-03     144.044E+06     47.6106E+06    -20.6214E+06    -20.6182E+06     144.041E+06     47.6106E+06    -175.670E+03         43.5596
            1326     15.1306E-03     70.7781E-03         1.10218    -511.210E-03    -953.208E-03    -145.379E-03     736.345E-03    -953.208E-03        -1.28493     118.122E-03    -56.4647E-03    -61.6572E-03    -53.6522E-03     110.117E-03    -56.4647E-03     74.0444E-03     153.402E+06     95.0656E+06    -14.0441E+06    -14.0396E+06     153.398E+06     95.0656E+06    -333.092E+03         46.1148
            1327     16.0779E-03     70.8612E-03     788.522E-03    -298.536E-03    -903.231E-03     82.0610E-03     407.926E-03    -903.231E-03    -585.573E-03     115.719E-03    -56.2101E-03    -59.5086E-03    -54.2207E-03     110.761E-03    -56.5404E-03     52.5525E-03     155.450E+06     120.362E+06    -6.73774E+06    -6.73541E+06     155.448E+06     120.362E+06    -241.472E+03         48.4130
            1328     945.719E-06     71.5448E-03         4.72307    -701.261E-03        -4.20344        -1.92571         2.44534    -701.261E-03        -2.63059     113.102E-03    -56.1977E-03    -56.9048E-03    -56.7999E-03     113.098E-03    -56.2985E-03     1.47300E-03    -70.3656E+06    -75.8196E+06    -272.736E+06    -74.7858E+06    -272.727E+06    -71.4086E+06     688.576E+03         29.1343
            1329     1.89001E-03     71.5475E-03         3.15309        -1.32138        -2.01199        -1.35368         2.49478        -1.32138         2.98416     113.064E-03    -56.3776E-03    -56.6865E-03    -56.4706E-03     113.054E-03    -56.5831E-03     2.53035E-03    -62.5666E+06    -71.1058E+06    -267.103E+06    -71.1067E+06    -267.102E+06    -62.5666E+06    -406.719E+03         29.2309
            1330     2.83587E-03     71.5499E-03         3.19990        -1.32832        -2.05238        -1.31978         2.46730        -1.32832         3.13667     112.961E-03    -56.3432E-03    -56.6177E-03    -56.3326E-03     112.930E-03    -56.5979E-03     4.37473E-03    -49.9279E+06    -66.8827E+06    -259.577E+06    -66.8843E+06    -259.575E+06    -49.9279E+06     52.4099E+03         29.3925
            1331     3.78195E-03     71.5576E-03         3.47331        -1.32015        -2.34872        -1.26308         2.38767        -1.32015         4.50578     113.036E-03    -56.4152E-03    -56.6206E-03    -56.3647E-03     112.985E-03    -56.6206E-03     5.82104E-03    -36.2643E+06    -61.9319E+06    -251.323E+06    -61.9414E+06    -251.313E+06    -36.2643E+06    -240.576E+03         29.6260
            1332     4.72608E-03     71.5630E-03         3.02394        -1.30455        -1.92409        -1.21536         2.31521        -1.30455         3.46474     113.153E-03    -56.5011E-03    -56.6523E-03    -56.4177E-03     113.070E-03    -56.6523E-03     7.41603E-03    -24.1809E+06    -56.3421E+06    -238.502E+06    -56.3516E+06    -238.492E+06    -24.1809E+06    -301.744E+03         29.9397
            1333     5.67242E-03     71.5737E-03         2.81668        -1.28873        -1.73389        -1.19999         2.28279        -1.28873         2.91247     113.072E-03    -56.4065E-03    -56.6659E-03    -56.2815E-03     112.947E-03    -56.6659E-03     9.17739E-03    -13.4628E+06    -49.7458E+06    -218.964E+06    -49.7579E+06    -218.952E+06    -13.4628E+06     641.471E+03         30.3459
            1334     6.61785E-03     71.5826E-03         2.44507        -1.20997        -1.43292        -1.16539         2.24168        -1.27411         1.31857     113.156E-03    -56.3861E-03    -56.7697E-03    -56.3293E-03     112.983E-03    -56.6536E-03     10.7672E-03    -5.81115E+06    -42.8463E+06    -193.989E+06    -42.8654E+06    -193.970E+06    -5.81115E+06     1.18909E+06         30.8625
            1335     7.56248E-03     71.5963E-03         2.19945        -1.12809        -1.25730        -1.10280         2.17416        -1.25730     466.209E-03     113.328E-03    -56.4808E-03    -56.8472E-03    -56.4492E-03     113.096E-03    -56.6465E-03     12.5288E-03    -1.25570E+06    -38.0471E+06    -169.051E+06    -38.0878E+06    -169.010E+06    -1.25570E+06     2.02464E+06         31.5152
            1336     8.50749E-03     71.6110E-03         2.11803        -1.06084        -1.23711        -1.03492         2.09211        -1.23711     313.140E-03     113.081E-03    -56.3743E-03    -56.7066E-03    -56.1274E-03     112.749E-03    -56.6219E-03     14.8698E-03     1.11232E+06    -34.2641E+06    -142.383E+06    -34.3124E+06    -142.335E+06     1.11232E+06     2.16494E+06         32.3429
            1337     9.45347E-03     71.6285E-03         2.14796        -1.10294        -1.22219    -968.529E-03         2.00575        -1.21439     860.116E-03     112.908E-03    -56.3404E-03    -56.5677E-03    -55.8044E-03     112.351E-03    -56.5468E-03     19.1945E-03     166.623E+03    -30.2510E+06    -111.078E+06    -30.2669E+06    -111.062E+06     166.623E+03     881.499E+03         33.4015
            1338     10.3999E-03     71.6513E-03         2.04447        -1.02366        -1.19691    -883.171E-03         1.89617        -1.18911     750.557E-03     113.009E-03    -56.4362E-03    -56.5732E-03    -55.7440E-03     112.201E-03    -56.4567E-03     23.3182E-03    -1.16809E+06    -27.8655E+06    -72.2422E+06    -27.9555E+06    -72.1522E+06    -1.16809E+06     994.678E+03         34.7605
            1339     11.3446E-03     71.6781E-03         1.79147    -807.236E-03        -1.16001    -770.734E-03         1.75497        -1.16001    -569.306E-03     112.616E-03    -56.1708E-03    -56.4448E-03    -55.1484E-03     111.498E-03    -56.3492E-03     27.2591E-03     3.69643E+06    -13.6423E+06    -36.5116E+06    -25.5119E+06    -20.4418E+06    -503.705E+03     2.15570E+06         36.4840
            1340     12.2923E-03     71.7094E-03         1.79688    -848.533E-03        -1.12666    -649.925E-03         1.59827        -1.12666        -1.28125     112.985E-03    -56.0232E-03    -56.9619E-03    -54.8098E-03     111.011E-03    -56.2016E-03     35.9051E-03     51.2217E+06     840.201E+03    -23.7738E+06    -23.6458E+06     51.0937E+06     840.201E+03     2.30684E+06         38.5864
            1341     13.2387E-03     71.7564E-03         1.85206    -951.352E-03        -1.08993    -530.235E-03         1.43094        -1.08993        -1.98574     115.341E-03    -56.1491E-03    -59.1920E-03    -55.2163E-03     111.365E-03    -56.1491E-03     51.3330E-03     116.654E+06     12.7669E+06    -23.1073E+06    -23.0706E+06     116.617E+06     12.7669E+06     837.232E+03         40.9932
            1342     14.1829E-03     71.8167E-03         1.54515    -705.741E-03        -1.05020    -395.769E-03         1.23518        -1.05020        -1.50115     117.018E-03    -56.2910E-03    -60.7270E-03    -54.4851E-03     110.776E-03    -56.2910E-03     65.2177E-03     145.067E+06     50.2053E+06    -19.6800E+06    -19.6637E+06     145.050E+06     50.2053E+06    -1.25110E+06         43.5635
            1343     15.1321E-03     71.8960E-03         1.24476    -480.522E-03        -1.00602    -213.661E-03     977.896E-03        -1.00602        -1.17139     118.369E-03    -56.4705E-03    -61.8985E-03    -53.8601E-03     110.331E-03    -56.4705E-03     74.2840E-03     153.145E+06     95.4279E+06    -13.4408E+06    -13.4219E+06     153.126E+06     95.4279E+06    -777.291E+03         46.1271
            1344     16.0768E-03     71.9822E-03     930.938E-03    -257.709E-03    -955.041E-03     8.11688E-03     665.112E-03    -955.041E-03    -521.005E-03     115.947E-03    -56.1138E-03    -59.8330E-03    -54.4425E-03     111.001E-03    -56.5584E-03     52.0499E-03     155.265E+06     120.511E+06    -6.89085E+06    -6.88639E+06     155.260E+06     120.511E+06     444.751E+03         48.4348
            1345     944.345E-06     72.6637E-03         4.55952    -661.646E-03        -3.99681        -2.13754         2.70025    -661.646E-03        -2.30086     113.094E-03    -56.3099E-03    -56.7837E-03    -56.6446E-03     113.090E-03    -56.4454E-03     1.39028E-03    -72.5279E+06    -75.8094E+06    -273.033E+06    -74.7774E+06    -273.022E+06    -73.5709E+06    -116.420E+03         29.1340
            1346     1.89119E-03     72.6651E-03         3.28265        -1.40221        -1.97257        -1.41769         2.72880        -1.40323         2.86205     113.101E-03    -56.4517E-03    -56.6498E-03    -56.5008E-03     113.088E-03    -56.5872E-03     2.88127E-03    -62.9642E+06    -71.7520E+06    -266.402E+06    -71.7619E+06    -266.392E+06    -62.9642E+06     494.533E+03         29.2303
            1347     2.83555E-03     72.6697E-03         3.34279        -1.39970        -2.04262        -1.36232         2.66352        -1.40072         3.14034     113.253E-03    -56.5432E-03    -56.7103E-03    -56.5799E-03     113.226E-03    -56.6458E-03     4.31198E-03    -49.9130E+06    -67.8240E+06    -258.805E+06    -67.8359E+06    -258.793E+06    -49.9130E+06     1.06163E+06         29.3913
            1348     3.78058E-03     72.6745E-03         3.59516        -1.38535        -2.31604        -1.31108         2.59019        -1.38535         4.41630     113.079E-03    -56.3879E-03    -56.6908E-03    -56.3398E-03     113.029E-03    -56.6889E-03     5.74810E-03    -36.6290E+06    -62.4756E+06    -250.641E+06    -62.4826E+06    -250.634E+06    -36.6290E+06     1.04974E+06         29.6235
            1349     4.72713E-03     72.6831E-03         3.17444        -1.36464        -1.92526        -1.24681         2.49600        -1.36464         3.46226     113.027E-03    -56.3356E-03    -56.6914E-03    -56.2555E-03     112.947E-03    -56.6914E-03     7.31907E-03    -24.1819E+06    -56.8725E+06    -237.910E+06    -56.8776E+06    -237.905E+06    -24.1819E+06     435.819E+03         29.9355
            1350     5.67172E-03     72.6906E-03         2.95093        -1.34233        -1.72451        -1.21122         2.43764        -1.34233         2.90829     113.089E-03    -56.4108E-03    -56.6781E-03    -56.2925E-03     112.971E-03    -56.6781E-03     8.88010E-03    -15.0367E+06    -50.6975E+06    -219.010E+06    -50.6985E+06    -219.009E+06    -15.0367E+06    -368.459E+03         30.3403
            1351     6.61741E-03     72.7025E-03         2.57924        -1.24418        -1.44250        -1.16915         2.38269        -1.32098         1.35175     113.207E-03    -56.4259E-03    -56.7809E-03    -56.3619E-03     113.027E-03    -56.6648E-03     10.9798E-03    -8.50313E+06    -45.2852E+06    -195.111E+06    -45.2964E+06    -195.100E+06    -8.50313E+06     631.382E+03         30.8556
            1352     7.56240E-03     72.7154E-03         2.35487        -1.14872        -1.29939        -1.12121         2.32736        -1.29939     527.824E-03     113.097E-03    -56.3312E-03    -56.7662E-03    -56.1938E-03     112.844E-03    -56.6501E-03     13.0686E-03    -2.09147E+06    -39.2046E+06    -169.852E+06    -39.2426E+06    -169.814E+06    -2.09147E+06     1.75378E+06         31.5071
            1353     8.50840E-03     72.7297E-03         2.26919        -1.07511        -1.27601        -1.04898         2.24305        -1.27601     390.800E-03     112.935E-03    -56.2664E-03    -56.6686E-03    -55.9831E-03     112.586E-03    -56.6028E-03     15.3009E-03     1.67297E+06    -33.1181E+06    -141.279E+06    -33.1613E+06    -141.236E+06     1.67297E+06     1.76031E+06         32.3333
            1354     9.45447E-03     72.7464E-03         2.28775        -1.11429        -1.24957    -965.493E-03         2.13895        -1.24957     959.958E-03     112.959E-03    -56.3432E-03    -56.6158E-03    -55.8826E-03     112.412E-03    -56.5290E-03     19.0611E-03     1.21443E+06    -30.3950E+06    -109.248E+06    -30.4301E+06    -109.213E+06     1.21443E+06     1.46385E+06         33.3900
            1355     10.3994E-03     72.7709E-03         2.17323        -1.02406        -1.21993    -871.941E-03         2.02111        -1.21993     851.189E-03     112.882E-03    -56.3607E-03    -56.5217E-03    -55.6389E-03     112.083E-03    -56.4444E-03     23.1442E-03    -106.542E+03    -28.3263E+06    -72.6005E+06    -28.4095E+06    -72.5173E+06    -106.542E+03     1.49761E+06         34.7470
            1356     11.3461E-03     72.7962E-03         1.91294    -791.965E-03        -1.18709    -770.833E-03         1.89181        -1.18709    -437.386E-03     112.703E-03    -56.2531E-03    -56.4498E-03    -55.2881E-03     111.623E-03    -56.3350E-03     26.8526E-03     3.54819E+06    -13.7183E+06    -38.1682E+06    -25.8761E+06    -21.8016E+06    -660.557E+03     1.68870E+06         36.4699
            1357     12.2912E-03     72.8277E-03         1.90886    -820.393E-03        -1.15142    -667.466E-03         1.75594        -1.15142        -1.13114     113.007E-03    -56.1586E-03    -56.8484E-03    -54.8539E-03     111.050E-03    -56.1963E-03     35.6260E-03     51.5791E+06     1.58135E+06    -22.8729E+06    -22.7826E+06     51.4888E+06     1.58135E+06     2.44654E+06         38.5745
            1358     13.2390E-03     72.8732E-03         1.94324    -895.875E-03        -1.11308    -551.894E-03         1.59926        -1.11308        -1.83643     114.709E-03    -56.1322E-03    -58.5766E-03    -54.7443E-03     110.876E-03    -56.1322E-03     50.3884E-03     119.377E+06     15.2545E+06    -19.9966E+06    -19.9469E+06     119.328E+06     15.2545E+06     1.59095E+06         40.9874
            1359     14.1851E-03     72.9403E-03         1.65640    -663.087E-03        -1.07148    -414.398E-03         1.40771        -1.07148        -1.37342     117.140E-03    -56.2906E-03    -60.8495E-03    -54.9843E-03     111.275E-03    -56.2906E-03     63.3861E-03     146.760E+06     54.6246E+06    -17.6826E+06    -17.6602E+06     146.737E+06     54.6246E+06    -284.976E+03         43.5657
            1360     15.1285E-03     73.0106E-03         1.38930    -461.461E-03        -1.02579    -254.291E-03         1.18213        -1.02579        -1.09033     119.087E-03    -56.5028E-03    -62.5840E-03    -54.5110E-03     111.014E-03    -56.5028E-03     74.6139E-03     152.988E+06     97.3990E+06    -13.9290E+06    -13.9025E+06     152.961E+06     97.3990E+06     412.179E+03         46.1377
            1361     16.0768E-03     73.1050E-03         1.13523    -280.202E-03    -975.512E-03    -77.3977E-03     932.428E-03    -975.512E-03    -478.618E-03     115.724E-03    -55.7717E-03    -59.9522E-03    -54.0222E-03     110.601E-03    -56.5791E-03     52.1855E-03     155.922E+06     119.223E+06    -7.71252E+06    -7.70493E+06     155.915E+06     119.223E+06     1.08830E+06         48.4560
            1362     946.142E-06     73.7816E-03         4.08275    -679.873E-03        -3.41101        -2.27474         2.94648    -679.873E-03        -1.57281     112.954E-03    -56.3078E-03    -56.6462E-03    -56.6073E-03     112.950E-03    -56.3425E-03     1.39091E-03    -73.6550E+06    -77.2591E+06    -273.343E+06    -76.8751E+06    -273.334E+06    -74.0482E+06    -449.612E+03         29.1325
            1363     1.89014E-03     73.7838E-03         3.33508        -1.47234        -1.86284        -1.45772         2.93099        -1.47336         2.63190     113.262E-03    -56.5216E-03    -56.7401E-03    -56.6793E-03     113.247E-03    -56.5678E-03     3.03404E-03    -64.5127E+06    -73.8045E+06    -267.202E+06    -73.8187E+06    -267.187E+06    -64.5127E+06     1.29816E+06         29.2289
            1364     2.83583E-03     73.7887E-03         3.45453        -1.45399        -2.00658        -1.36738         2.81637        -1.45501         3.23797     113.306E-03    -56.5890E-03    -56.7167E-03    -56.6066E-03     113.279E-03    -56.6720E-03     4.27926E-03    -51.5681E+06    -68.4452E+06    -259.059E+06    -68.4604E+06    -259.044E+06    -51.5681E+06     1.55251E+06         29.3896
            1365     3.78096E-03     73.7934E-03         3.69605        -1.42972        -2.27734        -1.34284         2.76154        -1.42972         4.32638     113.176E-03    -56.4560E-03    -56.7202E-03    -56.4047E-03     113.123E-03    -56.7183E-03     5.87654E-03    -37.7078E+06    -62.4282E+06    -250.124E+06    -62.4377E+06    -250.114E+06    -37.7078E+06     1.28546E+06         29.6209
            1366     4.72575E-03     73.8008E-03         3.33150        -1.40623        -1.94422        -1.27792         2.66520        -1.40623         3.50143     113.125E-03    -56.3934E-03    -56.7316E-03    -56.3083E-03     113.040E-03    -56.7316E-03     7.56203E-03    -23.7295E+06    -56.2551E+06    -236.847E+06    -56.2654E+06    -236.837E+06    -23.7295E+06     1.05156E+06         29.9315
            1367     5.67204E-03     73.8101E-03         3.06533        -1.37922        -1.70337        -1.20653         2.56849        -1.37922         2.90553     113.185E-03    -56.4586E-03    -56.7260E-03    -56.3367E-03     113.063E-03    -56.7260E-03     9.01691E-03    -13.6755E+06    -50.8608E+06    -218.007E+06    -50.8722E+06    -217.995E+06    -13.6755E+06     812.018E+03         30.3346
            1368     6.61685E-03     73.8208E-03         2.67423        -1.23731        -1.44421        -1.12895         2.47093        -1.34928         1.41688     112.914E-03    -56.2273E-03    -56.6867E-03    -56.0454E-03     112.732E-03    -56.6867E-03     11.0314E-03    -8.11488E+06    -45.5161E+06    -195.716E+06    -45.5269E+06    -195.705E+06    -8.11488E+06     749.199E+03         30.8482
            1369     7.56330E-03     73.8339E-03         2.44326        -1.11513        -1.31879        -1.08072         2.40885        -1.31879     610.452E-03     112.786E-03    -56.1567E-03    -56.6288E-03    -55.9129E-03     112.537E-03    -56.6244E-03     12.9122E-03    -3.35441E+06    -40.4348E+06    -170.126E+06    -40.4394E+06    -170.122E+06    -3.35441E+06     401.287E+03         31.4985
            1370     8.50897E-03     73.8478E-03         2.36910        -1.05442        -1.28914        -1.02281         2.33749        -1.28914     483.431E-03     113.031E-03    -56.3886E-03    -56.6420E-03    -56.1207E-03     112.692E-03    -56.5717E-03     15.0698E-03     166.470E+03    -35.9721E+06    -141.115E+06    -35.9829E+06    -141.104E+06     166.470E+03     530.297E+03         32.3238
            1371     9.45325E-03     73.8667E-03         2.39041        -1.09552        -1.25820    -936.501E-03         2.23139        -1.25820         1.04947     113.014E-03    -56.4233E-03    -56.5911E-03    -55.9624E-03     112.480E-03    -56.5175E-03     18.8377E-03     1.16541E+06    -31.2151E+06    -109.149E+06    -31.2833E+06    -109.080E+06     1.16541E+06     1.73181E+06         33.3792
            1372     10.4000E-03     73.8878E-03         2.26086    -991.563E-03        -1.22408    -830.743E-03         2.10004        -1.22408     933.204E-03     112.822E-03    -56.3538E-03    -56.4678E-03    -55.5899E-03     112.027E-03    -56.4374E-03     23.0600E-03     1.01378E+06    -27.7482E+06    -70.7710E+06    -27.8534E+06    -70.6657E+06     1.01378E+06     2.05680E+06         34.7350
            1373     11.3455E-03     73.9160E-03         1.99027    -748.533E-03        -1.18713    -736.019E-03         1.97775        -1.18713    -337.076E-03     112.893E-03    -56.2877E-03    -56.6049E-03    -55.5095E-03     111.841E-03    -56.3319E-03     26.5545E-03     4.13300E+06    -14.2332E+06    -36.6427E+06    -25.4730E+06    -20.7361E+06    -533.977E+03     1.31844E+06         36.4577
            1374     12.2923E-03     73.9452E-03         1.98729    -774.488E-03        -1.14858    -646.544E-03         1.85935        -1.14858        -1.02029     113.516E-03    -56.2163E-03    -57.2997E-03    -55.3777E-03     111.594E-03    -56.2163E-03     35.3472E-03     50.6878E+06    -190.251E+03    -23.2311E+06    -23.1950E+06     50.6518E+06    -190.251E+03     1.13153E+06         38.5635
            1375     13.2362E-03     73.9939E-03         2.01533    -837.354E-03        -1.10811    -536.434E-03         1.71441        -1.10811        -1.73809     114.645E-03    -56.1619E-03    -58.4826E-03    -54.6267E-03     110.789E-03    -56.1619E-03     50.4534E-03     118.846E+06     12.5487E+06    -21.3905E+06    -21.3434E+06     118.799E+06     12.5487E+06     1.81247E+06         40.9799
            1376     14.1837E-03     74.0558E-03         1.76042    -627.013E-03        -1.06483    -411.773E-03         1.54518        -1.06483        -1.29629     116.839E-03    -56.2804E-03    -60.5591E-03    -54.5383E-03     110.819E-03    -56.2804E-03     64.0531E-03     147.359E+06     48.8099E+06    -19.2759E+06    -19.2102E+06     147.293E+06     48.8099E+06     2.86042E+06         43.5649
            1377     15.1310E-03     74.1354E-03         1.54411    -461.268E-03        -1.01903    -290.944E-03         1.37379        -1.01903        -1.04790     118.939E-03    -56.4747E-03    -62.4642E-03    -54.3901E-03     110.865E-03    -56.4747E-03     74.6358E-03     154.457E+06     92.4013E+06    -15.1451E+06    -15.1050E+06     154.416E+06     92.4013E+06     2.37259E+06         46.1468
            1378     16.0760E-03     74.2182E-03         1.36043    -332.426E-03    -971.614E-03    -169.883E-03         1.19789    -971.614E-03    -463.038E-03     115.624E-03    -55.8579E-03    -59.7657E-03    -53.9814E-03     110.549E-03    -56.5671E-03     52.6074E-03     157.200E+06     118.328E+06    -8.23860E+06    -8.22596E+06     157.188E+06     118.328E+06     702.625E+03         48.4783
            1379     945.064E-06     74.8999E-03         3.59449    -717.428E-03        -2.78441        -2.26768         3.07776    -717.428E-03    -764.926E-03     113.020E-03    -56.3281E-03    -56.6915E-03    -56.6714E-03     113.014E-03    -56.3424E-03     1.48140E-03    -73.5363E+06    -77.2773E+06    -273.067E+06    -76.9032E+06    -273.048E+06    -73.9296E+06     1.33393E+06         29.1292
            1380     1.89067E-03     74.9033E-03         3.36546        -1.48937        -1.77839        -1.47781         3.06488        -1.48937         2.38853     113.238E-03    -56.5262E-03    -56.7122E-03    -56.6399E-03     113.223E-03    -56.5827E-03     3.23218E-03    -65.3566E+06    -74.2496E+06    -267.782E+06    -74.2595E+06    -267.772E+06    -65.3566E+06     1.12096E+06         29.2255
            1381     2.83533E-03     74.9068E-03         3.58562        -1.47293        -2.01657        -1.39183         2.96088        -1.47293         3.38834     113.184E-03    -56.5352E-03    -56.6491E-03    -56.5045E-03     113.154E-03    -56.6491E-03     4.47217E-03    -54.0211E+06    -68.7270E+06    -260.343E+06    -68.7337E+06    -260.336E+06    -54.0211E+06     925.906E+03         29.3862
            1382     3.78097E-03     74.9123E-03         3.77770        -1.44785        -2.23786        -1.35532         2.89516        -1.44785         4.25232     113.242E-03    -56.5486E-03    -56.6936E-03    -56.4957E-03     113.189E-03    -56.6936E-03     5.90915E-03    -39.5065E+06    -62.8037E+06    -249.463E+06    -62.8174E+06    -249.449E+06    -39.5065E+06     1.51094E+06         29.6174
            1383     4.72673E-03     74.9194E-03         3.44274        -1.42107        -1.93466        -1.26879         2.77688        -1.42107         3.53587     113.273E-03    -56.5324E-03    -56.7410E-03    -56.4418E-03     113.183E-03    -56.7410E-03     7.74361E-03    -24.1058E+06    -57.1301E+06    -236.145E+06    -57.1438E+06    -236.132E+06    -24.1058E+06     1.42839E+06         29.9274
            1384     5.67111E-03     74.9289E-03         3.14350        -1.38830        -1.66697        -1.17837         2.65490        -1.38830         2.90275     113.091E-03    -56.3477E-03    -56.7437E-03    -56.2205E-03     112.964E-03    -56.7437E-03     9.26962E-03    -12.6364E+06    -50.5534E+06    -217.788E+06    -50.5667E+06    -217.775E+06    -12.6364E+06     1.36208E+06         30.3294
            1385     6.61730E-03     74.9393E-03         2.74942        -1.21324        -1.43477        -1.08237         2.53524        -1.35147         1.50207     112.869E-03    -56.1798E-03    -56.6897E-03    -56.0050E-03     112.695E-03    -56.6897E-03     10.8047E-03    -6.82213E+06    -44.4126E+06    -194.746E+06    -44.4284E+06    -194.730E+06    -6.82213E+06     1.18440E+06         30.8421
            1386     7.56299E-03     74.9514E-03         2.49913        -1.06243        -1.31362        -1.01883         2.45554        -1.31362     707.419E-03     112.913E-03    -56.2821E-03    -56.6310E-03    -56.0330E-03     112.660E-03    -56.6266E-03     13.0377E-03    -3.17428E+06    -40.0034E+06    -168.994E+06    -40.0116E+06    -168.986E+06    -3.17428E+06     625.341E+03         31.4913
            1387     8.50791E-03     74.9681E-03         2.42162        -1.00210        -1.27745    -963.351E-03         2.38287        -1.27745     563.970E-03     112.886E-03    -56.3107E-03    -56.5751E-03    -55.9773E-03     112.548E-03    -56.5707E-03     15.0642E-03    -954.903E+03    -36.6412E+06    -141.934E+06    -36.6628E+06    -141.912E+06    -954.903E+03     835.227E+03         32.3152
            1388     9.45494E-03     74.9837E-03         2.44885        -1.04952        -1.24182    -886.996E-03         2.28633        -1.24182         1.09564     112.929E-03    -56.3379E-03    -56.5906E-03    -55.8908E-03     112.393E-03    -56.5027E-03     18.8024E-03    -1.02979E+06    -33.6212E+06    -110.015E+06    -33.6845E+06    -109.951E+06    -1.02979E+06     1.61659E+06         33.3690
            1389     10.3997E-03     75.0081E-03         2.32484    -950.242E-03        -1.20451    -787.074E-03         2.16168        -1.20451     974.569E-03     113.123E-03    -56.4360E-03    -56.6873E-03    -55.9166E-03     112.353E-03    -56.4360E-03     22.7889E-03    -546.122E+03    -30.1734E+06    -69.9994E+06    -30.2672E+06    -69.9055E+06    -546.122E+03     1.70464E+06         34.7232
            1390     11.3459E-03     75.0331E-03         2.04602    -697.369E-03        -1.16494    -689.248E-03         2.03790        -1.16494    -267.494E-03     113.125E-03    -56.3573E-03    -56.7675E-03    -55.7186E-03     112.076E-03    -56.3573E-03     26.4791E-03     5.24830E+06    -15.2824E+06    -37.2255E+06    -27.3761E+06    -18.8895E+06    -993.976E+03     1.31223E+06         36.4450
            1391     12.2899E-03     75.0668E-03         2.03653    -713.626E-03        -1.12373    -594.641E-03         1.91755        -1.12373    -959.442E-03     113.387E-03    -56.2418E-03    -57.1448E-03    -55.2123E-03     111.454E-03    -56.2418E-03     35.4977E-03     51.5286E+06    -1.49988E+06    -26.3617E+06    -26.3381E+06     51.5051E+06    -1.49988E+06     808.002E+03         38.5529
            1392     13.2382E-03     75.1102E-03         2.07632    -781.860E-03        -1.08110    -500.106E-03         1.79457        -1.08110        -1.69300     114.585E-03    -56.1574E-03    -58.4279E-03    -54.5356E-03     110.693E-03    -56.1574E-03     50.6142E-03     116.034E+06     6.46567E+06    -24.6475E+06    -24.5925E+06     115.979E+06     6.46567E+06     2.23510E+06         40.9738
            1393     14.1839E-03     75.1765E-03         1.87612    -614.765E-03        -1.03757    -415.954E-03         1.67731        -1.03757        -1.27145     116.719E-03    -56.2345E-03    -60.4846E-03    -54.2572E-03     110.492E-03    -56.2345E-03     65.0375E-03     146.394E+06     38.7016E+06    -20.7724E+06    -20.6745E+06     146.296E+06     38.7016E+06     4.01923E+06         43.5644
            1394     15.1297E-03     75.2519E-03         1.70976    -484.036E-03    -993.949E-03    -335.854E-03         1.56157    -993.949E-03        -1.04039     118.464E-03    -56.4251E-03    -62.0394E-03    -53.9911E-03     110.416E-03    -56.4251E-03     74.4279E-03     157.440E+06     87.6187E+06    -14.7953E+06    -14.7440E+06     157.389E+06     87.6187E+06     2.47468E+06         46.1556
            1395     16.0780E-03     75.3392E-03         1.57874    -387.674E-03    -950.887E-03    -251.586E-03         1.44265    -950.887E-03    -463.851E-03     115.600E-03    -56.0823E-03    -59.5176E-03    -54.1192E-03     110.658E-03    -56.5392E-03     52.3822E-03     159.122E+06     118.864E+06    -6.92301E+06    -6.91386E+06     159.113E+06     118.864E+06     270.223E+03         48.4996
            1396     945.385E-06     76.0184E-03         3.30462    -736.672E-03        -2.37516        -2.16543         3.09488    -736.672E-03    -201.764E-03     113.097E-03    -56.4618E-03    -56.6351E-03    -56.5986E-03     113.089E-03    -56.4905E-03     2.09445E-03    -74.1779E+06    -76.9904E+06    -274.512E+06    -76.4677E+06    -274.492E+06    -74.7203E+06     1.48276E+06         29.1254
            1397     1.89033E-03     76.0218E-03         3.38517        -1.45373        -1.72695        -1.46559         3.12381        -1.45373         2.22667     113.059E-03    -56.4839E-03    -56.5750E-03    -56.4687E-03     113.044E-03    -56.5750E-03     3.19331E-03    -65.2624E+06    -73.2928E+06    -267.526E+06    -73.3029E+06    -267.516E+06    -65.2624E+06     1.11212E+06         29.2211
            1398     2.83631E-03     76.0252E-03         3.69599        -1.45126        -2.03980        -1.41960         3.07579        -1.45126         3.47990     113.167E-03    -56.5478E-03    -56.6189E-03    -56.5251E-03     113.136E-03    -56.6105E-03     4.47734E-03    -54.4662E+06    -69.9032E+06    -260.234E+06    -69.9116E+06    -260.226E+06    -54.4662E+06     987.638E+03         29.3814
            1399     3.78105E-03     76.0313E-03         3.82462        -1.43407        -2.18716        -1.34008         2.97754        -1.43407         4.18257     113.330E-03    -56.6440E-03    -56.6858E-03    -56.6003E-03     113.277E-03    -56.6766E-03     5.95530E-03    -40.9391E+06    -64.0691E+06    -250.051E+06    -64.0849E+06    -250.035E+06    -40.9391E+06     1.17668E+06         29.6124
            1400     4.72572E-03     76.0380E-03         3.49595        -1.40424        -1.89414        -1.22568         2.82749        -1.40424         3.54572     113.152E-03    -56.4220E-03    -56.7296E-03    -56.3356E-03     113.065E-03    -56.7289E-03     7.58302E-03    -24.6365E+06    -56.5813E+06    -235.339E+06    -56.6049E+06    -235.316E+06    -24.6365E+06     1.31628E+06         29.9223
            1401     5.67209E-03     76.0478E-03         3.18084        -1.36618        -1.61217        -1.12727         2.69595        -1.36618         2.88757     112.935E-03    -56.2203E-03    -56.7144E-03    -56.0906E-03     112.805E-03    -56.7144E-03     9.34035E-03    -13.2117E+06    -50.4555E+06    -217.797E+06    -50.4725E+06    -217.780E+06    -13.2117E+06     1.27663E+06         30.3245
            1402     6.61741E-03     76.0571E-03         2.79892        -1.18024        -1.40002        -1.03772         2.58172        -1.32534         1.54267     113.095E-03    -56.4130E-03    -56.6823E-03    -56.2402E-03     112.911E-03    -56.6712E-03     11.1015E-03    -7.21843E+06    -44.6885E+06    -194.829E+06    -44.7002E+06    -194.818E+06    -7.21843E+06     1.13685E+06         30.8372
            1403     7.56247E-03     76.0712E-03         2.54037        -1.01338        -1.28429    -963.740E-03         2.49073        -1.28429     768.120E-03     113.068E-03    -56.4181E-03    -56.6503E-03    -56.1723E-03     112.811E-03    -56.6392E-03     13.1466E-03    -2.29198E+06    -39.7355E+06    -168.449E+06    -39.7848E+06    -168.399E+06    -2.29198E+06     1.95434E+06         31.4854
            1404     8.50901E-03     76.0854E-03         2.44884    -937.897E-03        -1.24425    -894.546E-03         2.40549        -1.24425     618.102E-03     112.912E-03    -56.3002E-03    -56.6114E-03    -55.9922E-03     112.585E-03    -56.5925E-03     14.8321E-03     39.3776E+03    -36.5264E+06    -141.503E+06    -36.5919E+06    -141.437E+06     39.3776E+03     2.19279E+06         32.3073
            1405     9.45361E-03     76.1033E-03         2.47534    -986.433E-03        -1.20500    -823.543E-03         2.31244        -1.20500         1.12142     113.032E-03    -56.4075E-03    -56.6247E-03    -55.9937E-03     112.519E-03    -56.5256E-03     18.4120E-03    -730.657E+03    -33.4242E+06    -110.010E+06    -33.4588E+06    -109.975E+06    -730.657E+03     1.55489E+06         33.3583
            1406     10.3997E-03     76.1265E-03         2.36257    -897.807E-03        -1.16540    -735.167E-03         2.19993        -1.16540     982.586E-03     113.127E-03    -56.4477E-03    -56.6789E-03    -55.8898E-03     112.348E-03    -56.4579E-03     22.8627E-03    -1.09235E+06    -30.4709E+06    -70.5462E+06    -30.5388E+06    -70.4782E+06    -1.09235E+06     1.24968E+06         34.7098
            1407     11.3440E-03     76.1535E-03         2.08546    -644.156E-03        -1.12438    -637.561E-03         2.07886        -1.12438    -238.415E-03     112.948E-03    -56.3645E-03    -56.5837E-03    -55.4913E-03     111.858E-03    -56.3666E-03     26.9655E-03     5.38811E+06    -15.8689E+06    -37.8028E+06    -28.5073E+06    -18.2666E+06    -1.50980E+06     1.56535E+06         36.4313
            1408     12.2920E-03     76.1838E-03         2.08404    -663.408E-03        -1.08200    -546.484E-03         1.96712        -1.08200    -941.306E-03     113.341E-03    -56.2378E-03    -57.1037E-03    -55.1128E-03     111.351E-03    -56.2378E-03     36.0360E-03     51.6588E+06    -1.79639E+06    -26.7544E+06    -26.6504E+06     51.5548E+06    -1.79639E+06     2.45725E+06         38.5422
            1409     13.2364E-03     76.2303E-03         2.14949    -749.639E-03        -1.03933    -478.271E-03         1.87812        -1.03933        -1.68120     114.765E-03    -56.1581E-03    -58.6066E-03    -54.8022E-03     110.960E-03    -56.1581E-03     50.2485E-03     115.747E+06     5.88750E+06    -24.7771E+06    -24.6912E+06     115.661E+06     5.88750E+06     2.39249E+06         40.9682
            1410     14.1839E-03     76.2931E-03         1.99806    -621.063E-03    -997.819E-03    -431.047E-03         1.80804    -997.819E-03        -1.28047     116.466E-03    -56.2469E-03    -60.2191E-03    -54.1520E-03     110.399E-03    -56.2469E-03     64.0569E-03     147.009E+06     39.3252E+06    -20.5356E+06    -20.4958E+06     146.969E+06     39.3252E+06     1.75206E+06         43.5644
            1411     15.1316E-03     76.3724E-03         1.87435    -519.554E-03    -958.001E-03    -380.497E-03         1.73530    -958.001E-03        -1.06862     118.196E-03    -56.4263E-03    -61.7694E-03    -53.7135E-03     110.140E-03    -56.4263E-03     74.3340E-03     159.319E+06     88.9767E+06    -13.1535E+06    -13.1282E+06     159.293E+06     88.9767E+06     1.45941E+06         46.1638
            1412     16.0768E-03     76.4561E-03         1.79679    -457.669E-03    -920.390E-03    -336.050E-03         1.67518    -920.390E-03    -484.874E-03     115.624E-03    -56.0656E-03    -59.5582E-03    -54.1543E-03     110.683E-03    -56.5282E-03     52.0454E-03     160.220E+06     118.628E+06    -6.33082E+06    -6.32417E+06     160.213E+06     118.628E+06     825.595E+03         48.5187
            1413     945.111E-06     77.1375E-03         3.27449    -777.628E-03        -2.19059        -2.00632         3.09022    -777.628E-03    -63.0409E-03     113.180E-03    -56.4703E-03    -56.7097E-03    -56.6341E-03     113.174E-03    -56.5402E-03     1.86210E-03    -77.2525E+06    -79.7963E+06    -275.791E+06    -79.0099E+06    -275.785E+06    -78.0442E+06    -47.2326E+03         29.1227
            1414     1.89077E-03     77.1397E-03         3.40267        -1.39856        -1.68783        -1.42580         3.14065        -1.39856         2.22656     113.115E-03    -56.5016E-03    -56.6137E-03    -56.4884E-03     113.102E-03    -56.6137E-03     2.91244E-03    -67.5660E+06    -75.5632E+06    -267.717E+06    -75.5726E+06    -267.707E+06    -67.5660E+06     999.000E+03         29.2173
            1415     2.83546E-03     77.1441E-03         3.72838        -1.40284        -2.00378        -1.38900         3.11360        -1.40284         3.46061     113.182E-03    -56.5257E-03    -56.6564E-03    -56.5055E-03     113.153E-03    -56.6479E-03     4.33130E-03    -53.7012E+06    -70.3475E+06    -259.266E+06    -70.3585E+06    -259.255E+06    -53.7012E+06     1.06162E+06         29.3762
            1416     3.78099E-03     77.1499E-03         3.81507        -1.38703        -2.10901        -1.28161         2.98768        -1.38703         4.10559     113.138E-03    -56.4436E-03    -56.6946E-03    -56.3990E-03     113.084E-03    -56.6854E-03     5.97586E-03    -39.6990E+06    -64.5778E+06    -250.151E+06    -64.5916E+06    -250.138E+06    -39.6990E+06     740.077E+03         29.6064
            1417     4.72655E-03     77.1572E-03         3.50611        -1.35548        -1.83510        -1.17586         2.84687        -1.35548         3.50867     113.023E-03    -56.3235E-03    -56.6991E-03    -56.2402E-03     112.939E-03    -56.6984E-03     7.50815E-03    -25.6724E+06    -58.1713E+06    -236.674E+06    -58.1942E+06    -236.652E+06    -25.6724E+06     1.13306E+06         29.9169
            1418     5.67198E-03     77.1647E-03         3.20017        -1.31734        -1.56059        -1.08129         2.72086        -1.31734         2.85908     113.044E-03    -56.3537E-03    -56.6900E-03    -56.2265E-03     112.916E-03    -56.6900E-03     9.22038E-03    -13.7654E+06    -51.7113E+06    -216.747E+06    -51.7315E+06    -216.727E+06    -13.7654E+06     1.29813E+06         30.3199
            1419     6.61754E-03     77.1772E-03         2.81622        -1.12910        -1.34496    -989.096E-03         2.60779        -1.27655         1.53086     113.151E-03    -56.4703E-03    -56.6803E-03    -56.2991E-03     112.968E-03    -56.6693E-03     11.0768E-03    -7.23680E+06    -45.8954E+06    -194.456E+06    -45.9039E+06    -194.447E+06    -7.23680E+06      783.48E+03         30.8324
            1420     7.56296E-03     77.1891E-03         2.55914    -955.234E-03        -1.23468    -904.238E-03         2.50815        -1.23468     787.508E-03     113.138E-03    -56.4778E-03    -56.6598E-03    -56.2404E-03     112.889E-03    -56.6487E-03     12.9242E-03    -2.25425E+06    -39.9531E+06    -170.578E+06    -40.0254E+06    -170.506E+06    -2.25425E+06     2.29042E+06         31.4791
            1421     8.50760E-03     77.2048E-03         2.45831    -870.313E-03        -1.19288    -826.950E-03         2.41494        -1.19288     633.240E-03     113.162E-03    -56.5198E-03    -56.6426E-03    -56.2042E-03     112.819E-03    -56.6148E-03     15.1894E-03     1.31602E+06    -35.0634E+06    -140.115E+06    -35.1486E+06    -140.030E+06     1.31602E+06     2.86856E+06         32.2986
            1422     9.45358E-03     77.2221E-03         2.48626    -919.896E-03        -1.15187    -758.010E-03         2.32437        -1.15187         1.13262     113.039E-03    -56.4592E-03    -56.5802E-03    -55.9591E-03     112.512E-03    -56.5524E-03     18.7352E-03     188.085E+03    -31.5485E+06    -108.787E+06    -31.5831E+06    -108.753E+06     188.085E+03     1.58505E+06         33.3465
            1423     10.3988E-03     77.2452E-03         2.38433    -841.009E-03        -1.11131    -679.549E-03         2.22287        -1.11131     954.762E-03     112.756E-03    -56.2963E-03    -56.4596E-03    -55.4779E-03     111.937E-03    -56.4596E-03     23.3494E-03    -877.078E+03    -28.4845E+06    -70.5693E+06    -28.5852E+06    -70.4686E+06    -877.078E+03     1.63779E+06         34.6953
            1424     11.3466E-03     77.2719E-03         2.12000    -596.578E-03        -1.07017    -589.104E-03         2.11253        -1.07017    -260.667E-03     113.000E-03    -56.2819E-03    -56.7178E-03    -55.5555E-03     111.907E-03    -56.3520E-03     27.0983E-03     5.57421E+06    -14.2969E+06    -36.4965E+06    -26.5161E+06    -17.6916E+06    -1.01148E+06     1.88976E+06         36.4164
            1425     12.2908E-03     77.3024E-03         2.14613    -638.202E-03        -1.02887    -522.343E-03         2.03027        -1.02887    -953.118E-03     113.427E-03    -56.2367E-03    -57.1906E-03    -55.2769E-03     111.514E-03    -56.2367E-03     35.2667E-03     50.0660E+06    -859.753E+03    -23.9005E+06    -23.7825E+06     49.9480E+06    -859.753E+03     2.51404E+06         38.5301
            1426     13.2380E-03     77.3501E-03         2.24256    -746.935E-03    -989.104E-03    -485.772E-03         1.98140    -989.104E-03        -1.68265     114.783E-03    -56.1638E-03    -58.6193E-03    -54.6972E-03     110.861E-03    -56.1638E-03     50.8293E-03     116.947E+06     9.03901E+06    -20.5356E+06    -20.4271E+06     116.839E+06     9.03901E+06     2.72825E+06         40.9614
            1427     14.1821E-03     77.4120E-03         2.12787    -645.232E-03    -951.952E-03    -460.978E-03         1.94362    -951.952E-03        -1.31019     116.787E-03    -56.2596E-03    -60.5278E-03    -54.4564E-03     110.716E-03    -56.2596E-03     64.3090E-03     150.277E+06     42.8996E+06    -18.2458E+06    -18.1968E+06     150.228E+06     42.8996E+06     1.74548E+06         43.5644
            1428     15.1297E-03     77.4880E-03         2.04899    -578.457E-03    -917.696E-03    -441.336E-03         1.91187    -917.696E-03        -1.12731     118.514E-03    -56.4451E-03    -62.0692E-03    -53.9634E-03     110.409E-03    -56.4451E-03     74.5825E-03     158.834E+06     88.2458E+06    -14.6918E+06    -14.6815E+06     158.823E+06     88.2458E+06     924.651E+03         46.1719
            1429     16.0777E-03     77.5779E-03         2.01453    -547.355E-03    -887.087E-03    -434.424E-03         1.90160    -887.087E-03    -531.347E-03     115.637E-03    -55.8675E-03    -59.7692E-03    -54.0368E-03     110.583E-03    -56.5458E-03     51.7158E-03     160.198E+06     117.261E+06    -7.86512E+06    -7.85531E+06     160.188E+06     117.261E+06     995.286E+03         48.5376
            1430     944.987E-06     78.2557E-03         3.55698    -860.546E-03        -2.26306        -1.83072         3.12464    -860.546E-03    -396.923E-03     113.525E-03    -56.5572E-03    -56.9675E-03    -56.8803E-03     113.521E-03    -56.6405E-03     1.57898E-03    -76.1029E+06    -79.8931E+06    -275.184E+06    -79.6498E+06    -275.178E+06    -76.3522E+06     110.953E+03         29.1208
            1431     1.88999E-03     78.2585E-03         3.41819        -1.34277        -1.64003        -1.33222         3.11038        -1.34277         2.37862     113.270E-03    -56.5177E-03    -56.7527E-03    -56.5051E-03     113.258E-03    -56.7527E-03     2.78342E-03    -68.1087E+06    -75.7722E+06    -267.959E+06    -75.7771E+06    -267.954E+06    -68.1087E+06     186.789E+03         29.2142
            1432     2.83561E-03     78.2629E-03         3.69630        -1.33473        -1.91513        -1.30404         3.08521        -1.33473         3.34122     113.060E-03    -56.3455E-03    -56.7149E-03    -56.3158E-03     113.031E-03    -56.7149E-03     4.42236E-03    -53.7924E+06    -70.0823E+06    -259.931E+06    -70.0905E+06    -259.923E+06    -53.7924E+06     642.611E+03         29.3717
            1433     3.78090E-03     78.2682E-03         3.78370        -1.31583        -2.02745        -1.20879         2.96505        -1.31583         4.03096     112.911E-03    -56.2235E-03    -56.6879E-03    -56.1718E-03     112.860E-03    -56.6879E-03     5.87060E-03    -38.6296E+06    -64.8330E+06    -250.453E+06    -64.8572E+06    -250.429E+06    -38.6296E+06     1.63727E+06         29.6015
            1434     4.72683E-03     78.2751E-03         3.47242        -1.28557        -1.74689        -1.12186         2.84739        -1.28557         3.38718     113.075E-03    -56.3976E-03    -56.6777E-03    -56.3148E-03     112.993E-03    -56.6777E-03     7.43940E-03    -25.9002E+06    -59.4523E+06    -236.618E+06    -59.4762E+06    -236.594E+06    -25.9002E+06     1.70411E+06         29.9122
            1435     5.67177E-03     78.2844E-03         3.19265        -1.24978        -1.49505        -1.02413         2.72172        -1.24978         2.80497     113.291E-03    -56.5985E-03    -56.6921E-03    -56.4718E-03     113.164E-03    -56.6921E-03     9.22463E-03    -15.1362E+06    -52.7535E+06    -215.901E+06    -52.7627E+06    -215.892E+06    -15.1362E+06     944.278E+03         30.3151
            1436     6.61701E-03     78.2950E-03         2.80281        -1.06544        -1.26671    -930.224E-03         2.61112        -1.21024         1.48761     113.115E-03    -56.4257E-03    -56.6896E-03    -56.2478E-03     112.937E-03    -56.6896E-03     10.9428E-03    -8.05489E+06    -46.9064E+06    -193.807E+06    -46.9176E+06    -193.796E+06    -8.05489E+06     963.977E+03         30.8264
            1437     7.56255E-03     78.3085E-03         2.56217    -892.772E-03        -1.16905    -843.944E-03         2.51334        -1.16905     784.085E-03     113.000E-03    -56.3500E-03    -56.6504E-03    -56.0965E-03     112.747E-03    -56.6504E-03     13.0285E-03    -4.63422E+06    -41.6483E+06    -171.865E+06    -41.6899E+06    -171.823E+06    -4.63422E+06     911.031E+03         31.4711
            1438     8.50864E-03     78.3233E-03         2.46757    -812.531E-03        -1.12808    -773.998E-03         2.42904        -1.12808     598.951E-03     113.011E-03    -56.4085E-03    -56.6022E-03    -56.0497E-03     112.643E-03    -56.5933E-03     15.7077E-03    -1.48805E+06    -35.4469E+06    -140.766E+06    -35.5003E+06    -140.712E+06    -1.48805E+06     1.42025E+06         32.2883
            1439     9.45346E-03     78.3417E-03         2.48837    -851.572E-03        -1.08786    -699.667E-03         2.33646        -1.08786         1.09013     113.010E-03    -56.3584E-03    -56.6519E-03    -55.9427E-03     112.474E-03    -56.5317E-03     18.9386E-03     135.812E+03    -30.8022E+06    -107.285E+06    -30.8440E+06    -107.243E+06     135.812E+03     1.75286E+06         33.3339
            1440     10.4002E-03     78.3625E-03         2.39056    -774.521E-03        -1.04775    -622.176E-03         2.23821        -1.04775     881.699E-03     112.948E-03    -56.3000E-03    -56.6482E-03    -55.7185E-03     112.172E-03    -56.4531E-03     22.7907E-03    -545.249E+03    -27.4506E+06    -69.9845E+06    -27.5544E+06    -69.8806E+06    -545.249E+03     1.79248E+06         34.6805
            1441     11.3450E-03     78.3910E-03         2.16745    -567.796E-03        -1.00805    -558.269E-03         2.15792        -1.00805    -306.278E-03     112.990E-03    -56.2093E-03    -56.7810E-03    -55.5117E-03     111.865E-03    -56.3530E-03     27.3754E-03     4.74179E+06    -13.5787E+06    -36.0807E+06    -24.7216E+06    -18.9716E+06    -1.22444E+06     2.08631E+06         36.4004
            1442     12.2903E-03     78.4235E-03         2.22994    -639.235E-03    -970.228E-03    -523.122E-03         2.11383    -970.228E-03    -983.378E-03     113.239E-03    -56.1576E-03    -57.0818E-03    -55.0974E-03     111.331E-03    -56.2332E-03     35.3928E-03     50.2724E+06    -41.3007E+03    -23.1349E+06    -23.0440E+06     50.1815E+06    -41.3007E+03     1.69372E+06         38.5167
            1443     13.2371E-03     78.4647E-03         2.35153    -765.831E-03    -935.537E-03    -511.689E-03         2.09739    -935.537E-03        -1.70202     114.611E-03    -56.1436E-03    -58.4670E-03    -54.4642E-03     110.608E-03    -56.1436E-03     51.0711E-03     116.857E+06     9.09023E+06    -20.8817E+06    -20.8145E+06     116.790E+06     9.09023E+06     2.71911E+06         40.9545
            1444     14.1860E-03     78.5347E-03         2.27744    -696.084E-03    -904.616E-03    -515.427E-03         2.09678    -904.616E-03        -1.35295     117.046E-03    -56.2406E-03    -60.8050E-03    -54.7406E-03     110.981E-03    -56.2406E-03     64.4963E-03     149.882E+06     42.9492E+06    -17.9199E+06    -17.8458E+06     149.808E+06     42.9492E+06     3.22086E+06         43.5654
            1445     15.1298E-03     78.6052E-03         2.23639    -657.178E-03    -877.723E-03    -524.779E-03         2.10399    -877.723E-03        -1.17635     119.070E-03    -56.4591E-03    -62.6106E-03    -54.5346E-03     110.994E-03    -56.4591E-03     74.5694E-03     160.453E+06     90.0363E+06    -13.8450E+06    -13.8142E+06     160.422E+06     90.0363E+06     1.85464E+06         46.1817
            1446     16.0755E-03     78.6976E-03         2.21459    -633.327E-03    -854.880E-03    -530.220E-03         2.11148    -854.880E-03    -565.189E-03     115.627E-03    -55.6529E-03    -59.9739E-03    -53.8951E-03     110.463E-03    -56.5678E-03     52.0488E-03     162.043E+06     118.122E+06    -7.64712E+06    -7.62438E+06     162.020E+06     118.122E+06     1.38986E+06         48.5595
            1447     944.825E-06     79.3755E-03         4.20393    -898.510E-03        -2.74143        -1.69505         3.15755    -898.510E-03        -1.11825     113.541E-03    -56.4564E-03    -57.0842E-03    -57.0214E-03     113.535E-03    -56.5139E-03     1.76903E-03    -75.5753E+06    -81.1307E+06    -275.324E+06    -79.6489E+06    -275.319E+06    -77.0621E+06     536.424E+03         29.1179
            1448     1.88985E-03     79.3771E-03         3.49924        -1.28074        -1.65187        -1.21791         3.06528        -1.28074         2.61592     113.292E-03    -56.5265E-03    -56.7658E-03    -56.5118E-03     113.278E-03    -56.7658E-03     3.04871E-03    -67.5404E+06    -76.5038E+06    -268.093E+06    -76.5065E+06    -268.091E+06    -67.5404E+06     234.176E+03         29.2112
            1449     2.83536E-03     79.3810E-03         3.65768        -1.25756        -1.82682        -1.21439         3.04525        -1.25756         3.12229     113.052E-03    -56.3348E-03    -56.7171E-03    -56.3057E-03     113.023E-03    -56.7171E-03     4.39991E-03    -55.8517E+06    -72.4162E+06    -261.161E+06    -72.4255E+06    -261.152E+06    -55.8517E+06     1.03216E+06         29.3687
            1450     3.78132E-03     79.3864E-03         3.75916        -1.23707        -1.95249        -1.13388         2.94055        -1.23707         3.95953     113.025E-03    -56.3318E-03    -56.6928E-03    -56.2846E-03     112.977E-03    -56.6928E-03     5.61323E-03    -41.9109E+06    -66.1235E+06    -251.977E+06    -66.1460E+06    -251.955E+06    -41.9109E+06     1.90611E+06         29.5981
            1451     4.72634E-03     79.3937E-03         3.40770        -1.20813        -1.63026        -1.05305         2.83049        -1.20813         3.20367     113.137E-03    -56.4415E-03    -56.6957E-03    -56.3558E-03     113.051E-03    -56.6957E-03     7.51484E-03    -27.7685E+06    -59.2682E+06    -234.958E+06    -59.2919E+06    -234.934E+06    -27.7685E+06     1.92257E+06         29.9079
            1452     5.67187E-03     79.4034E-03         3.15682        -1.17300        -1.40401    -945.388E-03         2.69820        -1.17300         2.71318     113.185E-03    -56.4825E-03    -56.7023E-03    -56.3539E-03     113.056E-03    -56.7023E-03     9.32092E-03    -16.9598E+06    -53.1217E+06    -215.521E+06    -53.1314E+06    -215.511E+06    -16.9598E+06     1.17476E+06         30.3096
            1453     6.61694E-03     79.4141E-03         2.76204    -998.740E-03        -1.16047    -861.143E-03         2.59775        -1.13377         1.37916     113.119E-03    -56.4310E-03    -56.6883E-03    -56.2477E-03     112.936E-03    -56.6883E-03     11.0765E-03    -9.94552E+06    -47.2212E+06    -194.187E+06    -47.2298E+06    -194.179E+06    -9.94552E+06     1.02651E+06         30.8196
            1454     7.56280E-03     79.4264E-03         2.56002    -832.673E-03        -1.09442    -790.857E-03         2.51820        -1.09442     733.721E-03     112.989E-03    -56.3400E-03    -56.6490E-03    -56.0849E-03     112.734E-03    -56.6490E-03     13.1086E-03    -5.17932E+06    -41.7010E+06    -168.904E+06    -41.7264E+06    -168.879E+06    -5.17932E+06    -355.590E+03         31.4625
            1455     8.50803E-03     79.4424E-03         2.47668    -757.443E-03        -1.05616    -727.751E-03         2.44698        -1.05616     521.217E-03     112.802E-03    -56.2202E-03    -56.5818E-03    -55.8728E-03     112.455E-03    -56.5818E-03     15.2462E-03    -3.38096E+06    -36.4727E+06    -141.562E+06    -36.5092E+06    -141.526E+06    -3.38096E+06    -1.13251E+06         32.2773
            1456     9.45487E-03     79.4595E-03         2.48748    -783.762E-03        -1.01827    -649.465E-03         2.35318        -1.01827         1.00791     112.944E-03    -56.3221E-03    -56.6220E-03    -55.9027E-03     112.413E-03    -56.5107E-03     18.7984E-03    -1.70414E+06    -31.0906E+06    -109.527E+06    -31.1220E+06    -109.495E+06    -1.70414E+06     512.691E+03         33.3207
            1457     10.3986E-03     79.4832E-03         2.39848    -711.735E-03    -980.032E-03    -575.647E-03         2.26239    -980.032E-03     788.613E-03     113.225E-03    -56.4418E-03    -56.7832E-03    -55.9812E-03     112.428E-03    -56.4466E-03     23.1183E-03    -874.872E+03    -27.3290E+06    -70.0239E+06    -27.4505E+06    -69.9023E+06    -874.872E+03     1.61655E+06         34.6656
            1458     11.3449E-03     79.5085E-03         2.23045    -555.723E-03    -943.406E-03    -544.241E-03         2.21897    -943.406E-03    -346.368E-03     112.638E-03    -56.0687E-03    -56.5691E-03    -55.1629E-03     111.507E-03    -56.3438E-03     27.3931E-03     3.56350E+06    -14.2472E+06    -35.5166E+06    -24.8611E+06    -19.4923E+06    -1.84685E+06     1.99730E+06         36.3853
            1459     12.2932E-03     79.5415E-03         2.33188    -660.180E-03    -910.769E-03    -543.239E-03         2.21494    -910.769E-03        -1.01914     112.950E-03    -55.9248E-03    -57.0251E-03    -54.7776E-03     110.977E-03    -56.1999E-03     35.8429E-03     50.8925E+06    -20.1584E+03    -23.3984E+06    -23.2487E+06     50.7428E+06    -20.1584E+03     2.79955E+06         38.5052
            1460     13.2380E-03     79.5853E-03         2.47355    -796.061E-03    -885.241E-03    -553.520E-03         2.22837    -882.593E-03        -1.72022     115.180E-03    -56.1321E-03    -59.0480E-03    -55.1306E-03     111.263E-03    -56.1321E-03     50.9472E-03     117.216E+06     9.95376E+06    -23.1368E+06    -23.0392E+06     117.118E+06     9.95376E+06     2.96688E+06         40.9495
            1461     14.1826E-03     79.6503E-03         2.43308    -750.601E-03    -861.548E-03    -580.825E-03         2.26066    -858.900E-03        -1.37608     117.045E-03    -56.2503E-03    -60.7946E-03    -54.7499E-03     111.000E-03    -56.2503E-03     64.2607E-03     148.333E+06     42.3693E+06    -19.8263E+06    -19.7855E+06     148.292E+06     42.3693E+06     2.47542E+06         43.5667
            1462     15.1301E-03     79.7288E-03         2.41175    -726.654E-03    -839.487E-03    -603.131E-03         2.28823    -839.487E-03        -1.19400     118.681E-03    -56.4546E-03    -62.2262E-03    -54.2147E-03     110.669E-03    -56.4546E-03     74.2276E-03     161.305E+06     89.7399E+06    -13.7645E+06    -13.7041E+06     161.245E+06     89.7399E+06     3.19513E+06         46.1919
            1463     16.0773E-03     79.8124E-03         2.39751    -704.318E-03    -823.701E-03    -612.049E-03         2.30524    -823.701E-03    -572.943E-03     115.538E-03    -55.6583E-03    -59.8801E-03    -53.9750E-03     110.537E-03    -56.5621E-03     51.7617E-03     164.742E+06     119.380E+06    -7.29325E+06    -7.24981E+06     164.699E+06     119.380E+06     2.39445E+06         48.5837
            1464     945.346E-06     80.4938E-03         5.01138    -832.547E-03        -3.47938        -1.60073         3.13273    -832.547E-03        -1.95021     113.064E-03    -56.2774E-03    -56.7862E-03    -56.6112E-03     113.059E-03    -56.4478E-03     1.50351E-03    -78.6858E+06    -83.6452E+06    -275.674E+06    -82.1647E+06    -275.668E+06    -80.1726E+06     123.782E+03         29.1136
            1465     1.89075E-03     80.4962E-03         3.67836        -1.20505        -1.77639        -1.15956         3.06153        -1.20505         2.84588     113.182E-03    -56.5121E-03    -56.6701E-03    -56.5757E-03     113.167E-03    -56.5914E-03     3.11529E-03    -69.5859E+06    -78.7296E+06    -268.884E+06    -78.7359E+06    -268.877E+06    -69.5859E+06     976.953E+03         29.2078
            1466     2.83570E-03     80.4994E-03         3.66351        -1.18559        -1.77410        -1.13855         3.02797        -1.18559         2.87251     113.296E-03    -56.5546E-03    -56.7412E-03    -56.6042E-03     113.267E-03    -56.6626E-03     4.41144E-03    -57.1814E+06    -73.6733E+06    -261.277E+06    -73.6803E+06    -261.270E+06    -57.1814E+06     1.07424E+06         29.3659
            1467     3.78043E-03     80.5052E-03         3.73624        -1.16280        -1.87175        -1.04601         2.91050        -1.16280         3.88143     113.270E-03    -56.5535E-03    -56.7162E-03    -56.5028E-03     113.219E-03    -56.7162E-03     5.79687E-03    -44.0805E+06    -67.1442E+06    -252.571E+06    -67.1510E+06    -252.564E+06    -44.0805E+06     704.375E+03         29.5948
            1468     4.72618E-03     80.5120E-03         3.33216        -1.13151        -1.49750    -969.611E-03         2.80428        -1.13151         2.99280     113.164E-03    -56.4268E-03    -56.7373E-03    -56.3394E-03     113.077E-03    -56.7373E-03     7.61774E-03    -29.4293E+06    -59.8334E+06    -235.172E+06    -59.8432E+06    -235.162E+06    -29.4293E+06     889.793E+03         29.9033
            1469     5.67144E-03     80.5223E-03         3.12231        -1.08774        -1.32102    -875.793E-03         2.68565        -1.09631         2.58182     113.047E-03    -56.3232E-03    -56.7233E-03    -56.1974E-03     112.921E-03    -56.7233E-03     9.20768E-03    -18.0623E+06    -53.1973E+06    -215.165E+06    -53.2055E+06    -215.157E+06    -18.0623E+06     1.04893E+06         30.3038
            1470     6.61765E-03     80.5320E-03         2.71805    -918.382E-03        -1.06194    -793.831E-03         2.58987        -1.05831         1.21722     113.100E-03    -56.4090E-03    -56.6909E-03    -56.2329E-03     112.924E-03    -56.6909E-03     10.8627E-03    -10.9203E+06    -46.9127E+06    -192.951E+06    -46.9268E+06    -192.937E+06    -10.9203E+06    -60.8747E+03         30.8127
            1471     7.56229E-03     80.5463E-03         2.54434    -756.665E-03        -1.02012    -724.867E-03         2.51255        -1.02012     639.601E-03     113.017E-03    -56.3637E-03    -56.6532E-03    -56.1166E-03     112.770E-03    -56.6532E-03     12.8861E-03    -5.16507E+06    -40.4858E+06    -166.512E+06    -40.5205E+06    -166.477E+06    -5.16507E+06    -1.50616E+06         31.4542
            1472     8.50830E-03     80.5598E-03         2.46144    -680.647E-03    -982.806E-03    -661.300E-03         2.44210    -982.806E-03     412.385E-03     112.879E-03    -56.2828E-03    -56.5965E-03    -55.9316E-03     112.528E-03    -56.5965E-03     15.3204E-03    -2.58847E+06    -35.5487E+06    -140.697E+06    -35.5819E+06    -140.664E+06    -2.58847E+06    -1.70087E+06         32.2669
            1473     9.45305E-03     80.5790E-03         2.48644    -716.621E-03    -946.450E-03    -600.821E-03         2.37064    -946.450E-03     920.037E-03     112.741E-03    -56.2286E-03    -56.5121E-03    -55.6895E-03     112.202E-03    -56.5121E-03     18.9264E-03    -3.20819E+06    -32.2185E+06    -111.455E+06    -32.2369E+06    -111.437E+06    -3.20819E+06    -610.023E+03         33.3080
            1474     10.4009E-03     80.6010E-03         2.43463    -677.408E-03    -911.678E-03    -558.383E-03         2.31560    -911.678E-03     699.422E-03     112.835E-03    -56.2554E-03    -56.5798E-03    -55.5875E-03     112.005E-03    -56.4178E-03     23.5183E-03    -3.11611E+06    -29.2343E+06    -72.2373E+06    -29.3313E+06    -72.1403E+06    -3.11611E+06     762.715E+03         34.6518
            1475     11.3456E-03     80.6289E-03         2.30679    -555.970E-03    -880.033E-03    -543.316E-03         2.29414    -880.033E-03    -373.213E-03     112.892E-03    -56.1198E-03    -56.7722E-03    -55.5221E-03     111.841E-03    -56.3193E-03     26.5924E-03     3.87773E+06    -14.8759E+06    -36.9099E+06    -26.5794E+06    -18.9410E+06    -2.38757E+06     1.79302E+06         36.3727
            1476     12.2910E-03     80.6564E-03         2.43243    -677.916E-03    -853.160E-03    -565.297E-03         2.31981    -853.160E-03        -1.02869     113.322E-03    -56.0129E-03    -57.3087E-03    -55.1808E-03     111.393E-03    -56.2124E-03     35.1775E-03     50.4819E+06     306.830E+03    -24.1077E+06    -23.9451E+06     50.3193E+06     306.830E+03     3.36312E+06         38.4955
            1477     13.2386E-03     80.7077E-03         2.59703    -806.069E-03    -856.577E-03    -604.381E-03         2.37052    -831.755E-03        -1.70101     114.983E-03    -56.1456E-03    -58.8369E-03    -54.9861E-03     111.132E-03    -56.1456E-03     50.6580E-03     116.874E+06     9.05880E+06    -22.1808E+06    -22.0543E+06     116.747E+06     9.05880E+06     3.58991E+06         40.9445
            1478     14.1833E-03     80.7695E-03         2.57980    -775.631E-03    -840.165E-03    -643.384E-03         2.42273    -815.344E-03        -1.36260     116.851E-03    -56.2443E-03    -60.6072E-03    -54.5600E-03     110.804E-03    -56.2443E-03     64.1214E-03     148.311E+06     39.8306E+06    -19.9212E+06    -19.8757E+06     148.266E+06     39.8306E+06     2.62099E+06         43.5669
            1479     15.1307E-03     80.8452E-03         2.57894    -762.647E-03    -827.390E-03    -672.253E-03         2.46406    -802.904E-03        -1.19879     118.444E-03    -56.4355E-03    -62.0081E-03    -53.8298E-03     110.265E-03    -56.4355E-03     74.9110E-03     160.737E+06      87.994E+06    -14.5628E+06    -14.4854E+06     160.659E+06      87.994E+06     3.59757E+06         46.2007
            1480     16.0762E-03     80.9343E-03         2.58571    -755.669E-03    -818.387E-03    -696.526E-03         2.50208    -793.901E-03    -585.009E-03     115.430E-03    -55.8016E-03    -59.6281E-03    -53.8755E-03     110.408E-03    -56.5326E-03     51.6407E-03     167.129E+06     119.669E+06    -6.89851E+06    -6.83786E+06     167.069E+06     119.669E+06     2.92209E+06         48.6070
            1481     945.383E-06     81.6121E-03         5.52546    -681.712E-03        -4.01554        -1.55711         3.06703    -681.712E-03        -2.44154     112.970E-03    -56.2301E-03    -56.7396E-03    -56.5951E-03     112.966E-03    -56.3708E-03     1.44926E-03    -78.2659E+06    -82.8562E+06    -274.708E+06    -81.7755E+06    -274.700E+06    -79.3545E+06     202.087E+03         29.1087
            1482     1.89076E-03     81.6142E-03         3.82470        -1.11919        -1.87842        -1.12053         3.06698        -1.11936         3.00353     113.184E-03    -56.4590E-03    -56.7255E-03    -56.6164E-03     113.173E-03    -56.5565E-03     2.71994E-03    -70.7297E+06    -78.6566E+06    -269.981E+06    -78.6606E+06    -269.977E+06    -70.7297E+06     503.916E+03         29.2033
            1483     2.83564E-03     81.6190E-03         3.67581        -1.11251        -1.72965        -1.07262         3.01895        -1.11268         2.70557     113.257E-03    -56.5316E-03    -56.7253E-03    -56.5831E-03     113.230E-03    -56.6466E-03     4.19951E-03    -56.9579E+06    -72.6090E+06    -261.116E+06    -72.6105E+06    -261.114E+06    -56.9579E+06     246.717E+03         29.3617
            1484     3.78117E-03     81.6233E-03         3.72100        -1.09141        -1.79609    -977.619E-03         2.90252        -1.09141         3.78884     113.393E-03    -56.6715E-03    -56.7213E-03    -56.6158E-03     113.337E-03    -56.7213E-03     6.07251E-03    -42.3190E+06    -66.8718E+06    -251.630E+06    -66.8740E+06    -251.627E+06    -42.3190E+06     71.3380E+03         29.5906
            1485     4.72571E-03     81.6317E-03         3.27424        -1.05991        -1.37665    -891.783E-03         2.78938        -1.05991         2.80499     113.302E-03    -56.5416E-03    -56.7606E-03    -56.4561E-03     113.217E-03    -56.7606E-03     7.59637E-03    -29.6472E+06    -60.5148E+06    -236.107E+06    -60.5198E+06    -236.102E+06    -29.6472E+06     77.2966E+03         29.8985
            1486     5.67171E-03     81.6395E-03         3.09095    -994.641E-03        -1.24818    -807.164E-03         2.67970        -1.02441         2.44672     113.113E-03    -56.3664E-03    -56.7464E-03    -56.2362E-03     112.983E-03    -56.7464E-03     9.30230E-03    -19.3609E+06    -53.2035E+06    -213.604E+06    -53.2184E+06    -213.589E+06    -19.3609E+06    -511.986E+03         30.2981
            1487     6.61621E-03     81.6523E-03         2.68365    -826.699E-03    -986.852E-03    -724.414E-03         2.58136    -986.852E-03         1.09065     113.015E-03    -56.3091E-03    -56.7063E-03    -56.1259E-03     112.832E-03    -56.7063E-03     11.1031E-03    -11.5298E+06    -46.3595E+06    -190.290E+06    -46.3937E+06    -190.256E+06    -11.5298E+06    -1.80003E+06         30.8063
            1488     7.56267E-03     81.6635E-03         2.52304    -673.534E-03    -948.527E-03    -648.620E-03         2.49812    -948.527E-03     561.231E-03     112.995E-03    -56.3349E-03    -56.6605E-03    -56.0849E-03     112.745E-03    -56.6605E-03     12.9427E-03    -6.01394E+06    -40.6785E+06    -166.632E+06    -40.7135E+06    -166.597E+06    -6.01394E+06    -2.03842E+06         31.4472
            1489     8.50805E-03     81.6797E-03         2.44683    -603.893E-03    -911.078E-03    -591.910E-03         2.43485    -911.078E-03     309.331E-03     112.831E-03    -56.2305E-03    -56.6001E-03    -55.8859E-03     112.486E-03    -56.6001E-03     15.1894E-03    -3.20288E+06    -36.0776E+06    -140.782E+06    -36.1087E+06    -140.751E+06    -3.20288E+06    -1.51951E+06         32.2585
            1490     9.45447E-03     81.6967E-03         2.49608    -660.110E-03    -876.321E-03    -558.762E-03         2.39473    -876.321E-03     836.890E-03     112.663E-03    -56.0951E-03    -56.5683E-03    -55.6143E-03     112.124E-03    -56.5095E-03     18.8474E-03    -3.54425E+06    -32.4906E+06    -110.946E+06    -32.5145E+06    -110.922E+06    -3.54425E+06    -900.521E+03         33.2973
            1491     10.3992E-03     81.7193E-03         2.48092    -651.130E-03    -845.433E-03    -545.153E-03         2.37495    -845.433E-03     625.675E-03     112.723E-03    -56.2361E-03    -56.4867E-03    -55.5012E-03     111.909E-03    -56.4074E-03     23.3240E-03    -3.96123E+06    -29.5192E+06    -73.1424E+06    -29.5380E+06    -73.1236E+06    -3.96123E+06    -136.074E+03         34.6395
            1492     11.3465E-03     81.7476E-03         2.39261    -562.697E-03    -819.078E-03    -550.371E-03         2.38028    -819.078E-03    -378.556E-03     113.179E-03    -56.2999E-03    -56.8786E-03    -55.8031E-03     112.117E-03    -56.3137E-03     26.7331E-03     2.76849E+06    -16.1285E+06    -38.2268E+06    -26.6048E+06    -20.9252E+06    -4.05672E+06     1.14596E+06         36.3606
            1493     12.2909E-03     81.7775E-03         2.52852    -678.767E-03    -807.833E-03    -586.288E-03         2.42625    -798.040E-03    -994.701E-03     113.852E-03    -56.2394E-03    -57.6123E-03    -55.6670E-03     111.906E-03    -56.2394E-03     35.5603E-03     49.0391E+06    -582.078E+03    -24.2666E+06    -24.1432E+06     48.9157E+06    -582.078E+03     2.80573E+06         38.4852
            1494     13.2355E-03     81.8242E-03         2.70771    -779.386E-03    -851.992E-03    -647.327E-03         2.50661    -782.944E-03        -1.64101     114.631E-03    -56.1639E-03    -58.4670E-03    -54.5153E-03     110.679E-03    -56.1639E-03     51.0311E-03     116.151E+06     6.89307E+06    -22.2564E+06    -22.1418E+06     116.036E+06     6.89307E+06     3.93176E+06         40.9367
            1495     14.1847E-03     81.8888E-03         2.72656    -765.493E-03    -852.750E-03    -706.170E-03         2.58788    -773.396E-03        -1.32555     116.403E-03    -56.2274E-03    -60.1759E-03    -54.1878E-03     110.415E-03    -56.2274E-03     63.7865E-03     148.984E+06     37.3352E+06    -19.7368E+06    -19.6242E+06     148.871E+06     37.3352E+06     4.20886E+06         43.5639
            1496     15.1297E-03     81.9642E-03         2.75767    -760.271E-03    -863.200E-03    -752.418E-03         2.65479    -768.174E-03        -1.18149     118.113E-03    -56.4131E-03    -61.7001E-03    -53.6371E-03     110.050E-03    -56.4131E-03     74.1800E-03     159.768E+06     86.9647E+06    -15.1954E+06    -15.1055E+06     159.678E+06     86.9647E+06     3.74388E+06         46.2074
            1497     16.0792E-03     82.0511E-03         2.78327    -763.673E-03    -866.173E-03    -790.565E-03         2.71046    -766.478E-03    -580.962E-03     115.429E-03    -56.1091E-03    -59.3202E-03    -53.8123E-03     110.319E-03    -56.5070E-03     52.1111E-03     168.818E+06     119.829E+06    -7.79681E+06    -7.74885E+06     168.770E+06     119.829E+06     2.62277E+06         48.6292
            1498     945.425E-06     82.7303E-03         5.30599    -464.892E-03        -3.88352        -1.56387         2.98634    -464.892E-03        -2.21529     113.236E-03    -56.2768E-03    -56.9591E-03    -56.8957E-03     113.231E-03    -56.3351E-03     1.61189E-03     -78.472E+06    -82.8016E+06    -274.141E+06    -81.7152E+06    -274.139E+06    -79.5606E+06     103.170E+03         29.1031
            1499     1.88974E-03     82.7339E-03         3.76673        -1.01437        -1.79256        -1.05472         3.03643        -1.02192         2.98225     113.263E-03    -56.5112E-03    -56.7521E-03    -56.5894E-03     113.251E-03    -56.6618E-03     2.82635E-03    -69.5143E+06    -77.9026E+06    -269.122E+06    -77.9031E+06    -269.121E+06    -69.5143E+06    -244.282E+03         29.1974
            1500     2.83578E-03     82.7363E-03         3.61525        -1.01835        -1.63858        -1.00269         2.98691        -1.02590         2.67802     113.245E-03    -56.5439E-03    -56.7008E-03    -56.5168E-03     113.218E-03    -56.7008E-03     4.17232E-03    -56.3732E+06    -73.0703E+06    -261.216E+06    -73.0711E+06    -261.215E+06    -56.3732E+06     11.3045E+03         29.3559
            1501     3.78066E-03     82.7433E-03         3.69065        -1.01132        -1.71299    -929.371E-03         2.90703        -1.01132         3.68384     113.280E-03    -56.5417E-03    -56.7380E-03    -56.4900E-03     113.228E-03    -56.7380E-03     5.87515E-03    -41.8726E+06    -67.0322E+06    -251.655E+06    -67.0347E+06    -251.652E+06    -41.8726E+06     60.1966E+03         29.5850
            1502     4.72629E-03     82.7497E-03         3.24634    -984.407E-03        -1.29305    -823.321E-03         2.77661    -984.407E-03         2.73024     113.303E-03    -56.5502E-03    -56.7529E-03    -56.4623E-03     113.215E-03    -56.7529E-03     7.63375E-03    -30.1447E+06    -60.2091E+06    -234.630E+06    -60.2227E+06    -234.616E+06    -30.1447E+06    -889.512E+03         29.8931
            1503     5.67080E-03     82.7592E-03         3.05586    -907.015E-03        -1.16905    -730.749E-03         2.65994    -949.407E-03         2.36717     113.137E-03    -56.4028E-03    -56.7345E-03    -56.2685E-03     113.003E-03    -56.7345E-03     9.47153E-03    -21.2528E+06    -53.3808E+06    -211.438E+06    -53.4205E+06    -211.398E+06    -21.2528E+06    -2.33740E+06         30.2924
            1504     6.61757E-03     82.7697E-03         2.65605    -745.010E-03    -911.536E-03    -647.710E-03         2.55875    -911.536E-03         1.04437     112.968E-03    -56.2694E-03    -56.6985E-03    -56.0781E-03     112.777E-03    -56.6985E-03     11.3109E-03    -13.0460E+06    -47.2104E+06    -189.225E+06    -47.2599E+06    -189.176E+06    -13.0460E+06    -2.64117E+06         30.8002
            1505     7.56243E-03     82.7830E-03         2.51657    -614.006E-03    -874.095E-03    -591.455E-03         2.49402    -874.095E-03     528.744E-03     113.063E-03    -56.4063E-03    -56.6564E-03    -56.1474E-03     112.804E-03    -56.6564E-03     13.2079E-03    -7.19245E+06    -41.7704E+06    -166.064E+06    -41.8331E+06    -166.002E+06    -7.19245E+06    -2.51335E+06         31.4412
            1506     8.50772E-03     82.7982E-03         2.46657    -563.832E-03    -839.530E-03    -553.568E-03         2.45631    -839.530E-03     277.342E-03     112.898E-03    -56.2897E-03    -56.6080E-03    -55.9714E-03     112.574E-03    -56.6027E-03     14.7604E-03    -4.94143E+06    -37.1454E+06    -140.931E+06    -37.2108E+06    -140.865E+06    -4.94143E+06    -2.33467E+06         32.2521
            1507     9.45379E-03     82.8142E-03         2.52922    -626.665E-03    -808.661E-03    -531.705E-03         2.43425    -808.661E-03     799.562E-03     112.737E-03    -56.1523E-03    -56.5842E-03    -55.6991E-03     112.219E-03    -56.5202E-03     18.4159E-03    -5.41908E+06    -33.2666E+06    -111.832E+06    -33.3224E+06    -111.776E+06    -5.41908E+06    -1.63879E+06         33.2887
            1508     10.4003E-03     82.8394E-03         2.52615    -623.091E-03    -781.748E-03    -523.632E-03         2.42669    -781.748E-03     605.183E-03     112.848E-03    -56.2761E-03    -56.5716E-03    -55.6184E-03     112.045E-03    -56.4265E-03     23.1795E-03    -5.24254E+06    -29.2371E+06    -73.5744E+06    -29.2762E+06    -73.5353E+06    -5.24254E+06    -905.145E+03         34.6273
            1509     11.3450E-03     82.8644E-03         2.47351    -564.013E-03    -759.947E-03    -554.283E-03         2.46378    -759.947E-03    -341.003E-03     113.146E-03    -56.3194E-03    -56.8261E-03    -55.6960E-03     112.029E-03    -56.3332E-03     27.3573E-03     1.28666E+06    -16.4612E+06    -38.4415E+06    -26.3778E+06    -22.1155E+06    -5.12267E+06     506.900E+03         36.3462
            1510     12.2913E-03     82.8995E-03         2.62762    -665.133E-03    -780.318E-03    -613.539E-03         2.54037    -744.662E-03    -921.222E-03     113.444E-03    -56.2418E-03    -57.2017E-03    -55.3306E-03     111.572E-03    -56.2418E-03     35.1035E-03     45.5639E+06    -2.18553E+06    -24.7837E+06    -24.7075E+06     45.4877E+06    -2.18553E+06     2.19030E+06         38.4720
            1511     13.2383E-03     82.9408E-03         2.81277    -735.873E-03    -858.124E-03    -687.436E-03         2.64208    -735.873E-03        -1.54310     114.548E-03    -56.1494E-03    -58.3981E-03    -54.4189E-03     110.568E-03    -56.1494E-03     50.8376E-03     114.299E+06     5.56774E+06    -22.9627E+06    -22.8101E+06     114.146E+06     5.56774E+06     4.47499E+06         40.9271
            1512     14.1828E-03     83.0085E-03         2.87312    -732.970E-03    -885.135E-03    -768.546E-03         2.75653    -732.970E-03        -1.25044     116.399E-03    -56.1933E-03    -60.2054E-03    -53.9680E-03     110.161E-03    -56.1933E-03     65.0893E-03     150.159E+06     35.1288E+06    -20.9921E+06    -20.8054E+06     149.972E+06     35.1288E+06     5.55951E+06         43.5601
            1513     15.1312E-03     83.0816E-03         2.94385    -735.005E-03    -924.926E-03    -838.897E-03         2.85783    -735.005E-03        -1.12284     118.264E-03    -56.3824E-03    -61.8818E-03    -53.8666E-03     110.249E-03    -56.3824E-03     74.1265E-03     160.705E+06     85.3624E+06    -16.1252E+06    -16.0200E+06     160.599E+06     85.3624E+06     4.15745E+06         46.2139
            1514     16.0772E-03     83.1685E-03         2.98813    -740.636E-03    -944.480E-03    -884.562E-03         2.92822    -740.636E-03    -547.339E-03     115.716E-03    -56.0279E-03    -59.6883E-03    -54.1787E-03     110.684E-03    -56.5056E-03     52.4433E-03     170.908E+06     120.439E+06    -8.64795E+06    -8.60828E+06     170.869E+06     120.439E+06     2.02094E+06         48.6511
            1515     944.609E-06     83.8499E-03         4.16037    -209.693E-03        -2.86432        -1.58369         2.87975    -209.693E-03        -1.06280     113.324E-03    -56.4288E-03    -56.8947E-03    -56.7353E-03     113.318E-03    -56.5831E-03     1.64353E-03    -79.0127E+06    -84.0528E+06    -274.171E+06    -82.7807E+06    -274.170E+06    -80.2859E+06    -99.0996E+03         29.0955
            1516     1.89094E-03     83.8517E-03         3.48709    -906.488E-03        -1.49034    -984.504E-03         2.98862    -913.859E-03         2.64253     113.215E-03    -56.5283E-03    -56.6868E-03    -56.5137E-03     113.200E-03    -56.6863E-03     3.02422E-03    -70.1478E+06    -79.9405E+06    -269.327E+06    -79.9419E+06    -269.326E+06    -70.1478E+06    -124.291E+03         29.1898
            1517     2.83508E-03     83.8561E-03         3.47665    -918.452E-03        -1.47776    -894.004E-03         2.90027    -925.824E-03         2.82063     113.378E-03    -56.6597E-03    -56.7179E-03    -56.6290E-03     113.346E-03    -56.7173E-03     4.55670E-03    -56.8615E+06    -74.1874E+06    -260.772E+06    -74.1928E+06    -260.767E+06    -56.8615E+06    -152.243E+03         29.3488
            1518     3.78059E-03     83.8612E-03         3.58140    -912.176E-03        -1.57560    -849.869E-03         2.85566    -912.176E-03         3.52810     113.251E-03    -56.4950E-03    -56.7564E-03    -56.4432E-03     113.200E-03    -56.7564E-03     5.88558E-03    -42.9764E+06    -66.7562E+06    -251.141E+06    -66.7687E+06    -251.129E+06    -42.9764E+06    -1.04174E+06         29.5785
            1519     4.72605E-03     83.8686E-03         3.21221    -888.798E-03        -1.22689    -740.215E-03         2.72554    -888.798E-03         2.75959     113.124E-03    -56.3820E-03    -56.7421E-03    -56.2920E-03     113.034E-03    -56.7421E-03     7.71602E-03    -31.0753E+06    -59.8278E+06    -231.647E+06    -59.8566E+06    -231.618E+06    -31.0753E+06    -2.05544E+06         29.8869
            1520     5.67196E-03     83.8782E-03         3.01126    -836.077E-03        -1.07062    -667.608E-03         2.62943    -857.265E-03         2.31729     113.159E-03    -56.4262E-03    -56.7326E-03    -56.3168E-03     113.033E-03    -56.7164E-03     9.21228E-03    -21.5107E+06    -53.0467E+06    -208.844E+06    -53.1297E+06    -208.761E+06    -21.5107E+06    -3.39721E+06         30.2862
            1521     6.61649E-03     83.8877E-03         2.64721    -697.515E-03    -827.697E-03    -592.060E-03         2.53799    -823.927E-03         1.06652     113.061E-03    -56.3553E-03    -56.7058E-03    -56.1859E-03     112.876E-03    -56.6896E-03     11.0993E-03    -14.7309E+06    -46.6221E+06    -189.589E+06    -46.7338E+06    -189.478E+06    -14.7309E+06    -3.84011E+06         30.7939
            1522     7.56249E-03     83.9026E-03         2.52312    -580.012E-03    -791.579E-03    -556.188E-03         2.49930    -791.579E-03     537.832E-03     112.970E-03    -56.3226E-03    -56.6475E-03    -56.0599E-03     112.707E-03    -56.6475E-03     13.3087E-03    -9.40300E+06    -41.8463E+06    -166.565E+06    -41.9373E+06    -166.474E+06    -9.40300E+06    -3.06650E+06         31.4349
            1523     8.50833E-03     83.9160E-03         2.49837    -546.914E-03    -762.951E-03    -532.932E-03         2.48439    -762.951E-03     330.631E-03     113.156E-03    -56.4767E-03    -56.6789E-03    -56.2207E-03     112.826E-03    -56.6050E-03     14.9214E-03    -6.24217E+06    -37.9660E+06    -139.878E+06    -38.0654E+06    -139.779E+06    -6.24217E+06    -2.75653E+06         32.2459
            1524     9.45299E-03     83.9344E-03         2.58305    -611.991E-03    -746.202E-03    -521.821E-03         2.48481    -738.126E-03     834.804E-03     113.025E-03    -56.4038E-03    -56.6211E-03    -55.9796E-03     112.527E-03    -56.5473E-03     18.1905E-03    -7.01362E+06    -33.3153E+06    -111.845E+06    -33.4570E+06    -111.703E+06    -7.01362E+06    -3.09967E+06         33.2806
            1525     10.3988E-03     83.9555E-03         2.59690    -616.220E-03    -725.169E-03    -523.428E-03         2.49603    -717.093E-03     658.026E-03     112.824E-03    -56.2789E-03    -56.5447E-03    -55.5519E-03     112.010E-03    -56.4584E-03     23.2410E-03    -7.89186E+06    -29.6697E+06    -75.3258E+06    -29.7556E+06    -75.2399E+06    -7.89186E+06    -1.83436E+06         34.6145
            1526     11.3454E-03     83.9861E-03         2.55952    -572.881E-03    -701.165E-03    -567.581E-03         2.55422    -701.165E-03    -247.602E-03     112.945E-03    -56.3151E-03    -56.6301E-03    -55.4408E-03     111.792E-03    -56.3511E-03     27.8040E-03    -2.05749E+06    -18.1917E+06    -40.0662E+06    -28.2313E+06    -24.3515E+06    -7.73270E+06     623.224E+03         36.3298
            1527     12.2906E-03     84.0159E-03         2.72899    -648.306E-03    -760.432E-03    -646.147E-03         2.65855    -692.159E-03    -808.781E-03     113.094E-03    -56.2371E-03    -56.8573E-03    -55.0127E-03     111.250E-03    -56.2371E-03     34.8187E-03     41.4589E+06    -5.19323E+06    -27.0098E+06    -26.8770E+06     41.3261E+06    -5.19323E+06     2.84079E+06         38.4570
            1528     13.2367E-03     84.0608E-03         2.92742    -690.184E-03    -876.083E-03    -738.849E-03         2.79019    -690.184E-03        -1.41455     114.068E-03    -56.1174E-03    -57.9502E-03    -54.1003E-03     110.218E-03    -56.1174E-03     49.9174E-03     111.386E+06     1.78325E+06    -25.6134E+06    -25.4108E+06     111.183E+06     1.78325E+06     5.05834E+06         40.9186
            1529     14.1860E-03     84.1247E-03         3.02267    -694.348E-03    -925.987E-03    -834.459E-03         2.93114    -694.348E-03        -1.13931     116.258E-03    -56.1478E-03    -60.1104E-03    -53.8941E-03     110.042E-03    -56.1478E-03     64.8888E-03     150.762E+06     32.3313E+06    -22.2066E+06    -22.0460E+06     150.601E+06     32.3313E+06     5.09509E+06         43.5599
            1530     15.1320E-03     84.2014E-03         3.12968    -703.467E-03    -988.399E-03    -918.433E-03         3.05972    -703.467E-03        -1.04687     118.719E-03    -56.3556E-03    -62.3633E-03    -54.3521E-03     110.708E-03    -56.3556E-03     74.3667E-03     164.070E+06     84.4702E+06    -16.0475E+06    -15.9697E+06     163.992E+06     84.4702E+06     3.29647E+06         46.2232
            1531     16.0771E-03     84.2888E-03         3.20767    -716.246E-03        -1.03003    -980.906E-03         3.15855    -716.246E-03    -514.838E-03     115.780E-03    -55.8221E-03    -59.9579E-03    -54.3141E-03     110.821E-03    -56.5074E-03     52.3481E-03     174.173E+06     121.179E+06    -8.05695E+06    -8.02743E+06     174.143E+06     121.179E+06     1.34382E+06         48.6733
            1532     945.333E-06     84.9683E-03         3.39100     13.8048E-03        -2.19978        -1.55965         2.75087     13.8048E-03         1.11886     113.288E-03    -56.3905E-03    -56.8979E-03    -56.7972E-03     113.284E-03    -56.4864E-03     1.65238E-03    -79.4946E+06    -85.6977E+06    -275.315E+06    -84.4279E+06    -275.312E+06    -80.7678E+06     349.691E+03         29.0861
            1533     1.88988E-03     84.9701E-03         3.31782    -797.916E-03        -1.30984    -900.429E-03         2.90841    -797.916E-03         1.96643     113.264E-03    -56.4774E-03    -56.7869E-03    -56.5669E-03     113.250E-03    -56.6830E-03     2.93426E-03    -70.7981E+06    -80.8764E+06    -268.845E+06    -80.8832E+06    -268.838E+06    -70.7981E+06     20.6228E+03         29.1809
            1534     2.83597E-03     84.9752E-03         3.39272    -813.425E-03        -1.38308    -755.516E-03         2.76515    -813.425E-03         3.13760     113.212E-03    -56.5122E-03    -56.6995E-03    -56.4810E-03     113.180E-03    -56.6989E-03     4.57970E-03    -58.6024E+06    -74.8932E+06    -259.706E+06    -74.9048E+06    -259.694E+06    -58.6024E+06    -1.04669E+06         29.3406
            1535     3.78069E-03     84.9800E-03         3.39690    -795.787E-03        -1.38850    -736.879E-03         2.74528    -795.787E-03         3.26060     113.360E-03    -56.5733E-03    -56.7872E-03    -56.5774E-03     113.307E-03    -56.7295E-03     5.98440E-03    -45.6282E+06    -68.3561E+06    -249.089E+06    -68.4038E+06    -249.042E+06    -45.6282E+06    -2.60460E+06         29.5714
            1536     4.72595E-03     84.9873E-03         3.15650    -774.260E-03        -1.16723    -640.559E-03         2.62983    -774.260E-03         2.80798     113.231E-03    -56.4308E-03    -56.8004E-03    -56.4053E-03     113.148E-03    -56.7428E-03     7.46565E-03    -33.9151E+06    -61.1498E+06    -229.144E+06    -61.2365E+06    -229.057E+06    -33.9151E+06    -3.59979E+06         29.8804
            1537     5.67127E-03     84.9964E-03         2.92247    -747.918E-03    -953.249E-03    -603.752E-03         2.57297    -747.918E-03         2.20241     113.000E-03    -56.2705E-03    -56.7299E-03    -56.1613E-03     112.875E-03    -56.7137E-03     9.15793E-03    -24.5975E+06    -54.3206E+06    -207.219E+06    -54.4552E+06    -207.084E+06    -24.5975E+06    -4.38473E+06         30.2797
            1538     6.61690E-03     85.0077E-03         2.64592    -653.233E-03    -757.609E-03    -552.598E-03         2.51035    -722.668E-03         1.12360     113.027E-03    -56.3149E-03    -56.7116E-03    -56.1639E-03     112.837E-03    -56.6729E-03     11.2657E-03    -18.2828E+06    -48.9794E+06    -188.875E+06    -49.1691E+06    -188.686E+06    -18.2828E+06    -5.11861E+06         30.7868
            1539     7.56255E-03     85.0192E-03         2.53090    -564.829E-03    -699.138E-03    -536.231E-03         2.50230    -699.138E-03     564.825E-03     113.042E-03    -56.3833E-03    -56.6585E-03    -56.1370E-03     112.773E-03    -56.6359E-03     13.4489E-03    -12.8225E+06    -43.4638E+06    -167.023E+06    -43.6679E+06    -166.819E+06    -12.8225E+06    -4.53633E+06         31.4272
            1540     8.50775E-03     85.0368E-03         2.52984    -543.057E-03    -678.915E-03    -520.947E-03         2.50773    -678.915E-03     408.984E-03     113.080E-03    -56.4160E-03    -56.6641E-03    -56.1372E-03     112.733E-03    -56.5954E-03     15.3069E-03    -8.27548E+06    -37.5070E+06    -139.223E+06    -37.7065E+06    -139.023E+06    -8.27548E+06    -4.03365E+06         32.2377
            1541     9.45329E-03     85.0523E-03         2.64672    -591.191E-03    -705.985E-03    -529.224E-03         2.54094    -662.175E-03     881.244E-03     113.241E-03    -56.4670E-03    -56.7745E-03    -56.1837E-03     112.732E-03    -56.5482E-03     18.4424E-03    -7.97995E+06    -33.0643E+06    -111.191E+06    -33.2507E+06    -111.005E+06    -7.97995E+06    -3.80135E+06         33.2713
            1542     10.3988E-03     85.0752E-03         2.69529    -616.448E-03    -693.502E-03    -553.137E-03         2.58817    -649.692E-03     729.017E-03     113.098E-03    -56.4362E-03    -56.6619E-03    -55.7980E-03     112.277E-03    -56.4791E-03     23.3851E-03    -9.88687E+06    -30.8785E+06    -76.8346E+06    -30.9867E+06    -76.7263E+06    -9.88687E+06    -2.14092E+06         34.6018
            1543     11.3446E-03     85.1029E-03         2.66980    -596.572E-03    -655.371E-03    -607.447E-03         2.66761    -642.304E-03    -150.373E-03     112.400E-03    -55.9790E-03    -56.4211E-03    -54.8914E-03     111.248E-03    -56.3564E-03     27.7047E-03    -7.00347E+06    -20.5462E+06    -41.2998E+06    -28.9299E+06    -29.1060E+06    -10.8136E+06     260.064E+03         36.3140
            1544     12.2917E-03     85.1361E-03         2.84410    -628.757E-03    -761.344E-03    -693.281E-03         2.78853    -641.245E-03    -684.361E-03     112.840E-03    -55.8607E-03    -56.9794E-03    -54.6773E-03     110.879E-03    -56.2021E-03     35.7225E-03     37.0035E+06    -8.49346E+06    -26.6957E+06    -26.5163E+06     36.8241E+06    -8.49346E+06     3.36949E+06         38.4442
            1545     13.2381E-03     85.1779E-03         3.05778    -647.062E-03    -911.539E-03    -804.289E-03         2.95053    -647.062E-03        -1.28281     114.530E-03    -56.0977E-03    -58.4322E-03    -54.7138E-03     110.812E-03    -56.0977E-03     49.6067E-03     111.696E+06     1.12240E+06    -24.5789E+06    -24.3531E+06     111.470E+06     1.12240E+06     5.36063E+06         40.9137
            1546     14.1840E-03     85.2419E-03         3.18765    -659.029E-03    -979.967E-03    -909.385E-03         3.11706    -659.029E-03        -1.03655     116.580E-03    -56.1659E-03    -60.4145E-03    -54.3610E-03     110.527E-03    -56.1659E-03     63.9864E-03     153.234E+06     32.0324E+06    -21.3233E+06    -21.2050E+06     153.116E+06     32.0324E+06     4.40423E+06         43.5622
            1547     15.1304E-03     85.3218E-03         3.32490    -675.582E-03        -1.05758        -1.00012         3.26744    -675.582E-03    -981.030E-03     118.414E-03    -56.3762E-03    -62.0377E-03    -54.0404E-03     110.417E-03    -56.3762E-03     74.1967E-03     166.478E+06     83.6776E+06    -14.9911E+06    -14.9570E+06     166.444E+06     83.6776E+06     1.79910E+06         46.2330
            1548     16.0779E-03     85.4065E-03         3.43722    -695.600E-03        -1.11877        -1.07865         3.39710    -695.600E-03    -488.382E-03     115.379E-03    -55.8508E-03    -59.5279E-03    -54.0431E-03     110.561E-03    -56.5182E-03     51.2385E-03     175.367E+06     121.355E+06    -7.51691E+06    -7.51492E+06     175.365E+06     121.355E+06     456.619E+03         48.6951
            1549     945.390E-06     86.0868E-03         5.05494     171.343E-03        -3.92184        -1.45934         2.59244     171.343E-03         4.14076     113.240E-03    -56.3540E-03    -56.8861E-03    -56.8602E-03     113.235E-03    -56.3748E-03     1.59818E-03    -82.4672E+06    -86.8661E+06    -276.441E+06    -86.4199E+06    -276.434E+06    -82.9203E+06     853.542E+03         29.0764
            1550     1.89029E-03     86.0899E-03         3.90793    -672.221E-03        -1.92009    -788.545E-03         2.77638    -672.221E-03         1.00850     113.369E-03    -56.5466E-03    -56.8228E-03    -56.6795E-03     113.357E-03    -56.6770E-03     2.92081E-03    -73.2808E+06    -81.7574E+06    -266.920E+06    -81.7653E+06    -266.913E+06    -73.2808E+06    -280.645E+03         29.1718
            1551     2.83514E-03     86.0924E-03         3.52749    -690.793E-03        -1.53857    -630.607E-03         2.61952    -690.793E-03         3.56850     113.208E-03    -56.4500E-03    -56.7577E-03    -56.4634E-03     113.179E-03    -56.7153E-03     4.33018E-03    -60.6867E+06    -76.2019E+06    -257.120E+06    -76.2425E+06    -257.080E+06    -60.6867E+06    -2.28574E+06         29.3320
            1552     3.78115E-03     86.0997E-03         3.23606    -674.818E-03        -1.24134    -632.322E-03         2.62704    -674.818E-03         2.88028     113.226E-03    -56.4462E-03    -56.7794E-03    -56.4495E-03     113.171E-03    -56.7218E-03     6.03440E-03    -48.1509E+06    -69.8902E+06    -246.621E+06    -69.9782E+06    -246.533E+06    -48.1509E+06    -3.71506E+06         29.5637
            1553     4.72556E-03     86.1061E-03         3.12355    -657.331E-03        -1.14670    -543.141E-03         2.51999    -657.331E-03         2.85880     113.244E-03    -56.4684E-03    -56.7759E-03    -56.4387E-03     113.157E-03    -56.7183E-03     7.63977E-03    -37.6110E+06    -63.0751E+06    -226.719E+06    -63.2459E+06    -226.548E+06    -37.6110E+06    -5.06834E+06         29.8739
            1554     5.67115E-03     86.1149E-03         2.79893    -636.131E-03    -836.220E-03    -529.383E-03         2.49209    -636.131E-03         2.00303     113.027E-03    -56.3275E-03    -56.6996E-03    -56.1984E-03     112.898E-03    -56.6996E-03     9.30751E-03    -28.4098E+06    -56.8793E+06    -205.985E+06    -57.1200E+06    -205.745E+06    -28.4098E+06    -5.88194E+06         30.2738
            1555     6.61747E-03     86.1253E-03         2.63478    -582.233E-03    -713.032E-03    -503.150E-03         2.46066    -617.997E-03         1.14327     112.994E-03    -56.3045E-03    -56.6893E-03    -56.1414E-03     112.808E-03    -56.6667E-03     11.1520E-03    -20.6129E+06    -50.5704E+06    -187.326E+06    -50.8795E+06    -187.016E+06    -20.6129E+06    -6.35828E+06         30.7803
            1556     7.56214E-03     86.1398E-03         2.53099    -548.077E-03    -612.522E-03    -523.734E-03         2.49778    -603.647E-03     525.361E-03     113.020E-03    -56.3724E-03    -56.6480E-03    -56.1273E-03     112.753E-03    -56.6254E-03     13.4073E-03    -15.5658E+06    -44.3063E+06    -166.088E+06    -44.7627E+06    -165.632E+06    -15.5658E+06    -7.29832E+06         31.4189
            1557     8.50802E-03     86.1538E-03         2.57782    -550.065E-03    -610.295E-03    -535.142E-03         2.54678    -594.174E-03     440.998E-03     112.891E-03    -56.3172E-03    -56.5740E-03    -55.9568E-03     112.531E-03    -56.5740E-03     15.5694E-03    -12.1482E+06    -39.2776E+06    -140.889E+06    -39.7012E+06    -140.465E+06    -12.1482E+06    -6.42609E+06         32.2273
            1558     9.45393E-03     86.1726E-03         2.72035    -563.998E-03    -690.694E-03    -560.759E-03         2.61471    -588.302E-03     854.408E-03     113.199E-03    -56.3981E-03    -56.8005E-03    -56.1431E-03     112.665E-03    -56.5221E-03     18.8732E-03    -10.6631E+06    -35.4879E+06    -112.015E+06    -35.7505E+06    -111.752E+06    -10.6631E+06    -4.38486E+06         33.2595
            1559     10.3985E-03     86.1939E-03         2.79340    -584.346E-03    -703.513E-03    -594.330E-03         2.68592    -586.044E-03     732.596E-03     113.199E-03    -56.4328E-03    -56.7661E-03    -55.9342E-03     112.397E-03    -56.4626E-03     23.1956E-03    -11.4556E+06    -31.4918E+06    -78.0510E+06    -31.7209E+06    -77.8219E+06    -11.4556E+06    -3.07718E+06         34.5892
            1560     11.3444E-03     86.2217E-03         2.79470    -586.556E-03    -666.601E-03    -662.849E-03         2.79264    -588.254E-03    -121.034E-03     112.368E-03    -55.9742E-03    -56.3940E-03    -54.9248E-03     111.270E-03    -56.3454E-03     27.0268E-03    -9.57237E+06    -21.7034E+06    -43.1834E+06    -28.2657E+06    -32.8998E+06    -13.2936E+06    -1.00818E+06         36.3009
            1561     12.2926E-03     86.2508E-03         2.98427    -596.357E-03    -806.479E-03    -760.321E-03         2.93811    -596.357E-03    -606.933E-03     112.772E-03    -55.8498E-03    -56.9224E-03    -54.6350E-03     110.826E-03    -56.1912E-03     35.5155E-03     32.9474E+06    -11.0352E+06    -26.4643E+06    -26.3505E+06     32.8337E+06    -11.0352E+06     2.45931E+06         38.4338
            1562     13.2383E-03     86.3007E-03         3.20479    -610.725E-03    -963.699E-03    -876.297E-03         3.11739    -610.725E-03        -1.19154     114.856E-03    -56.0968E-03    -58.7595E-03    -55.0828E-03     111.180E-03    -56.0968E-03     49.5026E-03     110.166E+06    -641.669E+03    -23.5090E+06    -23.3477E+06     110.004E+06    -641.669E+03     4.34509E+06         40.9097
            1563     14.1824E-03     86.3596E-03         3.36080    -630.598E-03        -1.04351    -986.414E-03         3.30371    -630.598E-03    -965.189E-03     117.147E-03    -56.1946E-03    -60.9521E-03    -54.9043E-03     111.099E-03    -56.1946E-03     64.1174E-03     157.452E+06     32.3047E+06    -18.8403E+06    -18.7502E+06     157.362E+06     32.3047E+06     3.79846E+06         43.5639
            1564     15.1305E-03     86.4398E-03         3.52875    -654.583E-03        -1.13306        -1.08475         3.48044    -654.583E-03    -930.909E-03     118.440E-03    -56.4209E-03    -62.0194E-03    -53.9301E-03     110.351E-03    -56.4209E-03     74.5982E-03     169.682E+06     83.9995E+06    -14.2789E+06    -14.2469E+06     169.650E+06     83.9995E+06     1.92051E+06         46.2412
            1565     16.0763E-03     86.5259E-03         3.67177    -681.630E-03        -1.20665        -1.17329         3.63841    -681.630E-03    -462.774E-03     115.008E-03    -55.6680E-03    -59.3404E-03    -53.6182E-03     110.163E-03    -56.5446E-03     51.0519E-03     175.121E+06     120.437E+06    -7.98896E+06    -7.98670E+06     175.119E+06     120.437E+06     437.904E+03         48.7169
            1566     944.874E-06     87.2056E-03         8.78312     217.603E-03        -7.61154        -1.25754         2.42912     217.603E-03         7.57203     113.236E-03    -56.5091E-03    -56.7268E-03    -56.6594E-03     113.230E-03    -56.5706E-03     1.79487E-03    -83.9219E+06    -87.0817E+06    -276.322E+06    -86.2814E+06    -276.314E+06    -84.7303E+06     552.623E+03         29.0668
            1567     1.89042E-03     87.2083E-03         5.36196    -551.999E-03        -3.40510    -681.709E-03         2.63857    -551.999E-03    -146.209E-03     113.287E-03    -56.5930E-03    -56.6945E-03    -56.6215E-03     113.274E-03    -56.6521E-03     3.04626E-03    -76.0457E+06    -83.2345E+06    -264.989E+06    -83.2621E+06    -264.961E+06    -76.0457E+06    -933.041E+03         29.1628
            1568     2.83535E-03     87.2122E-03         3.93601    -576.152E-03        -1.97838    -528.759E-03         2.48639    -576.152E-03         4.03050     113.280E-03    -56.5447E-03    -56.7358E-03    -56.5553E-03     113.249E-03    -56.6933E-03     4.51219E-03    -63.8460E+06    -78.0649E+06    -253.473E+06    -78.1471E+06    -253.391E+06    -63.8460E+06    -3.53819E+06         29.3239
            1569     3.78009E-03     87.2172E-03         3.22017    -565.906E-03        -1.24618    -551.257E-03         2.52525    -565.906E-03         2.42161     113.098E-03    -56.3875E-03    -56.7109E-03    -56.3276E-03     113.039E-03    -56.7109E-03     6.32759E-03    -50.0302E+06    -71.4110E+06    -244.017E+06    -71.5550E+06    -243.873E+06    -50.0302E+06    -4.83063E+06         29.5564
            1570     4.72679E-03     87.2253E-03         3.15406    -554.897E-03        -1.18749    -469.328E-03         2.43589    -554.897E-03         2.88887     113.049E-03    -56.3685E-03    -56.6803E-03    -56.2826E-03     112.963E-03    -56.6803E-03     7.58896E-03    -39.7249E+06    -65.0712E+06    -223.724E+06    -65.3708E+06    -223.425E+06    -39.7249E+06    -6.51850E+06         29.8679
            1571     5.67171E-03     87.2334E-03         2.70152    -540.345E-03    -744.014E-03    -476.661E-03         2.43417    -540.345E-03         1.72473     113.201E-03    -56.5236E-03    -56.6778E-03    -56.4020E-03     113.070E-03    -56.6677E-03     9.34025E-03    -30.3678E+06    -57.5564E+06    -202.960E+06    -58.1455E+06    -202.371E+06    -30.3678E+06    -8.85338E+06         30.2689
            1572     6.61591E-03     87.2448E-03         2.64754    -518.681E-03    -697.909E-03    -470.406E-03         2.43138    -530.019E-03         1.07572     113.148E-03    -56.4720E-03    -56.6757E-03    -56.2884E-03     112.954E-03    -56.6656E-03     11.4071E-03    -22.1112E+06    -49.5525E+06    -185.806E+06    -50.2562E+06    -185.102E+06    -22.1112E+06    -9.47887E+06         30.7749
            1573     7.56264E-03     87.2573E-03         2.54346    -513.081E-03    -565.310E-03    -515.908E-03         2.50540    -524.419E-03     366.885E-03     112.911E-03    -56.2792E-03    -56.6317E-03    -56.0184E-03     112.650E-03    -56.6317E-03     13.2386E-03    -16.3262E+06    -43.6995E+06    -165.283E+06    -44.3386E+06    -164.644E+06    -16.3262E+06    -8.74630E+06         31.4111
            1574     8.50810E-03     87.2734E-03         2.63551    -525.080E-03    -597.591E-03    -561.352E-03         2.59927    -525.080E-03     376.672E-03     112.872E-03    -56.3000E-03    -56.5716E-03    -55.9503E-03     112.522E-03    -56.5716E-03     15.3263E-03    -13.7485E+06    -39.1788E+06    -142.196E+06    -39.8197E+06    -141.555E+06    -13.7485E+06    -8.02898E+06         32.2163
            1575     9.45345E-03     87.2902E-03         2.79831    -530.061E-03    -702.380E-03    -605.924E-03         2.70186    -530.061E-03     730.168E-03     112.873E-03    -56.2548E-03    -56.6183E-03    -55.8263E-03     112.324E-03    -56.4976E-03     19.0676E-03    -13.3284E+06    -34.8695E+06    -113.838E+06    -35.4341E+06    -113.273E+06    -13.3284E+06     -6.5619E+06         33.2460
            1576     10.3995E-03     87.3148E-03         2.89150    -537.756E-03    -740.409E-03    -641.604E-03         2.79270    -537.756E-03     651.208E-03     112.952E-03    -56.2243E-03    -56.7272E-03    -55.7383E-03     112.154E-03    -56.4159E-03     23.1492E-03    -14.2618E+06    -31.5241E+06    -80.4388E+06    -32.0355E+06    -79.9274E+06    -14.2618E+06    -4.79357E+06         34.5760
            1577     11.3457E-03     87.3377E-03         2.92648    -548.873E-03    -724.868E-03    -720.799E-03         2.92241    -548.873E-03    -170.972E-03     113.091E-03    -56.2961E-03    -56.7945E-03    -55.7109E-03     112.037E-03    -56.3259E-03     26.5979E-03    -12.4083E+06    -23.5435E+06    -44.9536E+06    -29.2904E+06    -35.4496E+06    -16.1655E+06    -2.41309E+06         36.2893
            1578     12.2897E-03     87.3715E-03         3.13218    -565.411E-03    -871.533E-03    -827.993E-03         3.08864    -565.411E-03    -605.445E-03     113.217E-03    -56.2207E-03    -56.9968E-03    -55.0365E-03     111.257E-03    -56.2207E-03     35.6063E-03     29.4832E+06    -13.5108E+06    -26.3467E+06    -26.2784E+06     29.4150E+06    -13.5108E+06     866.536E+03         38.4238
            1579     13.2369E-03     87.4165E-03         3.35917    -587.459E-03        -1.02121    -941.722E-03         3.27968    -587.459E-03        -1.16665     114.460E-03    -56.1031E-03    -58.3567E-03    -54.4920E-03     110.595E-03    -56.1031E-03     50.5340E-03     108.265E+06    -5.19658E+06    -23.3403E+06    -23.2834E+06     108.208E+06    -5.19658E+06     2.38366E+06         40.9028
            1580     14.1848E-03     87.4821E-03         3.53085    -614.120E-03        -1.10310        -1.05268         3.48043    -614.120E-03    -934.637E-03     117.118E-03    -56.1799E-03    -60.9379E-03    -54.8532E-03     111.033E-03    -56.1799E-03     64.4725E-03     157.890E+06     28.7883E+06    -20.3329E+06    -20.2782E+06     157.835E+06     28.7883E+06     3.03840E+06         43.5617
            1581     15.1282E-03     87.5569E-03         3.72430    -644.456E-03        -1.20263        -1.15937         3.68103    -644.456E-03    -908.327E-03     118.737E-03    -56.4281E-03    -62.3090E-03    -54.2145E-03     110.643E-03    -56.4281E-03     74.6929E-03     172.486E+06     84.0348E+06    -15.5788E+06    -15.5390E+06     172.446E+06     84.0348E+06     2.24074E+06         46.2472
            1582     16.0769E-03     87.6449E-03         3.90593    -677.739E-03        -1.29394        -1.26438         3.87636    -677.739E-03    -450.021E-03     114.988E-03    -55.5556E-03    -59.4324E-03    -53.4770E-03     110.031E-03    -56.5541E-03     51.4470E-03     177.234E+06     120.315E+06    -7.86066E+06    -7.85879E+06     177.233E+06     120.315E+06     412.424E+03         48.7397
            1583     945.395E-06     88.3240E-03         12.9040     85.0805E-03        -11.5175    -956.105E-03         2.34264     85.0805E-03         10.9419     113.171E-03    -56.4558E-03    -56.7153E-03    -56.6025E-03     113.165E-03    -56.5628E-03     1.85043E-03    -86.6797E+06    -89.3635E+06    -276.492E+06    -88.8690E+06    -276.485E+06    -87.1805E+06    -271.329E+03         29.0579
            1584     1.89019E-03     88.3273E-03         7.09734    -468.796E-03        -5.15123    -602.492E-03         2.54861    -468.796E-03        -1.32655     112.991E-03    -56.4149E-03    -56.5761E-03    -56.3973E-03     112.973E-03    -56.5761E-03     3.31846E-03    -78.7167E+06    -85.8116E+06    -261.458E+06    -85.8555E+06    -261.414E+06    -78.7167E+06    -1.80464E+06         29.1546
            1585     2.83569E-03     88.3306E-03         4.59859    -496.643E-03        -2.64391    -464.420E-03         2.41910    -496.643E-03         4.43135     113.143E-03    -56.4740E-03    -56.6688E-03    -56.5186E-03     113.108E-03    -56.5892E-03     4.80178E-03    -66.8883E+06    -81.2872E+06    -249.128E+06    -81.4166E+06    -248.999E+06    -66.8883E+06    -4.48258E+06         29.3169
            1586     3.78141E-03     88.3363E-03         3.42517    -491.855E-03        -1.45752    -498.639E-03         2.46628    -491.855E-03         1.90269     113.260E-03    -56.5240E-03    -56.7359E-03    -56.5461E-03     113.202E-03    -56.6563E-03     6.19968E-03    -52.7371E+06    -74.6540E+06    -240.612E+06    -74.9622E+06    -240.304E+06    -52.7371E+06    -6.80327E+06         29.5507
            1587     4.72551E-03     88.3434E-03         3.25876    -487.693E-03        -1.28855    -440.608E-03         2.41081    -487.693E-03         2.83973     113.071E-03    -56.4068E-03    -56.6638E-03    -56.3214E-03     112.985E-03    -56.6638E-03     7.55649E-03    -41.6460E+06    -65.7470E+06    -219.094E+06    -66.4126E+06    -218.428E+06    -41.6460E+06    -9.63268E+06         29.8631
            1588     5.67146E-03     88.3525E-03         2.68374    -480.978E-03    -707.556E-03    -460.632E-03         2.43681    -480.978E-03         1.37179     113.023E-03    -56.3719E-03    -56.6508E-03    -56.2473E-03     112.888E-03    -56.6408E-03     9.43791E-03    -33.2040E+06    -58.0975E+06    -199.195E+06    -59.1285E+06    -198.164E+06    -33.2040E+06    -11.8507E+06         30.2644
            1589     6.61765E-03     88.3635E-03         2.71598    -478.593E-03    -726.972E-03    -473.262E-03         2.46227    -478.593E-03     941.287E-03     113.136E-03    -56.4794E-03    -56.6563E-03    -56.3060E-03     112.937E-03    -56.6314E-03     11.5517E-03    -26.2264E+06    -52.2467E+06    -185.126E+06    -53.4005E+06    -183.972E+06    -26.2264E+06    -12.2605E+06         30.7699
            1590     7.56170E-03     88.3763E-03         2.60534    -481.030E-03    -579.890E-03    -530.707E-03         2.55616    -481.030E-03     143.561E-03     113.091E-03    -56.4636E-03    -56.6273E-03    -56.2119E-03     112.824E-03    -56.6125E-03     13.3946E-03    -20.5752E+06    -46.0538E+06    -164.820E+06    -47.1983E+06    -163.676E+06    -20.5752E+06    -11.3021E+06         31.4042
            1591     8.50768E-03     88.3914E-03         2.70393    -488.993E-03    -620.404E-03    -580.950E-03         2.66448    -488.993E-03     239.295E-03     112.819E-03    -56.2539E-03    -56.5650E-03    -55.8942E-03     112.459E-03    -56.5650E-03     15.5310E-03    -16.7056E+06    -39.1005E+06    -142.099E+06    -40.3126E+06    -140.887E+06    -16.7056E+06    -10.7861E+06         32.2062
            1592     9.45350E-03     88.4098E-03         2.87195    -500.664E-03    -721.080E-03    -636.258E-03         2.78713    -500.664E-03     536.157E-03     112.675E-03    -56.1138E-03    -56.5611E-03    -55.6555E-03     112.135E-03    -56.4796E-03     18.9242E-03    -16.5348E+06    -33.7424E+06    -116.547E+06    -34.8828E+06    -115.407E+06    -16.5348E+06    -9.52119E+06         33.2330
            1593     10.4003E-03     88.4309E-03         2.99147    -515.268E-03    -776.259E-03    -691.244E-03         2.90646    -515.268E-03     514.667E-03     112.909E-03    -56.2328E-03    -56.6759E-03    -55.7298E-03     112.124E-03    -56.3945E-03     22.9280E-03    -16.1484E+06    -29.7967E+06    -82.9996E+06    -30.8133E+06    -81.9830E+06    -16.1484E+06    -7.09275E+06         34.5615
            1594     11.3446E-03     88.4603E-03         3.06497    -533.327E-03    -784.652E-03    -776.916E-03         3.05724    -533.327E-03    -269.049E-03     113.328E-03    -56.3182E-03    -57.0100E-03    -55.9420E-03     112.260E-03    -56.3182E-03     26.8093E-03    -14.1654E+06    -23.2834E+06    -45.1994E+06    -27.6490E+06    -37.8710E+06    -17.1283E+06    -3.90269E+06         36.2761
            1595     12.2910E-03     88.4881E-03         3.27968    -556.087E-03    -927.916E-03    -882.668E-03         3.23443    -556.087E-03    -660.862E-03     113.470E-03    -56.2281E-03    -57.2417E-03    -55.3353E-03     111.563E-03    -56.2281E-03     35.2473E-03     26.8432E+06    -15.6874E+06    -25.5397E+06    -25.3703E+06     26.6739E+06    -15.6874E+06    -824.482E+03         38.4134
            1596     13.2377E-03     88.5357E-03         3.51361    -583.666E-03        -1.07699    -996.266E-03         3.43289    -583.666E-03        -1.20336     114.328E-03    -56.1026E-03    -58.2252E-03    -54.2653E-03     110.368E-03    -56.1026E-03     50.8351E-03     106.846E+06    -9.10825E+06    -23.6779E+06    -23.6479E+06     106.816E+06    -9.10825E+06     1.48892E+06         40.8947
            1597     14.1829E-03     88.5999E-03         3.69421    -615.383E-03        -1.15698        -1.10631         3.64354    -615.383E-03    -961.479E-03     116.569E-03    -56.1401E-03    -60.4287E-03    -54.1266E-03     110.267E-03    -56.1401E-03     65.4173E-03     156.741E+06     23.8383E+06    -21.3193E+06    -21.2722E+06     156.694E+06     23.8383E+06     2.32249E+06         43.5569
            1598     15.1314E-03     88.6781E-03         3.91081    -650.618E-03        -1.26554        -1.22239         3.86765    -650.618E-03    -932.512E-03     118.692E-03    -56.3741E-03    -62.3178E-03    -54.1147E-03     110.489E-03    -56.3741E-03     75.1811E-03     173.123E+06     82.5435E+06    -15.0963E+06    -15.0741E+06     173.100E+06     82.5435E+06     1.11854E+06         46.2517
            1599     16.0764E-03     88.7612E-03         4.12917    -688.931E-03        -1.37572        -1.34700         4.10045    -688.931E-03    -468.550E-03     115.498E-03    -55.7166E-03    -59.7810E-03    -53.9582E-03     110.483E-03    -56.5250E-03     51.9268E-03     178.844E+06     121.580E+06    -7.20369E+06    -7.20214E+06     178.842E+06     121.580E+06     430.823E+03         48.7627
            1600     944.782E-06     89.4435E-03         16.4378    -230.475E-03        -14.6677    -619.890E-03         2.39007    -230.475E-03         13.6630     112.966E-03    -56.2580E-03    -56.7079E-03    -56.6365E-03     112.961E-03    -56.3244E-03     1.75916E-03    -90.5530E+06    -92.4751E+06    -276.267E+06    -92.3604E+06    -276.236E+06    -90.6985E+06    -1.56778E+06         29.0524
            1601     1.89087E-03     89.4445E-03         8.59975    -451.577E-03        -6.61526    -557.262E-03         2.54174    -451.577E-03        -2.33440     112.947E-03    -56.3745E-03    -56.5725E-03    -56.4334E-03     112.931E-03    -56.4975E-03     3.15444E-03    -81.3275E+06    -87.6489E+06    -257.067E+06    -87.7477E+06    -256.968E+06    -81.3275E+06    -3.68637E+06         29.1496
            1602     2.83630E-03     89.4498E-03         5.32928    -476.172E-03        -3.33922    -464.802E-03         2.45486    -476.172E-03         4.69141     113.122E-03    -56.4180E-03    -56.7037E-03    -56.5343E-03     113.090E-03    -56.5558E-03     4.56819E-03    -67.0074E+06    -81.3762E+06    -243.969E+06    -81.6278E+06    -243.718E+06    -67.0074E+06    -6.09407E+06         29.3120
            1603     3.78030E-03     89.4552E-03         3.77718    -475.821E-03        -1.77128    -487.505E-03         2.49341    -475.821E-03         1.39879     113.138E-03    -56.4395E-03    -56.6986E-03    -56.4641E-03     113.083E-03    -56.6190E-03     6.03062E-03    -53.4816E+06    -73.8342E+06    -234.811E+06     -74.429E+06    -234.216E+06    -53.4816E+06    -9.43826E+06         29.5460
            1604     4.72653E-03     89.4623E-03         3.42223    -474.779E-03        -1.40994    -448.615E-03         2.46091    -474.779E-03         2.73206     113.112E-03    -56.4479E-03    -56.6644E-03    -56.3943E-03     113.018E-03    -56.6235E-03     7.94377E-03    -44.1697E+06    -66.2702E+06    -213.756E+06    -67.3921E+06    -212.634E+06    -44.1697E+06    -12.5652E+06         29.8589
            1605     5.67152E-03     89.4709E-03         2.75621    -472.364E-03    -730.084E-03    -473.003E-03         2.49913    -472.364E-03         1.03446     113.138E-03    -56.4406E-03    -56.6977E-03    -56.3777E-03     113.006E-03    -56.6281E-03     9.46277E-03    -35.4260E+06    -59.4830E+06    -195.757E+06    -60.9039E+06    -194.336E+06    -35.4260E+06    -13.7868E+06         30.2602
            1606     6.61654E-03     89.4822E-03         2.83284    -474.514E-03    -781.770E-03    -501.093E-03         2.55217    -474.514E-03     795.629E-03     113.035E-03    -56.3671E-03    -56.6682E-03    -56.2265E-03     112.851E-03    -56.6247E-03     11.1072E-03    -28.5348E+06    -52.9929E+06    -182.510E+06    -54.7498E+06    -180.753E+06    -28.5348E+06    -14.7507E+06         30.7648
            1607     7.56297E-03     89.4955E-03         2.72219    -481.787E-03    -628.501E-03    -563.562E-03         2.65726    -481.787E-03    -73.0029E-03     112.966E-03    -56.3595E-03    -56.6066E-03    -56.1128E-03     112.705E-03    -56.5917E-03     13.2533E-03    -23.6499E+06    -45.5618E+06    -164.350E+06    -47.8108E+06    -162.101E+06    -23.6499E+06    -15.9945E+06         31.3974
            1608     8.50770E-03     89.5102E-03         2.80621    -493.708E-03    -653.256E-03    -610.232E-03         2.76319    -493.708E-03     85.5756E-03     112.842E-03    -56.2854E-03    -56.5569E-03    -55.9485E-03     112.491E-03    -56.5428E-03     15.3445E-03    -20.0101E+06    -39.0155E+06    -142.628E+06    -41.4264E+06    -140.217E+06    -20.0101E+06    -15.4500E+06         32.1973
            1609     9.45422E-03     89.5271E-03         2.96290    -508.450E-03    -740.375E-03    -664.894E-03         2.88742    -508.450E-03     329.356E-03     112.920E-03    -56.3053E-03    -56.6148E-03    -55.9014E-03     112.379E-03    -56.4779E-03     18.9276E-03    -19.1910E+06    -33.4670E+06    -118.438E+06    -35.6797E+06    -116.225E+06    -19.1910E+06    -13.3633E+06         33.2212
            1610     10.3983E-03     89.5515E-03         3.09958    -526.209E-03    -803.833E-03    -731.889E-03         3.02763    -526.209E-03     349.990E-03     112.954E-03    -56.4052E-03    -56.5484E-03    -55.7635E-03     112.169E-03    -56.4052E-03     22.9500E-03    -18.9414E+06    -28.3884E+06    -86.8390E+06    -30.4176E+06    -84.8098E+06    -18.9414E+06    -10.4610E+06         34.5462
            1611     11.3460E-03     89.5766E-03         3.20701    -547.801E-03    -837.848E-03    -823.899E-03         3.19306    -547.801E-03    -405.501E-03     112.893E-03    -56.3127E-03    -56.5799E-03    -55.4752E-03     111.788E-03    -56.3127E-03     27.1307E-03    -16.4112E+06    -23.0400E+06    -47.6823E+06    -26.4726E+06    -41.5221E+06    -19.1388E+06    -6.60561E+06         36.2595
            1612     12.2903E-03     89.6104E-03         3.42866    -573.974E-03    -980.193E-03    -929.987E-03         3.37845    -573.974E-03    -760.378E-03     113.472E-03    -56.2045E-03    -57.2675E-03    -55.3707E-03     111.575E-03    -56.2045E-03     35.3546E-03     23.0490E+06    -17.6080E+06    -24.4302E+06    -23.4119E+06     22.0307E+06    -17.6080E+06    -2.07587E+06         38.4011
            1613     13.2357E-03     89.6510E-03         3.67515    -604.883E-03        -1.13476        -1.04640         3.58678    -604.883E-03        -1.28828     114.785E-03    -56.0971E-03    -58.6879E-03    -54.7689E-03     110.866E-03    -56.0971E-03     50.6275E-03     104.439E+06    -10.7205E+06    -22.1401E+06    -22.1049E+06     104.404E+06    -10.7205E+06     1.65509E+06         40.8881
            1614     14.1852E-03     89.7195E-03         3.86488    -640.166E-03        -1.21900        -1.16195         3.80782    -640.166E-03        -1.04746     116.085E-03    -56.1602E-03    -59.9248E-03    -53.8005E-03     109.961E-03    -56.1602E-03     64.3618E-03     158.717E+06     26.9640E+06    -19.6345E+06    -19.6024E+06     158.685E+06     26.9640E+06     1.66802E+06         43.5538
            1615     15.1314E-03     89.7942E-03         4.08891    -679.083E-03        -1.32695        -1.27876         4.04073    -679.083E-03        -1.00991     117.745E-03    -56.3596E-03    -61.3857E-03    -53.2912E-03     109.651E-03    -56.3596E-03     74.2019E-03     172.006E+06     84.2544E+06    -15.2116E+06    -15.2064E+06     172.001E+06     84.2544E+06     604.555E+03         46.2560
            1616     16.0788E-03     89.8838E-03         4.32145    -720.625E-03        -1.43747        -1.40667         4.29065    -720.625E-03    -515.964E-03     115.499E-03    -55.9875E-03    -59.5119E-03    -53.9546E-03     110.431E-03    -56.4761E-03     51.7890E-03     178.210E+06     120.792E+06    -9.15414E+06    -9.14611E+06     178.202E+06     120.792E+06     497.202E+03         48.7843
            1617     945.885E-06     90.5605E-03         18.6931    -716.080E-03        -16.3986    -272.550E-03         2.56709    -716.080E-03         15.2699     113.213E-03    -56.3961E-03    -56.8166E-03    -56.8132E-03     113.209E-03    -56.3961E-03     1.20649E-03    -90.5941E+06    -92.3767E+06    -270.357E+06    -91.9892E+06    -270.247E+06    -91.0920E+06    -3.88907E+06         29.0528
            1618     1.89034E-03     90.5640E-03         9.53572    -508.934E-03        -7.45032    -565.902E-03         2.65130    -508.934E-03        -2.97927     113.235E-03    -56.4757E-03    -56.7590E-03    -56.6025E-03     113.223E-03    -56.6200E-03     2.72005E-03    -83.3445E+06    -87.5819E+06    -251.056E+06    -87.8489E+06    -250.789E+06    -83.3445E+06    -6.26469E+06         29.1487
            1619     2.83477E-03     90.5682E-03         5.85859    -523.515E-03        -3.77767    -523.618E-03         2.60454    -523.515E-03         4.77005     112.928E-03    -56.2369E-03    -56.6914E-03    -56.2756E-03     112.899E-03    -56.6232E-03     4.38749E-03    -70.6919E+06    -82.0524E+06    -238.772E+06    -82.5625E+06    -238.262E+06    -70.6919E+06    -8.68393E+06         29.3095
            1620     3.78161E-03     90.5738E-03         4.08070    -522.373E-03        -1.99602    -509.917E-03         2.59460    -522.373E-03         1.03342     112.895E-03    -56.2810E-03    -56.6142E-03    -56.2377E-03     112.840E-03    -56.6026E-03     6.03365E-03    -56.7329E+06    -75.1159E+06    -228.326E+06    -76.0855E+06    -227.357E+06    -56.7329E+06    -11.8190E+06         29.5425
            1621     4.72637E-03     90.5806E-03         3.59527    -518.228E-03        -1.50036    -487.541E-03         2.58245    -518.228E-03         2.61407     113.128E-03    -56.4804E-03    -56.6478E-03    -56.4422E-03     113.037E-03    -56.5952E-03     7.78568E-03    -46.5576E+06    -68.5299E+06    -208.464E+06    -70.1489E+06    -206.845E+06    -46.5576E+06    -14.7478E+06         29.8548
            1622     5.67145E-03     90.5908E-03         2.89592    -515.741E-03    -781.348E-03    -515.866E-03         2.63044    -515.741E-03     783.982E-03     113.272E-03    -56.5807E-03    -56.6912E-03    -56.5157E-03     113.137E-03    -56.6216E-03     9.52139E-03    -37.5499E+06    -60.8209E+06    -191.630E+06    -63.1420E+06    -189.309E+06    -37.5499E+06    -16.9644E+06         30.2554
            1623     6.61654E-03     90.6006E-03         2.98117    -518.813E-03    -836.172E-03    -552.350E-03         2.69735    -518.813E-03     652.058E-03     113.131E-03    -56.4649E-03    -56.6660E-03    -56.3093E-03     112.947E-03    -56.6373E-03     11.1418E-03    -29.5211E+06    -51.7093E+06    -178.660E+06    -54.6481E+06    -175.721E+06    -29.5211E+06    -18.8527E+06         30.7591
            1624     7.56169E-03     90.6138E-03         2.86872    -526.777E-03    -679.992E-03    -603.456E-03         2.79218    -526.777E-03    -264.289E-03     112.840E-03    -56.2390E-03    -56.6009E-03    -55.9851E-03     112.586E-03    -56.6009E-03     13.0448E-03    -24.9909E+06    -44.3969E+06    -162.343E+06    -47.9010E+06    -158.839E+06    -24.9909E+06    -19.8540E+06         31.3907
            1625     8.50833E-03     90.6288E-03         2.95170    -539.291E-03    -705.875E-03    -662.042E-03         2.90787    -539.291E-03    -65.0028E-03     112.896E-03    -56.3383E-03    -56.5575E-03    -56.0134E-03     112.557E-03    -56.5434E-03     15.1014E-03    -22.7341E+06    -38.3616E+06    -143.219E+06    -42.3278E+06    -139.253E+06    -22.7341E+06    -19.8439E+06         32.1889
            1626     9.45261E-03     90.6464E-03         3.10384    -555.568E-03    -788.988E-03    -722.793E-03         3.03764    -555.568E-03     138.113E-03     112.973E-03    -56.4325E-03    -56.5405E-03    -55.9399E-03     112.425E-03    -56.4850E-03     19.0075E-03    -22.2842E+06    -32.7801E+06    -122.096E+06    -36.6463E+06    -118.230E+06    -22.2842E+06    -18.0576E+06         33.2097
            1627     10.3999E-03     90.6696E-03         3.23368    -574.715E-03    -842.536E-03    -781.789E-03         3.17293    -574.715E-03     170.098E-03     112.941E-03    -56.3674E-03    -56.5740E-03    -55.7312E-03     112.141E-03    -56.4100E-03     23.1969E-03    -22.5549E+06    -27.7965E+06    -91.7858E+06    -31.5940E+06    -87.9884E+06    -22.5549E+06    -14.8068E+06         34.5306
            1628     11.3440E-03     90.6957E-03         3.35833    -596.933E-03    -888.308E-03    -865.018E-03         3.33504    -596.933E-03    -577.259E-03     112.630E-03    -56.1886E-03    -56.4411E-03    -55.2407E-03     111.550E-03    -56.3092E-03     26.7899E-03    -18.2648E+06    -23.3816E+06    -52.3407E+06    -26.4459E+06    -45.7051E+06    -21.8360E+06    -10.5281E+06         36.2416
            1629     12.2925E-03     90.7274E-03         3.58508    -623.601E-03        -1.03143    -973.563E-03         3.52721    -623.601E-03    -897.681E-03     113.106E-03    -56.0535E-03    -57.0526E-03    -54.9740E-03     111.148E-03    -56.1741E-03     35.7087E-03     18.3826E+06    -21.3142E+06    -26.7554E+06    -22.8411E+06     14.4683E+06    -21.3142E+06    -4.45927E+06         38.3863
            1630     13.2384E-03     90.7727E-03         3.84648    -655.718E-03        -1.19969        -1.09914         3.74593    -655.718E-03        -1.40781     115.283E-03    -56.0720E-03    -59.2113E-03    -55.2960E-03     111.368E-03    -56.0720E-03     51.0144E-03     101.395E+06    -12.6043E+06    -20.9330E+06    -20.8802E+06     101.342E+06    -12.6043E+06     1.02048E+06         40.8811
            1631     14.1808E-03     90.8362E-03         4.04158    -692.957E-03        -1.28943        -1.22159         3.97374    -692.957E-03        -1.16882     116.589E-03    -56.1955E-03    -60.3933E-03    -54.4367E-03     110.632E-03    -56.1955E-03     63.6807E-03     160.847E+06     30.0798E+06    -19.0207E+06    -18.9644E+06     160.790E+06     30.0798E+06     2.79003E+06         43.5534
            1632     15.1300E-03     90.9119E-03         4.25718    -733.867E-03        -1.38657        -1.32963         4.20024    -733.867E-03        -1.11995     117.303E-03    -56.4035E-03    -60.8994E-03    -52.8693E-03     109.273E-03    -56.4035E-03     73.6793E-03     173.247E+06     87.0390E+06    -14.8738E+06    -14.8380E+06     173.211E+06     87.0390E+06     1.95503E+06         46.2620
            1633     16.0790E-03     90.9997E-03         4.48016    -776.477E-03        -1.48125        -1.44514         4.44405    -776.477E-03    -583.084E-03     114.953E-03    -55.9060E-03    -59.0473E-03    -53.3751E-03     109.854E-03    -56.4793E-03     51.8304E-03     178.612E+06     121.716E+06    -7.76556E+06     -7.7535E+06     178.600E+06     121.716E+06    -106.852E+03         48.8050
            1634     944.273E-06     91.6806E-03         19.2755        -1.30144        -16.3583     52.8560E-03         2.86432        -1.30144         15.5124     113.696E-03    -56.5071E-03    -57.1893E-03    -57.0242E-03     113.691E-03    -56.6670E-03     1.50656E-03    -89.3247E+06    -93.4510E+06    -260.410E+06    -93.0994E+06    -260.264E+06    -89.8226E+06    -3.40953E+06         29.0557
            1635     1.88921E-03     91.6829E-03         9.71570    -624.080E-03        -7.49406    -620.092E-03         2.84173    -624.080E-03        -3.11604     113.217E-03    -56.3784E-03    -56.8384E-03    -56.4281E-03     113.203E-03    -56.7744E-03     2.94545E-03    -85.4989E+06    -89.8352E+06    -243.460E+06    -90.2783E+06    -243.017E+06    -85.4989E+06    -7.83056E+06         29.1504
            1636     2.83587E-03     91.6864E-03         6.04019    -623.551E-03        -3.82890    -623.668E-03         2.83495    -623.551E-03         4.64701     112.955E-03    -56.2760E-03    -56.6794E-03    -56.2536E-03     112.927E-03    -56.6730E-03     4.36544E-03    -74.7288E+06    -84.2402E+06    -231.673E+06    -85.1836E+06    -230.729E+06    -74.7288E+06    -11.4966E+06         29.3100
            1637     3.78050E-03     91.6918E-03         4.23085    -619.087E-03        -2.02963    -578.223E-03         2.77944    -619.087E-03     831.214E-03     113.073E-03    -56.3993E-03    -56.6737E-03    -56.3649E-03     113.021E-03    -56.6557E-03     5.90095E-03    -59.2909E+06    -77.1711E+06    -221.151E+06    -78.6915E+06    -219.631E+06    -59.2909E+06    -14.4754E+06         29.5412
            1638     4.72592E-03     91.7003E-03         3.73510    -611.293E-03        -1.52729    -576.384E-03         2.78420    -611.293E-03         2.45320     113.107E-03    -56.4396E-03    -56.6678E-03    -56.3659E-03     113.022E-03    -56.6562E-03     7.55614E-03    -46.4990E+06    -68.2153E+06    -202.276E+06    -70.7361E+06    -199.755E+06    -46.4990E+06    -17.8205E+06         29.8509
            1639     5.67141E-03     91.7086E-03         3.05906    -607.176E-03    -827.705E-03    -588.138E-03         2.81950    -607.176E-03     607.107E-03     112.994E-03    -56.3538E-03    -56.6402E-03    -56.2217E-03     112.862E-03    -56.6402E-03     9.39460E-03    -38.2515E+06    -59.7514E+06    -186.920E+06    -63.3444E+06    -183.327E+06    -38.2515E+06    -20.9169E+06         30.2495
            1640     6.61673E-03     91.7208E-03         3.14285    -607.748E-03    -878.048E-03    -622.661E-03         2.88746    -607.748E-03     498.228E-03     113.046E-03    -56.4252E-03    -56.6210E-03    -56.2365E-03     112.857E-03    -56.6210E-03     11.2746E-03    -32.1237E+06    -52.4955E+06    -175.868E+06    -56.8256E+06    -171.538E+06    -32.1237E+06    -22.5532E+06         30.7529
            1641     7.56219E-03     91.7317E-03         3.05427    -613.604E-03    -748.016E-03    -670.367E-03         2.97662    -613.604E-03    -421.114E-03     113.116E-03    -56.4553E-03    -56.6606E-03    -56.2569E-03     112.853E-03    -56.5962E-03     13.2886E-03    -27.7731E+06    -45.0887E+06    -159.469E+06    -50.3860E+06    -154.171E+06    -27.7731E+06    -23.7701E+06         31.3845
            1642     8.50707E-03     91.7480E-03         3.14105    -625.070E-03    -782.548E-03    -741.628E-03         3.10013    -625.070E-03    -209.355E-03     112.969E-03    -56.3444E-03    -56.6244E-03    -56.0602E-03     112.620E-03    -56.5600E-03     15.3255E-03    -25.3044E+06    -38.1641E+06    -142.364E+06    -44.2242E+06    -136.304E+06    -25.3044E+06    -24.2305E+06         32.1811
            1643     9.45379E-03     91.7649E-03         3.28668    -641.549E-03    -861.444E-03    -807.070E-03         3.23230    -641.549E-03    -45.8415E-03     112.782E-03    -56.2867E-03    -56.4948E-03    -55.7599E-03     112.255E-03    -56.4948E-03     18.6728E-03    -25.8264E+06    -32.3072E+06    -125.995E+06    -38.4533E+06    -119.849E+06    -25.8264E+06    -23.0495E+06         33.1984
            1644     10.3984E-03     91.7879E-03         3.40642    -660.886E-03    -906.070E-03    -857.415E-03         3.35777    -660.886E-03    -14.8453E-03     112.779E-03    -56.2662E-03    -56.5129E-03    -55.5515E-03     111.953E-03    -56.4014E-03     23.4667E-03    -25.0250E+06    -28.0831E+06    -97.6464E+06    -32.8223E+06    -91.5072E+06    -26.4250E+06    -19.6934E+06         34.5158
            1645     11.3455E-03     91.8152E-03         3.53779    -682.337E-03    -955.984E-03    -922.817E-03         3.50462    -682.337E-03    -741.930E-03     112.848E-03    -56.1541E-03    -56.6940E-03    -55.4898E-03     111.797E-03    -56.3069E-03     26.5856E-03    -18.6793E+06    -25.5798E+06    -59.2688E+06    -28.1052E+06    -50.2202E+06    -25.2026E+06    -15.0897E+06         36.2250
            1646     12.2904E-03     91.8433E-03         3.75846    -707.681E-03        -1.09272        -1.02572         3.69146    -707.681E-03        -1.04461     113.242E-03    -56.0697E-03    -57.1726E-03    -55.1387E-03     111.329E-03    -56.1903E-03     35.0689E-03     14.2914E+06    -23.0573E+06    -33.0480E+06    -24.0975E+06     7.12216E+06    -24.8387E+06    -8.12581E+06         38.3699
            1647     13.2372E-03     91.8932E-03         4.02147    -738.934E-03        -1.26647        -1.15170         3.90670    -738.934E-03        -1.54019     114.587E-03    -56.0481E-03    -58.5389E-03    -54.6194E-03     110.667E-03    -56.0481E-03     50.8890E-03      95.073E+06    -17.9000E+06    -23.8568E+06    -21.9546E+06     94.9521E+06    -19.6814E+06    -151.242E+03         40.8694
            1648     14.1850E-03     91.9565E-03         4.20364    -775.586E-03        -1.34830        -1.26713         4.12246    -775.586E-03        -1.30122     116.504E-03    -56.1276E-03    -60.3760E-03    -54.3948E-03     110.522E-03    -56.1276E-03     63.7853E-03     159.492E+06     21.2309E+06    -19.6322E+06    -19.5738E+06     159.434E+06     21.2309E+06     2.94987E+06         43.5506
            1649     15.1299E-03     92.0285E-03         4.40320    -815.752E-03        -1.43535        -1.36928         4.33713    -815.752E-03        -1.22645     118.219E-03    -56.3851E-03    -61.8339E-03    -53.7782E-03     110.163E-03    -56.3851E-03     74.2263E-03     176.741E+06     84.4392E+06    -13.3235E+06    -13.2914E+06     176.709E+06     84.4392E+06     1.63170E+06         46.2685
            1650     16.0768E-03     92.1174E-03         4.61323    -857.237E-03        -1.52092        -1.47903         4.57135    -857.237E-03    -644.518E-03     115.105E-03    -55.6059E-03    -59.4994E-03    -53.4558E-03     109.971E-03    -56.5149E-03     52.7535E-03     180.324E+06     123.192E+06    -5.98773E+06    -5.97997E+06     180.317E+06     123.192E+06     57.9890E+03         48.8251
            1651     944.813E-06     92.7998E-03         18.0260        -1.88482        -14.5105     304.854E-03         3.21065        -1.88482         14.2099     113.368E-03    -56.3852E-03    -56.9827E-03    -56.7856E-03     113.362E-03    -56.5761E-03     1.92704E-03    -90.7134E+06    -97.3452E+06    -252.721E+06    -94.3676E+06    -252.437E+06    -93.9745E+06    -4.90237E+06         29.0562
            1652     1.89068E-03     92.8014E-03         9.12404    -772.757E-03        -6.75061    -701.129E-03         3.07456    -772.757E-03        -2.75263     113.273E-03    -56.4336E-03    -56.8393E-03    -56.5725E-03     113.258E-03    -56.6854E-03     3.08789E-03    -83.7711E+06    -89.6290E+06    -233.027E+06    -90.2069E+06    -232.449E+06    -83.7711E+06    -8.72144E+06         29.1522
            1653     2.83478E-03     92.8051E-03         5.85917    -756.948E-03        -3.50314    -766.271E-03         3.12230    -756.948E-03         4.32065     113.401E-03    -56.6016E-03    -56.7993E-03    -56.6581E-03     113.371E-03    -56.7128E-03     4.45419E-03    -72.5794E+06    -84.5291E+06    -221.744E+06    -85.8602E+06    -220.413E+06    -72.5794E+06    -13.1896E+06         29.3120
            1654     3.78012E-03     92.8113E-03         4.22501    -754.559E-03        -1.88640    -716.677E-03         3.05529    -754.559E-03     785.494E-03     113.268E-03    -56.5145E-03    -56.7539E-03    -56.4659E-03     113.213E-03    -56.7474E-03     6.04097E-03    -60.0128E+06    -76.8118E+06    -213.216E+06    -79.2616E+06    -210.766E+06    -60.0128E+06    -17.7513E+06         29.5412
            1655     4.72543E-03     92.8184E-03         3.83335    -737.811E-03        -1.49625    -716.203E-03         3.06322    -747.724E-03         2.22551     112.980E-03    -56.2616E-03    -56.7188E-03    -56.1699E-03     112.889E-03    -56.7188E-03     7.81150E-03    -48.2641E+06    -68.0657E+06    -195.351E+06    -71.7658E+06    -191.651E+06    -48.2641E+06    -21.0778E+06         29.8480
            1656     5.67072E-03     92.8282E-03         3.23216    -731.220E-03    -872.536E-03    -684.612E-03         3.05415    -741.133E-03     492.830E-03     112.860E-03    -56.1897E-03    -56.6702E-03    -56.0585E-03     112.729E-03    -56.6702E-03     9.37904E-03    -38.9357E+06    -60.1278E+06    -181.908E+06    -64.9283E+06    -177.107E+06    -38.9357E+06    -23.5710E+06         30.2447
            1657     6.61695E-03     92.8379E-03         3.31619    -736.455E-03    -914.062E-03    -716.239E-03         3.11836    -736.455E-03     347.902E-03     112.973E-03    -56.3462E-03    -56.6264E-03    -56.1588E-03     112.785E-03    -56.6264E-03     11.1992E-03    -33.5194E+06    -52.3813E+06    -171.653E+06    -58.6248E+06    -165.410E+06    -33.5194E+06    -26.2779E+06         30.7472
            1658     7.56209E-03     92.8524E-03         3.28515    -739.146E-03    -843.608E-03    -778.158E-03         3.21970    -739.146E-03    -524.672E-03     113.203E-03    -56.5379E-03    -56.6651E-03    -56.3493E-03     112.950E-03    -56.6007E-03     13.0704E-03    -29.3989E+06    -43.5301E+06    -157.027E+06    -51.5162E+06    -149.041E+06    -29.3989E+06    -28.8116E+06         31.3781
            1659     8.50740E-03     92.8659E-03         3.38126    -749.415E-03    -891.441E-03    -855.728E-03         3.34554    -749.415E-03    -349.889E-03     113.044E-03    -56.4035E-03    -56.6406E-03    -56.1297E-03     112.706E-03    -56.5762E-03     15.0609E-03    -26.5265E+06    -35.7070E+06    -141.819E+06    -44.5367E+06    -132.989E+06    -26.5265E+06    -29.1834E+06         32.1735
            1660     9.45222E-03     92.8840E-03         3.49854    -764.647E-03    -948.826E-03    -905.684E-03         3.45540    -764.647E-03    -209.497E-03     112.756E-03    -56.2420E-03    -56.5144E-03    -55.7272E-03     112.242E-03    -56.5144E-03     18.4959E-03    -26.0633E+06    -30.1968E+06    -126.796E+06    -38.4962E+06    -117.861E+06    -26.6990E+06    -27.9941E+06         33.1888
            1661     10.3995E-03     92.9054E-03         3.60808    -781.987E-03    -985.238E-03    -946.805E-03         3.56964    -781.987E-03    -185.429E-03     112.693E-03    -56.2601E-03    -56.4331E-03    -55.4779E-03     111.889E-03    -56.4114E-03     23.1121E-03    -24.3501E+06    -29.5400E+06    -103.429E+06    -33.5719E+06    -94.3762E+06    -29.3707E+06    -24.9400E+06         34.5034
            1662     11.3450E-03     92.9338E-03         3.75059    -801.437E-03        -1.05036        -1.00920         3.70943    -801.437E-03    -872.132E-03     113.006E-03    -56.2822E-03    -56.7241E-03    -55.6231E-03     111.937E-03    -56.3144E-03     26.8079E-03    -17.4807E+06    -29.5520E+06    -67.5887E+06    -29.4058E+06    -55.6636E+06    -29.5520E+06    -19.8837E+06         36.2100
            1663     12.2903E-03     92.9640E-03         3.95299    -824.660E-03        -1.17293        -1.09880         3.87887    -824.660E-03        -1.16376     113.586E-03    -56.2152E-03    -57.3713E-03    -55.4608E-03     111.676E-03    -56.2152E-03     35.2015E-03     9.01227E+06    -26.7372E+06    -39.8413E+06    -25.8194E+06    -1.86506E+06    -29.8817E+06    -12.2320E+06         38.3544
            1664     13.2364E-03     93.0091E-03         4.18812    -853.062E-03        -1.32557        -1.20026         4.06282    -853.062E-03        -1.64305     114.026E-03    -56.0430E-03    -57.9830E-03    -54.0776E-03     110.121E-03    -56.0430E-03     50.5417E-03     85.8826E+06    -21.8741E+06    -28.5005E+06    -21.7311E+06     85.2812E+06    -28.0420E+06    -3.18031E+06         40.8561
            1665     14.1841E-03     93.0743E-03         4.34418    -886.322E-03        -1.39278        -1.29981         4.25122    -886.322E-03        -1.41355     115.751E-03    -56.0653E-03    -59.6855E-03    -53.6759E-03     109.741E-03    -56.0653E-03     63.6727E-03     156.892E+06     16.1422E+06    -21.2177E+06    -18.1746E+06     156.872E+06     13.1188E+06     1.11976E+06         43.5432
            1666     15.1313E-03     93.1493E-03         4.52146    -923.128E-03        -1.46980        -1.39665         4.44831    -923.128E-03        -1.30751     118.655E-03    -56.3385E-03    -62.3161E-03    -54.3270E-03     110.665E-03    -56.3385E-03     74.1741E-03     178.976E+06     81.2687E+06    -14.0544E+06    -14.0485E+06     178.970E+06     81.2687E+06     859.977E+03         46.2702
            1667     16.0771E-03     93.2351E-03         4.70243    -960.836E-03        -1.53844        -1.49244         4.65643    -960.836E-03    -686.733E-03     115.575E-03    -55.5251E-03    -60.0504E-03    -54.0136E-03     110.535E-03    -56.5210E-03     52.4957E-03     181.787E+06     122.850E+06    -7.38776E+06    -7.37804E+06     181.778E+06     122.850E+06     1.05602E+06         48.8408
            1668     945.914E-06     93.9186E-03         15.2119        -2.36259        -11.2397     445.768E-03         3.52641        -2.36259         11.6917     113.110E-03    -56.4040E-03    -56.7057E-03    -56.6715E-03     113.106E-03    -56.4350E-03     1.42574E-03    -87.9695E+06    -95.0814E+06    -241.200E+06    -92.1691E+06    -240.851E+06    -91.2306E+06    -6.83244E+06         29.0542
            1669     1.88993E-03     93.9204E-03         7.89700    -933.924E-03        -5.37449    -833.131E-03         3.35564    -933.924E-03        -1.96755     113.410E-03    -56.6098E-03    -56.8004E-03    -56.7785E-03     113.396E-03    -56.6178E-03     2.88261E-03    -84.3612E+06    -90.1128E+06    -223.364E+06    -90.8887E+06    -222.589E+06    -84.3612E+06    -9.75737E+06         29.1518
            1670     2.83519E-03     93.9251E-03         5.42313    -916.505E-03        -2.91599    -959.360E-03         3.46650    -916.505E-03         3.81909     113.449E-03    -56.6414E-03    -56.8071E-03    -56.6882E-03     113.415E-03    -56.7271E-03     4.69572E-03    -70.6492E+06    -83.6028E+06    -210.741E+06    -85.4116E+06    -208.932E+06    -70.6492E+06    -14.6862E+06         29.3120
            1671     3.77982E-03     93.9300E-03         4.13881    -921.148E-03        -1.64945    -893.957E-03         3.38331    -921.148E-03     895.444E-03     113.278E-03    -56.5194E-03    -56.7585E-03    -56.4599E-03     113.218E-03    -56.7585E-03     6.29490E-03    -59.3805E+06    -75.7360E+06    -203.136E+06    -79.0909E+06    -199.781E+06    -59.3805E+06    -20.1236E+06         29.5408
            1672     4.72532E-03     93.9374E-03         3.92548    -883.266E-03        -1.45671    -890.797E-03         3.39268    -916.378E-03         1.95657     113.045E-03    -56.3169E-03    -56.7285E-03    -56.2230E-03     112.951E-03    -56.7285E-03     7.91899E-03    -49.1807E+06    -67.2553E+06    -188.000E+06    -72.2688E+06    -182.986E+06    -49.1807E+06    -23.8845E+06         29.8468
            1673     5.67134E-03     93.9463E-03         3.45296    -875.449E-03    -962.457E-03    -827.566E-03         3.35118    -908.562E-03     435.775E-03     113.055E-03    -56.3522E-03    -56.7024E-03    -56.2202E-03     112.923E-03    -56.7024E-03     9.41792E-03    -38.5296E+06    -58.3759E+06    -175.842E+06    -64.8375E+06    -169.380E+06    -38.5296E+06    -26.6391E+06         30.2421
            1674     6.61589E-03     93.9574E-03         3.53343    -900.209E-03    -979.337E-03    -852.533E-03         3.40663    -900.209E-03     203.283E-03     113.129E-03    -56.4546E-03    -56.6743E-03    -56.2670E-03     112.941E-03    -56.6743E-03     11.2166E-03    -32.3865E+06    -49.1659E+06    -164.706E+06    -57.6860E+06    -156.186E+06    -32.3865E+06    -29.9597E+06         30.7424
            1675     7.56144E-03     93.9707E-03         3.54925    -899.697E-03    -958.931E-03    -912.621E-03         3.50294    -899.697E-03    -573.833E-03     112.950E-03    -56.3203E-03    -56.6297E-03    -56.0620E-03     112.692E-03    -56.6297E-03     13.1674E-03    -30.1365E+06    -41.1999E+06    -153.483E+06    -51.9963E+06    -142.686E+06    -30.1365E+06    -32.9709E+06         31.3712
            1676     8.50677E-03     93.9857E-03         3.65371    -907.405E-03        -1.01915    -989.668E-03         3.62423    -907.405E-03    -467.889E-03     112.893E-03    -56.3173E-03    -56.5761E-03    -55.9715E-03     112.548E-03    -56.5761E-03     15.2211E-03    -28.7662E+06    -34.3451E+06    -142.311E+06    -46.2470E+06    -130.409E+06    -28.7662E+06    -33.7153E+06         32.1657
            1677     9.45326E-03     94.0018E-03         3.74524    -919.921E-03        -1.05717        -1.02442         3.71249    -919.921E-03    -339.756E-03     113.031E-03    -56.3912E-03    -56.6401E-03    -55.9910E-03     112.510E-03    -56.5189E-03     18.6430E-03    -26.3519E+06    -30.0222E+06    -128.113E+06    -40.0891E+06    -115.583E+06    -28.8159E+06    -33.0413E+06         33.1804
            1678     10.3978E-03     94.0246E-03         3.83244    -933.828E-03        -1.08159        -1.05117         3.80203    -933.828E-03    -330.627E-03     113.131E-03    -56.3925E-03    -56.7382E-03    -55.8970E-03     112.348E-03    -56.4513E-03     22.9066E-03    -21.2215E+06    -30.9256E+06    -107.555E+06    -34.4060E+06    -94.3703E+06    -30.9256E+06    -30.8365E+06         34.4923
            1679     11.3441E-03     94.0515E-03         3.96841    -949.475E-03        -1.14795        -1.10195         3.92242    -949.475E-03    -961.351E-03     112.908E-03    -56.2699E-03    -56.6383E-03    -55.4963E-03     111.856E-03    -56.3600E-03     26.5598E-03    -14.7896E+06    -33.4520E+06    -77.0883E+06    -29.2314E+06    -62.6466E+06    -33.4520E+06    -25.7241E+06         36.1952
            1680     12.2907E-03     94.0836E-03         4.14246    -968.484E-03        -1.25044        -1.17419         4.06622    -968.484E-03        -1.23574     113.146E-03    -56.1483E-03    -56.9980E-03    -55.0576E-03     111.296E-03    -56.2384E-03     34.6874E-03     5.93433E+06    -30.2509E+06    -46.3914E+06    -24.3468E+06    -12.5181E+06    -33.8431E+06    -17.7342E+06         38.3401
            1681     13.2366E-03     94.1271E-03         4.34552    -992.044E-03        -1.38251        -1.25464         4.21766    -992.044E-03        -1.69025     114.180E-03    -56.0459E-03    -58.1337E-03    -54.3847E-03     110.431E-03    -56.0459E-03     49.5633E-03     77.0477E+06    -21.8818E+06    -34.2091E+06    -19.5504E+06     74.7162E+06    -34.2091E+06     -9.0835E+06         40.8467
            1682     14.1840E-03     94.1907E-03         4.47895        -1.02034        -1.44122        -1.34227         4.38001        -1.02034        -1.47620     115.756E-03    -56.0673E-03    -59.6884E-03    -53.6690E-03     109.736E-03    -56.0673E-03     63.6314E-03     151.912E+06     15.7521E+06    -24.3534E+06    -15.4596E+06     151.753E+06     7.01692E+06    -1.32716E+06         43.5364
            1683     15.1315E-03     94.2683E-03         4.61732        -1.05217        -1.49566        -1.41778         4.53943        -1.05217        -1.35836     118.140E-03    -56.3348E-03    -61.8051E-03    -53.7014E-03     110.036E-03    -56.3348E-03     74.4915E-03     179.607E+06     79.8693E+06    -12.1981E+06    -12.1203E+06     179.529E+06     79.8693E+06     3.08080E+06         46.2673
            1684     16.0768E-03     94.3562E-03         4.73274        -1.08336        -1.51981        -1.46938         4.68231        -1.08336    -727.712E-03     115.294E-03    -55.5067E-03    -59.7875E-03    -53.8020E-03     110.300E-03    -56.4976E-03     51.5784E-03     183.823E+06     122.697E+06    -7.07879E+06    -7.00723E+06     183.751E+06     122.697E+06     2.85195E+06         48.8533
            1685     944.328E-06     95.0370E-03         11.4784        -2.66652        -7.24146     416.192E-03         3.82075        -2.66652         8.48835     113.309E-03    -56.4514E-03    -56.8580E-03    -56.8509E-03     113.302E-03    -56.4514E-03     2.04880E-03    -82.0078E+06    -90.4040E+06    -230.433E+06    -87.8706E+06    -230.255E+06    -84.7190E+06    -4.44006E+06         29.0504
            1686     1.89016E-03     95.0402E-03         6.37958        -1.10703        -3.72337        -1.02947         3.68568        -1.10703    -916.647E-03     113.392E-03    -56.6194E-03    -56.7727E-03    -56.6986E-03     113.377E-03    -56.6780E-03     3.14955E-03    -79.2737E+06    -84.9915E+06    -211.925E+06    -85.9584E+06    -210.958E+06    -79.2737E+06    -9.98194E+06         29.1480
            1687     2.83492E-03     95.0438E-03         4.97680        -1.08403        -2.33062        -1.18469         3.84897        -1.10213         3.20432     113.240E-03    -56.5311E-03    -56.7091E-03    -56.4991E-03     113.208E-03    -56.7091E-03     4.58380E-03    -68.5592E+06    -79.5757E+06    -199.920E+06    -81.8697E+06    -197.626E+06    -68.5592E+06    -16.2582E+06         29.3087
            1688     3.78063E-03     95.0494E-03         4.12374        -1.09609        -1.48374        -1.09246         3.75056        -1.11419         1.06703     113.249E-03    -56.5235E-03    -56.7257E-03    -56.4652E-03     113.191E-03    -56.7257E-03     6.22535E-03    -55.1628E+06    -71.7385E+06    -191.231E+06    -75.9795E+06    -186.990E+06    -55.1628E+06    -21.6970E+06         29.5388
            1689     4.72542E-03     95.0563E-03         4.05920        -1.06023        -1.44274        -1.08818         3.75501        -1.11059         1.62571     113.316E-03    -56.5514E-03    -56.7647E-03    -56.4971E-03     113.224E-03    -56.7265E-03     7.86992E-03    -46.0587E+06    -62.5444E+06    -178.817E+06    -69.1561E+06    -172.206E+06    -46.0587E+06    -26.7048E+06         29.8458
            1690     5.67011E-03     95.0652E-03         3.75287        -1.05318        -1.11739        -1.02533         3.71117        -1.10354     396.092E-03     113.272E-03    -56.5015E-03    -56.7705E-03    -56.4017E-03     113.134E-03    -56.7323E-03     9.62014E-03    -37.4623E+06    -53.2689E+06    -169.343E+06    -61.9413E+06    -160.670E+06    -37.4623E+06    -30.3663E+06         30.2399
            1691     6.61586E-03     95.0770E-03         3.81770        -1.08313        -1.11236        -1.03437         3.75136        -1.09478     44.4348E-03     113.066E-03    -56.3563E-03    -56.7095E-03    -56.1606E-03     112.870E-03    -56.7095E-03     11.4693E-03    -30.5576E+06    -44.4924E+06    -157.966E+06    -55.1857E+06    -147.272E+06    -30.5576E+06    -32.9937E+06         30.7374
            1692     7.56125E-03     95.0891E-03         3.84143        -1.07480        -1.10675        -1.05998         3.81077        -1.09091    -605.380E-03     112.853E-03    -56.2013E-03    -56.6516E-03    -55.9404E-03     112.592E-03    -56.6516E-03     13.2295E-03    -27.5654E+06    -37.0481E+06    -147.643E+06    -49.8043E+06    -134.887E+06    -27.5654E+06    -35.2733E+06         31.3640
            1693     8.50786E-03     95.1040E-03         3.93571        -1.08890        -1.15313        -1.12399         3.91104        -1.09337    -567.846E-03     112.897E-03    -56.3113E-03    -56.5854E-03    -55.9692E-03     112.555E-03    -56.5854E-03     15.1530E-03    -26.9141E+06    -31.5314E+06    -139.835E+06    -45.4484E+06    -124.952E+06    -27.8793E+06    -37.3815E+06         32.1570
            1694     9.45230E-03     95.1213E-03         4.01379        -1.10103        -1.18208        -1.15777         3.98948        -1.10103    -440.620E-03     113.173E-03    -56.4901E-03    -56.6832E-03    -56.1267E-03     112.655E-03    -56.5286E-03     18.5812E-03    -23.9184E+06    -30.1007E+06    -128.683E+06    -40.8854E+06    -111.893E+06    -29.9237E+06    -38.2854E+06         33.1696
            1695     10.3983E-03     95.1435E-03         4.07671        -1.11032        -1.19341        -1.16922         4.05252        -1.11032    -447.169E-03     113.316E-03    -56.4753E-03    -56.8411E-03    -56.0176E-03     112.493E-03    -56.4753E-03     23.4720E-03    -17.5498E+06    -32.4899E+06    -112.644E+06    -35.3775E+06    -94.8166E+06    -32.4899E+06    -37.0383E+06         34.4782
            1696     11.3427E-03     95.1709E-03         4.17361        -1.12015        -1.23447        -1.18638         4.12551        -1.12015        -1.01448     113.111E-03    -56.3012E-03    -56.8098E-03    -55.6205E-03     112.012E-03    -56.3913E-03     27.1945E-03    -10.5758E+06    -36.1727E+06    -86.8445E+06    -29.5980E+06    -67.8223E+06    -36.1727E+06    -32.6367E+06         36.1784
            1697     12.2892E-03     95.2002E-03         4.30857        -1.13216        -1.31271        -1.23746         4.23332        -1.13216        -1.27309     113.024E-03    -56.1796E-03    -56.8445E-03    -54.8889E-03     111.159E-03    -56.2698E-03     34.7929E-03     5.96037E+06    -34.1512E+06    -53.5382E+06    -24.1439E+06    -21.2050E+06    -36.3801E+06    -25.0222E+06         38.3257
            1698     13.2365E-03     95.2466E-03         4.49319        -1.14903        -1.43916        -1.31534         4.36937        -1.14903        -1.69027     114.209E-03    -56.0685E-03    -58.1408E-03    -54.3615E-03     110.430E-03    -56.0685E-03     49.7820E-03     68.6909E+06    -24.6330E+06    -38.5492E+06    -20.0141E+06     62.9843E+06    -37.4615E+06    -14.9717E+06         40.8382
            1699     14.1820E-03     95.3080E-03         4.60224        -1.17116        -1.48739        -1.38866         4.50351        -1.17116        -1.48845     116.364E-03    -56.0817E-03    -60.2818E-03    -54.2266E-03     110.308E-03    -56.0817E-03     64.0476E-03     142.907E+06     10.5376E+06    -27.7151E+06    -16.7759E+06     142.567E+06     -62.006E+03    -3.51399E+06         43.5299
            1700     15.1295E-03     95.3860E-03         4.67918        -1.19600        -1.50310        -1.42429         4.60038        -1.19600        -1.36617     117.691E-03    -56.3356E-03    -61.3553E-03    -53.2011E-03     109.537E-03    -56.3356E-03     74.4869E-03     176.489E+06     72.3996E+06    -12.2604E+06    -12.1552E+06     176.384E+06     72.3996E+06     4.06450E+06         46.2625
            1701     16.0790E-03     95.4744E-03         4.71510        -1.21820        -1.47776        -1.42417         4.66150        -1.21820    -741.180E-03     114.447E-03    -55.4493E-03    -58.9980E-03    -52.9779E-03     109.451E-03    -56.4736E-03     50.8676E-03     185.609E+06     120.070E+06    -6.15566E+06    -6.03777E+06     185.491E+06     120.070E+06     4.39499E+06         48.8658
            1702     946.050E-06     96.1570E-03         7.77481        -2.19118        -4.07229     204.498E-03         4.18961        -2.88277         5.08467     113.291E-03    -56.4723E-03    -56.8186E-03    -56.6736E-03     113.282E-03    -56.6089E-03     2.32234E-03    -79.1796E+06    -86.0992E+06    -220.709E+06    -82.9855E+06    -220.318E+06    -82.6843E+06    -6.31080E+06         29.0451
            1703     1.88974E-03     96.1593E-03         5.15049        -1.29533        -2.35335        -1.26781         4.09519        -1.32558     172.033E-03     113.283E-03    -56.5218E-03    -56.7610E-03    -56.6120E-03     113.266E-03    -56.6538E-03     3.31707E-03    -72.5498E+06    -78.3565E+06    -199.825E+06    -78.6894E+06    -198.699E+06    -73.3434E+06    -10.7877E+06         29.1419
            1704     2.83532E-03     96.1628E-03         4.76308        -1.28972        -1.94847        -1.41408         4.26561        -1.32663         2.51491     113.293E-03    -56.5683E-03    -56.7248E-03    -56.5776E-03     113.261E-03    -56.6835E-03     4.61113E-03    -62.2239E+06    -71.9828E+06    -186.754E+06    -74.5585E+06    -184.178E+06    -62.2239E+06    -16.7078E+06         29.3032
            1705     3.78001E-03     96.1684E-03         4.30347        -1.30287        -1.49847        -1.31848         4.16039        -1.33978         1.18379     113.305E-03    -56.5837E-03    -56.7214E-03    -56.5265E-03     113.248E-03    -56.7214E-03     6.16398E-03    -49.6224E+06    -64.3876E+06    -179.162E+06    -69.2249E+06    -174.324E+06    -49.6224E+06    -22.7206E+06         29.5343
            1706     4.72549E-03     96.1756E-03         4.28711        -1.28053        -1.49441        -1.30555         4.15343        -1.33572         1.24626     113.382E-03    -56.6078E-03    -56.7742E-03    -56.5500E-03     113.286E-03    -56.7360E-03     8.01503E-03    -40.4424E+06    -55.8061E+06    -167.398E+06    -63.6477E+06    -159.556E+06    -40.4424E+06    -28.2967E+06         29.8417
            1707     5.67053E-03     96.1851E-03         4.11657        -1.25349        -1.32776        -1.24212         4.10498        -1.32755     337.630E-03     113.275E-03    -56.4975E-03    -56.7775E-03    -56.3960E-03     113.135E-03    -56.7393E-03     9.70413E-03    -34.1065E+06    -47.5291E+06    -160.990E+06    -58.3874E+06    -150.131E+06    -34.1065E+06    -33.2552E+06         30.2348
            1708     6.61576E-03     96.1950E-03         4.14872        -1.26190        -1.31698        -1.23350         4.12011        -1.31677    -144.996E-03     112.980E-03    -56.2715E-03    -56.7086E-03    -56.0756E-03     112.784E-03    -56.7086E-03     11.4597E-03    -28.4307E+06    -39.6196E+06    -152.594E+06    -52.7809E+06    -139.433E+06    -28.4307E+06    -36.1308E+06         30.7304
            1709     7.56166E-03     96.2085E-03         4.16403        -1.24850        -1.30831        -1.22575         4.14128        -1.30831    -649.246E-03     113.043E-03    -56.3465E-03    -56.6966E-03    -56.1153E-03     112.778E-03    -56.6623E-03     13.3592E-03    -23.9183E+06    -31.5728E+06    -142.354E+06    -46.7358E+06    -127.191E+06    -23.9183E+06    -37.9669E+06         31.3549
            1710     8.50597E-03     96.2225E-03         4.22786        -1.26654        -1.31822        -1.25739         4.20407        -1.30359    -673.485E-03     113.106E-03    -56.4551E-03    -56.6510E-03    -56.1422E-03     112.759E-03    -56.6166E-03     15.2794E-03    -21.1943E+06    -26.0856E+06    -134.140E+06    -41.4901E+06    -116.544E+06    -23.3860E+06    -40.2894E+06         32.1448
            1711     9.45252E-03     96.2407E-03         4.27513        -1.27239        -1.32749        -1.27675         4.25516        -1.30316    -525.755E-03     113.010E-03    -56.4209E-03    -56.5888E-03    -55.9191E-03     112.474E-03    -56.5554E-03     18.8413E-03    -17.8528E+06    -26.6506E+06    -126.377E+06    -37.5574E+06    -106.672E+06    -26.6506E+06    -41.8040E+06         33.1531
            1712     10.3976E-03     96.2622E-03         4.31220        -1.27364        -1.32825        -1.27536         4.29026        -1.30458    -552.674E-03     112.962E-03    -56.3876E-03    -56.5744E-03    -55.6584E-03     112.132E-03    -56.4738E-03     23.5367E-03    -12.9328E+06    -31.1701E+06    -115.320E+06    -34.4749E+06    -93.7778E+06    -31.1701E+06    -41.6153E+06         34.4571
            1713     11.3449E-03     96.2896E-03         4.37327        -1.28695        -1.33950        -1.27040         4.32365        -1.30643        -1.05583     113.059E-03    -56.3193E-03    -56.7400E-03    -55.5400E-03     111.907E-03    -56.3674E-03     27.7841E-03    -6.54790E+06    -37.0987E+06    -94.2930E+06    -31.0281E+06    -69.8128E+06    -37.0987E+06    -38.9752E+06         36.1563
            1714     12.2895E-03     96.3198E-03         4.46635        -1.30393        -1.37773        -1.29930         4.39399        -1.31000        -1.28418     113.296E-03    -56.2528E-03    -57.0428E-03    -55.1613E-03     111.414E-03    -56.2528E-03     35.1826E-03     7.71088E+06    -39.3582E+06    -62.6104E+06    -25.9868E+06    -28.9126E+06    -39.3582E+06    -33.0807E+06         38.3079
            1715     13.2363E-03     96.3621E-03         4.61021        -1.31825        -1.47382        -1.35825         4.49464        -1.31825        -1.65019     114.375E-03    -56.0626E-03    -58.3124E-03    -54.3924E-03     110.455E-03    -56.0626E-03     50.4955E-03     58.8424E+06    -29.9881E+06    -45.9488E+06    -21.9973E+06     47.5642E+06    -42.6614E+06    -19.5150E+06         40.8253
            1716     14.1842E-03     96.4290E-03         4.67262        -1.33131        -1.49434        -1.39988         4.57817        -1.33131        -1.46007     116.438E-03    -56.0308E-03    -60.4070E-03    -54.1327E-03     110.164E-03    -56.0308E-03     65.2816E-03     130.928E+06     384.535E+03    -33.1511E+06    -20.0761E+06     130.526E+06    -12.2888E+06    -5.06948E+06         43.5181
            1717     15.1291E-03     96.5035E-03         4.69085        -1.34581        -1.47319        -1.39796         4.61562        -1.34581        -1.32704     117.873E-03    -56.2684E-03    -61.6043E-03    -53.3502E-03     109.619E-03    -56.2684E-03     75.0091E-03     171.507E+06     59.0596E+06    -16.0877E+06    -16.0303E+06     171.450E+06     59.0596E+06     1.79971E+06         46.2529
            1718     16.0769E-03     96.5895E-03         4.66494        -1.32600        -1.44933        -1.36582         4.61210        -1.35666    -719.276E-03     114.161E-03    -54.9960E-03    -59.1645E-03    -52.5848E-03     109.024E-03    -56.4395E-03     52.1290E-03     186.000E+06     116.370E+06    -8.47887E+06    -8.39521E+06     185.917E+06     116.370E+06     3.98528E+06         48.8735
            1719     943.765E-06     97.2753E-03         5.57561        -1.07274        -3.05032    -215.202E-03         4.71807        -3.05032         2.11920     113.492E-03    -56.5437E-03    -56.9479E-03    -56.7429E-03     113.486E-03    -56.7428E-03     1.98209E-03    -69.8406E+06    -74.6732E+06    -205.000E+06    -73.0315E+06    -204.351E+06    -72.1308E+06    -8.28658E+06         29.0398
            1720     1.89086E-03     97.2782E-03         4.83595        -1.53682        -1.84909        -1.54413         4.60989        -1.61573         1.09965     113.159E-03    -56.4267E-03    -56.7327E-03    -56.4531E-03     113.145E-03    -56.6914E-03     3.04806E-03    -65.8266E+06    -69.8652E+06    -188.169E+06    -70.3807E+06    -186.459E+06    -67.0203E+06    -13.7001E+06         29.1346
            1721     2.83510E-03     97.2826E-03         4.88629        -1.58078        -1.83825        -1.64026         4.71240        -1.60489         1.86115     113.234E-03    -56.5290E-03    -56.7052E-03    -56.5372E-03     113.201E-03    -56.6639E-03     4.66709E-03    -54.6341E+06    -62.3858E+06    -173.939E+06    -65.2147E+06    -170.710E+06    -55.0343E+06    -18.4118E+06         29.2945
            1722     3.78042E-03     97.2873E-03         4.68740        -1.58187        -1.65255        -1.55550         4.61446        -1.60597         1.24996     113.405E-03    -56.6629E-03    -56.7421E-03    -56.6300E-03     113.341E-03    -56.7108E-03     6.51674E-03    -41.9863E+06    -54.3589E+06    -166.308E+06    -59.8564E+06    -160.811E+06    -41.9863E+06    -23.9088E+06         29.5249
            1723     4.72516E-03     97.2954E-03         4.63114        -1.53176        -1.64200        -1.53437         4.58717        -1.59542     877.673E-03     113.348E-03    -56.5734E-03    -56.7748E-03    -56.5059E-03     113.249E-03    -56.7434E-03     8.17196E-03    -31.0941E+06    -45.7020E+06    -155.818E+06    -53.8698E+06    -147.650E+06    -31.0941E+06    -28.6720E+06         29.8313
            1724     5.67052E-03     97.3039E-03         4.51030        -1.45907        -1.58086        -1.45350         4.50473        -1.58086     252.412E-03     113.157E-03    -56.4220E-03    -56.7349E-03    -56.2859E-03     113.021E-03    -56.7349E-03     9.56697E-03    -24.6881E+06    -38.7302E+06    -149.152E+06    -49.8056E+06    -138.077E+06    -24.6881E+06    -33.0375E+06         30.2236
            1725     6.61592E-03     97.3145E-03         4.50086        -1.43531        -1.56272        -1.42274         4.48829        -1.56272    -331.227E-03     113.080E-03    -56.3866E-03    -56.6936E-03    -56.1890E-03     112.883E-03    -56.6936E-03     11.5105E-03    -22.4495E+06    -32.1102E+06    -143.799E+06    -46.7940E+06    -129.115E+06    -22.4495E+06    -37.6323E+06         30.7180
            1726     7.56125E-03     97.3267E-03         4.50898        -1.42283        -1.54655        -1.40179         4.48794        -1.54655    -698.684E-03     113.077E-03    -56.3891E-03    -56.6875E-03    -56.1367E-03     112.790E-03    -56.6531E-03     13.8750E-03    -20.2348E+06    -25.1327E+06    -137.202E+06    -42.9310E+06    -119.404E+06    -20.2348E+06    -40.9141E+06         31.3391
            1727     8.50725E-03     97.3431E-03         4.53094        -1.42442        -1.53323        -1.39816         4.50467        -1.53323    -779.137E-03     113.040E-03    -56.3978E-03    -56.6423E-03    -56.0609E-03     112.669E-03    -56.6080E-03     15.8301E-03    -17.5886E+06    -21.2928E+06    -129.074E+06    -39.3146E+06    -108.914E+06    -19.7275E+06    -42.4536E+06         32.1246
            1728     9.45196E-03     97.3579E-03         4.52084        -1.39524        -1.52206        -1.37584         4.50144        -1.52206    -617.291E-03     112.944E-03    -56.4014E-03    -56.5421E-03    -55.8419E-03     112.384E-03    -56.5421E-03     19.2419E-03    -13.3353E+06    -23.2156E+06    -123.170E+06    -35.4775E+06    -101.028E+06    -23.2156E+06    -44.0178E+06         33.1282
            1729     10.3986E-03     97.3820E-03         4.51665        -1.37260        -1.51166        -1.34953         4.49359        -1.51166    -661.614E-03     112.929E-03    -56.3450E-03    -56.5840E-03    -55.6413E-03     112.099E-03    -56.4574E-03     23.5999E-03    -6.76813E+06    -27.8322E+06    -113.840E+06    -31.4752E+06    -89.1325E+06    -27.8322E+06    -44.9673E+06         34.4272
            1730     11.3437E-03     97.4064E-03         4.55074        -1.38800        -1.50228        -1.33788         4.50062        -1.50228        -1.08157     112.728E-03    -56.1600E-03    -56.5679E-03    -55.2660E-03     111.609E-03    -56.3431E-03     27.3246E-03    -204.718E+03    -34.6961E+06    -97.8484E+06    -28.3646E+06    -69.6885E+06    -34.6961E+06    -44.0683E+06         36.1241
            1731     12.2912E-03     97.4397E-03         4.60034        -1.40975        -1.50157        -1.34938         4.53382        -1.49542        -1.25567     113.187E-03    -56.0716E-03    -57.1150E-03    -55.0947E-03     111.301E-03    -56.2067E-03     35.1653E-03     9.09108E+06    -41.9330E+06    -71.8481E+06    -25.6475E+06    -37.1096E+06    -41.9330E+06    -38.7424E+06         38.2797
            1732     13.2365E-03     97.4797E-03         4.67930        -1.43156        -1.53077        -1.36599         4.57549        -1.49253        -1.56669     114.606E-03    -56.0248E-03    -58.5813E-03    -54.7069E-03     110.732E-03    -56.0248E-03     50.3457E-03     44.9086E+06    -34.3596E+06    -53.9133E+06    -22.6003E+06     28.2847E+06    -49.0487E+06    -25.1515E+06         40.8034
            1733     14.1828E-03     97.5463E-03         4.68391        -1.41736        -1.52800        -1.36464         4.59612        -1.49294        -1.40251     116.025E-03    -55.9502E-03    -60.0747E-03    -53.7720E-03     109.722E-03    -55.9502E-03     65.2008E-03     116.558E+06    -10.6430E+06    -36.1311E+06    -19.6464E+06     114.763E+06    -25.3322E+06    -7.63312E+06         43.4979
            1734     15.1326E-03     97.6215E-03         4.65266        -1.39373        -1.50714        -1.33716         4.58300        -1.49405        -1.26333     117.322E-03    -56.1400E-03    -61.1817E-03    -52.9717E-03     109.112E-03    -56.1400E-03     74.6618E-03     167.866E+06     44.3869E+06    -17.2364E+06    -17.1868E+06     167.816E+06     44.3869E+06     1.42869E+06         46.2343
            1735     16.0790E-03     97.7084E-03         4.58428        -1.32511        -1.50174        -1.28560         4.53466        -1.49163    -684.720E-03     113.771E-03    -54.7585E-03    -59.0121E-03    -52.3676E-03     108.716E-03    -56.3485E-03     52.2141E-03     186.569E+06     112.103E+06    -11.5725E+06    -11.5392E+06     186.536E+06     112.103E+06     1.59375E+06         48.8695
            1736     945.788E-06     98.3952E-03         5.72985        -1.14015        -3.20313    -817.830E-03         5.33253        -3.12812     16.7148E-03     113.652E-03    -56.5278E-03    -57.1239E-03    -57.0556E-03     113.646E-03    -56.5902E-03     1.94658E-03    -55.7395E+06    -59.6049E+06    -187.646E+06    -58.2158E+06    -186.962E+06    -57.8122E+06    -8.57555E+06         29.0317
            1737     1.88886E-03     98.3972E-03         5.35820        -1.89334        -2.07493        -1.85814         5.19923        -1.95116         1.73863     113.304E-03    -56.4985E-03    -56.8053E-03    -56.5208E-03     113.289E-03    -56.7685E-03     3.05547E-03    -52.0068E+06    -55.1809E+06    -172.175E+06    -56.3401E+06    -170.039E+06    -52.9830E+06    -15.0165E+06         29.1240
            1738     2.83562E-03     98.4011E-03         5.29536        -1.90719        -1.98436        -1.87667         5.20213        -1.92165         1.40757     113.101E-03    -56.4060E-03    -56.6947E-03    -56.3711E-03     113.066E-03    -56.6947E-03     4.75533E-03    -44.3183E+06    -50.3720E+06    -161.840E+06    -53.8735E+06    -157.938E+06    -44.7184E+06    -20.4398E+06         29.2800
            1739     3.78048E-03     98.4073E-03         5.18359        -1.87248        -1.92077        -1.80699         5.10104        -1.90372         1.29264     113.233E-03    -56.5165E-03    -56.7164E-03    -56.4818E-03     113.167E-03    -56.6850E-03     6.63642E-03    -32.9936E+06    -43.4913E+06    -153.493E+06    -49.8008E+06    -147.184E+06    -32.9936E+06    -25.2511E+06         29.5066
            1740     4.72558E-03     98.4146E-03         5.04420        -1.77022        -1.88448        -1.75907         5.02993        -1.88136     578.401E-03     113.139E-03    -56.4146E-03    -56.7248E-03    -56.3423E-03     113.036E-03    -56.6934E-03     8.33399E-03    -22.7898E+06    -36.5837E+06    -146.020E+06    -45.2311E+06    -137.373E+06    -22.7898E+06    -29.4885E+06         29.8105
            1741     5.67087E-03     98.4231E-03         4.92627        -1.67073        -1.85520        -1.66097         4.91651        -1.85520     150.610E-03     113.075E-03    -56.3828E-03    -56.6917E-03    -56.2435E-03     112.924E-03    -56.6800E-03     10.0661E-03    -14.4497E+06    -28.7158E+06    -137.500E+06    -39.5842E+06    -126.632E+06    -14.4497E+06    -32.4556E+06         30.2014
            1742     6.61646E-03     98.4333E-03         4.86340        -1.61317        -1.82571        -1.60302         4.85325        -1.82571    -475.896E-03     113.193E-03    -56.5280E-03    -56.6651E-03    -56.3278E-03     112.981E-03    -56.6534E-03     11.9446E-03    -11.6288E+06    -21.6999E+06    -131.348E+06    -35.9750E+06    -117.073E+06    -11.6288E+06    -36.8175E+06         30.6936
            1743     7.56159E-03     98.4465E-03         4.84111        -1.58576        -1.79814        -1.56394         4.81928        -1.79814    -738.181E-03     113.043E-03    -56.4181E-03    -56.6245E-03    -56.1297E-03     112.754E-03    -56.6245E-03     13.9295E-03    -11.2638E+06    -16.2098E+06    -128.032E+06    -34.0409E+06    -110.200E+06    -11.2638E+06    -40.8318E+06         31.3102
            1744     8.50722E-03     98.4606E-03         4.82552        -1.56178        -1.77341        -1.53311         4.79685        -1.77341    -853.059E-03     112.679E-03    -56.1174E-03    -56.5620E-03    -55.7391E-03     112.301E-03    -56.5620E-03     15.9288E-03    -8.71147E+06    -13.5455E+06    -122.729E+06    -31.2820E+06    -101.575E+06    -12.1286E+06    -43.9306E+06         32.0902
            1745     9.45340E-03     98.4785E-03         4.75506        -1.48765        -1.74963        -1.46731         4.73472        -1.74963    -692.777E-03     112.856E-03    -56.1914E-03    -56.6644E-03    -55.7844E-03     112.260E-03    -56.4755E-03     19.8353E-03    -5.14940E+06    -17.2127E+06    -118.157E+06    -29.0344E+06    -94.2719E+06    -17.2127E+06    -46.0736E+06         33.0893
            1746     10.3985E-03     98.4986E-03         4.68502        -1.42097        -1.72492        -1.39736         4.66141        -1.72492    -727.406E-03     113.075E-03    -56.3631E-03    -56.7121E-03    -55.7943E-03     112.191E-03    -56.3966E-03     24.3773E-03    -487.614E+03    -23.5376E+06    -110.510E+06    -27.3234E+06    -83.6739E+06    -23.5376E+06    -47.1766E+06         34.3843
            1747     11.3446E-03     98.5276E-03         4.67454        -1.41237        -1.70082        -1.36575         4.62793        -1.70082        -1.05296     112.682E-03    -56.1541E-03    -56.5275E-03    -55.2411E-03     111.538E-03    -56.2966E-03     27.6564E-03     4.18510E+06    -31.4751E+06    -98.8548E+06    -26.0043E+06    -68.6654E+06    -31.4751E+06    -46.7278E+06         36.0783
            1748     12.2908E-03     98.5535E-03         4.68054        -1.41579        -1.67990        -1.35774         4.62249        -1.67990        -1.18291     112.921E-03    -56.0123E-03    -56.9091E-03    -54.7422E-03     110.890E-03    -56.1474E-03     36.2556E-03     10.6431E+06    -41.2961E+06    -77.9158E+06    -24.8494E+06    -42.4232E+06    -41.2961E+06    -42.5146E+06         38.2374
            1749     13.2377E-03     98.6029E-03         4.69953        -1.43107        -1.66295        -1.34071         4.60917        -1.66295        -1.45280     114.769E-03    -55.9638E-03    -58.8053E-03    -54.8137E-03     110.777E-03    -55.9638E-03     51.4410E-03     32.5968E+06    -37.3623E+06    -60.7802E+06    -22.9966E+06     9.14803E+06    -51.6971E+06    -30.5387E+06         40.7698
            1750     14.1846E-03     98.6596E-03         4.65766        -1.38743        -1.64876        -1.30903         4.57927        -1.64876        -1.31013     116.287E-03    -55.8442E-03    -60.4428E-03    -54.1838E-03     110.028E-03    -55.8442E-03     65.0789E-03     98.3179E+06    -21.5013E+06    -43.6368E+06    -21.0454E+06     94.9131E+06    -40.6879E+06    -11.7166E+06         43.4684
            1751     15.1304E-03     98.7420E-03         4.58731        -1.32453        -1.63527        -1.26083         4.52361        -1.63527        -1.18507     116.658E-03    -55.9768E-03    -60.6809E-03    -52.4770E-03     108.454E-03    -55.9768E-03     74.3581E-03     163.831E+06     28.4186E+06    -20.8446E+06    -15.8798E+06     163.718E+06     23.5669E+06    -917.932E+03         46.2054
            1752     16.0811E-03     98.8207E-03         4.48579        -1.23908        -1.61890        -1.19205         4.43876        -1.61890    -649.921E-03     113.290E-03    -54.7760E-03    -58.5138E-03    -52.0518E-03     108.276E-03    -56.2241E-03     51.4193E-03     188.542E+06     105.399E+06    -7.48960E+06    -7.48328E+06     188.535E+06     105.399E+06    -658.655E+03         48.8528
            1753     944.280E-06     99.5150E-03         6.73893        -2.05595        -3.36111        -1.42450         5.90427        -3.15789    -980.490E-03     113.416E-03    -56.4126E-03    -57.0035E-03    -56.9390E-03     113.411E-03    -56.4716E-03     1.86661E-03    -45.5850E+06    -47.4003E+06    -170.383E+06    -47.8551E+06    -169.352E+06    -46.1611E+06    -10.2346E+06         29.0112
            1754     1.89090E-03     99.5169E-03         6.05067        -2.24594        -2.47739        -2.20184         5.80336        -2.27418         2.02413     113.315E-03    -56.5543E-03    -56.7605E-03    -56.5999E-03     113.300E-03    -56.7001E-03     3.08873E-03    -38.7662E+06    -41.2889E+06    -155.580E+06    -43.1668E+06    -153.126E+06    -39.3423E+06    -16.1100E+06         29.1020
            1755     2.83474E-03     99.5199E-03         5.81329        -2.21343        -2.26882        -2.14855         5.72125        -2.24168         1.17847     113.106E-03    -56.3986E-03    -56.7077E-03    -56.3809E-03     113.065E-03    -56.6841E-03     5.10139E-03    -28.7214E+06    -35.3975E+06    -148.109E+06    -39.4168E+06    -144.090E+06    -28.7214E+06    -20.8062E+06         29.2533
            1756     3.78054E-03     99.5266E-03         5.68975        -2.13102        -2.23694        -2.06613         5.59771        -2.20979         1.27289     112.832E-03    -56.1967E-03    -56.6353E-03    -56.1219E-03     112.757E-03    -56.6353E-03     7.06197E-03    -18.1924E+06    -29.0992E+06    -140.186E+06    -35.2496E+06    -134.035E+06    -18.1924E+06    -25.1566E+06         29.4738
            1757     4.72626E-03     99.5333E-03         5.47530        -1.98377        -2.17393        -1.97578         5.46731        -2.17393     399.374E-03     112.823E-03    -56.2349E-03    -56.5876E-03    -56.1243E-03     112.712E-03    -56.5876E-03     8.59342E-03    -9.52880E+06    -22.0142E+06    -134.722E+06    -30.9012E+06    -125.835E+06    -9.52880E+06    -30.2826E+06         29.7728
            1758     5.67214E-03     99.5419E-03         5.33861        -1.88239        -2.13430        -1.86985         5.32606        -2.13430     63.5303E-03     112.989E-03    -56.4114E-03    -56.5776E-03    -56.2596E-03     112.825E-03    -56.5659E-03     10.4743E-03    -3.27119E+06    -15.1960E+06    -128.506E+06    -26.4547E+06    -117.247E+06    -3.27119E+06    -33.7992E+06         30.1592
            1759     6.61692E-03     99.5531E-03         5.22210        -1.79006        -2.09244        -1.77890         5.21094        -2.09244    -557.073E-03     113.020E-03    -56.4558E-03    -56.5640E-03    -56.2360E-03     112.788E-03    -56.5524E-03     12.4709E-03     850.511E+03    -8.76488E+06    -119.755E+06    -22.0112E+06    -106.509E+06     850.511E+03    -35.9389E+06         30.6463
            1760     7.56241E-03     99.5651E-03         5.14411        -1.72413        -2.05112        -1.70285         5.12283        -2.05112    -743.576E-03     112.751E-03    -56.2373E-03    -56.5138E-03    -55.9180E-03     112.432E-03    -56.5138E-03     14.6095E-03     1.34816E+06    -4.00829E+06    -115.987E+06    -19.7752E+06    -99.7730E+06     900.852E+03    -39.3685E+06         31.2579
            1761     8.50790E-03     99.5799E-03         5.06805        -1.66011        -2.01135        -1.63211         5.04005        -2.01135    -865.276E-03     112.431E-03    -55.9639E-03    -56.4673E-03    -55.5673E-03     112.003E-03    -56.4357E-03     16.8990E-03     2.02802E+06    -2.58529E+06    -112.941E+06    -18.5968E+06    -93.0859E+06    -1.81604E+06    -43.2203E+06         32.0331
            1762     9.45476E-03     99.5948E-03         4.95000        -1.55958        -1.97217        -1.53980         4.93022        -1.97217    -708.960E-03     112.734E-03    -56.0968E-03    -56.6374E-03    -55.7073E-03     112.054E-03    -56.3470E-03     21.1735E-03     3.78588E+06    -8.12626E+06    -110.207E+06    -18.9836E+06    -87.4374E+06    -8.12626E+06    -45.4992E+06         33.0278
            1763     10.4003E-03     99.6207E-03         4.83006        -1.46077        -1.93219        -1.43941         4.80869        -1.93219    -718.480E-03     112.813E-03    -56.2581E-03    -56.5551E-03    -55.6258E-03     111.891E-03    -56.2656E-03     24.9038E-03     5.50207E+06    -16.2313E+06    -104.291E+06    -20.6401E+06    -78.1486E+06    -16.2313E+06    -46.6304E+06         34.3195
            1764     11.3465E-03     99.6420E-03         4.75399        -1.40869        -1.89233        -1.36912         4.71442        -1.89233    -973.333E-03     112.368E-03    -56.0713E-03    -56.2967E-03    -54.9799E-03     111.142E-03    -56.1617E-03     28.4697E-03     9.04792E+06    -24.4051E+06    -94.3716E+06    -21.0679E+06    -64.2558E+06    -24.4051E+06    -46.8137E+06         36.0140
            1765     12.2927E-03     99.6755E-03         4.70114        -1.37400        -1.85517        -1.32562         4.65275        -1.85517        -1.07858     113.063E-03    -55.9309E-03    -57.1318E-03    -54.8566E-03     110.870E-03    -56.0139E-03     37.8539E-03     13.6625E+06    -37.0441E+06    -79.7516E+06    -21.5581E+06     -44.531E+06    -37.0441E+06    -44.8690E+06         38.1793
            1766     13.2406E-03     99.7148E-03         4.68113        -1.36807        -1.82229        -1.29105         4.60410        -1.82229        -1.32705     115.072E-03    -55.8470E-03    -59.2247E-03    -55.0431E-03     110.890E-03    -55.8470E-03     52.7224E-03     23.5797E+06    -40.1602E+06    -66.2931E+06    -21.5843E+06    -8.32311E+06    -52.9662E+06    -34.4918E+06         40.7212
            1767     14.1847E-03     99.7860E-03         4.60867        -1.31453        -1.79291        -1.24667         4.54082        -1.79291        -1.20249     115.943E-03    -55.6568E-03    -60.2862E-03    -54.0467E-03     109.703E-03    -55.6568E-03     64.9889E-03     82.3523E+06    -26.3243E+06    -57.4078E+06    -18.5396E+06     74.5676E+06    -57.4078E+06    -18.1469E+06         43.4267
            1768     15.1340E-03     99.8502E-03         4.51057        -1.24301        -1.76508        -1.18621         4.45377        -1.76508        -1.09639     117.004E-03    -55.7423E-03    -61.2613E-03    -52.6424E-03     108.385E-03    -55.7423E-03     76.1532E-03     158.292E+06     19.7745E+06    -32.1179E+06    -13.3658E+06     157.818E+06     1.49691E+06    -6.90118E+06         46.1668
            1769     16.0811E-03     99.9446E-03         4.38921        -1.15633        -1.73571        -1.11287         4.34575        -1.73571    -606.645E-03     113.376E-03    -54.0703E-03    -59.3060E-03    -51.8220E-03     107.874E-03    -56.0524E-03     52.9216E-03     187.812E+06     96.2049E+06    -6.94813E+06    -6.91356E+06     187.778E+06     96.2049E+06    -1.85983E+06         48.8284
            1770     945.769E-06     100.634E-03         7.05597        -2.41440        -3.37944        -1.98047         6.38091        -3.13830    -843.690E-03     112.942E-03    -56.2820E-03    -56.6602E-03    -56.5446E-03     112.934E-03    -56.3898E-03     2.22808E-03    -26.7055E+06    -28.5413E+06    -149.697E+06    -28.3978E+06    -148.494E+06    -28.0522E+06    -11.1090E+06         28.9650
            1771     1.88982E-03     100.636E-03         6.57240        -2.50932        -2.79853        -2.54691         6.36884        -2.55739         1.94351     112.985E-03    -56.4023E-03    -56.5830E-03    -56.4740E-03     112.966E-03    -56.4923E-03     3.45361E-03    -21.8580E+06    -25.0151E+06    -140.654E+06    -27.4424E+06    -138.227E+06    -21.8580E+06    -16.3991E+06         29.0545
            1772     2.83605E-03     100.640E-03         6.29858        -2.48885        -2.55062        -2.42776         6.22429        -2.53741         1.13015     112.801E-03    -56.2754E-03    -56.5260E-03    -56.2551E-03     112.758E-03    -56.5024E-03     5.30200E-03    -12.9354E+06    -20.1307E+06    -133.819E+06    -24.3779E+06    -129.572E+06    -12.9354E+06    -21.1818E+06         29.2020
            1773     3.78152E-03     100.645E-03         6.13677        -2.37482        -2.51077        -2.31430         6.06304        -2.49756         1.17637     112.463E-03    -56.0090E-03    -56.4541E-03    -55.9271E-03     112.381E-03    -56.4541E-03     7.34381E-03    -3.50939E+06    -12.4716E+06    -126.927E+06    -18.8775E+06    -120.521E+06    -3.50939E+06    -26.2185E+06         29.4157
            1774     4.72753E-03     100.652E-03         5.87710        -2.18773        -2.44967        -2.18250         5.87187        -2.44967     329.312E-03     112.523E-03    -56.1222E-03    -56.4013E-03    -55.9925E-03     112.394E-03    -56.4013E-03     9.28723E-03     4.03550E+06    -5.63103E+06    -121.900E+06    -14.2802E+06    -113.251E+06     4.03550E+06    -30.3852E+06         29.7056
            1775     5.67234E-03     100.661E-03         5.70947        -2.07426        -2.39724        -2.06454         5.69976        -2.39724     9.72280E-03     112.476E-03    -56.1092E-03    -56.3668E-03    -55.9231E-03     112.290E-03    -56.3668E-03     11.1360E-03     8.75317E+06     307.625E+03    -118.785E+06    -10.7387E+06    -107.739E+06     8.75317E+06    -34.5197E+06         30.0820
            1776     6.61869E-03     100.672E-03         5.54510        -1.95063        -2.34302        -1.94057         5.53504        -2.34302    -545.846E-03     112.157E-03    -55.8548E-03    -56.3019E-03    -55.5656E-03     111.868E-03    -56.3019E-03     13.7657E-03     10.8311E+06     5.12431E+06    -112.314E+06    -7.43075E+06    -99.7590E+06     10.8311E+06    -36.2354E+06         30.5605
            1777     7.56452E-03     100.684E-03         5.40399        -1.84256        -2.28779        -1.82434         5.38577        -2.28779    -706.427E-03     112.099E-03    -55.8354E-03    -56.2634E-03    -55.4878E-03     111.711E-03    -56.2236E-03     16.0640E-03     13.1039E+06     9.33579E+06    -104.265E+06    -4.96945E+06    -89.5127E+06     12.6566E+06    -38.1922E+06         31.1670
            1778     8.51173E-03     100.697E-03         5.25970        -1.73040        -2.23230        -1.70583         5.23514        -2.23230    -825.704E-03     112.373E-03    -55.9965E-03    -56.3762E-03    -55.6988E-03     111.864E-03    -56.1652E-03     18.3944E-03     13.3163E+06     9.74194E+06    -101.545E+06    -4.97974E+06    -84.3541E+06     10.8471E+06    -40.6160E+06         31.9382
            1779     9.45631E-03     100.715E-03         5.10117        -1.60973        -2.17693        -1.59157         5.08300        -2.17693    -690.851E-03     112.445E-03    -56.1004E-03    -56.3451E-03    -55.5665E-03     111.667E-03    -56.1004E-03     22.7070E-03     13.7728E+06     3.67934E+06    -99.6283E+06    -5.94129E+06    -79.9142E+06     3.67934E+06    -42.8194E+06         32.9275
            1780     10.4029E-03     100.737E-03         4.94402        -1.49566        -2.12191        -1.47687         4.92524        -2.12191    -684.589E-03     112.196E-03    -56.0074E-03    -56.1882E-03    -55.1270E-03     111.134E-03    -56.0074E-03     26.5329E-03     16.1784E+06    -5.28117E+06    -95.3332E+06    -6.55202E+06    -72.6028E+06    -5.28117E+06    -44.7075E+06         34.2170
            1781     11.3489E-03     100.762E-03         4.81313        -1.40600        -2.06747        -1.37296         4.78008        -2.06747    -894.858E-03     112.405E-03    -55.8227E-03    -56.5826E-03    -55.1599E-03     111.066E-03    -55.9056E-03     29.8160E-03     16.9315E+06    -14.7651E+06    -85.8075E+06    -9.10878E+06    -59.7672E+06    -14.7651E+06    -44.3694E+06         35.9160
            1782     12.2976E-03     100.789E-03         4.70292        -1.33167        -2.01524        -1.29166         4.66291        -2.01524    -978.513E-03     113.681E-03    -55.7291E-03    -57.9519E-03    -55.5552E-03     111.367E-03    -55.8121E-03     38.9493E-03     17.0260E+06    -28.9493E+06    -74.2281E+06    -13.7157E+06    -43.4864E+06    -28.9493E+06    -42.6958E+06         38.0899
            1783     13.2401E-03     100.840E-03         4.64235        -1.30272        -1.96712        -1.23622         4.57585        -1.96712        -1.22000     114.694E-03    -55.6675E-03    -59.0270E-03    -54.7427E-03     110.410E-03    -55.6675E-03     53.3333E-03     20.6617E+06    -42.3241E+06    -65.6270E+06    -16.1870E+06    -20.5178E+06    -50.5847E+06    -38.0192E+06         40.6431
            1784     14.1896E-03     100.896E-03         4.54394        -1.23815        -1.92307        -1.17720         4.48299        -1.92307        -1.13471     115.619E-03    -55.4174E-03    -60.2012E-03    -53.7812E-03     109.199E-03    -55.4174E-03     65.7723E-03     72.3675E+06    -30.5592E+06    -66.6225E+06    -14.1132E+06     55.9214E+06    -66.6225E+06    -26.2338E+06         43.3613
            1785     15.1371E-03     100.972E-03         4.42460        -1.16020        -1.88157        -1.10920         4.37359        -1.88157        -1.03023     116.849E-03    -55.4436E-03    -61.4051E-03    -52.7711E-03     108.215E-03    -55.4436E-03     76.2935E-03     148.345E+06     9.65030E+06    -40.4580E+06    -11.3359E+06     147.025E+06    -18.1524E+06    -10.8237E+06         46.1121
            1786     16.0855E-03     101.058E-03         4.29042        -1.07455        -1.83993        -1.03662         4.25250        -1.83993    -557.168E-03     112.474E-03    -53.7242E-03    -58.7498E-03    -51.3137E-03     107.097E-03    -55.7828E-03     52.5503E-03     183.584E+06     83.1422E+06    -7.75378E+06    -7.70437E+06     183.535E+06     83.1422E+06    -2.60266E+06         48.7948
            1787     945.472E-06     101.753E-03         7.02811        -2.53640        -3.29646        -2.48009         6.80355        -3.12821     120.616E-03     112.000E-03    -55.8134E-03    -56.1862E-03    -56.0952E-03     111.988E-03    -55.8932E-03     2.69840E-03    -7.87863E+06    -12.5538E+06    -129.994E+06    -11.9394E+06    -129.262E+06    -9.22532E+06    -8.47768E+06         28.8750
            1788     1.89189E-03     101.755E-03         6.92598        -2.74478        -2.97550        -2.81767         6.83063        -2.80725         1.58454     112.145E-03    -55.9740E-03    -56.1710E-03    -56.0818E-03     112.118E-03    -56.0361E-03     4.14971E-03    -5.45168E+06    -9.85800E+06    -124.260E+06    -11.8756E+06    -122.028E+06    -5.66636E+06    -15.1015E+06         28.9618
            1789     2.83669E-03     101.758E-03         6.69157        -2.71140        -2.78913        -2.66033         6.64049        -2.78913         1.22350     112.133E-03    -55.9734E-03    -56.1592E-03    -56.0077E-03     112.080E-03    -56.0722E-03     5.87527E-03     845.767E+03    -2.74890E+06    -117.528E+06    -7.35479E+06    -112.663E+06     586.175E+03    -22.7667E+06         29.1046
            1790     3.78267E-03     101.763E-03         6.50852        -2.58712        -2.74386        -2.54527         6.46667        -2.74386         1.00934     111.937E-03    -55.8453E-03    -56.0915E-03    -55.7652E-03     111.838E-03    -56.0723E-03     7.98792E-03     8.10172E+06     3.71989E+06    -114.818E+06    -3.18539E+06    -107.867E+06     8.05681E+06    -27.8392E+06         29.3097
            1791     4.72850E-03     101.770E-03         6.22703        -2.37985        -2.68911        -2.37610         6.22328        -2.68911     320.777E-03     111.550E-03    -55.5327E-03    -56.0175E-03    -55.3564E-03     111.374E-03    -56.0175E-03     10.7139E-03     15.5235E+06     9.53872E+06    -110.440E+06     676.042E+03    -101.577E+06     15.5235E+06    -31.2492E+06         29.5865
            1792     5.67520E-03     101.780E-03         6.01233        -2.23495        -2.62642        -2.23047         6.00785        -2.62642    -58.2984E-03     111.230E-03    -55.3057E-03    -55.9242E-03    -55.0497E-03     110.974E-03    -55.9242E-03     12.9475E-03     21.3700E+06     15.5079E+06    -108.265E+06     4.69454E+06    -97.4516E+06     21.3700E+06    -34.9348E+06         29.9491
            1793     6.62180E-03     101.788E-03         5.80328        -2.08685        -2.56076        -2.07807         5.79449        -2.56076    -512.331E-03     111.102E-03    -55.2920E-03    -55.8104E-03    -54.9219E-03     110.732E-03    -55.8104E-03     15.5489E-03     24.0182E+06     19.1481E+06    -105.180E+06     8.02831E+06    -92.9256E+06     22.8839E+06    -37.1725E+06         30.4166
            1794     7.56951E-03     101.802E-03         5.62119        -1.95221        -2.49353        -1.93621         5.60518        -2.49353    -687.697E-03     111.339E-03    -55.4946E-03    -55.8442E-03    -55.1223E-03     110.842E-03    -55.7201E-03     18.0842E-03     25.2697E+06     22.1996E+06    -95.7681E+06     10.3488E+06    -82.4432E+06     23.7957E+06    -37.5026E+06         31.0144
            1795     8.51414E-03     101.815E-03         5.43428        -1.81266        -2.42579        -1.79077         5.41239        -2.42579    -793.325E-03     111.750E-03    -55.6861E-03    -56.0638E-03    -55.3995E-03     111.086E-03    -55.6861E-03     20.8862E-03     27.0996E+06     23.4258E+06    -90.8566E+06     11.2771E+06    -76.1392E+06     24.5309E+06    -38.6289E+06         31.7781
            1796     9.46124E-03     101.833E-03         5.23159        -1.66466        -2.35763        -1.64632         5.21325        -2.35763    -703.435E-03     111.641E-03    -55.6252E-03    -56.0157E-03    -55.0625E-03     110.688E-03    -55.6252E-03     25.0479E-03     27.8250E+06     17.1059E+06    -89.6715E+06     11.2776E+06    -73.1241E+06     17.1059E+06    -40.6962E+06         32.7612
            1797     10.4081E-03     101.853E-03         5.02640        -1.52182        -2.28940        -1.50315         5.00773        -2.28940    -688.056E-03     111.864E-03    -55.5425E-03    -56.3214E-03    -55.0302E-03     110.573E-03    -55.5425E-03     29.2711E-03     26.9803E+06     6.86468E+06    -86.2329E+06     8.81082E+06    -68.0634E+06     6.86468E+06    -41.3028E+06         34.0488
            1798     11.3559E-03     101.879E-03         4.86010        -1.41463        -2.22223        -1.38427         4.82975        -2.22223    -865.633E-03     113.106E-03    -55.5096E-03    -57.5963E-03    -55.9880E-03     111.498E-03    -55.5096E-03     32.8674E-03     25.6542E+06    -1.99633E+06    -75.9145E+06     4.77582E+06    -55.0361E+06    -1.99633E+06    -40.7173E+06         35.7518
            1799     12.2971E-03     101.910E-03         4.71432        -1.31959        -2.15775        -1.28333         4.67807        -2.15775    -932.475E-03     113.666E-03    -55.4887E-03    -58.1771E-03    -55.5626E-03     111.051E-03    -55.4887E-03     41.3652E-03     24.4542E+06    -14.6911E+06    -65.8805E+06     1.66501E+06    -43.0913E+06    -14.6911E+06    -38.8120E+06         37.9363
            1800     13.2469E-03     101.955E-03         4.60552        -1.25618        -2.09697        -1.19430         4.54364        -2.09697        -1.16919     114.418E-03    -55.3386E-03    -59.0795E-03    -54.3833E-03     109.722E-03    -55.3386E-03     55.8069E-03     25.7079E+06    -33.5172E+06    -59.7370E+06    -3.07175E+06    -23.9598E+06    -40.5146E+06    -36.5772E+06         40.5092
            1801     14.1937E-03     102.013E-03         4.47033        -1.16764        -2.03987        -1.10863         4.41132        -2.03987        -1.11465     116.561E-03    -55.0890E-03    -61.4722E-03    -54.5224E-03     109.611E-03    -55.0890E-03     68.7622E-03     62.4079E+06    -30.1692E+06    -67.2547E+06    -8.80998E+06     41.0486E+06    -67.2547E+06    -29.4806E+06         43.2513
            1802     15.1388E-03     102.091E-03         4.32500        -1.07612        -1.98553        -1.02620         4.27508        -1.98553        -1.01123     116.725E-03    -55.0945E-03    -61.6301E-03    -52.9200E-03     108.014E-03    -55.0945E-03     76.7728E-03     132.518E+06    -2.54552E+06    -42.0891E+06    -9.25977E+06     129.777E+06    -32.6335E+06    -14.7317E+06         46.0266
            1803     16.0901E-03     102.167E-03         4.17794    -983.232E-03        -1.93192    -948.205E-03         4.14291        -1.93192    -543.745E-03     111.689E-03    -53.6121E-03    -58.0764E-03    -50.9625E-03     106.390E-03    -55.4270E-03     53.2069E-03     178.615E+06     69.3761E+06    -4.60654E+06    -4.43456E+06     178.443E+06     69.3761E+06    -3.40378E+06         48.7436
            1804     946.628E-06     102.869E-03         7.37546        -2.92175        -3.32879        -2.82136         7.17719        -3.23091         1.53749     110.638E-03    -55.1017E-03    -55.5361E-03    -55.4917E-03     110.624E-03    -55.1328E-03     2.76502E-03     5.38346E+06    -326.904E+03    -113.391E+06     1.40596E+06    -112.671E+06     2.93101E+06    -7.75229E+06         28.7156
            1805     1.89255E-03     102.873E-03         7.22812        -2.96975        -3.12010        -3.00466         7.16515        -3.02221         1.05360     110.538E-03    -55.1535E-03    -55.3847E-03    -55.2003E-03     110.503E-03    -55.3027E-03     4.70981E-03     11.1638E+06     6.71518E+06    -104.501E+06     6.37157E+06    -101.464E+06     8.47059E+06    -17.3041E+06         28.7955
            1806     2.83936E-03     102.876E-03         7.00820        -2.89543        -2.99247        -2.83688         6.94966        -2.99247         1.35600     110.513E-03    -55.1418E-03    -55.3710E-03    -55.1443E-03     110.428E-03    -55.2840E-03     7.24394E-03     15.5936E+06     13.9225E+06    -102.322E+06     9.84013E+06    -96.8599E+06     14.2143E+06    -24.6867E+06         28.9292
            1807     3.78531E-03     102.880E-03         6.79932        -2.75111        -2.94122        -2.73257         6.78079        -2.94122     767.471E-03     110.400E-03    -55.1099E-03    -55.2904E-03    -54.9654E-03     110.237E-03    -55.2713E-03     10.2003E-03     22.5276E+06     20.2105E+06    -102.344E+06     13.4076E+06    -94.9076E+06     21.8940E+06    -29.2037E+06         29.1227
            1808     4.73212E-03     102.887E-03         6.52260        -2.56158        -2.88324        -2.55452         6.51553        -2.88324     292.009E-03     109.817E-03    -54.6273E-03    -55.1902E-03    -54.3669E-03     109.557E-03    -55.1902E-03     12.9275E-03     28.3570E+06     25.7631E+06    -100.236E+06     17.1051E+06    -90.9897E+06     27.7682E+06    -32.8628E+06         29.3853
            1809     5.68036E-03     102.895E-03         6.26215        -2.38847        -2.81578        -2.38611         6.25978        -2.81578    -202.160E-03     109.528E-03    -54.4638E-03    -55.0646E-03    -54.0829E-03     109.148E-03    -55.0646E-03     15.6414E-03     33.2603E+06     30.3835E+06    -97.0396E+06     19.8428E+06    -86.3444E+06     33.1058E+06    -35.2639E+06         29.7327
            1810     6.62762E-03     102.905E-03         6.01326        -2.21330        -2.74283        -2.20226         6.00221        -2.74283    -548.247E-03     109.738E-03    -54.7362E-03    -55.0019E-03    -54.2481E-03     109.207E-03    -54.9593E-03     18.4627E-03     36.5991E+06     33.0520E+06    -96.3887E+06     22.2611E+06    -84.3091E+06     35.3103E+06    -37.7789E+06         30.1848
            1811     7.57381E-03     102.917E-03         5.80148        -2.05873        -2.66685        -2.04054         5.78328        -2.66685    -752.104E-03     109.930E-03    -54.8242E-03    -55.1053E-03    -54.2893E-03     109.162E-03    -54.8723E-03     22.1386E-03     36.4857E+06     33.1659E+06    -91.7370E+06     24.0804E+06    -79.4811E+06     33.3153E+06    -37.6216E+06         30.7670
            1812     8.52255E-03     102.933E-03         5.58804        -1.90284        -2.59026        -1.87972         5.56492        -2.59026    -822.607E-03     110.195E-03    -54.8269E-03    -55.3686E-03    -54.3736E-03     109.200E-03    -54.8269E-03     25.4050E-03     38.9796E+06     35.5311E+06    -82.1559E+06     25.4149E+06    -68.9044E+06     35.8444E+06    -37.6196E+06         31.5174
            1813     9.46898E-03     102.948E-03         5.35243        -1.73499        -2.51307        -1.71300         5.33044        -2.51307    -779.359E-03     110.772E-03    -54.7946E-03    -55.9771E-03    -54.6738E-03     109.468E-03    -54.7946E-03     29.1394E-03     38.9062E+06     31.0001E+06    -81.7439E+06     24.7932E+06    -67.9442E+06     31.3133E+06    -38.2451E+06         32.4928
            1814     10.4165E-03     102.970E-03         5.10466        -1.56298        -2.43517        -1.54053         5.08221        -2.43517    -758.729E-03     111.918E-03    -54.7814E-03    -57.1366E-03    -55.3517E-03     110.133E-03    -54.7814E-03     34.2618E-03     35.9891E+06     21.0606E+06    -77.4421E+06     21.8918E+06    -63.3448E+06     21.0606E+06    -37.1681E+06         33.7760
            1815     11.3601E-03     102.998E-03         4.90027        -1.43638        -2.35794        -1.40349         4.86738        -2.35794    -907.960E-03     112.634E-03    -54.8085E-03    -57.8251E-03    -55.5364E-03     110.345E-03    -54.8085E-03     38.9173E-03     34.5061E+06     12.7851E+06    -68.1182E+06     18.6539E+06    -52.2659E+06     12.7851E+06    -36.8520E+06         35.4808
            1816     12.3089E-03     103.029E-03         4.71835        -1.32080        -2.28332        -1.28291         4.68046        -2.28332    -952.624E-03     113.411E-03    -54.8106E-03    -58.6003E-03    -55.3305E-03     110.141E-03    -54.8106E-03     46.5846E-03     32.1793E+06    -954.502E+03    -60.8397E+06     14.8889E+06    -43.5493E+06    -954.502E+03    -36.0051E+06         37.6848
            1817     13.2549E-03     103.067E-03         4.56935        -1.22780        -2.21198        -1.16524         4.50679        -2.21198        -1.17434     115.620E-03    -54.7439E-03    -60.8762E-03    -55.3882E-03     110.132E-03    -54.7439E-03     60.6809E-03     29.4798E+06    -20.0072E+06    -48.1759E+06     9.96168E+06    -24.5461E+06    -24.1188E+06    -31.6158E+06         40.2937
            1818     14.2001E-03     103.137E-03         4.39492        -1.11268        -2.14374        -1.05166         4.33390        -2.14374        -1.13136     117.254E-03    -54.5940E-03    -62.6601E-03    -54.7836E-03     109.378E-03    -54.5940E-03     73.4534E-03     53.8389E+06    -19.7087E+06    -50.5882E+06     1.72666E+06     31.5908E+06    -49.7754E+06    -23.7299E+06         43.0791
            1819     15.1489E-03     103.202E-03         4.21988        -1.00378        -2.07801    -950.764E-03         4.16687        -2.07801        -1.03157     117.627E-03    -54.5745E-03    -63.0521E-03    -53.4958E-03     108.070E-03    -54.5745E-03     80.7732E-03     118.362E+06    -5.65396E+06    -36.9154E+06    -6.48964E+06     115.752E+06    -33.4696E+06    -14.6432E+06         45.9038
            1820     16.0953E-03     103.287E-03         4.04958    -899.852E-03        -2.01361    -865.027E-03         4.01475        -2.01361    -559.765E-03     112.074E-03    -52.9476E-03    -59.1263E-03    -51.4214E-03     106.301E-03    -54.8793E-03     55.7141E-03     170.494E+06     54.5767E+06    -9.29149E+06    -7.11957E+06     170.183E+06     52.7161E+06    -5.09576E+06         48.6800
            1821     947.024E-06     103.986E-03         8.20325        -3.33230        -3.83035        -3.04373         7.45793        -3.37360         2.92666     108.303E-03    -53.8995E-03    -54.4031E-03    -54.2494E-03     108.281E-03    -54.0316E-03     3.44616E-03     26.3127E+06     21.9219E+06    -91.1552E+06     24.5160E+06    -89.8870E+06     22.4505E+06    -10.5843E+06         28.4493
            1822     1.89473E-03     103.988E-03         7.56756        -3.17930        -3.33168        -3.15533         7.41018        -3.19827     486.161E-03     107.756E-03    -53.7096E-03    -54.0468E-03    -53.6600E-03     107.693E-03    -54.0325E-03     6.11891E-03     27.1771E+06     22.7980E+06    -84.9027E+06     23.6061E+06    -81.3316E+06     22.7980E+06    -19.2687E+06         28.5192
            1823     2.84278E-03     103.990E-03         7.29950        -3.07130        -3.17289        -2.97984         7.19338        -3.15823         1.45069     107.445E-03    -53.5553E-03    -53.8899E-03    -53.4080E-03     107.298E-03    -53.8899E-03     9.43572E-03     30.9283E+06     27.4568E+06    -87.2972E+06     24.4038E+06    -81.0645E+06     27.7486E+06    -26.1951E+06         28.6395
            1824     3.79132E-03     103.996E-03         7.02332        -2.88478        -3.10045        -2.87151         7.01005        -3.10045     455.819E-03     107.220E-03    -53.4498E-03    -53.7699E-03    -53.1856E-03     106.956E-03    -53.7699E-03     12.8322E-03     35.8880E+06     31.9310E+06    -90.1873E+06     27.1064E+06    -81.6975E+06     32.2227E+06    -31.4261E+06         28.8182
            1825     4.73970E-03     104.001E-03         6.75374        -2.71709        -3.03880        -2.70109         6.73773        -3.03880     177.365E-03     107.157E-03    -53.3641E-03    -53.7934E-03    -53.0603E-03     106.728E-03    -53.6679E-03     16.2985E-03      40.645E+06     37.0903E+06    -89.3097E+06     30.6297E+06    -79.3461E+06     37.1421E+06    -34.5110E+06         29.0654
            1826     5.68750E-03     104.009E-03         6.47200        -2.53443        -2.96922        -2.52822         6.46579        -2.96922    -423.328E-03     107.091E-03    -53.3840E-03    -53.7069E-03    -52.8597E-03     106.441E-03    -53.5814E-03     20.0447E-03     44.8468E+06     42.2359E+06    -87.6662E+06     33.9020E+06    -76.7732E+06     42.2876E+06    -36.2618E+06         29.3955
            1827     6.63636E-03     104.019E-03         6.19611        -2.34191        -2.89312        -2.32554         6.17974        -2.89312    -643.895E-03     107.119E-03    -53.4317E-03    -53.6869E-03    -52.6935E-03     106.195E-03    -53.5015E-03     23.9193E-03     47.5308E+06     44.8563E+06    -87.6861E+06     34.9902E+06    -76.6676E+06     46.3784E+06    -36.6800E+06         29.8281
            1828     7.58601E-03     104.031E-03         5.95218        -2.16526        -2.81213        -2.14141         5.92833        -2.81213    -869.562E-03     107.514E-03    -53.4075E-03    -54.1070E-03    -52.8264E-03     106.234E-03    -53.4075E-03     28.3133E-03     47.9585E+06     41.9650E+06    -86.1503E+06     35.0056E+06    -74.7195E+06     43.4872E+06    -37.1637E+06         30.3902
            1829     8.53364E-03     104.046E-03         5.71218        -1.98741        -2.72917        -1.95903         5.68380        -2.72917    -910.316E-03     108.079E-03    -53.3548E-03    -54.7241E-03    -53.0894E-03     106.444E-03    -53.3548E-03     32.1153E-03     46.8873E+06     41.8112E+06    -77.1491E+06     34.5195E+06    -65.3860E+06      42.416E+06    -36.2079E+06         31.1241
            1830     9.48263E-03     104.063E-03         5.45935        -1.81066        -2.64521        -1.78047         5.42917        -2.64521    -922.633E-03     109.437E-03    -53.3791E-03    -56.0577E-03    -53.8900E-03     107.269E-03    -53.3791E-03     37.0500E-03     45.1243E+06     40.9349E+06    -74.4936E+06     33.1456E+06    -63.1198E+06     41.5398E+06    -34.9550E+06         32.0896
            1831     10.4282E-03     104.086E-03         5.18254        -1.62601        -2.56064        -1.59578         5.15231        -2.56064    -889.230E-03     110.863E-03    -53.4118E-03    -57.4507E-03    -54.4934E-03     107.905E-03    -53.4118E-03     43.6963E-03     41.6882E+06     29.7754E+06    -72.2911E+06     30.5716E+06    -61.1746E+06     29.7754E+06    -33.7339E+06         33.3699
            1832     11.3770E-03     104.115E-03         4.93297        -1.46744        -2.47600        -1.42798         4.89351        -2.47600        -1.00053     111.715E-03    -53.4830E-03    -58.2320E-03    -54.7295E-03     108.212E-03    -53.4830E-03     48.0012E-03     38.1485E+06     21.9743E+06    -62.5329E+06     26.2357E+06    -50.6201E+06     21.9743E+06    -32.3523E+06         35.0856
            1833     12.3239E-03     104.142E-03         4.70306        -1.31778        -2.39264        -1.27386         4.65913        -2.39264        -1.02126     114.147E-03    -53.5768E-03    -60.5703E-03    -55.8948E-03     109.472E-03    -53.5768E-03     55.7921E-03     34.2903E+06     9.20559E+06    -55.4488E+06     21.2481E+06    -42.4065E+06     9.20559E+06    -31.2850E+06         37.3244
            1834     13.2670E-03     104.192E-03         4.51913        -1.20484        -2.31185        -1.13749         4.45178        -2.31185        -1.21871     117.251E-03    -53.6641E-03    -63.5870E-03    -56.6049E-03     110.269E-03    -53.6641E-03     69.1573E-03     25.8659E+06    -14.8720E+06    -43.4125E+06     14.1325E+06    -31.6792E+06    -14.8720E+06    -25.5020E+06         39.9917
            1835     14.2147E-03     104.246E-03         4.31592        -1.07189        -2.23391        -1.00541         4.24944        -2.23391        -1.17792     118.764E-03    -53.6899E-03    -65.0745E-03    -55.9488E-03     109.639E-03    -53.6899E-03     79.7252E-03     47.5343E+06    -13.3964E+06    -37.3003E+06     5.79876E+06     25.3218E+06    -34.2829E+06    -15.5548E+06         42.8525
            1836     15.1613E-03     104.325E-03         4.10789    -943.933E-03        -2.15841    -886.896E-03         4.05086        -2.15841        -1.06055     118.915E-03    -53.7373E-03    -65.1780E-03    -54.6212E-03     108.359E-03    -53.7373E-03     85.5511E-03     110.721E+06    -2.69916E+06    -28.3995E+06    -1.67823E+06     109.700E+06    -28.3995E+06    -9.10342E+06         45.7675
            1837     16.1086E-03     104.400E-03         3.89716    -819.039E-03        -2.08440    -785.344E-03         3.86347        -2.08440    -567.042E-03     112.587E-03    -52.9936E-03    -59.5935E-03    -52.3901E-03     106.465E-03    -54.0747E-03     57.1118E-03     162.008E+06     47.2852E+06    -9.11416E+06    -4.07559E+06     161.783E+06     42.4714E+06    -5.04590E+06         48.6451
            1838     949.200E-06     105.098E-03         9.04840        -3.51010        -4.59789        -3.19559         7.64609        -3.51010         3.91728     103.601E-03    -51.5724E-03    -52.0287E-03    -51.7891E-03     103.562E-03    -51.7726E-03     4.73185E-03     42.0220E+06     38.4080E+06    -68.4090E+06     39.5314E+06    -67.0744E+06     39.5641E+06    -10.8056E+06         28.0335
            1839     1.89938E-03     105.098E-03         7.89411        -3.33808        -3.57680        -3.27836         7.59567        -3.33808     38.7871E-03     103.275E-03    -51.5007E-03    -51.7747E-03    -51.4468E-03     103.160E-03    -51.7127E-03     8.09683E-03     44.0278E+06     39.4489E+06    -63.8677E+06     39.6600E+06    -60.1274E+06     40.0764E+06    -19.2929E+06         28.0948
            1840     2.84933E-03     105.102E-03         7.55198        -3.21259        -3.35250        -3.11001         7.38983        -3.29294         1.46593     102.850E-03    -51.2765E-03    -51.5735E-03    -51.0276E-03     102.601E-03    -51.5735E-03     12.1111E-03     47.2139E+06     41.4679E+06    -69.5933E+06     40.5156E+06    -62.8950E+06     41.4679E+06    -26.9900E+06         28.2009
            1841     3.79969E-03     105.105E-03         7.19980        -2.99871        -3.23114        -2.97755         7.17864        -3.23114     154.899E-03     102.505E-03    -51.0894E-03    -51.4157E-03    -50.6434E-03     102.052E-03    -51.4081E-03     16.2849E-03     49.9155E+06     42.3611E+06    -76.9883E+06     40.9044E+06    -67.9773E+06     42.3611E+06    -32.5507E+06         28.3620
            1842     4.75070E-03     105.111E-03         6.92365        -2.83446        -3.16429        -2.80732         6.89650        -3.16429     22.7257E-03     102.534E-03    -51.1495E-03    -51.3845E-03    -50.5140E-03     101.765E-03    -51.2513E-03     21.2427E-03     52.4045E+06     43.0909E+06    -78.4197E+06     41.5542E+06    -67.5695E+06     43.0909E+06    -36.0165E+06         28.5904
            1843     5.70126E-03     105.119E-03         6.62560        -2.64988        -3.09127        -2.63495         6.61067        -3.09127    -662.490E-03     102.695E-03    -51.1395E-03    -51.5555E-03    -50.3838E-03     101.525E-03    -51.1415E-03     26.3256E-03     52.7852E+06     45.1979E+06    -81.2124E+06     41.7357E+06    -70.1629E+06     45.1979E+06    -36.7968E+06         28.9017
            1844     6.65243E-03     105.128E-03         6.34074        -2.45907        -3.01296        -2.43625         6.31792        -3.01296    -767.348E-03     103.102E-03    -51.0562E-03    -52.0462E-03    -50.3424E-03     101.400E-03    -51.0579E-03     31.7546E-03     53.7455E+06     46.6826E+06    -81.3041E+06     42.1143E+06    -71.0457E+06     48.0554E+06    -35.5711E+06         29.3161
            1845     7.60262E-03     105.142E-03         6.08595        -2.27334        -2.92997        -2.24238         6.05500        -2.92997    -997.986E-03     103.895E-03    -50.9871E-03    -52.9081E-03    -50.6058E-03     101.593E-03    -50.9871E-03     37.1235E-03     52.7821E+06     44.9640E+06    -79.0303E+06     41.2884E+06    -68.9093E+06     46.3368E+06    -34.8397E+06         29.8625
            1846     8.55385E-03     105.156E-03         5.81911        -2.07632        -2.84383        -2.04023         5.78302        -2.84383        -1.02927     104.982E-03    -50.9557E-03    -54.0261E-03    -51.0566E-03     102.012E-03    -50.9557E-03     42.3809E-03     47.7391E+06     41.0177E+06    -74.2888E+06     37.9662E+06    -64.8076E+06     41.3094E+06    -32.5335E+06         30.5859
            1847     9.50302E-03     105.175E-03         5.53764        -1.88103        -2.75527        -1.84043         5.49704        -2.75527        -1.08279     106.716E-03    -51.0110E-03    -55.7053E-03    -51.7600E-03     102.771E-03    -51.0110E-03     49.2729E-03     45.5455E+06     37.6286E+06    -69.1383E+06     33.7243E+06    -60.4577E+06     40.7691E+06    -29.7864E+06         31.5509
            1848     10.4536E-03     105.199E-03         5.23611        -1.68178        -2.66523        -1.64106         5.19540        -2.66523        -1.04041     108.951E-03    -51.0987E-03    -57.8527E-03    -52.9392E-03     104.038E-03    -51.0987E-03     55.9113E-03     39.1994E+06     27.1882E+06    -68.3770E+06     28.0772E+06    -60.1037E+06     30.0371E+06    -28.1772E+06         32.8465
            1849     11.4015E-03     105.226E-03         4.94840        -1.49876        -2.57448        -1.45011         4.89974        -2.57448        -1.11373     111.588E-03    -51.2918E-03    -60.2964E-03    -54.6780E-03     105.970E-03    -51.2918E-03     60.6288E-03     33.0170E+06     21.0693E+06     -56.167E+06     21.7668E+06    -46.8265E+06     22.9791E+06    -26.6990E+06         34.5968
            1850     12.3462E-03     105.262E-03         4.67467        -1.31888        -2.48396        -1.26684         4.62263        -2.48396        -1.10638     114.995E-03    -51.5768E-03    -63.4182E-03    -56.3445E-03     107.921E-03    -51.5768E-03     69.0336E-03     24.9182E+06     8.51228E+06    -53.6373E+06     14.4069E+06    -45.0358E+06     10.4220E+06    -23.9245E+06         36.8941
            1851     13.2943E-03     105.305E-03         4.45358        -1.18043        -2.39503        -1.10676         4.37991        -2.39503        -1.27163     119.468E-03    -51.8643E-03    -67.6039E-03    -58.1654E-03     110.030E-03    -51.8643E-03     81.5873E-03     12.8302E+06    -16.0513E+06    -46.5942E+06     6.25145E+06    -40.0154E+06    -16.0513E+06    -18.3324E+06         39.6505
            1852     14.2352E-03     105.370E-03         4.21968        -1.03246        -2.30852    -958.614E-03         4.14583        -2.30852        -1.23211     122.205E-03    -52.1918E-03    -70.0128E-03    -58.9859E-03     111.178E-03    -52.1918E-03     89.2779E-03     37.4175E+06    -13.4351E+06    -29.4832E+06     877.678E+03     19.5206E+06    -25.8990E+06    -11.5555E+06         42.6306
            1853     15.1784E-03     105.438E-03         3.97337    -885.078E-03        -2.22428    -823.205E-03         3.91149        -2.22428        -1.08758     121.897E-03    -52.5331E-03    -69.3642E-03    -57.3201E-03     109.853E-03    -52.5331E-03     92.8259E-03     107.710E+06     2.87702E+06    -17.0547E+06    -1.04593E+06     107.118E+06    -12.5401E+06    -5.43051E+06         45.6924
            1854     16.1258E-03     105.518E-03         3.71523    -731.269E-03        -2.14142    -699.305E-03         3.68327        -2.14142    -576.632E-03     114.951E-03    -52.9183E-03    -62.0323E-03    -55.1138E-03     108.152E-03    -53.0382E-03     59.3575E-03     159.016E+06     49.7459E+06    -5.07396E+06    -2.03996E+06     158.935E+06     46.7927E+06    -2.69352E+06         48.7290
            1855     953.677E-06     106.203E-03         9.53162        -3.65948        -5.00684        -3.24987         7.77465        -3.65948         4.39481     96.4005E-03    -47.9948E-03    -48.4057E-03    -48.2728E-03     96.3356E-03    -48.0628E-03     5.86471E-03     52.4612E+06     46.4014E+06    -46.0750E+06     49.4173E+06    -44.2733E+06     47.6435E+06    -11.5084E+06         27.4370
            1856     1.90577E-03     106.204E-03         8.08101        -3.43724        -3.74294        -3.36688         7.70495        -3.43724    -196.262E-03     96.3574E-03    -48.1159E-03    -48.2416E-03    -48.0324E-03     96.1619E-03    -48.1295E-03     10.1431E-03     54.7639E+06     46.2716E+06    -43.5202E+06     49.6469E+06    -39.0307E+06     46.8991E+06    -20.0217E+06         27.4914
            1857     2.85897E-03     106.206E-03         7.70813        -3.30629        -3.48315        -3.21023         7.51876        -3.38984         1.41068     96.0112E-03    -47.9214E-03    -48.0897E-03    -47.5439E-03     95.5763E-03    -48.0324E-03     15.3669E-03     55.0587E+06     45.5091E+06    -52.2661E+06     48.0088E+06    -45.2162E+06     45.5091E+06    -26.4403E+06         27.5857
            1858     3.81306E-03     106.209E-03         7.31012        -3.08256        -3.32617        -3.05477         7.28233        -3.32617    -60.3451E-03     95.7709E-03    -47.7660E-03    -48.0049E-03    -47.0907E-03     94.9540E-03    -47.8633E-03     21.0680E-03     55.9040E+06      43.088E+06    -62.3084E+06     46.2626E+06    -52.6670E+06      43.088E+06    -32.2045E+06         27.7307
            1859     4.76676E-03     106.215E-03         7.02486        -2.91791        -3.25542        -2.88433         6.99129        -3.25542    -131.589E-03     95.5781E-03    -47.6533E-03    -47.9248E-03    -46.5753E-03     94.2289E-03    -47.6536E-03     27.1920E-03     54.6558E+06     38.2085E+06    -68.9463E+06     43.4573E+06    -57.7478E+06     38.2085E+06    -35.4425E+06         27.9419
            1860     5.72219E-03     106.222E-03         6.72830        -2.74054        -3.18015        -2.71715         6.70490        -3.18015    -848.982E-03     95.9715E-03    -47.4695E-03    -48.5019E-03    -46.4243E-03     93.8941E-03    -47.4698E-03     33.7624E-03     51.1654E+06     35.7001E+06    -75.2247E+06     40.3092E+06    -64.3685E+06     35.7001E+06    -35.3826E+06         28.2390
            1861     6.67604E-03     106.232E-03         6.44976        -2.55778        -3.10130        -2.52892         6.42089        -3.10130    -893.231E-03     97.1144E-03    -47.3602E-03    -49.7542E-03    -46.7376E-03     94.0978E-03    -47.3602E-03     41.0148E-03     47.3571E+06     35.7622E+06    -77.4792E+06     37.3636E+06    -67.4857E+06     35.7622E+06    -33.8737E+06         28.6456
            1862     7.63073E-03     106.244E-03         6.18189        -2.36527        -3.01811        -2.32725         6.14387        -3.01811        -1.11805     98.5687E-03    -47.3287E-03    -51.2401E-03    -47.1485E-03     94.4771E-03    -47.3287E-03     48.1718E-03     42.7961E+06     36.7692E+06    -74.9646E+06     34.1059E+06    -66.2745E+06     36.7692E+06    -30.7452E+06         29.1933
            1863     8.58377E-03     106.261E-03         5.89268        -2.15282        -2.93047        -2.10959         5.84945        -2.93047        -1.13818     100.449E-03    -47.3581E-03    -53.0910E-03    -47.9115E-03     95.2695E-03    -47.3581E-03     54.8205E-03     37.7664E+06     32.0845E+06    -72.6843E+06     29.1532E+06    -65.8906E+06     33.9039E+06    -26.1845E+06         29.9312
            1864     9.53769E-03     106.280E-03         5.58337        -1.94080        -2.83898        -1.89151         5.53408        -2.83898        -1.20408     103.278E-03    -47.4988E-03    -55.7795E-03    -49.2839E-03     96.7827E-03    -47.4988E-03     62.4244E-03     36.4203E+06     23.7543E+06    -67.1290E+06     21.5507E+06    -61.8746E+06     33.3695E+06    -21.4404E+06         30.9275
            1865     10.4889E-03     106.307E-03         5.24952        -1.72045        -2.74472        -1.66985         5.19892        -2.74472        -1.16532     107.308E-03    -47.7612E-03    -59.5467E-03    -51.8019E-03     99.5631E-03    -47.7612E-03     69.7635E-03     30.3097E+06     15.1759E+06    -63.2805E+06     13.5343E+06    -58.4836E+06     27.1544E+06    -19.0262E+06         32.2738
            1866     11.4368E-03     106.339E-03         4.93587        -1.52163        -2.64894        -1.46460         4.87884        -2.64894        -1.20594     111.124E-03    -48.1841E-03    -62.9399E-03    -54.4880E-03     102.672E-03    -48.1841E-03     74.5111E-03     24.3421E+06     7.68190E+06    -51.2395E+06     4.89825E+06    -45.3006E+06     21.1868E+06    -17.6817E+06         34.0941
            1867     12.3852E-03     106.374E-03         4.63564        -1.32360        -2.55295        -1.26434         4.57637        -2.55295        -1.17464     116.247E-03    -48.7530E-03    -67.4940E-03    -57.6563E-03     106.409E-03    -48.7530E-03     82.4955E-03     13.4121E+06    -807.603E+03    -52.5382E+06    -2.24238E+06    -47.0217E+06     9.33040E+06    -16.2044E+06         36.4856
            1868     13.3264E-03     106.424E-03         4.37448        -1.15860        -2.45777        -1.07962         4.29550        -2.45777        -1.30850     122.463E-03    -49.3926E-03    -73.0708E-03    -61.0873E-03     110.480E-03    -49.3926E-03     93.6597E-03    -301.811E+03    -14.2828E+06    -46.8164E+06    -6.73884E+06    -41.1952E+06    -13.4670E+06    -13.5189E+06         39.3685
            1869     14.2682E-03     106.493E-03         4.10313    -992.394E-03        -2.36416    -911.794E-03         4.02253        -2.36416        -1.27056     125.241E-03    -50.1325E-03    -75.1086E-03    -62.3983E-03     112.531E-03    -50.1325E-03     97.6531E-03     25.8744E+06    -12.7077E+06    -21.7544E+06    -9.44989E+06     15.3912E+06    -14.5290E+06    -10.4627E+06         42.5141
            1870     15.2090E-03     106.558E-03         3.82018    -829.519E-03        -2.27248    -761.338E-03         3.75200        -2.27248        -1.11686     126.467E-03    -50.8989E-03    -75.5679E-03    -62.4820E-03     113.381E-03    -50.8989E-03     99.4052E-03     103.741E+06     7.27562E+06    -11.8672E+06    -9.26527E+06     102.960E+06     5.45433E+06    -6.02241E+06         45.7877
            1871     16.1475E-03     106.640E-03         3.50918    -644.668E-03        -2.18217    -612.149E-03         3.47666        -2.18217    -610.509E-03     120.683E-03    -51.7944E-03    -68.8887E-03    -61.7861E-03     113.580E-03    -51.7944E-03     59.6872E-03     157.340E+06     56.2394E+06    -5.50484E+06    -5.43744E+06     157.272E+06     56.2394E+06    -2.65002E+06         49.0424
            1872     956.843E-06     107.300E-03         9.53309        -3.76259        -4.95692        -3.25755         7.83372        -3.76259         4.32555     86.8284E-03    -43.2551E-03    -43.5733E-03    -43.4472E-03     86.7154E-03    -43.2682E-03     7.24261E-03     59.3659E+06     52.6585E+06    -21.5395E+06     56.5187E+06    -19.3069E+06     53.2731E+06    -11.9580E+06         26.6497
            1873     1.91521E-03     107.300E-03         8.07130        -3.48599        -3.74959        -3.38933         7.71104        -3.48599    -224.381E-03     86.5886E-03    -43.2363E-03    -43.3523E-03    -43.0111E-03     86.2669E-03    -43.2558E-03     12.3837E-03     57.3062E+06     45.6220E+06    -24.6631E+06     52.1290E+06    -19.4860E+06     45.6220E+06    -19.7622E+06         26.6987
            1874     2.87340E-03     107.302E-03         7.72463        -3.35081        -3.52168        -3.25927         7.54431        -3.43289         1.31140     86.4831E-03    -43.1044E-03    -43.3787E-03    -42.6360E-03     85.7468E-03    -43.1108E-03     18.9450E-03     56.6673E+06     41.0311E+06    -36.8758E+06     48.8044E+06    -29.0128E+06     41.0311E+06    -25.8568E+06         26.7861
            1875     3.83122E-03     107.304E-03         7.33125        -3.13450        -3.37114        -3.10852         7.30528        -3.37114    -184.069E-03     86.4015E-03    -42.9235E-03    -43.4780E-03    -42.1128E-03     85.0363E-03    -42.9235E-03     25.9499E-03     54.6884E+06     34.6150E+06    -48.4087E+06     44.5643E+06    -38.2846E+06     34.6150E+06    -30.6558E+06         26.9246
            1876     4.79076E-03     107.308E-03         7.06242        -2.98051        -3.30277        -2.94699         7.02890        -3.30277    -275.347E-03     86.5319E-03    -42.7056E-03    -43.8263E-03    -41.5802E-03     84.2858E-03    -42.7056E-03     33.3153E-03     49.2523E+06     26.7847E+06    -60.8128E+06     38.8150E+06    -50.3755E+06     26.7847E+06    -32.1894E+06         27.1323
            1877     5.74955E-03     107.315E-03         6.78170        -2.81156        -3.23007        -2.78308         6.75323        -3.23007    -961.295E-03     87.3993E-03    -42.5090E-03    -44.8904E-03    -41.4347E-03     83.9437E-03    -42.5090E-03     41.5483E-03     40.2982E+06     20.3573E+06    -69.4540E+06     31.3304E+06    -60.4863E+06     20.3573E+06    -30.0206E+06         27.4327
            1878     6.70972E-03     107.326E-03         6.50323        -2.62424        -3.15300        -2.59190         6.47089        -3.15300    -977.271E-03     89.0892E-03    -42.4063E-03    -46.6829E-03    -41.7957E-03     84.2019E-03    -42.4063E-03     49.9856E-03     28.7613E+06     18.1022E+06    -74.4623E+06     21.5026E+06    -67.2036E+06     18.1022E+06    -26.1779E+06         27.8541
            1879     7.66793E-03     107.339E-03         6.21793        -2.41955        -3.07011        -2.37792         6.17630        -3.07011        -1.17847     91.5914E-03    -42.4230E-03    -49.1684E-03    -42.7267E-03     85.1497E-03    -42.4230E-03     58.2935E-03     20.6050E+06     12.9411E+06    -72.1453E+06     9.65619E+06    -66.4150E+06     18.1596E+06    -21.4821E+06         28.4349
            1880     8.62649E-03     107.357E-03         5.91015        -2.19960        -2.98148        -2.15253         5.86308        -2.98148        -1.19541     94.9994E-03    -42.6004E-03    -52.3989E-03    -44.5076E-03     87.1080E-03    -42.6004E-03     65.9611E-03     19.1172E+06     3.07122E+06    -72.7665E+06    -660.859E+03    -68.8268E+06     18.9095E+06    -16.5360E+06         29.2279
            1881     9.58143E-03     107.378E-03         5.58216        -1.98154        -2.88841        -1.92694         5.52756        -2.88841        -1.27364     99.8409E-03    -42.9702E-03    -56.8707E-03    -47.3706E-03     90.3408E-03    -42.9702E-03     74.4207E-03     21.8530E+06    -4.59622E+06    -66.2107E+06    -7.54106E+06    -63.2659E+06     21.8530E+06    -12.5652E+06         30.3001
            1882     10.5342E-03     107.410E-03         5.22934        -1.75221        -2.79203        -1.69585         5.17298        -2.79203        -1.23429     105.546E-03    -43.5434E-03    -62.0030E-03    -51.1026E-03     94.6460E-03    -43.5434E-03     82.4171E-03     20.4919E+06    -9.86218E+06    -61.8098E+06    -12.2695E+06    -59.4025E+06     20.4919E+06    -10.0490E+06         31.7399
            1883     11.4840E-03     107.446E-03         4.89662        -1.53775        -2.69354        -1.47711         4.83598        -2.69354        -1.24052     110.956E-03    -44.3446E-03    -66.6110E-03    -55.5230E-03     99.8676E-03    -44.3446E-03     85.7893E-03     20.6793E+06    -9.25017E+06    -50.3764E+06    -15.6571E+06    -43.9695E+06     20.6793E+06    -8.78589E+06         33.6710
            1884     12.4278E-03     107.485E-03         4.57430        -1.32499        -2.59415        -1.26136         4.51068        -2.59415        -1.20806     118.256E-03    -45.3525E-03    -72.9032E-03    -60.6629E-03     106.015E-03    -45.3525E-03     93.4748E-03     11.2909E+06    -11.2368E+06    -50.4596E+06    -18.4592E+06    -43.2372E+06     11.2909E+06    -10.6972E+06         36.1931
            1885     13.3681E-03     107.547E-03         4.27957        -1.14110        -2.49474        -1.05964         4.19811        -2.49474        -1.31735     125.369E-03    -46.4819E-03    -78.8872E-03    -65.0649E-03     111.547E-03    -46.4819E-03     102.582E-03    -6.29263E+06    -16.6516E+06    -50.2287E+06    -19.7910E+06    -43.8533E+06    -9.52867E+06    -11.4553E+06         39.2361
            1886     14.3043E-03     107.612E-03         3.97298    -958.717E-03        -2.39614    -874.155E-03         3.88841        -2.39614        -1.27971     129.199E-03    -47.7429E-03    -81.4559E-03    -68.1953E-03     115.938E-03    -47.7429E-03     102.238E-03     24.8776E+06    -5.07348E+06    -25.6310E+06    -19.2680E+06     18.5145E+06    -5.07348E+06    -10.8783E+06         42.5846
            1887     15.2392E-03     107.686E-03         3.64822    -777.296E-03        -2.29893    -705.307E-03         3.57623        -2.29893        -1.11757     131.585E-03    -49.0942E-03    -82.4909E-03    -70.0423E-03     119.136E-03    -49.0942E-03     100.089E-03     102.448E+06     19.0816E+06    -16.4502E+06    -15.2386E+06     101.236E+06     19.0816E+06    -10.5011E+06         46.1181
            1888     16.1711E-03     107.768E-03         3.28150    -560.924E-03        -2.20282    -528.120E-03         3.24870        -2.20282    -631.470E-03     128.604E-03    -50.6131E-03    -77.9910E-03    -71.7024E-03     122.316E-03    -50.6131E-03     56.0863E-03     150.312E+06     70.0777E+06    -7.69209E+06    -7.29877E+06     149.919E+06     70.0777E+06    -6.29531E+06         49.6484
            1889     963.863E-06     108.384E-03         9.12222        -3.76828        -4.57729        -3.24468         7.78961        -3.76828         3.81064     74.5750E-03    -37.2085E-03    -37.3665E-03    -37.0828E-03     74.4030E-03    -37.3202E-03     8.27525E-03     60.2048E+06     54.8505E+06     820.913E+03     57.5047E+06     3.52096E+06     54.8505E+06    -11.0161E+06         25.6904
            1890     1.92699E-03     108.384E-03         7.89514        -3.47636        -3.62990        -3.35613         7.62137        -3.47636    -127.599E-03     74.4104E-03    -37.0846E-03    -37.3258E-03    -36.8138E-03     73.9115E-03    -37.0977E-03     14.3350E-03     58.3586E+06     45.7914E+06    -5.78757E+06     52.4225E+06     148.566E+03     45.7914E+06    -18.2595E+06         25.7390
            1891     2.89084E-03     108.385E-03         7.60269        -3.33238        -3.48469        -3.25551         7.46014        -3.41901         1.12568     74.3918E-03    -36.8990E-03    -37.4928E-03    -36.3607E-03     73.2598E-03    -36.8990E-03     21.7765E-03     53.1797E+06     31.4759E+06    -23.0393E+06     45.0105E+06    -14.8701E+06     31.4759E+06    -23.4756E+06         25.8298
            1892     3.85576E-03     108.387E-03         7.25266        -3.13860        -3.36137        -3.11901         7.23307        -3.36137    -246.806E-03     74.5808E-03    -36.6653E-03    -37.9155E-03    -35.8187E-03     72.4840E-03    -36.6653E-03     29.8449E-03     42.8486E+06     15.9930E+06    -37.6741E+06     34.3915E+06    -29.2169E+06     15.9930E+06    -24.5774E+06         25.9791
            1893     4.82018E-03     108.390E-03         7.02350        -3.01046        -3.29916        -2.98161         6.99465        -3.29916    -376.719E-03     75.5936E-03    -36.4712E-03    -39.1224E-03    -35.6720E-03     72.1432E-03    -36.4712E-03     38.5661E-03     25.3837E+06     2.27908E+06    -53.4073E+06     18.5703E+06    -46.5939E+06     2.27908E+06    -22.0346E+06         26.2082
            1894     5.78569E-03     108.397E-03         6.75461        -2.83776        -3.23198        -2.80916         6.72600        -3.23198    -980.106E-03     77.3939E-03    -36.3716E-03    -41.0222E-03    -35.8902E-03     72.2619E-03    -36.3716E-03     47.7031E-03     5.53024E+06    -7.71056E+06    -65.9002E+06     762.943E+03    -61.2873E+06    -7.55615E+06    -17.1422E+06         26.5421
            1895     6.74970E-03     108.407E-03         6.47150        -2.63928        -3.15730        -2.60808         6.44030        -3.15730    -979.798E-03     80.0587E-03    -36.4053E-03    -43.6533E-03    -36.6008E-03     73.0061E-03    -36.4053E-03     56.9078E-03    -5.38713E+06    -16.1433E+06    -72.6757E+06    -15.1184E+06    -69.9441E+06     -9.1436E+06    -12.0945E+06         27.0134
            1896     7.71413E-03     108.423E-03         6.18465        -2.43587        -3.07543        -2.39617         6.14494        -3.07543        -1.15289     84.0143E-03    -36.6194E-03    -47.3949E-03    -38.4117E-03     75.0311E-03    -36.6194E-03     65.9866E-03     -2.8539E+06    -25.8247E+06    -71.6300E+06    -27.6395E+06    -69.7262E+06    -2.94284E+06    -7.24824E+06         27.6660
            1897     8.67476E-03     108.443E-03         5.86683        -2.22092        -2.98777        -2.17436         5.82027        -2.98777        -1.18841     89.4441E-03    -37.0817E-03    -52.3624E-03    -41.7013E-03     78.7830E-03    -37.0817E-03     74.5387E-03     5.23589E+06    -34.9892E+06    -71.3817E+06    -36.3060E+06    -70.0648E+06     5.23589E+06    -4.84674E+06         28.5545
            1898     9.63294E-03     108.471E-03         5.52765        -2.00311        -2.89549        -1.94866         5.47321        -2.89549        -1.27029     96.3297E-03    -37.8088E-03    -58.5208E-03    -46.1614E-03     83.9702E-03    -37.8088E-03     83.7687E-03     12.1428E+06    -37.2000E+06    -63.4646E+06    -39.4323E+06    -61.2324E+06     12.1428E+06    -5.98126E+06         29.7416
            1899     10.5860E-03     108.507E-03         5.17465        -1.77649        -2.79972        -1.72043         5.11859        -2.79972        -1.23018     104.023E-03    -38.8230E-03    -65.1998E-03    -51.6714E-03     90.4945E-03    -38.8230E-03     91.7024E-03     14.4997E+06    -35.0238E+06    -63.7032E+06    -37.4515E+06    -61.2755E+06     14.4997E+06    -6.41990E+06         31.3108
            1900     11.5335E-03     108.551E-03         4.82686        -1.54930        -2.70137        -1.49130         4.76886        -2.70137        -1.20650     111.852E-03    -40.1359E-03    -71.7158E-03    -58.3155E-03     98.4514E-03    -40.1359E-03     95.3822E-03     19.2839E+06    -20.1587E+06    -52.9851E+06    -32.3342E+06    -40.8096E+06     19.2839E+06    -6.43771E+06         33.3824
            1901     12.4742E-03     108.601E-03         4.48435        -1.32219        -2.60100        -1.26024         4.42240        -2.60100        -1.17873     120.397E-03    -41.7129E-03    -78.6837E-03    -64.6834E-03     106.396E-03    -41.7129E-03     101.765E-03     14.9427E+06    -14.7571E+06    -51.3245E+06    -27.9618E+06    -38.1198E+06     14.9427E+06    -9.40498E+06         36.0590
            1902     13.4107E-03     108.666E-03         4.16253        -1.12437        -2.49951        -1.04692         4.08508        -2.49951        -1.26973     129.264E-03    -43.4272E-03    -85.8364E-03    -70.8938E-03     114.321E-03    -43.4272E-03     109.355E-03    -1.96045E+06    -19.9200E+06    -53.0395E+06    -24.5334E+06    -45.0928E+06    -5.29367E+06    -12.2552E+06         39.2826
            1903     14.3415E-03     108.743E-03         3.82098    -928.147E-03        -2.39805    -844.894E-03         3.73773        -2.39805        -1.24333     135.313E-03    -45.3531E-03    -89.9601E-03    -76.5517E-03     121.905E-03    -45.3531E-03     106.341E-03     33.4793E+06     6.45498E+06    -27.5937E+06    -20.3324E+06     26.2180E+06     6.45498E+06    -13.4620E+06         42.8488
            1904     15.2636E-03     108.820E-03         3.44837    -718.708E-03        -2.29698    -648.225E-03         3.37789        -2.29698        -1.06898     138.843E-03    -47.4260E-03    -91.4169E-03    -79.7313E-03     127.157E-03    -47.4260E-03     101.027E-03     105.160E+06     34.2367E+06    -16.8760E+06    -14.8860E+06     103.170E+06     34.2367E+06    -15.1728E+06         46.6513
            1905     16.1878E-03     108.904E-03         3.03358    -470.857E-03        -2.19632    -440.650E-03         3.00337        -2.19632    -608.609E-03     139.286E-03    -49.6753E-03    -89.6102E-03    -83.7959E-03     133.471E-03    -49.6753E-03     56.5066E-03     139.833E+06     81.8847E+06    -8.92140E+06    -7.94839E+06     138.860E+06     81.8847E+06    -10.3018E+06         50.4952
            1906     969.914E-06     109.454E-03         8.49039        -3.68769        -4.05034        -3.18498         7.62503        -3.68769         3.04621     60.2456E-03    -29.9171E-03    -30.3285E-03    -29.9993E-03     60.0150E-03    -30.0157E-03     8.43055E-03     52.1072E+06     44.8804E+06     19.3881E+06     48.0289E+06     23.3687E+06     44.9781E+06    -8.65215E+06         24.6148
            1907     1.94121E-03     109.454E-03         7.61462        -3.40814        -3.46291        -3.29510         7.44681        -3.40814     20.0505E-03     60.1539E-03    -29.8736E-03    -30.2803E-03    -29.5566E-03     59.4302E-03    -29.8736E-03     15.4630E-03     45.1031E+06     28.7439E+06     8.01994E+06     38.1517E+06     14.9850E+06     28.7303E+06    -13.6584E+06         24.6729
            1908     2.91201E-03     109.454E-03         7.37523        -3.26089        -3.38447        -3.19705         7.28068        -3.35376     911.530E-03     60.4424E-03    -29.6613E-03    -30.7811E-03    -29.1949E-03     58.8561E-03    -29.6613E-03     23.2905E-03     29.5174E+06     7.38223E+06    -13.7016E+06     23.2202E+06    -6.76685E+06     6.74462E+06    -14.7336E+06         24.7831
            1909     3.88347E-03     109.454E-03         7.06850        -3.07462        -3.29813        -3.06308         7.05696        -3.29813    -244.917E-03     61.3653E-03    -29.4716E-03    -31.8937E-03    -28.9898E-03     58.4614E-03    -29.4716E-03     31.8598E-03     7.68775E+06    -16.2285E+06    -33.7681E+06     3.73474E+06    -29.0640E+06    -16.9796E+06    -10.5377E+06         24.9653
            1910     4.85546E-03     109.458E-03         6.85974        -2.95849        -3.23829        -2.93726         6.83851        -3.23829    -414.580E-03     63.4889E-03    -29.4159E-03    -34.0730E-03    -29.3765E-03     58.7924E-03    -29.4159E-03     41.3047E-03    -14.8845E+06    -31.7308E+06    -54.4368E+06    -18.9646E+06    -50.2433E+06    -31.8443E+06    -2.86336E+06         25.2430
            1911     5.82536E-03     109.465E-03         6.61737        -2.79665        -3.17410        -2.77269         6.59341        -3.17410    -901.241E-03     66.6997E-03    -29.5508E-03    -37.1488E-03    -30.3514E-03     59.9022E-03    -29.5508E-03     50.9936E-03    -29.9787E+06    -39.9405E+06    -71.2362E+06    -40.4593E+06    -65.2974E+06    -35.3988E+06     2.40344E+06         25.6431
            1912     6.79543E-03     109.477E-03         6.35395        -2.61118        -3.10276        -2.58536         6.32812        -3.10276    -899.365E-03     71.0285E-03    -29.8867E-03    -41.1418E-03    -32.0733E-03     61.9600E-03    -29.8867E-03     60.8795E-03    -28.8345E+06    -49.0754E+06    -78.2475E+06    -55.8112E+06    -71.5117E+06    -28.8345E+06     4.46052E+06         26.1997
            1913     7.76236E-03     109.496E-03         6.07008        -2.41908        -3.02470        -2.38591         6.03690        -3.02470        -1.04961     76.8344E-03    -30.4567E-03    -46.3776E-03    -35.0941E-03     65.5508E-03    -30.4567E-03     70.8978E-03    -15.6543E+06    -56.2376E+06    -78.1123E+06    -62.4431E+06    -71.9068E+06    -15.6543E+06     3.96875E+06         26.9567
            1914     8.72693E-03     109.522E-03         5.75833        -2.21808        -2.94100        -2.17700         5.71725        -2.94100        -1.11137     84.2218E-03    -31.3112E-03    -52.9106E-03    -39.7636E-03     71.0748E-03    -31.3112E-03     80.6186E-03    -1.24690E+06    -57.7600E+06    -70.1039E+06    -60.4924E+06    -67.3716E+06    -1.24690E+06     824.460E+03         27.9670
            1915     9.68504E-03     109.556E-03         5.42211        -2.00904        -2.85265        -1.96134         5.37442        -2.85265        -1.18089     93.2172E-03    -32.4892E-03    -60.7280E-03    -45.9342E-03     78.4234E-03    -32.4892E-03     90.6545E-03     9.97839E+06    -50.8594E+06    -60.7499E+06    -54.9718E+06    -56.6375E+06     9.97839E+06    -3.18897E+06         29.2905
            1916     10.6380E-03     109.601E-03         5.06930        -1.78314        -2.76025        -1.73526         5.02142        -2.76025        -1.12974     103.379E-03    -34.0311E-03    -69.3478E-03    -53.5400E-03     87.5711E-03    -34.0311E-03     99.5240E-03     14.9697E+06    -40.7408E+06    -64.6573E+06    -47.7240E+06    -57.6741E+06     14.9697E+06    -8.78927E+06         31.0052
            1917     11.5831E-03     109.656E-03         4.71787        -1.55118        -2.66435        -1.50314         4.66983        -2.66435        -1.08711     113.028E-03    -35.9086E-03    -77.1196E-03    -61.6528E-03     97.5614E-03    -35.9086E-03     103.839E-03     19.6449E+06    -21.4634E+06    -54.6424E+06    -38.1767E+06    -37.9290E+06     19.6449E+06    -11.1691E+06         33.2282
            1918     12.5209E-03     109.716E-03         4.36315        -1.31698        -2.56538        -1.26471         4.31088        -2.56538        -1.06791     123.358E-03    -38.1041E-03    -85.2535E-03    -69.8967E-03     108.001E-03    -38.1041E-03     108.935E-03     19.5965E+06    -12.0100E+06    -51.6753E+06    -28.5871E+06    -35.0982E+06     19.5965E+06    -12.5644E+06         36.0693
            1919     13.4517E-03     109.789E-03         4.01433        -1.10622        -2.46408        -1.04074         3.94886        -2.46408        -1.14881     134.816E-03    -40.4761E-03    -94.3402E-03    -78.3336E-03     118.810E-03    -40.4761E-03     116.806E-03     7.47632E+06    -15.6767E+06    -51.1071E+06    -21.1229E+06    -39.5078E+06     1.32320E+06    -16.3605E+06         39.4777
            1920     14.3721E-03     109.883E-03         3.64407    -897.393E-03        -2.36167    -822.317E-03         3.56900        -2.36167        -1.15102     141.878E-03    -43.0887E-03    -98.7897E-03    -84.8778E-03     127.966E-03    -43.0887E-03     111.842E-03     42.3825E+06     15.9148E+06    -25.2463E+06    -14.2017E+06     31.3378E+06     15.9148E+06    -18.6722E+06         43.2516
            1921     15.2917E-03     109.959E-03         3.23175    -662.241E-03        -2.25847    -598.174E-03         3.16768        -2.25847    -982.092E-03     148.732E-03    -45.8986E-03    -102.833E-03    -91.1309E-03     137.030E-03    -45.8986E-03     105.930E-03     105.177E+06     46.0387E+06    -10.2258E+06    -7.18350E+06     102.135E+06     46.0387E+06    -17.5083E+06         47.2952
            1922     16.2000E-03     110.060E-03         2.78077    -388.059E-03        -2.15506    -360.957E-03         2.75367        -2.15506    -566.329E-03     152.038E-03    -48.9204E-03    -103.118E-03    -97.1308E-03     146.051E-03    -48.9204E-03     60.3389E-03     129.224E+06     88.3800E+06    -3.98099E+06    -2.98869E+06     128.232E+06     88.3800E+06    -9.86363E+06         51.4223
            1923     978.217E-06     110.508E-03         7.81531        -3.50125        -3.59515        -3.09552         7.33312        -3.51869         2.30431     44.7691E-03    -22.1401E-03    -22.6290E-03    -22.3363E-03     44.4764E-03    -22.1401E-03     8.12208E-03     39.6426E+06     22.6332E+06     16.5365E+06      23.511E+06     33.8459E+06     21.4553E+06    -2.63592E+06         23.5132
            1924     1.95612E-03     110.507E-03         7.24742        -3.25526        -3.28769        -3.17399         7.15916        -3.28069     185.218E-03     45.0051E-03    -22.1338E-03    -22.8713E-03    -21.9514E-03     44.0852E-03    -22.1338E-03     15.1333E-03     27.3441E+06     2.76941E+06    -578.802E+03     9.67946E+06     19.6298E+06     225.532E+03    -2.05911E+06         23.5923
            1925     2.93507E-03     110.507E-03         7.04960        -3.12499        -3.23379        -3.07426         6.99347        -3.22839     757.714E-03     46.0225E-03    -22.0392E-03    -23.9834E-03    -21.9978E-03     44.0370E-03    -22.0392E-03     22.7943E-03     3.23999E+06    -22.6703E+06    -26.3873E+06    -12.5891E+06    -8.66602E+06    -24.5625E+06     2.19979E+06         23.7383
            1926     3.91309E-03     110.507E-03         6.77678        -2.94443        -3.17329        -2.93968         6.77204        -3.17329    -167.083E-03     48.2174E-03    -22.0832E-03    -26.1342E-03    -22.5513E-03     44.6345E-03    -22.0832E-03     31.4271E-03    -21.7223E+06    -45.8771E+06    -56.0433E+06    -38.1942E+06    -38.8203E+06    -46.6282E+06     10.9513E+06         23.9726
            1927     4.89002E-03     110.512E-03         6.57674        -2.82534        -3.11321        -2.81160         6.56299        -3.11321    -381.948E-03     51.5293E-03    -22.3159E-03    -29.2133E-03    -23.5091E-03     45.8250E-03    -22.3159E-03     41.0432E-03    -37.9889E+06    -55.0394E+06    -81.0943E+06    -59.4202E+06    -59.5495E+06    -55.1529E+06     18.8188E+06         24.3187
            1928     5.86692E-03     110.521E-03         6.36732        -2.69237        -3.05041        -2.67514         6.35009        -3.05041    -759.193E-03     56.2316E-03    -22.7655E-03    -33.4661E-03    -25.3335E-03     48.0990E-03    -22.7655E-03     51.2748E-03    -42.4855E+06    -54.8367E+06    -91.5148E+06    -72.5706E+06    -68.2096E+06    -48.0568E+06     19.8147E+06         24.8052
            1929     6.84000E-03     110.536E-03         6.13811        -2.54048        -2.98399        -2.52146         6.11909        -2.98399    -770.381E-03     62.5432E-03    -23.4679E-03    -39.0753E-03    -28.4015E-03     51.8694E-03    -23.4679E-03     62.1563E-03    -32.9554E+06    -57.1752E+06    -90.6037E+06    -77.3108E+06    -70.4681E+06    -32.9554E+06     16.0472E+06         25.4665
            1930     7.81063E-03     110.559E-03         5.87046        -2.36750        -2.91246        -2.34275         5.84570        -2.91246    -895.761E-03     70.3705E-03    -24.4473E-03    -45.9232E-03    -32.7546E-03     57.2020E-03    -24.4473E-03     73.5949E-03    -16.2112E+06    -60.1032E+06    -81.3117E+06    -74.6765E+06    -66.7384E+06    -16.2112E+06     9.21557E+06         26.3433
            1931     8.77572E-03     110.592E-03         5.57540        -2.18660        -2.83546        -2.15520         5.54400        -2.83546    -961.623E-03     79.6353E-03    -25.7374E-03    -53.8980E-03    -38.6332E-03     64.3706E-03    -25.7374E-03     84.8979E-03    -1.91661E+06    -57.9780E+06    -70.8108E+06    -68.2456E+06    -60.5432E+06    -1.91661E+06     353.803E+03         27.4841
            1932     9.73611E-03     110.635E-03         5.25684        -1.99279        -2.75358        -1.95656         5.22061        -2.75358        -1.01611     90.7081E-03    -27.3879E-03    -63.3202E-03    -46.2522E-03     73.6401E-03    -27.3879E-03     96.6292E-03     10.1933E+06    -47.4158E+06    -62.3156E+06    -59.0137E+06    -50.7176E+06     10.1933E+06    -5.86261E+06         28.9461
            1933     10.6874E-03     110.692E-03         4.91391        -1.77220        -2.66680        -1.73729         4.87900        -2.66680    -955.167E-03     103.110E-03    -29.4380E-03    -73.6725E-03    -55.3503E-03     84.7883E-03    -29.4380E-03     107.660E-03     18.1555E+06    -33.2328E+06    -62.6610E+06    -49.1073E+06    -46.7865E+06     18.1555E+06    -13.1941E+06         30.8037
            1934     11.6301E-03     110.760E-03         4.56166        -1.53877        -2.57527        -1.50469         4.52757        -2.57527    -903.189E-03     114.832E-03    -31.8564E-03    -82.9760E-03    -65.2222E-03     97.0787E-03    -31.8564E-03     112.858E-03     19.7588E+06    -18.1394E+06    -58.0976E+06    -39.6653E+06    -36.5716E+06     19.7588E+06    -18.3627E+06         33.1756
            1935     12.5648E-03     110.830E-03         4.20010        -1.30494        -2.47952        -1.26738         4.16254        -2.47952    -890.779E-03     127.728E-03    -34.6643E-03    -93.0638E-03    -75.7069E-03     110.371E-03    -34.6643E-03     118.786E-03     22.1400E+06    -9.99405E+06    -52.4536E+06    -29.4924E+06    -32.9553E+06     22.1400E+06    -18.8802E+06         36.1785
            1936     13.4874E-03     110.922E-03         3.83384        -1.08713        -2.38025        -1.03844         3.78516        -2.38025    -969.511E-03     140.887E-03    -37.6831E-03    -103.204E-03    -85.4385E-03     123.122E-03    -37.6831E-03     126.750E-03     16.3903E+06    -9.62242E+06    -50.0147E+06    -20.5235E+06    -30.7254E+06     8.00204E+06    -22.8936E+06         39.7672
            1937     14.4060E-03     111.022E-03         3.44672    -869.426E-03        -2.27876    -808.944E-03         3.38624        -2.27876        -1.00506     149.952E-03    -40.9591E-03    -108.993E-03    -93.9744E-03     134.934E-03    -40.9591E-03     120.391E-03     49.3388E+06     20.6494E+06    -30.0177E+06    -13.7879E+06     33.1090E+06     20.6494E+06    -24.6448E+06         43.7304
            1938     15.3123E-03     111.115E-03         3.01739    -624.681E-03        -2.17561    -572.259E-03         2.96497        -2.17561    -858.856E-03     160.156E-03    -44.4871E-03    -115.669E-03    -103.089E-03     147.576E-03    -44.4871E-03     115.080E-03     99.7457E+06     45.3543E+06    -13.6270E+06    -10.0603E+06     96.1790E+06     45.3543E+06    -18.7332E+06         47.9677
            1939     16.2090E-03     111.233E-03         2.53919    -334.393E-03        -2.07220    -311.182E-03         2.51597        -2.07220    -506.639E-03     163.983E-03    -48.2416E-03    -115.741E-03    -109.272E-03     157.514E-03    -48.2416E-03     65.4970E-03     119.280E+06     81.8077E+06    -6.17018E+06    -5.29356E+06     115.374E+06     84.8364E+06    -8.63814E+06         52.3013
            1940     985.739E-06     111.546E-03         7.13509        -3.19528        -3.26008        -2.96025         6.89783        -3.25785         1.70720     29.7213E-03    -14.6126E-03    -15.1087E-03    -14.7869E-03     29.3995E-03    -14.6126E-03     7.04983E-03     31.1766E+06    -16.2497E+06    -19.8116E+06    -16.9702E+06     29.7257E+06    -17.6402E+06     7.12481E+06         22.4930
            1941     1.97134E-03     111.545E-03         6.78817        -3.02547        -3.08411        -2.98317         6.74587        -3.08411     345.566E-03     30.7501E-03    -14.7494E-03    -16.0007E-03    -15.0125E-03     29.7620E-03    -14.7494E-03     13.0222E-03     15.0272E+06    -33.0740E+06    -42.0016E+06    -33.4646E+06     9.02044E+06    -35.6042E+06     15.5252E+06         22.5999
            1942     2.95622E-03     111.544E-03         6.61790        -2.91380        -3.03352        -2.88135         6.58545        -3.03352     647.049E-03     32.7675E-03    -14.9420E-03    -17.8256E-03    -15.6207E-03     30.5626E-03    -14.9420E-03     20.2911E-03    -8.06207E+06    -53.3055E+06    -72.4144E+06    -56.2424E+06    -22.9795E+06    -54.5601E+06     26.3512E+06         22.7898
            1943     3.94034E-03     111.546E-03         6.38168        -2.75240        -2.97912        -2.75112         6.38040        -2.97912    -70.8948E-03     36.1344E-03    -15.3059E-03    -20.8285E-03    -16.8282E-03     32.1341E-03    -15.3059E-03     28.8221E-03    -29.1919E+06    -66.0806E+06    -101.849E+06    -77.6129E+06    -53.4282E+06    -66.0806E+06     34.0113E+06         23.0827
            1944     4.92305E-03     111.552E-03         6.20690        -2.65239        -2.92149        -2.64424         6.19875        -2.92149    -310.559E-03     40.8059E-03    -15.8655E-03    -24.9405E-03    -18.6202E-03     34.4857E-03    -15.8655E-03     38.5518E-03    -41.0200E+06    -64.1364E+06    -112.950E+06    -88.2229E+06    -65.7470E+06    -64.1364E+06     34.0151E+06         23.5014
            1945     5.90304E-03     111.564E-03         6.01871        -2.53923        -2.86326        -2.52813         6.00760        -2.86326    -599.295E-03     46.8911E-03    -16.6359E-03    -30.2552E-03    -21.2439E-03     37.8798E-03    -16.6359E-03     49.4192E-03    -42.9718E+06    -57.2142E+06    -107.688E+06    -88.3811E+06    -67.6610E+06    -51.8316E+06     27.7559E+06         24.0747
            1946     6.88111E-03     111.584E-03         5.81538        -2.41678        -2.80288        -2.40406         5.80265        -2.80288    -619.646E-03     54.7302E-03    -17.6639E-03    -37.0663E-03    -25.1667E-03     42.8306E-03    -17.6639E-03     61.5599E-03    -33.6961E+06    -52.6842E+06    -95.1007E+06    -82.8808E+06    -64.9041E+06    -33.6961E+06     18.7786E+06         24.8371
            1947     7.85359E-03     111.614E-03         5.58230        -2.27681        -2.73894        -2.26000         5.56549        -2.73894    -721.464E-03     64.4275E-03    -18.9933E-03    -45.4342E-03    -30.6256E-03     49.6189E-03    -18.9933E-03     74.9496E-03    -15.2956E+06    -52.1542E+06     -79.223E+06    -74.4052E+06    -56.9719E+06    -15.2956E+06     8.62505E+06         25.8281
            1948     8.82137E-03     111.655E-03         5.32097        -2.12462        -2.67042        -2.10313         5.29948        -2.67042    -782.980E-03     75.7445E-03    -20.6752E-03    -55.0693E-03    -37.7345E-03     58.4097E-03    -20.6752E-03     88.6216E-03     14.0212E+03    -47.8343E+06    -67.3777E+06    -65.0522E+06    -50.1597E+06     14.0212E+03    -1.39141E+06         27.0931
            1949     9.78069E-03     111.710E-03         5.03088        -1.94915        -2.59677        -1.92416         5.00589        -2.59677    -829.612E-03     88.6775E-03    -22.7356E-03    -65.9419E-03    -46.3631E-03     69.0987E-03    -22.7356E-03     102.749E-03     11.8789E+06    -35.6717E+06    -61.4251E+06    -54.8207E+06    -42.2761E+06     11.8789E+06    -10.4379E+06         28.6845
            1950     10.7332E-03     111.779E-03         4.70425        -1.73910        -2.51695        -1.71619         4.68135        -2.51695    -761.141E-03     102.947E-03    -25.2022E-03    -77.7448E-03    -56.6042E-03     81.8065E-03    -25.2022E-03     116.036E-03     20.4494E+06    -22.7585E+06    -58.9470E+06    -44.6068E+06    -37.0987E+06     20.4494E+06    -17.5701E+06         30.6743
            1951     11.6761E-03     111.861E-03         4.35070        -1.50756        -2.43078        -1.48593         4.32908        -2.43078    -705.089E-03     117.127E-03    -28.0914E-03    -89.0353E-03    -68.4676E-03     96.5590E-03    -28.0914E-03     123.295E-03     22.0908E+06    -12.4053E+06    -57.1303E+06    -37.1612E+06    -32.3744E+06     22.0908E+06    -22.1865E+06         33.1815
            1952     12.6048E-03     111.950E-03         3.98238        -1.27420        -2.33896        -1.25094         3.95912        -2.33896    -687.009E-03     131.806E-03    -31.4081E-03    -100.398E-03    -80.1876E-03     111.596E-03    -31.4081E-03     130.839E-03     25.2500E+06    -2.29262E+06    -55.0306E+06    -29.2447E+06    -28.0785E+06     25.2500E+06    -26.2869E+06         36.3332
            1953     13.5266E-03     112.056E-03         3.61088        -1.05637        -2.24233        -1.02441         3.57892        -2.24233    -760.288E-03     147.665E-03    -34.9810E-03    -112.684E-03    -92.1010E-03     127.082E-03    -34.9810E-03     140.354E-03     21.7265E+06     917.855E+03    -52.3556E+06    -20.2793E+06    -23.6489E+06     14.2169E+06    -30.2853E+06         40.0975
            1954     14.4346E-03     112.172E-03         3.22167    -838.571E-03        -2.14269    -796.928E-03         3.18002        -2.14269    -809.246E-03     160.502E-03    -38.9098E-03    -121.592E-03    -104.293E-03     143.202E-03    -38.9098E-03     134.539E-03     49.6374E+06     23.6436E+06    -34.6702E+06    -15.1036E+06     30.0708E+06     23.6436E+06    -26.3297E+06         44.2357
            1955     15.3315E-03     112.285E-03         2.79326    -593.917E-03        -2.04099    -558.780E-03         2.75812        -2.04099    -676.161E-03     171.545E-03    -43.1281E-03    -128.417E-03    -113.967E-03     157.095E-03    -43.1281E-03     128.425E-03     91.2948E+06     43.5424E+06    -15.9005E+06    -12.6917E+06     88.0860E+06     43.5424E+06    -17.8957E+06         48.6241
            1956     16.2220E-03     112.411E-03         2.29980    -294.975E-03        -1.93951    -278.461E-03         2.28329        -1.93951    -407.018E-03     175.634E-03    -47.5486E-03    -128.085E-03    -120.630E-03     168.178E-03    -47.5486E-03     74.8849E-03     111.387E+06     74.6527E+06    -8.26747E+06    -7.05537E+06     102.709E+06     82.1193E+06    -10.1870E+06         53.1413
            1957     991.941E-06     112.568E-03         6.44860        -2.83357        -2.95880        -2.73106         6.34609        -2.95880         1.22078     17.3241E-03    -8.39746E-03    -8.92668E-03    -8.63562E-03     17.0331E-03    -8.39746E-03     5.14240E-03     10.6231E+06    -69.5752E+06    -85.4841E+06    -78.0983E+06     3.35221E+06    -69.6901E+06     23.9680E+06         21.6515
            1958     1.98343E-03     112.568E-03         6.23781        -2.74936        -2.82173        -2.72845         6.21690        -2.82173     456.142E-03     18.9420E-03    -8.72193E-03    -10.2200E-03    -9.29396E-03     18.0159E-03    -8.72193E-03     9.92904E-03    -1.29787E+06    -79.8282E+06    -106.726E+06    -92.0741E+06    -15.9502E+06    -79.8282E+06     35.8081E+06         21.7826
            1959     2.97367E-03     112.569E-03         6.09905        -2.65293        -2.77456        -2.63350         6.07962        -2.77456     550.560E-03     21.8327E-03    -9.17493E-03    -12.6578E-03    -10.4772E-03     19.6521E-03    -9.17493E-03     16.5262E-03    -19.5106E+06    -82.7875E+06    -123.404E+06    -98.8019E+06    -44.1128E+06    -82.7875E+06     43.4137E+06         22.0093
            1960     3.96265E-03     112.572E-03         5.90217        -2.51539        -2.72375        -2.51520         5.90198        -2.72375    -11.3126E-03     26.0859E-03    -9.80068E-03    -16.2853E-03    -12.1843E-03     21.9850E-03    -9.80068E-03     24.8755E-03    -33.3091E+06    -76.0112E+06    -128.061E+06    -96.0459E+06    -65.3240E+06    -76.0112E+06     44.6392E+06         22.3500
            1961     4.94933E-03     112.582E-03         5.74951        -2.43689        -2.67121        -2.43214         5.74475        -2.67121    -250.764E-03     31.8018E-03    -10.5944E-03    -21.2073E-03    -14.6226E-03     25.2170E-03    -10.5944E-03     34.8327E-03    -38.2886E+06    -64.2871E+06    -119.955E+06     -91.264E+06    -66.9799E+06    -64.2871E+06     38.8597E+06         22.8272
            1962     5.93363E-03     112.598E-03         5.58364        -2.34613        -2.61961        -2.33919         5.57671        -2.61961    -459.844E-03     39.0493E-03    -11.6010E-03    -27.4482E-03    -17.9044E-03     29.5054E-03    -11.6010E-03     46.5325E-03    -39.5984E+06    -53.3884E+06    -106.139E+06    -86.2467E+06    -62.4808E+06    -50.3983E+06     29.4108E+06         23.4697
            1963     6.91372E-03     112.623E-03         5.40801        -2.25083        -2.56664        -2.24289         5.40006        -2.56664    -477.303E-03     47.9753E-03    -12.8608E-03    -35.1145E-03    -22.2550E-03     35.1158E-03    -12.8608E-03     60.0295E-03    -31.6616E+06    -46.0943E+06    -88.2448E+06    -78.5505E+06    -54.7439E+06    -32.7062E+06     16.9008E+06         24.3127
            1964     7.89041E-03     112.661E-03         5.21818        -2.14919        -2.51126        -2.13831         5.20730        -2.51126    -563.791E-03     59.0131E-03    -14.4166E-03    -44.5965E-03    -28.2560E-03     42.6726E-03    -14.4166E-03     75.4510E-03    -14.9870E+06    -44.6821E+06    -70.5034E+06    -68.7114E+06    -46.4742E+06    -14.9870E+06     4.53579E+06         25.3966
            1965     8.85945E-03     112.713E-03         5.00089        -2.02590        -2.45200        -2.01159         4.98659        -2.45200    -623.769E-03     71.9480E-03    -16.3323E-03    -55.6157E-03    -36.0257E-03     52.3580E-03    -16.3323E-03     91.8823E-03     1.03261E+06    -37.0302E+06    -60.0267E+06    -57.8082E+06    -39.2486E+06     1.03261E+06    -5.13596E+06         26.7668
            1966     9.82169E-03     112.779E-03         4.73452        -1.86430        -2.38655        -1.84741         4.71763        -2.38655    -664.223E-03     86.8853E-03    -18.6513E-03    -68.2340E-03    -45.6684E-03     64.3197E-03    -18.6513E-03     109.271E-03     13.7751E+06    -23.8596E+06    -56.3131E+06    -48.2331E+06    -31.9396E+06     13.7751E+06    -13.3008E+06         28.4735
            1967     10.7740E-03     112.862E-03         4.41974        -1.66478        -2.31300        -1.65087         4.40583        -2.31300    -575.757E-03     103.580E-03    -21.4289E-03    -82.1510E-03    -57.5662E-03     78.9951E-03    -21.4289E-03     125.715E-03     22.3397E+06    -12.3722E+06    -56.6356E+06    -40.7818E+06    -28.2260E+06     22.3397E+06    -20.8989E+06         30.5808
            1968     11.7145E-03     112.963E-03         4.07391        -1.44638        -2.23159        -1.43379         4.06131        -2.23159    -521.317E-03     119.259E-03    -24.6739E-03    -94.5847E-03    -70.3925E-03     95.0664E-03    -24.6739E-03     135.158E-03     25.5326E+06    -3.42460E+06    -55.9462E+06    -31.9132E+06    -27.4575E+06     25.5326E+06    -25.6578E+06         33.2040
            1969     12.6447E-03     113.070E-03         3.70169        -1.21562        -2.14337        -1.20322         3.68929        -2.14337    -484.271E-03     135.193E-03    -28.3505E-03    -106.842E-03    -83.2245E-03     111.575E-03    -28.3505E-03     143.508E-03     30.3635E+06     10.1792E+06    -52.6910E+06    -24.7988E+06    -17.7129E+06     30.3635E+06    -30.4166E+06         36.4900
            1970     13.5631E-03     113.190E-03         3.33034    -999.304E-03        -2.04869    -980.867E-03         3.31190        -2.04869    -541.769E-03     155.265E-03    -32.3813E-03    -122.883E-03    -98.5239E-03     130.905E-03    -32.3813E-03     157.104E-03     23.1194E+06     11.6347E+06    -56.9353E+06    -20.8975E+06    -19.9884E+06     18.7047E+06    -35.1597E+06         40.4191
            1971     14.4655E-03     113.338E-03         2.94764    -782.424E-03        -1.94999    -758.448E-03         2.92366        -1.94999    -589.157E-03     170.607E-03    -36.8788E-03    -133.728E-03    -113.063E-03     149.942E-03    -36.8788E-03     152.025E-03     46.7151E+06     26.7720E+06    -40.2275E+06    -14.8950E+06     21.3826E+06     26.7720E+06    -29.8168E+06         44.7188
            1972     15.3544E-03     113.460E-03         2.52562    -537.745E-03        -1.84921    -519.767E-03         2.50764        -1.84921    -459.061E-03     182.344E-03    -41.6860E-03    -140.658E-03    -123.747E-03     165.433E-03    -41.6860E-03     143.846E-03     84.4888E+06     46.1217E+06    -11.1871E+06    -6.54834E+06     79.8500E+06     46.1217E+06    -19.9469E+06         49.2424
            1973     16.2355E-03     113.606E-03         2.05150    -255.986E-03        -1.75002    -246.280E-03         2.04179        -1.75002    -295.979E-03     189.283E-03    -46.7624E-03    -142.521E-03    -133.560E-03     180.323E-03    -46.7624E-03     88.8270E-03     105.143E+06     68.5060E+06    -2.80754E+06    -1.17259E+06     89.7097E+06     82.3048E+06    -9.01890E+06         53.9340
            1974     996.104E-06     113.580E-03         5.77700        -2.49415        -2.62492        -2.45155         5.73440        -2.62492     876.622E-03     8.91058E-03    -4.26544E-03    -4.64514E-03    -4.41849E-03     8.68393E-03    -4.26544E-03     3.20529E-03    -34.7479E+06    -141.994E+06    -166.104E+06    -152.589E+06    -44.9308E+06    -145.327E+06     33.4296E+06         21.0510
            1975     1.99115E-03     113.581E-03         5.62317        -2.43410        -2.51453        -2.42108         5.61015        -2.51453     496.707E-03     10.7545E-03    -4.66027E-03    -6.09427E-03    -5.30036E-03     9.96063E-03    -4.66027E-03     6.95713E-03    -28.0350E+06    -123.075E+06    -157.411E+06    -140.261E+06    -45.1848E+06    -123.075E+06     43.5811E+06         21.1917
            1976     2.98541E-03     113.583E-03         5.51245        -2.35098        -2.46848        -2.33832         5.49979        -2.46848     462.781E-03     13.9722E-03    -5.21319E-03    -8.75901E-03    -6.76688E-03     11.9801E-03    -5.21319E-03     12.6961E-03    -38.1961E+06    -108.035E+06    -147.912E+06    -126.178E+06    -59.9304E+06    -108.035E+06     43.0013E+06         21.4346
            1977     3.97766E-03     113.590E-03         5.35193        -2.24493        -2.42236        -2.24489         5.35190        -2.42236     10.0197E-03     18.5792E-03    -5.92071E-03    -12.6585E-03    -8.73316E-03     14.6539E-03    -5.92071E-03     20.5992E-03    -48.2498E+06    -95.1692E+06    -135.972E+06    -111.485E+06    -72.7371E+06    -95.1692E+06     38.4346E+06         21.7986
            1978     4.96820E-03     113.602E-03         5.21092        -2.17294        -2.37555        -2.16998         5.20796        -2.37555    -211.219E-03     24.6799E-03    -6.79353E-03    -17.8863E-03    -11.3035E-03     18.0970E-03    -6.79353E-03     30.6974E-03    -44.3465E+06    -77.4369E+06    -117.339E+06    -95.4667E+06    -66.2186E+06    -77.4369E+06     32.6412E+06         22.3060
            1979     5.95538E-03     113.624E-03         5.07757        -2.11669        -2.33034        -2.11217         5.07304        -2.33034    -356.014E-03     32.5337E-03    -7.88598E-03    -24.6477E-03    -14.7973E-03     22.6833E-03    -7.88598E-03     43.1148E-03    -40.7277E+06    -55.4229E+06    -94.3725E+06    -80.0805E+06    -55.0196E+06    -55.4229E+06     23.3206E+06         22.9876
            1980     6.93923E-03     113.655E-03         4.94506        -2.05845        -2.28614        -2.05358         4.94018        -2.28614    -360.828E-03     42.4324E-03    -9.23476E-03    -33.1977E-03    -19.4829E-03     28.7176E-03    -9.23476E-03     58.2117E-03    -31.4252E+06    -39.9258E+06    -72.9255E+06    -67.1001E+06    -43.9254E+06    -33.2510E+06     12.0402E+06         23.8812
            1981     7.91731E-03     113.701E-03         4.79151        -1.97943        -2.23997        -1.97259         4.78466        -2.23997    -427.368E-03     54.5086E-03    -10.8824E-03    -43.6263E-03    -25.6583E-03     36.5407E-03    -10.8824E-03     75.8273E-03    -13.7590E+06    -35.0764E+06    -58.6657E+06    -57.3899E+06    -36.3522E+06    -13.7590E+06     1.89449E+06         25.0288
            1982     8.89041E-03     113.763E-03         4.59974        -1.87073        -2.18851        -1.86185         4.59087        -2.18851    -472.476E-03     68.3248E-03    -12.8708E-03    -55.4540E-03    -33.5124E-03     46.3832E-03    -12.8708E-03     94.4477E-03     2.48736E+06    -25.2123E+06    -53.5593E+06    -50.6447E+06    -28.1269E+06     2.48736E+06    -7.46610E+06         26.4776
            1983     9.85537E-03     113.841E-03         4.35610        -1.72614        -2.12903        -1.71518         4.34513        -2.12903    -512.949E-03     85.1253E-03    -15.2797E-03    -69.8456E-03    -44.0350E-03     59.3147E-03    -15.2797E-03     115.360E-03     15.7503E+06    -12.2750E+06    -53.2565E+06    -43.4904E+06    -22.0412E+06     15.7503E+06    -16.4287E+06         28.2765
            1984     10.8096E-03     113.943E-03         4.05422        -1.54303        -2.05976        -1.53495         4.04615        -2.05976    -412.088E-03     103.997E-03    -18.1962E-03    -85.8005E-03    -57.0690E-03     75.2652E-03    -18.1962E-03     135.856E-03     25.8048E+06    -2.71597E+06    -51.4144E+06    -35.0874E+06    -19.0430E+06     25.8048E+06    -22.8326E+06         30.4788
            1985     11.7513E-03     114.061E-03         3.71570        -1.33896        -1.98145        -1.33200         3.70874        -1.98145    -363.105E-03     120.997E-03    -21.6254E-03    -99.3721E-03    -70.8008E-03     92.4262E-03    -21.6254E-03     147.712E-03     29.7500E+06     4.24913E+06    -53.9287E+06    -28.8725E+06    -20.8071E+06     29.7500E+06    -28.2354E+06         33.2003
            1986     12.6812E-03     114.185E-03         3.35421        -1.12123        -1.89532        -1.11531         3.34829        -1.89532    -297.929E-03     139.575E-03    -25.5509E-03    -114.024E-03    -86.1260E-03     111.677E-03    -25.5509E-03     158.506E-03     33.0223E+06     14.1564E+06    -50.3978E+06    -25.5817E+06    -10.6597E+06     33.0223E+06    -30.2466E+06         36.6039
            1987     13.5960E-03     114.331E-03         2.99142    -909.451E-03        -1.80103    -899.884E-03         2.98185        -1.80103    -332.653E-03     163.126E-03    -29.9709E-03    -133.155E-03    -104.142E-03     134.113E-03    -29.9709E-03     175.952E-03     26.6995E+06     17.6838E+06    -54.5926E+06    -24.6207E+06    -10.6468E+06     25.0581E+06    -34.4448E+06         40.6729
            1988     14.4948E-03     114.504E-03         2.61446    -689.783E-03        -1.70168    -677.887E-03         2.60257        -1.70168    -382.401E-03     178.998E-03    -34.9017E-03    -144.096E-03    -119.761E-03     154.662E-03    -34.9017E-03     169.083E-03     43.2977E+06     26.9153E+06    -49.7275E+06    -21.7659E+06     14.8794E+06     27.3719E+06    -36.9920E+06         45.1257
            1989     15.3802E-03     114.646E-03         2.21516    -459.801E-03        -1.60066    -452.314E-03         2.20767        -1.60066    -273.193E-03     193.450E-03    -40.2398E-03    -153.210E-03    -133.808E-03     174.048E-03    -40.2398E-03     159.326E-03     72.3757E+06     43.7156E+06    -25.3260E+06    -16.9877E+06     64.0374E+06     43.7156E+06    -25.0683E+06         49.8072
            1990     16.2518E-03     114.813E-03         1.79710    -223.491E-03        -1.50385    -217.450E-03         1.79106        -1.50385    -220.149E-03     203.967E-03    -46.0086E-03    -157.959E-03    -147.460E-03     193.468E-03    -46.0086E-03     102.932E-03     96.6763E+06     63.0783E+06    -13.9397E+06    -12.0594E+06     75.5738E+06     82.3006E+06    -10.3456E+06         54.6464
            1991     997.435E-06     114.586E-03         5.09773        -2.17674        -2.23816        -2.15659         5.07757        -2.23816     659.928E-03     4.93218E-03    -2.35036E-03    -2.58182E-03    -2.41496E-03     4.80207E-03    -2.38710E-03     1.72337E-03    -83.3952E+06    -204.425E+06    -217.130E+06    -206.904E+06    -87.7500E+06    -210.296E+06     16.2904E+06         20.7133
            1992     1.99500E-03     114.588E-03         4.98763        -2.10359        -2.17590        -2.09350         4.97754        -2.17590     489.131E-03     6.27377E-03    -2.60791E-03    -3.66587E-03    -3.08489E-03     5.69280E-03    -2.60791E-03     4.52108E-03    -60.0767E+06    -170.006E+06    -190.694E+06    -176.007E+06    -67.9100E+06    -176.859E+06     23.9301E+06         20.8441
            1993     2.99102E-03     114.592E-03         4.86322        -2.00804        -2.13150        -1.99944         4.85462        -2.13150     387.289E-03     9.17506E-03    -3.02368E-03    -6.15138E-03    -4.40387E-03     7.42755E-03    -3.02368E-03     9.62667E-03    -58.5162E+06    -139.878E+06    -169.856E+06    -146.513E+06     -67.976E+06    -153.761E+06     24.4432E+06         21.0766
            1994     3.98574E-03     114.601E-03         4.73097        -1.92882        -2.08635        -1.92857         4.73072        -2.08635     19.5016E-03     13.7812E-03    -3.66032E-03    -10.1209E-03    -6.37402E-03     10.0343E-03    -3.66032E-03     17.3164E-03    -65.9039E+06    -115.048E+06    -146.242E+06    -121.825E+06    -74.2341E+06    -131.134E+06     19.1525E+06         21.4326
            1995     4.97811E-03     114.617E-03         4.62184        -1.88545        -2.04474        -1.88356         4.61995        -2.04474    -177.844E-03     19.9194E-03    -4.51541E-03    -15.4040E-03    -8.92664E-03     13.4421E-03    -4.51541E-03     27.2942E-03    -58.3691E+06    -91.3359E+06    -114.847E+06    -97.8744E+06    -65.1725E+06    -101.505E+06     13.2771E+06         21.9359
            1996     5.96847E-03     114.643E-03         4.52161        -1.85527        -2.00699        -1.85240         4.51874        -2.00699    -266.000E-03     27.6776E-03    -5.56968E-03    -22.1079E-03    -12.1688E-03     17.7385E-03    -5.56968E-03     39.7672E-03    -46.0807E+06    -67.9288E+06    -85.8548E+06    -77.5588E+06    -50.7267E+06    -71.5789E+06      9.5601E+06         22.6199
            1997     6.95503E-03     114.680E-03         4.42302        -1.82151        -1.97074        -1.81909         4.42059        -1.97074    -237.837E-03     37.8659E-03    -6.85569E-03    -31.0102E-03    -16.6527E-03     23.5084E-03    -6.85569E-03     55.9099E-03    -32.3188E+06    -45.7275E+06     -67.191E+06    -65.0881E+06    -35.7178E+06    -44.4313E+06     4.75510E+06         23.5266
            1998     7.93721E-03     114.734E-03         4.29334        -1.75571        -1.93153        -1.75236         4.28999        -1.93153    -274.740E-03     50.5624E-03    -8.44236E-03    -42.1201E-03    -22.7499E-03     31.1923E-03    -8.44236E-03     75.3137E-03    -15.7677E+06    -27.6178E+06    -56.4604E+06    -54.1401E+06    -26.3723E+06    -19.3335E+06    -3.55612E+06         24.7017
            1999     8.91241E-03     114.806E-03         4.11917        -1.66006        -1.88525        -1.65564         4.11475        -1.88525    -312.889E-03     65.3950E-03    -10.3896E-03    -55.0054E-03    -30.8418E-03     41.2313E-03    -10.3896E-03     96.3680E-03     4.79950E+06    -11.7058E+06    -46.5934E+06    -40.1814E+06    -18.1178E+06     4.79950E+06    -11.9018E+06         26.1950
            2000     9.88012E-03     114.898E-03         3.89671        -1.53801        -1.82947        -1.53169         3.89039        -1.82947    -362.631E-03     83.7171E-03    -12.7650E-03    -70.9521E-03    -41.6874E-03     54.4524E-03    -12.7650E-03     121.051E-03     22.0272E+06    -1.57622E+06    -42.3236E+06    -30.1286E+06    -13.7712E+06     22.0272E+06    -17.4287E+06         28.0508
            2001     10.8372E-03     115.016E-03         3.61297        -1.37723        -1.76278        -1.37276         3.60849        -1.76278    -268.898E-03     103.539E-03    -15.6404E-03    -87.8985E-03    -54.8428E-03     70.4832E-03    -15.6404E-03     144.509E-03     31.8539E+06     4.31577E+06    -42.1367E+06    -26.2015E+06    -11.6194E+06     31.8539E+06    -21.9979E+06         30.3168
            2002     11.7834E-03     115.153E-03         3.28735        -1.18814        -1.68593        -1.18447         3.28368        -1.68593    -228.597E-03     122.363E-03    -19.0908E-03    -103.273E-03    -70.2706E-03     89.3614E-03    -19.0908E-03     159.072E-03     37.1738E+06     7.59458E+06    -45.0034E+06    -24.5078E+06    -12.9010E+06     37.1738E+06    -25.4927E+06         33.1113
            2003     12.7132E-03     115.300E-03         2.94254    -984.056E-03        -1.59987    -980.572E-03         2.93905        -1.59987    -138.109E-03     144.136E-03    -23.1707E-03    -120.965E-03    -88.5502E-03     111.721E-03    -23.1707E-03     173.487E-03     40.1116E+06     15.6892E+06    -43.8234E+06    -21.3725E+06    -6.76173E+06     40.1116E+06    -28.4541E+06         36.5966
            2004     13.6267E-03     115.473E-03         2.59430    -779.718E-03        -1.50400    -774.212E-03         2.58879        -1.50400    -155.050E-03     169.989E-03    -27.8809E-03    -142.108E-03    -108.279E-03     136.160E-03    -27.8809E-03     193.907E-03     43.3030E+06     31.5460E+06    -41.0212E+06    -13.3440E+06     3.86882E+06     43.3030E+06    -34.7906E+06         40.7708
            2005     14.5225E-03     115.674E-03         2.23913    -577.339E-03        -1.40269    -571.665E-03         2.23346        -1.40269    -214.997E-03     187.871E-03    -33.1452E-03    -154.726E-03    -126.448E-03     159.593E-03    -33.1452E-03     186.750E-03     46.1633E+06     32.0318E+06    -36.1711E+06    -7.09968E+06     9.89961E+06     39.2240E+06    -33.8731E+06         45.3891
            2006     15.4013E-03     115.837E-03         1.88491    -385.787E-03        -1.30095    -383.246E-03         1.88237        -1.30095    -124.490E-03     206.744E-03    -39.0222E-03    -167.722E-03    -145.296E-03     184.318E-03    -39.0222E-03     177.623E-03     62.8267E+06     46.9636E+06    -20.3378E+06    -7.37995E+06     43.6941E+06     53.1384E+06    -20.2152E+06         50.2757
            2007     16.2590E-03     116.043E-03         1.54147    -208.796E-03        -1.20740    -204.845E-03         1.53752        -1.20740    -163.344E-03     217.525E-03    -45.4403E-03    -172.084E-03    -159.832E-03     205.272E-03    -45.4403E-03     116.382E-03     97.7755E+06     64.5376E+06    -6.44904E+06    -4.77373E+06     65.6113E+06     95.0265E+06    -10.7523E+06         55.3558
            2008     997.192E-06     115.590E-03         4.40553        -1.81201        -1.85674        -1.80108         4.39460        -1.85674     502.717E-03     5.00616E-03    -2.45317E-03    -2.55299E-03    -2.47226E-03     4.96943E-03    -2.49717E-03     669.614E-06    -96.2034E+06    -199.518E+06    -206.757E+06    -201.796E+06    -97.1103E+06    -203.571E+06    -5.53376E+06         20.6307
            2009     1.99428E-03     115.592E-03         4.30410        -1.74062        -1.80847        -1.73169         4.29517        -1.80847     456.494E-03     5.44945E-03    -2.51300E-03    -2.93644E-03    -2.65635E-03     5.17661E-03    -2.52026E-03     2.52093E-03    -74.8916E+06    -183.147E+06    -193.265E+06    -184.508E+06    -76.7946E+06    -190.001E+06    -5.50073E+06         20.7414
            2010     2.99175E-03     115.598E-03         4.17350        -1.64605        -1.76575        -1.63971         4.16715        -1.76575     337.584E-03     7.26892E-03    -2.67486E-03    -4.59406E-03    -3.43082E-03     6.10568E-03    -2.67486E-03     6.72661E-03    -65.7815E+06    -163.030E+06    -177.619E+06    -160.951E+06    -68.5563E+06    -176.923E+06    -5.58342E+06         20.9436
            2011     3.98794E-03     115.609E-03         4.05743        -1.57913        -1.72218        -1.57851         4.05681        -1.72218     42.1680E-03     11.1414E-03    -3.04116E-03    -8.10024E-03    -5.04553E-03     8.08669E-03    -3.04116E-03     13.9486E-03    -65.1348E+06    -140.040E+06    -163.302E+06    -136.056E+06    -69.1190E+06    -163.302E+06    -9.90702E+06         21.2619
            2012     4.98199E-03     115.629E-03         3.98437        -1.56842        -1.68501        -1.56755         3.98351        -1.68501    -119.567E-03     16.8586E-03    -3.65839E-03    -13.2002E-03    -7.33762E-03     10.9960E-03    -3.65839E-03     23.7933E-03    -56.4483E+06    -118.001E+06    -143.396E+06    -112.891E+06    -61.5578E+06    -143.396E+06    -14.3747E+06         21.7249
            2013     5.97311E-03     115.658E-03         3.91703        -1.55714        -1.65397        -1.55601         3.91590        -1.65397    -137.383E-03     24.5164E-03    -4.57332E-03    -19.9430E-03    -10.4163E-03     14.9896E-03    -4.57332E-03     36.4771E-03    -41.8852E+06    -94.8972E+06    -110.225E+06    -87.4026E+06    -51.1946E+06    -108.411E+06    -14.5484E+06         22.3705
            2014     6.96178E-03     115.701E-03         3.83427        -1.52952        -1.62318        -1.52891         3.83365        -1.62318    -81.7680E-03     34.5975E-03    -5.77436E-03    -28.8232E-03    -14.5821E-03     20.3564E-03    -5.77436E-03     52.9243E-03    -23.4692E+06    -60.9522E+06    -71.7113E+06    -60.3546E+06    -33.0236E+06    -62.7545E+06    -12.1461E+06         23.2447
            2015     7.94606E-03     115.762E-03         3.72380        -1.48220        -1.58804        -1.48131         3.72291        -1.58804    -102.171E-03     47.0959E-03    -7.24479E-03    -39.8511E-03    -20.1630E-03     27.4077E-03    -7.24479E-03     72.7710E-03    -10.5248E+06    -24.2209E+06    -49.3815E+06    -41.9259E+06    -18.7560E+06    -23.4453E+06    -13.0393E+06         24.3987
            2016     8.92532E-03     115.843E-03         3.57251        -1.40982        -1.54531        -1.40850         3.57119        -1.54531    -142.493E-03     62.5336E-03    -9.03709E-03    -53.4965E-03    -28.0017E-03     37.0388E-03    -9.03709E-03     96.0518E-03     3.23900E+06    -2.92959E+06    -44.9049E+06    -35.5286E+06    -12.3012E+06     3.23435E+06    -15.2710E+06         25.8867
            2017     9.89582E-03     115.948E-03         3.36855        -1.30971        -1.49227        -1.30698         3.36582        -1.49227    -205.439E-03     81.7310E-03    -11.2472E-03    -70.4837E-03    -38.6595E-03     49.9067E-03    -11.2472E-03     123.739E-03     22.2184E+06     5.89679E+06    -42.9122E+06    -30.7410E+06    -6.27445E+06     22.2184E+06    -19.2795E+06         27.7509
            2018     10.8573E-03     116.083E-03         3.10838        -1.17236        -1.42719        -1.17015         3.10617        -1.42719    -130.406E-03     102.578E-03    -13.9844E-03    -88.5937E-03    -52.1987E-03     66.1830E-03    -13.9844E-03     149.946E-03     37.1054E+06     9.70396E+06    -38.3534E+06    -21.7802E+06    -6.86926E+06     37.1054E+06    -22.3550E+06         30.0366
            2019     11.8051E-03     116.239E-03         2.80940        -1.00358        -1.35051        -1.00197         2.80779        -1.35051    -94.7711E-03     123.603E-03    -17.3682E-03    -106.234E-03    -69.2297E-03     86.5979E-03    -17.3682E-03     168.576E-03     48.7429E+06     12.8502E+06    -34.3688E+06    -12.8822E+06    -8.63650E+06     48.7429E+06    -23.0514E+06         32.8545
            2020     12.7366E-03     116.414E-03         2.48653    -814.092E-03        -1.26300    -810.559E-03         2.48299        -1.26300     5.17513E-03     147.602E-03    -21.4804E-03    -126.121E-03    -89.3029E-03     110.783E-03    -21.4804E-03     186.533E-03     58.1951E+06     26.2540E+06    -29.1291E+06    -5.21450E+06     2.33939E+06     58.1951E+06    -27.1637E+06         36.3597
            2021     13.6493E-03     116.613E-03         2.15852    -629.100E-03        -1.16456    -624.409E-03         2.15383        -1.16456    -9.92711E-03     175.430E-03    -26.3161E-03    -149.114E-03    -110.967E-03     137.283E-03    -26.3161E-03     208.879E-03     63.9382E+06     40.5956E+06    -29.0305E+06    -4.19915E+06     15.7643E+06     63.9382E+06    -32.5464E+06         40.5888
            2022     14.5466E-03     116.844E-03         1.84023    -464.618E-03        -1.06100    -461.753E-03         1.83736        -1.06100    -89.7646E-03     196.823E-03    -31.8271E-03    -164.996E-03    -132.576E-03     164.403E-03    -31.8271E-03     204.896E-03     52.8808E+06     28.7237E+06    -36.2712E+06    -7.80802E+06     260.492E+03     52.8808E+06    -30.1251E+06         45.3762
            2023     15.4167E-03     117.046E-03         1.54301    -325.815E-03    -958.652E-03    -325.048E-03         1.54225    -958.652E-03    -13.6614E-03     219.868E-03    -38.0615E-03    -181.806E-03    -154.842E-03     192.903E-03    -38.0615E-03     200.866E-03     57.7299E+06     41.9048E+06    -21.8099E+06    -5.38901E+06     25.5333E+06     57.6805E+06    -18.7282E+06         50.5325
            2024     16.2677E-03     117.283E-03         1.28196    -214.436E-03    -869.805E-03    -211.818E-03         1.27934    -869.805E-03    -111.300E-03     229.474E-03    -44.9316E-03    -184.543E-03    -169.626E-03     214.557E-03    -44.9316E-03     132.438E-03     96.8168E+06     57.1990E+06    -3.42527E+06    -1.99811E+06     55.8212E+06     96.7674E+06    -8.19991E+06         55.9140
            2025     995.858E-06     116.596E-03         3.68235        -1.39974        -1.47417        -1.39232         3.67493        -1.47417     378.586E-03     7.70761E-03    -3.80781E-03    -3.89980E-03    -3.84197E-03     7.70399E-03    -3.86202E-03     7.58901E-06    -78.1909E+06    -154.005E+06    -160.502E+06    -156.329E+06    -80.8494E+06    -155.520E+06    -13.4589E+06         20.7850
            2026     1.99177E-03     116.598E-03         3.55697        -1.33704        -1.41103        -1.32818         3.54810        -1.41103     413.955E-03     8.05309E-03    -3.92735E-03    -4.12575E-03    -4.06289E-03     7.99750E-03    -3.93461E-03     977.945E-06    -64.4149E+06    -144.762E+06    -156.176E+06    -151.519E+06    -69.0717E+06    -144.762E+06    -19.6077E+06         20.8828
            2027     2.98749E-03     116.604E-03         3.43983        -1.26051        -1.36834        -1.25509         3.43441        -1.36834     299.599E-03     9.11020E-03    -4.08936E-03    -5.02083E-03    -4.59577E-03     8.68513E-03    -4.08936E-03     3.89401E-03    -53.1975E+06    -137.469E+06    -150.523E+06    -143.621E+06    -60.0898E+06    -137.479E+06    -24.1000E+06         21.0547
            2028     3.98270E-03     116.617E-03         3.33814        -1.20994        -1.32881        -1.20879         3.33700        -1.32881     102.740E-03     11.3885E-03    -4.31467E-03    -7.07382E-03    -5.52331E-03     9.83798E-03    -4.31467E-03     9.36481E-03    -45.1683E+06    -130.833E+06    -153.440E+06    -134.332E+06    -57.1014E+06    -138.008E+06    -31.2870E+06         21.3228
            2029     4.97725E-03     116.639E-03         3.28782        -1.20557        -1.29565        -1.20511         3.28736        -1.29565     10.6319E-03     15.4714E-03    -4.67937E-03    -10.7921E-03    -7.02984E-03     11.7092E-03    -4.67937E-03     17.8144E-03    -34.7210E+06    -119.945E+06    -154.274E+06    -121.312E+06    -52.4567E+06    -135.172E+06    -38.1164E+06         21.7188
            2030     5.97019E-03     116.672E-03         3.25335        -1.21750        -1.26868        -1.21683         3.25268        -1.26868     35.3413E-03     22.1745E-03    -5.30742E-03    -16.8670E-03    -9.61435E-03     14.9218E-03    -5.30742E-03     30.0978E-03    -23.4508E+06    -106.931E+06    -137.453E+06    -104.165E+06    -46.8761E+06    -116.794E+06    -42.3173E+06         22.2853
            2031     6.95907E-03     116.720E-03         3.19454        -1.20710        -1.24299        -1.20638         3.19332        -1.24248     97.2404E-03     31.6901E-03    -6.21125E-03    -25.4789E-03    -13.3447E-03     19.5559E-03    -6.21125E-03     46.6583E-03    -10.2203E+06    -87.8203E+06    -107.477E+06    -81.4007E+06    -34.4944E+06    -89.6227E+06    -41.1118E+06         23.0734
            2032     7.94439E-03     116.787E-03         3.09943        -1.17440        -1.21181        -1.17382         3.09834        -1.21130     78.3659E-03     43.8676E-03    -7.43856E-03    -36.4290E-03    -18.4378E-03     25.8763E-03    -7.43856E-03     66.9416E-03    -3.13738E+06    -53.8637E+06    -74.8277E+06    -55.7976E+06    -22.1675E+06    -53.8637E+06    -31.4501E+06         24.1428
            2033     8.92478E-03     116.875E-03         2.96393        -1.12391        -1.17173        -1.12338         2.96340        -1.17173     30.7746E-03     59.3230E-03    -9.06590E-03    -50.2571E-03    -25.7427E-03     34.8086E-03    -9.06590E-03     91.3220E-03     5.67709E+06    -11.4938E+06    -51.4701E+06    -34.1777E+06    -13.0047E+06    -10.1044E+06    -22.6386E+06         25.5544
            2034     9.89876E-03     116.993E-03         2.78461        -1.04782        -1.12108        -1.04694         2.78374        -1.12108    -39.5357E-03     78.5072E-03    -11.1010E-03    -67.4063E-03    -35.8580E-03     46.9590E-03    -11.1010E-03     120.119E-03     27.4544E+06     12.7988E+06    -36.6615E+06    -21.3861E+06    -307.537E+03     25.2853E+06    -20.3724E+06         27.3543
            2035     10.8625E-03     117.141E-03         2.55893    -935.820E-03        -1.05720    -934.029E-03         2.55714        -1.05720     20.5627E-03     100.330E-03    -13.6496E-03    -86.6806E-03    -49.5114E-03     63.1609E-03    -13.6496E-03     149.155E-03     43.9841E+06     9.83409E+06    -34.2342E+06    -19.6875E+06    -4.71264E+06     43.9841E+06    -20.0474E+06         29.5862
            2036     11.8138E-03     117.321E-03         2.29317    -790.730E-03    -980.073E-03    -789.234E-03         2.29168    -980.073E-03     49.2833E-03     123.050E-03    -16.8470E-03    -106.203E-03    -66.7969E-03     83.6439E-03    -16.8470E-03     172.723E-03     57.3105E+06     19.1907E+06    -38.0913E+06    -18.4654E+06    -435.235E+03     57.3105E+06    -25.0781E+06         32.3469
            2037     12.7475E-03     117.521E-03         2.00689    -634.745E-03    -890.982E-03    -629.236E-03         2.00138    -890.982E-03     127.632E-03     148.913E-03    -20.8200E-03    -128.093E-03    -87.9471E-03     108.767E-03    -20.8200E-03     194.770E-03     69.3126E+06     34.5237E+06    -36.8303E+06    -12.1717E+06     9.86509E+06     69.3126E+06    -32.1518E+06         35.7819
            2038     13.6644E-03     117.750E-03         1.71519    -489.695E-03    -791.057E-03    -483.693E-03         1.70918    -791.057E-03     101.445E-03     179.056E-03    -25.6145E-03    -153.442E-03    -112.153E-03     137.768E-03    -25.6145E-03     219.103E-03     74.7518E+06     30.0239E+06    -25.2527E+06    -7.62179E+06     12.3929E+06     74.7518E+06    -25.1828E+06         39.9597
            2039     14.5559E-03     118.014E-03         1.44124    -374.652E-03    -687.279E-03    -373.242E-03         1.43983    -687.279E-03    -7.95109E-03     202.208E-03    -31.1556E-03    -171.053E-03    -134.259E-03     165.414E-03    -31.1556E-03     221.362E-03     68.9648E+06     18.8391E+06    -26.6144E+06    -8.51257E+06     737.243E+03     68.9648E+06    -20.3217E+06         44.8327
            2040     15.4289E-03     118.256E-03         1.19899    -290.295E-03    -585.986E-03    -289.623E-03         1.19831    -585.986E-03     32.6514E-03     230.121E-03    -37.3520E-03    -192.769E-03    -159.001E-03     196.353E-03    -37.3520E-03     228.887E-03     55.2800E+06     29.4033E+06    -24.5375E+06    -8.69755E+06     14.3203E+06     54.5231E+06    -18.9761E+06         50.2863
            2041     16.2775E-03     118.532E-03         1.00412    -227.151E-03    -502.657E-03    -224.839E-03         1.00180    -502.657E-03    -82.9024E-03     241.441E-03    -44.4118E-03    -197.029E-03    -178.117E-03     222.528E-03    -44.4118E-03     151.952E-03     86.0555E+06     41.3892E+06    -9.04999E+06    -6.99924E+06     40.0953E+06     85.2986E+06    -7.34046E+06         56.0360
            2042     994.069E-06     117.605E-03         2.89146    -977.285E-03        -1.03101    -976.334E-03         2.88560        -1.02610     254.969E-03     12.4279E-03    -6.10224E-03    -6.32565E-03    -6.26926E-03     12.4184E-03    -6.14919E-03    -753.531E-06    -55.6946E+06    -102.213E+06    -109.337E+06    -106.150E+06    -58.8819E+06    -102.213E+06    -12.4219E+06         21.1655
            2043     1.98767E-03     117.608E-03         2.76513    -912.866E-03    -980.168E-03    -904.021E-03         2.75628    -980.168E-03     358.383E-03     13.4978E-03    -6.43079E-03    -7.06696E-03    -7.05195E-03     13.4827E-03    -6.43079E-03    -587.784E-06    -44.5204E+06    -94.9803E+06    -112.417E+06    -105.163E+06    -51.7743E+06    -94.9803E+06    -20.2934E+06         21.2665
            2044     2.98007E-03     117.615E-03         2.63694    -834.031E-03    -938.894E-03    -828.128E-03         2.63104    -938.894E-03     277.260E-03     14.8140E-03    -6.84923E-03    -7.96477E-03    -7.89076E-03     14.7400E-03    -6.84923E-03     911.565E-06    -32.8531E+06    -84.3241E+06    -112.167E+06    -99.8986E+06    -45.1219E+06    -84.3241E+06    -27.9272E+06         21.4288
            2045     3.97183E-03     117.629E-03         2.55873    -802.498E-03    -901.064E-03    -798.985E-03         2.55522    -901.064E-03     194.848E-03     16.2864E-03    -7.27811E-03    -9.00831E-03    -8.62994E-03     15.9081E-03    -7.27811E-03     4.40508E-03    -22.3644E+06    -75.8732E+06    -112.392E+06    -94.5524E+06    -40.2037E+06    -75.8732E+06    -35.5090E+06         21.6640
            2046     4.96299E-03     117.652E-03         2.53738    -816.703E-03    -871.897E-03    -813.164E-03         2.53384    -871.897E-03     180.887E-03     18.6209E-03    -7.70268E-03    -10.9182E-03    -9.59903E-03     17.3017E-03    -7.70268E-03     10.3807E-03    -13.5077E+06    -73.9557E+06    -118.056E+06    -93.9462E+06    -37.6174E+06    -73.9557E+06    -43.9866E+06         21.9976
            2047     5.95322E-03     117.687E-03         2.53753    -834.816E-03    -864.039E-03    -843.878E-03         2.53237    -849.821E-03     225.661E-03     22.8355E-03    -8.19180E-03    -14.6437E-03    -11.1532E-03     19.3450E-03    -8.19180E-03     20.1923E-03    -5.09016E+06    -74.4347E+06    -124.077E+06    -94.9653E+06    -34.2022E+06    -74.4347E+06    -50.9734E+06         22.4689
            2048     6.94222E-03     117.738E-03         2.51249    -828.175E-03    -867.266E-03    -859.201E-03         2.50544    -829.190E-03     276.895E-03     29.8624E-03    -8.83320E-03    -21.0292E-03    -13.7080E-03     22.5412E-03    -8.83320E-03     34.6251E-03     3.44643E+06    -72.2722E+06    -126.091E+06    -93.1163E+06    -29.5284E+06    -72.2722E+06    -56.1600E+06         23.1316
            2049     7.92817E-03     117.809E-03         2.43213    -803.121E-03    -849.230E-03    -842.866E-03         2.42608    -803.437E-03     249.040E-03     40.5353E-03    -9.74911E-03    -30.7862E-03    -17.9834E-03     27.7325E-03    -9.74911E-03     54.1313E-03     5.01393E+06    -60.5225E+06    -115.848E+06    -81.8455E+06    -28.9883E+06    -60.5225E+06    -54.0916E+06         24.0518
            2050     8.90877E-03     117.907E-03         2.30985    -765.456E-03    -812.905E-03    -806.365E-03         2.30577    -767.912E-03     194.925E-03     55.1497E-03    -11.0604E-03    -44.0892E-03    -24.4993E-03     35.5597E-03    -11.0604E-03     78.7446E-03     12.5384E+06    -30.9487E+06    -91.2519E+06    -59.7987E+06    -18.9148E+06    -30.9487E+06    -45.7065E+06         25.2985
            2051     9.88233E-03     118.033E-03         2.15686    -710.393E-03    -762.609E-03    -750.480E-03         2.15421    -719.868E-03     125.073E-03     73.9541E-03    -12.8539E-03    -61.1002E-03    -33.9283E-03     46.7822E-03    -12.8539E-03     108.169E-03     25.2939E+06    -2.67885E+06    -60.4997E+06    -37.1393E+06    -8.60705E+06     7.86168E+06    -32.6451E+06         26.9270
            2052     10.8479E-03     118.196E-03         1.97142    -630.546E-03    -697.829E-03    -665.979E-03         1.96641    -657.387E-03     166.445E-03     95.9269E-03    -15.2047E-03    -80.7222E-03    -46.7554E-03     61.9601E-03    -15.2047E-03     139.142E-03     45.4650E+06     8.72192E+06    -34.9245E+06    -19.4604E+06    -6.74216E+06     45.4650E+06    -20.3756E+06         28.9839
            2053     11.8006E-03     118.394E-03         1.75293    -526.895E-03    -619.425E-03    -560.177E-03         1.74769    -580.907E-03     179.679E-03     118.970E-03    -18.1362E-03    -100.834E-03    -62.8889E-03     81.0251E-03    -18.1362E-03     165.979E-03     72.7534E+06     25.3977E+06    -23.5875E+06    -10.2795E+06     12.0897E+06     72.7534E+06    -20.7016E+06         31.5594
            2054     12.7403E-03     118.619E-03         1.51754    -416.520E-03    -536.692E-03    -451.978E-03         1.50855    -492.247E-03     209.199E-03     146.915E-03    -21.8350E-03    -125.080E-03    -84.9419E-03     106.777E-03    -21.8350E-03     192.693E-03     83.4015E+06     30.4615E+06    -29.6702E+06    -14.5650E+06     15.3563E+06     83.4015E+06    -23.2430E+06         34.7729
            2055     13.6552E-03     118.882E-03         1.27603    -308.126E-03    -457.587E-03    -363.279E-03         1.26757    -393.981E-03     163.512E-03     177.211E-03    -26.3774E-03    -150.834E-03    -108.920E-03     135.298E-03    -26.3774E-03     218.879E-03     82.8951E+06     19.9572E+06    -34.5335E+06    -18.9955E+06     4.41919E+06     82.8951E+06    -22.2499E+06         38.6918
            2056     14.5542E-03     119.177E-03         1.05742    -216.931E-03    -391.248E-03    -313.167E-03         1.05666    -294.247E-03     32.9273E-03     199.753E-03    -31.6259E-03    -168.127E-03    -128.942E-03     160.568E-03    -31.6259E-03     226.387E-03     90.3331E+06     23.4675E+06    -28.2492E+06    -10.0742E+06     5.29260E+06     90.3331E+06    -23.2170E+06         43.4145
            2057     15.4379E-03     119.452E-03     868.414E-03    -140.323E-03    -332.221E-03    -274.960E-03     867.753E-03    -196.924E-03     36.6145E-03     232.265E-03    -37.3752E-03    -194.890E-03    -154.634E-03     192.009E-03    -37.3752E-03     249.362E-03     68.8915E+06     23.4100E+06    -23.6336E+06     159.102E+03     324.855E+03     68.1839E+06    -15.4916E+06         49.0645
            2058     16.2859E-03     119.799E-03     706.109E-03    -77.9154E-03    -280.310E-03    -238.317E-03     704.023E-03    -117.824E-03    -63.4915E-03     249.138E-03    -44.1543E-03    -204.983E-03    -180.642E-03     224.796E-03    -44.1543E-03     178.223E-03     87.4882E+06     33.0350E+06    -9.73620E+06     3.10097E+06     20.9053E+06     86.7806E+06    -214.014E+03         55.4516
            2059     990.871E-06     118.620E-03         2.02335    -518.709E-03    -548.550E-03    -529.742E-03         2.01701    -531.176E-03     178.264E-03     20.0616E-03    -9.82165E-03    -10.2400E-03    -10.2157E-03     20.0374E-03    -9.82165E-03    -1.54247E-03    -35.7710E+06    -53.8839E+06    -62.1253E+06    -57.9544E+06    -39.8619E+06    -53.9640E+06    -7.89251E+06         21.7641
            2060     1.98032E-03     118.625E-03         1.91365    -458.791E-03    -511.895E-03    -449.716E-03         1.90457    -511.895E-03     283.586E-03     21.8479E-03    -10.3623E-03    -11.4856E-03    -11.4377E-03     21.8000E-03    -10.3623E-03    -2.47957E-03    -21.5248E+06    -46.4190E+06    -66.2341E+06    -55.7922E+06    -31.9667E+06    -46.4190E+06    -17.9649E+06         21.8826
            2061     2.96835E-03     118.634E-03         1.78394    -387.739E-03    -475.382E-03    -378.638E-03         1.77483    -475.382E-03     260.292E-03     23.8358E-03    -11.0194E-03    -12.8164E-03    -12.7602E-03     23.7795E-03    -11.0194E-03    -2.52086E-03    -11.7954E+06    -38.8490E+06    -70.4816E+06    -53.7320E+06    -28.5450E+06    -38.8490E+06    -25.9819E+06         22.0634
            2062     3.95531E-03     118.649E-03         1.72819    -370.084E-03    -441.350E-03    -359.561E-03         1.71766    -441.350E-03     271.116E-03     25.8466E-03    -11.7191E-03    -14.1274E-03    -14.0573E-03     25.7764E-03    -11.7191E-03    -1.13881E-03    -4.59246E+06    -31.5923E+06    -73.8135E+06    -53.5134E+06    -24.8926E+06    -31.5923E+06    -31.0719E+06         22.3062
            2063     4.94083E-03     118.673E-03         1.74560    -392.806E-03    -436.859E-03    -396.906E-03         1.73018    -417.342E-03     319.402E-03     27.9560E-03    -12.4299E-03    -15.5261E-03    -15.3148E-03     27.7447E-03    -12.4299E-03     2.33908E-03     2.56976E+06    -26.6658E+06    -78.5532E+06    -54.1275E+06    -21.8559E+06    -26.6658E+06    -36.5302E+06         22.6223
            2064     5.92503E-03     118.709E-03         1.78299    -401.580E-03    -468.086E-03    -447.090E-03         1.76226    -401.854E-03     390.310E-03     30.5852E-03    -13.1542E-03    -17.4310E-03    -16.5985E-03     29.7527E-03    -13.1542E-03     8.68019E-03     9.75132E+06    -23.2801E+06    -85.0686E+06    -56.1501E+06    -19.1672E+06    -23.2801E+06    -43.1785E+06         23.0376
            2065     6.90813E-03     118.762E-03         1.78409    -387.881E-03    -501.888E-03    -479.918E-03         1.76212    -387.881E-03     414.511E-03     34.6514E-03    -13.9432E-03    -20.7082E-03    -18.3095E-03     32.2527E-03    -13.9432E-03     18.7460E-03     13.5717E+06    -18.1449E+06    -91.8417E+06    -60.6713E+06    -17.5988E+06    -18.1449E+06    -48.0865E+06         23.5937
            2066     7.88932E-03     118.836E-03         1.72518    -368.209E-03    -499.987E-03    -481.008E-03         1.70620    -368.209E-03     376.663E-03     41.4505E-03    -14.8531E-03    -26.5974E-03    -21.0653E-03     35.9183E-03    -14.8531E-03     33.8412E-03     12.5061E+06    -15.7925E+06    -103.448E+06    -68.4608E+06    -22.4816E+06    -15.7925E+06    -53.1672E+06         24.3479
            2067     8.86743E-03     118.938E-03         1.62542    -337.628E-03    -475.172E-03    -459.109E-03         1.60936    -337.628E-03     332.403E-03     52.2527E-03    -15.9587E-03    -36.2940E-03    -25.6594E-03     41.6181E-03    -15.9587E-03     55.1474E-03     14.6165E+06    -15.3201E+06    -108.854E+06    -73.6182E+06    -20.6194E+06    -15.3201E+06    -54.9545E+06         25.3668
            2068     9.84058E-03     119.072E-03         1.50283    -293.243E-03    -438.412E-03    -425.160E-03         1.48958    -293.243E-03     275.310E-03     68.3788E-03    -17.4753E-03    -50.9035E-03    -33.4204E-03     50.8957E-03    -17.4753E-03     82.9541E-03     15.2809E+06    -3.74084E+06    -99.5369E+06    -67.1632E+06    -19.3749E+06    -1.45871E+06    -50.0274E+06         26.7090
            2069     10.8036E-03     119.247E-03         1.36394    -234.175E-03    -393.265E-03    -378.332E-03         1.34901    -234.175E-03     280.184E-03     87.9674E-03    -19.5196E-03    -68.4477E-03    -43.8543E-03     63.3740E-03    -19.5196E-03     113.138E-03     28.1368E+06     10.2206E+06    -77.1786E+06    -47.8617E+06    -18.5672E+06     27.6077E+06    -41.0395E+06         28.4292
            2070     11.7585E-03     119.459E-03         1.19778    -161.415E-03    -335.740E-03    -320.637E-03         1.18267    -161.415E-03     273.076E-03     110.282E-03    -22.1285E-03    -88.1539E-03    -58.0826E-03     80.2111E-03    -22.1285E-03     141.881E-03     63.4635E+06     23.4663E+06    -46.9265E+06    -29.8356E+06     6.37542E+06     63.4635E+06    -26.9516E+06         30.6195
            2071     12.6975E-03     119.707E-03         1.02204    -76.6049E-03    -292.924E-03    -276.294E-03         1.00541    -76.6049E-03     260.993E-03     138.940E-03    -25.5039E-03    -113.436E-03    -78.7669E-03     104.271E-03    -25.5039E-03     173.512E-03     93.8489E+06     20.5492E+06    -27.0415E+06    -19.4793E+06     12.9870E+06     93.8489E+06    -13.4876E+06         33.3577
            2072     13.6172E-03     120.005E-03     848.462E-03     15.8211E-03    -270.161E-03    -256.048E-03     834.348E-03     15.8211E-03     207.621E-03     166.297E-03    -29.6282E-03    -136.669E-03    -99.5505E-03     129.179E-03    -29.6282E-03     198.425E-03     112.442E+06     23.9344E+06    -25.0389E+06    -14.6875E+06     13.5830E+06     112.442E+06    -12.8592E+06         36.6938
            2073     14.5244E-03     120.312E-03     690.645E-03     107.158E-03    -261.460E-03    -258.329E-03     687.514E-03     107.158E-03     87.3717E-03     185.971E-03    -34.1788E-03    -151.792E-03    -114.941E-03     149.119E-03    -34.1788E-03     210.339E-03     114.740E+06     33.1231E+06    -33.6515E+06    -17.6478E+06     17.1193E+06     114.740E+06    -23.3279E+06         40.8901
            2074     15.4101E-03     120.638E-03     580.295E-03     163.503E-03    -259.732E-03    -257.838E-03     544.594E-03     197.310E-03     57.7853E-03     220.790E-03    -38.9390E-03    -181.851E-03    -136.853E-03     175.792E-03    -38.9390E-03     253.134E-03     77.6099E+06     4.37664E+06    -53.5082E+06    -22.5018E+06    -26.6298E+06     77.6099E+06    -20.4068E+06         46.3495
            2075     16.2903E-03     121.014E-03     513.034E-03     158.547E-03    -246.716E-03    -245.527E-03     395.417E-03     274.975E-03    -27.1138E-03     246.376E-03    -44.6577E-03    -201.718E-03    -169.272E-03     213.930E-03    -44.6577E-03     213.505E-03     85.2335E+06     22.5941E+06    -38.2461E+06    -15.5700E+06     -81.957E+03     85.2335E+06    -5.19352E+06         53.2393
            2076     985.457E-06     119.646E-03         1.11471    -7.74916E-03    -67.0956E-03    -2.16138E-03         1.08893    -46.8988E-03     83.7982E-03     31.3614E-03    -15.4252E-03    -15.9362E-03    -15.7765E-03     31.3293E-03    -15.5527E-03    -2.22061E-03    -3.09168E+06    -10.4086E+06    -29.3716E+06    -9.01846E+06    -23.7544E+06    -10.0990E+06    -7.61165E+06         22.5197
            2077     1.96925E-03     119.652E-03         1.00618     18.6906E-03    -18.2389E-03     28.4998E-03     988.633E-03    -10.5028E-03     198.449E-03     33.3644E-03    -16.0226E-03    -17.3419E-03    -17.2574E-03     33.2800E-03    -16.0226E-03    -4.07537E-03     4.31753E+06    -6.14305E+06    -28.1000E+06    -9.70934E+06    -14.3136E+06    -5.90253E+06    -13.8541E+06         22.6623
            2078     2.95194E-03     119.664E-03     930.048E-03     55.4340E-03    -269.569E-06     65.3968E-03     905.779E-03     14.0368E-03     200.823E-03     36.2951E-03    -16.8572E-03    -19.4380E-03    -19.2973E-03     36.1544E-03    -16.8572E-03    -5.56897E-03     8.47631E+06    -282.048E+03    -34.4040E+06    -12.4243E+06    -14.3927E+06     607.173E+03    -19.7887E+06         22.8839
            2079     3.93156E-03     119.681E-03     910.160E-03     61.5071E-03     2.99488E-03     73.2528E-03     865.190E-03     36.2190E-03     279.925E-03     39.5558E-03    -17.8726E-03    -21.6832E-03    -21.5099E-03     39.3825E-03    -17.8726E-03    -6.39966E-03     14.8942E+06     3.90443E+06    -38.6155E+06    -13.7682E+06    -13.2955E+06     7.24687E+06    -24.0711E+06         23.1776
            2080     4.90930E-03     119.707E-03     960.369E-03     61.3890E-03    -39.7623E-03     39.3384E-03     890.237E-03     52.4207E-03     379.691E-03     42.8329E-03    -19.0001E-03    -23.8328E-03    -23.6814E-03     42.6815E-03    -19.0001E-03    -5.64712E-03     22.2536E+06     9.68585E+06    -40.4435E+06    -14.7829E+06    -9.86798E+06     16.1468E+06    -27.5718E+06         23.5417
            2081     5.88465E-03     119.745E-03         1.02384     62.6441E-03    -100.262E-03    -18.9056E-03     942.480E-03     62.6441E-03     468.401E-03     46.3763E-03    -20.2015E-03    -26.1748E-03    -26.0351E-03     46.2366E-03    -20.2015E-03    -3.14897E-03     27.9135E+06     9.45333E+06    -44.0337E+06    -19.3784E+06    -8.37487E+06     21.0863E+06    -29.2377E+06         23.9847
            2082     6.85742E-03     119.799E-03         1.03680     72.1468E-03    -133.216E-03    -57.8391E-03     961.421E-03     72.1468E-03     476.277E-03     50.1871E-03    -21.4841E-03    -28.7031E-03    -28.3766E-03     49.8607E-03    -21.4841E-03     1.48103E-03     29.9467E+06     8.26059E+06    -50.3355E+06    -27.5376E+06    -7.09095E+06     22.5004E+06    -30.9075E+06         24.5251
            2083     7.82738E-03     119.876E-03     998.634E-03     88.0407E-03    -138.004E-03    -68.0491E-03     928.680E-03     88.0407E-03     444.835E-03     54.5430E-03    -22.8823E-03    -31.6608E-03    -30.6565E-03     53.5388E-03    -22.8823E-03     9.28271E-03     32.5990E+06     10.7109E+06    -58.7784E+06    -34.4037E+06    -9.52996E+06     28.4652E+06    -34.2997E+06         25.1921
            2084     8.79529E-03     119.978E-03     936.262E-03     114.853E-03    -138.662E-03    -70.0603E-03     867.660E-03     114.853E-03     421.781E-03     61.0464E-03    -24.4162E-03    -36.6302E-03    -33.9328E-03     58.3490E-03    -24.4162E-03     21.6481E-03     35.5645E+06     12.2726E+06    -68.1926E+06    -41.0903E+06    -12.6033E+06     33.3381E+06    -38.4386E+06         26.0216
            2085     9.75845E-03     120.117E-03     862.375E-03     154.382E-03    -139.145E-03    -73.4169E-03     796.647E-03     154.382E-03     393.375E-03     70.0759E-03    -26.1438E-03    -43.9321E-03    -38.1652E-03     64.3090E-03    -26.1438E-03     39.4061E-03     34.1017E+06     10.5653E+06    -77.9084E+06    -49.9973E+06    -15.8693E+06     32.6252E+06    -41.4713E+06         27.0488
            2086     10.7166E-03     120.298E-03     777.444E-03     206.787E-03    -139.685E-03    -75.3725E-03     713.131E-03     206.787E-03     373.363E-03     81.4223E-03    -28.1308E-03    -53.2915E-03    -43.4863E-03     71.6170E-03    -28.1308E-03     61.0335E-03     33.9075E+06     7.94212E+06    -88.1334E+06    -59.9329E+06    -19.7293E+06     33.3784E+06    -43.7858E+06         28.3247
            2087     11.6671E-03     120.516E-03     710.684E-03     225.929E-03    -134.493E-03    -69.6320E-03     599.810E-03     271.941E-03     349.616E-03     97.7768E-03    -30.5190E-03    -67.2577E-03    -52.9563E-03     83.4753E-03    -30.5190E-03     86.6716E-03     47.9377E+06     14.1842E+06    -83.3446E+06    -58.1710E+06    -10.9894E+06     47.9377E+06    -39.2024E+06         29.9213
            2088     12.6046E-03     120.786E-03     667.541E-03     239.733E-03    -155.982E-03    -85.9252E-03     488.304E-03     348.913E-03     338.862E-03     120.194E-03    -33.5407E-03    -86.6535E-03    -67.3936E-03     100.934E-03    -33.5407E-03     116.299E-03     79.8838E+06     16.2686E+06    -59.3711E+06    -41.5599E+06    -1.54248E+06     79.8838E+06    -28.0505E+06         31.8770
            2089     13.5290E-03     121.099E-03     639.673E-03     253.904E-03    -196.174E-03    -133.339E-03     399.286E-03     431.455E-03     308.265E-03     138.860E-03    -36.9842E-03    -101.876E-03    -78.6145E-03     115.599E-03    -36.9842E-03     140.520E-03     112.561E+06     21.6736E+06    -33.8874E+06    -22.4103E+06     10.1965E+06     112.561E+06    -16.8352E+06         34.2915
            2090     14.4365E-03     121.436E-03     612.791E-03     247.631E-03    -215.296E-03    -183.717E-03     317.842E-03     510.999E-03     200.569E-03     154.229E-03    -40.3868E-03    -113.842E-03    -86.9162E-03     127.303E-03    -40.3868E-03     160.880E-03     126.731E+06     34.1873E+06    -25.8713E+06    -14.4829E+06     22.7988E+06     126.731E+06    -3.97845E+06         37.5388
            2091     15.3602E-03     121.761E-03     619.933E-03     203.819E-03    -234.596E-03    -218.793E-03     216.886E-03     591.063E-03     125.774E-03     187.437E-03    -43.8662E-03    -143.571E-03    -106.940E-03     150.806E-03    -43.8662E-03     206.902E-03     105.898E+06     17.6048E+06    -47.4398E+06    -13.3799E+06    -16.4551E+06     105.898E+06    -8.61803E+06         41.9377
            2092     16.2573E-03     122.200E-03     664.278E-03     91.9247E-03    -250.315E-03    -247.038E-03     88.6480E-03     664.278E-03     27.2320E-03     203.858E-03    -47.5554E-03    -156.302E-03    -121.132E-03     168.687E-03    -47.5554E-03     206.372E-03     73.9925E+06     16.3928E+06    -50.8783E+06    -21.9354E+06    -12.5501E+06     73.9925E+06    -16.8641E+06         47.9838
            2093     977.554E-06     120.682E-03     749.350E-03     499.278E-03    -126.023E-03     508.187E-03     101.860E-03     512.558E-03     72.2677E-03     46.2776E-03    -22.8193E-03    -23.4584E-03    -23.2949E-03     46.2417E-03    -22.9468E-03    -3.05574E-03     46.1904E+06     41.3482E+06    -11.1845E+06     43.2648E+06    -9.63764E+06     42.7268E+06    -7.54917E+06         23.2196
            2094     1.95561E-03     120.693E-03     658.295E-03     489.523E-03    -68.5795E-03     489.138E-03     79.4387E-03     510.662E-03     146.999E-03     48.1674E-03    -23.4392E-03    -24.7282E-03    -24.6398E-03     48.0790E-03    -23.4392E-03    -4.95303E-03     41.2791E+06     35.1919E+06    -5.69941E+06     37.1319E+06    -2.62815E+06     36.2679E+06    -8.87517E+06         23.3829
            2095     2.92964E-03     120.707E-03     632.255E-03     482.133E-03    -71.7641E-03     484.899E-03     48.6389E-03     509.086E-03     110.856E-03     51.8761E-03    -24.3693E-03    -27.5068E-03    -27.3456E-03     51.7149E-03    -24.3693E-03    -7.04356E-03     41.9774E+06     34.3071E+06    -9.71685E+06     30.3558E+06    -4.21787E+06     40.4297E+06    -11.0429E+06         23.6478
            2096     3.90145E-03     120.729E-03     631.684E-03     478.855E-03    -88.0528E-03     479.959E-03     30.8421E-03     511.686E-03     209.628E-03     56.8246E-03    -25.7210E-03    -31.1037E-03    -30.8671E-03     56.5881E-03    -25.7210E-03    -9.01794E-03     48.8075E+06     32.7170E+06    -13.5409E+06     24.8541E+06    -5.67793E+06     48.8075E+06    -13.3977E+06         24.0099
            2097     4.86891E-03     120.759E-03     661.711E-03     488.899E-03    -118.715E-03     462.788E-03     52.4705E-03     516.636E-03     333.705E-03     62.8237E-03    -27.3928E-03    -35.4309E-03    -35.1148E-03     62.5076E-03    -27.3928E-03    -11.0738E-03     54.0971E+06     29.6514E+06    -13.0635E+06     18.4207E+06    -1.83281E+06     54.0971E+06    -14.5479E+06         24.4599
            2098     5.83249E-03     120.802E-03     701.093E-03     506.498E-03    -152.512E-03     445.444E-03     85.4777E-03     524.157E-03     418.222E-03     69.3936E-03    -29.3776E-03    -40.0160E-03    -39.6029E-03     68.9805E-03    -29.3776E-03    -13.2240E-03     60.7264E+06     24.5513E+06    -16.1719E+06     13.4166E+06    -5.03711E+06     60.7264E+06    -13.9780E+06         24.9915
            2099     6.78999E-03     120.861E-03     717.036E-03     520.004E-03    -170.367E-03     433.181E-03     96.7221E-03     536.770E-03     433.377E-03     76.1661E-03    -31.5952E-03    -44.5709E-03    -44.0374E-03     75.6326E-03    -31.5952E-03    -15.1784E-03     68.7271E+06     22.8938E+06    -13.5489E+06     10.1683E+06    -823.392E+03     68.7271E+06    -13.9800E+06         25.6056
            2100     7.74318E-03     120.938E-03     714.155E-03     521.082E-03    -180.012E-03     417.049E-03     81.4198E-03     556.756E-03     442.127E-03     83.5260E-03    -34.0569E-03    -49.4691E-03    -48.7380E-03     82.7949E-03    -34.0569E-03    -16.9396E-03     75.3828E+06     20.7473E+06    -17.1553E+06     5.46409E+06    -1.87213E+06     75.3828E+06    -14.1497E+06         26.3012
            2101     8.68957E-03     121.044E-03     709.993E-03     514.907E-03    -193.533E-03     378.915E-03     67.6225E-03     584.830E-03     473.252E-03     90.5497E-03    -36.7552E-03    -53.7944E-03    -52.7094E-03     89.4646E-03    -36.7552E-03    -17.8240E-03     79.9155E+06     18.5303E+06    -23.2613E+06    -1.09183E+06    -3.63917E+06     79.9155E+06    -14.6147E+06         27.0642
            2102     9.62850E-03     121.184E-03     706.410E-03     505.905E-03    -207.546E-03     330.343E-03     53.2371E-03     621.189E-03     495.468E-03     95.5916E-03    -39.5733E-03    -56.0183E-03    -54.3239E-03     93.8972E-03    -39.5733E-03    -16.9452E-03     81.0460E+06     15.2176E+06    -28.6314E+06    -7.80966E+06    -5.60415E+06     81.0460E+06    -15.5618E+06         27.8889
            2103     10.5655E-03     121.358E-03     698.359E-03     494.787E-03    -223.309E-03     272.493E-03     30.7657E-03     666.578E-03     495.356E-03     99.8315E-03    -42.4434E-03    -57.3882E-03    -54.6161E-03     97.0595E-03    -42.4434E-03    -13.3315E-03     83.2138E+06     13.7153E+06    -34.7283E+06    -11.3253E+06    -9.68765E+06     83.2138E+06    -16.7414E+06         28.7973
            2104     11.4972E-03     121.580E-03     728.229E-03     431.546E-03    -236.930E-03     208.500E-03    -7.57886E-03     721.923E-03     481.102E-03     105.769E-03    -45.4385E-03    -60.3305E-03    -55.7706E-03     101.209E-03    -45.4385E-03    -5.06445E-03     87.1823E+06     14.9737E+06    -36.5840E+06    -14.4076E+06    -7.20272E+06     87.1823E+06    -21.6684E+06         29.7906
            2105     12.4217E-03     121.849E-03     785.951E-03     353.768E-03    -271.687E-03     128.990E-03    -46.9086E-03     785.951E-03     478.421E-03     108.469E-03    -43.3232E-03    -65.1462E-03    -54.0312E-03     102.485E-03    -48.4537E-03     13.0983E-03     91.1607E+06     14.3187E+06    -39.9486E+06    -18.6194E+06    -7.01054E+06     91.1607E+06    -21.0294E+06         30.8768
            2106     13.3340E-03     122.173E-03     852.569E-03     279.111E-03    -310.878E-03     32.2377E-03    -64.0045E-03     852.569E-03     481.402E-03     105.272E-03    -36.4877E-03    -68.7848E-03    -46.6901E-03     97.6848E-03    -50.9948E-03     37.2296E-03     100.948E+06     14.3282E+06    -35.3705E+06    -20.0652E+06    -977.145E+03     100.948E+06    -17.0915E+06         32.3241
            2107     14.2807E-03     122.492E-03     918.444E-03     167.784E-03    -310.316E-03    -62.1398E-03    -80.3929E-03     918.444E-03     378.155E-03     116.595E-03    -41.5851E-03    -75.0102E-03    -52.9992E-03     106.378E-03    -53.3790E-03     50.9534E-03     119.923E+06     20.4979E+06    -33.4645E+06    -11.6958E+06    -1.27080E+06     119.923E+06    -1.13121E+06         34.4490
            2108     15.1926E-03     122.864E-03     985.300E-03     40.4684E-03    -307.775E-03    -141.712E-03    -125.595E-03     985.300E-03     251.237E-03     127.445E-03    -37.5574E-03    -89.8873E-03    -58.2124E-03     114.112E-03    -55.8996E-03     74.4546E-03     130.097E+06     43.5582E+06    -26.7843E+06     6.62494E+06     10.1489E+06     130.097E+06     2.15026E+06         37.1081
            2109     16.0825E-03     123.284E-03         1.04194    -101.937E-03    -325.478E-03    -217.930E-03    -209.486E-03         1.04194     119.393E-03     107.949E-03    -18.2961E-03    -89.6528E-03    -33.0876E-03     90.0136E-03    -56.9260E-03     91.5956E-03     82.5511E+06     23.4510E+06    -38.9922E+06     7.79184E+06     5.97103E+06     53.2470E+06    -7.31820E+06         40.6323


