********************************************************************************
Field Output Report, written Tue May  6 07:59:50 2025

Source 1
---------

   ODB: D:/AISI_1020/Vel_40/aisi_1020_2a_24_red_1500_cal_100_vel_40_fric_025.odb
   Step: Step-1
   Frame: Increment   3644949: Step Time =   0.4381

Loc 1 : Nodal values from source 1

Output sorted by column "Node Label".

Field Output reported at nodes for region: DIE_2A_24_D0_36-1.Region_1
   Computation algorithm: EXTRAPOLATE_COMPUTE_AVERAGE
   Averaged at nodes
   Averaging regions: ODB_REGIONS

      Node Label     COORD.COOR1     COORD.COOR2
                          @Loc 1          @Loc 1
-------------------------------------------------
               1     18.4810E-03     209.937E-03


Field Output reported at nodes for region: DIE_2A_24_D0_36-1.Region_2
   Computation algorithm: EXTRAPOLATE_COMPUTE_AVERAGE
   Averaged at nodes
   Averaging regions: ODB_REGIONS

      Node Label     COORD.COOR1     COORD.COOR2
                          @Loc 1          @Loc 1
-------------------------------------------------
               1     18.4810E-03     209.937E-03


Field Output reported at nodes for part: WIRE_1-1
   Computation algorithm: EXTRAPOLATE_COMPUTE_AVERAGE
   Averaged at nodes
   Averaging regions: ODB_REGIONS

      Node Label     COORD.COOR1     COORD.COOR2    ER.Max. Prin    ER.Mid. Prin    ER.Min. Prin         ER.ER11         ER.ER22         ER.ER33         ER.ER12    PE.Max. Prin    PE.Mid. Prin    PE.Min. Prin         PE.PE11         PE.PE22         PE.PE33         PE.PE12     S.Max. Prin     S.Mid. Prin     S.Min. Prin           S.S11           S.S22           S.S33           S.S12            TEMP
                          @Loc 1          @Loc 1          @Loc 1          @Loc 1          @Loc 1          @Loc 1          @Loc 1          @Loc 1          @Loc 1          @Loc 1          @Loc 1          @Loc 1          @Loc 1          @Loc 1          @Loc 1          @Loc 1          @Loc 1          @Loc 1          @Loc 1          @Loc 1          @Loc 1          @Loc 1          @Loc 1          @Loc 1
-----------------------------------------------------------------------------------------------------------------------------------------------------------------------------------------------------------------------------------------------------------------------------------------------------------------------------------------------------------------------------------------------------------------
               1     15.1297E-03     78.9518E-03     304.065E-03    -5.89156E-03    -263.021E-03    -6.15192E-03    -262.761E-03     304.065E-03     16.3071E-03     357.407E-03    -175.038E-03    -182.370E-03    -176.339E-03     351.376E-03    -175.038E-03     113.470E-03     151.300E+06     87.1338E+06    -4.47645E+06    -4.46474E+06     87.1220E+06     151.300E+06     1.03532E+06         76.8586
               2     920.753E-09     77.4416E-03     736.431E-03     496.724E-03        -1.21043     735.509E-03        -1.20951     496.724E-03    -84.6206E-03     349.955E-03    -173.905E-03    -176.050E-03    -175.533E-03     349.955E-03    -174.422E-03    -280.147E-06    -145.123E+06    -148.928E+06    -338.108E+06    -146.287E+06    -338.088E+06    -147.785E+06     1.89470E+06         50.2866
               3     2.51274E-06     208.167E-18         1.19201    -715.415E-03    -719.395E-03    -715.399E-03         1.19199    -719.395E-03    -11.1842E-03     529.813E-03    -264.828E-03    -264.985E-03    -264.974E-03     529.802E-03    -264.828E-03     5.80217E-03    -71.3955E+06    -72.8700E+06    -288.479E+06     -73.017E+06    -288.332E+06    -71.3955E+06     5.62867E+06         57.2090
               4     14.8968E-03     208.167E-18     166.554E-03    -51.5964E-03    -391.597E-03     166.458E-03    -51.5009E-03    -391.597E-03    -9.12603E-03     598.938E-03    -182.613E-03    -416.325E-03    -399.723E-03     582.336E-03    -182.613E-03     257.524E-03     177.734E+06     66.0689E+06     6.90206E+06     6.99629E+06     65.9747E+06     177.734E+06    -2.35934E+06         77.7260
               5     15.3084E-03     157.266E-03     479.615E-03    -104.729E-03    -170.965E-03    -107.053E-03    -168.641E-03     479.615E-03     24.3762E-03     229.170E-03    -63.0860E-03    -166.084E-03    -63.0820E-03     229.166E-03    -166.084E-03     2.17700E-03     141.168E+06     76.4656E+06    -82.4231E+06    -78.0161E+06     72.0586E+06     141.168E+06    -26.0921E+06         105.533
               6     2.19691E-06     152.573E-03     97.6220E-03     22.9892E-03     20.0903E-03     23.5258E-03     94.1866E-03     22.9892E-03     31.9096E-03     288.687E-03    -143.708E-03    -144.979E-03    -144.584E-03     288.293E-03    -143.708E-03    -26.1434E-03     66.3031E+06     63.4559E+06    -13.9062E+06     63.0820E+06    -13.5323E+06     66.3031E+06    -5.36489E+06         38.8951
               7     14.2903E-03     78.7907E-03     320.102E-03     17.0741E-03    -302.519E-03     16.4528E-03    -301.898E-03     320.102E-03     27.3940E-03     365.701E-03    -174.934E-03    -190.766E-03    -178.022E-03     352.957E-03    -174.934E-03     160.530E-03     123.675E+06     73.1267E+06    -8.05751E+06    -8.04627E+06     73.1155E+06     123.675E+06     160.382E+03         75.6177
               8     13.4463E-03     78.5065E-03     352.639E-03     63.9212E-03    -382.391E-03     63.3857E-03    -381.856E-03     352.639E-03     25.9784E-03     364.953E-03    -174.805E-03    -190.148E-03    -176.913E-03     351.718E-03    -174.805E-03     164.757E-03     81.1916E+06     44.6947E+06    -14.8580E+06    -14.8311E+06     44.6678E+06     81.1916E+06    -348.313E+03         72.6765
               9     12.6046E-03     78.3440E-03     383.995E-03     112.922E-03    -463.127E-03     112.791E-03    -462.995E-03     383.995E-03    -3.58637E-03     357.234E-03    -174.783E-03    -182.452E-03    -174.678E-03     349.460E-03    -174.783E-03     128.462E-03     64.5081E+06     24.3115E+06    -21.2259E+06    -21.1902E+06     24.2758E+06     64.5081E+06     291.005E+03         69.0790
              10     11.7664E-03     78.1666E-03     413.437E-03     163.950E-03    -544.283E-03     163.821E-03    -544.153E-03     413.437E-03    -18.2698E-03     356.362E-03    -174.784E-03    -181.578E-03    -174.434E-03     349.218E-03    -174.784E-03     122.588E-03     63.2440E+06     16.1046E+06    -27.5495E+06    -27.5214E+06     16.0765E+06     63.2440E+06     808.983E+03         65.3530
              11     10.9250E-03     78.0244E-03     441.676E-03     216.021E-03    -625.390E-03     215.615E-03    -624.984E-03     441.676E-03    -33.3371E-03     353.492E-03    -174.776E-03    -178.716E-03    -173.330E-03     348.106E-03    -174.776E-03     106.463E-03     61.2981E+06     12.2530E+06    -34.2602E+06    -34.2358E+06     12.2285E+06     61.2981E+06     1.03140E+06         61.9496
              12     10.0842E-03     77.8923E-03     468.274E-03     267.795E-03    -704.803E-03     266.930E-03    -703.938E-03     468.274E-03    -57.1750E-03     351.825E-03    -174.782E-03    -177.043E-03    -172.540E-03     347.322E-03    -174.782E-03     97.0332E-03     55.1331E+06     8.68687E+06    -41.6294E+06    -41.6088E+06     8.66629E+06     55.1331E+06     899.269E+03         59.1311
              13     9.24271E-03     77.7805E-03     493.237E-03     318.388E-03    -781.460E-03     317.375E-03    -780.447E-03     493.237E-03    -65.9369E-03     350.425E-03    -174.814E-03    -175.611E-03    -172.083E-03     346.902E-03    -174.819E-03     85.6166E-03     47.6790E+06     4.59174E+06    -50.0380E+06    -50.0082E+06     4.56193E+06     47.6790E+06     1.07797E+06         56.9586
              14     8.40145E-03     77.6815E-03     516.242E-03     366.871E-03    -854.025E-03     366.089E-03    -853.243E-03     516.242E-03    -60.0919E-03     349.572E-03    -174.523E-03    -175.049E-03    -172.052E-03     346.933E-03    -174.881E-03     73.9603E-03     40.6907E+06    -889.901E+03    -59.4998E+06    -59.4703E+06    -919.390E+03     40.6907E+06     954.073E+03         55.3525
              15     7.56012E-03     77.6003E-03     537.027E-03     411.981E-03    -920.931E-03     411.636E-03    -920.586E-03     537.027E-03    -11.4783E-03     349.056E-03    -174.117E-03    -174.939E-03    -172.306E-03     347.245E-03    -174.939E-03     61.0573E-03     32.0099E+06    -11.7246E+06    -69.6744E+06    -69.6549E+06    -11.7441E+06     32.0099E+06     760.024E+03         54.1723
              16     6.72070E-03     77.5391E-03     555.360E-03     453.766E-03    -981.923E-03     453.578E-03    -981.735E-03     555.360E-03     32.7883E-03     348.844E-03    -173.880E-03    -174.964E-03    -172.754E-03     347.719E-03    -174.964E-03     48.0737E-03     14.0318E+06    -46.0332E+06    -81.3274E+06    -81.2850E+06    -46.0756E+06     14.0318E+06     974.399E+03         53.2803
              17     5.87985E-03     77.4928E-03     571.103E-03     492.040E-03        -1.03669     491.925E-03        -1.03658     571.103E-03     18.3449E-03     348.506E-03    -173.515E-03    -174.991E-03    -172.887E-03     347.878E-03    -174.991E-03     35.6287E-03    -10.4765E+06    -85.6102E+06    -109.920E+06    -93.0068E+06    -102.524E+06    -10.4765E+06     688.014E+03         52.5728
              18     5.03879E-03     77.4634E-03     584.140E-03     526.002E-03        -1.08447     525.958E-03        -1.08442     584.140E-03    -11.6835E-03     348.544E-03    -173.505E-03    -175.039E-03    -173.208E-03     348.247E-03    -175.039E-03     24.4175E-03    -35.0304E+06    -104.171E+06    -157.227E+06    -104.183E+06    -157.215E+06    -35.0304E+06     358.003E+03         51.9865
              19     4.19905E-03     77.4472E-03     594.547E-03     554.425E-03        -1.12393     554.248E-03        -1.12375     594.547E-03    -33.0686E-03     349.099E-03    -174.054E-03    -175.045E-03    -173.931E-03     348.976E-03    -175.045E-03     15.5063E-03    -60.4851E+06    -115.316E+06    -199.500E+06    -115.328E+06    -199.488E+06    -60.4851E+06     591.483E+03         51.4907
              20     3.35953E-03     77.4383E-03     602.677E-03     576.343E-03        -1.15455     576.099E-03        -1.15431     602.677E-03    -40.6384E-03     349.531E-03    -174.557E-03    -174.974E-03    -174.519E-03     349.493E-03    -174.974E-03     8.34593E-03    -86.5484E+06    -125.886E+06    -237.977E+06    -125.930E+06    -237.933E+06    -86.5484E+06     1.03416E+06         51.0755
              21     2.52077E-03     77.4361E-03     608.853E-03     594.432E-03        -1.17953     593.165E-03        -1.17827     608.853E-03    -83.2260E-03     349.505E-03    -174.453E-03    -175.052E-03    -174.604E-03     349.497E-03    -174.893E-03     3.85127E-03    -109.498E+06    -135.593E+06    -280.025E+06    -135.633E+06    -279.985E+06    -109.498E+06     867.265E+03         50.7422
              22     1.67954E-03     77.4378E-03     613.106E-03     608.235E-03        -1.19783     606.222E-03        -1.19582     613.106E-03    -119.273E-03     349.398E-03    -174.365E-03    -175.034E-03    -174.521E-03     349.396E-03    -174.875E-03     2.06471E-03    -128.235E+06    -143.149E+06    -309.396E+06    -143.166E+06    -309.379E+06    -128.235E+06     543.309E+03         50.4960
              23     838.985E-06     77.4426E-03     675.583E-03     555.015E-03        -1.20742     673.554E-03        -1.20611     555.729E-03    -97.6271E-03     349.692E-03    -174.224E-03    -175.468E-03    -175.037E-03     349.691E-03    -174.654E-03     720.843E-06    -141.145E+06    -147.578E+06    -328.055E+06    -146.268E+06    -328.035E+06    -142.476E+06     1.22135E+06         50.3410
              24     1.78652E-06     76.0258E-03     816.428E-03     644.710E-03        -1.43503     815.568E-03        -1.43417     644.710E-03    -87.8546E-03     349.622E-03    -173.377E-03    -176.245E-03    -175.004E-03     349.622E-03    -174.617E-03    -758.157E-06    -146.075E+06    -151.641E+06    -338.674E+06    -149.022E+06    -338.631E+06    -148.737E+06    -1.22454E+06         50.2975
              25    -3.83296E-06     74.6101E-03     863.221E-03     771.071E-03        -1.60744     862.547E-03        -1.60676     771.071E-03    -80.9580E-03     349.373E-03    -173.681E-03    -175.692E-03    -174.451E-03     349.373E-03    -174.922E-03    -775.498E-06    -149.494E+06    -154.538E+06    -342.473E+06    -152.457E+06    -342.414E+06    -151.634E+06    -467.708E+03         50.3070
              26     5.10427E-06     73.1896E-03     897.726E-03     854.686E-03        -1.72603     880.523E-03        -1.72540     871.262E-03    -80.6284E-03     350.006E-03    -174.498E-03    -175.508E-03    -175.507E-03     350.006E-03    -174.498E-03    -13.8179E-06    -147.840E+06    -150.915E+06    -340.989E+06    -148.803E+06    -340.961E+06    -149.979E+06     605.739E+03         50.3155
              27    -4.68724E-06     71.7732E-03     941.707E-03     868.951E-03        -1.78734     868.386E-03        -1.78677     941.707E-03    -76.7219E-03     349.172E-03    -174.094E-03    -175.078E-03    -174.333E-03     349.172E-03    -174.839E-03     171.370E-06    -149.673E+06    -152.636E+06    -341.530E+06    -150.616E+06    -341.523E+06    -151.701E+06    -970.009E+03         50.3234
              28     3.41652E-06     70.3585E-03     979.948E-03     824.136E-03        -1.78624     823.712E-03        -1.78582     979.948E-03    -66.5274E-03     350.691E-03    -174.496E-03    -176.195E-03    -175.450E-03     350.691E-03    -175.241E-03    -24.1617E-06    -151.408E+06    -154.166E+06    -344.304E+06    -152.138E+06    -344.304E+06    -153.436E+06    -76.4017E+03         50.3311
              29    -1.79980E-06     68.9367E-03     990.713E-03     751.799E-03        -1.73350     751.409E-03        -1.73311     990.713E-03    -62.1803E-03     351.632E-03    -174.560E-03    -177.072E-03    -177.070E-03     351.629E-03    -174.560E-03    -1.32313E-03    -150.364E+06    -152.217E+06    -344.125E+06    -152.218E+06    -344.124E+06    -150.364E+06     369.920E+03         50.3388
              30     4.42781E-06     67.5173E-03     964.068E-03     656.732E-03        -1.62263     656.403E-03        -1.62230     964.068E-03    -54.7950E-03     349.502E-03    -172.617E-03    -176.885E-03    -176.883E-03     349.500E-03    -172.617E-03    -1.35142E-03    -149.354E+06    -151.855E+06    -342.725E+06    -150.479E+06    -342.723E+06    -150.732E+06     29.0331E+03         50.3468
              31     116.983E-09     66.1023E-03     909.528E-03     541.457E-03        -1.46413     541.154E-03        -1.46383     909.528E-03    -49.2848E-03     348.461E-03    -172.595E-03    -175.865E-03    -175.304E-03     348.460E-03    -173.156E-03     1.07659E-03    -146.572E+06    -149.186E+06    -341.314E+06    -147.814E+06    -341.309E+06    -147.950E+06     378.598E+03         50.3551
              32    -1.03546E-06     64.6863E-03     828.267E-03     407.587E-03        -1.26225     407.324E-03        -1.26199     828.267E-03    -41.9534E-03     349.548E-03    -174.071E-03    -175.476E-03    -174.914E-03     349.546E-03    -174.632E-03    -156.689E-06    -145.973E+06    -147.996E+06    -340.714E+06    -148.006E+06    -340.703E+06    -145.973E+06    -113.792E+03         50.3634
              33     2.46429E-06     63.2692E-03     716.893E-03     253.312E-03        -1.01108     253.031E-03        -1.01080     716.893E-03    -37.1680E-03     350.806E-03    -174.513E-03    -176.294E-03    -176.292E-03     350.805E-03    -174.513E-03    -13.5849E-06    -147.238E+06    -150.766E+06    -341.529E+06    -148.031E+06    -341.522E+06    -149.980E+06    -446.772E+03         50.3710
              34    -915.014E-09     61.8474E-03     585.950E-03     89.5028E-03    -731.866E-03     89.2888E-03    -731.652E-03     585.950E-03    -26.3039E-03     350.387E-03    -174.627E-03    -175.761E-03    -175.758E-03     350.385E-03    -174.627E-03    -330.060E-06    -146.432E+06    -153.099E+06    -339.840E+06    -150.361E+06    -339.836E+06    -149.174E+06     813.372E+03         50.3776
              35     1.29389E-06     60.4332E-03     440.450E-03    -77.6889E-03    -435.283E-03    -77.7429E-03    -435.229E-03     440.450E-03    -8.44324E-03     349.631E-03    -174.605E-03    -175.026E-03    -174.800E-03     349.628E-03    -174.828E-03    -5.82857E-06    -145.542E+06    -154.945E+06    -339.187E+06    -149.472E+06    -339.182E+06    -151.020E+06     128.657E+03         50.3837
              36    -1.72169E-06     59.0130E-03     290.061E-03    -75.4035E-03    -304.168E-03    -244.701E-03    -134.870E-03     290.061E-03     5.61334E-03     349.809E-03    -174.780E-03    -175.029E-03    -174.777E-03     349.806E-03    -175.029E-03    -124.476E-06    -143.093E+06    -154.159E+06    -338.435E+06    -148.688E+06    -338.428E+06    -148.570E+06     296.349E+03         50.3903
              37     1.74336E-06     57.5982E-03     264.689E-03     34.8283E-03    -406.133E-03    -405.849E-03     163.551E-03     135.682E-03     25.2483E-03     349.483E-03    -174.632E-03    -174.852E-03    -174.629E-03     349.481E-03    -174.852E-03    -606.613E-06    -143.834E+06    -155.330E+06    -339.270E+06    -149.449E+06    -339.244E+06    -149.741E+06    -785.396E+03         50.3981
              38    -2.12741E-06     56.1802E-03     450.985E-03    -12.8731E-03    -560.627E-03    -560.108E-03     450.466E-03    -12.8731E-03     45.7723E-03     349.158E-03    -174.206E-03    -174.952E-03    -174.205E-03     349.157E-03    -174.952E-03    -141.537E-06    -146.980E+06    -156.213E+06    -338.555E+06    -150.412E+06    -338.448E+06    -152.887E+06     1.31971E+06         50.4075
              39     1.24356E-06     54.7636E-03     711.127E-03    -151.125E-03    -698.758E-03    -698.020E-03     710.389E-03    -151.125E-03     64.4073E-03     349.884E-03    -173.640E-03    -176.244E-03    -175.691E-03     349.883E-03    -174.192E-03    -909.584E-06    -147.159E+06    -151.281E+06    -332.707E+06    -150.601E+06    -332.591E+06    -147.955E+06     1.08317E+06         50.4179
              40     2.20073E-06     53.3470E-03     942.567E-03    -275.448E-03    -819.309E-03    -818.390E-03     941.648E-03    -275.448E-03     80.4000E-03     350.958E-03    -174.438E-03    -176.520E-03    -176.520E-03     350.958E-03    -174.438E-03     198.034E-06    -148.784E+06    -150.097E+06    -334.488E+06    -148.816E+06    -334.457E+06    -150.097E+06    -1.51960E+06         50.4284
              41    -2.14753E-06     51.9250E-03         1.12916    -377.450E-03    -913.265E-03    -912.393E-03         1.12829    -377.450E-03     84.1839E-03     350.384E-03    -174.941E-03    -175.443E-03    -174.971E-03     350.383E-03    -175.413E-03    -552.132E-06    -149.237E+06    -149.763E+06    -337.681E+06    -149.247E+06    -337.681E+06    -149.754E+06     347.727E+03         50.4388
              42     1.36058E-06     50.5078E-03         1.26865    -461.036E-03    -978.647E-03    -977.934E-03         1.26794    -461.036E-03     79.8025E-03     348.889E-03    -174.145E-03    -174.744E-03    -174.144E-03     348.889E-03    -174.744E-03    -372.839E-06    -147.453E+06    -147.628E+06    -336.137E+06    -147.463E+06    -336.136E+06    -147.618E+06    -73.5354E+03         50.4495
              43    -1.56908E-06     49.0952E-03         1.35901    -522.209E-03        -1.01468        -1.01406         1.35839    -522.209E-03     76.3880E-03     348.844E-03    -174.329E-03    -174.515E-03    -174.386E-03     348.843E-03    -174.457E-03    -793.649E-06    -148.476E+06    -148.943E+06    -337.462E+06    -148.477E+06    -337.461E+06    -148.943E+06    -54.3180E+03         50.4608
              44     1.66467E-06     47.6771E-03         1.39339    -558.010E-03        -1.01739        -1.01680         1.39279    -558.010E-03     75.6874E-03     350.131E-03    -174.100E-03    -176.031E-03    -176.030E-03     350.129E-03    -174.100E-03    -531.234E-06    -149.256E+06    -151.433E+06    -338.530E+06    -151.131E+06    -338.530E+06    -149.558E+06     357.006E+03         50.4721
              45     1.51031E-06     46.2562E-03         1.36858    -566.889E-03    -987.061E-03    -986.524E-03         1.36804    -566.889E-03     71.0930E-03     350.513E-03    -174.180E-03    -176.334E-03    -176.053E-03     350.513E-03    -174.460E-03     570.520E-06    -149.018E+06    -152.785E+06    -339.413E+06    -150.900E+06    -339.406E+06    -150.910E+06    -643.422E+03         50.4822
              46    -1.99563E-06     44.8404E-03         1.28283    -550.087E-03    -916.829E-03    -916.362E-03         1.28236    -550.087E-03     64.1412E-03     350.485E-03    -174.660E-03    -175.825E-03    -175.544E-03     350.485E-03    -174.941E-03    -130.242E-06    -146.600E+06    -149.396E+06    -338.075E+06    -147.518E+06    -338.060E+06    -148.492E+06     47.9956E+03         50.4900
              47     3.49688E-06     43.4204E-03         1.13960    -511.626E-03    -809.240E-03    -808.719E-03         1.13908    -511.626E-03     63.3081E-03     350.967E-03    -174.744E-03    -176.224E-03    -176.223E-03     350.967E-03    -174.744E-03    -233.418E-06    -147.479E+06    -149.317E+06    -337.925E+06    -148.405E+06    -337.902E+06    -148.413E+06    -331.306E+03         50.4953
              48    -2.50162E-06     42.0022E-03     942.703E-03    -450.891E-03    -667.851E-03    -667.096E-03     941.947E-03    -450.891E-03     68.7818E-03     350.152E-03    -174.415E-03    -175.737E-03    -175.011E-03     350.152E-03    -175.141E-03    -532.087E-06    -148.562E+06    -150.697E+06    -340.019E+06    -148.591E+06    -339.989E+06    -150.697E+06     10.6976E+03         50.4985
              49     1.27385E-06     40.5849E-03     709.606E-03    -375.781E-03    -502.204E-03    -501.211E-03     708.614E-03    -375.781E-03     68.7787E-03     349.333E-03    -173.385E-03    -175.948E-03    -175.221E-03     349.333E-03    -174.112E-03    -994.554E-06    -149.122E+06    -152.903E+06    -341.200E+06    -151.730E+06    -341.172E+06    -150.324E+06     87.1205E+03         50.5008
              50     1.84644E-06     39.1671E-03     448.981E-03    -276.340E-03    -332.797E-03    -314.151E-03     447.369E-03    -293.374E-03     66.3498E-03     348.752E-03    -173.214E-03    -175.538E-03    -175.049E-03     348.751E-03    -173.702E-03     517.239E-06    -147.262E+06    -152.416E+06    -338.710E+06    -149.884E+06    -338.667E+06    -149.836E+06     572.190E+03         50.5034
              51    -2.68720E-06     37.7532E-03     176.641E-03    -126.172E-03    -199.847E-03    -110.581E-03     161.051E-03    -199.847E-03     71.4872E-03     349.700E-03    -174.462E-03    -175.239E-03    -174.749E-03     349.699E-03    -174.949E-03     358.501E-06    -142.023E+06    -147.411E+06    -333.199E+06    -144.871E+06    -333.164E+06    -144.598E+06     1.01475E+06         50.5070
              52     3.20855E-06     36.3345E-03     130.211E-03    -37.7307E-03    -230.623E-03     104.763E-03    -148.534E-03    -94.3716E-03     66.2460E-03     350.838E-03    -174.414E-03    -176.424E-03    -176.423E-03     350.837E-03    -174.414E-03    -963.248E-06    -147.972E+06    -151.612E+06    -336.938E+06    -150.807E+06    -336.916E+06    -148.799E+06    -1.93023E+06         50.5122
              53    -320.121E-09     34.9135E-03     327.546E-03     14.7693E-03    -470.023E-03     326.552E-03    -469.030E-03     14.7693E-03     50.5761E-03     349.773E-03    -173.922E-03    -175.851E-03    -175.643E-03     349.773E-03    -174.130E-03     374.728E-06    -152.475E+06    -153.619E+06    -341.231E+06    -152.509E+06    -341.197E+06    -153.619E+06     21.3165E+03         50.5188
              54    -23.1543E-09     33.4992E-03     541.224E-03     122.209E-03    -781.056E-03     540.908E-03    -780.740E-03     122.209E-03     38.4841E-03     349.592E-03    -174.573E-03    -175.019E-03    -174.572E-03     349.592E-03    -175.019E-03     181.600E-06    -150.263E+06    -150.670E+06    -340.463E+06    -150.286E+06    -340.440E+06    -150.670E+06      517.35E+03         50.5257
              55    -371.302E-09     32.0813E-03     742.072E-03     228.381E-03        -1.07909     741.966E-03        -1.07899     228.381E-03     25.7773E-03     350.286E-03    -174.291E-03    -175.996E-03    -175.757E-03     350.286E-03    -174.529E-03    -1.12695E-03    -148.975E+06    -149.925E+06    -340.608E+06    -148.984E+06    -340.599E+06    -149.925E+06    -265.212E+03         50.5308
              56     2.82857E-06     30.6630E-03     922.072E-03     329.266E-03        -1.35361     922.040E-03        -1.35358     329.266E-03     2.40646E-03     349.510E-03    -173.823E-03    -175.687E-03    -175.289E-03     349.509E-03    -174.221E-03    -209.238E-06    -149.730E+06    -151.120E+06    -340.717E+06    -149.738E+06    -340.710E+06    -151.120E+06    -201.240E+03         50.5306
              57    -3.49614E-06     29.2453E-03         1.07382     417.090E-03        -1.58650         1.07378        -1.58646     417.090E-03    -21.5613E-03     348.301E-03    -173.521E-03    -174.779E-03    -173.521E-03     348.300E-03    -174.779E-03    -58.5358E-06    -150.056E+06    -151.543E+06    -340.169E+06    -151.031E+06    -340.151E+06    -150.586E+06     372.939E+03         50.5206
              58     2.06616E-06     27.8337E-03         1.19004     491.845E-03        -1.77064         1.18991        -1.77052     491.845E-03    -37.6387E-03     349.034E-03    -173.401E-03    -175.634E-03    -174.773E-03     349.034E-03    -174.261E-03    -532.817E-06    -147.144E+06    -149.779E+06    -338.956E+06    -148.125E+06    -338.931E+06    -148.822E+06    -22.4524E+03         50.4946
              59     229.140E-09     26.4130E-03         1.26819     556.734E-03        -1.90859         1.26794        -1.90835     556.734E-03    -55.2421E-03     350.159E-03    -173.424E-03    -176.735E-03    -176.735E-03     350.159E-03    -173.424E-03    -419.658E-06    -146.074E+06    -149.894E+06    -338.878E+06    -148.263E+06    -338.832E+06    -147.752E+06     697.318E+03         50.4431
              60     3.05559E-06     24.9970E-03         1.30784     603.237E-03        -1.99347         1.30755        -1.99318     603.237E-03    -61.2559E-03     349.816E-03    -173.848E-03    -175.968E-03    -175.968E-03     349.816E-03    -173.848E-03    -241.168E-06    -145.117E+06    -149.300E+06    -333.539E+06    -147.294E+06    -333.504E+06    -147.158E+06     1.91883E+06         50.3515
              61    -2.76549E-06     23.5795E-03         1.29844     634.239E-03        -2.01912         1.29819        -2.01888     634.239E-03    -56.6921E-03     347.975E-03    -172.312E-03    -175.664E-03    -172.494E-03     347.975E-03    -175.481E-03    -212.850E-06    -146.411E+06    -149.656E+06    -331.147E+06    -147.648E+06    -331.114E+06    -148.452E+06    -1.61357E+06         50.1988
              62    -2.54624E-06     22.1654E-03         1.24885     650.538E-03        -1.98835         1.24865        -1.98815     650.538E-03    -50.7754E-03     346.647E-03    -170.691E-03    -175.957E-03    -172.786E-03     346.646E-03    -173.860E-03    -1.54305E-03    -147.763E+06    -151.246E+06    -334.611E+06    -149.027E+06    -334.551E+06    -150.042E+06    -144.192E+03         49.9576
              63     6.04689E-06     20.7531E-03         1.16216     646.388E-03        -1.90103         1.16203        -1.90090     646.388E-03    -39.3156E-03     344.492E-03    -170.596E-03    -173.896E-03    -173.895E-03     344.491E-03    -170.596E-03    -1.32416E-03    -148.214E+06    -154.537E+06    -334.517E+06    -152.290E+06    -334.484E+06    -150.493E+06     897.639E+03         49.5972
              64    -3.96901E-06     19.3469E-03         1.04017     622.722E-03        -1.76452         1.04011        -1.76446     622.722E-03    -26.1334E-03     340.045E-03    -168.931E-03    -171.114E-03    -170.134E-03     340.044E-03    -169.910E-03    -1.13302E-03    -148.323E+06    -155.438E+06    -333.371E+06    -152.374E+06    -333.364E+06    -151.394E+06    -329.582E+03         49.0917
              65     2.28088E-06     17.9449E-03     899.267E-03     575.870E-03        -1.58756     899.234E-03        -1.58753     575.870E-03    -18.1450E-03     334.632E-03    -166.036E-03    -168.596E-03    -167.611E-03     334.626E-03    -167.015E-03    -3.13149E-03    -143.532E+06    -148.609E+06    -332.276E+06    -145.540E+06    -332.274E+06    -146.603E+06     639.512E+03         48.4311
              66     419.868E-09     16.5546E-03     737.281E-03     506.889E-03        -1.36785     737.261E-03        -1.36783     506.889E-03    -13.1001E-03     324.680E-03    -161.483E-03    -163.198E-03    -163.189E-03     324.672E-03    -161.483E-03    -4.00348E-03    -144.078E+06    -147.468E+06    -331.987E+06    -146.097E+06    -331.974E+06    -145.462E+06    -767.431E+03         47.6355
              67    -207.261E-09     15.1797E-03     564.616E-03     411.800E-03        -1.11318     564.599E-03        -1.11317     411.800E-03    -10.4914E-03     309.263E-03    -154.317E-03    -154.947E-03    -154.926E-03     309.243E-03    -154.317E-03    -5.72068E-03    -150.559E+06    -152.599E+06    -335.119E+06    -151.227E+06    -335.107E+06    -151.943E+06    -1.16371E+06         46.7675
              68     1.05495E-06     13.8323E-03     392.443E-03     297.896E-03    -840.229E-03     392.425E-03    -840.211E-03     297.896E-03    -9.44838E-03     289.742E-03    -144.470E-03    -145.271E-03    -145.235E-03     289.706E-03    -144.470E-03    -7.90742E-03    -149.306E+06    -150.336E+06    -334.771E+06    -149.982E+06    -334.752E+06    -149.680E+06     1.21173E+06         45.9337
              69    -558.428E-09     12.5126E-03     224.497E-03     172.223E-03    -559.370E-03     224.467E-03    -559.340E-03     172.223E-03    -8.98328E-03     267.038E-03    -133.163E-03    -133.875E-03    -133.415E-03     266.986E-03    -133.571E-03    -8.97994E-03    -146.350E+06    -147.782E+06    -329.203E+06    -146.370E+06    -329.182E+06    -147.782E+06     1.70596E+06         45.2723
              70    -218.168E-09     11.2218E-03     67.1642E-03     38.9422E-03    -281.983E-03     67.1302E-03    -281.949E-03     38.9422E-03    -6.79725E-03     243.412E-03    -121.035E-03    -122.378E-03    -121.906E-03     243.350E-03    -121.443E-03    -9.56724E-03    -155.129E+06    -157.507E+06    -328.055E+06    -156.453E+06    -328.050E+06    -156.187E+06    -86.2779E+03         44.9281
              71     1.85548E-06     9.96369E-03     52.0308E-03    -88.4323E-03    -151.127E-03    -79.1817E-03    -16.7508E-03    -91.5959E-03    -8.90986E-03     224.069E-03    -111.495E-03    -112.574E-03    -112.385E-03     224.024E-03    -111.639E-03    -7.72257E-03    -160.515E+06    -163.404E+06    -324.855E+06    -161.862E+06    -324.829E+06    -162.084E+06     932.312E+03         45.0206
              72    -2.16543E-06     8.72744E-03     234.613E-03    -212.681E-03    -220.055E-03    -212.573E-03     234.505E-03    -220.055E-03    -10.9603E-03     219.135E-03    -109.345E-03    -109.790E-03    -109.630E-03     219.119E-03    -109.489E-03    -4.01009E-03    -161.753E+06    -165.410E+06    -321.206E+06    -163.869E+06    -321.179E+06    -163.322E+06     1.88501E+06         45.6241
              73     2.74748E-06     7.47875E-03     465.237E-03    -333.960E-03    -339.598E-03    -335.362E-03     465.211E-03    -338.171E-03    -9.00507E-03     237.983E-03    -118.659E-03    -119.324E-03    -119.304E-03     237.963E-03    -118.659E-03     2.86471E-03    -163.158E+06    -166.753E+06    -321.473E+06    -165.328E+06    -321.391E+06    -164.664E+06    -2.01636E+06         46.7694
              74    -2.01089E-06     6.19802E-03     679.367E-03    -447.547E-03    -450.029E-03    -448.930E-03     679.324E-03    -448.602E-03    -13.9493E-03     287.466E-03    -143.369E-03    -144.097E-03    -144.028E-03     287.398E-03    -143.369E-03     10.7072E-03    -150.486E+06    -152.763E+06    -326.964E+06    -150.585E+06    -326.865E+06    -152.763E+06    -1.12097E+06         48.4534
              75     2.89004E-06     4.82214E-03     876.712E-03    -549.990E-03    -553.440E-03    -549.940E-03     876.662E-03    -553.440E-03    -16.5521E-03     363.000E-03    -180.484E-03    -182.516E-03    -182.401E-03     362.885E-03    -180.484E-03     15.8188E-03    -121.164E+06    -122.405E+06    -323.084E+06    -121.697E+06    -323.022E+06    -121.934E+06     3.50158E+06         50.6313
              76     50.5084E-09     3.31975E-03         1.03736    -634.334E-03    -638.285E-03    -635.850E-03         1.03732    -636.730E-03    -16.3048E-03     442.506E-03    -219.645E-03    -222.861E-03    -221.200E-03     442.394E-03    -221.194E-03     17.1444E-03    -93.2903E+06    -93.8251E+06    -306.451E+06    -93.8734E+06    -306.403E+06    -93.2903E+06     1.31993E+06         53.1726
              77    -2.37719E-06     1.70344E-03         1.14895    -693.478E-03    -697.023E-03    -695.005E-03         1.14892    -695.468E-03    -14.1305E-03     504.758E-03    -251.566E-03    -253.193E-03    -251.591E-03     504.705E-03    -253.114E-03     11.2011E-03    -77.7203E+06    -78.5220E+06    -293.782E+06    -78.6013E+06    -293.702E+06    -77.7203E+06     2.02215E+06         55.8597
              78     761.583E-06     208.167E-18         1.18468    -711.073E-03    -716.665E-03    -711.065E-03         1.18467    -716.665E-03    -6.74270E-03     525.238E-03    -261.420E-03    -263.818E-03    -261.450E-03     525.189E-03    -263.739E-03     11.0662E-03    -70.2190E+06    -71.9424E+06    -287.258E+06    -72.0160E+06    -287.185E+06    -70.2190E+06     2.88450E+06         57.1451
              79     1.52962E-03     208.167E-18         1.16752    -699.721E-03    -711.131E-03    -699.720E-03         1.16752    -711.131E-03    -2.86841E-03     513.118E-03    -252.475E-03    -260.643E-03    -252.354E-03     512.998E-03    -260.643E-03     18.9919E-03    -68.0482E+06    -71.9056E+06    -285.976E+06    -71.9463E+06    -285.935E+06    -68.0482E+06     2.14910E+06         56.9650
              80     2.30979E-03     208.167E-18         1.14376    -682.722E-03    -704.689E-03    -682.720E-03         1.14375    -704.689E-03    -3.73084E-03     495.321E-03    -239.428E-03    -255.893E-03    -239.249E-03     495.142E-03    -255.893E-03     22.8588E-03    -65.9615E+06    -72.6615E+06    -272.472E+06    -72.7116E+06    -272.422E+06    -65.9615E+06     3.02097E+06         56.6888
              81     3.09999E-03     208.167E-18         1.11111    -659.311E-03    -696.391E-03    -659.310E-03         1.11111    -696.391E-03    -2.26651E-03     472.825E-03    -223.044E-03    -249.781E-03    -222.787E-03     472.568E-03    -249.781E-03     26.5529E-03    -63.7114E+06    -71.8386E+06    -241.443E+06    -71.8514E+06    -241.430E+06    -63.7114E+06     443.353E+03         56.3419
              82     3.90517E-03     208.167E-18         1.07021    -630.225E-03    -686.028E-03    -630.224E-03         1.07021    -686.028E-03    -1.70396E-03     447.865E-03    -205.249E-03    -242.617E-03    -204.906E-03     447.523E-03    -242.617E-03     29.8559E-03    -60.4091E+06    -69.4838E+06    -204.830E+06    -69.5057E+06    -204.808E+06    -60.4091E+06    -1.54549E+06         55.9673
              83     4.72707E-03     208.167E-18         1.02243    -596.538E-03    -673.669E-03    -596.537E-03         1.02243    -673.669E-03    -2.14980E-03     422.382E-03    -187.587E-03    -234.795E-03    -187.206E-03     422.000E-03    -234.795E-03     30.4919E-03    -55.1398E+06    -64.7972E+06    -160.600E+06    -65.0113E+06    -160.386E+06    -55.1398E+06    -3.72200E+06         55.6305
              84     5.56319E-03     208.167E-18     966.534E-03    -556.729E-03    -659.334E-03    -556.729E-03     966.534E-03    -659.334E-03    -994.970E-06     397.407E-03    -170.760E-03    -226.648E-03    -170.348E-03     396.995E-03    -226.648E-03     30.5544E-03    -47.8305E+06    -56.1509E+06    -103.869E+06    -58.0121E+06    -102.008E+06    -47.8305E+06    -6.59906E+06         55.4248
              85     6.41329E-03     208.167E-18     901.447E-03    -509.802E-03    -642.866E-03    -509.801E-03     901.445E-03    -642.866E-03     1.73624E-03     374.104E-03    -155.621E-03    -218.483E-03    -155.171E-03     373.654E-03    -218.483E-03     30.8551E-03    -30.9776E+06    -39.9579E+06    -58.9201E+06    -49.2218E+06    -44.1155E+06    -36.5183E+06    -6.36904E+06         55.4727
              86     7.27529E-03     208.167E-18     827.105E-03    -455.902E-03    -624.127E-03    -455.900E-03     827.104E-03    -624.127E-03     2.42356E-03     352.749E-03    -142.198E-03    -210.551E-03    -141.742E-03     352.293E-03    -210.551E-03     30.0347E-03    -13.8723E+06    -22.0421E+06    -41.3212E+06    -40.6799E+06    -14.5136E+06    -22.0421E+06    -4.04058E+06         55.9234
              87     8.14995E-03     208.167E-18     742.850E-03    -394.673E-03    -603.030E-03    -394.673E-03     742.850E-03    -603.030E-03     818.968E-06     334.266E-03    -131.286E-03    -202.980E-03    -130.841E-03     333.821E-03    -202.980E-03     28.7729E-03    -7.29460E+06    -10.4469E+06    -34.5274E+06    -34.3276E+06    -7.49439E+06    -10.4469E+06    -2.02134E+06         56.9363
              88     9.03315E-03     208.167E-18     649.592E-03    -327.086E-03    -579.583E-03    -327.085E-03     649.592E-03    -579.583E-03    -286.805E-06     320.283E-03    -124.324E-03    -195.959E-03    -123.866E-03     319.826E-03    -195.959E-03     28.4945E-03    -420.074E+03    -3.24505E+06    -29.3180E+06    -29.2460E+06    -2.79378E+06     -943.31E+03    -1.30250E+06         58.6464
              89     9.91775E-03     208.167E-18     548.963E-03    -254.599E-03    -553.941E-03    -254.597E-03     548.961E-03    -553.941E-03    -2.18794E-03     310.289E-03    -120.585E-03    -189.704E-03    -120.101E-03     309.806E-03    -189.704E-03     28.8506E-03     13.6335E+06     2.26960E+06    -24.8002E+06    -24.7397E+06     2.20914E+06     13.6335E+06    -1.04606E+06         61.1142
              90     10.8078E-03     208.167E-18     443.276E-03    -179.202E-03    -526.363E-03    -179.200E-03     443.274E-03    -526.363E-03    -2.04675E-03     303.537E-03    -119.258E-03    -184.280E-03    -118.764E-03     303.044E-03    -184.280E-03     28.8650E-03     32.7581E+06     3.43927E+06    -20.2455E+06    -20.2363E+06     3.43010E+06     32.7581E+06    -433.550E+03         64.2688
              91     11.6959E-03     208.167E-18     334.018E-03    -101.925E-03    -497.201E-03    -101.920E-03     334.013E-03    -497.201E-03    -2.35718E-03     304.022E-03    -124.242E-03    -179.780E-03    -123.846E-03     303.626E-03    -179.780E-03     25.8150E-03     49.1584E+06     11.0783E+06    -15.9223E+06    -15.9138E+06     11.0698E+06     49.1584E+06    -422.065E+03         67.8618
              92     12.5890E-03     208.167E-18     222.024E-03    -23.1604E-03    -466.939E-03    -23.1476E-03     222.011E-03    -466.939E-03    -3.35155E-03     320.628E-03    -143.909E-03    -176.719E-03    -143.206E-03     319.925E-03    -176.719E-03     34.7857E-03     64.6090E+06     28.5570E+06    -14.4149E+06    -13.7235E+06     27.8656E+06     64.6090E+06     4.00469E+06         71.4724
              93     13.4193E-03     208.167E-18     128.432E-03     36.4738E-03    -436.278E-03     53.7170E-03     111.189E-03    -436.278E-03    -3.84318E-03     358.906E-03    -167.392E-03    -191.514E-03    -180.597E-03     356.525E-03    -175.928E-03     69.6433E-03     95.8532E+06     41.9751E+06    -15.9512E+06    -13.8439E+06     39.8678E+06     95.8532E+06     10.7596E+06         74.6229
              94     14.2296E-03     208.167E-18     128.884E-03     2.49855E-03    -406.275E-03     128.761E-03     2.62142E-03    -406.275E-03    -6.83890E-03     491.261E-03    -179.409E-03    -311.851E-03    -301.721E-03     481.130E-03    -179.409E-03     175.122E-03     147.988E+06     56.5059E+06    -5.19947E+06    -3.73502E+06     55.0415E+06     147.988E+06     5.41721E+06         76.8758
              95     14.9878E-03     2.07154E-03     159.915E-03    -55.4233E-03    -378.885E-03     159.404E-03    -54.9127E-03    -378.885E-03    -18.5589E-03     530.030E-03    -181.370E-03    -348.660E-03    -326.930E-03     508.300E-03    -181.370E-03     267.362E-03     167.579E+06     61.8287E+06    -3.97412E+06    -3.70508E+06     61.5597E+06     167.579E+06     1.64678E+06         77.3046
              96     15.0763E-03     3.45520E-03     151.828E-03    -75.6626E-03    -345.584E-03     151.231E-03    -75.0659E-03    -345.584E-03    -22.0476E-03     416.399E-03    -179.259E-03    -237.140E-03    -212.648E-03     391.907E-03    -179.259E-03     248.193E-03     158.398E+06     65.4757E+06    -8.35700E+06    -8.12875E+06     65.2475E+06     158.398E+06     3.31437E+06         76.8632
              97     15.0974E-03     4.78996E-03     150.718E-03    -116.819E-03    -296.081E-03     150.562E-03    -116.663E-03    -296.081E-03    -11.6708E-03     377.463E-03    -177.145E-03    -200.317E-03    -185.474E-03     362.620E-03    -177.145E-03     175.987E-03     153.202E+06     69.2199E+06    -4.55958E+06    -4.54151E+06     69.2019E+06     153.202E+06     1.13948E+06         76.8936
              98     15.1191E-03     6.27071E-03     147.872E-03    -167.612E-03    -230.413E-03     147.849E-03    -167.589E-03    -230.413E-03    -4.45275E-03     386.291E-03    -175.347E-03    -210.943E-03    -203.346E-03     378.693E-03    -175.347E-03     133.861E-03     149.039E+06     67.7313E+06    -3.98898E+06    -3.96597E+06     67.7083E+06     149.039E+06     18.6763E+03         76.9422
              99     15.1243E-03     7.71506E-03     141.997E-03    -150.508E-03    -224.761E-03     141.996E-03    -224.759E-03    -150.508E-03    -266.560E-06     393.237E-03    -174.500E-03    -218.737E-03    -211.899E-03     386.398E-03    -174.500E-03     128.378E-03     149.507E+06     67.3464E+06    -3.49464E+06    -3.48228E+06     67.3340E+06     149.507E+06    -828.426E+03         76.8813
             100     15.1277E-03     9.21527E-03     135.459E-03    -59.6444E-03    -289.471E-03     135.452E-03    -289.464E-03    -59.6444E-03     2.91053E-03     397.697E-03    -174.174E-03    -223.523E-03    -217.053E-03     391.227E-03    -174.174E-03     126.067E-03     149.163E+06     65.2082E+06    -4.89007E+06    -4.88337E+06     65.2014E+06     149.163E+06    -637.879E+03         76.7145
             101     15.1265E-03     10.6816E-03     127.533E-03     38.2061E-03    -358.774E-03     127.522E-03    -358.763E-03     38.2061E-03     4.61421E-03     397.646E-03    -174.155E-03    -223.492E-03    -216.475E-03     390.630E-03    -174.155E-03     131.280E-03     150.405E+06     65.8915E+06    -3.93405E+06    -3.92577E+06     65.8832E+06     150.405E+06    -137.266E+03         76.4715
             102     15.1282E-03     12.1662E-03     156.449E-03     102.326E-03    -430.896E-03     119.868E-03    -430.885E-03     138.895E-03     4.96186E-03     396.444E-03    -174.211E-03    -222.233E-03    -214.754E-03     388.965E-03    -174.211E-03     135.182E-03     150.378E+06     65.2681E+06    -4.59442E+06    -4.59002E+06     65.2637E+06     150.378E+06     551.509E+03         76.1855
             103     15.1258E-03     13.6325E-03     238.549E-03     111.326E-03    -501.858E-03     111.314E-03    -501.847E-03     238.549E-03     5.21584E-03     393.092E-03    -174.314E-03    -218.777E-03    -210.810E-03     385.125E-03    -174.314E-03     138.712E-03     151.047E+06     65.4955E+06    -4.44863E+06    -4.44487E+06     65.4917E+06     151.047E+06     512.784E+03         75.8847
             104     15.1296E-03     15.0945E-03     333.639E-03     103.673E-03    -568.373E-03     103.660E-03    -568.360E-03     333.639E-03     5.89572E-03     387.683E-03    -174.412E-03    -213.270E-03    -204.969E-03     379.381E-03    -174.412E-03     140.269E-03     151.562E+06     66.0891E+06    -4.27251E+06    -4.25646E+06     66.0731E+06     151.562E+06    -436.747E+03         75.6015
             105     15.1282E-03     16.5442E-03     420.742E-03     96.2224E-03    -628.007E-03     96.2067E-03    -627.991E-03     420.742E-03     6.73711E-03     382.175E-03    -174.550E-03    -207.625E-03    -199.477E-03     374.026E-03    -174.550E-03     137.671E-03     151.860E+06     66.5576E+06    -3.94137E+06    -3.92592E+06     66.5421E+06     151.860E+06    -478.827E+03         75.3616
             106     15.1275E-03     17.9867E-03     496.690E-03     88.5514E-03    -677.949E-03     88.5322E-03    -677.930E-03     496.690E-03     7.65165E-03     375.309E-03    -174.761E-03    -200.548E-03    -192.665E-03     367.426E-03    -174.761E-03     133.818E-03     150.758E+06     66.0067E+06    -4.41660E+06    -4.41516E+06     66.0052E+06     150.758E+06     247.544E+03         75.1820
             107     15.1282E-03     19.4137E-03     558.627E-03     82.8151E-03    -717.843E-03     82.7944E-03    -717.822E-03     558.627E-03     8.13094E-03     368.024E-03    -174.943E-03    -193.081E-03    -185.574E-03     360.517E-03    -174.943E-03     128.890E-03     149.562E+06     65.9257E+06    -4.40492E+06    -4.40055E+06     65.9214E+06     149.562E+06    -367.815E+03         75.0709
             108     15.1276E-03     20.8326E-03     604.228E-03     77.6050E-03    -746.693E-03     77.5861E-03    -746.674E-03     604.228E-03     7.88554E-03     361.741E-03    -175.070E-03    -186.671E-03    -179.761E-03     354.832E-03    -175.070E-03     122.332E-03     148.686E+06     66.1363E+06    -4.00312E+06    -3.99812E+06     66.1313E+06     148.686E+06    -240.447E+03         75.0202
             109     15.1294E-03     22.2502E-03     632.079E-03     74.5000E-03    -763.151E-03     74.4777E-03    -763.129E-03     632.079E-03     8.63345E-03     359.168E-03    -175.134E-03    -184.034E-03    -177.356E-03     352.490E-03    -175.134E-03     119.706E-03     147.574E+06     65.4751E+06    -4.44705E+06    -4.44623E+06     65.4743E+06     147.574E+06     73.5747E+03         75.0138
             110     15.1263E-03     23.6663E-03     641.284E-03     72.4433E-03    -766.571E-03     72.4201E-03    -766.547E-03     641.284E-03     8.81754E-03     358.482E-03    -175.152E-03    -183.330E-03    -177.083E-03     352.235E-03    -175.152E-03     115.645E-03     147.664E+06     65.9696E+06    -3.98465E+06    -3.97684E+06     65.9618E+06     147.664E+06     440.508E+03         75.0340
             111     15.1297E-03     25.0831E-03     631.721E-03     70.7623E-03    -754.842E-03     70.7358E-03    -754.816E-03     631.721E-03     9.30052E-03     356.279E-03    -175.169E-03    -181.110E-03    -174.961E-03     350.130E-03    -175.169E-03     114.278E-03     147.064E+06     66.0609E+06    -4.17292E+06    -4.16353E+06     66.0515E+06     147.064E+06     270.464E+03         75.0671
             112     15.1283E-03     26.5004E-03     603.879E-03     70.7390E-03    -729.386E-03     70.7070E-03    -729.354E-03     603.879E-03     10.1183E-03     357.306E-03    -175.142E-03    -182.164E-03    -175.917E-03     351.059E-03    -175.142E-03     115.418E-03     146.527E+06      65.599E+06    -5.02114E+06    -5.01869E+06     65.5966E+06     146.527E+06    -405.537E+03         75.1069
             113     15.1277E-03     27.9175E-03     558.720E-03     71.1712E-03    -690.411E-03     71.1393E-03    -690.379E-03     558.720E-03     9.86442E-03     357.918E-03    -175.115E-03    -182.803E-03    -176.746E-03     351.861E-03    -175.115E-03     113.813E-03     146.550E+06     66.0877E+06    -4.81739E+06    -4.80937E+06     66.0797E+06     146.550E+06     350.916E+03         75.1486
             114     15.1302E-03     29.3398E-03     497.838E-03     72.6870E-03    -638.095E-03     72.6497E-03    -638.057E-03     497.838E-03     10.2411E-03     356.033E-03    -175.115E-03    -180.918E-03    -174.671E-03     349.786E-03    -175.115E-03     115.133E-03     147.511E+06     67.7638E+06    -3.52792E+06    -3.52025E+06     67.7562E+06     147.511E+06     621.340E+03         75.1908
             115     15.1295E-03     30.7500E-03     422.962E-03     75.5311E-03    -577.344E-03     75.4870E-03    -577.300E-03     422.962E-03     10.7187E-03     356.358E-03    -175.095E-03    -181.263E-03    -175.186E-03     350.282E-03    -175.095E-03     113.592E-03     147.820E+06     68.3066E+06    -3.50514E+06    -3.50444E+06     68.3059E+06     147.820E+06        -239.984         75.2330
             116     15.1286E-03     32.1687E-03     336.396E-03     80.1095E-03    -510.674E-03     80.0656E-03    -510.630E-03     336.396E-03     10.1782E-03     356.713E-03    -175.098E-03    -181.615E-03    -175.865E-03     350.963E-03    -175.098E-03     110.672E-03     147.316E+06     68.1985E+06    -4.04065E+06    -4.03911E+06     68.1969E+06     147.316E+06    -319.517E+03         75.2729
             117     15.1294E-03     33.5855E-03     241.282E-03     85.7003E-03    -437.723E-03     85.6364E-03    -437.659E-03     241.282E-03     11.3235E-03     356.653E-03    -175.103E-03    -181.550E-03    -175.648E-03     350.751E-03    -175.103E-03     112.099E-03     147.866E+06     68.6269E+06    -4.09739E+06    -4.09616E+06     68.6257E+06     147.866E+06    -167.117E+03         75.3125
             118     15.1291E-03     35.0062E-03     141.922E-03     89.1035E-03    -359.096E-03     89.8937E-03    -359.004E-03     141.040E-03     12.7872E-03     357.303E-03    -175.094E-03    -182.209E-03    -176.239E-03     351.332E-03    -175.094E-03     112.881E-03     148.385E+06     69.2068E+06    -4.05331E+06    -4.05060E+06     69.2041E+06     148.385E+06     353.232E+03         75.3535
             119     15.1287E-03     36.4244E-03     94.8803E-03     39.1682E-03    -279.217E-03     94.7727E-03    -279.109E-03     39.1682E-03     12.6288E-03     357.019E-03    -175.116E-03    -181.903E-03    -176.007E-03     351.124E-03    -175.116E-03     112.116E-03     147.434E+06     68.9554E+06    -4.68417E+06    -4.68122E+06     68.9525E+06     147.434E+06     415.097E+03         75.3944
             120     15.1286E-03     37.8401E-03     100.169E-03    -60.8038E-03    -201.353E-03     100.029E-03    -201.213E-03    -60.8038E-03     12.8620E-03     356.339E-03    -175.138E-03    -181.201E-03    -175.311E-03     350.449E-03    -175.138E-03     111.919E-03     147.719E+06     69.4352E+06    -4.60459E+06    -4.60361E+06     69.4342E+06     147.719E+06    -59.2979E+03         75.4365
             121     15.1292E-03     39.2576E-03     104.110E-03    -99.8302E-03    -181.932E-03     103.910E-03    -126.151E-03    -155.412E-03     13.3658E-03     356.752E-03    -175.126E-03    -181.626E-03    -175.746E-03     350.872E-03    -175.126E-03     111.911E-03     149.093E+06     70.8129E+06    -3.69170E+06    -3.69073E+06     70.8119E+06     149.093E+06    -59.9290E+03         75.4800
             122     15.1283E-03     40.6766E-03     107.943E-03    -57.3983E-03    -241.403E-03     107.635E-03    -57.0900E-03    -241.403E-03     13.9502E-03     357.128E-03    -175.139E-03    -181.989E-03    -176.140E-03     351.278E-03    -175.139E-03     111.699E-03     148.843E+06     70.7250E+06    -4.07201E+06    -4.06482E+06     70.7178E+06     148.843E+06     609.963E+03         75.5223
             123     15.1280E-03     42.0969E-03     111.298E-03     1.88761E-03    -315.937E-03     110.847E-03     2.33884E-03    -315.937E-03     13.7496E-03     356.228E-03    -175.166E-03    -181.063E-03    -175.079E-03     350.245E-03    -175.166E-03     112.761E-03     148.233E+06     70.8507E+06    -4.38142E+06    -4.37438E+06     70.8436E+06     148.233E+06     579.722E+03         75.5638
             124     15.1297E-03     43.5083E-03     114.393E-03     48.8430E-03    -376.504E-03     113.682E-03     49.5548E-03    -376.504E-03     13.0627E-03     355.931E-03    -175.143E-03    -180.787E-03    -174.814E-03     349.957E-03    -175.143E-03     112.608E-03     148.129E+06     71.4517E+06     -4.3529E+06    -4.35239E+06     71.4512E+06     148.129E+06    -48.9415E+03         75.6066
             125     15.1283E-03     44.9288E-03     117.910E-03     83.3633E-03    -420.893E-03     116.011E-03     85.2624E-03    -420.893E-03     13.8575E-03     356.502E-03    -175.115E-03    -181.387E-03    -175.528E-03     350.643E-03    -175.115E-03     111.661E-03     147.970E+06     71.9361E+06    -4.34044E+06    -4.34003E+06     71.9357E+06     147.970E+06    -150.817E+03         75.6497
             126     15.1297E-03     46.3447E-03     122.281E-03     103.864E-03    -447.629E-03     115.597E-03     110.548E-03    -447.629E-03     14.3539E-03     356.468E-03    -175.098E-03    -181.370E-03    -175.430E-03     350.528E-03    -175.098E-03     112.410E-03     148.319E+06     72.8811E+06    -3.87557E+06    -3.87512E+06     72.8806E+06     148.319E+06     96.9703E+03         75.6934
             127     15.1296E-03     47.7634E-03     127.071E-03     109.489E-03    -455.990E-03     113.593E-03     122.968E-03    -455.990E-03     14.6394E-03     356.753E-03    -175.087E-03    -181.666E-03    -175.691E-03     350.778E-03    -175.087E-03     112.809E-03     148.527E+06     73.0769E+06    -4.12408E+06    -4.12296E+06     73.0757E+06     148.527E+06     291.725E+03         75.7383
             128     15.1287E-03     49.1834E-03     125.498E-03     106.260E-03    -445.755E-03     110.547E-03     121.210E-03    -445.755E-03     15.8650E-03     356.510E-03    -175.100E-03    -181.410E-03    -175.500E-03     350.601E-03    -175.100E-03     112.140E-03     148.244E+06     72.8852E+06    -4.73401E+06    -4.73323E+06     72.8844E+06     148.244E+06     105.290E+03         75.7838
             129     15.1300E-03     50.5935E-03     115.005E-03     96.8781E-03    -417.262E-03     106.173E-03     105.710E-03    -417.262E-03     15.7923E-03     356.117E-03    -175.108E-03    -181.008E-03    -175.221E-03     350.329E-03    -175.108E-03     110.903E-03     149.250E+06     73.8243E+06    -4.11355E+06    -4.11343E+06     73.8242E+06     149.250E+06    -94.7713E+03         75.8305
             130     15.1284E-03     52.0175E-03     104.026E-03     74.9366E-03    -371.483E-03     100.998E-03     77.9639E-03    -371.483E-03     15.9380E-03     356.367E-03    -175.101E-03    -181.266E-03    -175.396E-03     350.497E-03    -175.101E-03     111.724E-03     149.092E+06     73.7258E+06    -4.50279E+06    -4.50251E+06     73.7255E+06     149.092E+06    -134.538E+03         75.8781
             131     15.1306E-03     53.4315E-03     95.7629E-03     37.2444E-03    -310.198E-03     94.5167E-03     38.4906E-03    -310.198E-03     15.5688E-03     356.598E-03    -175.073E-03    -181.525E-03    -175.554E-03     350.627E-03    -175.073E-03     112.735E-03     149.641E+06     74.5673E+06    -4.24577E+06    -4.24237E+06     74.5639E+06     149.641E+06    -451.828E+03         75.9271
             132     15.1294E-03     54.8499E-03     88.4385E-03    -12.9023E-03    -235.634E-03     87.8673E-03    -12.3311E-03    -235.634E-03     14.7858E-03     357.467E-03    -175.059E-03    -182.408E-03    -176.544E-03     351.603E-03    -175.059E-03     111.921E-03     150.267E+06     75.5062E+06    -3.98344E+06    -3.97622E+06     75.4990E+06     150.267E+06     49.2564E+03         75.9757
             133     15.1287E-03     56.2743E-03     81.0145E-03    -70.3716E-03    -150.299E-03     80.6067E-03    -69.9638E-03    -150.299E-03     15.5351E-03     357.130E-03    -175.096E-03    -182.033E-03    -176.096E-03     351.193E-03    -175.096E-03     112.528E-03     149.810E+06     75.7088E+06    -4.28683E+06    -4.28276E+06     75.7048E+06     149.810E+06     399.799E+03         76.0228
             134     15.1298E-03     57.6843E-03     71.8585E-03    -54.7668E-03    -134.438E-03     71.5347E-03    -131.474E-03    -57.4067E-03     16.1031E-03     356.282E-03    -175.103E-03    -181.178E-03    -175.161E-03     350.264E-03    -175.103E-03     113.104E-03     149.696E+06     76.5032E+06    -3.99039E+06    -3.98716E+06     76.5000E+06     149.696E+06     358.831E+03         76.0719
             135     15.1295E-03     59.1074E-03     77.9046E-03     23.7686E-03    -195.375E-03     61.7536E-03    -195.126E-03     39.6705E-03     15.8789E-03     356.658E-03    -175.083E-03    -181.575E-03    -175.584E-03     350.667E-03    -175.083E-03     112.942E-03     149.174E+06     76.5742E+06    -4.49786E+06    -4.49415E+06     76.5705E+06     149.174E+06     499.423E+03         76.1225
             136     15.1294E-03     60.5217E-03     137.480E-03     51.9742E-03    -258.778E-03     51.7947E-03    -258.598E-03     137.480E-03     14.7997E-03     356.502E-03    -175.098E-03    -181.404E-03    -175.534E-03     350.632E-03    -175.098E-03     111.763E-03     149.650E+06     77.3390E+06    -4.39874E+06    -4.39813E+06     77.3384E+06     149.650E+06     59.1690E+03         76.1719
             137     15.1291E-03     61.9380E-03     232.394E-03     42.5731E-03    -321.013E-03     42.4125E-03    -320.853E-03     232.394E-03     15.2793E-03     356.238E-03    -175.110E-03    -181.127E-03    -175.239E-03     350.349E-03    -175.110E-03     111.878E-03     149.801E+06     78.3507E+06    -4.05879E+06    -4.05664E+06     78.3486E+06     149.801E+06     208.242E+03         76.2206
             138     15.1295E-03     63.3595E-03     321.063E-03     33.7761E-03    -378.356E-03     33.6268E-03    -378.206E-03     321.063E-03     15.5922E-03     356.562E-03    -175.112E-03    -181.449E-03    -175.422E-03     350.534E-03    -175.112E-03     113.253E-03     149.448E+06     78.7300E+06    -4.37920E+06    -4.37714E+06     78.7279E+06     149.448E+06     342.408E+03         76.2688
             139     15.1286E-03     64.7738E-03     400.233E-03     24.5481E-03    -428.220E-03     24.4308E-03    -428.103E-03     400.233E-03     14.5548E-03     356.888E-03    -175.115E-03    -181.774E-03    -175.775E-03     350.890E-03    -175.115E-03     113.051E-03     149.785E+06      79.534E+06    -4.35094E+06    -4.35059E+06     79.5336E+06     149.785E+06     164.341E+03         76.3171
             140     15.1293E-03     66.1931E-03     467.096E-03     17.3040E-03    -470.025E-03     17.1867E-03    -469.907E-03     467.096E-03     15.1182E-03     356.318E-03    -175.098E-03    -181.219E-03    -175.312E-03     350.410E-03    -175.098E-03     112.079E-03     149.556E+06     80.5264E+06    -4.19343E+06    -4.19304E+06     80.5260E+06     149.556E+06     43.3958E+03         76.3677
             141     15.1303E-03     67.6067E-03     519.313E-03     10.8471E-03    -500.281E-03     10.7357E-03    -500.169E-03     519.313E-03     15.0504E-03     355.896E-03    -175.072E-03    -180.824E-03    -174.937E-03     350.009E-03    -175.072E-03     111.806E-03     149.460E+06     81.3723E+06    -4.17145E+06    -4.17021E+06     81.3710E+06     149.460E+06     155.678E+03         76.4205
             142     15.1297E-03     69.0275E-03     554.895E-03     4.71219E-03    -518.038E-03     4.59596E-03    -517.922E-03     554.895E-03     15.5433E-03     356.622E-03    -175.071E-03    -181.552E-03    -175.632E-03     350.703E-03    -175.071E-03     112.263E-03     149.738E+06     81.8949E+06    -4.36178E+06    -4.36063E+06     81.8938E+06     149.738E+06     244.328E+03         76.4735
             143     15.1289E-03     70.4453E-03     572.612E-03     256.566E-06    -522.060E-03     124.789E-06    -521.928E-03     572.612E-03     16.5907E-03     356.587E-03    -175.095E-03    -181.492E-03    -175.561E-03     350.656E-03    -175.095E-03     112.356E-03     149.888E+06     82.5765E+06    -4.38504E+06    -4.38471E+06     82.5762E+06     149.888E+06    -93.5288E+03         76.5259
             144     15.1298E-03     71.8598E-03     571.591E-03    -3.80657E-03    -510.727E-03    -3.92437E-03    -510.610E-03     571.591E-03     15.4444E-03     356.316E-03    -175.091E-03    -181.225E-03    -175.296E-03     350.388E-03    -175.091E-03     112.279E-03     150.068E+06     83.2985E+06    -4.27286E+06    -4.27252E+06     83.2981E+06     150.068E+06    -152.896E+03         76.5792
             145     15.1295E-03     73.2796E-03     551.518E-03    -6.66094E-03    -485.874E-03    -6.78007E-03    -485.755E-03     551.518E-03     15.0728E-03     356.792E-03    -175.072E-03    -181.720E-03    -175.775E-03     350.848E-03    -175.072E-03     112.529E-03     150.426E+06     84.1788E+06    -4.25227E+06    -4.24954E+06     84.1761E+06     150.426E+06     310.460E+03         76.6333
             146     15.1296E-03     74.6983E-03     513.098E-03    -7.82767E-03    -448.213E-03    -7.96080E-03    -448.080E-03     513.098E-03     15.3042E-03     356.531E-03    -175.077E-03    -181.454E-03    -175.503E-03     350.580E-03    -175.077E-03     112.535E-03     151.034E+06     85.3578E+06    -4.01891E+06    -4.01556E+06     85.3545E+06     151.034E+06     518.528E+03         76.6876
             147     15.1299E-03     76.1129E-03     457.730E-03    -8.09138E-03    -397.602E-03    -8.24256E-03    -397.451E-03     457.730E-03     15.2789E-03     355.855E-03    -175.066E-03    -180.789E-03    -174.826E-03     349.892E-03    -175.066E-03     112.502E-03     150.686E+06     85.9606E+06    -4.19511E+06    -4.19371E+06     85.9592E+06     150.686E+06    -11.1721E+03         76.7437
             148     15.1309E-03     77.5308E-03     387.333E-03    -7.88699E-03    -334.645E-03    -8.09916E-03    -334.433E-03     387.333E-03     16.4412E-03     356.603E-03    -175.032E-03    -181.571E-03    -175.514E-03     350.546E-03    -175.032E-03     113.543E-03     150.834E+06     86.8402E+06    -4.13410E+06    -4.12730E+06     86.8334E+06     150.834E+06     342.688E+03         76.8013
             149     15.1296E-03     80.3677E-03     210.531E-03    -3.44321E-03    -184.628E-03    -3.81276E-03    -184.259E-03     210.531E-03     15.8106E-03     356.854E-03    -175.081E-03    -181.773E-03    -175.866E-03     350.947E-03    -175.081E-03     112.193E-03     151.531E+06     87.5900E+06    -4.60021E+06    -4.59113E+06     87.5809E+06     151.531E+06     111.485E+03         76.9156
             150     15.1291E-03     81.7837E-03     109.994E-03    -420.577E-06    -100.302E-03    -1.25520E-03    -99.4675E-03     109.994E-03     16.4658E-03     356.160E-03    -175.087E-03    -181.072E-03    -175.180E-03     350.268E-03    -175.087E-03     111.905E-03     151.667E+06     88.4217E+06    -4.25738E+06    -4.25394E+06     88.4182E+06     151.667E+06    -419.403E+03         76.9737
             151     15.1309E-03     83.2018E-03     47.1357E-03     880.608E-06    -51.9530E-03     1.11570E-03    -10.8512E-03     5.79885E-03     15.8458E-03     356.112E-03    -175.068E-03    -181.044E-03    -175.085E-03     350.153E-03    -175.068E-03     112.521E-03     151.868E+06     88.7992E+06    -4.31693E+06    -4.31679E+06     88.7991E+06     151.868E+06    -99.4872E+03         77.0322
             152     15.1293E-03     84.6208E-03     78.8593E-03     1.80916E-03    -98.7028E-03     2.86954E-03     77.7989E-03    -98.7028E-03     14.8764E-03     356.471E-03    -175.069E-03    -181.402E-03    -175.400E-03     350.470E-03    -175.069E-03     112.993E-03     152.364E+06     89.1767E+06    -3.92910E+06    -3.92862E+06     89.1762E+06     152.364E+06     49.8059E+03         77.0897
             153     15.1302E-03     86.0361E-03     162.463E-03     5.17091E-03    -199.790E-03     5.55309E-03     162.081E-03    -199.790E-03     15.1023E-03     356.031E-03    -175.063E-03    -180.968E-03    -175.010E-03     350.074E-03    -175.063E-03     112.497E-03     152.109E+06     89.1670E+06    -4.25883E+06    -4.25813E+06     89.1663E+06     152.109E+06        -43.3359         77.1486
             154     15.1310E-03     87.4515E-03     241.470E-03     7.76987E-03    -293.711E-03     8.02246E-03     241.218E-03    -293.711E-03     15.0777E-03     356.254E-03    -175.039E-03    -181.215E-03    -175.277E-03     350.316E-03    -175.039E-03     112.357E-03     152.335E+06     89.8895E+06    -4.43581E+06    -4.43507E+06     89.8888E+06     152.335E+06     7.23156E+03         77.2094
             155     15.1296E-03     88.8734E-03     313.808E-03     9.81542E-03    -377.469E-03     9.99335E-03     313.630E-03    -377.469E-03     14.6183E-03     356.718E-03    -175.045E-03    -181.673E-03    -175.755E-03     350.800E-03    -175.045E-03     112.278E-03     152.679E+06     90.8750E+06    -4.73808E+06    -4.73737E+06     90.8743E+06     152.679E+06     9.95771E+03         77.2697
             156     15.1305E-03     90.2873E-03     375.534E-03     11.2941E-03    -448.668E-03     11.4393E-03     375.389E-03    -448.668E-03     14.4869E-03     356.084E-03    -175.055E-03    -181.029E-03    -175.042E-03     350.097E-03    -175.055E-03     112.776E-03     153.146E+06     91.2255E+06    -4.13600E+06    -4.13367E+06     91.2231E+06     153.146E+06     182.110E+03         77.3309
             157     15.1308E-03     91.7059E-03     426.527E-03     10.8338E-03    -504.961E-03     10.9500E-03     426.411E-03    -504.961E-03     13.8354E-03     356.248E-03    -175.025E-03    -181.223E-03    -175.176E-03     350.201E-03    -175.025E-03     113.381E-03     153.737E+06     92.0404E+06    -3.78771E+06    -3.78477E+06     92.0374E+06     153.737E+06     520.888E+03         77.3952
             158     15.1310E-03     93.1232E-03     466.361E-03     9.02762E-03    -544.312E-03     9.14196E-03     466.247E-03    -544.312E-03     14.4488E-03     357.047E-03    -175.011E-03    -182.036E-03    -176.094E-03     351.105E-03    -175.011E-03     112.568E-03     154.008E+06     93.0273E+06    -4.44460E+06    -4.44178E+06     93.0244E+06     154.008E+06     516.556E+03         77.4601
             159     15.1296E-03     94.5418E-03     493.025E-03     6.14989E-03    -565.401E-03     6.25823E-03     492.917E-03    -565.401E-03     14.4472E-03     356.842E-03    -175.044E-03    -181.799E-03    -175.946E-03     350.989E-03    -175.044E-03     111.683E-03     153.266E+06     93.3182E+06    -4.95918E+06    -4.95690E+06     93.3159E+06     153.266E+06     161.777E+03         77.5240
             160     15.1303E-03     95.9593E-03     504.980E-03     2.21453E-03    -567.741E-03     2.30149E-03     504.893E-03    -567.741E-03     13.2216E-03     355.886E-03    -175.066E-03    -180.819E-03    -174.873E-03     349.940E-03    -175.066E-03     112.349E-03     153.094E+06     94.1759E+06    -4.48550E+06    -4.48499E+06     94.1754E+06     153.094E+06    -66.4693E+03         77.5895
             161     15.1306E-03     97.3742E-03     501.974E-03    -2.61753E-03    -551.404E-03    -2.53234E-03     501.889E-03    -551.404E-03     13.1120E-03     356.128E-03    -175.041E-03    -181.088E-03    -175.083E-03     350.124E-03    -175.041E-03     112.950E-03     153.401E+06     94.8754E+06    -4.19943E+06    -4.19910E+06     94.8750E+06     153.401E+06     178.572E+03         77.6570
             162     15.1306E-03     98.7941E-03     485.226E-03    -8.31932E-03    -516.960E-03    -8.24141E-03     485.148E-03    -516.960E-03     12.3923E-03     356.740E-03    -175.029E-03    -181.711E-03    -175.807E-03     350.836E-03    -175.029E-03     112.143E-03     153.810E+06     95.2905E+06    -4.28356E+06    -4.28301E+06     95.2900E+06     153.810E+06    -25.5367E+03         77.7238
             163     15.1299E-03     100.211E-03     455.445E-03    -14.6077E-03    -465.790E-03    -14.5343E-03     455.371E-03    -465.790E-03     11.7450E-03     356.234E-03    -175.055E-03    -181.179E-03    -175.268E-03     350.323E-03    -175.055E-03     112.105E-03     154.639E+06     96.3162E+06    -4.08808E+06    -4.08691E+06     96.3150E+06     154.639E+06     77.4677E+03         77.7892
             164     15.1308E-03     101.628E-03     414.113E-03    -22.0343E-03    -399.872E-03    -21.9555E-03     414.034E-03    -399.872E-03     11.7196E-03     355.904E-03    -175.051E-03    -180.854E-03    -174.852E-03     349.903E-03    -175.051E-03     112.875E-03     154.780E+06     97.3877E+06    -4.39188E+06    -4.38874E+06     97.3845E+06     154.780E+06     548.390E+03         77.8564
             165     15.1308E-03     103.044E-03     362.732E-03    -29.8760E-03    -321.551E-03    -29.7903E-03     362.646E-03    -321.551E-03     11.5787E-03     356.103E-03    -175.019E-03    -181.084E-03    -175.120E-03     350.139E-03    -175.019E-03     112.570E-03     154.941E+06     98.5255E+06    -4.80380E+06    -4.79918E+06     98.5209E+06     154.941E+06     690.803E+03         77.9255
             166     15.1314E-03     104.461E-03     303.386E-03    -37.5776E-03    -233.629E-03    -37.4867E-03     303.295E-03    -233.629E-03     11.1201E-03     355.878E-03    -174.993E-03    -180.885E-03    -174.944E-03     349.937E-03    -174.993E-03     112.318E-03     156.428E+06     101.399E+06    -4.75739E+06    -4.75506E+06     101.396E+06     156.428E+06     359.395E+03         77.9953
             167     15.1322E-03     105.878E-03     239.283E-03    -45.7459E-03    -139.328E-03    -45.6336E-03     239.171E-03    -139.328E-03     11.1999E-03     356.494E-03    -174.972E-03    -181.522E-03    -175.536E-03     350.509E-03    -174.972E-03     112.863E-03     159.058E+06     105.325E+06    -3.87773E+06    -3.86518E+06     105.312E+06     159.058E+06     843.928E+03         78.0658
             168     15.1306E-03     107.299E-03     173.507E-03    -21.6045E-03    -75.5947E-03    -54.9992E-03     173.347E-03    -42.0397E-03     11.9732E-03     357.023E-03    -174.988E-03    -182.034E-03    -176.122E-03     351.111E-03    -174.988E-03     112.282E-03     160.324E+06     108.518E+06    -4.61091E+06    -4.58933E+06     108.496E+06     160.324E+06     1.55535E+06         78.1349
             169     15.1312E-03     108.714E-03     121.488E-03     39.7020E-03    -63.5092E-03    -63.3407E-03     106.319E-03     54.7029E-03     10.6933E-03     355.430E-03    -175.009E-03    -180.420E-03    -174.513E-03     349.523E-03    -175.009E-03     111.895E-03     161.183E+06     110.827E+06    -4.95411E+06    -4.94154E+06     110.814E+06     161.183E+06     267.664E+03         78.2039
             170     15.1332E-03     110.127E-03     147.443E-03     40.8706E-03    -70.9044E-03    -70.7133E-03     40.6794E-03     147.443E-03     8.98324E-03     355.358E-03    -174.948E-03    -180.410E-03    -174.285E-03     349.232E-03    -174.948E-03     113.908E-03     163.375E+06     113.570E+06    -3.82140E+06    -3.78443E+06     113.534E+06     163.375E+06     953.780E+03         78.2766
             171     15.1333E-03     111.552E-03     233.105E-03    -19.9824E-03    -77.5728E-03    -77.1110E-03    -20.4441E-03     233.105E-03     8.99311E-03     356.443E-03    -174.893E-03    -181.550E-03    -175.472E-03     350.365E-03    -174.893E-03     113.698E-03     164.862E+06     117.345E+06    -4.56492E+06    -4.52998E+06     117.310E+06     164.862E+06     1.71496E+06         78.3484
             172     15.1326E-03     112.962E-03     308.583E-03    -66.4943E-03    -90.7816E-03    -81.9902E-03    -75.2857E-03     308.583E-03     8.10563E-03     355.284E-03    -174.895E-03    -180.389E-03    -174.485E-03     349.380E-03    -174.895E-03     111.852E-03     166.107E+06     121.091E+06    -4.92641E+06    -4.91764E+06     121.082E+06     166.107E+06     985.829E+03         78.4172
             173     15.1353E-03     114.377E-03     370.911E-03    -85.7877E-03    -121.846E-03    -86.2411E-03    -121.392E-03     370.911E-03     6.54798E-03     355.061E-03    -174.843E-03    -180.218E-03    -174.189E-03     349.032E-03    -174.843E-03     112.973E-03     168.505E+06     125.570E+06    -5.04586E+06    -5.03860E+06     125.562E+06     168.505E+06     671.137E+03         78.4886
             174     15.1346E-03     115.799E-03     417.961E-03    -88.7848E-03    -157.683E-03    -88.9169E-03    -157.551E-03     417.961E-03     5.85323E-03     356.590E-03    -174.778E-03    -181.812E-03    -175.697E-03     350.475E-03    -174.778E-03     114.103E-03     171.286E+06     129.034E+06    -5.05814E+06    -5.05300E+06     129.029E+06     171.286E+06     578.545E+03         78.5610
             175     15.1353E-03     117.215E-03     448.259E-03    -89.9880E-03    -181.701E-03    -90.0796E-03    -181.609E-03     448.259E-03     5.77662E-03     356.175E-03    -174.757E-03    -181.418E-03    -175.340E-03     350.097E-03    -174.757E-03     113.672E-03     172.915E+06     130.154E+06    -4.48466E+06    -4.46731E+06     130.137E+06     172.915E+06     1.49582E+06         78.6311
             176     15.1368E-03     118.630E-03     460.613E-03    -89.9365E-03    -192.883E-03    -90.0039E-03    -192.816E-03     460.613E-03     5.19972E-03     354.876E-03    -174.709E-03    -180.166E-03    -174.146E-03     348.856E-03    -174.709E-03     112.865E-03     172.901E+06     130.508E+06    -6.26495E+06    -6.23799E+06     130.481E+06     172.901E+06    -98.6369E+03         78.6990
             177     15.1379E-03     120.043E-03     454.484E-03    -88.3208E-03    -191.795E-03    -88.3731E-03    -191.743E-03     454.484E-03     4.64635E-03     354.247E-03    -174.615E-03    -179.631E-03    -173.647E-03     348.262E-03    -174.615E-03     112.410E-03     175.614E+06     133.438E+06    -3.65981E+06    -3.61584E+06     133.394E+06     175.614E+06     401.862E+03         78.7631
             178     15.1409E-03     121.460E-03     430.133E-03    -84.4709E-03    -179.206E-03    -84.5051E-03    -179.171E-03     430.133E-03     3.42507E-03     353.188E-03    -174.488E-03    -178.700E-03    -172.623E-03     347.111E-03    -174.488E-03     113.049E-03     177.052E+06     137.459E+06    -5.45166E+06    -5.42030E+06     137.428E+06     177.052E+06     1.80965E+06         78.8233
             179     15.1434E-03     122.871E-03     388.437E-03    -78.8976E-03    -155.552E-03    -78.9197E-03    -155.530E-03     388.437E-03     2.48200E-03     352.941E-03    -174.315E-03    -178.625E-03    -172.459E-03     346.775E-03    -174.315E-03     113.834E-03     179.543E+06     142.023E+06    -5.37530E+06    -5.36254E+06     142.010E+06     179.543E+06     1.27755E+06         78.8798
             180     15.1463E-03     124.284E-03     330.904E-03    -71.8201E-03    -121.034E-03    -71.8360E-03    -121.018E-03     330.904E-03     1.45894E-03     353.519E-03    -174.110E-03    -179.409E-03    -173.236E-03     347.346E-03    -174.110E-03     114.044E-03     183.157E+06     146.679E+06    -4.86525E+06    -4.85438E+06     146.668E+06     183.157E+06     1.01435E+06         78.9254
             181     15.1495E-03     125.700E-03     259.552E-03    -60.8606E-03    -80.2493E-03    -63.4632E-03    -77.6467E-03     259.552E-03    -869.902E-06     352.654E-03    -173.909E-03    -178.744E-03    -172.481E-03     346.390E-03    -173.909E-03     114.702E-03     185.977E+06     148.859E+06    -4.86263E+06    -4.85093E+06     148.847E+06     185.977E+06     1.06158E+06         78.9467
             182     15.1540E-03     127.110E-03     176.975E-03    -28.2871E-03    -52.9537E-03    -52.8618E-03    -28.3789E-03     176.975E-03    -2.07575E-03     350.170E-03    -173.660E-03    -176.510E-03    -170.108E-03     343.767E-03    -173.660E-03     115.425E-03     188.144E+06     150.597E+06    -5.28575E+06    -5.27011E+06     150.581E+06     188.144E+06     1.50788E+06         78.9312
             183     15.1611E-03     128.512E-03     94.0829E-03     18.3333E-03    -41.7060E-03    -41.6785E-03     26.1072E-03     86.2814E-03    -2.64174E-03     346.697E-03    -172.583E-03    -174.114E-03    -166.940E-03     340.195E-03    -173.255E-03     115.582E-03     193.047E+06     154.940E+06    -5.42780E+06    -5.38734E+06     154.900E+06     193.047E+06     2.27729E+06         78.8662
             184     15.1727E-03     129.914E-03     83.2824E-03     7.99268E-03    -47.2053E-03    -30.0332E-03     83.2571E-03    -9.15411E-03    -3.37996E-03     342.313E-03    -169.713E-03    -172.600E-03    -162.737E-03     335.337E-03    -172.600E-03     118.639E-03     198.388E+06     157.162E+06    -6.12075E+06    -6.08324E+06     157.125E+06     198.388E+06     1.37339E+06         78.7680
             185     15.1897E-03     131.307E-03     138.466E-03    -16.7545E-03    -105.763E-03    -16.7298E-03     138.441E-03    -105.763E-03    -3.89324E-03     335.274E-03    -163.722E-03    -171.552E-03    -155.923E-03     327.475E-03    -171.552E-03     123.717E-03     202.812E+06     156.170E+06    -4.49988E+06    -4.41966E+06     156.089E+06     202.812E+06     2.13700E+06         78.7259
             186     15.2193E-03     132.681E-03     188.886E-03    -3.54917E-03    -199.788E-03    -3.51905E-03     188.856E-03    -199.788E-03    -4.79462E-03     326.389E-03    -156.501E-03    -169.888E-03    -147.741E-03     317.629E-03    -169.888E-03     128.782E-03     203.516E+06     154.539E+06    -6.28414E+06    -6.20434E+06     154.459E+06     203.516E+06     2.19678E+06         79.0958
             187     15.2564E-03     134.046E-03     231.245E-03     11.4586E-03    -287.823E-03     11.5158E-03     231.188E-03    -287.823E-03    -7.01394E-03     323.502E-03    -155.844E-03    -167.658E-03    -146.855E-03     314.513E-03    -167.658E-03     130.013E-03     207.335E+06     156.407E+06    -4.15268E+06    -3.91030E+06     156.164E+06     207.335E+06     4.02570E+06         80.5389
             188     15.2875E-03     135.420E-03     265.718E-03     26.6093E-03    -367.362E-03     26.7149E-03     265.613E-03    -367.362E-03    -9.97268E-03     332.240E-03    -161.343E-03    -170.897E-03    -158.911E-03     324.295E-03    -165.385E-03     124.696E-03     209.488E+06     160.843E+06     -8.3398E+06    -8.06767E+06     160.570E+06     209.488E+06     2.60314E+06         83.9785
             189     15.3047E-03     136.822E-03     293.632E-03     40.1906E-03    -436.205E-03     40.3902E-03     293.433E-03    -436.205E-03    -14.0500E-03     351.858E-03    -163.642E-03    -188.216E-03    -181.506E-03     345.148E-03    -163.642E-03     119.400E-03     201.822E+06     157.328E+06    -7.46442E+06    -7.43292E+06     157.296E+06     201.822E+06    -1.42358E+06         89.3490
             190     15.3060E-03     138.269E-03     313.947E-03     52.5052E-03    -491.603E-03     52.8006E-03     313.652E-03    -491.603E-03    -17.5474E-03     374.881E-03    -162.677E-03    -212.203E-03    -205.929E-03     368.606E-03    -162.677E-03     120.728E-03     195.159E+06     150.983E+06    -5.47289E+06    -5.35962E+06     150.869E+06     195.159E+06    -2.81825E+06         94.4882
             191     15.3057E-03     139.740E-03     324.904E-03     62.1192E-03    -530.080E-03     62.4492E-03     324.574E-03    -530.080E-03    -18.6122E-03     391.131E-03    -162.243E-03    -228.888E-03    -222.372E-03     384.616E-03    -162.243E-03     126.449E-03     191.161E+06     145.090E+06    -3.09292E+06    -2.93549E+06     144.933E+06     191.161E+06    -1.38484E+06         97.4347
             192     15.3063E-03     141.219E-03     324.500E-03     69.0148E-03    -548.337E-03     69.4064E-03     324.108E-03    -548.337E-03    -19.9136E-03     399.697E-03    -162.021E-03    -237.676E-03    -231.078E-03     393.099E-03    -162.021E-03     129.018E-03     185.690E+06     137.022E+06    -7.65445E+06    -7.43700E+06     136.805E+06     185.690E+06    -2.03843E+06         98.3816
             193     15.3052E-03     142.701E-03     310.675E-03     73.1468E-03    -544.226E-03     73.6462E-03     310.176E-03    -544.226E-03    -21.6993E-03     405.308E-03    -161.884E-03    -243.424E-03    -236.897E-03     398.781E-03    -161.884E-03     129.484E-03     186.806E+06     129.463E+06    -4.51106E+06    -4.26510E+06     129.217E+06     186.806E+06    -1.75939E+06         98.6522
             194     15.3067E-03     144.198E-03     282.867E-03     74.2943E-03    -516.594E-03     74.8748E-03     282.287E-03    -516.594E-03    -21.9250E-03     409.958E-03    -161.773E-03    -248.185E-03    -241.586E-03     403.359E-03    -161.773E-03     131.134E-03     184.996E+06     119.810E+06    -6.59555E+06    -6.07505E+06     119.289E+06     184.996E+06    -3.73825E+06         98.8838
             195     15.3050E-03     145.696E-03     242.032E-03     71.9569E-03    -465.207E-03     72.6625E-03     241.327E-03    -465.207E-03    -21.6786E-03     412.810E-03    -161.717E-03    -251.093E-03    -244.497E-03     406.213E-03    -161.717E-03     131.694E-03     190.720E+06     117.395E+06    -2.67126E+06    -1.41434E+06     116.139E+06     190.720E+06     380.781E+03         98.9489
             196     15.3075E-03     147.193E-03     189.736E-03     65.6060E-03    -390.919E-03     66.6319E-03     188.711E-03    -390.919E-03    -21.9702E-03     412.339E-03    -161.739E-03    -250.601E-03    -244.229E-03     405.968E-03    -161.739E-03     129.352E-03     193.207E+06     106.411E+06    -14.2124E+06    -11.5251E+06     103.724E+06     193.207E+06    -5.54325E+06         98.9399
             197     15.3057E-03     148.689E-03     129.018E-03     54.1710E-03    -295.313E-03     55.9245E-03     127.264E-03    -295.313E-03    -21.4814E-03     410.612E-03    -161.760E-03    -248.852E-03    -242.691E-03     404.451E-03    -161.760E-03     126.889E-03     197.831E+06     90.8370E+06    -3.71398E+06     1.23175E+06     85.8912E+06     197.831E+06    -4.31002E+06         98.9264
             198     15.3097E-03     150.176E-03     68.2921E-03     32.1562E-03    -180.314E-03     41.1377E-03     59.3106E-03    -180.314E-03    -20.5011E-03     410.195E-03    -161.697E-03    -248.498E-03    -242.715E-03     404.412E-03    -161.697E-03     122.845E-03     194.038E+06     79.1422E+06    -14.5062E+06    -9.82270E+06     74.4587E+06     194.038E+06    -3.41878E+06         98.7172
             199     15.3075E-03     151.675E-03     30.2936E-03     12.7425E-03    -80.8670E-03     20.0267E-03    -9.24021E-03    -48.6174E-03    -17.7091E-03     403.912E-03    -161.775E-03    -242.137E-03    -237.221E-03     398.996E-03    -161.775E-03     112.159E-03     204.924E+06     77.8594E+06    -11.7167E+06    -856.388E+03     66.9991E+06     204.924E+06    -2.56344E+06         98.5259
             200     15.3146E-03     153.143E-03     95.9417E-03    -6.92227E-03    -72.4186E-03    -7.54702E-03    -71.7938E-03     95.9417E-03    -10.5303E-03     386.264E-03    -162.074E-03    -224.190E-03    -220.278E-03     382.352E-03    -162.074E-03     97.3468E-03     200.508E+06     70.7769E+06    -21.0392E+06    -10.3849E+06     60.1226E+06     200.508E+06    -2.02510E+06         98.5055
             201     15.3110E-03     154.578E-03     248.963E-03    -43.4570E-03    -122.859E-03    -43.5817E-03    -122.734E-03     248.963E-03     391.152E-06     363.159E-03    -162.546E-03    -200.613E-03    -197.550E-03     360.096E-03    -162.546E-03     82.7976E-03     206.546E+06     84.2285E+06    -24.9711E+06     8.55242E+06     50.7050E+06     206.546E+06    -2.70273E+06         100.562
             202     15.3218E-03     155.985E-03     403.323E-03    -84.8400E-03    -157.677E-03    -86.0723E-03    -156.445E-03     403.323E-03     15.5224E-03     290.209E-03    -112.968E-03    -177.241E-03    -124.409E-03     288.876E-03    -164.467E-03     38.8909E-03     194.828E+06     95.4113E+06    -17.9006E+06     16.4174E+06     61.0933E+06     194.828E+06    -5.54293E+06         104.081
             203     14.2892E-03     157.104E-03     484.522E-03    -76.5490E-03    -177.248E-03    -86.0171E-03    -167.780E-03     484.522E-03     56.5655E-03     224.920E-03    -56.2131E-03    -168.707E-03    -56.1283E-03     224.835E-03    -168.707E-03    -5.59720E-03     104.798E+06     23.8697E+06    -103.325E+06    -53.3998E+06    -26.0559E+06     104.798E+06    -14.2155E+06         99.9193
             204     13.2974E-03     156.767E-03     485.297E-03    -16.8280E-03    -189.633E-03    -42.2639E-03    -164.197E-03     485.297E-03     122.070E-03     215.131E-03    -41.3056E-03    -173.826E-03    -38.6679E-03     212.494E-03    -173.826E-03    -41.5409E-03     95.7861E+06     27.1000E+06    -71.6759E+06    -20.8438E+06    -23.7320E+06     95.7861E+06    -13.3764E+06         86.3523
             205     12.3662E-03     156.384E-03     471.950E-03     45.5545E-03    -199.626E-03     1.74916E-03    -155.821E-03     471.950E-03     187.635E-03     211.470E-03    -32.6822E-03    -178.788E-03    -25.7134E-03     204.501E-03    -178.788E-03    -80.5583E-03     107.043E+06     35.4745E+06    -39.8471E+06    -12.4886E+06       8.116E+06     107.043E+06    -11.1291E+06         71.8652
             206     11.4541E-03     155.997E-03     449.342E-03     104.600E-03    -205.855E-03     41.3017E-03    -142.556E-03     449.342E-03     249.984E-03     220.606E-03    -37.1084E-03    -183.498E-03    -25.4187E-03     208.916E-03    -183.498E-03    -106.670E-03     110.672E+06     14.9052E+06    -33.8105E+06    -6.66837E+06    -12.2369E+06     110.672E+06    -6.81428E+06         61.0329
             207     10.5620E-03     155.595E-03     419.007E-03     158.103E-03    -207.409E-03     74.8240E-03    -124.129E-03     419.007E-03     306.436E-03     236.920E-03    -49.3849E-03    -187.535E-03    -31.5824E-03     219.118E-03    -187.535E-03    -137.961E-03     127.420E+06     23.4609E+06    -20.6589E+06     1.68760E+06     1.11437E+06     127.420E+06    -5.69723E+06         54.3507
             208     9.69294E-03     155.199E-03     382.166E-03     204.442E-03    -203.112E-03     102.088E-03    -100.758E-03     382.166E-03     353.325E-03     258.380E-03    -68.0357E-03    -190.344E-03    -42.8465E-03     233.191E-03    -190.344E-03    -173.998E-03     131.700E+06     14.4371E+06    -20.4057E+06     2.84349E+06    -8.81207E+06     131.700E+06    -4.36801E+06         50.7171
             209     8.84414E-03     154.809E-03     340.053E-03     242.144E-03    -193.607E-03     122.813E-03    -74.2759E-03     340.053E-03     388.470E-03     283.054E-03    -91.7663E-03    -191.288E-03    -58.4428E-03     249.731E-03    -191.288E-03    -213.257E-03     133.271E+06     10.0100E+06    -12.0763E+06    -1.90165E+06    -164.714E+03     133.271E+06    -8.46237E+06         48.7667
             210     8.02646E-03     154.428E-03     299.833E-03     264.686E-03    -177.390E-03     138.565E-03    -45.6390E-03     294.203E-03     407.956E-03     305.474E-03    -115.467E-03    -190.007E-03    -76.1718E-03     266.179E-03    -190.007E-03    -244.923E-03     127.847E+06     7.29690E+06    -15.7846E+06    -3.48473E+06    -5.00296E+06     127.847E+06    -9.67718E+06         47.5690
             211     7.23196E-03     154.070E-03     286.026E-03     247.270E-03    -155.733E-03     148.431E-03    -18.1376E-03     247.270E-03     409.079E-03     324.658E-03    -138.008E-03    -186.650E-03    -96.0340E-03     282.684E-03    -186.650E-03    -265.738E-03     121.659E+06     12.6196E+06    -18.5093E+06    -1.32158E+06    -4.56810E+06     121.659E+06    -14.2561E+06         46.6047
             212     6.45206E-03     153.755E-03     286.560E-03     202.321E-03    -131.051E-03     150.159E-03     5.35027E-03     202.321E-03     391.650E-03     338.317E-03    -156.696E-03    -181.621E-03    -116.595E-03     298.216E-03    -181.621E-03    -269.813E-03     115.719E+06     15.3624E+06    -19.9212E+06     3.43082E+06    -7.98966E+06     115.719E+06    -16.4373E+06         45.6345
             213     5.67958E-03     153.467E-03     273.237E-03     161.275E-03    -105.074E-03     143.286E-03     24.8779E-03     161.275E-03     359.214E-03     342.839E-03    -167.388E-03    -175.450E-03    -132.899E-03     308.350E-03    -175.450E-03    -255.859E-03     113.411E+06     23.6610E+06    -18.3473E+06     11.0685E+06    -5.75474E+06     113.411E+06    -18.6774E+06         44.5803
             214     4.89954E-03     153.224E-03     247.158E-03     125.375E-03    -78.0947E-03     128.564E-03     40.4993E-03     125.375E-03     313.008E-03     340.320E-03    -168.017E-03    -172.303E-03    -143.986E-03     312.798E-03    -168.812E-03    -230.266E-03     108.314E+06     28.3056E+06    -19.2824E+06     20.8065E+06    -11.7833E+06     108.314E+06    -17.1355E+06         43.4542
             215     4.11587E-03     153.024E-03     213.087E-03     95.2611E-03    -51.6561E-03     108.225E-03     53.2056E-03     95.2611E-03     258.711E-03     332.210E-03    -162.274E-03    -169.936E-03    -150.603E-03     312.877E-03    -162.274E-03    -192.125E-03     101.953E+06     37.9824E+06    -15.2996E+06     32.6946E+06    -10.0119E+06     101.953E+06    -15.8253E+06         42.3142
             216     3.31720E-03     152.862E-03     176.957E-03     70.7376E-03    -27.5308E-03     85.4618E-03     63.9647E-03     70.7376E-03     202.924E-03     320.064E-03    -156.378E-03    -163.686E-03    -151.532E-03     307.911E-03    -156.378E-03    -150.434E-03     93.9704E+06     47.1399E+06    -11.1173E+06     43.8548E+06    -7.83229E+06     93.9704E+06    -13.1541E+06         41.2341
             217     2.49892E-03     152.738E-03     143.222E-03     51.4258E-03    -6.60018E-03     62.9721E-03     73.6495E-03     51.4258E-03     148.354E-03     308.027E-03    -151.525E-03    -156.502E-03    -149.380E-03     300.905E-03    -151.525E-03    -112.988E-03     85.4343E+06     54.8838E+06    -9.11080E+06     52.6728E+06    -6.89977E+06     85.4343E+06    -11.6853E+06         40.2902
             218     1.67202E-03     152.649E-03     116.154E-03     37.0711E-03     8.84810E-03     43.0710E-03     81.9311E-03     37.0711E-03     97.8184E-03     298.105E-03    -147.818E-03    -150.287E-03    -146.824E-03     294.643E-03    -147.818E-03    -76.5083E-03     77.3277E+06     60.9493E+06    -5.65165E+06     59.1527E+06    -3.85498E+06     77.3277E+06    -10.7138E+06         39.5511
             219     838.107E-06     152.593E-03     100.982E-03     27.0514E-03     17.6986E-03     28.9017E-03     89.7792E-03     27.0514E-03     52.4126E-03     291.227E-03    -144.982E-03    -146.245E-03    -145.092E-03     290.074E-03    -144.982E-03    -42.0545E-03     70.0829E+06     63.4953E+06    -8.63913E+06     62.6125E+06    -7.75637E+06     70.0829E+06    -7.45674E+06         39.0678
             220    -743.314E-09     151.241E-03     261.699E-03    -56.4702E-03    -58.9027E-03    -55.7429E-03     259.522E-03    -57.4533E-03     38.6427E-03     237.400E-03    -118.160E-03    -119.240E-03    -118.544E-03     237.149E-03    -118.605E-03    -18.5516E-03     20.0720E+06     11.9950E+06    -34.5033E+06     11.9235E+06    -27.7784E+06     13.4187E+06    -9.88413E+06         37.9310
             221     154.607E-09     150.036E-03     582.719E-03    -216.784E-03    -218.724E-03    -216.968E-03     581.946E-03    -217.767E-03     48.2200E-03     155.718E-03    -77.5034E-03    -78.2149E-03    -77.4483E-03     155.663E-03    -78.2149E-03    -4.79266E-03    -63.0113E+06    -99.2248E+06    -108.184E+06    -98.4516E+06    -72.7433E+06    -99.2248E+06    -14.4131E+06         35.7988
             222    -556.700E-09     148.903E-03     879.991E-03    -372.841E-03    -375.829E-03    -375.441E-03     879.603E-03    -372.841E-03     40.3326E-03     109.709E-03    -54.6502E-03    -55.0590E-03    -54.7512E-03     109.669E-03    -54.9174E-03     4.02504E-03    -124.783E+06    -204.821E+06    -206.580E+06    -203.983E+06    -127.380E+06    -204.821E+06    -13.5462E+06         33.7711
             223     760.081E-09     147.809E-03         1.13743    -513.155E-03    -515.664E-03    -515.563E-03         1.13733    -513.155E-03     24.7532E-03     90.3783E-03    -44.9404E-03    -45.4379E-03    -45.2766E-03     90.2170E-03    -44.9404E-03     8.96804E-03    -178.698E+06    -295.034E+06    -298.529E+06    -296.628E+06    -180.600E+06    -295.034E+06    -14.9730E+06         32.5544
             224    -319.366E-09     146.719E-03         1.35220    -633.539E-03    -635.196E-03    -635.161E-03         1.35217    -633.539E-03     15.8629E-03     93.5265E-03    -46.5206E-03    -47.0059E-03    -46.7285E-03     93.2491E-03    -46.5206E-03     12.4709E-03    -228.409E+06    -374.783E+06    -378.325E+06    -377.016E+06    -229.718E+06    -374.783E+06    -12.7211E+06         32.3533
             225     262.937E-09     145.618E-03         1.52989    -734.482E-03    -736.729E-03    -736.717E-03         1.52988    -734.482E-03     9.91743E-03     116.761E-03    -58.0671E-03    -58.6937E-03    -58.3728E-03     116.440E-03    -58.0671E-03     14.9697E-03    -241.153E+06    -339.624E+06    -344.266E+06    -336.351E+06    -245.090E+06    -343.602E+06     3.20222E+06         33.1041
             226     281.732E-09     144.475E-03         1.66732    -814.505E-03    -817.007E-03    -817.003E-03         1.66732    -814.505E-03     2.78650E-03     153.671E-03    -76.2115E-03    -77.4593E-03    -76.4131E-03     153.375E-03    -76.9620E-03     16.3649E-03    -178.771E+06    -198.855E+06    -231.359E+06    -198.114E+06    -210.166E+06    -200.704E+06     16.0243E+06         34.6210
             227    -1.79507E-06     143.288E-03         1.76048    -870.721E-03    -875.128E-03    -875.127E-03         1.76048    -870.721E-03    -2.84327E-03     193.798E-03    -96.1878E-03    -97.6104E-03    -96.6658E-03     193.604E-03    -96.9384E-03     14.6322E-03    -108.113E+06    -112.369E+06    -175.302E+06    -113.644E+06    -171.899E+06    -110.240E+06     4.88387E+06         36.6601
             228     2.88829E-06     142.048E-03         1.80370    -899.128E-03    -906.821E-03    -906.816E-03         1.80370    -899.128E-03    -6.41909E-03     230.462E-03    -114.760E-03    -115.702E-03    -115.265E-03     230.295E-03    -115.030E-03     15.1577E-03    -87.3273E+06    -91.9194E+06    -172.191E+06    -90.2108E+06    -171.772E+06    -89.4545E+06    -4.42613E+06         38.9522
             229    -3.51917E-06     140.766E-03         1.78715    -891.476E-03    -910.838E-03    -910.824E-03         1.78714    -891.476E-03    -12.0132E-03     259.963E-03    -129.335E-03    -130.627E-03    -130.236E-03     259.841E-03    -129.605E-03     12.5621E-03    -84.6999E+06    -88.5677E+06    -193.128E+06    -87.4585E+06    -192.834E+06    -86.1028E+06    -4.71073E+06         41.2404
             230     5.25229E-06     139.456E-03         1.71558    -850.866E-03    -888.683E-03    -888.654E-03         1.71556    -850.866E-03    -17.0899E-03     281.887E-03    -140.305E-03    -141.582E-03    -141.517E-03     281.822E-03    -140.305E-03     10.2340E-03    -87.0879E+06    -90.8044E+06    -217.252E+06    -87.4050E+06    -216.935E+06    -90.8044E+06    -5.60273E+06         43.3209
             231    -4.90937E-06     138.120E-03         1.58995    -777.854E-03    -839.289E-03    -839.229E-03         1.58989    -777.854E-03    -23.7601E-03     300.178E-03    -149.916E-03    -150.262E-03    -150.204E-03     300.120E-03    -149.916E-03     9.57009E-03    -94.7047E+06    -101.221E+06    -233.300E+06    -98.9478E+06    -233.260E+06    -97.0184E+06    -2.26819E+06         45.0685
             232     5.09232E-06     136.754E-03         1.40798    -668.268E-03    -765.151E-03    -765.074E-03         1.40791    -668.268E-03    -25.8040E-03     314.535E-03    -156.383E-03    -158.152E-03    -158.120E-03     314.503E-03    -156.383E-03     7.67854E-03    -101.196E+06    -111.585E+06    -244.025E+06    -105.453E+06    -243.970E+06    -107.383E+06    -2.63028E+06         46.4353
             233    -2.34302E-06     135.384E-03         1.18621    -532.953E-03    -673.058E-03    -672.924E-03         1.18607    -532.953E-03    -30.1960E-03     322.919E-03    -160.419E-03    -162.500E-03    -162.074E-03     322.896E-03    -160.822E-03     5.76487E-03    -116.548E+06    -128.581E+06    -261.920E+06    -122.513E+06    -261.802E+06    -122.735E+06    -4.01383E+06         47.4348
             234     1.72989E-06     133.998E-03     930.389E-03    -374.476E-03    -565.517E-03    -565.296E-03     930.168E-03    -374.476E-03    -36.0976E-03     327.799E-03    -163.262E-03    -164.537E-03    -164.128E-03     327.794E-03    -163.666E-03     3.22359E-03    -137.238E+06    -148.944E+06    -286.641E+06    -143.386E+06    -286.339E+06    -143.098E+06    -6.41111E+06         48.1260
             235    -317.457E-09     132.609E-03     644.653E-03    -196.291E-03    -445.102E-03    -444.699E-03     644.249E-03    -196.291E-03    -40.0531E-03     332.060E-03    -165.589E-03    -166.471E-03    -166.453E-03     332.053E-03    -165.600E-03     3.61094E-03    -150.112E+06    -160.043E+06    -310.537E+06    -154.415E+06    -310.305E+06    -155.972E+06    -4.79144E+06         48.5909
             236     350.364E-09     131.215E-03     346.299E-03    -9.16412E-03    -319.902E-03    -319.109E-03     345.506E-03    -9.16412E-03    -43.7414E-03     335.935E-03    -166.860E-03    -169.075E-03    -169.061E-03     335.933E-03    -166.872E-03     1.62643E-03    -167.096E+06    -174.730E+06    -325.966E+06    -171.178E+06    -325.955E+06    -170.659E+06    -1.30835E+06         48.9063
             237     3.33812E-06     129.814E-03     240.456E-03    -4.39392E-03    -202.753E-03    -188.944E-03     36.7088E-03     185.545E-03    -48.3820E-03     338.146E-03    -167.852E-03    -170.295E-03    -170.051E-03     338.142E-03    -168.091E-03     1.99790E-03    -173.849E+06    -180.513E+06    -337.665E+06    -177.004E+06    -337.611E+06    -177.411E+06    -2.71628E+06         49.1313
             238    -3.70273E-06     128.413E-03     375.189E-03    -44.8079E-03    -279.981E-03    -59.1609E-03    -265.628E-03     375.189E-03    -52.2138E-03     340.317E-03    -169.948E-03    -170.368E-03    -169.944E-03     340.313E-03    -170.368E-03     1.62927E-03    -187.536E+06    -192.109E+06    -356.475E+06    -190.735E+06    -356.378E+06    -189.007E+06    -4.00859E+06         49.3051
             239     3.38621E-06     127.007E-03     548.635E-03     62.8525E-03    -545.932E-03     61.4760E-03    -544.556E-03     548.635E-03    -56.3946E-03     342.776E-03    -170.386E-03    -172.390E-03    -172.209E-03     342.775E-03    -170.566E-03     214.040E-06    -194.746E+06    -198.381E+06    -368.763E+06    -194.823E+06    -368.686E+06    -198.381E+06    -460.053E+03         49.4484
             240    -331.168E-09     125.598E-03     706.653E-03     177.621E-03    -804.101E-03     176.518E-03    -802.998E-03     706.653E-03    -65.1310E-03     343.730E-03    -170.552E-03    -173.178E-03    -173.178E-03     343.729E-03    -170.552E-03     796.149E-06    -185.720E+06    -190.447E+06    -370.841E+06    -188.378E+06    -370.746E+06    -187.883E+06    -908.811E+03         49.5687
             241     1.72059E-06     124.189E-03     837.657E-03     284.692E-03        -1.02762     283.642E-03        -1.02657     837.657E-03    -74.1809E-03     344.927E-03    -171.949E-03    -172.977E-03    -172.977E-03     344.926E-03    -171.949E-03     868.686E-06    -183.505E+06    -189.523E+06    -380.833E+06    -186.142E+06    -380.760E+06    -186.960E+06    -3.20142E+06         49.6692
             242    -1.37166E-06     122.778E-03     936.533E-03     377.473E-03        -1.20714     376.391E-03        -1.20606     936.533E-03    -82.7136E-03     346.718E-03    -173.159E-03    -173.559E-03    -173.383E-03     346.717E-03    -173.334E-03     298.815E-06    -177.742E+06    -183.505E+06    -386.622E+06    -180.096E+06    -386.576E+06    -181.197E+06     1.30928E+06         49.7527
             243     1.10972E-06     121.363E-03         1.00132     453.856E-03        -1.33848     452.690E-03        -1.33731         1.00132    -91.3877E-03     347.624E-03    -173.582E-03    -174.042E-03    -173.866E-03     347.624E-03    -173.757E-03    -220.096E-06    -174.170E+06    -176.593E+06    -383.490E+06    -176.554E+06    -383.414E+06    -174.285E+06     101.514E+03         49.8210
             244    -626.019E-09     119.950E-03         1.02488     511.326E-03        -1.41240     509.812E-03        -1.41088         1.02488    -107.651E-03     348.093E-03    -173.782E-03    -174.311E-03    -174.311E-03     348.093E-03    -173.782E-03    -200.510E-06    -171.697E+06    -173.750E+06    -385.659E+06    -171.744E+06    -385.612E+06    -173.750E+06    -806.786E+03         49.8750
             245     1.02131E-06     118.535E-03         1.00687     548.753E-03        -1.42775     546.812E-03        -1.42581         1.00687    -123.709E-03     348.491E-03    -173.521E-03    -174.970E-03    -174.970E-03     348.491E-03    -173.521E-03    -209.966E-06    -169.340E+06    -174.309E+06    -384.640E+06    -172.383E+06    -384.628E+06    -171.278E+06     1.36477E+06         49.9163
             246     1.04566E-06     117.117E-03     952.024E-03     562.739E-03        -1.38547     560.368E-03        -1.38310     952.024E-03    -135.577E-03     348.386E-03    -172.979E-03    -175.407E-03    -175.407E-03     348.386E-03    -172.979E-03     145.880E-06    -163.920E+06    -170.493E+06    -378.967E+06    -166.959E+06    -378.959E+06    -167.462E+06     1.17413E+06         49.9477
             247     977.987E-09     115.706E-03     862.801E-03     557.529E-03        -1.29261     554.477E-03        -1.28956     862.801E-03    -149.574E-03     348.152E-03    -172.822E-03    -175.330E-03    -175.330E-03     348.152E-03    -172.822E-03    -375.141E-06    -159.903E+06    -166.637E+06    -376.581E+06    -163.108E+06    -376.568E+06    -163.445E+06     1.64672E+06         49.9728
             248     1.22380E-06     114.288E-03     741.839E-03     530.022E-03        -1.14862     526.543E-03        -1.14514     741.839E-03    -152.606E-03     348.441E-03    -173.310E-03    -175.131E-03    -175.131E-03     348.441E-03    -173.310E-03    -58.3171E-06    -155.271E+06    -162.145E+06    -372.034E+06    -158.468E+06    -372.029E+06    -158.953E+06     755.834E+03         49.9953
             249    -356.532E-09     112.875E-03     597.061E-03     477.542E-03    -957.937E-03     473.471E-03    -953.865E-03     597.061E-03    -151.566E-03     348.693E-03    -173.212E-03    -175.480E-03    -173.748E-03     348.692E-03    -174.944E-03    -91.6482E-06    -154.544E+06    -161.800E+06    -373.628E+06    -158.159E+06    -373.587E+06    -158.226E+06    -2.04243E+06         50.0177
             250    -2.50764E-06     111.459E-03     440.439E-03     395.647E-03    -730.464E-03     398.750E-03    -725.092E-03     431.964E-03    -154.246E-03     348.901E-03    -173.558E-03    -175.343E-03    -173.610E-03     348.900E-03    -175.290E-03    -1.09691E-03    -156.314E+06    -163.271E+06    -374.698E+06    -160.027E+06    -374.560E+06    -159.697E+06     1.16612E+06         50.0407
             251     2.56308E-06     110.041E-03     307.843E-03     250.822E-03    -465.247E-03     299.882E-03    -457.286E-03     250.822E-03    -151.235E-03     349.623E-03    -173.895E-03    -175.728E-03    -175.727E-03     349.622E-03    -173.895E-03    -619.520E-06    -150.280E+06    -157.943E+06    -363.882E+06    -154.667E+06    -363.775E+06    -153.662E+06     2.28206E+06         50.0628
             252     480.096E-09     108.626E-03     202.033E-03     61.4591E-03    -181.915E-03     182.638E-03    -162.520E-03     61.4591E-03    -143.095E-03     350.019E-03    -174.013E-03    -176.006E-03    -175.792E-03     350.018E-03    -174.226E-03     367.151E-06    -147.928E+06    -157.865E+06    -360.473E+06    -152.227E+06    -360.455E+06    -153.585E+06     8.96187E+03         50.0817
             253    -894.102E-09     107.205E-03     227.747E-03    -29.6605E-03    -131.385E-03     54.4053E-03     140.625E-03    -128.329E-03    -132.619E-03     350.480E-03    -174.366E-03    -176.114E-03    -175.901E-03     350.480E-03    -174.579E-03    -233.860E-06    -149.440E+06    -160.698E+06    -359.387E+06    -155.052E+06    -359.376E+06    -155.097E+06     563.904E+03         50.0956
             254     3.53812E-06     105.789E-03     451.130E-03    -88.4735E-03    -309.551E-03    -79.8465E-03     442.503E-03    -309.551E-03    -120.468E-03     350.324E-03    -173.587E-03    -176.737E-03    -176.737E-03     350.324E-03    -173.587E-03    -562.870E-06    -144.652E+06    -156.612E+06    -356.140E+06    -150.259E+06    -356.134E+06    -151.011E+06     262.598E+03         50.1049
             255    -890.333E-09     104.369E-03     737.515E-03    -219.669E-03    -478.933E-03    -216.494E-03     734.340E-03    -478.933E-03    -105.735E-03     348.782E-03    -172.996E-03    -175.786E-03    -174.612E-03     348.782E-03    -174.171E-03     101.737E-06    -143.498E+06    -156.450E+06    -354.724E+06    -150.097E+06    -354.718E+06    -149.857E+06     214.403E+03         50.1122
             256    -1.00031E-06     102.957E-03         1.00668    -350.050E-03    -633.386E-03    -348.316E-03         1.00495    -633.386E-03    -95.3376E-03     348.887E-03    -173.339E-03    -175.547E-03    -174.373E-03     348.886E-03    -174.514E-03    -629.910E-06    -147.915E+06    -158.915E+06    -357.346E+06    -154.511E+06    -357.343E+06    -152.323E+06    -872.724E+03         50.1204
             257     2.69013E-06     101.539E-03         1.24855    -469.847E-03    -767.901E-03    -468.792E-03         1.24750    -767.901E-03    -83.5088E-03     350.578E-03    -174.077E-03    -176.501E-03    -176.500E-03     350.577E-03    -174.077E-03     7.56280E-06    -146.847E+06    -151.989E+06    -356.371E+06    -147.613E+06    -356.339E+06    -151.254E+06     1.33270E+06         50.1305
             258    -339.370E-09     100.118E-03         1.45129    -575.235E-03    -877.752E-03    -574.575E-03         1.45063    -877.752E-03    -72.7039E-03     350.409E-03    -174.052E-03    -176.357E-03    -175.442E-03     350.409E-03    -174.967E-03     166.351E-06    -148.437E+06    -149.222E+06    -354.670E+06    -149.278E+06    -354.614E+06    -148.437E+06     95.4219E+03         50.1417
             259    -1.19139E-06     98.7033E-03         1.60777    -657.685E-03    -963.370E-03    -657.214E-03         1.60730    -963.370E-03    -64.7691E-03     349.190E-03    -173.537E-03    -175.653E-03    -174.738E-03     349.190E-03    -174.452E-03    -1.12035E-03    -148.590E+06    -149.506E+06    -354.949E+06    -149.554E+06    -354.902E+06    -148.590E+06    -177.340E+03         50.1529
             260     3.22570E-06     97.2848E-03         1.71411    -713.780E-03        -1.02156    -713.425E-03         1.71375        -1.02156    -58.7286E-03     349.585E-03    -173.689E-03    -175.896E-03    -175.895E-03     349.584E-03    -173.689E-03     277.722E-06    -147.008E+06    -149.795E+06    -351.497E+06    -147.899E+06    -351.471E+06     -148.93E+06     790.101E+03         50.1632
             261    -1.55069E-06     95.8697E-03         1.76129    -739.249E-03        -1.05055    -738.995E-03         1.76104        -1.05055    -49.6698E-03     349.827E-03    -174.339E-03    -175.487E-03    -175.485E-03     349.824E-03    -174.339E-03    -700.128E-06    -151.185E+06    -155.916E+06    -351.019E+06    -154.002E+06    -351.011E+06    -153.107E+06    -57.1217E+03         50.1722
             262     1.81942E-06     94.4514E-03         1.75628    -734.575E-03        -1.05477    -734.434E-03         1.75614        -1.05477    -37.1845E-03     349.624E-03    -174.150E-03    -175.474E-03    -175.470E-03     349.620E-03    -174.150E-03    -241.112E-06    -148.581E+06    -155.577E+06    -349.215E+06    -151.396E+06    -349.209E+06    -152.768E+06     189.307E+03         50.1798
             263     126.576E-09     93.0317E-03         1.69449    -700.524E-03        -1.02843    -700.441E-03         1.69441        -1.02843    -28.0639E-03     350.432E-03    -174.045E-03    -176.387E-03    -176.385E-03     350.430E-03    -174.045E-03     935.416E-06    -148.046E+06    -155.194E+06    -352.073E+06    -151.013E+06    -352.068E+06    -152.233E+06    -1.00339E+06         50.1865
             264     1.85935E-06     91.6161E-03         1.57201    -633.044E-03    -974.383E-03    -633.009E-03         1.57197    -974.383E-03    -16.8083E-03     350.034E-03    -174.305E-03    -175.729E-03    -175.729E-03     350.034E-03    -174.305E-03    -326.948E-06    -150.811E+06    -157.406E+06    -354.430E+06    -153.788E+06    -354.414E+06    -154.445E+06     589.066E+03         50.1931
             265    -1.44780E-06     90.1975E-03         1.39279    -535.135E-03    -891.813E-03    -535.127E-03         1.39279    -891.813E-03    -7.30607E-03     348.979E-03    -174.097E-03    -174.881E-03    -174.362E-03     348.978E-03    -174.616E-03    -438.563E-06    -149.484E+06    -157.484E+06    -347.959E+06    -153.865E+06    -347.944E+06    -153.118E+06     1.59671E+06         50.2009
             266     631.338E-09     88.7848E-03         1.16376    -411.170E-03    -783.356E-03    -411.167E-03         1.16376    -783.356E-03    -235.791E-06     349.070E-03    -174.188E-03    -174.882E-03    -174.187E-03     349.069E-03    -174.882E-03    -925.674E-06    -149.771E+06    -156.748E+06    -344.779E+06    -154.144E+06    -344.771E+06    -152.382E+06    -261.292E+03         50.2108
             267    -949.421E-09     87.3651E-03     899.514E-03    -268.585E-03    -656.849E-03    -268.581E-03     899.510E-03    -656.849E-03    -437.747E-06     349.956E-03    -174.806E-03    -175.150E-03    -174.975E-03     349.956E-03    -174.981E-03    -129.538E-06    -150.934E+06    -156.143E+06    -348.241E+06    -153.538E+06    -348.235E+06    -153.545E+06    -937.838E+03         50.2217
             268     1.27035E-06     85.9474E-03     608.284E-03    -114.259E-03    -512.597E-03    -114.177E-03     608.201E-03    -512.597E-03    -11.1932E-03     350.807E-03    -174.642E-03    -176.165E-03    -176.165E-03     350.807E-03    -174.642E-03    -215.494E-06    -149.146E+06    -156.413E+06    -349.630E+06    -151.751E+06    -349.622E+06    -153.815E+06     604.468E+03         50.2316
             269     955.558E-09     84.5277E-03     304.239E-03     40.6654E-03    -356.102E-03     44.7089E-03     300.196E-03    -356.102E-03    -23.4775E-03     349.222E-03    -173.916E-03    -175.306E-03    -175.306E-03     349.222E-03    -173.916E-03    -724.677E-06    -144.302E+06    -154.935E+06    -346.694E+06    -150.275E+06    -346.685E+06    -148.971E+06     415.487E+03         50.2390
             270    -820.330E-09     83.1143E-03     219.576E-03     9.43199E-03    -233.520E-03     205.427E-03    -23.5560E-03    -186.383E-03    -39.9864E-03     348.395E-03    -173.982E-03    -174.413E-03    -174.017E-03     348.395E-03    -174.378E-03     460.891E-06    -145.224E+06    -156.767E+06    -348.373E+06    -151.195E+06    -348.366E+06    -150.802E+06    -1.13229E+06         50.2453
             271     102.820E-09     81.6983E-03     364.371E-03    -11.2307E-03    -349.275E-03     363.152E-03    -348.056E-03    -11.2307E-03    -57.5310E-03     350.981E-03    -174.401E-03    -176.580E-03    -176.184E-03     350.980E-03    -174.796E-03     263.718E-06    -148.684E+06    -157.913E+06    -350.849E+06    -152.352E+06    -350.832E+06    -154.262E+06     372.746E+03         50.2529
             272     2.93734E-06     80.2741E-03     508.571E-03     162.321E-03    -659.115E-03     507.535E-03    -658.079E-03     162.321E-03    -69.0106E-03     350.941E-03    -174.225E-03    -176.716E-03    -176.715E-03     350.941E-03    -174.225E-03    -633.764E-06    -150.334E+06    -156.013E+06    -347.561E+06    -153.998E+06    -347.547E+06    -152.363E+06     683.108E+03         50.2629
             273    -1.76739E-06     78.8618E-03     631.925E-03     334.898E-03    -949.633E-03     630.966E-03    -948.674E-03     334.898E-03    -77.6721E-03     349.076E-03    -173.926E-03    -175.150E-03    -174.633E-03     349.076E-03    -174.443E-03    -79.6729E-06    -149.042E+06    -152.214E+06    -343.388E+06    -150.202E+06    -343.371E+06    -151.070E+06     832.293E+03         50.2746
             274     14.2886E-03     77.3748E-03     404.755E-03     20.4925E-03    -381.181E-03     19.9453E-03    -380.634E-03     404.755E-03     28.6671E-03     365.532E-03    -174.936E-03    -190.596E-03    -177.853E-03     352.789E-03    -174.936E-03     160.581E-03     123.562E+06     72.7293E+06    -8.04893E+06    -8.03955E+06     72.7199E+06     123.562E+06    -15.0203E+03         75.5683
             275     13.4479E-03     77.0915E-03     439.917E-03     78.0995E-03    -475.197E-03     77.6131E-03    -474.710E-03     439.917E-03     27.9675E-03     365.324E-03    -174.802E-03    -190.522E-03    -177.302E-03     352.104E-03    -174.802E-03     164.803E-03     81.4839E+06     44.3613E+06    -15.1733E+06    -15.1317E+06     44.3197E+06     81.4839E+06     724.936E+03         72.6483
             276     12.6071E-03     76.9252E-03     473.821E-03     138.092E-03    -570.297E-03     138.000E-03    -570.205E-03     473.821E-03    -859.803E-06     356.949E-03    -174.776E-03    -182.173E-03    -174.392E-03     349.168E-03    -174.776E-03     128.441E-03     64.5163E+06     24.1558E+06    -21.2594E+06    -21.2189E+06     24.1153E+06     64.5163E+06     1.02299E+06         69.0762
             277     11.7640E-03     76.7493E-03     505.710E-03     199.819E-03    -665.262E-03     199.750E-03    -665.193E-03     505.710E-03    -14.7472E-03     355.977E-03    -174.803E-03    -181.175E-03    -173.973E-03     348.776E-03    -174.803E-03     123.020E-03     62.7047E+06     15.7324E+06    -27.3883E+06    -27.3710E+06     15.7151E+06     62.7047E+06     346.293E+03         65.3703
             278     10.9245E-03     76.6049E-03     536.141E-03     261.850E-03    -759.197E-03     261.581E-03    -758.928E-03     536.141E-03    -29.4304E-03     353.386E-03    -174.825E-03    -178.561E-03    -173.108E-03     347.933E-03    -174.825E-03     107.092E-03     60.4937E+06     11.9066E+06    -34.4117E+06    -34.3934E+06     11.8884E+06     60.4937E+06     577.944E+03         61.9784
             279     10.0830E-03     76.4781E-03     564.733E-03     323.102E-03    -850.677E-03     322.509E-03    -850.084E-03     564.733E-03    -52.2931E-03     352.015E-03    -174.843E-03    -177.172E-03    -172.635E-03     347.478E-03    -174.843E-03     97.4115E-03     54.6872E+06     8.48465E+06    -42.1247E+06    -42.1169E+06     8.47685E+06     54.6872E+06     533.613E+03         59.1630
             280     9.24176E-03     76.3614E-03     591.499E-03     382.419E-03    -938.351E-03     381.688E-03    -937.620E-03     591.499E-03    -61.8274E-03     350.943E-03    -174.863E-03    -176.079E-03    -172.569E-03     347.433E-03    -174.863E-03     85.5067E-03     48.2764E+06     4.79427E+06    -50.0899E+06     -50.062E+06     4.76633E+06     48.2764E+06     334.978E+03         56.9880
             281     8.40174E-03     76.2653E-03     616.162E-03     438.510E-03        -1.02067     437.942E-03        -1.02010     616.162E-03    -56.0412E-03     349.808E-03    -174.600E-03    -175.208E-03    -172.339E-03     347.226E-03    -174.888E-03     73.1874E-03     41.2293E+06    -474.752E+03    -59.0621E+06    -59.0161E+06    -520.743E+03     41.2293E+06     583.358E+03         55.3761
             282     7.56069E-03     76.1832E-03     638.528E-03     490.586E-03        -1.09652     490.321E-03        -1.09626     638.528E-03    -7.02158E-03     348.940E-03    -174.012E-03    -174.928E-03    -172.244E-03     347.172E-03    -174.928E-03     60.3394E-03     31.4200E+06    -12.2552E+06    -69.9635E+06    -69.9352E+06    -12.2835E+06     31.4200E+06     716.502E+03         54.1895
             283     6.71947E-03     76.1199E-03     658.411E-03     538.453E-03        -1.16545     538.240E-03        -1.16524     658.411E-03     37.9415E-03     348.659E-03    -173.694E-03    -174.966E-03    -172.601E-03     347.566E-03    -174.966E-03     47.3212E-03     13.9819E+06    -45.5329E+06    -81.1927E+06    -81.1720E+06    -45.5536E+06     13.9819E+06     539.827E+03         53.2925
             284     5.88011E-03     76.0756E-03     675.707E-03     581.346E-03        -1.22672     581.213E-03        -1.22658     675.707E-03     23.4527E-03     348.617E-03    -173.624E-03    -174.993E-03    -173.020E-03     348.013E-03    -174.993E-03     34.9402E-03    -10.1007E+06    -84.7752E+06    -110.012E+06    -92.6674E+06    -102.120E+06    -10.1007E+06     450.978E+03         52.5821
             285     5.03987E-03     76.0466E-03     690.444E-03     619.286E-03        -1.28034     619.260E-03        -1.28031     690.444E-03    -7.60925E-03     348.759E-03    -173.753E-03    -175.005E-03    -173.465E-03     348.470E-03    -175.005E-03     24.0814E-03    -35.3844E+06    -104.939E+06    -157.427E+06    -104.951E+06    -157.415E+06    -35.3844E+06     416.517E+03         51.9946
             286     4.19960E-03     76.0281E-03     702.705E-03     652.161E-03        -1.32629     652.042E-03        -1.32617     702.705E-03    -28.6970E-03     349.071E-03    -174.097E-03    -174.974E-03    -173.972E-03     348.947E-03    -174.974E-03     15.6824E-03    -61.2951E+06    -116.914E+06    -200.062E+06    -116.921E+06    -200.055E+06    -61.2951E+06     461.371E+03         51.4988
             287     3.36040E-03     76.0200E-03     712.516E-03     679.795E-03        -1.36447     679.624E-03        -1.36430     712.516E-03    -36.9860E-03     349.062E-03    -174.115E-03    -174.947E-03    -174.070E-03     349.016E-03    -174.947E-03     9.39385E-03    -86.7633E+06    -127.495E+06    -238.883E+06    -127.529E+06    -238.849E+06    -86.7633E+06     1.09456E+06         51.0842
             288     2.51942E-03     76.0196E-03     719.961E-03     701.984E-03        -1.39473     700.993E-03        -1.39374     719.961E-03    -79.8730E-03     349.213E-03    -174.167E-03    -175.046E-03    -174.213E-03     349.199E-03    -174.985E-03     5.09581E-03    -110.716E+06    -135.940E+06    -277.747E+06    -135.972E+06    -277.715E+06    -110.716E+06     929.351E+03         50.7516
             289     1.67903E-03     76.0226E-03     725.376E-03     717.709E-03        -1.41628     716.082E-03        -1.41466     725.376E-03    -117.314E-03     349.832E-03    -174.498E-03    -175.334E-03    -174.826E-03     349.829E-03    -175.004E-03     1.73451E-03    -130.386E+06    -142.490E+06    -308.046E+06    -142.500E+06    -308.037E+06    -130.386E+06    -665.446E+03         50.5061
             290     839.623E-06     76.0218E-03     772.030E-03     684.255E-03        -1.42989     768.971E-03        -1.42875     686.171E-03    -99.1988E-03     349.899E-03    -174.014E-03    -175.885E-03    -175.098E-03     349.899E-03    -174.801E-03    -332.861E-06    -142.224E+06    -148.456E+06    -329.106E+06    -147.152E+06    -329.078E+06    -143.555E+06    -1.34636E+06         50.3517
             291     14.2879E-03     75.9598E-03     475.994E-03     24.7882E-03    -449.818E-03     24.3215E-03    -449.352E-03     475.994E-03     28.4774E-03     365.852E-03    -174.970E-03    -190.882E-03    -178.049E-03     353.019E-03    -174.970E-03     161.024E-03     123.882E+06     72.1123E+06    -8.32702E+06    -8.31923E+06     72.1045E+06     123.882E+06     444.692E+03         75.5184
             292     13.4474E-03     75.6691E-03     512.594E-03     91.2984E-03    -554.852E-03     90.8649E-03    -554.418E-03     512.594E-03     28.7216E-03     365.960E-03    -174.822E-03    -191.138E-03    -177.841E-03     352.663E-03    -174.822E-03     165.217E-03     82.1618E+06     44.0027E+06    -15.3090E+06    -15.2733E+06     43.9671E+06     82.1618E+06     781.368E+03         72.6194
             293     12.6058E-03     75.5129E-03     547.797E-03     159.933E-03    -660.627E-03     159.859E-03    -660.554E-03     547.797E-03     393.612E-06     356.926E-03    -174.786E-03    -182.139E-03    -174.270E-03     349.056E-03    -174.786E-03     129.054E-03     65.2159E+06     24.4095E+06    -20.6064E+06    -20.5543E+06     24.3574E+06     65.2159E+06     991.975E+03         69.0730
             294     11.7654E-03     75.3291E-03     580.977E-03     230.089E-03    -766.069E-03     230.048E-03    -766.028E-03     580.977E-03    -11.9591E-03     355.667E-03    -174.835E-03    -180.832E-03    -173.568E-03     348.403E-03    -174.835E-03     123.288E-03     62.9241E+06     16.0726E+06    -26.9096E+06    -26.8733E+06     16.0363E+06     62.9241E+06     900.229E+03         65.3874
             295     10.9227E-03     75.1908E-03     612.545E-03     299.582E-03    -869.211E-03     299.405E-03    -869.034E-03     612.545E-03    -24.7792E-03     353.189E-03    -174.879E-03    -178.310E-03    -172.952E-03     347.831E-03    -174.879E-03     106.147E-03     59.9719E+06     11.3555E+06    -34.4763E+06    -34.4615E+06     11.3407E+06     59.9719E+06     214.360E+03         62.0072
             296     10.0820E-03     75.0575E-03     642.193E-03     367.303E-03    -968.762E-03     366.874E-03    -968.332E-03     642.193E-03    -47.4574E-03     352.477E-03    -174.885E-03    -177.592E-03    -173.096E-03     347.981E-03    -174.885E-03     97.0394E-03     54.4750E+06     8.84749E+06    -41.7894E+06    -41.7843E+06      8.8424E+06     54.4750E+06     4.69212E+03         59.1958
             297     9.24273E-03     74.9451E-03     669.935E-03     432.673E-03        -1.06401     432.119E-03        -1.06345     669.935E-03    -57.2030E-03     351.339E-03    -174.865E-03    -176.473E-03    -173.020E-03     347.885E-03    -174.865E-03     84.8876E-03     48.1452E+06     5.24950E+06    -50.1010E+06    -50.0774E+06     5.22588E+06     48.1452E+06     87.7324E+03         57.0183
             298     8.40158E-03     74.8463E-03     695.499E-03     494.777E-03        -1.15362     494.359E-03        -1.15320     695.499E-03    -50.8217E-03     350.042E-03    -174.767E-03    -175.275E-03    -172.632E-03     347.485E-03    -174.853E-03     72.9083E-03     40.9554E+06    -1.40636E+06    -59.9332E+06    -59.8918E+06    -1.44779E+06     40.9554E+06     441.737E+03         55.4004
             299     7.56193E-03     74.7664E-03     718.722E-03     552.575E-03        -1.23642     552.344E-03        -1.23619     718.722E-03    -1.10173E-03     349.099E-03    -174.242E-03    -174.857E-03    -172.473E-03     347.330E-03    -174.857E-03     60.3818E-03     31.4175E+06    -11.4238E+06    -70.2445E+06    -70.2195E+06    -11.4488E+06     31.4175E+06     564.010E+03         54.2073
             300     6.72129E-03     74.7030E-03     739.481E-03     605.116E-03        -1.31118     604.864E-03        -1.31093     739.481E-03     43.7661E-03     348.332E-03    -173.448E-03    -174.884E-03    -172.375E-03     347.259E-03    -174.884E-03     46.8002E-03     13.3368E+06    -45.4418E+06    -81.6716E+06    -81.6654E+06    -45.4480E+06     13.3368E+06     303.923E+03         53.3050
             301     5.87964E-03     74.6575E-03     757.743E-03     651.893E-03        -1.37747     651.744E-03        -1.37732     757.743E-03     27.2430E-03     348.158E-03    -173.213E-03    -174.944E-03    -172.623E-03     347.567E-03    -174.944E-03     34.6513E-03    -11.4801E+06    -86.6705E+06    -110.272E+06    -93.9921E+06    -102.951E+06    -11.4801E+06     642.340E+03         52.5911
             302     5.03995E-03     74.6285E-03     773.543E-03     693.359E-03        -1.43587     693.344E-03        -1.43586     773.543E-03    -4.27076E-03     348.542E-03    -173.541E-03    -175.002E-03    -173.230E-03     348.231E-03    -175.002E-03     25.1167E-03    -36.2726E+06    -106.124E+06    -157.149E+06    -106.146E+06    -157.128E+06    -36.2726E+06     914.809E+03         52.0020
             303     4.20012E-03     74.6108E-03     786.878E-03     729.890E-03        -1.48661     729.812E-03        -1.48654     786.878E-03    -24.5427E-03     348.794E-03    -173.759E-03    -175.035E-03    -173.616E-03     348.651E-03    -175.035E-03     16.7304E-03    -61.3869E+06    -117.232E+06    -199.999E+06    -117.240E+06    -199.991E+06    -61.3869E+06     705.525E+03         51.5058
             304     3.35839E-03     74.6036E-03     797.731E-03     760.357E-03        -1.52877     760.233E-03        -1.52864     797.731E-03    -33.6117E-03     349.193E-03    -174.016E-03    -175.177E-03    -174.089E-03     349.147E-03    -175.058E-03     9.15871E-03    -87.3459E+06    -127.384E+06    -239.434E+06    -127.388E+06    -239.430E+06    -87.3459E+06     286.297E+03         51.0915
             305     2.51799E-03     74.6029E-03     806.231E-03     784.979E-03        -1.56256     784.129E-03        -1.56171     806.231E-03    -77.6620E-03     349.849E-03    -174.597E-03    -175.252E-03    -174.838E-03     349.839E-03    -175.001E-03     3.85958E-03    -112.634E+06    -137.098E+06    -276.142E+06    -137.101E+06    -276.139E+06    -112.634E+06     259.382E+03         50.7598
             306     1.67992E-03     74.6012E-03     812.355E-03     803.890E-03        -1.58794     802.423E-03        -1.58647     812.355E-03    -118.211E-03     349.817E-03    -174.575E-03    -175.242E-03    -174.976E-03     349.815E-03    -174.839E-03     974.337E-06    -133.229E+06    -143.979E+06    -306.525E+06    -143.985E+06    -306.518E+06    -133.229E+06    -69.0083E+03         50.5151
             307     841.284E-06     74.6068E-03     839.006E-03     791.366E-03        -1.60285     836.428E-03        -1.60183     792.931E-03    -97.5085E-03     349.439E-03    -173.949E-03    -175.489E-03    -174.604E-03     349.439E-03    -174.834E-03    -369.929E-06    -145.529E+06    -150.403E+06    -331.886E+06    -149.367E+06    -331.852E+06    -146.599E+06    -585.409E+03         50.3611
             308     14.2880E-03     74.5406E-03     531.574E-03     29.0910E-03    -505.167E-03     28.6594E-03    -504.735E-03     531.574E-03     29.0529E-03     365.750E-03    -174.983E-03    -190.767E-03    -177.976E-03     352.959E-03    -174.983E-03     160.685E-03     124.166E+06     71.4735E+06    -8.14614E+06    -8.13642E+06     71.4638E+06     124.166E+06     765.186E+03         75.4701
             309     13.4465E-03     74.2522E-03     568.338E-03     103.276E-03    -618.984E-03     102.864E-03    -618.572E-03     568.338E-03     30.1427E-03     365.441E-03    -174.851E-03    -190.590E-03    -177.350E-03     352.201E-03    -174.851E-03     164.673E-03     82.4714E+06     43.6336E+06    -14.9837E+06    -14.9704E+06     43.6203E+06     82.4714E+06     416.539E+03         72.5905
             310     12.6060E-03     74.0945E-03     603.569E-03     178.374E-03    -732.077E-03     178.305E-03    -732.009E-03     603.569E-03     2.28612E-03     357.214E-03    -174.818E-03    -182.396E-03    -174.587E-03     349.405E-03    -174.818E-03     128.642E-03     65.0853E+06     23.9907E+06    -21.0051E+06    -20.9798E+06     23.9654E+06     65.0853E+06     440.094E+03         69.0687
             311     11.7636E-03     73.9136E-03     636.807E-03     253.714E-03    -843.407E-03     253.690E-03    -843.382E-03     636.807E-03    -8.42932E-03     355.946E-03    -174.842E-03    -181.104E-03    -173.934E-03     348.775E-03    -174.842E-03     122.539E-03     63.1399E+06     16.1598E+06    -27.1953E+06    -27.1633E+06     16.1278E+06     63.1399E+06     815.051E+03         65.4055
             312     10.9238E-03     73.7723E-03     668.389E-03     327.774E-03    -951.718E-03     327.653E-03    -951.597E-03     668.389E-03    -19.9101E-03     353.179E-03    -174.868E-03    -178.311E-03    -173.008E-03     347.876E-03    -174.868E-03     105.611E-03     60.9158E+06     12.4305E+06    -33.5487E+06    -33.5324E+06     12.4142E+06     60.9158E+06     361.975E+03         62.0384
             313     10.0830E-03     73.6410E-03     698.077E-03     399.689E-03        -1.05606     399.379E-03        -1.05575     698.077E-03    -42.1186E-03     352.446E-03    -174.868E-03    -177.578E-03    -173.077E-03     347.945E-03    -174.868E-03     97.0999E-03     54.5272E+06     9.00810E+06    -41.4124E+06    -41.4036E+06     8.99931E+06     54.5272E+06     151.567E+03         59.2298
             314     9.24197E-03     73.5246E-03     725.831E-03     468.727E-03        -1.15539     468.329E-03        -1.15499     725.831E-03    -50.6033E-03     351.312E-03    -174.848E-03    -176.463E-03    -173.015E-03     347.863E-03    -174.848E-03     84.8039E-03     47.7302E+06     4.35024E+06    -50.2957E+06    -50.2794E+06     4.33395E+06     47.7302E+06     459.276E+03         57.0485
             315     8.40273E-03     73.4303E-03     751.454E-03     533.877E-03        -1.24850     533.584E-03        -1.24820     751.454E-03    -44.2335E-03     350.227E-03    -174.758E-03    -175.469E-03    -172.844E-03     347.668E-03    -174.825E-03     72.9734E-03     41.0812E+06    -1.82010E+06    -59.7017E+06    -59.6832E+06    -1.83855E+06     41.0812E+06     501.330E+03         55.4241
             316     7.56121E-03     73.3473E-03     774.869E-03     594.531E-03        -1.33466     594.308E-03        -1.33444     774.869E-03     5.53337E-03     349.173E-03    -174.243E-03    -174.930E-03    -172.593E-03     347.399E-03    -174.806E-03     60.4249E-03     31.3056E+06    -11.2586E+06    -70.7041E+06    -70.6899E+06    -11.2728E+06     31.3056E+06     591.853E+03         54.2246
             317     6.72157E-03     73.2858E-03     795.950E-03     650.588E-03        -1.41342     650.280E-03        -1.41311     795.950E-03     50.3415E-03     348.115E-03    -173.288E-03    -174.828E-03    -172.208E-03     347.036E-03    -174.828E-03     46.9907E-03     12.4182E+06    -45.5205E+06    -82.8880E+06    -82.8677E+06    -45.5409E+06     12.4182E+06     769.095E+03         53.3172
             318     5.88115E-03     73.2421E-03     814.596E-03     701.144E-03        -1.48406     700.961E-03        -1.48388     814.596E-03     33.7489E-03     347.729E-03    -172.802E-03    -174.927E-03    -172.184E-03     347.112E-03    -174.927E-03     35.4279E-03    -12.0561E+06    -87.1107E+06    -110.997E+06    -94.7507E+06    -103.357E+06    -12.0561E+06     626.432E+03         52.5999
             319     5.03875E-03     73.2112E-03     830.780E-03     745.743E-03        -1.54607     745.724E-03        -1.54605     830.780E-03     806.344E-06     348.176E-03    -173.123E-03    -175.053E-03    -172.806E-03     347.859E-03    -175.053E-03     25.1829E-03    -36.8268E+06    -106.121E+06    -156.535E+06    -106.133E+06    -156.524E+06    -36.8268E+06     594.605E+03         52.0091
             320     4.19778E-03     73.1934E-03     844.461E-03     784.577E-03        -1.59948     784.514E-03        -1.59942     844.461E-03    -22.2489E-03     348.994E-03    -173.871E-03    -175.123E-03    -173.737E-03     348.860E-03    -175.123E-03     16.1883E-03    -61.8906E+06    -116.985E+06    -199.312E+06    -116.988E+06    -199.309E+06    -61.8906E+06     294.468E+03         51.5124
             321     3.35920E-03     73.1857E-03     855.675E-03     816.372E-03        -1.64344     816.274E-03        -1.64334     855.675E-03    -30.8923E-03     349.904E-03    -174.657E-03    -175.247E-03    -174.798E-03     349.859E-03    -175.061E-03     9.14806E-03    -87.1645E+06    -127.402E+06    -239.790E+06    -127.407E+06    -239.785E+06    -87.1645E+06     507.058E+03         51.0986
             322     2.52158E-03     73.1822E-03     864.514E-03     842.289E-03        -1.67892     841.533E-03        -1.67816     864.514E-03    -74.8120E-03     349.893E-03    -174.775E-03    -175.118E-03    -175.022E-03     349.882E-03    -174.860E-03     3.92161E-03    -112.285E+06    -137.047E+06    -275.588E+06    -137.054E+06    -275.580E+06    -112.285E+06     772.851E+03         50.7675
             323     1.68052E-03     73.1867E-03     870.875E-03     861.913E-03        -1.70544     860.572E-03        -1.70410     870.875E-03    -117.132E-03     349.201E-03    -174.377E-03    -174.824E-03    -174.448E-03     349.200E-03    -174.752E-03     818.618E-06    -133.292E+06    -145.164E+06    -306.332E+06    -145.167E+06    -306.330E+06    -133.292E+06     473.673E+03         50.5231
             324     837.723E-06     73.1895E-03     885.566E-03     862.094E-03        -1.72097     874.384E-03        -1.72003     872.334E-03    -97.2245E-03     349.481E-03    -174.343E-03    -175.138E-03    -174.847E-03     349.481E-03    -174.634E-03    -18.0723E-06    -145.020E+06    -149.849E+06    -331.746E+06    -148.794E+06    -331.732E+06    -146.090E+06     478.916E+03         50.3694
             325     14.2892E-03     73.1230E-03     569.538E-03     33.1156E-03    -545.695E-03     32.6781E-03    -545.257E-03     569.538E-03     30.1662E-03     365.651E-03    -174.979E-03    -190.672E-03    -177.910E-03     352.890E-03    -174.979E-03     160.463E-03     124.004E+06     71.0430E+06    -7.88977E+06    -7.88579E+06     71.0390E+06     124.004E+06     452.975E+03         75.4235
             326     13.4468E-03     72.8377E-03     605.157E-03     112.590E-03    -664.649E-03     112.147E-03    -664.206E-03     605.157E-03     33.2170E-03     365.332E-03    -174.852E-03    -190.479E-03    -177.232E-03     352.084E-03    -174.852E-03     164.775E-03     82.3668E+06     43.5016E+06    -15.0328E+06    -15.0201E+06     43.4890E+06     82.3668E+06     745.598E+03         72.5635
             327     12.6045E-03     72.6747E-03     639.204E-03     191.316E-03    -780.951E-03     191.243E-03    -780.879E-03     639.204E-03     6.94783E-03     357.257E-03    -174.820E-03    -182.437E-03    -174.676E-03     349.496E-03    -174.820E-03     128.317E-03     65.0501E+06     23.7701E+06    -21.2747E+06    -21.2627E+06     23.7581E+06     65.0501E+06     645.964E+03         69.0659
             328     11.7663E-03     72.4964E-03     671.385E-03     268.803E-03    -893.950E-03     268.795E-03    -893.941E-03     671.385E-03    -3.26982E-03     356.120E-03    -174.831E-03    -181.290E-03    -174.159E-03     348.990E-03    -174.831E-03     122.347E-03     63.4499E+06     16.3901E+06    -26.9754E+06    -26.9727E+06     16.3874E+06     63.4499E+06     72.1437E+03         65.4238
             329     10.9238E-03     72.3557E-03     701.910E-03     345.282E-03        -1.00415     345.200E-03        -1.00407     701.910E-03    -14.7682E-03     353.502E-03    -174.834E-03    -178.668E-03    -173.312E-03     348.145E-03    -174.834E-03     106.201E-03     60.8557E+06     12.6060E+06    -33.8308E+06    -33.8237E+06     12.5989E+06     60.8557E+06     267.369E+03         62.0691
             330     10.0829E-03     72.2224E-03     730.592E-03     419.278E-03        -1.10994     419.062E-03        -1.10972     730.592E-03    -35.9559E-03     352.228E-03    -174.828E-03    -177.400E-03    -172.895E-03     347.723E-03    -174.828E-03     97.0933E-03     54.3346E+06     8.88565E+06    -41.6903E+06    -41.6779E+06     8.87325E+06     54.3346E+06     791.375E+03         59.2632
             331     9.24279E-03     72.1077E-03     757.399E-03     489.468E-03        -1.20982     489.173E-03        -1.20953     757.399E-03    -44.5848E-03     351.054E-03    -174.825E-03    -176.229E-03    -172.763E-03     347.588E-03    -174.825E-03     85.0059E-03     47.5026E+06     4.04191E+06    -50.1620E+06    -50.1557E+06     4.03559E+06     47.5026E+06     428.355E+03         57.0778
             332     8.40154E-03     72.0106E-03     782.230E-03     555.485E-03        -1.30320     555.272E-03        -1.30299     782.230E-03    -37.9624E-03     350.241E-03    -174.743E-03    -175.498E-03    -172.876E-03     347.684E-03    -174.808E-03     72.8986E-03     40.6137E+06    -2.00586E+06    -59.3773E+06    -59.3711E+06    -2.01202E+06     40.6137E+06     188.348E+03         55.4469
             333     7.56312E-03     71.9300E-03     805.014E-03     617.382E-03        -1.39018     617.151E-03        -1.38995     805.014E-03     12.9082E-03     348.730E-03    -173.789E-03    -174.941E-03    -172.147E-03     346.964E-03    -174.817E-03     60.3157E-03     31.4521E+06    -12.6555E+06    -69.9436E+06    -69.9154E+06    -12.6838E+06     31.4521E+06     890.182E+03         54.2412
             334     6.72096E-03     71.8695E-03     825.627E-03     675.075E-03        -1.47031     674.675E-03        -1.46991     825.627E-03     58.4309E-03     347.940E-03    -173.053E-03    -174.887E-03    -171.937E-03     346.824E-03    -174.887E-03     47.7554E-03     13.4683E+06    -45.2231E+06    -81.6723E+06    -81.5628E+06    -45.3326E+06     13.4683E+06     1.51053E+06         53.3291
             335     5.87917E-03     71.8255E-03     843.969E-03     726.770E-03        -1.54190     726.526E-03        -1.54166     843.969E-03     41.1734E-03     348.361E-03    -173.394E-03    -174.966E-03    -172.761E-03     347.728E-03    -174.966E-03     35.8407E-03    -11.4364E+06    -84.9276E+06    -110.761E+06    -93.4547E+06    -102.234E+06    -11.4364E+06     1.12720E+06         52.6092
             336     5.03986E-03     71.7945E-03     859.974E-03     772.726E-03        -1.60522     772.702E-03        -1.60520     859.974E-03     6.37311E-03     348.636E-03    -173.630E-03    -175.005E-03    -173.326E-03     348.332E-03    -175.005E-03     24.5811E-03    -37.0126E+06    -105.884E+06    -156.321E+06    -105.898E+06    -156.306E+06    -37.0126E+06     695.200E+03         52.0173
             337     4.19963E-03     71.7761E-03     873.534E-03     812.790E-03        -1.65973     812.753E-03        -1.65969     873.534E-03    -16.2655E-03     348.861E-03    -173.842E-03    -175.019E-03    -173.721E-03     348.740E-03    -175.019E-03     15.4835E-03    -62.6695E+06    -118.043E+06    -199.107E+06    -118.053E+06    -199.097E+06    -62.6695E+06     685.718E+03         51.5201
             338     3.35918E-03     71.7656E-03     884.589E-03     845.678E-03        -1.70466     845.610E-03        -1.70459     884.589E-03    -26.0470E-03     349.139E-03    -174.026E-03    -175.113E-03    -174.048E-03     349.093E-03    -175.046E-03     9.42637E-03    -87.0248E+06    -128.887E+06    -240.357E+06    -128.896E+06    -240.348E+06    -87.0248E+06     839.626E+03         51.1060
             339     2.51830E-03     71.7651E-03     893.165E-03     871.822E-03        -1.74012     871.120E-03        -1.73942     893.165E-03    -72.5786E-03     349.557E-03    -174.435E-03    -175.122E-03    -174.488E-03     349.544E-03    -175.055E-03     4.76741E-03    -111.547E+06    -138.188E+06    -275.197E+06    -138.198E+06    -275.186E+06    -111.547E+06     1.11009E+06         50.7747
             340     1.67928E-03     71.7700E-03     899.431E-03     890.256E-03        -1.76542     888.971E-03        -1.76413     899.431E-03    -116.732E-03     350.021E-03    -174.824E-03    -175.198E-03    -175.066E-03     350.019E-03    -174.953E-03     1.42390E-03    -133.676E+06    -145.892E+06    -304.797E+06    -145.897E+06    -304.791E+06    -133.676E+06     763.609E+03         50.5307
             341     842.146E-06     71.7722E-03     921.867E-03     883.090E-03        -1.78140     882.191E-03        -1.78050     921.867E-03    -95.7692E-03     349.665E-03    -174.451E-03    -175.214E-03    -174.815E-03     349.665E-03    -174.850E-03     255.365E-06    -146.316E+06    -150.990E+06    -330.948E+06    -149.980E+06    -330.944E+06    -147.330E+06    -331.194E+03         50.3772
             342     14.2874E-03     71.7075E-03     588.515E-03     37.2518E-03    -571.169E-03     36.7740E-03    -570.691E-03     588.515E-03     32.0767E-03     365.952E-03    -174.989E-03    -190.963E-03    -178.239E-03     353.227E-03    -174.989E-03     160.390E-03     123.572E+06     70.2591E+06    -8.30921E+06    -8.30784E+06     70.2577E+06     123.572E+06     119.840E+03         75.3771
             343     13.4465E-03     71.4187E-03     621.751E-03     117.966E-03    -689.690E-03     117.456E-03    -689.181E-03     621.751E-03     37.1507E-03     365.761E-03    -174.834E-03    -190.927E-03    -177.764E-03     352.599E-03    -174.834E-03     164.315E-03     82.1589E+06     43.1162E+06    -15.2337E+06    -15.2235E+06     43.1060E+06     82.1589E+06     462.712E+03         72.5376
             344     12.6072E-03     71.2584E-03     653.498E-03     197.223E-03    -804.774E-03     197.131E-03    -804.682E-03     653.498E-03     11.9882E-03     356.782E-03    -174.798E-03    -181.984E-03    -174.216E-03     349.015E-03    -174.798E-03     128.201E-03     65.2751E+06     24.2949E+06    -20.5066E+06    -20.4956E+06     24.2839E+06     65.2751E+06     472.403E+03         69.0635
             345     11.7630E-03     71.0782E-03     683.566E-03     275.728E-03    -917.102E-03     275.721E-03    -917.094E-03     683.566E-03     2.74366E-03     356.062E-03    -174.830E-03    -181.233E-03    -174.015E-03     348.845E-03    -174.830E-03     123.034E-03     63.2024E+06     16.5523E+06    -26.5931E+06    -26.5787E+06     16.5379E+06     63.2024E+06     510.744E+03         65.4401
             346     10.9243E-03     70.9374E-03     711.978E-03     351.636E-03        -1.02491     351.585E-03        -1.02486     711.978E-03    -7.69235E-03     353.842E-03    -174.829E-03    -179.013E-03    -173.635E-03     348.464E-03    -174.829E-03     106.479E-03     60.4282E+06     12.0661E+06    -33.9166E+06    -33.8976E+06     12.0471E+06     60.4282E+06     707.247E+03         62.0972
             347     10.0843E-03     70.8050E-03     738.695E-03     424.163E-03        -1.12754     424.029E-03        -1.12740     738.695E-03    -28.2345E-03     352.372E-03    -174.804E-03    -177.568E-03    -173.049E-03     347.853E-03    -174.804E-03     97.2911E-03     54.2547E+06     8.79273E+06    -41.4216E+06    -41.4120E+06     8.78314E+06     54.2547E+06     601.864E+03         59.2949
             348     9.24230E-03     70.6915E-03     763.687E-03     493.522E-03        -1.22497     493.321E-03        -1.22477     763.687E-03    -36.8407E-03     350.873E-03    -174.772E-03    -176.101E-03    -172.564E-03     347.368E-03    -174.804E-03     85.4704E-03     47.7187E+06     4.52428E+06    -49.7117E+06    -49.7043E+06     4.51695E+06     47.7187E+06     500.069E+03         57.1062
             349     8.40320E-03     70.5903E-03     786.869E-03     559.418E-03        -1.31672     559.277E-03        -1.31658     786.869E-03    -30.4478E-03     349.433E-03    -174.275E-03    -175.158E-03    -171.992E-03     346.834E-03    -174.842E-03     73.3710E-03     40.1976E+06    -2.34045E+06    -59.6915E+06    -59.6716E+06    -2.36038E+06     40.1976E+06     648.452E+03         55.4690
             350     7.56063E-03     70.5151E-03     808.157E-03     621.053E-03        -1.40206     620.797E-03        -1.40181     808.157E-03     20.1355E-03     348.615E-03    -173.700E-03    -174.915E-03    -171.899E-03     346.814E-03    -174.915E-03     60.8902E-03     30.1836E+06    -13.8529E+06    -70.6601E+06    -70.6200E+06    -13.8930E+06     30.1836E+06     552.005E+03         54.2573
             351     6.71930E-03     70.4530E-03     827.511E-03     677.372E-03        -1.47967     676.880E-03        -1.47917     827.511E-03     65.0885E-03     348.677E-03    -173.704E-03    -174.973E-03    -172.579E-03     347.552E-03    -174.973E-03     47.9806E-03     12.8927E+06    -46.0870E+06    -81.8593E+06    -81.6913E+06     -46.255E+06     12.8927E+06     1.28025E+06         53.3414
             352     5.88032E-03     70.4065E-03     844.864E-03     728.393E-03        -1.54969     728.094E-03        -1.54939     844.864E-03     46.6261E-03     348.932E-03    -173.954E-03    -174.979E-03    -173.333E-03     348.311E-03    -174.979E-03     35.5299E-03    -11.2826E+06    -85.3523E+06    -109.423E+06    -93.5500E+06    -101.225E+06    -11.2826E+06     2.21606E+06         52.6195
             353     5.04009E-03     70.3766E-03     860.064E-03     774.129E-03        -1.61208     774.096E-03        -1.61204     860.064E-03     11.5102E-03     349.004E-03    -174.063E-03    -174.941E-03    -173.756E-03     348.696E-03    -174.941E-03     24.8816E-03    -35.7859E+06    -105.692E+06    -155.356E+06    -105.819E+06    -155.230E+06    -35.7859E+06     1.67545E+06         52.0264
             354     4.20045E-03     70.3583E-03     872.972E-03     813.599E-03        -1.66540     813.579E-03        -1.66538     872.972E-03    -10.5356E-03     348.705E-03    -173.796E-03    -174.909E-03    -173.664E-03     348.573E-03    -174.909E-03     16.0608E-03    -60.9667E+06     -117.31E+06    -198.567E+06    -117.325E+06    -198.552E+06    -60.9667E+06     1.05224E+06         51.5286
             355     3.35956E-03     70.3505E-03     883.596E-03     845.387E-03        -1.70877     845.342E-03        -1.70872     883.596E-03    -21.4825E-03     348.527E-03    -173.539E-03    -174.987E-03    -173.497E-03     348.484E-03    -174.987E-03     8.84736E-03    -86.1281E+06    -127.969E+06    -239.902E+06    -127.976E+06    -239.896E+06    -86.1281E+06     757.029E+03         51.1139
             356     2.51844E-03     70.3479E-03     892.011E-03     870.670E-03        -1.74324     870.041E-03        -1.74261     892.011E-03    -68.0205E-03     349.152E-03    -173.985E-03    -175.167E-03    -173.976E-03     349.143E-03    -175.167E-03     3.74961E-03    -110.374E+06    -137.708E+06    -275.586E+06    -137.712E+06    -275.582E+06    -110.374E+06     444.604E+03         50.7823
             357     1.67879E-03     70.3488E-03     897.931E-03     890.196E-03        -1.76897     888.951E-03        -1.76773     897.931E-03    -114.975E-03     350.163E-03    -174.609E-03    -175.555E-03    -174.852E-03     350.162E-03    -175.310E-03     1.10138E-03    -131.917E+06    -145.128E+06    -303.110E+06    -145.133E+06    -303.105E+06    -131.917E+06     493.663E+03         50.5382
             358     838.241E-06     70.3554E-03     940.069E-03     861.178E-03        -1.78282     860.323E-03        -1.78196     940.069E-03    -91.9257E-03     350.650E-03    -174.630E-03    -176.020E-03    -175.351E-03     350.649E-03    -175.298E-03     178.745E-06    -146.349E+06    -151.111E+06    -330.776E+06    -150.098E+06    -330.775E+06    -147.363E+06     251.046E+03         50.3848
             359     14.2877E-03     70.2879E-03     587.900E-03     40.2065E-03    -579.751E-03     39.6781E-03    -579.222E-03     587.900E-03     34.0432E-03     366.051E-03    -174.990E-03    -191.061E-03    -178.334E-03     353.324E-03    -174.990E-03     160.422E-03     123.514E+06     69.8973E+06    -8.32967E+06    -8.32908E+06     69.8967E+06     123.514E+06     71.8855E+03         75.3309
             360     13.4486E-03     70.0000E-03     617.701E-03     119.432E-03    -693.564E-03     118.850E-03    -692.982E-03     617.701E-03     40.4099E-03     365.725E-03    -174.835E-03    -190.890E-03    -177.691E-03     352.526E-03    -174.835E-03     164.621E-03     82.2375E+06     43.4781E+06    -14.7529E+06    -14.7519E+06     43.4772E+06     82.2375E+06     8.25088E+03         72.5099
             361     12.6051E-03     69.8434E-03     646.084E-03     197.613E-03    -804.520E-03     197.492E-03    -804.399E-03     646.084E-03     16.3270E-03     357.106E-03    -174.790E-03    -182.315E-03    -174.516E-03     349.306E-03    -174.790E-03     128.567E-03     64.6158E+06     23.8769E+06    -20.5212E+06    -20.5183E+06     23.8740E+06     64.6158E+06     104.534E+03         69.0592
             362     11.7656E-03     69.6612E-03     672.982E-03     273.823E-03    -911.601E-03     273.800E-03    -911.577E-03     672.982E-03     8.93962E-03     356.049E-03    -174.811E-03    -181.238E-03    -174.037E-03     348.848E-03    -174.811E-03     122.899E-03     62.2244E+06     15.4160E+06    -26.9879E+06    -26.9680E+06     15.3961E+06     62.2244E+06     818.783E+03         65.4560
             363     10.9238E-03     69.5175E-03     698.329E-03     346.532E-03        -1.01336     346.491E-03        -1.01332     698.329E-03     10.8187E-06     353.429E-03    -174.824E-03    -178.605E-03    -173.263E-03     348.087E-03    -174.824E-03     106.035E-03     60.1066E+06     11.8389E+06    -33.4500E+06    -33.4284E+06     11.8173E+06     60.1066E+06     890.821E+03         62.1244
             364     10.0825E-03     69.3892E-03     722.179E-03     415.776E-03        -1.10995     415.701E-03        -1.10987     722.179E-03    -20.5731E-03     352.358E-03    -174.818E-03    -177.540E-03    -172.997E-03     347.815E-03    -174.818E-03     97.5861E-03     54.2430E+06     9.07589E+06    -40.8307E+06    -40.8221E+06     9.06727E+06     54.2430E+06     537.050E+03         59.3249
             365     9.24399E-03     69.2706E-03     744.464E-03     482.198E-03        -1.20181     482.069E-03        -1.20169     744.464E-03    -29.3406E-03     350.508E-03    -174.635E-03    -175.873E-03    -172.106E-03     346.953E-03    -174.847E-03     85.9743E-03     47.7890E+06     4.14597E+06    -49.5615E+06    -49.5406E+06     4.12512E+06     47.7890E+06     898.049E+03         57.1334
             366     8.40042E-03     69.1785E-03     765.165E-03     544.971E-03        -1.28810     544.884E-03        -1.28801     765.165E-03    -23.0717E-03     349.159E-03    -174.223E-03    -174.936E-03    -171.602E-03     346.538E-03    -174.936E-03     73.6616E-03     40.6607E+06    -2.60642E+06    -59.3539E+06    -59.3100E+06    -2.65033E+06     40.6607E+06     1.54451E+06         55.4906
             367     7.55909E-03     69.0956E-03     784.246E-03     603.282E-03        -1.36799     602.969E-03        -1.36768     784.246E-03     27.7670E-03     349.178E-03    -174.171E-03    -175.007E-03    -172.379E-03     347.386E-03    -175.007E-03     60.6945E-03     30.0814E+06    -12.7142E+06    -70.6350E+06    -70.5729E+06    -12.7763E+06     30.0814E+06     1.24631E+06         54.2738
             368     6.72085E-03     69.0344E-03     801.668E-03     657.605E-03        -1.44171     656.985E-03        -1.44109     801.668E-03     71.8935E-03     349.323E-03    -174.316E-03    -175.007E-03    -173.210E-03     348.217E-03    -175.007E-03     47.7251E-03     11.9710E+06    -47.8332E+06    -83.2320E+06    -83.1265E+06    -47.9387E+06     11.9710E+06     966.295E+03         53.3544
             369     5.87972E-03     68.9886E-03     817.342E-03     706.433E-03        -1.50789     706.058E-03        -1.50752     817.342E-03     52.6915E-03     349.067E-03    -174.100E-03    -174.966E-03    -173.476E-03     348.442E-03    -174.966E-03     35.5409E-03    -11.0729E+06    -88.2385E+06    -108.356E+06    -94.9118E+06    -101.682E+06    -11.0729E+06     1.71511E+06         52.6302
             370     5.04000E-03     68.9583E-03     831.237E-03     748.861E-03        -1.56573     748.806E-03        -1.56567     831.237E-03     16.9735E-03     348.724E-03    -173.788E-03    -174.937E-03    -173.488E-03     348.425E-03    -174.937E-03     24.5842E-03    -34.5080E+06    -105.092E+06    -152.932E+06    -105.216E+06    -152.808E+06    -34.5080E+06     1.55226E+06         52.0356
             371     4.19960E-03     68.9412E-03     843.245E-03     786.206E-03        -1.61605     786.193E-03        -1.61603     843.245E-03    -6.08525E-03     348.784E-03    -173.861E-03    -174.923E-03    -173.729E-03     348.652E-03    -174.923E-03     16.1313E-03    -59.5901E+06    -116.001E+06    -197.890E+06    -116.009E+06    -197.882E+06    -59.5901E+06     706.022E+03         51.5370
             372     3.35990E-03     68.9336E-03     853.155E-03     817.251E-03        -1.65801     817.223E-03        -1.65798     853.155E-03    -16.1887E-03     349.000E-03    -174.084E-03    -174.915E-03    -174.040E-03     348.955E-03    -174.915E-03     9.12863E-03    -85.5210E+06    -126.910E+06    -239.184E+06    -126.913E+06    -239.181E+06    -85.5210E+06     503.576E+03         51.1221
             373     2.52033E-03     68.9311E-03     860.907E-03     841.396E-03        -1.69070     840.815E-03        -1.69012     860.907E-03    -62.4673E-03     348.932E-03    -173.932E-03    -175.000E-03    -173.922E-03     348.922E-03    -175.000E-03     4.26421E-03    -109.846E+06    -136.257E+06    -275.294E+06    -136.259E+06    -275.293E+06    -109.846E+06     261.599E+03         50.7904
             374     1.67859E-03     68.9327E-03     866.527E-03     858.732E-03        -1.71381     857.521E-03        -1.71260     866.527E-03    -111.526E-03     349.501E-03    -174.222E-03    -175.279E-03    -174.221E-03     349.499E-03    -175.279E-03     1.08918E-03    -131.010E+06    -143.852E+06    -303.276E+06    -143.856E+06    -303.272E+06    -131.010E+06    -55.7905E+03         50.5460
             375     839.069E-06     68.9344E-03     929.759E-03     808.612E-03        -1.72816     807.771E-03        -1.72732     929.759E-03    -88.8837E-03     350.894E-03    -174.621E-03    -176.273E-03    -175.876E-03     350.893E-03    -175.017E-03    -819.494E-06    -145.538E+06    -149.692E+06    -330.767E+06    -149.696E+06    -330.763E+06    -145.538E+06     118.795E+03         50.3926
             376     14.2891E-03     68.8694E-03     568.047E-03     43.4945E-03    -572.435E-03     42.9494E-03    -571.890E-03     568.047E-03     34.0263E-03     365.456E-03    -174.982E-03    -190.474E-03    -177.694E-03     352.676E-03    -174.982E-03     160.444E-03     123.032E+06     69.7341E+06    -7.91861E+06    -7.91586E+06     69.7313E+06     123.032E+06    -16.7642E+03         75.2847
             377     13.4447E-03     68.5842E-03     593.379E-03     119.443E-03    -678.707E-03     118.810E-03    -678.074E-03     593.379E-03     42.3446E-03     365.501E-03    -174.855E-03    -190.646E-03    -177.359E-03     352.214E-03    -174.855E-03     165.030E-03     80.8067E+06     43.0862E+06    -15.1629E+06    -15.1597E+06      43.083E+06     80.8067E+06    -97.2141E+03         72.4805
             378     12.6061E-03     68.4233E-03     617.389E-03     192.470E-03    -780.373E-03     192.318E-03    -780.222E-03     617.389E-03     19.4898E-03     357.767E-03    -174.806E-03    -182.961E-03    -175.165E-03     349.971E-03    -174.806E-03     128.722E-03     63.7808E+06     23.0590E+06    -21.3637E+06    -21.3592E+06     23.0545E+06     63.7808E+06     40.8673E+03         69.0530
             379     11.7655E-03     68.2435E-03     640.244E-03     262.991E-03    -877.855E-03     262.945E-03    -877.808E-03     640.244E-03     13.3274E-03     356.166E-03    -174.806E-03    -181.360E-03    -174.147E-03     348.953E-03    -174.806E-03     123.113E-03     62.7006E+06     15.4297E+06    -26.8001E+06    -26.7892E+06     15.4188E+06     62.7006E+06     383.266E+03         65.4711
             380     10.9240E-03     68.1029E-03     661.703E-03     330.887E-03    -970.998E-03     330.839E-03    -970.950E-03     661.703E-03     5.59575E-03     353.145E-03    -174.832E-03    -178.314E-03    -172.869E-03     347.701E-03    -174.832E-03     106.975E-03     60.2805E+06     11.8482E+06    -33.2097E+06    -33.1988E+06     11.8373E+06     60.2805E+06     652.076E+03         62.1512
             381     10.0841E-03     67.9685E-03     681.830E-03     395.511E-03        -1.05926     395.471E-03        -1.05922     681.830E-03    -14.3006E-03     351.864E-03    -174.869E-03    -176.995E-03    -172.419E-03     347.287E-03    -174.869E-03     97.7936E-03     53.8049E+06     8.47837E+06    -40.9730E+06    -40.9471E+06     8.45246E+06     53.8049E+06     990.181E+03         59.3543
             382     9.24036E-03     67.8573E-03     700.567E-03     456.309E-03        -1.14204     456.223E-03        -1.14196     700.567E-03    -23.1706E-03     350.581E-03    -174.744E-03    -175.837E-03    -172.144E-03     347.068E-03    -174.924E-03     85.4596E-03     47.0652E+06     3.54205E+06    -49.7507E+06    -49.7072E+06     3.49849E+06     47.0652E+06     1.48105E+06         57.1601
             383     8.40039E-03     67.7596E-03     717.986E-03     513.191E-03        -1.21913     513.135E-03        -1.21907     717.986E-03    -16.5794E-03     350.070E-03    -174.758E-03    -175.312E-03    -172.540E-03     347.509E-03    -174.969E-03     72.9005E-03     40.5420E+06    -2.76588E+06    -59.1280E+06    -59.0860E+06    -2.80786E+06     40.5420E+06     1.52895E+06         55.5129
             384     7.56118E-03     67.6780E-03     734.100E-03     566.558E-03        -1.29113     566.173E-03        -1.29075     734.100E-03     34.7494E-03     349.378E-03    -174.381E-03    -174.997E-03    -172.656E-03     347.639E-03    -174.983E-03     59.8809E-03     31.7882E+06    -12.2909E+06    -69.6157E+06    -69.5402E+06    -12.3663E+06     31.7882E+06     2.01316E+06         54.2912
             385     6.71876E-03     67.6157E-03     748.949E-03     615.779E-03        -1.35725     615.002E-03        -1.35647     748.949E-03     78.1233E-03     348.873E-03    -173.882E-03    -174.990E-03    -172.792E-03     347.782E-03    -174.990E-03     47.3577E-03     14.0470E+06    -46.7289E+06    -81.1806E+06    -81.0542E+06    -46.8554E+06     14.0470E+06     1.82809E+06         53.3672
             386     5.88064E-03     67.5693E-03     762.547E-03     659.529E-03        -1.41623     659.055E-03        -1.41576     762.547E-03     58.0741E-03     348.820E-03    -173.829E-03    -174.991E-03    -173.203E-03     348.194E-03    -174.991E-03     35.6412E-03    -10.1583E+06    -86.7296E+06    -107.569E+06    -92.8104E+06    -101.488E+06    -10.1583E+06     355.513E+03         52.6398
             387     5.04030E-03     67.5417E-03     774.821E-03     698.521E-03        -1.46906     698.441E-03        -1.46898     774.821E-03     21.1763E-03     348.795E-03    -173.812E-03    -174.983E-03    -173.505E-03     348.488E-03    -174.983E-03     24.8609E-03    -34.4106E+06    -104.307E+06    -152.639E+06    -104.344E+06    -152.603E+06    -34.4106E+06     190.702E+03         52.0438
             388     4.19957E-03     67.5240E-03     785.544E-03     732.877E-03        -1.51509     732.870E-03        -1.51508     785.544E-03    -1.54634E-03     348.934E-03    -173.970E-03    -174.964E-03    -173.838E-03     348.801E-03    -174.964E-03     16.1544E-03    -59.8679E+06    -115.568E+06    -197.340E+06    -115.574E+06    -197.335E+06    -59.8679E+06     501.213E+03         51.5448
             389     3.35962E-03     67.5148E-03     794.552E-03     760.952E-03        -1.55307     760.936E-03        -1.55305     794.552E-03    -11.9517E-03     349.155E-03    -174.216E-03    -174.939E-03    -174.172E-03     349.110E-03    -174.939E-03     9.16542E-03    -85.3962E+06    -126.145E+06    -239.222E+06    -126.146E+06    -239.221E+06    -85.3962E+06     257.063E+03         51.1300
             390     2.51914E-03     67.5154E-03     801.825E-03     783.148E-03        -1.58347     782.567E-03        -1.58289     801.825E-03    -59.4772E-03     349.431E-03    -174.341E-03    -175.089E-03    -174.530E-03     349.420E-03    -174.890E-03     4.35846E-03    -109.597E+06    -135.201E+06    -274.586E+06    -135.203E+06    -274.584E+06    -109.597E+06     461.484E+03         50.7984
             391     1.67986E-03     67.5151E-03     807.686E-03     799.708E-03        -1.60598     799.080E-03        -1.60471     807.048E-03    -110.174E-03     349.523E-03    -174.441E-03    -175.083E-03    -174.708E-03     349.522E-03    -174.814E-03     1.19892E-03    -131.016E+06    -143.337E+06    -303.343E+06    -143.347E+06    -303.333E+06    -131.016E+06     515.536E+03         50.5542
             392     839.763E-06     67.5160E-03     887.207E-03     731.546E-03        -1.61887     731.323E-03        -1.61801     886.568E-03    -85.4013E-03     349.497E-03    -173.597E-03    -175.900E-03    -175.799E-03     349.496E-03    -173.697E-03    -760.032E-06    -145.053E+06    -149.663E+06    -330.638E+06    -148.984E+06    -330.629E+06    -145.742E+06     244.652E+03         50.4006
             393     14.2877E-03     67.4559E-03     529.862E-03     46.7801E-03    -549.545E-03     46.1810E-03    -548.946E-03     529.862E-03     34.6851E-03     365.369E-03    -174.983E-03    -190.386E-03    -177.660E-03     352.643E-03    -174.983E-03     160.127E-03     122.478E+06     69.1471E+06    -8.19451E+06    -8.18878E+06     69.1414E+06     122.478E+06     121.800E+03         75.2387
             394     13.4474E-03     67.1667E-03     549.852E-03     116.028E-03    -644.160E-03     115.317E-03    -643.449E-03     549.852E-03     43.9069E-03     365.613E-03    -174.854E-03    -190.759E-03    -177.483E-03     352.337E-03    -174.854E-03     165.131E-03     80.6787E+06     42.9975E+06    -15.2275E+06    -15.2209E+06     42.9909E+06     80.6787E+06     231.527E+03         72.4528
             395     12.6052E-03     67.0035E-03     568.718E-03     181.758E-03    -733.506E-03     181.580E-03    -733.328E-03     568.718E-03     21.1349E-03     357.183E-03    -174.822E-03    -182.360E-03    -174.559E-03     349.382E-03    -174.822E-03     128.638E-03     63.5544E+06     23.2631E+06    -21.3056E+06    -21.3024E+06     23.2599E+06     63.5544E+06     63.4307E+03         69.0473
             396     11.7644E-03     66.8271E-03     586.769E-03     245.501E-03    -819.416E-03     245.424E-03    -819.338E-03     586.769E-03     16.6500E-03     356.103E-03    -174.848E-03    -181.256E-03    -174.033E-03     348.881E-03    -174.848E-03     123.203E-03     61.8838E+06     15.2757E+06    -27.3141E+06    -27.3023E+06     15.2639E+06     61.8838E+06    -280.580E+03         65.4841
             397     10.9239E-03     66.6844E-03     603.540E-03     306.264E-03    -900.745E-03     306.194E-03    -900.676E-03     603.540E-03     10.4213E-03     353.424E-03    -174.876E-03    -178.548E-03    -173.087E-03     347.963E-03    -174.876E-03     107.169E-03     59.9361E+06     11.1400E+06    -33.9928E+06    -33.9754E+06     11.1226E+06     59.9361E+06     256.525E+03         62.1769
             398     10.0809E-03     66.5535E-03     619.182E-03     363.286E-03    -976.966E-03     363.269E-03    -976.949E-03     619.182E-03    -8.29436E-03     351.957E-03    -174.903E-03    -177.054E-03    -172.559E-03     347.462E-03    -174.903E-03     96.8929E-03     54.1674E+06     7.70992E+06    -41.3319E+06    -41.3067E+06     7.68466E+06     54.1674E+06     923.172E+03         59.3845
             399     9.24163E-03     66.4393E-03     633.650E-03     416.220E-03        -1.04754     416.175E-03        -1.04749     633.650E-03    -15.8859E-03     351.088E-03    -174.922E-03    -176.166E-03    -172.736E-03     347.658E-03    -174.922E-03     84.5770E-03     47.4293E+06     2.92982E+06    -49.3874E+06    -49.3497E+06     2.89215E+06     47.4293E+06     1.23549E+06         57.1885
             400     8.40185E-03     66.3398E-03     647.126E-03     465.297E-03        -1.11290     465.267E-03        -1.11287     647.126E-03    -10.2747E-03     350.295E-03    -174.845E-03    -175.450E-03    -172.832E-03     347.751E-03    -174.919E-03     72.7166E-03     40.7100E+06    -3.02763E+06    -58.6390E+06    -58.5773E+06    -3.08937E+06     40.7100E+06     1.76172E+06         55.5360
             401     7.56076E-03     66.2610E-03     659.725E-03     511.500E-03        -1.17413     511.024E-03        -1.17366     659.725E-03     39.5969E-03     349.336E-03    -174.410E-03    -174.926E-03    -172.672E-03     347.584E-03    -174.912E-03     60.1204E-03     31.9977E+06    -12.7856E+06     -69.152E+06    -69.0814E+06    -12.8562E+06     31.9977E+06     1.81887E+06         54.3082
             402     6.72194E-03     66.1978E-03     671.557E-03     553.658E-03        -1.23006     552.678E-03        -1.22908     671.557E-03     83.2054E-03     348.474E-03    -173.545E-03    -174.929E-03    -172.466E-03     347.394E-03    -174.929E-03     46.9778E-03     14.9242E+06    -44.2193E+06    -80.2218E+06    -80.1241E+06    -44.3170E+06     14.9242E+06     1.20608E+06         53.3790
             403     5.87875E-03     66.1528E-03     682.658E-03     591.096E-03        -1.28020     590.482E-03        -1.27959     682.658E-03     62.9356E-03     348.137E-03    -173.144E-03    -174.993E-03    -172.542E-03     347.535E-03    -174.993E-03     34.9471E-03    -9.59618E+06    -83.1512E+06    -108.414E+06    -91.6408E+06    -99.9243E+06    -9.59618E+06     382.198E+03         52.6482
             404     5.03846E-03     66.1228E-03     692.913E-03     624.797E-03        -1.32558     624.683E-03        -1.32546     692.913E-03     24.8520E-03     348.695E-03    -173.644E-03    -175.051E-03    -173.337E-03     348.388E-03    -175.051E-03     24.8343E-03    -35.0675E+06    -103.595E+06    -153.863E+06    -103.643E+06    -153.816E+06    -35.0675E+06    -29.6789E+03         52.0505
             405     4.19995E-03     66.1058E-03     702.141E-03     654.392E-03        -1.36538     654.385E-03        -1.36537     702.141E-03     1.91766E-03     349.155E-03    -174.109E-03    -175.046E-03    -173.973E-03     349.019E-03    -175.046E-03     16.4388E-03    -60.4533E+06    -115.000E+06    -197.317E+06    -115.005E+06    -197.313E+06    -60.4533E+06     122.718E+03         51.5513
             406     3.35925E-03     66.0989E-03     710.220E-03     678.846E-03        -1.39890     678.832E-03        -1.39888     710.220E-03    -9.76124E-03     349.549E-03    -174.433E-03    -175.116E-03    -174.518E-03     349.501E-03    -174.983E-03     9.37958E-03    -85.2387E+06    -125.680E+06    -239.584E+06    -125.681E+06    -239.583E+06    -85.2387E+06     357.516E+03         51.1369
             407     2.51996E-03     66.0958E-03     717.012E-03     699.244E-03        -1.42694     698.652E-03        -1.42634     717.012E-03    -56.8830E-03     349.854E-03    -174.669E-03    -175.185E-03    -175.048E-03     349.844E-03    -174.796E-03     4.00518E-03    -109.210E+06    -135.269E+06    -274.763E+06    -135.275E+06    -274.756E+06    -109.210E+06     831.217E+03         50.8061
             408     1.68100E-03     66.0979E-03     722.664E-03     715.240E-03        -1.44853     714.478E-03        -1.44713     722.026E-03    -109.437E-03     349.351E-03    -174.510E-03    -174.841E-03    -174.840E-03     349.350E-03    -174.510E-03     1.24589E-03    -129.784E+06    -142.357E+06    -302.710E+06    -142.369E+06    -302.698E+06    -129.784E+06     1.06065E+06         50.5623
             409     841.133E-06     66.1006E-03     817.396E-03     631.553E-03        -1.46073     631.220E-03        -1.45976     816.758E-03    -84.1925E-03     348.670E-03    -173.480E-03    -175.190E-03    -174.909E-03     348.670E-03    -173.760E-03     800.431E-06    -142.418E+06    -147.077E+06    -329.107E+06    -146.398E+06    -329.098E+06    -143.107E+06     665.280E+03         50.4089
             410     14.2879E-03     66.0365E-03     474.707E-03     48.4656E-03    -511.370E-03     47.8119E-03    -510.716E-03     474.707E-03     34.9499E-03     366.032E-03    -174.994E-03    -191.039E-03    -178.296E-03     353.289E-03    -174.994E-03     160.470E-03     123.209E+06     69.1568E+06    -8.18839E+06    -8.18396E+06     69.1524E+06     123.209E+06     396.242E+03         75.1936
             411     13.4468E-03     65.7491E-03     488.760E-03     109.080E-03    -591.298E-03     108.276E-03    -590.495E-03     488.760E-03     45.2064E-03     365.629E-03    -174.845E-03    -190.784E-03    -177.531E-03     352.377E-03    -174.845E-03     164.978E-03     81.3804E+06     43.4700E+06    -15.2573E+06    -15.2523E+06     43.4651E+06     81.3804E+06     469.065E+03         72.4269
             412     12.6055E-03     65.5882E-03     501.876E-03     166.702E-03    -666.812E-03     166.467E-03    -666.577E-03     501.876E-03     24.3949E-03     356.539E-03    -174.831E-03    -181.708E-03    -173.892E-03     348.723E-03    -174.831E-03     128.568E-03     63.4298E+06     23.4446E+06    -21.1744E+06    -21.1729E+06     23.4431E+06     63.4298E+06     197.299E+03         69.0430
             413     11.7635E-03     65.4087E-03     514.407E-03     221.479E-03    -738.210E-03     221.351E-03    -738.082E-03     514.407E-03     20.8599E-03     356.076E-03    -174.880E-03    -181.196E-03    -173.964E-03     348.843E-03    -174.880E-03     123.194E-03     60.7797E+06     14.6976E+06    -27.5384E+06    -27.5238E+06     14.6829E+06     60.7797E+06     48.3839E+03         65.4982
             414     10.9227E-03     65.2665E-03     525.844E-03     272.596E-03    -804.506E-03     272.494E-03    -804.404E-03     525.844E-03     15.3122E-03     353.886E-03    -174.888E-03    -178.998E-03    -173.678E-03     348.566E-03    -174.888E-03     105.868E-03     59.0482E+06     10.2994E+06    -34.3724E+06    -34.3466E+06     10.2736E+06     59.0482E+06    -123.783E+03         62.2038
             415     10.0838E-03     65.1367E-03     536.477E-03     319.469E-03    -865.411E-03     319.461E-03    -865.403E-03     536.477E-03    -2.83952E-03     352.501E-03    -174.862E-03    -177.638E-03    -173.230E-03     348.093E-03    -174.862E-03     96.1414E-03     54.2613E+06     7.06965E+06    -41.4870E+06    -41.4742E+06     7.05688E+06     54.2613E+06     56.3524E+03         59.4165
             416     9.24264E-03     65.0197E-03     546.230E-03     362.947E-03    -921.747E-03     362.922E-03    -921.721E-03     546.230E-03    -11.0453E-03     351.018E-03    -174.846E-03    -176.172E-03    -172.735E-03     347.581E-03    -174.846E-03     84.6317E-03     47.3415E+06     1.90452E+06    -49.4527E+06    -49.4388E+06     1.89053E+06     47.3415E+06     680.369E+03         57.2179
             417     8.40140E-03     64.9238E-03     555.349E-03     403.076E-03    -973.655E-03     403.054E-03    -973.634E-03     555.349E-03    -5.57308E-03     349.828E-03    -174.706E-03    -175.122E-03    -172.425E-03     347.281E-03    -174.856E-03     72.7336E-03     40.3795E+06    -3.87023E+06    -58.4615E+06    -58.4141E+06    -3.91767E+06     40.3795E+06     1.23925E+06         55.5587
             418     7.56141E-03     64.8415E-03     564.033E-03     439.917E-03        -1.02150     439.285E-03        -1.02087     564.033E-03     44.7901E-03     349.105E-03    -174.230E-03    -174.875E-03    -172.463E-03     347.338E-03    -174.875E-03     60.3493E-03     31.9200E+06    -11.7981E+06    -68.5739E+06    -68.5215E+06    -11.8505E+06     31.9200E+06     1.34591E+06         54.3239
             419     6.72019E-03     64.7804E-03     572.459E-03     474.274E-03        -1.06611     472.992E-03        -1.06483     572.459E-03     88.3008E-03     348.508E-03    -173.615E-03    -174.894E-03    -172.530E-03     347.424E-03    -174.894E-03     47.1015E-03     14.3376E+06    -43.1756E+06    -80.0621E+06    -80.0346E+06    -43.2031E+06     14.3376E+06     771.530E+03         53.3896
             420     5.88132E-03     64.7372E-03     580.633E-03     504.493E-03        -1.10592     503.688E-03        -1.10512     580.633E-03     67.3842E-03     348.114E-03    -173.163E-03    -174.951E-03    -172.559E-03     347.510E-03    -174.951E-03     35.0062E-03    -9.81009E+06    -83.0817E+06    -108.092E+06    -91.6813E+06    -99.4925E+06    -9.81009E+06     595.864E+03         52.6557
             421     5.03992E-03     64.7051E-03     588.475E-03     530.707E-03        -1.14126     530.542E-03        -1.14110     588.475E-03     28.3089E-03     348.258E-03    -173.216E-03    -175.042E-03    -172.914E-03     347.957E-03    -175.042E-03     24.5764E-03    -34.8229E+06    -103.384E+06    -153.464E+06    -103.419E+06    -153.429E+06    -34.8229E+06     771.335E+03         52.0564
             422     4.19778E-03     64.6886E-03     595.865E-03     554.680E-03        -1.17346     554.668E-03        -1.17345     595.865E-03     6.26360E-03     349.131E-03    -174.049E-03    -175.081E-03    -173.921E-03     349.002E-03    -175.081E-03     15.8854E-03    -60.3044E+06    -115.108E+06    -197.494E+06    -115.124E+06    -197.478E+06    -60.3044E+06     433.752E+03         51.5569
             423     3.35925E-03     64.6790E-03     602.597E-03     575.413E-03        -1.20175     575.402E-03        -1.20174     602.597E-03    -5.76943E-03     349.723E-03    -174.578E-03    -175.146E-03    -174.666E-03     349.678E-03    -175.013E-03     9.22257E-03    -85.1069E+06    -125.908E+06    -239.920E+06    -125.910E+06    -239.919E+06    -85.1069E+06     302.041E+03         51.1430
             424     2.52039E-03     64.6779E-03     608.503E-03     592.868E-03        -1.22585     592.198E-03        -1.22518     608.503E-03    -55.0021E-03     349.548E-03    -174.464E-03    -175.084E-03    -174.642E-03     349.536E-03    -174.894E-03     4.66632E-03    -109.067E+06    -134.883E+06    -275.002E+06    -134.889E+06    -274.995E+06    -109.067E+06      388.06E+03         50.8129
             425     1.67991E-03     64.6813E-03     613.360E-03     607.072E-03        -1.24512     605.447E-03        -1.24347     613.337E-03    -109.479E-03     349.458E-03    -174.578E-03    -174.881E-03    -174.638E-03     349.456E-03    -174.817E-03     2.10505E-03    -129.170E+06    -141.101E+06    -301.883E+06    -141.107E+06    -301.877E+06    -129.170E+06     216.018E+03         50.5698
             426     839.462E-06     64.6850E-03     721.877E-03     510.344E-03        -1.25779     509.246E-03        -1.25667     721.854E-03    -81.4506E-03     349.542E-03    -174.399E-03    -175.143E-03    -174.826E-03     349.540E-03    -174.715E-03     568.171E-06    -141.937E+06    -145.871E+06    -328.177E+06    -145.876E+06    -328.172E+06    -141.937E+06    -74.9334E+03         50.4170
             427     14.2880E-03     64.6194E-03     404.620E-03     51.1182E-03    -461.742E-03     50.3485E-03    -460.972E-03     404.620E-03     35.6461E-03     366.154E-03    -175.009E-03    -191.145E-03    -178.356E-03     353.365E-03    -175.009E-03     160.897E-03     123.479E+06     68.7326E+06    -8.24411E+06    -8.24263E+06     68.7311E+06     123.479E+06     273.684E+03         75.1499
             428     13.4472E-03     64.3302E-03     412.202E-03     101.386E-03    -524.823E-03     100.400E-03    -523.836E-03     412.202E-03     47.5953E-03     365.577E-03    -174.857E-03    -190.719E-03    -177.514E-03     352.371E-03    -174.857E-03     164.530E-03     81.5908E+06     43.9381E+06    -15.1259E+06    -15.1218E+06     43.9341E+06     81.5908E+06     377.873E+03         72.4012
             429     12.6053E-03     64.1740E-03     419.061E-03     147.400E-03    -582.416E-03     147.079E-03    -582.095E-03     419.061E-03     27.5920E-03     357.080E-03    -174.822E-03    -182.258E-03    -174.486E-03     349.308E-03    -174.822E-03     128.321E-03     63.7376E+06     23.6748E+06    -21.1051E+06    -21.0974E+06     23.6671E+06     63.7376E+06     485.016E+03         69.0405
             430     11.7638E-03     63.9903E-03     425.644E-03     190.396E-03    -635.920E-03     190.201E-03    -635.726E-03     425.644E-03     24.3187E-03     356.200E-03    -174.841E-03    -181.359E-03    -174.213E-03     349.054E-03    -174.841E-03     122.418E-03     61.5135E+06     14.7141E+06    -27.1055E+06    -27.0947E+06     14.7033E+06     61.5135E+06     492.308E+03         65.5161
             431     10.9241E-03     63.8478E-03     431.429E-03     229.702E-03    -684.561E-03     229.547E-03    -684.406E-03     431.429E-03     19.1199E-03     353.572E-03    -174.839E-03    -178.733E-03    -173.468E-03     348.307E-03    -174.839E-03     105.306E-03     59.0046E+06     10.3086E+06    -33.7674E+06    -33.7389E+06     10.2801E+06     59.0046E+06     312.027E+03         62.2330
             432     10.0831E-03     63.7176E-03     436.786E-03     265.536E-03    -728.957E-03     265.528E-03    -728.948E-03     436.786E-03     1.10740E-03     352.472E-03    -174.816E-03    -177.656E-03    -173.182E-03     347.998E-03    -174.816E-03     96.8546E-03     52.8740E+06     6.25671E+06    -41.8076E+06    -41.7842E+06     6.23330E+06     52.8740E+06     195.350E+03         59.4481
             433     9.24313E-03     63.6035E-03     441.581E-03     298.405E-03    -769.429E-03     298.389E-03    -769.413E-03     441.581E-03    -7.37513E-03     351.038E-03    -174.799E-03    -176.239E-03    -172.751E-03     347.550E-03    -174.799E-03     85.2531E-03     45.9001E+06     1.21686E+06    -50.4504E+06    -50.4445E+06     1.21101E+06     45.9001E+06     76.1157E+03         57.2460
             434     8.40273E-03     63.5058E-03     446.098E-03     328.196E-03    -806.199E-03     328.174E-03    -806.178E-03     446.098E-03    -1.16917E-03     349.716E-03    -174.549E-03    -175.167E-03    -172.336E-03     347.147E-03    -174.812E-03     73.0009E-03     39.4452E+06    -4.50577E+06    -59.3936E+06    -59.3884E+06    -4.51093E+06     39.4452E+06    -32.3258E+03         55.5805
             435     7.56150E-03     63.4247E-03     450.556E-03     355.800E-03    -840.340E-03     354.934E-03    -839.475E-03     450.556E-03     49.5141E-03     348.658E-03    -173.802E-03    -174.856E-03    -172.030E-03     346.886E-03    -174.856E-03     60.3714E-03     30.9445E+06    -12.2126E+06    -69.4959E+06    -69.4793E+06    -12.2292E+06     30.9445E+06     342.183E+03         54.3392
             436     6.72093E-03     63.3632E-03     455.204E-03     380.652E-03    -871.487E-03     378.920E-03    -869.755E-03     455.204E-03     92.1288E-03     348.349E-03    -173.436E-03    -174.913E-03    -172.340E-03     347.253E-03    -174.913E-03     47.3502E-03     13.9043E+06    -42.9095E+06    -80.3282E+06    -80.2844E+06    -42.9533E+06     13.9043E+06     847.298E+03         53.3998
             437     5.87950E-03     63.3181E-03     460.130E-03     402.185E-03    -899.302E-03     401.072E-03    -898.189E-03     460.130E-03     71.3869E-03     348.531E-03    -173.573E-03    -174.958E-03    -172.959E-03     347.917E-03    -174.958E-03     35.3004E-03    -10.1149E+06    -83.7564E+06    -107.977E+06    -92.1727E+06    -99.5608E+06    -10.1149E+06     1.02733E+06         52.6629
             438     5.03935E-03     63.2906E-03     465.170E-03     421.448E-03    -924.646E-03     421.185E-03    -924.382E-03     465.170E-03     32.8189E-03     348.607E-03    -173.621E-03    -174.986E-03    -173.314E-03     348.300E-03    -174.986E-03     24.8933E-03    -34.2652E+06    -104.136E+06    -152.874E+06    -104.181E+06    -152.830E+06    -34.2652E+06     865.072E+03         52.0624
             439     4.20028E-03     63.2690E-03     470.134E-03     438.910E-03    -947.760E-03     438.882E-03    -947.733E-03     470.134E-03     9.70091E-03     348.816E-03    -173.813E-03    -175.003E-03    -173.681E-03     348.683E-03    -175.003E-03     16.0668E-03    -59.4922E+06    -115.467E+06    -196.861E+06    -115.491E+06    -196.837E+06    -59.4922E+06     851.806E+03         51.5624
             440     3.35977E-03     63.2615E-03     474.907E-03     454.350E-03    -968.530E-03     454.342E-03    -968.522E-03     474.907E-03    -3.01679E-03     349.071E-03    -174.041E-03    -175.030E-03    -173.998E-03     349.028E-03    -175.030E-03     8.94175E-03    -85.3480E+06    -126.067E+06    -239.290E+06    -126.077E+06    -239.280E+06    -85.3480E+06     566.351E+03         51.1487
             441     2.51825E-03     63.2610E-03     479.283E-03     467.967E-03    -986.882E-03     467.195E-03    -986.110E-03     479.283E-03    -51.6910E-03     349.365E-03    -174.273E-03    -175.092E-03    -174.263E-03     349.355E-03    -175.092E-03     4.04580E-03    -110.042E+06    -135.393E+06    -275.115E+06    -135.395E+06    -275.113E+06    -110.042E+06    -298.503E+03         50.8190
             442     1.67838E-03     63.2635E-03     483.169E-03     479.292E-03        -1.00221     477.740E-03        -1.00020     482.712E-03    -107.549E-03     349.863E-03    -174.663E-03    -175.200E-03    -174.661E-03     349.861E-03    -175.200E-03     1.32218E-03    -131.285E+06    -143.015E+06    -302.400E+06    -143.017E+06    -302.399E+06    -131.285E+06    -266.378E+03         50.5765
             443     839.614E-06     63.2661E-03     600.950E-03     368.702E-03        -1.00999     367.773E-03        -1.00860     600.492E-03    -78.9667E-03     350.488E-03    -174.707E-03    -175.781E-03    -175.596E-03     350.487E-03    -174.891E-03     267.744E-06    -143.714E+06    -148.444E+06    -328.249E+06    -147.077E+06    -328.245E+06    -145.085E+06    -165.332E+03         50.4243
             444     14.2874E-03     63.1985E-03     322.069E-03     54.2861E-03    -402.423E-03     53.3219E-03    -401.459E-03     322.069E-03     37.5031E-03     365.660E-03    -175.021E-03    -190.638E-03    -177.838E-03     352.859E-03    -175.021E-03     160.856E-03     123.121E+06     68.1090E+06    -8.28320E+06    -8.28197E+06     68.1078E+06     123.121E+06     186.941E+03         75.1075
             445     13.4457E-03     62.9152E-03     322.873E-03     91.8306E-03    -445.899E-03     90.6025E-03    -444.671E-03     322.873E-03     49.3392E-03     365.966E-03    -174.876E-03    -191.090E-03    -177.868E-03     352.744E-03    -174.876E-03     164.723E-03     81.7820E+06     44.0667E+06    -15.1243E+06    -15.1201E+06     44.0626E+06     81.7820E+06     77.1932E+03         72.3756
             446     12.6054E-03     62.7536E-03     323.227E-03     124.380E-03    -483.242E-03     123.972E-03    -482.834E-03     323.227E-03     28.8939E-03     358.030E-03    -174.795E-03    -183.235E-03    -175.521E-03     350.316E-03    -174.795E-03     128.118E-03     64.2595E+06     24.0356E+06    -21.0751E+06    -21.0596E+06     24.0201E+06     64.2595E+06     545.533E+03         69.0387
             447     11.7671E-03     62.5730E-03     323.754E-03     153.951E-03    -516.982E-03     153.662E-03    -516.694E-03     323.754E-03     26.5671E-03     356.117E-03    -174.774E-03    -181.343E-03    -174.218E-03     348.992E-03    -174.774E-03     122.357E-03     61.8110E+06     14.4244E+06    -27.1409E+06    -27.1212E+06     14.4047E+06     61.8110E+06     720.212E+03         65.5346
             448     10.9244E-03     62.4318E-03     323.778E-03     180.447E-03    -546.785E-03     180.212E-03    -546.550E-03     323.778E-03     22.0301E-03     353.030E-03    -174.791E-03    -178.239E-03    -172.873E-03     347.664E-03    -174.791E-03     106.187E-03     58.9851E+06     9.68778E+06    -33.9613E+06    -33.9363E+06     9.66282E+06     58.9851E+06     791.465E+03         62.2614
             449     10.0833E-03     62.2994E-03     323.659E-03     204.024E-03    -573.106E-03     204.007E-03    -573.089E-03     323.659E-03     4.68954E-03     352.161E-03    -174.803E-03    -177.357E-03    -172.873E-03     347.676E-03    -174.803E-03     96.8595E-03     52.8670E+06     6.44469E+06    -41.5093E+06    -41.4817E+06     6.41710E+06     52.8670E+06     905.825E+03         59.4780
             450     9.24256E-03     62.1855E-03     323.323E-03     224.931E-03    -596.168E-03     224.924E-03    -596.162E-03     323.323E-03    -3.22537E-03     350.984E-03    -174.801E-03    -176.183E-03    -172.704E-03     347.505E-03    -174.801E-03     85.1860E-03     45.9168E+06     2.07502E+06    -49.9104E+06    -49.8961E+06     2.06072E+06     45.9168E+06     279.608E+03         57.2728
             451     8.40223E-03     62.0878E-03     323.116E-03     243.294E-03    -616.461E-03     243.264E-03    -616.430E-03     323.116E-03     2.99597E-03     349.740E-03    -174.544E-03    -175.196E-03    -172.330E-03     347.147E-03    -174.817E-03     73.3335E-03     39.0098E+06    -4.43789E+06    -59.5960E+06    -59.5924E+06    -4.44150E+06     39.0098E+06    -118.282E+03         55.6018
             452     7.56149E-03     62.0090E-03     323.251E-03     260.938E-03    -636.032E-03     259.593E-03    -634.687E-03     323.251E-03     54.1596E-03     348.717E-03    -173.853E-03    -174.864E-03    -172.073E-03     346.936E-03    -174.864E-03     60.5606E-03     30.7708E+06    -13.3252E+06    -69.9924E+06    -69.9906E+06    -13.3270E+06     30.7708E+06    -38.4084E+03         54.3547
             453     6.71995E-03     61.9454E-03     323.933E-03     276.702E-03    -653.855E-03     274.033E-03    -651.186E-03     323.933E-03     97.2417E-03     348.279E-03    -173.355E-03    -174.925E-03    -172.255E-03     347.180E-03    -174.925E-03     47.3806E-03     13.4523E+06    -44.1389E+06    -81.9536E+06    -81.9225E+06    -44.1700E+06     13.4523E+06     529.935E+03         53.4107
             454     5.88004E-03     61.9015E-03     325.317E-03     288.398E-03    -668.092E-03     286.686E-03    -666.379E-03     325.317E-03     75.3001E-03     348.635E-03    -173.672E-03    -174.963E-03    -173.066E-03     348.029E-03    -174.963E-03     35.0696E-03    -10.7492E+06    -84.4599E+06    -108.351E+06    -93.9028E+06    -98.9084E+06    -10.7492E+06     728.861E+03         52.6708
             455     5.04049E-03     61.8705E-03     327.333E-03     299.226E-03    -681.714E-03     298.817E-03    -681.305E-03     327.333E-03     35.3896E-03     348.959E-03    -174.015E-03    -174.944E-03    -173.711E-03     348.655E-03    -174.944E-03     24.7658E-03    -35.2442E+06    -105.005E+06    -152.540E+06    -105.050E+06    -152.495E+06    -35.2442E+06     318.306E+03         52.0688
             456     4.19964E-03     61.8535E-03     329.706E-03     310.297E-03    -695.657E-03     310.249E-03    -695.609E-03     329.706E-03     11.1579E-03     348.615E-03    -173.683E-03    -174.932E-03    -173.551E-03     348.483E-03    -174.932E-03     16.0685E-03    -60.2556E+06    -115.918E+06    -197.207E+06    -115.935E+06    -197.190E+06    -60.2556E+06     333.844E+03         51.5683
             457     3.35856E-03     61.8443E-03     332.123E-03     320.498E-03    -708.720E-03     320.489E-03    -708.711E-03     332.123E-03    -1.88497E-03     348.681E-03    -173.669E-03    -175.012E-03    -173.627E-03     348.638E-03    -175.012E-03     8.85975E-03    -85.1550E+06    -126.116E+06    -238.232E+06    -126.130E+06    -238.218E+06    -85.1550E+06     551.738E+03         51.1544
             458     2.51980E-03     61.8434E-03     334.393E-03     329.530E-03    -720.056E-03     328.666E-03    -719.038E-03     334.239E-03    -48.9683E-03     349.419E-03    -174.302E-03    -175.117E-03    -174.292E-03     349.409E-03    -175.117E-03     3.94037E-03    -110.117E+06    -136.193E+06    -274.655E+06    -136.197E+06    -274.651E+06    -110.117E+06     435.991E+03         50.8249
             459     1.67981E-03     61.8456E-03     337.170E-03     335.129E-03    -728.573E-03     333.422E-03    -725.621E-03     335.925E-03    -107.776E-03     350.017E-03    -174.766E-03    -175.250E-03    -174.849E-03     350.015E-03    -175.166E-03     1.20618E-03    -132.254E+06    -144.195E+06    -303.281E+06    -144.197E+06    -303.278E+06    -132.254E+06    -1.31794E+03         50.5828
             460     838.847E-06     61.8479E-03     462.402E-03     213.088E-03    -731.965E-03     212.131E-03    -729.916E-03     461.311E-03    -75.6443E-03     350.306E-03    -174.753E-03    -175.553E-03    -175.403E-03     350.305E-03    -174.901E-03    -38.4818E-06    -144.155E+06    -150.152E+06    -328.050E+06    -148.783E+06    -328.048E+06    -145.526E+06     297.664E+03         50.4309
             461     14.2879E-03     61.7859E-03     230.023E-03     56.4999E-03    -334.709E-03     55.3540E-03    -333.564E-03     230.023E-03     37.2976E-03     365.720E-03    -175.013E-03    -190.706E-03    -177.993E-03     353.006E-03    -175.013E-03     160.162E-03     123.493E+06     67.9501E+06    -7.94928E+06    -7.94305E+06     67.9439E+06     123.493E+06     368.863E+03         75.0659
             462     13.4456E-03     61.4952E-03     224.050E-03     80.5445E-03    -357.312E-03     78.9903E-03    -355.757E-03     224.050E-03     50.3578E-03     366.039E-03    -174.858E-03    -191.182E-03    -177.969E-03     352.827E-03    -174.858E-03     164.754E-03     81.6288E+06     43.5026E+06    -15.4211E+06    -15.4098E+06     43.4914E+06     81.6288E+06     384.311E+03         72.3510
             463     12.6073E-03     61.3329E-03     217.907E-03     98.9310E-03    -373.608E-03     98.3251E-03    -373.003E-03     217.907E-03     31.1719E-03     357.616E-03    -174.789E-03    -182.826E-03    -175.034E-03     349.824E-03    -174.789E-03     128.627E-03     63.7677E+06     23.3985E+06    -21.5977E+06    -21.5802E+06     23.3809E+06     63.7677E+06     192.833E+03         69.0342
             464     11.7648E-03     61.1571E-03     212.372E-03     114.660E-03    -387.008E-03     114.166E-03    -386.514E-03     212.372E-03     29.5339E-03     356.252E-03    -174.788E-03    -181.464E-03    -174.226E-03     349.014E-03    -174.788E-03     123.321E-03     61.6793E+06     14.3181E+06    -27.3353E+06    -27.3032E+06     14.2860E+06     61.6793E+06     724.391E+03         65.5476
             465     10.9245E-03     61.0145E-03     206.598E-03     127.544E-03    -396.963E-03     127.126E-03    -396.544E-03     206.598E-03     25.3636E-03     353.483E-03    -174.798E-03    -178.686E-03    -173.252E-03     348.049E-03    -174.798E-03     106.947E-03     59.4412E+06     9.76623E+06    -34.0242E+06    -33.9992E+06     9.74129E+06     59.4412E+06     965.772E+03         62.2865
             466     10.0837E-03     60.8822E-03     200.966E-03     137.177E-03    -403.425E-03     137.128E-03    -403.376E-03     200.966E-03     8.48054E-03     352.172E-03    -174.800E-03    -177.371E-03    -172.836E-03     347.636E-03    -174.800E-03     97.4144E-03     53.6546E+06     6.73473E+06    -41.3660E+06    -41.3507E+06     6.71948E+06     53.6546E+06     722.928E+03         59.5073
             467     9.24305E-03     60.7678E-03     195.515E-03     144.876E-03    -407.758E-03     144.866E-03    -407.748E-03     195.515E-03     376.609E-06     350.822E-03    -174.807E-03    -176.015E-03    -172.552E-03     347.358E-03    -174.807E-03     84.9160E-03     46.6641E+06     2.63086E+06    -49.3901E+06    -49.3737E+06     2.61439E+06     46.6641E+06     770.798E+03         57.2998
             468     8.40165E-03     60.6712E-03     190.632E-03     151.209E-03    -410.964E-03     151.141E-03    -410.896E-03     190.632E-03     6.16988E-03     349.654E-03    -174.576E-03    -175.078E-03    -172.279E-03     347.109E-03    -174.830E-03     72.6647E-03     39.6452E+06    -3.74631E+06    -58.6581E+06    -58.6524E+06    -3.75202E+06     39.6452E+06     304.147E+03         55.6236
             469     7.56114E-03     60.5905E-03     186.503E-03     158.396E-03    -415.463E-03     156.090E-03    -413.157E-03     186.503E-03     56.7689E-03     348.906E-03    -174.035E-03    -174.872E-03    -172.275E-03     347.147E-03    -174.872E-03     60.1919E-03     31.4815E+06    -14.3550E+06    -69.4785E+06    -69.4715E+06    -14.3620E+06     31.4815E+06     334.855E+03         54.3711
             470     6.72122E-03     60.5294E-03     183.341E-03     164.969E-03    -419.955E-03     160.348E-03    -415.334E-03     183.341E-03     98.9506E-03     348.491E-03    -173.589E-03    -174.902E-03    -172.497E-03     347.399E-03    -174.902E-03     47.2942E-03     14.1539E+06    -44.6226E+06    -80.9706E+06    -80.9498E+06    -44.6434E+06     14.1539E+06     494.667E+03         53.4228
             471     5.87997E-03     60.4828E-03     181.242E-03     167.274E-03    -421.040E-03     164.256E-03    -418.022E-03     181.242E-03     76.0542E-03     348.514E-03    -173.591E-03    -174.923E-03    -172.974E-03     347.897E-03    -174.923E-03     35.4160E-03    -10.5346E+06    -83.1629E+06    -107.581E+06    -92.4726E+06    -98.2717E+06    -10.5346E+06    -50.8327E+03         52.6799
             472     5.03963E-03     60.4529E-03     180.133E-03     169.373E-03    -422.516E-03     168.653E-03    -421.796E-03     180.133E-03     35.1327E-03     348.677E-03    -173.746E-03    -174.932E-03    -173.442E-03     348.374E-03    -174.932E-03     24.6453E-03    -35.2790E+06    -104.005E+06    -152.848E+06    -104.021E+06    -152.832E+06    -35.2790E+06     86.3248E+03         52.0762
             473     4.20032E-03     60.4359E-03     179.849E-03     173.169E-03    -426.315E-03     173.148E-03    -426.217E-03     179.772E-03     12.9019E-03     348.706E-03    -173.773E-03    -174.933E-03    -173.645E-03     348.578E-03    -174.933E-03     15.9086E-03    -60.1494E+06    -115.129E+06    -197.480E+06    -115.139E+06    -197.470E+06    -60.1494E+06     259.900E+03         51.5748
             474     3.36044E-03     60.4284E-03     179.976E-03     176.128E-03    -429.637E-03     176.167E-03    -429.599E-03     179.899E-03    -848.458E-06     348.884E-03    -173.914E-03    -174.970E-03    -173.869E-03     348.839E-03    -174.970E-03     9.18075E-03    -85.1529E+06    -126.261E+06    -238.671E+06    -126.269E+06    -238.663E+06    -85.1529E+06     185.482E+03         51.1607
             475     2.51824E-03     60.4256E-03     181.462E-03     178.994E-03    -433.832E-03     178.346E-03    -432.091E-03     180.368E-03    -47.9614E-03     349.398E-03    -174.389E-03    -175.009E-03    -174.378E-03     349.387E-03    -175.009E-03     4.08897E-03    -109.154E+06    -136.039E+06    -274.064E+06    -136.044E+06    -274.060E+06    -109.154E+06     354.308E+03         50.8311
             476     1.67867E-03     60.4273E-03     186.037E-03     180.913E-03    -440.565E-03     180.394E-03    -434.922E-03     180.913E-03    -108.766E-03     349.856E-03    -174.796E-03    -175.060E-03    -174.879E-03     349.854E-03    -174.975E-03     1.03851E-03    -129.389E+06    -142.752E+06    -302.333E+06    -142.760E+06    -302.326E+06    -129.389E+06     561.429E+03         50.5890
             477     840.915E-06     60.4293E-03     314.832E-03     51.7314E-03    -439.842E-03     51.8113E-03    -435.891E-03     310.801E-03    -69.5446E-03     349.795E-03    -174.731E-03    -175.064E-03    -174.913E-03     349.793E-03    -174.880E-03    -8.42636E-06    -141.939E+06    -150.187E+06    -327.661E+06    -147.457E+06    -327.653E+06    -144.678E+06     435.635E+03         50.4370
             478     14.2875E-03     60.3675E-03     131.789E-03     59.1045E-03    -262.189E-03     57.5550E-03    -260.640E-03     131.789E-03     37.9384E-03     366.164E-03    -174.990E-03    -191.174E-03    -178.418E-03     353.408E-03    -174.990E-03     160.491E-03     123.659E+06     67.3859E+06    -8.14325E+06    -8.13716E+06     67.3799E+06     123.659E+06     435.623E+03         75.0239
             479     13.4490E-03     60.0768E-03     120.356E-03     67.7564E-03    -263.429E-03     66.6412E-03    -261.238E-03     119.279E-03     52.2108E-03     365.613E-03    -174.841E-03    -190.772E-03    -177.462E-03     352.302E-03    -174.841E-03     165.372E-03     82.4107E+06     43.6519E+06    -14.8162E+06    -14.8004E+06     43.6361E+06     82.4107E+06     894.745E+03         72.3252
             480     12.6040E-03     59.9182E-03     111.420E-03     68.0695E-03    -258.206E-03     71.6521E-03    -257.231E-03     106.862E-03     33.6438E-03     356.850E-03    -174.822E-03    -182.028E-03    -174.160E-03     348.982E-03    -174.822E-03     129.079E-03     64.4148E+06     23.4496E+06    -20.6861E+06    -20.6584E+06     23.4219E+06     64.4148E+06     652.040E+03         69.0266
             481     11.7642E-03     59.7367E-03     104.268E-03     65.2588E-03    -250.845E-03     73.2389E-03    -249.875E-03     95.3177E-03     32.4201E-03     356.562E-03    -174.843E-03    -181.719E-03    -174.498E-03     349.342E-03    -174.843E-03     123.158E-03     61.7114E+06     14.1544E+06    -27.2333E+06    -27.2025E+06     14.1236E+06     61.7114E+06     459.745E+03         65.5575
             482     10.9243E-03     59.5971E-03     95.2429E-03     60.9646E-03    -239.824E-03     71.4541E-03    -238.951E-03     83.8807E-03     28.6489E-03     354.011E-03    -174.820E-03    -179.191E-03    -173.848E-03     348.668E-03    -174.820E-03     106.162E-03     59.4042E+06       9.859E+06    -34.1673E+06    -34.1486E+06     9.84022E+06     59.4042E+06     656.894E+03         62.3100
             483     10.0832E-03     59.4652E-03     84.8581E-03     55.4344E-03    -225.844E-03     67.1149E-03    -225.668E-03     73.0019E-03     11.6810E-03     352.247E-03    -174.791E-03    -177.456E-03    -172.965E-03     347.756E-03    -174.791E-03     96.9737E-03     53.6597E+06     6.64086E+06    -41.3203E+06    -41.3145E+06     6.63505E+06     53.6597E+06     388.409E+03         59.5363
             484     9.24253E-03     59.3494E-03     74.3063E-03     49.5979E-03    -211.051E-03     61.1986E-03    -211.021E-03     62.6759E-03     3.01864E-03     350.646E-03    -174.798E-03    -175.848E-03    -172.395E-03     347.193E-03    -174.798E-03     84.7490E-03     46.7938E+06     2.36468E+06    -49.3635E+06    -49.3570E+06     2.35821E+06     46.7938E+06     125.508E+03         57.3271
             485     8.40274E-03     59.2544E-03     64.0379E-03     43.8181E-03    -196.375E-03     54.2320E-03    -196.113E-03     53.3623E-03     7.86690E-03     349.662E-03    -174.646E-03    -175.016E-03    -172.274E-03     347.103E-03    -174.829E-03     72.9115E-03     40.0869E+06    -3.65143E+06    -58.3735E+06    -58.3530E+06    -3.67199E+06     40.0869E+06     517.095E+03         55.6460
             486     7.56150E-03     59.1732E-03     62.6025E-03     39.8896E-03    -192.074E-03     47.6710E-03    -182.508E-03     45.2551E-03     56.6341E-03     348.997E-03    -174.135E-03    -174.862E-03    -172.357E-03     347.218E-03    -174.862E-03     60.4864E-03     31.2566E+06    -14.2015E+06    -69.0109E+06    -68.9849E+06    -14.2275E+06     31.2566E+06     414.254E+03         54.3883
             487     6.72051E-03     59.1113E-03     65.5268E-03     36.5274E-03    -192.355E-03     42.5094E-03    -171.298E-03     38.4878E-03     98.1850E-03     348.577E-03    -173.696E-03    -174.882E-03    -172.595E-03     347.477E-03    -174.882E-03     47.5482E-03     14.1692E+06    -44.4015E+06    -80.2656E+06    -80.2506E+06    -44.4165E+06     14.1692E+06    -131.061E+03         53.4357
             488     5.88087E-03     59.0659E-03     58.7338E-03     32.0063E-03    -181.632E-03     38.4170E-03    -162.358E-03     33.0489E-03     76.2590E-03     348.360E-03    -173.449E-03    -174.911E-03    -172.820E-03     347.730E-03    -174.911E-03     35.7096E-03    -9.83466E+06    -82.5837E+06    -107.543E+06    -91.6267E+06    -98.5004E+06    -9.83466E+06     86.0516E+03         52.6898
             489     5.04036E-03     59.0352E-03     49.7451E-03     30.6272E-03    -171.430E-03     34.8131E-03    -154.728E-03     28.8564E-03     35.6610E-03     348.404E-03    -173.444E-03    -174.959E-03    -173.137E-03     348.096E-03    -174.959E-03     24.8505E-03    -34.1672E+06    -103.116E+06    -153.144E+06    -103.123E+06    -153.137E+06    -34.1672E+06     458.900E+03         52.0843
             490     4.19904E-03     59.0190E-03     48.9310E-03     29.7770E-03    -169.879E-03     30.6618E-03    -147.704E-03     25.8711E-03     13.7494E-03     348.997E-03    -174.033E-03    -174.964E-03    -173.901E-03     348.865E-03    -174.964E-03     16.0081E-03    -59.4838E+06    -114.926E+06    -197.425E+06    -114.933E+06    -197.418E+06    -59.4838E+06     564.052E+03         51.5821
             491     3.35867E-03     59.0104E-03     51.9849E-03     26.9228E-03    -170.145E-03     27.1088E-03    -142.340E-03     23.9937E-03     394.412E-06     349.399E-03    -174.498E-03    -174.901E-03    -174.468E-03     349.357E-03    -174.889E-03     8.70404E-03    -85.3249E+06    -126.055E+06    -239.002E+06    -126.059E+06    -238.998E+06    -85.3249E+06     265.125E+03         51.1677
             492     2.52087E-03     59.0087E-03     60.3112E-03     24.1765E-03    -175.349E-03     25.1589E-03    -138.930E-03     22.9105E-03    -44.5269E-03     349.230E-03    -174.416E-03    -174.814E-03    -174.419E-03     349.220E-03    -174.801E-03     3.86019E-03    -109.537E+06    -135.269E+06    -274.078E+06    -135.270E+06    -274.077E+06    -109.537E+06     56.9138E+03         50.8381
             493     1.68088E-03     59.0089E-03     76.5168E-03     22.3861E-03    -190.043E-03     23.2863E-03    -136.813E-03     22.3861E-03    -106.821E-03     349.224E-03    -174.424E-03    -174.800E-03    -174.421E-03     349.222E-03    -174.800E-03     1.23507E-03    -129.627E+06    -142.956E+06    -302.072E+06    -142.967E+06    -302.062E+06    -129.627E+06     183.830E+03         50.5957
             494     838.806E-06     59.0136E-03     187.727E-03    -26.5695E-03    -251.736E-03    -111.277E-03    -135.464E-03     156.163E-03    -63.5607E-03     349.591E-03    -174.660E-03    -174.931E-03    -174.658E-03     349.589E-03    -174.931E-03     26.8145E-06    -140.474E+06    -150.222E+06    -327.226E+06    -147.496E+06    -327.213E+06    -143.213E+06     223.209E+03         50.4436
             495     14.2891E-03     58.9462E-03     72.4351E-03     20.3919E-03    -187.897E-03     59.8366E-03    -185.788E-03     30.8818E-03     38.3298E-03     365.789E-03    -174.992E-03    -190.797E-03    -177.888E-03     352.880E-03    -174.992E-03     161.381E-03     123.070E+06     66.6388E+06    -8.38906E+06    -8.38645E+06     66.6361E+06     123.070E+06     394.402E+03         74.9798
             496     13.4452E-03     58.6623E-03     60.1034E-03     9.76455E-03    -167.996E-03     54.3323E-03    -164.763E-03     12.3035E-03     51.9713E-03     365.663E-03    -174.868E-03    -190.795E-03    -177.407E-03     352.275E-03    -174.868E-03     165.653E-03     82.5115E+06     43.1788E+06    -14.8796E+06    -14.8722E+06     43.1714E+06     82.5115E+06     522.623E+03         72.2963
             497     12.6060E-03     58.5005E-03     46.8014E-03    -3.90458E-03    -143.648E-03     44.9839E-03    -139.767E-03    -5.96839E-03     33.9312E-03     357.522E-03    -174.830E-03    -182.692E-03    -174.902E-03     349.732E-03    -174.830E-03     128.622E-03     65.3505E+06     23.3821E+06    -20.3154E+06    -20.2897E+06     23.3564E+06     65.3505E+06     982.320E+03         69.0196
             498     11.7642E-03     58.3192E-03     35.7408E-03    -6.48167E-03    -131.893E-03     31.5255E-03    -111.045E-03    -23.1143E-03     32.8503E-03     356.358E-03    -174.822E-03    -181.536E-03    -174.444E-03     349.266E-03    -174.822E-03     122.012E-03     62.3323E+06     14.3208E+06    -26.4230E+06    -26.4004E+06     14.2981E+06     62.3323E+06     710.982E+03         65.5704
             499     10.9237E-03     58.1769E-03     30.6517E-03    -4.26157E-03    -130.688E-03     15.0679E-03    -79.5976E-03    -39.7679E-03     29.0401E-03     353.582E-03    -174.805E-03    -178.777E-03    -173.517E-03     348.323E-03    -174.805E-03     105.263E-03     59.5230E+06     10.1409E+06    -33.2841E+06    -33.2761E+06     10.1329E+06     59.5230E+06     164.500E+03         62.3344
             500     10.0848E-03     58.0480E-03     37.2444E-03    -15.3414E-03    -127.520E-03    -3.29799E-03    -46.8737E-03    -55.4449E-03     11.3626E-03     352.213E-03    -174.789E-03    -177.424E-03    -172.933E-03     347.722E-03    -174.789E-03     96.9891E-03     53.8189E+06     6.95126E+06    -40.7941E+06    -40.7877E+06     6.94488E+06     53.8189E+06     198.735E+03         59.5646
             501     9.24336E-03     57.9332E-03     51.3399E-03    -34.2989E-03    -123.761E-03    -22.6765E-03    -13.8417E-03    -70.2018E-03     1.78041E-03     350.632E-03    -174.799E-03    -175.832E-03    -172.351E-03     347.150E-03    -174.799E-03     85.0901E-03     46.8194E+06     2.32192E+06    -49.2710E+06    -49.2629E+06     2.31382E+06     46.8194E+06     234.558E+03         57.3540
             502     8.40113E-03     57.8367E-03     64.1681E-03    -52.1552E-03    -119.619E-03    -41.6405E-03     17.6593E-03    -83.6247E-03     6.33181E-03     349.632E-03    -174.648E-03    -174.984E-03    -172.227E-03     347.062E-03    -174.835E-03     73.0491E-03     39.5181E+06    -4.37940E+06    -58.9291E+06    -58.9028E+06    -4.40575E+06     39.5181E+06     251.344E+03         55.6684
             503     7.56137E-03     57.7553E-03     85.5584E-03    -70.1297E-03    -123.659E-03    -59.0389E-03     46.3478E-03    -95.5389E-03     55.1896E-03     349.011E-03    -174.139E-03    -174.872E-03    -172.346E-03     347.219E-03    -174.872E-03     60.7537E-03     31.2011E+06    -13.1891E+06    -69.0383E+06    -69.0098E+06    -13.2176E+06     31.2011E+06     61.9013E+03         54.4056
             504     6.72113E-03     57.6943E-03     109.047E-03    -86.5907E-03    -131.106E-03    -74.2438E-03     71.3927E-03    -105.799E-03     96.7989E-03     348.541E-03    -173.640E-03    -174.902E-03    -172.525E-03     347.427E-03    -174.902E-03     47.8071E-03     14.2817E+06    -44.0665E+06    -80.4704E+06    -80.4589E+06    -44.0780E+06     14.2817E+06     13.9965E+03         53.4488
             505     5.88000E-03     57.6477E-03     117.172E-03    -98.3152E-03    -127.774E-03    -87.9314E-03     93.3541E-03    -114.340E-03     75.0748E-03     348.317E-03    -173.370E-03    -174.947E-03    -172.739E-03     347.686E-03    -174.947E-03     35.7360E-03    -10.0320E+06    -84.4558E+06    -108.536E+06    -92.9057E+06    -100.087E+06    -10.0320E+06     446.582E+03         52.7000
             506     5.03913E-03     57.6197E-03     120.461E-03    -105.607E-03    -123.707E-03    -100.490E-03     112.829E-03    -121.193E-03     35.4212E-03     348.675E-03    -173.694E-03    -174.981E-03    -173.383E-03     348.363E-03    -174.981E-03     25.0735E-03    -34.7426E+06    -104.919E+06    -153.541E+06    -104.935E+06    -153.525E+06    -34.7426E+06     863.187E+03         52.0928
             507     4.19970E-03     57.5999E-03     129.974E-03    -112.252E-03    -126.443E-03    -111.299E-03     129.021E-03    -126.443E-03     14.7354E-03     349.270E-03    -174.345E-03    -174.925E-03    -174.216E-03     349.141E-03    -174.925E-03     15.7717E-03    -60.5961E+06    -116.528E+06    -196.512E+06    -116.537E+06    -196.503E+06    -60.5961E+06     490.908E+03         51.5900
             508     3.36143E-03     57.5921E-03     141.382E-03    -119.656E-03    -130.279E-03    -119.473E-03     141.199E-03    -130.279E-03     939.182E-06     349.256E-03    -174.428E-03    -174.827E-03    -174.402E-03     349.217E-03    -174.815E-03     8.52674E-03    -86.1510E+06    -127.050E+06    -238.661E+06    -127.050E+06    -238.660E+06    -86.1510E+06         959.879         51.1755
             509     2.51995E-03     57.5916E-03     156.541E-03    -128.058E-03    -136.539E-03    -126.214E-03     151.161E-03    -133.003E-03    -42.2712E-03     349.051E-03    -174.302E-03    -174.748E-03    -174.303E-03     349.039E-03    -174.736E-03     4.44732E-03    -110.073E+06    -135.874E+06    -274.463E+06    -135.875E+06    -274.462E+06    -110.073E+06     223.220E+03         50.8458
             510     1.67893E-03     57.5940E-03     176.038E-03    -134.218E-03    -150.168E-03    -132.208E-03     158.496E-03    -134.637E-03    -108.011E-03     349.150E-03    -174.404E-03    -174.746E-03    -174.432E-03     349.147E-03    -174.715E-03     1.69853E-03    -130.799E+06    -142.759E+06    -301.921E+06    -142.764E+06    -301.915E+06    -130.799E+06    -126.387E+03         50.6035
             511     840.675E-06     57.5945E-03     225.007E-03    -50.1581E-03    -282.634E-03    -270.272E-03     162.217E-03     268.728E-06    -57.5817E-03     349.385E-03    -174.568E-03    -174.817E-03    -174.597E-03     349.384E-03    -174.787E-03    -88.1829E-06    -141.822E+06    -150.537E+06    -327.694E+06    -147.601E+06    -327.677E+06    -144.776E+06    -705.937E+03         50.4514
             512     14.2870E-03     57.5348E-03     65.8855E-03    -49.7480E-03    -134.416E-03     62.5704E-03    -111.869E-03    -68.9794E-03     37.7627E-03     365.765E-03    -175.009E-03    -190.756E-03    -177.970E-03     352.979E-03    -175.009E-03     160.817E-03     123.541E+06     66.4998E+06    -8.03820E+06    -8.03396E+06     66.4956E+06     123.541E+06     423.909E+03         74.9354
             513     13.4462E-03     57.2418E-03     49.9115E-03    -37.7026E-03    -132.574E-03     42.1071E-03    -69.4679E-03    -93.0044E-03     51.0980E-03     366.077E-03    -174.855E-03    -191.222E-03    -178.033E-03     352.888E-03    -174.855E-03     164.529E-03     82.2104E+06     42.5008E+06    -15.2034E+06    -15.1986E+06     42.4960E+06     82.2104E+06     471.009E+03         72.2694
             514     12.6055E-03     57.0820E-03     41.9375E-03    -34.9491E-03    -129.076E-03     17.4885E-03    -23.1489E-03    -116.428E-03     32.3300E-03     357.655E-03    -174.779E-03    -182.876E-03    -175.183E-03     349.961E-03    -174.779E-03     127.854E-03     64.6352E+06     22.4719E+06    -21.0587E+06    -21.0488E+06     22.4620E+06     64.6352E+06     313.347E+03         69.0151
             515     11.7668E-03     56.9009E-03     55.7622E-03    -40.5544E-03    -138.368E-03    -10.0175E-03     25.2253E-03    -138.368E-03     30.3794E-03     355.865E-03    -174.777E-03    -181.088E-03    -173.945E-03     348.722E-03    -174.777E-03     122.442E-03     62.6037E+06     14.3741E+06    -26.1826E+06    -26.1699E+06     14.3614E+06     62.6037E+06     404.295E+03         65.5839
             516     10.9253E-03     56.7612E-03     84.4601E-03    -49.0101E-03    -159.542E-03    -39.9095E-03     75.3595E-03    -159.542E-03     26.6300E-03     352.995E-03    -174.807E-03    -178.189E-03    -172.796E-03     347.603E-03    -174.807E-03     106.430E-03     59.8036E+06     10.6606E+06    -32.6122E+06    -32.6030E+06     10.6515E+06     59.8036E+06     365.712E+03         62.3576
             517     10.0821E-03     56.6294E-03     126.254E-03    -71.6117E-03    -179.477E-03    -71.2422E-03     125.884E-03    -179.477E-03     8.96333E-03     352.127E-03    -174.831E-03    -177.296E-03    -172.756E-03     347.586E-03    -174.831E-03     97.4755E-03     53.6221E+06     6.86641E+06    -40.8011E+06    -40.7931E+06     6.85834E+06     53.6221E+06     359.487E+03         59.5912
             518     9.24227E-03     56.5162E-03     175.120E-03    -102.293E-03    -198.211E-03    -102.271E-03     175.098E-03    -198.211E-03    -846.411E-06     351.092E-03    -174.839E-03    -176.253E-03    -172.742E-03     347.581E-03    -174.839E-03     85.5409E-03     47.1243E+06     2.18394E+06    -49.2481E+06    -49.2377E+06     2.17354E+06     47.1243E+06     718.974E+03         57.3798
             519     8.40291E-03     56.4192E-03     221.584E-03    -132.022E-03    -215.401E-03    -131.949E-03     221.511E-03    -215.401E-03     3.52567E-03     349.938E-03    -174.633E-03    -175.305E-03    -172.525E-03     347.370E-03    -174.845E-03     72.9942E-03     40.1602E+06    -4.10825E+06    -58.4880E+06    -58.4686E+06    -4.12766E+06     40.1602E+06     430.699E+03         55.6907
             520     7.56093E-03     56.3387E-03     267.400E-03    -162.592E-03    -230.851E-03    -159.957E-03     264.764E-03    -230.851E-03     51.5526E-03     348.812E-03    -173.937E-03    -174.875E-03    -172.172E-03     347.047E-03    -174.875E-03     60.3194E-03     31.2029E+06    -13.2008E+06    -69.2936E+06    -69.2779E+06    -13.2164E+06     31.2029E+06     151.536E+03         54.4232
             521     6.72015E-03     56.2754E-03     309.491E-03    -191.281E-03    -244.309E-03    -186.323E-03     304.532E-03    -244.309E-03     92.6312E-03     348.355E-03    -173.426E-03    -174.929E-03    -172.318E-03     347.246E-03    -174.929E-03     47.6288E-03     14.2118E+06    -44.3955E+06    -81.0703E+06    -81.0412E+06    -44.4246E+06     14.2118E+06     557.969E+03         53.4620
             522     5.88000E-03     56.2321E-03     342.668E-03    -213.183E-03    -255.589E-03    -210.201E-03     339.686E-03    -255.589E-03     72.0553E-03     348.650E-03    -173.683E-03    -174.967E-03    -173.064E-03     348.032E-03    -174.967E-03     35.4206E-03    -9.86071E+06    -84.7782E+06    -109.082E+06    -93.1319E+06    -100.729E+06    -9.86071E+06     939.587E+03         52.7104
             523     5.03993E-03     56.2006E-03     369.682E-03    -230.647E-03    -264.801E-03    -229.978E-03     369.014E-03    -264.801E-03     33.4358E-03     348.961E-03    -174.017E-03    -174.944E-03    -173.711E-03     348.655E-03    -174.944E-03     24.8744E-03    -35.2215E+06    -105.135E+06    -153.458E+06    -105.161E+06    -153.433E+06    -35.2215E+06     481.444E+03         52.1018
             524     4.20054E-03     56.1813E-03     393.562E-03    -246.831E-03    -272.136E-03    -246.726E-03     393.457E-03    -272.136E-03     15.0247E-03     348.796E-03    -173.893E-03    -174.903E-03    -173.762E-03     348.665E-03    -174.903E-03     16.0008E-03    -60.5643E+06    -116.262E+06    -195.903E+06    -116.275E+06    -195.890E+06    -60.5643E+06     183.515E+03         51.5983
             525     3.35889E-03     56.1756E-03     413.839E-03    -261.208E-03    -277.614E-03    -261.144E-03     413.775E-03    -277.614E-03     357.570E-06     348.877E-03    -173.965E-03    -174.912E-03    -173.922E-03     348.834E-03    -174.912E-03     9.17702E-03    -85.1406E+06    -126.771E+06    -237.918E+06    -126.775E+06    -237.914E+06    -85.1406E+06     197.204E+03         51.1835
             526     2.51964E-03     56.1748E-03     430.057E-03    -272.998E-03    -281.454E-03    -272.018E-03     429.077E-03    -281.454E-03    -40.8796E-03     349.432E-03    -174.521E-03    -174.911E-03    -174.531E-03     349.419E-03    -174.887E-03     4.80932E-03    -110.032E+06    -136.825E+06    -274.378E+06    -136.826E+06    -274.376E+06    -110.032E+06    -247.714E+03         50.8542
             527     1.68109E-03     56.1757E-03     444.269E-03    -281.827E-03    -286.626E-03    -279.240E-03     439.201E-03    -284.144E-03    -109.638E-03     349.583E-03    -174.753E-03    -174.830E-03    -174.816E-03     349.580E-03    -174.764E-03     1.76559E-03    -131.739E+06    -144.025E+06    -302.682E+06    -144.028E+06    -302.678E+06    -131.739E+06     110.774E+03         50.6124
             528     839.586E-06     56.1790E-03     451.126E-03    -149.070E-03    -425.429E-03    -421.051E-03     446.748E-03    -149.070E-03    -51.9381E-03     349.306E-03    -174.446E-03    -174.861E-03    -174.487E-03     349.305E-03    -174.819E-03     175.556E-06    -143.784E+06    -151.300E+06    -327.462E+06    -148.401E+06    -327.407E+06    -146.738E+06     1.00329E+06         50.4607
             529     14.2877E-03     56.1111E-03     72.3018E-03    -48.1625E-03    -164.223E-03     64.2856E-03    -40.1462E-03    -164.223E-03     37.3667E-03     366.311E-03    -174.976E-03    -191.335E-03    -178.747E-03     353.723E-03    -174.976E-03     159.775E-03     124.313E+06     66.3352E+06    -7.93219E+06    -7.92640E+06     66.3294E+06     124.313E+06     264.098E+03         74.8938
             530     13.4487E-03     55.8274E-03     67.1629E-03    -15.6122E-03    -192.729E-03     29.3419E-03     22.2088E-03    -192.729E-03     49.3357E-03     365.852E-03    -174.794E-03    -191.059E-03    -177.924E-03     352.718E-03    -174.794E-03     164.573E-03     83.0823E+06     42.9491E+06    -14.4719E+06    -14.4566E+06     42.9338E+06     83.0823E+06     510.918E+03         72.2452
             531     12.6077E-03     55.6615E-03     95.8381E-03    -17.4278E-03    -220.339E-03    -9.01248E-03     87.4228E-03    -220.339E-03     29.2004E-03     356.783E-03    -174.748E-03    -182.035E-03    -174.213E-03     348.962E-03    -174.748E-03     128.714E-03     64.6309E+06     22.6507E+06    -20.4463E+06    -20.4313E+06     22.6357E+06     64.6309E+06     408.699E+03         69.0093
             532     11.7647E-03     55.4865E-03     154.630E-03    -50.5970E-03    -246.239E-03    -49.4733E-03     153.507E-03    -246.239E-03     27.1513E-03     355.495E-03    -174.800E-03    -180.695E-03    -173.460E-03     348.260E-03    -174.800E-03     123.180E-03     61.7478E+06     13.5957E+06    -26.9740E+06    -26.9680E+06     13.5897E+06     61.7478E+06     23.9067E+03         65.5936
             533     10.9225E-03     55.3430E-03     220.733E-03    -92.0419E-03    -271.177E-03    -91.2800E-03     219.971E-03    -271.177E-03     23.8230E-03     353.318E-03    -174.845E-03    -178.474E-03    -173.041E-03     347.886E-03    -174.845E-03     106.863E-03     59.2916E+06     9.99378E+06    -33.5198E+06    -33.5145E+06     9.98843E+06     59.2916E+06     211.835E+03         62.3789
             534     10.0835E-03     55.2131E-03     285.400E-03    -133.258E-03    -294.735E-03    -133.198E-03     285.339E-03    -294.735E-03     6.22898E-03     352.245E-03    -174.854E-03    -177.391E-03    -172.932E-03     347.786E-03    -174.854E-03     96.6078E-03     53.5092E+06     6.72851E+06    -40.8375E+06    -40.8325E+06     6.72352E+06     53.5092E+06     357.265E+03         59.6181
             535     9.24190E-03     55.0975E-03     348.839E-03    -174.562E-03    -316.926E-03    -174.545E-03     348.823E-03    -316.926E-03    -3.94862E-03     350.907E-03    -174.803E-03    -176.104E-03    -172.590E-03     347.450E-03    -174.860E-03     84.9028E-03     46.7048E+06     1.80490E+06    -49.3192E+06    -49.3148E+06     1.80041E+06     46.7048E+06     430.239E+03         57.4060
             536     8.40114E-03     55.0004E-03     409.799E-03    -215.075E-03    -337.377E-03    -215.043E-03     409.768E-03    -337.377E-03     330.571E-06     350.026E-03    -174.777E-03    -175.249E-03    -172.561E-03     347.435E-03    -174.874E-03     73.3572E-03     40.2138E+06    -4.22869E+06    -58.3730E+06     -58.359E+06    -4.24266E+06     40.2138E+06     789.569E+03         55.7128
             537     7.56223E-03     54.9219E-03     468.295E-03    -254.986E-03    -355.785E-03    -253.673E-03     466.982E-03    -355.785E-03     48.1834E-03     349.174E-03    -174.267E-03    -174.907E-03    -172.511E-03     347.396E-03    -174.885E-03     60.5220E-03     31.3552E+06    -13.1284E+06    -69.0581E+06    -69.0258E+06    -13.1606E+06     31.3552E+06     1.04200E+06         54.4407
             538     6.72056E-03     54.8596E-03     521.594E-03    -291.887E-03    -371.929E-03    -289.299E-03     519.006E-03    -371.929E-03     89.8879E-03     348.503E-03    -173.596E-03    -174.907E-03    -172.504E-03     347.411E-03    -174.907E-03     47.2735E-03     14.1847E+06    -44.8045E+06    -80.8276E+06    -80.7830E+06    -44.8491E+06     14.1847E+06     735.050E+03         53.4756
             539     5.87976E-03     54.8128E-03     566.733E-03    -322.817E-03    -385.721E-03    -321.200E-03     565.116E-03    -385.721E-03     70.0756E-03     348.723E-03    -173.800E-03    -174.922E-03    -173.183E-03     348.105E-03    -174.922E-03     35.4767E-03    -9.31112E+06    -84.6350E+06    -107.961E+06    -92.4121E+06    -100.183E+06    -9.31112E+06     642.443E+03         52.7212
             540     5.04085E-03     54.7822E-03     605.163E-03    -349.284E-03    -397.120E-03    -348.933E-03     604.812E-03    -397.120E-03     30.9892E-03     348.692E-03    -173.789E-03    -174.903E-03    -173.484E-03     348.387E-03    -174.903E-03     24.6390E-03    -34.5220E+06    -104.244E+06    -152.194E+06    -104.265E+06    -152.172E+06    -34.5220E+06     406.991E+03         52.1110
             541     4.19931E-03     54.7659E-03     637.905E-03    -372.470E-03    -406.148E-03    -372.422E-03     637.857E-03    -406.148E-03     13.5388E-03     348.249E-03    -173.306E-03    -174.942E-03    -173.184E-03     348.126E-03    -174.942E-03     15.4978E-03    -59.9978E+06    -115.562E+06    -196.681E+06    -115.578E+06    -196.666E+06    -59.9978E+06     180.516E+03         51.6068
             542     3.35944E-03     54.7581E-03     664.171E-03    -391.177E-03    -413.052E-03    -391.135E-03     664.129E-03    -413.052E-03    -196.987E-06     348.785E-03    -173.730E-03    -175.055E-03    -173.685E-03     348.741E-03    -175.055E-03     9.31453E-03    -85.3092E+06    -126.048E+06    -237.064E+06    -126.053E+06    -237.060E+06    -85.3092E+06     110.809E+03         51.1920
             543     2.51908E-03     54.7563E-03     684.721E-03    -405.943E-03    -418.170E-03    -405.407E-03     684.186E-03    -418.170E-03    -39.9777E-03     349.701E-03    -174.562E-03    -175.139E-03    -174.571E-03     349.687E-03    -175.115E-03     5.20558E-03    -109.399E+06    -135.429E+06    -274.001E+06    -135.431E+06    -273.999E+06    -109.399E+06    -310.385E+03         50.8631
             544     1.67855E-03     54.7581E-03     701.672E-03    -417.868E-03    -422.765E-03    -415.747E-03     698.481E-03    -421.695E-03    -110.052E-03     350.036E-03    -174.930E-03    -175.106E-03    -174.962E-03     350.033E-03    -175.071E-03     2.05040E-03    -130.509E+06    -143.879E+06    -305.012E+06    -143.884E+06    -305.007E+06    -130.509E+06     205.590E+03         50.6220
             545     840.409E-06     54.7622E-03     710.298E-03    -287.097E-03    -561.984E-03    -558.938E-03     707.252E-03    -287.097E-03    -44.6156E-03     349.976E-03    -174.330E-03    -175.646E-03    -175.367E-03     349.975E-03    -174.608E-03    -152.781E-06    -143.864E+06    -149.747E+06    -325.332E+06    -149.410E+06    -325.271E+06    -144.262E+06     1.01214E+06         50.4708
             546     14.2905E-03     54.6965E-03     88.6631E-03     2.80283E-03    -251.339E-03     64.7990E-03     26.6670E-03    -251.339E-03     35.2178E-03     366.352E-03    -174.942E-03    -191.410E-03    -178.626E-03     353.569E-03    -174.942E-03     160.614E-03     124.226E+06     66.0706E+06    -7.99538E+06    -7.98437E+06     66.0596E+06     124.226E+06     206.028E+03         74.8525
             547     13.4476E-03     54.4069E-03     118.610E-03     4.71696E-03    -283.199E-03     17.5762E-03     105.751E-03    -283.199E-03     46.4729E-03     365.395E-03    -174.792E-03    -190.603E-03    -177.232E-03     352.024E-03    -174.792E-03     165.683E-03     82.6160E+06     42.3647E+06    -14.8992E+06    -14.8804E+06     42.3460E+06     82.6160E+06     446.460E+03         72.2179
             548     12.6055E-03     54.2481E-03     187.848E-03    -33.7127E-03    -314.015E-03    -32.3365E-03     186.471E-03    -314.015E-03     26.8536E-03     356.729E-03    -174.783E-03    -181.946E-03    -174.047E-03     348.830E-03    -174.783E-03     129.309E-03     64.7722E+06     22.5692E+06    -20.5170E+06    -20.5043E+06     22.5566E+06     64.7722E+06     400.198E+03         69.0003
             549     11.7641E-03     54.0684E-03     268.351E-03    -84.7820E-03    -343.056E-03    -84.3248E-03     267.894E-03    -343.056E-03     24.4212E-03     356.021E-03    -174.823E-03    -181.198E-03    -174.036E-03     348.859E-03    -174.823E-03     122.473E-03     62.3053E+06     14.0316E+06    -26.7525E+06    -26.7492E+06     14.0284E+06     62.3053E+06     172.032E+03         65.6035
             550     10.9246E-03     53.9261E-03     348.707E-03    -136.873E-03    -370.940E-03    -136.524E-03     348.358E-03    -370.940E-03     20.3040E-03     353.446E-03    -174.832E-03    -178.614E-03    -173.317E-03     348.149E-03    -174.832E-03     105.606E-03     59.1541E+06     9.42953E+06    -33.9813E+06    -33.9790E+06     9.42722E+06     59.1541E+06     69.8013E+03         62.4024
             551     10.0827E-03     53.7937E-03     426.679E-03    -188.019E-03    -397.306E-03    -187.995E-03     426.655E-03    -397.306E-03     1.83648E-03     352.078E-03    -174.831E-03    -177.247E-03    -172.782E-03     347.613E-03    -174.831E-03     96.6257E-03     53.1702E+06     6.36943E+06    -41.1424E+06    -41.1413E+06     6.36840E+06     53.1702E+06     157.727E+03         59.6466
             552     9.24322E-03     53.6814E-03     502.932E-03    -238.971E-03    -422.133E-03    -238.942E-03     502.904E-03    -422.133E-03    -8.51981E-03     350.678E-03    -174.793E-03    -175.885E-03    -172.372E-03     347.223E-03    -174.851E-03     84.8479E-03     46.3668E+06     1.83611E+06    -49.2005E+06    -49.1960E+06     1.83165E+06     46.3668E+06     399.973E+03         57.4330
             553     8.40140E-03     53.5836E-03     575.914E-03    -288.534E-03    -445.071E-03    -288.506E-03     575.886E-03    -445.071E-03    -4.68749E-03     349.723E-03    -174.639E-03    -175.084E-03    -172.249E-03     347.140E-03    -174.891E-03     73.1822E-03     39.6492E+06    -4.81676E+06    -58.7082E+06    -58.6992E+06    -4.82567E+06     39.6492E+06     602.594E+03         55.7352
             554     7.55978E-03     53.5020E-03     645.109E-03    -336.328E-03    -465.844E-03    -335.434E-03     644.215E-03    -465.844E-03     44.1141E-03     349.346E-03    -174.410E-03    -174.937E-03    -172.666E-03     347.581E-03    -174.915E-03     60.3336E-03     31.6691E+06    -13.0688E+06    -68.8324E+06    -68.8067E+06    -13.0945E+06     31.6691E+06     798.551E+03         54.4581
             555     6.72150E-03     53.4423E-03     708.561E-03    -380.810E-03    -484.192E-03    -379.075E-03     706.825E-03    -484.192E-03     85.7655E-03     349.096E-03    -174.206E-03    -174.890E-03    -173.097E-03     347.986E-03    -174.890E-03     47.7825E-03     14.5666E+06    -44.3117E+06    -79.9032E+06    -79.8551E+06    -44.3598E+06     14.5666E+06     738.752E+03         53.4893
             556     5.88122E-03     53.3955E-03     763.711E-03    -419.457E-03    -500.011E-03    -418.401E-03     762.655E-03    -500.011E-03     65.6830E-03     348.579E-03    -173.710E-03    -174.869E-03    -173.081E-03     347.950E-03    -174.869E-03     35.6692E-03    -9.36963E+06    -84.3094E+06    -107.453E+06    -91.7095E+06    -100.053E+06    -9.36963E+06     495.411E+03         52.7324
             557     5.03973E-03     53.3643E-03     811.565E-03    -453.344E-03    -513.173E-03    -453.123E-03     811.344E-03    -513.173E-03     26.8264E-03     348.089E-03    -173.179E-03    -174.910E-03    -172.885E-03     347.795E-03    -174.910E-03     24.1782E-03    -33.3428E+06    -103.124E+06    -151.816E+06    -103.133E+06    -151.807E+06    -33.3428E+06     548.830E+03         52.1205
             558     4.20035E-03     53.3500E-03     851.481E-03    -482.023E-03    -523.708E-03    -482.001E-03     851.459E-03    -523.708E-03     9.77498E-03     348.340E-03    -173.339E-03    -175.001E-03    -173.215E-03     348.216E-03    -175.001E-03     15.7358E-03    -59.1462E+06    -114.357E+06    -196.251E+06    -114.364E+06    -196.245E+06    -59.1462E+06     202.800E+03         51.6158
             559     3.35848E-03     53.3415E-03     883.264E-03    -504.684E-03    -532.007E-03    -504.644E-03     883.224E-03    -532.007E-03    -3.46834E-03     349.048E-03    -173.960E-03    -175.087E-03    -173.912E-03     348.999E-03    -175.087E-03     9.66381E-03    -85.7552E+06    -125.335E+06    -236.684E+06    -125.338E+06    -236.681E+06    -85.7552E+06    -438.210E+03         51.2012
             560     2.51832E-03     53.3381E-03     908.808E-03    -523.233E-03    -538.271E-03    -522.825E-03     908.400E-03    -538.271E-03    -41.8631E-03     349.629E-03    -174.465E-03    -175.164E-03    -174.452E-03     349.617E-03    -175.164E-03     4.21338E-03    -107.897E+06    -134.177E+06    -275.290E+06    -134.181E+06    -275.287E+06    -107.897E+06    -95.3846E+03         50.8728
             561     1.67932E-03     53.3399E-03     928.439E-03    -537.581E-03    -542.844E-03    -535.220E-03     925.874E-03    -542.640E-03    -113.052E-03     349.983E-03    -174.725E-03    -175.259E-03    -174.724E-03     349.983E-03    -175.259E-03     976.875E-06    -127.760E+06    -142.041E+06    -304.935E+06    -142.044E+06    -304.932E+06    -127.760E+06     330.923E+03         50.6320
             562     838.639E-06     53.3429E-03     939.626E-03    -409.416E-03    -682.058E-03    -678.907E-03     936.983E-03    -409.923E-03    -39.8574E-03     350.545E-03    -174.629E-03    -175.915E-03    -175.671E-03     350.545E-03    -174.874E-03     295.786E-06    -143.585E+06    -148.151E+06    -324.555E+06    -147.512E+06    -324.538E+06    -144.241E+06    -653.439E+03         50.4812
             563     14.2874E-03     53.2785E-03     116.760E-03     33.5508E-03    -327.172E-03     66.2045E-03     84.1061E-03    -327.172E-03     35.1124E-03     365.901E-03    -174.977E-03    -190.923E-03    -178.064E-03     353.041E-03    -174.977E-03     161.125E-03     124.285E+06     65.7965E+06    -7.89525E+06    -7.88712E+06     65.7884E+06     124.285E+06     164.901E+03         74.8086
             564     13.4471E-03     52.9901E-03     181.677E-03     3.30745E-03    -361.351E-03     8.00925E-03     176.976E-03    -361.351E-03     45.3001E-03     365.617E-03    -174.838E-03    -190.780E-03    -177.480E-03     352.318E-03    -174.838E-03     165.040E-03     82.6149E+06     42.4101E+06    -15.2216E+06    -15.2145E+06     42.4030E+06     82.6149E+06     276.534E+03         72.1890
             565     12.6053E-03     52.8330E-03     271.763E-03    -53.0332E-03    -394.348E-03    -52.2809E-03     271.010E-03    -394.348E-03     25.2325E-03     357.404E-03    -174.791E-03    -182.613E-03    -174.844E-03     349.635E-03    -174.791E-03     128.393E-03     64.3237E+06     22.2235E+06    -21.3559E+06    -21.3508E+06     22.2183E+06     64.3237E+06     120.388E+03         68.9931
             566     11.7657E-03     52.6470E-03     364.540E-03    -113.599E-03    -425.535E-03    -113.340E-03     364.281E-03    -425.535E-03     21.5482E-03     356.251E-03    -174.792E-03    -181.459E-03    -174.340E-03     349.132E-03    -174.792E-03     122.198E-03     62.5373E+06     14.1498E+06    -26.9286E+06    -26.9218E+06     14.1430E+06     62.5373E+06     245.009E+03         65.6164
             567     10.9247E-03     52.5108E-03     456.206E-03    -174.450E-03    -455.400E-03    -174.257E-03     456.012E-03    -455.400E-03     15.8138E-03     353.081E-03    -174.801E-03    -178.280E-03    -172.952E-03     347.753E-03    -174.801E-03     105.859E-03     59.4996E+06     9.67063E+06    -33.6505E+06    -33.6457E+06     9.66587E+06     59.4996E+06     220.944E+03         62.4271
             568     10.0837E-03     52.3765E-03     545.661E-03    -234.669E-03    -483.624E-03    -234.655E-03     545.647E-03    -483.624E-03    -2.73546E-03     351.780E-03    -174.830E-03    -176.950E-03    -172.409E-03     347.238E-03    -174.830E-03     97.3929E-03     52.9841E+06     5.82964E+06    -41.1453E+06    -41.1420E+06     5.82637E+06     52.9841E+06     359.804E+03         59.6748
             569     9.24150E-03     52.2639E-03     632.115E-03    -293.587E-03    -510.170E-03    -293.540E-03     632.068E-03    -510.170E-03    -12.7203E-03     350.946E-03    -174.858E-03    -176.088E-03    -172.600E-03     347.458E-03    -174.858E-03     85.2528E-03     46.4720E+06     1.67749E+06    -49.0717E+06    -49.0672E+06     1.67299E+06     46.4720E+06     391.314E+03         57.4598
             570     8.40195E-03     52.1660E-03     714.293E-03    -350.242E-03    -534.708E-03    -350.206E-03     714.257E-03    -534.708E-03    -8.35972E-03     349.935E-03    -174.537E-03    -175.398E-03    -172.489E-03     347.367E-03    -174.878E-03     73.0032E-03     40.0670E+06    -4.55114E+06    -58.3003E+06    -58.2947E+06    -4.55672E+06     40.0670E+06     462.939E+03         55.7583
             571     7.56183E-03     52.0855E-03     792.161E-03    -404.767E-03    -557.006E-03    -404.131E-03     791.524E-03    -557.006E-03     39.8402E-03     349.013E-03    -174.108E-03    -174.905E-03    -172.342E-03     347.247E-03    -174.905E-03     60.3415E-03     31.6914E+06    -13.3026E+06    -68.8385E+06    -68.8335E+06    -13.3076E+06     31.6914E+06     352.954E+03         54.4762
             572     6.71960E-03     52.0224E-03     863.315E-03    -455.145E-03    -576.809E-03    -453.926E-03     862.096E-03    -576.809E-03     79.5724E-03     348.935E-03    -174.026E-03    -174.909E-03    -172.913E-03     347.821E-03    -174.909E-03     47.8095E-03     14.0349E+06    -44.4260E+06    -80.4431E+06    -80.4104E+06    -44.4588E+06     14.0349E+06     344.590E+03         53.5031
             573     5.88096E-03     51.9771E-03     925.952E-03    -499.696E-03    -593.940E-03    -498.976E-03     925.232E-03    -593.940E-03     59.6621E-03     348.444E-03    -173.527E-03    -174.918E-03    -172.895E-03     347.813E-03    -174.918E-03     35.7849E-03    -9.77949E+06    -83.8151E+06    -107.918E+06    -91.7700E+06    -99.9633E+06    -9.77949E+06     192.362E+03         52.7435
             574     5.04070E-03     51.9500E-03     979.844E-03    -538.128E-03    -608.382E-03    -537.990E-03     979.706E-03    -608.382E-03     20.6104E-03     348.204E-03    -173.224E-03    -174.981E-03    -172.914E-03     347.895E-03    -174.981E-03     24.8804E-03    -33.1797E+06    -102.476E+06    -151.878E+06    -102.480E+06    -151.874E+06    -33.1797E+06     72.6026E+03         52.1304
             575     4.19786E-03     51.9321E-03         1.02570    -571.177E-03    -620.242E-03    -571.173E-03         1.02570    -620.242E-03     3.11669E-03     348.955E-03    -173.938E-03    -175.017E-03    -173.812E-03     348.828E-03    -175.017E-03     15.6862E-03    -58.9334E+06    -114.275E+06    -195.623E+06    -114.275E+06    -195.623E+06    -58.9334E+06     103.753E+03         51.6255
             576     3.35969E-03     51.9238E-03         1.06324    -598.399E-03    -629.635E-03    -598.350E-03         1.06319    -629.635E-03    -10.1091E-03     349.361E-03    -174.375E-03    -174.986E-03    -174.333E-03     349.319E-03    -174.986E-03     8.94272E-03    -84.3130E+06    -124.867E+06    -236.864E+06    -124.876E+06    -236.855E+06    -84.3130E+06     210.631E+03         51.2113
             577     2.52028E-03     51.9197E-03         1.09179    -619.027E-03    -636.776E-03    -618.668E-03         1.09143    -636.776E-03    -45.2533E-03     349.318E-03    -174.341E-03    -174.977E-03    -174.331E-03     349.307E-03    -174.977E-03     4.05305E-03    -108.834E+06    -134.996E+06    -276.044E+06    -135.006E+06    -276.033E+06    -108.834E+06     381.384E+03         50.8831
             578     1.67928E-03     51.9234E-03         1.11456    -635.226E-03    -642.644E-03    -633.887E-03         1.11228    -641.710E-03    -115.814E-03     349.603E-03    -174.486E-03    -175.117E-03    -174.563E-03     349.602E-03    -175.039E-03     986.848E-06    -130.144E+06    -142.706E+06    -304.144E+06    -142.708E+06    -304.142E+06    -130.144E+06     16.5810E+03         50.6424
             579     839.555E-06     51.9242E-03         1.12713    -510.018E-03    -779.365E-03    -776.462E-03         1.12474    -510.524E-03    -40.9148E-03     350.115E-03    -174.772E-03    -175.343E-03    -174.864E-03     350.114E-03    -175.250E-03    -150.829E-06    -143.921E+06    -147.214E+06    -325.491E+06    -146.956E+06    -325.491E+06    -144.179E+06     8.63977E+03         50.4916
             580     14.2882E-03     51.8582E-03     145.112E-03     52.2783E-03    -389.154E-03     67.8628E-03     129.527E-03    -389.154E-03     35.3592E-03     365.702E-03    -175.005E-03    -190.697E-03    -178.016E-03     353.021E-03    -175.005E-03     159.936E-03     123.761E+06     64.9508E+06    -8.37244E+06    -8.37010E+06     64.9484E+06     123.761E+06    -185.443E+03         74.7655
             581     13.4459E-03     51.5753E-03     236.416E-03    -2.31982E-03    -424.495E-03     663.457E-06     233.433E-03    -424.495E-03     43.8133E-03     366.124E-03    -174.845E-03    -191.279E-03    -178.092E-03     352.936E-03    -174.845E-03     164.629E-03     82.8872E+06     42.6870E+06    -15.1639E+06    -15.1602E+06     42.6833E+06     82.8872E+06    -17.8467E+03         72.1625
             582     12.6073E-03     51.4099E-03     337.645E-03    -68.0024E-03    -458.525E-03    -67.5394E-03     337.182E-03    -458.525E-03     21.8270E-03     357.533E-03    -174.771E-03    -182.762E-03    -175.002E-03     349.773E-03    -174.771E-03     128.360E-03     64.7678E+06     22.9354E+06    -20.9267E+06    -20.9175E+06     22.9262E+06     64.7678E+06     494.841E+03         68.9877
             583     11.7657E-03     51.2343E-03     439.444E-03    -135.896E-03    -490.751E-03    -135.762E-03     439.310E-03    -490.751E-03     16.6268E-03     355.687E-03    -174.789E-03    -180.898E-03    -173.674E-03     348.463E-03    -174.789E-03     123.113E-03     62.1791E+06     14.0204E+06    -26.9313E+06    -26.9219E+06     14.0109E+06     62.1791E+06     367.211E+03         65.6280
             584     10.9239E-03     51.0901E-03     539.622E-03    -203.731E-03    -521.560E-03    -203.629E-03     539.520E-03    -521.560E-03     10.4669E-03     353.191E-03    -174.827E-03    -178.364E-03    -172.961E-03     347.788E-03    -174.827E-03     106.556E-03     59.2066E+06     9.45376E+06    -33.8215E+06    -33.8177E+06     9.45001E+06     59.2066E+06     113.153E+03         62.4496
             585     10.0827E-03     50.9630E-03     636.960E-03    -270.432E-03    -550.656E-03    -270.405E-03     636.934E-03    -550.656E-03    -7.68280E-03     352.177E-03    -174.843E-03    -177.334E-03    -172.820E-03     347.663E-03    -174.843E-03     97.2268E-03     53.2560E+06     5.84131E+06    -41.2514E+06    -41.2488E+06     5.83877E+06     53.2560E+06     230.872E+03         59.7027
             586     9.24229E-03     50.8440E-03     731.019E-03    -335.698E-03    -577.983E-03    -335.623E-03     730.944E-03    -577.983E-03    -17.6348E-03     350.932E-03    -174.830E-03    -176.101E-03    -172.583E-03     347.437E-03    -174.854E-03     85.2880E-03     46.4647E+06     1.26188E+06    -49.4740E+06    -49.4725E+06     1.26040E+06     46.4647E+06     6.00253E+03         57.4874
             587     8.40206E-03     50.7483E-03     820.439E-03    -398.504E-03    -603.188E-03    -398.449E-03     820.384E-03    -603.188E-03    -12.9847E-03     349.966E-03    -174.701E-03    -175.264E-03    -172.540E-03     347.411E-03    -174.871E-03     72.8502E-03     40.1025E+06    -4.83410E+06    -58.3876E+06    -58.3849E+06    -4.83673E+06     40.1025E+06     50.4558E+03         55.7817
             588     7.56050E-03     50.6688E-03     904.030E-03    -457.847E-03    -626.058E-03    -457.368E-03     903.552E-03    -626.058E-03     34.4162E-03     349.050E-03    -174.113E-03    -174.937E-03    -172.364E-03     347.257E-03    -174.893E-03     60.8350E-03     31.6387E+06    -13.6023E+06    -68.9223E+06    -68.9179E+06    -13.6067E+06     31.6387E+06     348.848E+03         54.4948
             589     6.72168E-03     50.6038E-03     980.066E-03    -512.217E-03    -646.458E-03    -511.284E-03     979.133E-03    -646.458E-03     74.3432E-03     348.174E-03    -173.223E-03    -174.951E-03    -172.097E-03     347.048E-03    -174.951E-03     47.9361E-03     14.4961E+06    -44.1900E+06    -80.0757E+06    -80.0664E+06    -44.1993E+06     14.4961E+06     219.298E+03         53.5174
             590     5.87909E-03     50.5611E-03         1.04673    -559.836E-03    -664.285E-03    -559.291E-03         1.04619    -664.285E-03     54.3248E-03     348.236E-03    -173.192E-03    -175.045E-03    -172.565E-03     347.610E-03    -175.045E-03     35.6535E-03    -9.78193E+06    -83.6722E+06    -107.554E+06    -91.6004E+06    -99.6253E+06    -9.78193E+06    -152.239E+03         52.7548
             591     5.03789E-03     50.5318E-03         1.10506    -601.737E-03    -679.535E-03    -601.651E-03         1.10497    -679.535E-03     15.1614E-03     349.064E-03    -173.984E-03    -175.080E-03    -173.669E-03     348.749E-03    -175.080E-03     25.1631E-03    -35.0029E+06    -104.153E+06    -152.421E+06    -104.156E+06    -152.418E+06    -35.0029E+06    -193.958E+03         52.1407
             592     4.20105E-03     50.5137E-03         1.15512    -638.055E-03    -692.217E-03    -638.055E-03         1.15512    -692.217E-03    -1.31851E-03     349.543E-03    -174.538E-03    -175.005E-03    -174.402E-03     349.407E-03    -175.005E-03     16.3054E-03    -59.5551E+06    -115.470E+06    -195.611E+06    -115.474E+06    -195.608E+06    -59.5551E+06     183.826E+03         51.6357
             593     3.36027E-03     50.5052E-03         1.19572    -667.478E-03    -702.400E-03    -667.417E-03         1.19566    -702.400E-03    -15.0828E-03     349.441E-03    -174.543E-03    -174.898E-03    -174.518E-03     349.395E-03    -174.877E-03     9.04998E-03    -84.9025E+06    -125.820E+06    -237.366E+06    -125.830E+06    -237.357E+06    -84.9025E+06     795.913E+03         51.2217
             594     2.51919E-03     50.5046E-03         1.22779    -690.735E-03    -710.197E-03    -690.377E-03         1.22744    -710.197E-03    -49.2107E-03     349.209E-03    -174.407E-03    -174.801E-03    -174.419E-03     349.199E-03    -174.781E-03     3.95481E-03    -109.409E+06    -134.693E+06    -275.432E+06    -134.701E+06    -275.424E+06    -109.409E+06     595.996E+03         50.8937
             595     1.67980E-03     50.5043E-03         1.25234    -708.228E-03    -716.529E-03    -707.102E-03         1.25028    -715.595E-03    -117.341E-03     349.347E-03    -174.522E-03    -174.824E-03    -174.654E-03     349.346E-03    -174.691E-03     985.582E-06    -130.097E+06    -141.869E+06    -303.975E+06    -141.869E+06    -303.975E+06    -130.097E+06    -48.1636E+03         50.6532
             596     840.471E-06     50.5077E-03         1.26571    -588.235E-03    -849.098E-03    -845.855E-03         1.26360    -589.359E-03    -43.5061E-03     349.211E-03    -174.389E-03    -174.822E-03    -174.522E-03     349.210E-03    -174.689E-03    -259.423E-06    -143.354E+06    -146.432E+06    -325.779E+06    -146.350E+06    -325.779E+06    -143.437E+06    -105.240E+03         50.5024
             597     14.2877E-03     50.4469E-03     167.789E-03     63.2076E-03    -434.992E-03     69.6467E-03     161.350E-03    -434.992E-03     33.6641E-03     366.192E-03    -175.002E-03    -191.190E-03    -178.413E-03     353.415E-03    -175.002E-03     160.462E-03     123.535E+06     64.9069E+06    -8.20624E+06    -8.19735E+06     64.8980E+06     123.535E+06     111.504E+03         74.7241
             598     13.4476E-03     50.1518E-03     274.344E-03    -5.66850E-03    -470.242E-03    -3.58177E-03     272.257E-03    -470.242E-03     40.3988E-03     366.206E-03    -174.834E-03    -191.372E-03    -178.074E-03     352.909E-03    -174.834E-03     165.210E-03     82.1812E+06     42.1624E+06    -15.2885E+06    -15.2766E+06     42.1506E+06     82.1812E+06     150.941E+03         72.1365
             599     12.6061E-03     49.9954E-03     382.322E-03    -77.5173E-03    -504.135E-03    -77.2149E-03     382.020E-03    -504.135E-03     16.9290E-03     356.867E-03    -174.788E-03    -182.078E-03    -174.311E-03     349.099E-03    -174.788E-03     128.234E-03     64.2410E+06     22.4529E+06    -20.8825E+06    -20.8698E+06     22.4402E+06     64.2410E+06    -73.5594E+03         68.9800
             600     11.7640E-03     49.8162E-03     489.952E-03    -150.708E-03    -536.300E-03    -150.652E-03     489.896E-03    -536.300E-03     10.5966E-03     355.792E-03    -174.831E-03    -180.961E-03    -173.709E-03     348.540E-03    -174.831E-03     123.323E-03     62.0873E+06     14.1328E+06    -26.5108E+06    -26.4947E+06     14.1166E+06     62.0873E+06     261.317E+03         65.6374
             601     10.9232E-03     49.6743E-03     595.519E-03    -223.434E-03    -566.980E-03    -223.378E-03     595.464E-03    -566.980E-03     4.91865E-03     353.587E-03    -174.857E-03    -178.730E-03    -173.351E-03     348.208E-03    -174.857E-03     106.388E-03     59.4989E+06       9.708E+06    -33.0715E+06    -33.0630E+06     9.69946E+06     59.4989E+06     462.978E+03         62.4719
             602     10.0835E-03     49.5426E-03     698.084E-03    -295.043E-03    -595.881E-03    -294.983E-03     698.024E-03    -595.881E-03    -13.9319E-03     352.451E-03    -174.846E-03    -177.605E-03    -173.110E-03     347.957E-03    -174.846E-03     97.0788E-03     53.3030E+06     6.00049E+06    -40.7542E+06    -40.7520E+06     5.99823E+06     53.3030E+06     204.324E+03         59.7311
             603     9.24316E-03     49.4284E-03     796.510E-03    -364.571E-03    -622.889E-03    -364.438E-03     796.377E-03    -622.889E-03    -24.6070E-03     350.853E-03    -174.829E-03    -176.024E-03    -172.474E-03     347.327E-03    -174.853E-03     85.6939E-03     46.8088E+06     1.49055E+06    -49.2615E+06    -49.2596E+06     1.48863E+06     46.8088E+06     54.9516E+03         57.5154
             604     8.40089E-03     49.3306E-03     888.933E-03    -430.379E-03    -647.779E-03    -430.282E-03     888.836E-03    -647.779E-03    -20.6721E-03     349.770E-03    -174.690E-03    -175.079E-03    -172.281E-03     347.170E-03    -174.889E-03     73.4316E-03     40.1140E+06    -5.28518E+06    -58.7404E+06    -58.7379E+06    -5.28772E+06     40.1140E+06    -135.694E+03         55.8054
             605     7.56222E-03     49.2496E-03     974.344E-03    -491.549E-03    -670.437E-03    -491.175E-03     973.969E-03    -670.437E-03     26.4069E-03     348.966E-03    -173.986E-03    -174.979E-03    -172.230E-03     347.165E-03    -174.936E-03     60.9203E-03     31.6599E+06    -13.7636E+06    -68.9515E+06    -68.9506E+06    -13.7645E+06     31.6599E+06    -92.4593E+03         54.5135
             606     6.71909E-03     49.1893E-03         1.05226    -547.601E-03    -690.798E-03    -546.895E-03         1.05155    -690.798E-03     66.8263E-03     348.227E-03    -173.220E-03    -175.006E-03    -172.104E-03     347.110E-03    -175.006E-03     47.7203E-03     14.8583E+06    -43.8591E+06    -80.0868E+06    -80.0806E+06    -43.8653E+06     14.8583E+06     37.2464E+03         53.5320
             607     5.87863E-03     49.1435E-03         1.12155    -597.525E-03    -708.794E-03    -597.125E-03         1.12115    -708.794E-03     47.2770E-03     348.489E-03    -173.400E-03    -175.089E-03    -172.787E-03     347.876E-03    -175.089E-03     35.2694E-03    -9.78802E+06    -83.7590E+06    -108.289E+06    -92.0870E+06    -99.9615E+06    -9.78802E+06     71.5788E+03         52.7667
             608     5.04000E-03     49.1125E-03         1.18205    -641.062E-03    -724.417E-03    -641.006E-03         1.18200    -724.417E-03     10.0689E-03     349.079E-03    -173.965E-03    -175.114E-03    -173.660E-03     348.774E-03    -175.114E-03     24.7947E-03    -35.0350E+06    -104.070E+06    -152.699E+06    -104.073E+06    -152.695E+06    -35.0350E+06     117.210E+03         52.1512
             609     4.19784E-03     49.0953E-03         1.23433    -678.895E-03    -737.668E-03    -678.891E-03         1.23433    -737.668E-03    -4.76260E-03     349.406E-03    -174.338E-03    -175.068E-03    -174.201E-03     349.269E-03    -175.068E-03     16.5314E-03    -59.9090E+06    -115.248E+06    -196.184E+06    -115.253E+06    -196.179E+06    -59.9090E+06     159.597E+03         51.6457
             610     3.35938E-03     49.0870E-03         1.27826    -710.985E-03    -748.440E-03    -710.921E-03         1.27820    -748.440E-03    -17.3978E-03     349.713E-03    -174.696E-03    -175.017E-03    -174.711E-03     349.663E-03    -174.953E-03     9.46972E-03    -85.0693E+06    -125.451E+06    -237.830E+06    -125.455E+06    -237.826E+06    -85.0693E+06     115.411E+03         51.2319
             611     2.52135E-03     49.0870E-03         1.31239    -735.711E-03    -756.742E-03    -735.353E-03         1.31203    -756.742E-03    -50.9744E-03     349.665E-03    -174.752E-03    -174.913E-03    -174.893E-03     349.654E-03    -174.761E-03     4.42596E-03    -108.813E+06    -134.572E+06    -274.493E+06    -134.574E+06    -274.491E+06    -108.813E+06     260.334E+03         50.9043
             612     1.68085E-03     49.0882E-03         1.33810    -754.488E-03    -762.847E-03    -752.574E-03         1.33619    -762.847E-03    -117.522E-03     349.191E-03    -174.485E-03    -174.706E-03    -174.626E-03     349.188E-03    -174.562E-03     1.66923E-03    -129.061E+06    -142.198E+06    -303.024E+06    -142.200E+06    -303.023E+06    -129.061E+06     279.208E+03         50.6642
             613     840.250E-06     49.0907E-03         1.35424    -642.604E-03    -890.034E-03    -886.911E-03         1.35232    -643.801E-03    -44.3952E-03     348.885E-03    -174.334E-03    -174.551E-03    -174.418E-03     348.884E-03    -174.466E-03    -173.871E-06    -143.468E+06    -147.343E+06    -326.382E+06    -147.110E+06    -326.382E+06    -143.702E+06         496.180         50.5136
             614     14.2872E-03     49.0232E-03     181.999E-03     68.4977E-03    -462.943E-03     72.1382E-03     178.358E-03    -462.943E-03     32.6852E-03     366.075E-03    -175.001E-03    -191.074E-03    -178.233E-03     353.234E-03    -175.001E-03     160.977E-03     123.083E+06     64.5555E+06    -8.21872E+06    -8.20895E+06     64.5457E+06     123.083E+06     188.778E+03         74.6828
             615     13.4472E-03     48.7362E-03     293.779E-03    -6.38286E-03    -496.890E-03    -4.70041E-03     292.097E-03    -496.890E-03     36.6854E-03     365.668E-03    -174.861E-03    -190.808E-03    -177.474E-03     352.335E-03    -174.861E-03     165.340E-03     82.1621E+06      42.107E+06    -14.7236E+06    -14.7126E+06     42.0960E+06     82.1621E+06     21.4137E+03         72.1091
             616     12.6049E-03     48.5785E-03     404.381E-03    -81.4964E-03    -529.485E-03    -81.3104E-03     404.195E-03    -529.485E-03     12.1315E-03     357.043E-03    -174.830E-03    -182.213E-03    -174.457E-03     349.287E-03    -174.830E-03     128.226E-03     63.8546E+06     22.0639E+06    -20.8195E+06    -20.8110E+06     22.0553E+06     63.8546E+06    -286.101E+03         68.9714
             617     11.7646E-03     48.3986E-03     514.666E-03    -157.992E-03    -560.460E-03    -157.970E-03     514.644E-03    -560.460E-03     5.57418E-03     356.192E-03    -174.852E-03    -181.339E-03    -174.166E-03     349.018E-03    -174.852E-03     122.762E-03     61.7795E+06     14.2193E+06    -26.7087E+06    -26.6958E+06     14.2065E+06     61.7795E+06     82.0855E+03         65.6477
             618     10.9242E-03     48.2562E-03     622.512E-03    -233.804E-03    -589.853E-03    -233.754E-03     622.462E-03    -589.853E-03    -1.59196E-03     353.448E-03    -174.869E-03    -178.579E-03    -173.166E-03     348.035E-03    -174.869E-03     106.728E-03     59.2695E+06     10.0100E+06    -32.9594E+06    -32.9512E+06     10.0018E+06     59.2695E+06     348.258E+03         62.4950
             619     10.0828E-03     48.1248E-03     726.272E-03    -307.474E-03    -617.447E-03    -307.363E-03     726.161E-03    -617.447E-03    -20.5660E-03     352.342E-03    -174.879E-03    -177.463E-03    -172.897E-03     347.776E-03    -174.879E-03     97.7797E-03     52.9774E+06     6.02516E+06    -40.4603E+06    -40.4574E+06     6.02228E+06     52.9774E+06     218.627E+03         59.7590
             620     9.24142E-03     48.0112E-03     824.689E-03    -377.975E-03    -643.149E-03    -377.769E-03     824.483E-03    -643.149E-03    -31.3028E-03     351.102E-03    -174.893E-03    -176.208E-03    -172.680E-03     347.573E-03    -174.893E-03     85.7576E-03     47.3059E+06     1.70207E+06    -48.8387E+06    -48.8362E+06     1.69962E+06     47.3059E+06     340.220E+03         57.5427
             621     8.40219E-03     47.9128E-03     916.365E-03    -443.945E-03    -666.871E-03    -443.787E-03     916.208E-03    -666.871E-03    -27.5658E-03     349.789E-03    -174.555E-03    -175.234E-03    -172.256E-03     347.183E-03    -174.927E-03     73.5417E-03     40.9358E+06    -4.95030E+06    -58.2782E+06    -58.2749E+06    -4.95364E+06     40.9358E+06     204.948E+03         55.8291
             622     7.55898E-03     47.8331E-03         1.00110    -505.212E-03    -688.566E-03    -504.919E-03         1.00081    -688.566E-03     18.6108E-03     348.976E-03    -174.000E-03    -174.976E-03    -172.225E-03     347.201E-03    -174.976E-03     60.3923E-03     31.7020E+06    -13.8695E+06    -68.9263E+06    -68.9242E+06    -13.8715E+06     31.7020E+06    -83.2334E+03         54.5324
             623     6.72039E-03     47.7712E-03         1.07784    -560.648E-03    -708.235E-03    -560.123E-03         1.07732    -708.235E-03     58.5310E-03     348.685E-03    -173.667E-03    -175.017E-03    -172.585E-03     347.602E-03    -175.017E-03     47.0996E-03     14.3862E+06    -44.4224E+06    -80.8487E+06    -80.8220E+06    -44.4491E+06     14.3862E+06     130.592E+03         53.5467
             624     5.88042E-03     47.7257E-03         1.14654    -610.157E-03    -725.909E-03    -609.859E-03         1.14625    -725.909E-03     40.7159E-03     348.616E-03    -173.558E-03    -175.058E-03    -172.934E-03     347.992E-03    -175.058E-03     35.6815E-03    -9.62635E+06    -84.1310E+06    -108.320E+06    -92.6892E+06    -99.7620E+06    -9.62635E+06     328.448E+03         52.7787
             625     5.03830E-03     47.6951E-03         1.20795    -654.525E-03    -741.528E-03    -654.485E-03         1.20791    -741.528E-03     4.97236E-03     348.864E-03    -173.781E-03    -175.083E-03    -173.469E-03     348.552E-03    -175.083E-03     24.9180E-03    -34.9235E+06    -104.415E+06    -152.567E+06    -104.420E+06    -152.562E+06    -34.9235E+06     129.870E+03         52.1614
             626     4.19999E-03     47.6773E-03         1.26131    -693.081E-03    -755.021E-03    -693.070E-03         1.26130    -755.021E-03    -8.48963E-03     349.098E-03    -174.021E-03    -175.077E-03    -173.897E-03     348.974E-03    -175.077E-03     15.6471E-03    -60.9271E+06    -115.979E+06    -196.286E+06    -115.983E+06    -196.282E+06    -60.9271E+06    -185.327E+03         51.6552
             627     3.35891E-03     47.6685E-03         1.30627    -725.661E-03    -766.330E-03    -725.599E-03         1.30621    -766.330E-03    -18.5235E-03     349.361E-03    -174.246E-03    -175.115E-03    -174.247E-03     349.319E-03    -175.072E-03     9.04392E-03    -85.3383E+06    -126.576E+06    -238.506E+06    -126.577E+06    -238.505E+06    -85.3383E+06    -264.289E+03         51.2413
             628     2.51832E-03     47.6681E-03         1.34276    -751.973E-03    -775.390E-03    -751.604E-03         1.34239    -775.390E-03    -51.9017E-03     349.738E-03    -174.584E-03    -175.155E-03    -174.703E-03     349.726E-03    -175.023E-03     4.63953E-03    -109.516E+06    -136.197E+06    -274.184E+06    -136.198E+06    -274.183E+06    -109.516E+06     123.964E+03         50.9142
             629     1.67979E-03     47.6717E-03         1.37122    -773.052E-03    -782.045E-03    -771.261E-03         1.36942    -782.045E-03    -116.235E-03     349.712E-03    -174.661E-03    -175.052E-03    -174.745E-03     349.709E-03    -174.963E-03     2.23630E-03    -130.353E+06    -143.050E+06    -302.092E+06    -143.053E+06    -302.088E+06    -130.353E+06    -85.2616E+03         50.6747
             630     839.848E-06     47.6748E-03         1.38851    -670.354E-03    -901.065E-03    -898.265E-03         1.38673    -671.374E-03    -42.2081E-03     349.837E-03    -174.345E-03    -175.492E-03    -175.310E-03     349.836E-03    -174.526E-03     476.363E-06    -144.026E+06    -148.491E+06    -327.264E+06    -148.343E+06    -327.261E+06    -144.177E+06    -105.873E+03         50.5246
             631     14.2893E-03     47.6071E-03     183.016E-03     71.4032E-03    -472.030E-03     74.8387E-03     179.580E-03    -472.030E-03     31.0128E-03     365.585E-03    -174.997E-03    -190.587E-03    -177.787E-03     352.784E-03    -174.997E-03     160.705E-03     122.597E+06     64.0968E+06    -8.21560E+06    -8.21235E+06     64.0935E+06     122.597E+06    -5.04040E+03         74.6426
             632     13.4449E-03     47.3204E-03     293.780E-03    -4.33725E-03    -503.494E-03    -2.82698E-03     292.270E-03    -503.494E-03     33.6294E-03     365.258E-03    -174.878E-03    -190.379E-03    -177.129E-03     352.008E-03    -174.878E-03     164.683E-03     81.6651E+06     41.6797E+06    -15.1193E+06    -15.1153E+06     41.6756E+06     81.6651E+06    -252.086E+03         72.0829
             633     12.6050E-03     47.1586E-03     404.014E-03    -80.9815E-03    -533.624E-03    -80.8514E-03     403.884E-03    -533.624E-03     8.37551E-03     357.152E-03    -174.857E-03    -182.295E-03    -174.550E-03     349.407E-03    -174.857E-03     128.142E-03     64.1397E+06     22.3672E+06    -20.8119E+06    -20.8097E+06     22.3649E+06     64.1397E+06    -75.8214E+03         68.9641
             634     11.7647E-03     46.9812E-03     513.211E-03    -158.237E-03    -562.244E-03    -158.229E-03     513.203E-03    -562.244E-03     845.160E-06     356.073E-03    -174.885E-03    -181.189E-03    -173.946E-03     348.831E-03    -174.885E-03     123.383E-03     61.1441E+06     13.7931E+06    -27.0630E+06    -27.0622E+06     13.7922E+06     61.1441E+06     27.6397E+03         65.6577
             635     10.9229E-03     46.8392E-03     618.615E-03    -233.558E-03    -589.253E-03    -233.503E-03     618.560E-03    -589.253E-03    -7.31424E-03     353.586E-03    -174.916E-03    -178.670E-03    -173.173E-03     348.089E-03    -174.916E-03     107.564E-03     58.4478E+06     9.55418E+06    -33.9947E+06    -33.9934E+06     9.55282E+06     58.4478E+06     63.6306E+03         62.5167
             636     10.0816E-03     46.7080E-03     718.903E-03    -305.761E-03    -614.575E-03    -305.590E-03     718.732E-03    -614.575E-03    -25.9405E-03     352.649E-03    -174.923E-03    -177.726E-03    -173.176E-03     348.099E-03    -174.923E-03     97.6398E-03     53.6172E+06     6.43696E+06    -40.7392E+06    -40.7373E+06     6.43509E+06     53.6172E+06     98.4861E+03         59.7863
             637     9.24225E-03     46.5913E-03     813.480E-03    -374.327E-03    -638.159E-03    -374.029E-03     813.182E-03    -638.159E-03    -37.3256E-03     351.205E-03    -174.920E-03    -176.286E-03    -172.837E-03     347.757E-03    -174.920E-03     84.7727E-03     47.8756E+06     1.65374E+06    -48.6662E+06    -48.6643E+06     1.65184E+06     47.8756E+06     92.6002E+03         57.5701
             638     8.40035E-03     46.4971E-03     901.795E-03    -438.659E-03    -659.980E-03    -438.421E-03     901.556E-03    -659.980E-03    -34.1338E-03     349.930E-03    -174.737E-03    -175.193E-03    -172.449E-03     347.383E-03    -174.934E-03     72.7631E-03     41.3924E+06    -5.01556E+06    -58.0311E+06    -58.0287E+06    -5.01805E+06     41.3924E+06     226.989E+03         55.8529
             639     7.56174E-03     46.4144E-03     983.112E-03    -497.991E-03    -680.027E-03    -497.736E-03     982.856E-03    -680.027E-03     11.4282E-03     349.094E-03    -174.126E-03    -174.968E-03    -172.377E-03     347.337E-03    -174.960E-03     60.1033E-03     31.8666E+06    -13.8966E+06    -68.6683E+06    -68.6598E+06    -13.9051E+06     31.8666E+06     396.087E+03         54.5514
             640     6.71999E-03     46.3533E-03         1.05703    -551.787E-03    -698.357E-03    -551.386E-03         1.05663    -698.357E-03     50.6425E-03     348.689E-03    -173.702E-03    -174.987E-03    -172.622E-03     347.610E-03    -174.987E-03     47.0841E-03     14.4013E+06    -44.5534E+06    -80.4226E+06    -80.3766E+06    -44.5994E+06     14.4013E+06     289.809E+03         53.5613
             641     5.87866E-03     46.3088E-03         1.12315    -599.641E-03    -715.028E-03    -599.417E-03         1.12292    -715.028E-03     33.5325E-03     348.647E-03    -173.630E-03    -175.017E-03    -173.014E-03     348.031E-03    -175.017E-03     35.3435E-03    -9.22008E+06    -83.9181E+06    -107.753E+06    -92.0697E+06    -99.6018E+06    -9.22008E+06     322.882E+03         52.7901
             642     5.04021E-03     46.2765E-03         1.18256    -642.588E-03    -730.021E-03    -642.553E-03         1.18252    -730.021E-03    -831.544E-06     348.524E-03    -173.465E-03    -175.060E-03    -173.156E-03     348.216E-03    -175.060E-03     24.9491E-03    -33.9927E+06    -103.706E+06    -152.285E+06    -103.716E+06    -152.275E+06    -33.9927E+06     325.921E+03         52.1708
             643     4.19897E-03     46.2592E-03         1.23496    -680.500E-03    -743.241E-03    -680.473E-03         1.23494    -743.241E-03    -13.4253E-03     348.848E-03    -173.735E-03    -175.113E-03    -173.594E-03     348.707E-03    -175.113E-03     16.7072E-03    -59.6284E+06    -115.375E+06    -195.780E+06    -115.380E+06    -195.775E+06    -59.6284E+06     36.5310E+03         51.6636
             644     3.35931E-03     46.2523E-03         1.27939    -712.506E-03    -754.623E-03    -712.431E-03         1.27931    -754.623E-03    -21.6985E-03     349.337E-03    -174.174E-03    -175.163E-03    -174.126E-03     349.289E-03    -175.163E-03     9.42388E-03    -85.3062E+06    -126.642E+06    -238.815E+06    -126.643E+06    -238.815E+06    -85.3062E+06    -3.39800E+03         51.2497
             645     2.51919E-03     46.2499E-03         1.31676    -739.444E-03    -764.021E-03    -739.055E-03         1.31637    -764.021E-03    -53.0498E-03     349.656E-03    -174.437E-03    -175.219E-03    -174.427E-03     349.646E-03    -175.219E-03     3.85446E-03    -109.649E+06    -135.625E+06    -274.453E+06    -135.627E+06    -274.450E+06    -109.649E+06    -267.636E+03         50.9229
             646     1.67822E-03     46.2535E-03         1.34667    -761.641E-03    -771.007E-03    -759.849E-03         1.34488    -771.007E-03    -115.689E-03     350.207E-03    -174.846E-03    -175.361E-03    -174.931E-03     350.205E-03    -175.274E-03     828.526E-06    -130.225E+06    -142.273E+06    -302.114E+06    -142.281E+06    -302.106E+06    -130.225E+06    -327.361E+03         50.6840
             647     838.700E-06     46.2564E-03         1.36405    -669.178E-03    -880.443E-03    -877.525E-03         1.36231    -670.356E-03    -43.5436E-03     350.528E-03    -174.625E-03    -175.902E-03    -175.648E-03     350.527E-03    -174.879E-03     252.125E-06    -143.978E+06    -148.992E+06    -328.014E+06    -148.055E+06    -328.006E+06    -144.925E+06    -353.081E+03         50.5345
             648     14.2866E-03     46.1914E-03     172.425E-03     70.1428E-03    -461.945E-03     77.3337E-03     165.235E-03    -461.945E-03     29.2025E-03     365.767E-03    -175.004E-03    -190.763E-03    -178.006E-03     353.010E-03    -175.004E-03     160.495E-03     123.062E+06     64.4489E+06    -7.57681E+06    -7.57522E+06     64.4474E+06     123.062E+06     244.799E+03         74.6034
             649     13.4478E-03     45.9024E-03     275.364E-03    -770.736E-06    -489.761E-03     665.706E-06     273.927E-03    -489.761E-03     31.0812E-03     365.286E-03    -174.879E-03    -190.408E-03    -177.146E-03     352.025E-03    -174.879E-03     164.921E-03     81.9930E+06     41.8676E+06    -14.7785E+06    -14.7688E+06     41.8579E+06     81.9930E+06     353.574E+03         72.0587
             650     12.6052E-03     45.7425E-03     380.961E-03    -75.7793E-03    -516.291E-03    -75.6519E-03     380.834E-03    -516.291E-03     5.14936E-03     356.658E-03    -174.879E-03    -181.779E-03    -173.937E-03     348.816E-03    -174.879E-03     128.802E-03     63.6179E+06     21.8759E+06    -21.0940E+06    -21.0836E+06     21.8654E+06     63.6179E+06    -32.4009E+03         68.9574
             651     11.7624E-03     45.5635E-03     484.006E-03    -149.861E-03    -541.519E-03    -149.845E-03     483.990E-03    -541.519E-03    -3.32096E-03     356.244E-03    -174.928E-03    -181.317E-03    -174.092E-03     349.020E-03    -174.928E-03     123.122E-03     60.9888E+06     13.6305E+06    -27.1464E+06    -27.1442E+06     13.6283E+06     60.9888E+06    -216.795E+03         65.6673
             652     10.9219E-03     45.4219E-03     582.473E-03    -221.285E-03    -565.232E-03    -221.204E-03     582.393E-03    -565.232E-03    -11.1696E-03     354.175E-03    -174.926E-03    -179.250E-03    -173.914E-03     348.840E-03    -174.926E-03     106.084E-03     59.0687E+06     10.0171E+06    -33.5291E+06    -33.5190E+06     10.0071E+06     59.0687E+06    -230.997E+03         62.5394
             653     10.0829E-03     45.2877E-03     676.282E-03    -289.945E-03    -587.467E-03    -289.685E-03     676.022E-03    -587.467E-03    -31.0011E-03     352.508E-03    -174.895E-03    -177.613E-03    -173.191E-03     348.086E-03    -174.895E-03     96.2500E-03     53.4923E+06     6.14569E+06    -40.8145E+06    -40.8023E+06     6.13342E+06     53.4923E+06    -399.332E+03         59.8151
             654     9.24166E-03     45.1750E-03     764.292E-03    -354.677E-03    -608.166E-03    -354.254E-03     763.869E-03    -608.166E-03    -43.2347E-03     350.829E-03    -174.899E-03    -175.930E-03    -172.508E-03     347.407E-03    -174.899E-03     84.4391E-03     47.3522E+06     998.424E+03    -48.8779E+06    -48.8752E+06     995.781E+03     47.3522E+06    -227.625E+03         57.5977
             655     8.40230E-03     45.0781E-03     846.068E-03    -414.961E-03    -627.370E-03    -414.614E-03     845.722E-03    -627.370E-03    -40.3790E-03     349.910E-03    -174.730E-03    -175.180E-03    -172.403E-03     347.332E-03    -174.929E-03     73.1915E-03     40.9298E+06    -5.54736E+06    -58.0272E+06    -58.0259E+06    -5.54871E+06     40.9298E+06     127.890E+03         55.8761
             656     7.56036E-03     44.9972E-03     921.572E-03    -470.668E-03    -645.097E-03    -470.427E-03     921.332E-03    -645.097E-03     3.52483E-03     349.103E-03    -174.132E-03    -174.971E-03    -172.343E-03     347.306E-03    -174.963E-03     60.8338E-03     31.8440E+06    -14.1570E+06    -68.5439E+06    -68.5361E+06    -14.1649E+06     31.8440E+06     494.186E+03         54.5694
             657     6.72009E-03     44.9367E-03     990.508E-03    -521.466E-03    -661.405E-03    -521.178E-03     990.220E-03    -661.405E-03     41.6217E-03     348.749E-03    -173.756E-03    -174.994E-03    -172.637E-03     347.630E-03    -174.994E-03     47.9141E-03     14.9744E+06    -43.8485E+06    -79.6979E+06    -79.6621E+06    -43.8842E+06     14.9744E+06     328.564E+03         53.5749
             658     5.88149E-03     44.8886E-03         1.05250    -566.946E-03    -676.337E-03    -566.792E-03         1.05235    -676.337E-03     24.6857E-03     348.664E-03    -173.639E-03    -175.025E-03    -173.001E-03     348.026E-03    -175.025E-03     35.9534E-03    -9.11111E+06    -83.3067E+06    -108.308E+06    -91.5711E+06    -100.044E+06    -9.11111E+06     82.0155E+03         52.8004
             659     5.03921E-03     44.8620E-03         1.10756    -607.022E-03    -689.911E-03    -606.983E-03         1.10752    -689.911E-03    -7.93381E-03     348.583E-03    -173.512E-03    -175.071E-03    -173.197E-03     348.268E-03    -175.071E-03     25.0960E-03    -33.1066E+06    -102.794E+06    -152.366E+06    -102.808E+06    -152.352E+06    -33.1066E+06     537.674E+03         52.1791
             660     4.19783E-03     44.8419E-03         1.15653    -642.694E-03    -702.028E-03    -642.638E-03         1.15647    -702.028E-03    -19.5971E-03     348.827E-03    -173.701E-03    -175.127E-03    -173.570E-03     348.696E-03    -175.127E-03     15.8803E-03    -58.2461E+06    -113.951E+06    -195.230E+06    -113.960E+06    -195.221E+06    -58.2461E+06     735.086E+03         51.6710
             661     3.35807E-03     44.8324E-03         1.19869    -673.436E-03    -712.489E-03    -673.321E-03         1.19858    -712.489E-03    -27.4143E-03     349.314E-03    -174.129E-03    -175.185E-03    -174.088E-03     349.273E-03    -175.185E-03     8.60977E-03    -84.6799E+06    -125.038E+06    -238.162E+06    -125.042E+06    -238.159E+06    -84.6799E+06     191.018E+03         51.2567
             662     2.51864E-03     44.8335E-03         1.23301    -697.997E-03    -721.238E-03    -697.560E-03         1.23257    -721.238E-03    -55.3658E-03     349.797E-03    -174.570E-03    -175.227E-03    -174.560E-03     349.788E-03    -175.227E-03     4.02806E-03    -109.739E+06    -135.044E+06    -274.417E+06    -135.048E+06    -274.414E+06    -109.739E+06    -273.693E+03         50.9301
             663     1.67960E-03     44.8341E-03         1.26138    -718.967E-03    -727.964E-03    -717.085E-03         1.25950    -727.964E-03    -115.031E-03     350.209E-03    -174.871E-03    -175.337E-03    -174.956E-03     350.206E-03    -175.250E-03     1.27220E-03    -130.946E+06    -143.412E+06    -303.262E+06    -143.418E+06    -303.256E+06    -130.946E+06     27.2520E+03         50.6915
             664     840.748E-06     44.8378E-03         1.27865    -639.635E-03    -823.782E-03    -821.235E-03         1.27688    -640.411E-03    -46.3244E-03     350.459E-03    -174.831E-03    -175.628E-03    -175.359E-03     350.458E-03    -175.100E-03     901.764E-09    -143.343E+06    -148.136E+06    -327.652E+06    -147.200E+06    -327.642E+06    -144.290E+06     230.957E+03         50.5422
             665     14.2888E-03     44.7719E-03     154.823E-03     60.9615E-03    -432.953E-03     78.8150E-03     136.969E-03    -432.953E-03     28.1839E-03     365.655E-03    -175.027E-03    -190.628E-03    -177.822E-03     352.849E-03    -175.027E-03     160.525E-03     122.582E+06     63.5270E+06    -8.25111E+06    -8.24972E+06     63.5256E+06     122.582E+06     64.1739E+03         74.5647
             666     13.4454E-03     44.4862E-03     239.607E-03     4.14355E-03    -456.068E-03     5.75002E-03     238.000E-03    -456.068E-03     28.1676E-03     365.385E-03    -174.914E-03    -190.471E-03    -177.099E-03     352.013E-03    -174.914E-03     165.562E-03     82.1538E+06     42.1021E+06    -14.7347E+06    -14.7264E+06     42.0938E+06     82.1538E+06     388.956E+03         72.0336
             667     12.6035E-03     44.3268E-03     334.707E-03    -64.5922E-03    -478.003E-03    -64.4837E-03     334.599E-03    -478.003E-03     1.45780E-03     357.358E-03    -174.895E-03    -182.463E-03    -174.656E-03     349.552E-03    -174.895E-03     128.720E-03     64.2537E+06     23.1703E+06    -20.5978E+06    -20.5853E+06     23.1578E+06     64.2537E+06     304.163E+03         68.9513
             668     11.7636E-03     44.1451E-03     427.338E-03    -132.461E-03    -498.941E-03    -132.421E-03     427.298E-03    -498.941E-03    -7.65791E-03     356.831E-03    -174.891E-03    -181.940E-03    -174.827E-03     349.717E-03    -174.891E-03     122.318E-03     61.6205E+06     14.5448E+06    -26.8559E+06    -26.8484E+06     14.5373E+06     61.6205E+06    -116.210E+03         65.6804
             669     10.9249E-03     44.0012E-03     515.822E-03    -197.967E-03    -518.568E-03    -197.821E-03     515.677E-03    -518.568E-03    -16.7487E-03     353.789E-03    -174.863E-03    -178.925E-03    -173.648E-03     348.511E-03    -174.863E-03     105.470E-03     58.9145E+06     9.90861E+06    -33.4348E+06    -33.4205E+06     9.89426E+06     58.9145E+06    -680.093E+03         62.5645
             670     10.0837E-03     43.8717E-03     599.617E-03    -260.327E-03    -537.025E-03    -259.919E-03     599.209E-03    -537.025E-03    -36.7380E-03     351.898E-03    -174.863E-03    -177.036E-03    -172.546E-03     347.409E-03    -174.863E-03     96.9084E-03     52.3242E+06     5.38639E+06    -41.1389E+06    -41.1245E+06     5.37202E+06     52.3242E+06    -652.267E+03         59.8432
             671     9.24236E-03     43.7580E-03     678.541E-03    -319.447E-03    -554.169E-03    -318.831E-03     677.925E-03    -554.169E-03    -49.0652E-03     350.805E-03    -174.903E-03    -175.902E-03    -172.381E-03     347.284E-03    -174.903E-03     85.5946E-03     46.3670E+06     212.706E+03    -49.3639E+06    -49.3613E+06     210.079E+03     46.3670E+06     -180.41E+03         57.6238
             672     8.40033E-03     43.6598E-03     751.760E-03    -374.424E-03    -570.071E-03    -373.909E-03     751.244E-03    -570.071E-03    -46.6906E-03     349.871E-03    -174.609E-03    -175.262E-03    -172.350E-03     347.298E-03    -174.948E-03     73.0447E-03     40.5334E+06    -5.94953E+06    -58.2651E+06    -58.2638E+06    -5.95076E+06     40.5334E+06    -9.35402E+03         55.8980
             673     7.56033E-03     43.5811E-03     818.759E-03    -424.621E-03    -584.807E-03    -424.356E-03     818.493E-03    -584.807E-03    -4.03997E-03     349.012E-03    -174.019E-03    -174.992E-03    -172.239E-03     347.231E-03    -174.992E-03     60.6173E-03     31.5473E+06    -14.3825E+06    -68.6408E+06    -68.6399E+06    -14.3835E+06     31.5473E+06     22.8517E+03         54.5864
             674     6.72004E-03     43.5162E-03     880.077E-03    -470.546E-03    -598.461E-03    -470.326E-03     879.857E-03    -598.461E-03     34.4655E-03     348.658E-03    -173.615E-03    -175.043E-03    -172.483E-03     347.527E-03    -175.043E-03     48.1285E-03     14.4740E+06    -44.1654E+06    -80.1531E+06    -80.1386E+06    -44.1799E+06     14.4740E+06     291.278E+03         53.5873
             675     5.87754E-03     43.4739E-03     935.692E-03    -512.109E-03    -611.056E-03    -511.983E-03     935.566E-03    -611.056E-03     17.6407E-03     348.848E-03    -173.765E-03    -175.082E-03    -173.131E-03     348.214E-03    -175.082E-03     35.8444E-03    -9.53940E+06    -83.8981E+06    -108.185E+06    -92.3807E+06    -99.7025E+06    -9.53940E+06     506.313E+03         52.8095
             676     5.03890E-03     43.4413E-03     985.421E-03    -549.128E-03    -622.512E-03    -549.065E-03     985.358E-03    -622.512E-03    -14.7879E-03     349.234E-03    -174.173E-03    -175.061E-03    -173.868E-03     348.929E-03    -175.061E-03     24.6737E-03    -34.6623E+06    -104.661E+06    -152.845E+06    -104.681E+06    -152.824E+06    -34.6623E+06     383.519E+03         52.1864
             677     4.20132E-03     43.4249E-03         1.02866    -581.057E-03    -632.734E-03    -580.959E-03         1.02856    -632.734E-03    -24.4545E-03     348.943E-03    -173.917E-03    -175.025E-03    -173.793E-03     348.818E-03    -175.025E-03     15.6061E-03    -59.7423E+06    -115.310E+06    -195.041E+06    -115.317E+06    -195.035E+06    -59.7423E+06     506.152E+03         51.6773
             678     3.35955E-03     43.4164E-03         1.06558    -608.084E-03    -641.573E-03    -607.935E-03         1.06543    -641.573E-03    -30.3694E-03     348.854E-03    -173.764E-03    -175.090E-03    -173.721E-03     348.811E-03    -175.090E-03     8.80446E-03    -84.8202E+06    -125.890E+06    -237.134E+06    -125.895E+06    -237.129E+06    -84.8202E+06     471.077E+03         51.2624
             679     2.51876E-03     43.4140E-03         1.09587    -630.239E-03    -648.796E-03    -629.696E-03         1.09533    -648.796E-03    -58.1913E-03     349.547E-03    -174.345E-03    -175.202E-03    -174.335E-03     349.538E-03    -175.202E-03     4.05740E-03    -109.461E+06    -135.907E+06    -274.667E+06    -135.910E+06    -274.664E+06    -109.461E+06     472.002E+03         50.9354
             680     1.67869E-03     43.4167E-03         1.11895    -646.957E-03    -654.424E-03    -644.894E-03         1.11689    -654.424E-03    -114.657E-03     350.131E-03    -174.833E-03    -175.298E-03    -174.831E-03     350.129E-03    -175.298E-03     1.56783E-03    -130.659E+06    -142.803E+06    -303.000E+06    -142.805E+06    -302.998E+06    -130.659E+06     130.873E+03         50.6967
             681     837.877E-06     43.4191E-03         1.13423    -582.845E-03    -733.057E-03    -729.756E-03         1.13234    -584.250E-03    -44.4674E-03     350.641E-03    -174.855E-03    -175.785E-03    -175.595E-03     350.640E-03    -175.045E-03     286.624E-06    -143.712E+06    -147.447E+06    -327.076E+06    -146.992E+06    -327.065E+06    -144.179E+06    -368.343E+03         50.5475
             682     14.2864E-03     43.3573E-03     129.516E-03     45.6662E-03    -385.858E-03     80.2111E-03     94.9716E-03    -385.858E-03     26.2274E-03     365.426E-03    -175.063E-03    -190.363E-03    -177.586E-03     352.649E-03    -175.063E-03     160.570E-03     122.620E+06     62.8891E+06    -8.60034E+06    -8.59930E+06     62.8881E+06     122.620E+06     88.1252E+03         74.5264
             683     13.4446E-03     43.0689E-03     184.989E-03     12.7868E-03    -403.439E-03     14.9576E-03     182.818E-03    -403.439E-03     24.3760E-03     365.987E-03    -174.930E-03    -191.057E-03    -177.833E-03     352.763E-03    -174.930E-03     164.726E-03     81.9014E+06     42.1959E+06    -15.7315E+06    -15.7296E+06     42.1940E+06     81.9014E+06     192.438E+03         72.0097
             684     12.6053E-03     42.9075E-03     266.503E-03    -47.8220E-03    -420.013E-03    -47.6967E-03     266.378E-03    -420.013E-03    -2.76001E-03     358.053E-03    -174.856E-03    -183.197E-03    -175.492E-03     350.347E-03    -174.856E-03     128.055E-03     64.6226E+06     24.3515E+06    -20.9139E+06    -20.9077E+06     24.3453E+06     64.6226E+06     139.974E+03         68.9479
             685     11.7659E-03     42.7257E-03     346.008E-03    -107.718E-03    -435.964E-03    -107.613E-03     345.903E-03    -435.964E-03    -12.3424E-03     356.351E-03    -174.837E-03    -181.513E-03    -174.330E-03     349.167E-03    -174.837E-03     122.961E-03     61.8792E+06     15.0748E+06    -26.5869E+06    -26.5785E+06     15.0664E+06     61.8792E+06    -195.698E+03         65.6937
             686     10.9237E-03     42.5842E-03     421.082E-03    -164.612E-03    -450.884E-03    -164.361E-03     420.831E-03    -450.884E-03    -21.7705E-03     353.011E-03    -174.861E-03    -178.150E-03    -172.737E-03     347.598E-03    -174.861E-03     106.618E-03     57.7878E+06     9.24740E+06    -33.8039E+06    -33.7973E+06     9.24078E+06     57.7878E+06    -478.628E+03         62.5863
             687     10.0816E-03     42.4562E-03     492.422E-03    -219.023E-03    -464.917E-03    -218.397E-03     491.796E-03    -464.917E-03    -41.4370E-03     352.076E-03    -174.898E-03    -177.178E-03    -172.637E-03     347.535E-03    -174.898E-03     97.4841E-03     51.4153E+06     4.93464E+06    -41.3970E+06    -41.3924E+06     4.93001E+06     51.4153E+06    -326.367E+03         59.8683
             688     9.24088E-03     42.3386E-03     559.087E-03    -270.153E-03    -477.861E-03    -269.241E-03     558.175E-03    -477.861E-03    -54.3175E-03     351.101E-03    -174.929E-03    -176.172E-03    -172.659E-03     347.588E-03    -174.929E-03     85.5043E-03     46.1576E+06     137.661E+03    -49.4825E+06    -49.4787E+06     133.863E+03     46.1576E+06    -338.857E+03         57.6487
             689     8.40188E-03     42.2434E-03     620.792E-03    -317.555E-03    -489.906E-03    -316.790E-03     620.027E-03    -489.906E-03    -51.9209E-03     350.017E-03    -174.794E-03    -175.223E-03    -172.517E-03     347.470E-03    -174.953E-03     72.7343E-03     40.1870E+06    -6.27269E+06    -58.7116E+06    -58.7088E+06    -6.27549E+06     40.1870E+06    -277.409E+03         55.9194
             690     7.56070E-03     42.1622E-03     677.538E-03    -361.142E-03    -501.134E-03    -360.822E-03     677.217E-03    -501.134E-03    -10.1336E-03     349.116E-03    -174.137E-03    -174.979E-03    -172.382E-03     347.361E-03    -174.979E-03     60.1066E-03     31.2010E+06    -14.5683E+06    -68.7891E+06    -68.7886E+06    -14.5687E+06     31.2010E+06    -29.4354E+03         54.6029
             691     6.71894E-03     42.1011E-03     729.052E-03    -400.638E-03    -511.604E-03    -400.476E-03     728.890E-03    -511.604E-03     26.9273E-03     348.651E-03    -173.639E-03    -175.011E-03    -172.560E-03     347.571E-03    -175.011E-03     46.9994E-03     13.6728E+06    -44.8330E+06    -80.7938E+06    -80.7773E+06    -44.8494E+06     13.6728E+06     327.348E+03         53.5993
             692     5.88049E-03     42.0534E-03     775.964E-03    -436.489E-03    -521.351E-03    -436.389E-03     775.864E-03    -521.351E-03     11.3400E-03     348.805E-03    -173.767E-03    -175.037E-03    -173.165E-03     348.202E-03    -175.037E-03     34.9865E-03    -9.95306E+06    -84.0076E+06    -108.292E+06    -92.5846E+06    -99.7147E+06    -9.95306E+06     509.775E+03         52.8180
             693     5.04036E-03     42.0235E-03     818.241E-03    -468.584E-03    -530.311E-03    -468.465E-03     818.123E-03    -530.311E-03    -20.4912E-03     348.850E-03    -173.806E-03    -175.044E-03    -173.505E-03     348.549E-03    -175.044E-03     24.6047E-03    -33.5911E+06    -103.270E+06    -152.417E+06    -103.288E+06    -152.400E+06    -33.5911E+06     209.995E+03         52.1925
             694     4.19796E-03     42.0069E-03     854.780E-03    -496.023E-03    -538.356E-03    -495.848E-03     854.606E-03    -538.356E-03    -29.6628E-03     349.048E-03    -174.018E-03    -175.030E-03    -173.887E-03     348.917E-03    -175.030E-03     15.9938E-03    -58.9744E+06    -115.149E+06    -195.464E+06    -115.151E+06    -195.462E+06    -58.9744E+06     275.937E+03         51.6820
             695     3.35922E-03     41.9999E-03     885.275E-03    -518.486E-03    -545.312E-03    -518.268E-03     885.056E-03    -545.312E-03    -33.5673E-03     349.237E-03    -174.223E-03    -175.014E-03    -174.178E-03     349.192E-03    -175.014E-03     9.04433E-03    -84.4755E+06    -126.073E+06    -236.730E+06    -126.077E+06    -236.727E+06    -84.4755E+06     518.612E+03         51.2665
             696     2.51912E-03     41.9967E-03     909.779E-03    -536.324E-03    -551.036E-03    -535.636E-03     909.090E-03    -551.036E-03    -60.0734E-03     349.319E-03    -174.273E-03    -175.047E-03    -174.263E-03     349.310E-03    -175.047E-03     3.92965E-03    -108.767E+06    -135.301E+06    -274.101E+06    -135.306E+06    -274.096E+06    -108.767E+06     206.753E+03         50.9392
             697     1.67902E-03     41.9986E-03     929.384E-03    -549.816E-03    -556.480E-03    -548.472E-03     926.924E-03    -555.364E-03    -114.672E-03     349.847E-03    -174.702E-03    -175.145E-03    -174.747E-03     349.847E-03    -175.100E-03     960.113E-06    -130.097E+06    -143.052E+06    -302.293E+06    -143.057E+06    -302.288E+06    -130.097E+06     125.393E+03         50.7002
             698     840.758E-06     41.9996E-03     940.461E-03    -503.159E-03    -613.616E-03    -610.449E-03     938.155E-03    -504.020E-03    -41.0549E-03     350.178E-03    -174.705E-03    -175.473E-03    -175.048E-03     350.178E-03    -175.130E-03    -210.726E-06    -144.019E+06    -148.518E+06    -327.401E+06    -147.467E+06    -327.384E+06    -145.087E+06     181.546E+03         50.5508
             699     14.2861E-03     41.9371E-03     101.925E-03     19.6970E-03    -322.246E-03     82.3292E-03     39.2929E-03    -322.246E-03     24.9406E-03     365.974E-03    -175.065E-03    -190.909E-03    -178.276E-03     353.341E-03    -175.065E-03     160.035E-03     123.477E+06     63.1909E+06    -8.01830E+06    -8.01395E+06     63.1865E+06     123.477E+06     374.145E+03         74.4896
             700     13.4469E-03     41.6520E-03     118.946E-03     18.4924E-03    -333.679E-03     26.6896E-03     110.749E-03    -333.679E-03     21.5908E-03     366.327E-03    -174.892E-03    -191.435E-03    -178.301E-03     353.193E-03    -174.892E-03     164.619E-03     82.6962E+06     42.9580E+06    -15.1734E+06    -15.1685E+06     42.9531E+06     82.6962E+06     390.228E+03         71.9881
             701     12.6061E-03     41.4864E-03     178.550E-03    -26.3957E-03    -344.373E-03    -26.1665E-03     178.320E-03    -344.373E-03    -5.86207E-03     357.484E-03    -174.820E-03    -182.664E-03    -174.831E-03     349.651E-03    -174.820E-03     128.953E-03     64.0304E+06     24.0202E+06    -21.2905E+06    -21.2846E+06     24.0143E+06     64.0304E+06     209.116E+03         68.9433
             702     11.7644E-03     41.3103E-03     242.222E-03    -76.1473E-03    -354.866E-03    -75.8824E-03     241.958E-03    -354.866E-03    -16.4568E-03     355.734E-03    -174.851E-03    -180.883E-03    -173.671E-03     348.522E-03    -174.851E-03     122.956E-03     61.5652E+06     14.9309E+06    -26.8098E+06    -26.8036E+06     14.9248E+06     61.5652E+06    -388.656E+03         65.7029
             703     10.9222E-03     41.1682E-03     301.922E-03    -123.137E-03    -364.535E-03    -122.653E-03     301.438E-03    -364.535E-03    -26.0498E-03     353.246E-03    -174.892E-03    -178.354E-03    -173.002E-03     347.894E-03    -174.892E-03     106.060E-03     58.2102E+06     9.55565E+06    -33.6126E+06    -33.6077E+06     9.55071E+06     58.2102E+06    -245.883E+03         62.6060
             704     10.0827E-03     41.0369E-03     358.157E-03    -167.654E-03    -373.556E-03    -166.608E-03     357.111E-03    -373.556E-03    -45.3845E-03     352.396E-03    -174.897E-03    -177.499E-03    -173.057E-03     347.954E-03    -174.897E-03     96.4670E-03     51.2985E+06     4.79095E+06    -41.3781E+06    -41.3721E+06     4.78500E+06     51.2985E+06    -297.156E+03         59.8939
             705     9.24258E-03     40.9219E-03     410.272E-03    -209.056E-03    -381.818E-03    -207.621E-03     408.837E-03    -381.818E-03    -58.1308E-03     350.943E-03    -174.907E-03    -176.036E-03    -172.590E-03     347.496E-03    -174.907E-03     84.7597E-03     45.5683E+06    -129.039E+03    -49.5318E+06    -49.5235E+06    -137.287E+03     45.5683E+06    -606.087E+03         57.6741
             706     8.40026E-03     40.8247E-03     458.152E-03    -247.129E-03    -389.547E-03    -245.924E-03     456.946E-03    -389.547E-03    -55.8429E-03     349.967E-03    -174.880E-03    -175.087E-03    -172.479E-03     347.413E-03    -174.933E-03     72.8149E-03     39.7636E+06    -6.50219E+06    -58.6123E+06    -58.6062E+06     -6.5083E+06     39.7636E+06    -453.750E+03         55.9406
             707     7.56067E-03     40.7446E-03     502.061E-03    -281.976E-03    -396.829E-03    -281.509E-03     501.594E-03    -396.829E-03    -14.7602E-03     349.460E-03    -174.523E-03    -174.937E-03    -172.778E-03     347.714E-03    -174.937E-03     59.9830E-03     30.5157E+06    -15.6501E+06    -69.6018E+06    -69.5957E+06    -15.6562E+06     30.5157E+06     46.7700E+03         54.6191
             708     6.72176E-03     40.6828E-03     542.198E-03    -313.825E-03    -403.744E-03    -313.698E-03     542.070E-03    -403.744E-03     20.7228E-03     348.834E-03    -173.911E-03    -174.923E-03    -172.823E-03     347.745E-03    -174.923E-03     47.3057E-03     13.5479E+06    -44.8065E+06    -80.8967E+06    -80.8783E+06    -44.8249E+06     13.5479E+06     513.168E+03         53.6110
             709     5.87985E-03     40.6358E-03     577.844E-03    -341.628E-03    -410.405E-03    -341.540E-03     577.757E-03    -410.405E-03     6.36140E-03     348.307E-03    -173.356E-03    -174.952E-03    -172.737E-03     347.689E-03    -174.952E-03     35.3584E-03    -9.73922E+06    -83.0116E+06    -107.878E+06    -91.8152E+06    -99.0747E+06    -9.73922E+06     250.298E+03         52.8259
             710     5.03858E-03     40.6072E-03     610.598E-03    -366.763E-03    -416.830E-03    -366.573E-03     610.408E-03    -416.830E-03    -23.5119E-03     348.402E-03    -173.386E-03    -175.016E-03    -173.088E-03     348.104E-03    -175.016E-03     24.4173E-03    -34.1798E+06    -103.770E+06    -152.794E+06    -103.777E+06    -152.787E+06    -34.1798E+06     236.099E+03         52.1976
             711     4.20003E-03     40.5887E-03     640.123E-03    -389.310E-03    -422.754E-03    -389.049E-03     639.863E-03    -422.754E-03    -31.8063E-03     349.056E-03    -174.022E-03    -175.034E-03    -173.897E-03     348.931E-03    -175.034E-03     15.6291E-03    -59.5467E+06    -115.780E+06    -195.564E+06    -115.785E+06    -195.560E+06    -59.5467E+06     379.487E+03         51.6855
             712     3.35987E-03     40.5807E-03     663.987E-03    -406.796E-03    -428.007E-03    -406.461E-03     663.652E-03    -428.007E-03    -36.2024E-03     349.577E-03    -174.525E-03    -175.052E-03    -174.572E-03     349.536E-03    -174.964E-03     8.72877E-03    -84.3960E+06    -126.183E+06    -236.283E+06    -126.185E+06    -236.281E+06    -84.3960E+06     145.929E+03         51.2694
             713     2.52021E-03     40.5807E-03     683.420E-03    -420.766E-03    -432.586E-03    -419.859E-03     682.512E-03    -432.586E-03    -60.8548E-03     349.605E-03    -174.586E-03    -175.019E-03    -174.779E-03     349.596E-03    -174.817E-03     3.90808E-03    -108.213E+06    -135.146E+06    -273.289E+06    -135.152E+06    -273.283E+06    -108.213E+06     174.406E+03         50.9419
             714     1.68023E-03     40.5800E-03     700.831E-03    -432.409E-03    -437.795E-03    -430.880E-03     697.573E-03    -436.065E-03    -113.963E-03     349.258E-03    -174.423E-03    -174.835E-03    -174.580E-03     349.257E-03    -174.677E-03     1.01600E-03    -131.056E+06    -143.854E+06    -302.405E+06    -143.862E+06    -302.397E+06    -131.056E+06     506.795E+03         50.7028
             715     839.232E-06     40.5831E-03     709.426E-03    -406.608E-03    -471.548E-03    -468.451E-03     706.329E-03    -406.608E-03    -41.6219E-03     349.202E-03    -173.870E-03    -175.332E-03    -174.833E-03     349.202E-03    -174.369E-03    -477.314E-06    -145.508E+06    -150.511E+06    -328.355E+06    -149.927E+06    -328.339E+06    -146.109E+06     403.827E+03         50.5532
             716     14.2882E-03     40.5215E-03     87.8520E-03    -32.2971E-03    -244.455E-03     84.1831E-03    -28.6282E-03    -244.455E-03     24.1127E-03     366.342E-03    -175.029E-03    -191.313E-03    -178.567E-03     353.595E-03    -175.029E-03     160.408E-03     123.491E+06     62.8761E+06    -8.00205E+06    -7.99566E+06     62.8697E+06     123.491E+06     488.848E+03         74.4535
             717     13.4465E-03     40.2303E-03     66.4005E-03    -1.84913E-03    -249.353E-03     39.4844E-03     25.0670E-03    -249.353E-03     19.5473E-03     365.957E-03    -174.866E-03    -191.091E-03    -177.785E-03     352.651E-03    -174.866E-03     165.384E-03     82.6776E+06     43.2669E+06    -14.7041E+06    -14.6981E+06     43.2610E+06     82.6776E+06     350.495E+03         71.9649
             718     12.6052E-03     40.0728E-03     82.4772E-03    -9.70488E-03    -253.796E-03    -1.31630E-03     74.0886E-03    -253.796E-03    -8.97944E-03     357.073E-03    -174.824E-03    -182.248E-03    -174.466E-03     349.290E-03    -174.824E-03     128.457E-03     64.2481E+06     24.7405E+06    -20.6661E+06    -20.6624E+06     24.7368E+06     64.2481E+06     133.744E+03         68.9360
             719     11.7635E-03     39.8909E-03     120.913E-03    -40.4493E-03    -258.383E-03    -39.1318E-03     119.595E-03    -258.383E-03    -20.7083E-03     355.951E-03    -174.852E-03    -181.099E-03    -174.003E-03     348.855E-03    -174.852E-03     121.969E-03     61.0810E+06     14.5328E+06    -27.3017E+06    -27.2972E+06     14.5284E+06     61.0810E+06    -128.698E+03         65.7120
             720     10.9245E-03     39.7518E-03     162.679E-03    -75.4985E-03    -262.345E-03    -74.1854E-03     161.366E-03    -262.345E-03    -30.5371E-03     353.639E-03    -174.862E-03    -178.777E-03    -173.475E-03     348.336E-03    -174.862E-03     105.699E-03     58.5962E+06     9.50902E+06    -33.9641E+06    -33.9593E+06     9.50427E+06     58.5962E+06    -77.6174E+03         62.6276
             721     10.0830E-03     39.6174E-03     201.955E-03    -108.666E-03    -266.000E-03    -106.212E-03     199.501E-03    -266.000E-03    -50.0470E-03     352.257E-03    -174.850E-03    -177.408E-03    -172.959E-03     347.809E-03    -174.850E-03     96.4882E-03     52.2380E+06     5.32479E+06    -41.0774E+06    -41.0724E+06     5.31983E+06     52.2380E+06    -220.128E+03         59.9207
             722     9.24181E-03     39.5060E-03     237.748E-03    -139.027E-03    -269.262E-03    -136.016E-03     234.737E-03    -269.262E-03    -62.1502E-03     350.820E-03    -174.856E-03    -175.964E-03    -172.532E-03     347.388E-03    -174.856E-03     84.5776E-03     45.2470E+06    -277.751E+03    -49.4317E+06    -49.4266E+06    -282.896E+03     45.2470E+06    -393.842E+03         57.6998
             723     8.40216E-03     39.4066E-03     269.902E-03    -166.234E-03    -272.334E-03    -163.781E-03     267.449E-03    -272.334E-03    -59.9165E-03     349.884E-03    -174.726E-03    -175.158E-03    -172.452E-03     347.334E-03    -174.881E-03     72.7343E-03     38.9879E+06    -7.25703E+06    -59.1151E+06    -59.1086E+06    -7.26353E+06     38.9879E+06    -186.311E+03         55.9621
             724     7.56123E-03     39.3265E-03     297.682E-03    -189.386E-03    -275.392E-03    -188.448E-03     296.744E-03    -275.392E-03    -19.0768E-03     349.289E-03    -174.399E-03    -174.890E-03    -172.649E-03     347.539E-03    -174.890E-03     60.0982E-03     30.0455E+06    -16.0756E+06    -69.7240E+06    -69.7091E+06    -16.0906E+06     30.0455E+06    -138.358E+03         54.6351
             725     6.72014E-03     39.2639E-03     323.504E-03    -210.643E-03    -278.703E-03    -210.509E-03     323.370E-03    -278.703E-03     16.6424E-03     348.764E-03    -173.883E-03    -174.881E-03    -172.795E-03     347.676E-03    -174.881E-03     47.1864E-03     13.3366E+06    -45.2329E+06    -80.7003E+06    -80.6907E+06    -45.2425E+06     13.3366E+06    -105.896E+03         53.6219
             726     5.88081E-03     39.2203E-03     348.222E-03    -230.606E-03    -282.346E-03    -230.486E-03     348.102E-03    -282.346E-03     2.65650E-03     348.281E-03    -173.380E-03    -174.901E-03    -172.779E-03     347.680E-03    -174.901E-03     34.8959E-03    -10.3015E+06    -84.1638E+06    -107.486E+06    -92.5536E+06    -99.0962E+06    -10.3015E+06     463.941E+03         52.8331
             727     5.04063E-03     39.1890E-03     371.029E-03    -248.379E-03    -286.229E-03    -248.039E-03     370.688E-03    -286.229E-03    -25.0295E-03     348.338E-03    -173.388E-03    -174.950E-03    -173.089E-03     348.039E-03    -174.950E-03     24.5635E-03    -35.2139E+06    -104.373E+06    -152.608E+06    -104.394E+06    -152.586E+06    -35.2139E+06     636.596E+03         52.2024
             728     4.19906E-03     39.1714E-03     391.648E-03    -263.971E-03    -290.206E-03    -263.479E-03     391.156E-03    -290.206E-03    -33.1888E-03     348.793E-03    -173.813E-03    -174.980E-03    -173.681E-03     348.661E-03    -174.980E-03     16.0649E-03    -60.1363E+06    -115.205E+06    -195.224E+06    -115.208E+06    -195.221E+06    -60.1363E+06     174.087E+03         51.6889
             729     3.35893E-03     39.1631E-03     410.003E-03    -277.327E-03    -294.108E-03    -276.703E-03     409.380E-03    -294.108E-03    -38.1068E-03     349.377E-03    -174.335E-03    -175.041E-03    -174.379E-03     349.332E-03    -174.953E-03     9.24376E-03    -84.2628E+06    -125.422E+06    -235.522E+06    -125.423E+06    -235.521E+06    -84.2628E+06    -142.408E+03         51.2720
             730     2.52013E-03     39.1609E-03     426.126E-03    -289.200E-03    -297.689E-03    -287.728E-03     424.654E-03    -297.689E-03    -60.7098E-03     349.721E-03    -174.656E-03    -175.065E-03    -174.898E-03     349.709E-03    -174.812E-03     4.50741E-03    -108.121E+06    -135.284E+06    -274.365E+06    -135.289E+06    -274.360E+06    -108.121E+06     282.835E+03         50.9443
             731     1.68099E-03     39.1651E-03     441.287E-03    -298.447E-03    -303.316E-03    -295.948E-03     436.156E-03    -300.684E-03    -112.707E-03     349.349E-03    -174.444E-03    -174.905E-03    -174.767E-03     349.347E-03    -174.580E-03     1.49570E-03    -129.919E+06    -143.016E+06    -302.677E+06    -143.028E+06    -302.665E+06    -129.919E+06     1.06241E+06         50.7052
             732     840.770E-06     39.1669E-03     449.021E-03    -289.174E-03    -320.035E-03    -306.623E-03     444.126E-03    -297.691E-03    -42.3021E-03     348.860E-03    -173.701E-03    -175.159E-03    -174.778E-03     348.859E-03    -174.081E-03     464.641E-06    -143.353E+06    -149.142E+06    -326.233E+06    -147.883E+06    -326.204E+06    -144.640E+06     923.495E+03         50.5557
             733     14.2879E-03     39.1032E-03     87.5996E-03    -87.3810E-03    -175.868E-03     86.6129E-03    -107.139E-03    -155.123E-03     22.3463E-03     366.292E-03    -175.022E-03    -191.270E-03    -178.391E-03     353.413E-03    -175.022E-03     161.165E-03     123.248E+06     62.5273E+06    -8.03565E+06    -8.02531E+06     62.5169E+06     123.248E+06     527.596E+03         74.4158
             734     13.4462E-03     38.8149E-03     55.3252E-03    -62.5894E-03    -164.328E-03     54.4084E-03    -72.6782E-03    -153.322E-03     16.1678E-03     366.100E-03    -174.864E-03    -191.236E-03    -177.891E-03     352.756E-03    -174.864E-03     165.359E-03     82.2829E+06     42.9235E+06    -15.0545E+06    -15.0442E+06     42.9132E+06     82.2829E+06     597.567E+03         71.9401
             735     12.6056E-03     38.6527E-03     38.1798E-03    -51.1497E-03    -155.132E-03     26.1082E-03    -42.9117E-03    -151.298E-03    -12.9184E-03     357.252E-03    -174.809E-03    -182.443E-03    -174.772E-03     349.581E-03    -174.809E-03     127.573E-03     64.4126E+06     24.9369E+06    -20.8763E+06    -20.8738E+06     24.9344E+06     64.4126E+06     104.191E+03         68.9293
             736     11.7657E-03     38.4758E-03     40.3601E-03    -55.6423E-03    -150.043E-03     1.23338E-03    -16.8286E-03    -149.730E-03    -24.5777E-03     356.105E-03    -174.817E-03    -181.288E-03    -174.166E-03     348.983E-03    -174.817E-03     122.322E-03     61.3218E+06     14.9779E+06    -27.3532E+06    -27.3501E+06     14.9748E+06     61.3218E+06     206.408E+03         65.7224
             737     10.9236E-03     38.3311E-03     50.2130E-03    -65.3221E-03    -147.808E-03    -20.4264E-03     5.31729E-03    -147.808E-03    -34.3930E-03     353.450E-03    -174.824E-03    -178.626E-03    -173.269E-03     348.093E-03    -174.824E-03     106.183E-03     58.2025E+06     9.72804E+06    -34.1045E+06    -34.0962E+06     9.71967E+06     58.2025E+06    -197.092E+03         62.6490
             738     10.0836E-03     38.2027E-03     62.4775E-03    -77.3908E-03    -145.929E-03    -39.8830E-03     24.9697E-03    -145.929E-03    -53.4917E-03     352.260E-03    -174.822E-03    -177.438E-03    -172.950E-03     347.773E-03    -174.822E-03     96.9300E-03     52.2230E+06     5.32938E+06    -41.2639E+06    -41.2564E+06     5.32193E+06     52.2230E+06    -325.139E+03         59.9464
             739     9.24310E-03     38.0861E-03     74.2283E-03    -89.2020E-03    -144.021E-03    -57.1003E-03     42.0918E-03    -143.986E-03    -64.8312E-03     351.082E-03    -174.817E-03    -176.265E-03    -172.817E-03     347.634E-03    -174.817E-03     84.7556E-03     45.6012E+06    -360.337E+03    -49.6229E+06    -49.6168E+06    -366.438E+03     45.6012E+06     223.404E+03         57.7250
             740     8.40201E-03     37.9905E-03     82.9091E-03    -97.9945E-03    -142.334E-03    -72.1067E-03     56.9865E-03    -142.300E-03    -62.2904E-03     349.951E-03    -174.694E-03    -175.256E-03    -172.588E-03     347.404E-03    -174.815E-03     72.7619E-03     38.9197E+06    -7.28138E+06    -59.0340E+06    -59.0224E+06    -7.29303E+06     38.9197E+06     174.260E+03         55.9836
             741     7.56134E-03     37.9081E-03     83.9124E-03    -98.8826E-03    -141.111E-03    -85.0689E-03     70.0987E-03    -141.111E-03    -22.8638E-03     349.025E-03    -174.185E-03    -174.840E-03    -172.457E-03     347.279E-03    -174.822E-03     59.9129E-03     30.4609E+06    -15.7125E+06    -69.0742E+06    -69.0602E+06    -15.7264E+06     30.4609E+06    -189.070E+03         54.6514
             742     6.72166E-03     37.8467E-03     86.7761E-03    -101.014E-03    -140.764E-03    -96.2640E-03     82.0259E-03    -140.764E-03     12.6056E-03     348.396E-03    -173.562E-03    -174.834E-03    -172.509E-03     347.343E-03    -174.834E-03     46.4442E-03     12.9572E+06    -46.1232E+06    -80.9010E+06    -80.8912E+06    -46.1330E+06     12.9572E+06    -93.6397E+03         53.6331
             743     5.88055E-03     37.8018E-03     97.6915E-03    -110.324E-03    -141.352E-03    -107.130E-03     94.4977E-03    -141.352E-03    -536.405E-06     348.247E-03    -173.383E-03    -174.865E-03    -172.781E-03     347.646E-03    -174.865E-03     34.9816E-03    -10.7765E+06    -84.8599E+06    -107.507E+06    -92.7453E+06    -99.6218E+06    -10.7765E+06     35.9425E+03         52.8405
             744     5.03973E-03     37.7733E-03     111.512E-03    -121.829E-03    -142.667E-03    -117.327E-03     107.010E-03    -142.667E-03    -28.3123E-03     348.440E-03    -173.544E-03    -174.896E-03    -173.236E-03     348.132E-03    -174.896E-03     24.9085E-03    -34.6103E+06    -103.845E+06    -151.802E+06    -103.881E+06    -151.765E+06    -34.6103E+06     109.783E+03         52.2075
             745     4.19996E-03     37.7536E-03     123.215E-03    -130.761E-03    -144.581E-03    -126.094E-03     118.548E-03    -144.581E-03    -36.2306E-03     348.702E-03    -173.800E-03    -174.901E-03    -173.671E-03     348.573E-03    -174.901E-03     15.8239E-03    -59.8860E+06    -114.786E+06    -194.597E+06    -114.790E+06    -194.593E+06    -59.8860E+06    -20.6932E+03         51.6928
             746     3.36011E-03     37.7454E-03     134.227E-03    -138.130E-03    -147.371E-03    -134.191E-03     129.910E-03    -146.992E-03    -40.3982E-03     348.901E-03    -173.990E-03    -174.911E-03    -173.950E-03     348.861E-03    -174.911E-03     8.72696E-03    -85.6263E+06    -125.159E+06    -235.776E+06    -125.162E+06    -235.773E+06    -85.6263E+06    -265.103E+03         51.2753
             747     2.51891E-03     37.7436E-03     148.736E-03    -146.052E-03    -153.309E-03    -141.560E-03     140.597E-03    -149.662E-03    -62.7033E-03     349.207E-03    -174.191E-03    -175.015E-03    -174.233E-03     349.197E-03    -174.964E-03     4.21563E-03    -108.647E+06    -134.554E+06    -275.808E+06    -134.556E+06    -275.807E+06    -108.647E+06    -194.051E+03         50.9474
             748     1.67903E-03     37.7464E-03     168.979E-03    -151.338E-03    -167.957E-03    -147.921E-03     149.885E-03    -152.280E-03    -112.815E-03     349.739E-03    -174.545E-03    -175.194E-03    -174.755E-03     349.737E-03    -174.982E-03     1.85577E-03    -128.084E+06    -142.046E+06    -302.925E+06    -142.057E+06    -302.914E+06    -128.084E+06     76.8617E+03         50.7085
             749     840.196E-06     37.7511E-03     179.165E-03    -139.855E-03    -189.101E-03    -130.729E-03     157.631E-03    -176.692E-03    -38.5553E-03     349.861E-03    -174.600E-03    -175.261E-03    -174.903E-03     349.859E-03    -174.956E-03     832.987E-06    -139.696E+06    -146.441E+06    -322.929E+06    -145.181E+06    -322.901E+06    -140.983E+06     668.183E+03         50.5592
             750     14.2865E-03     37.6862E-03     90.1539E-03    -57.1496E-03    -193.339E-03     89.6726E-03    -192.858E-03    -57.1496E-03     20.7335E-03     366.453E-03    -175.033E-03    -191.420E-03    -178.563E-03     353.596E-03    -175.033E-03     161.169E-03     123.167E+06     62.1229E+06    -8.08852E+06    -8.08091E+06     62.1153E+06     123.167E+06     319.352E+03         74.3773
             751     13.4469E-03     37.3945E-03     71.5858E-03    -48.6942E-03    -179.754E-03     71.1725E-03    -179.340E-03    -48.6942E-03     13.3213E-03     366.337E-03    -174.862E-03    -191.475E-03    -178.202E-03     353.064E-03    -174.862E-03     164.938E-03     83.1342E+06     43.1357E+06    -14.8159E+06    -14.8072E+06     43.1270E+06     83.1342E+06     541.127E+03         71.9154
             752     12.6063E-03     37.2369E-03     57.0369E-03    -40.3107E-03    -170.519E-03     56.4838E-03    -169.966E-03    -40.3107E-03    -15.1556E-03     357.147E-03    -174.801E-03    -182.346E-03    -174.605E-03     349.406E-03    -174.801E-03     128.040E-03     64.6579E+06     24.8018E+06    -21.1200E+06    -21.1136E+06     24.7954E+06     64.6579E+06     505.634E+03         68.9219
             753     11.7644E-03     37.0562E-03     46.1301E-03    -30.8291E-03    -166.765E-03     45.0448E-03    -163.832E-03    -32.6763E-03    -27.0221E-03     356.220E-03    -174.818E-03    -181.402E-03    -174.152E-03     348.970E-03    -174.818E-03     123.369E-03     61.7746E+06     15.4661E+06    -26.8806E+06    -26.8749E+06     15.4604E+06     61.7746E+06     450.597E+03         65.7305
             754     10.9247E-03     36.9159E-03     39.5579E-03    -21.1667E-03    -167.877E-03     36.7232E-03    -161.267E-03    -24.9418E-03    -36.9363E-03     353.593E-03    -174.824E-03    -178.769E-03    -173.404E-03     348.228E-03    -174.824E-03     106.286E-03     58.8048E+06     10.3991E+06    -33.3657E+06    -33.3511E+06     10.3845E+06     58.8048E+06     130.753E+03         62.6683
             755     10.0828E-03     36.7835E-03     37.6940E-03    -14.3529E-03    -171.143E-03     31.0960E-03    -161.320E-03    -17.5781E-03    -54.8392E-03     352.348E-03    -174.811E-03    -177.537E-03    -173.040E-03     347.851E-03    -174.811E-03     97.0638E-03     51.9121E+06     5.09495E+06    -41.4760E+06    -41.4621E+06     5.08097E+06     51.9121E+06     76.1290E+03         59.9710
             756     9.24275E-03     36.6687E-03     38.0637E-03    -9.21407E-03    -175.204E-03     27.3950E-03    -163.238E-03    -10.5113E-03    -65.6634E-03     351.244E-03    -174.795E-03    -176.449E-03    -172.971E-03     347.766E-03    -174.795E-03     85.1556E-03     45.5392E+06    -449.145E+03    -49.6534E+06    -49.6422E+06    -460.366E+03     45.5392E+06     95.5134E+03         57.7495
             757     8.40290E-03     36.5725E-03     36.5894E-03    -3.21644E-03    -178.477E-03     25.0104E-03    -165.956E-03    -4.15833E-03    -62.6777E-03     350.146E-03    -174.773E-03    -175.373E-03    -172.819E-03     347.593E-03    -174.773E-03     72.8592E-03     39.5426E+06    -6.78547E+06    -58.4148E+06    -58.3984E+06    -6.80188E+06     39.5426E+06    -27.9478E+03         56.0047
             758     7.56292E-03     36.4905E-03     28.9888E-03     8.10830E-03    -181.158E-03     23.4768E-03    -168.774E-03     1.23700E-03    -24.8089E-03     348.835E-03    -174.041E-03    -174.793E-03    -172.304E-03     347.075E-03    -174.771E-03     60.1757E-03     30.4630E+06    -16.1714E+06    -69.4817E+06    -69.4722E+06    -16.1810E+06     30.4630E+06     287.214E+03         54.6677
             759     6.72138E-03     36.4298E-03     24.7950E-03     16.4679E-03    -184.504E-03     22.5331E-03    -171.181E-03     5.40642E-03     8.93568E-03     348.191E-03    -173.390E-03    -174.801E-03    -172.306E-03     347.107E-03    -174.801E-03     47.0840E-03     13.4544E+06    -45.8585E+06    -81.0917E+06    -81.0845E+06    -45.8656E+06     13.4544E+06     317.728E+03         53.6448
             760     5.88058E-03     36.3857E-03     28.1526E-03     17.6189E-03    -188.323E-03     22.0533E-03    -172.795E-03     8.19031E-03    -3.86339E-03     348.436E-03    -173.616E-03    -174.820E-03    -173.017E-03     347.838E-03    -174.820E-03     34.7906E-03    -10.4590E+06    -84.4082E+06    -107.533E+06    -92.7676E+06    -99.1740E+06    -10.4590E+06    -185.476E+03         52.8489
             761     5.04067E-03     36.3547E-03     35.1848E-03     14.8112E-03    -191.887E-03     20.9626E-03    -172.486E-03     9.63249E-03    -32.0195E-03     348.520E-03    -173.715E-03    -174.805E-03    -173.427E-03     348.232E-03    -174.805E-03     24.1120E-03    -35.1252E+06    -104.526E+06    -151.705E+06    -104.563E+06    -151.668E+06    -35.1252E+06    -470.744E+03         52.2139
             762     4.20058E-03     36.3367E-03     39.8976E-03     12.3455E-03    -193.496E-03     18.5289E-03    -169.719E-03     9.93720E-03    -38.4006E-03     348.354E-03    -173.555E-03    -174.800E-03    -173.429E-03     348.228E-03    -174.800E-03     15.7649E-03    -60.5010E+06    -115.463E+06    -194.719E+06    -115.480E+06    -194.703E+06    -60.5010E+06    -574.424E+03         51.6981
             763     3.35979E-03     36.3285E-03     42.7541E-03     10.8804E-03    -194.173E-03     15.6348E-03    -165.527E-03     9.35438E-03    -41.3292E-03     348.455E-03    -173.584E-03    -174.871E-03    -173.540E-03     348.410E-03    -174.871E-03     9.17091E-03    -86.2115E+06    -126.101E+06    -236.373E+06    -126.103E+06    -236.370E+06    -86.2115E+06    -196.036E+03         51.2801
             764     2.51996E-03     36.3275E-03     50.6088E-03     8.05987E-03    -198.540E-03     12.9765E-03    -160.908E-03     8.05987E-03    -63.6571E-03     349.003E-03    -173.987E-03    -175.016E-03    -173.976E-03     348.992E-03    -175.016E-03     4.40694E-03    -109.703E+06    -135.374E+06    -275.260E+06    -135.377E+06    -275.257E+06    -109.703E+06    -369.203E+03         50.9522
             765     1.67876E-03     36.3290E-03     64.5325E-03     6.49314E-03    -210.508E-03     9.00945E-03    -154.985E-03     6.49314E-03    -110.389E-03     349.744E-03    -174.561E-03    -175.184E-03    -174.558E-03     349.742E-03    -175.184E-03     1.05966E-03    -130.180E+06    -141.893E+06    -302.540E+06    -141.907E+06    -302.525E+06    -130.180E+06    -1.40495E+06         50.7133
             766     838.249E-06     36.3313E-03     101.995E-03    -15.9986E-03    -224.740E-03     55.5498E-03    -149.974E-03    -44.3191E-03    -38.7136E-03     350.484E-03    -174.639E-03    -175.846E-03    -175.643E-03     350.484E-03    -174.840E-03    -653.899E-06    -143.795E+06    -148.013E+06    -324.846E+06    -147.622E+06    -324.824E+06    -144.208E+06    -1.91822E+06         50.5643
             767     14.2879E-03     36.2672E-03     95.4390E-03     42.9324E-03    -282.298E-03     91.9990E-03    -282.001E-03     46.0749E-03     19.6111E-03     366.331E-03    -175.013E-03    -191.318E-03    -178.485E-03     353.498E-03    -175.013E-03     160.958E-03     123.004E+06     61.5070E+06    -8.32040E+06    -8.31888E+06     61.5055E+06     123.004E+06     240.553E+03         74.3401
             768     13.4469E-03     35.9758E-03     98.3298E-03     51.4459E-03    -290.890E-03     88.6423E-03    -290.644E-03     60.8878E-03     12.0919E-03     365.681E-03    -174.864E-03    -190.817E-03    -177.539E-03     352.403E-03    -174.864E-03     164.860E-03     83.0472E+06     42.6540E+06    -15.1446E+06    -15.1433E+06     42.6527E+06     83.0472E+06     155.823E+03         71.8903
             769     12.6051E-03     35.8207E-03     103.274E-03     60.9414E-03    -302.857E-03     88.6099E-03    -302.579E-03     75.3271E-03    -15.6658E-03     357.187E-03    -174.825E-03    -182.361E-03    -174.574E-03     349.400E-03    -174.825E-03     128.444E-03     64.7877E+06     25.1473E+06    -20.9337E+06    -20.9269E+06     25.1405E+06     64.7877E+06     465.038E+03         68.9124
             770     11.7645E-03     35.6382E-03     109.185E-03     71.3846E-03    -317.449E-03     91.3289E-03    -316.951E-03     88.7423E-03    -27.4980E-03     356.454E-03    -174.837E-03    -181.618E-03    -174.386E-03     349.223E-03    -174.837E-03     123.219E-03     61.6867E+06     15.6454E+06    -26.9379E+06    -26.9317E+06     15.6392E+06     61.6867E+06     414.946E+03         65.7370
             771     10.9233E-03     35.4970E-03     116.544E-03     83.2074E-03    -335.115E-03     96.8583E-03    -334.184E-03     101.962E-03    -37.1324E-03     353.830E-03    -174.825E-03    -179.005E-03    -173.672E-03     348.497E-03    -174.825E-03     106.024E-03     58.8401E+06     10.2656E+06    -33.7519E+06    -33.7435E+06     10.2572E+06     58.8401E+06     457.574E+03         62.6867
             772     10.0843E-03     35.3663E-03     125.385E-03     95.4184E-03    -354.959E-03     104.538E-03    -353.171E-03     114.477E-03    -54.3865E-03     352.544E-03    -174.790E-03    -177.754E-03    -173.292E-03     348.082E-03    -174.790E-03     96.7093E-03     52.4748E+06     5.65316E+06    -40.9945E+06    -40.9863E+06     5.64494E+06     52.4748E+06     497.279E+03         59.9952
             773     9.24279E-03     35.2513E-03     134.599E-03     107.916E-03    -375.698E-03     113.706E-03    -373.275E-03     126.386E-03    -65.4962E-03     351.037E-03    -174.765E-03    -176.272E-03    -172.820E-03     347.585E-03    -174.765E-03     84.8464E-03     45.9354E+06    -21.0030E+03    -49.1080E+06    -49.0967E+06    -32.2837E+03     45.9354E+06     120.914E+03         57.7737
             774     8.40276E-03     35.1524E-03     142.686E-03     120.069E-03    -395.092E-03     123.348E-03    -392.937E-03     137.251E-03    -63.0748E-03     349.773E-03    -174.566E-03    -175.207E-03    -172.447E-03     347.214E-03    -174.767E-03     72.8730E-03     39.4961E+06    -7.13935E+06    -58.7393E+06    -58.7260E+06    -7.15263E+06     39.4961E+06     247.378E+03         56.0250
             775     7.56189E-03     35.0752E-03     149.543E-03     131.093E-03    -412.286E-03     133.012E-03    -411.471E-03     146.810E-03    -26.3742E-03     348.841E-03    -174.050E-03    -174.791E-03    -172.283E-03     347.069E-03    -174.786E-03     60.4307E-03     30.7173E+06    -16.3215E+06    -69.6644E+06    -69.6574E+06    -16.3285E+06     30.7173E+06     253.333E+03         54.6834
             776     6.72087E-03     35.0126E-03     156.224E-03     141.631E-03    -429.078E-03     143.009E-03    -429.056E-03     154.824E-03     5.80467E-03     348.529E-03    -173.730E-03    -174.799E-03    -172.633E-03     347.432E-03    -174.799E-03     47.3461E-03     14.2923E+06    -45.3779E+06    -81.0896E+06    -81.0772E+06    -45.3903E+06     14.2923E+06     94.0600E+03         53.6567
             777     5.88159E-03     34.9667E-03     162.442E-03     151.432E-03    -444.784E-03     152.701E-03    -444.659E-03     161.047E-03    -6.62049E-03     348.440E-03    -173.648E-03    -174.792E-03    -173.037E-03     347.829E-03    -174.792E-03     35.2751E-03    -9.98745E+06    -84.1799E+06    -107.349E+06    -92.9936E+06    -98.5356E+06    -9.98745E+06    -7.85971E+03         52.8581
             778     5.04177E-03     34.9379E-03     167.706E-03     158.452E-03    -456.794E-03     160.177E-03    -456.256E-03     165.443E-03    -32.0749E-03     348.276E-03    -173.486E-03    -174.791E-03    -173.170E-03     347.961E-03    -174.791E-03     25.2134E-03    -35.1813E+06    -104.330E+06    -151.293E+06    -104.359E+06    -151.264E+06    -35.1813E+06    -574.986E+03         52.2213
             779     4.20058E-03     34.9206E-03     170.610E-03     163.492E-03    -464.410E-03     165.143E-03    -463.710E-03     168.258E-03    -38.6913E-03     348.271E-03    -173.446E-03    -174.825E-03    -173.306E-03     348.131E-03    -174.825E-03     16.5282E-03    -60.2944E+06    -115.517E+06    -195.880E+06    -115.532E+06    -195.865E+06    -60.2944E+06    -312.611E+03         51.7046
             780     3.35970E-03     34.9125E-03     171.545E-03     167.866E-03    -469.207E-03     168.858E-03    -468.392E-03     169.739E-03    -41.7782E-03     348.659E-03    -173.771E-03    -174.889E-03    -173.724E-03     348.612E-03    -174.889E-03     9.37546E-03    -85.7656E+06    -126.276E+06    -236.211E+06    -126.279E+06    -236.209E+06    -85.7656E+06     134.403E+03         51.2864
             781     2.51850E-03     34.9101E-03     172.759E-03     169.775E-03    -471.676E-03     170.624E-03    -469.895E-03     170.129E-03    -61.1356E-03     349.288E-03    -174.361E-03    -174.928E-03    -174.350E-03     349.277E-03    -174.928E-03     4.33490E-03    -110.613E+06    -136.111E+06    -273.826E+06    -136.116E+06    -273.821E+06    -110.613E+06    -669.001E+03         50.9585
             782     1.68001E-03     34.9107E-03     175.157E-03     169.990E-03    -473.910E-03     169.648E-03    -468.510E-03     170.100E-03    -104.033E-03     349.632E-03    -174.689E-03    -174.943E-03    -174.719E-03     349.630E-03    -174.911E-03     954.395E-06    -131.760E+06    -143.907E+06    -303.334E+06    -143.920E+06    -303.321E+06    -131.760E+06    -1.23747E+06         50.7199
             783     840.764E-06     34.9142E-03     252.219E-03     92.4377E-03    -472.874E-03     247.558E-03    -468.213E-03     92.4377E-03    -41.8412E-03     349.719E-03    -174.317E-03    -175.402E-03    -175.209E-03     349.718E-03    -174.510E-03    -44.8788E-06    -146.620E+06    -150.181E+06    -327.867E+06    -149.633E+06    -327.842E+06    -147.192E+06    -598.304E+03         50.5709
             784     14.2888E-03     34.8479E-03     151.336E-03     94.1979E-03    -372.631E-03     94.4330E-03    -372.425E-03     150.896E-03     18.6962E-03     365.950E-03    -174.996E-03    -190.953E-03    -178.134E-03     353.130E-03    -174.996E-03     160.883E-03     123.148E+06     61.4120E+06    -8.08733E+06    -8.08147E+06     61.4061E+06     123.148E+06     475.151E+03         74.3036
             785     13.4460E-03     34.5626E-03     171.534E-03     105.914E-03    -402.469E-03     105.753E-03    -402.308E-03     171.534E-03     11.3682E-03     365.348E-03    -174.863E-03    -190.485E-03    -177.212E-03     352.075E-03    -174.863E-03     164.846E-03     82.1777E+06     42.1294E+06    -15.5031E+06    -15.4963E+06     42.1226E+06     82.1777E+06     466.909E+03         71.8656
             786     12.6048E-03     34.3998E-03     191.617E-03     120.804E-03    -435.672E-03     120.627E-03    -435.495E-03     191.617E-03    -15.0005E-03     357.526E-03    -174.820E-03    -182.706E-03    -174.989E-03     349.809E-03    -174.820E-03     128.034E-03     64.2160E+06     24.8990E+06    -21.4055E+06    -21.3998E+06     24.8933E+06     64.2160E+06     221.535E+03         68.9043
             787     11.7649E-03     34.2215E-03     210.334E-03     138.529E-03    -470.936E-03     138.219E-03    -470.627E-03     210.334E-03    -26.9456E-03     356.382E-03    -174.809E-03    -181.573E-03    -174.499E-03     349.308E-03    -174.809E-03     121.918E-03     61.7971E+06     15.9726E+06    -27.0203E+06    -27.0168E+06     15.9691E+06     61.7971E+06     53.2419E+03         65.7452
             788     10.9246E-03     34.0784E-03     228.510E-03     158.223E-03    -507.948E-03     157.679E-03    -507.403E-03     228.510E-03    -36.2467E-03     353.463E-03    -174.800E-03    -178.663E-03    -173.348E-03     348.147E-03    -174.800E-03     105.798E-03     58.6799E+06     10.3305E+06    -33.7970E+06    -33.7959E+06     10.3295E+06     58.6799E+06     109.070E+03         62.7055
             789     10.0833E-03     33.9478E-03     245.730E-03     179.026E-03    -545.321E-03     177.992E-03    -544.287E-03     245.730E-03    -53.6123E-03     352.544E-03    -174.778E-03    -177.766E-03    -173.257E-03     348.035E-03    -174.778E-03     97.2153E-03     52.4770E+06     5.62537E+06    -41.0071E+06    -41.0047E+06       5.623E+06     52.4770E+06     278.524E+03         60.0182
             790     9.24454E-03     33.8332E-03     262.052E-03     200.355E-03    -582.471E-03     198.966E-03    -581.081E-03     262.052E-03    -64.6009E-03     350.969E-03    -174.762E-03    -176.207E-03    -172.715E-03     347.477E-03    -174.762E-03     85.3298E-03     46.0320E+06    -251.870E+03    -49.3774E+06    -49.3698E+06    -259.455E+03     46.0320E+06     530.537E+03         57.7964
             791     8.40247E-03     33.7373E-03     277.063E-03     221.406E-03    -618.190E-03     220.197E-03    -616.982E-03     277.063E-03    -61.3437E-03     349.530E-03    -174.525E-03    -175.005E-03    -172.183E-03     346.967E-03    -174.784E-03     72.8539E-03     39.8048E+06    -7.21155E+06    -58.6762E+06    -58.6664E+06    -7.22131E+06     39.8048E+06     632.415E+03         56.0444
             792     7.56131E-03     33.6566E-03     290.487E-03     242.006E-03    -652.039E-03     241.563E-03    -651.596E-03     290.487E-03    -25.5393E-03     348.912E-03    -174.095E-03    -174.817E-03    -172.332E-03     347.149E-03    -174.817E-03     60.3130E-03     31.5021E+06    -15.6460E+06    -68.7623E+06    -68.7552E+06    -15.6531E+06     31.5021E+06     249.363E+03         54.6987
             793     6.72238E-03     33.5943E-03     301.999E-03     262.231E-03    -683.793E-03     262.217E-03    -683.779E-03     301.999E-03     6.44620E-03     348.437E-03    -173.596E-03    -174.840E-03    -172.471E-03     347.311E-03    -174.840E-03     48.0218E-03     14.4165E+06    -45.3208E+06    -80.4288E+06    -80.4107E+06    -45.3389E+06     14.4165E+06    -35.9564E+03         53.6684
             794     5.88068E-03     33.5505E-03     311.389E-03     280.705E-03    -711.698E-03     280.634E-03    -711.627E-03     311.389E-03    -5.38045E-03     348.163E-03    -173.278E-03    -174.885E-03    -172.634E-03     347.519E-03    -174.885E-03     36.1773E-03    -9.50118E+06    -83.8371E+06    -106.610E+06    -92.1291E+06    -98.3176E+06    -9.50118E+06    -55.2393E+03         52.8670
             795     5.03895E-03     33.5208E-03     318.711E-03     296.166E-03    -734.510E-03     295.936E-03    -734.280E-03     318.711E-03    -28.7799E-03     348.446E-03    -173.514E-03    -174.932E-03    -173.190E-03     348.122E-03    -174.932E-03     25.4897E-03    -34.6429E+06    -104.174E+06    -151.193E+06    -104.194E+06    -151.173E+06    -34.6429E+06     74.5354E+03         52.2287
             796     4.19935E-03     33.5036E-03     324.152E-03     308.919E-03    -752.681E-03     308.605E-03    -752.368E-03     324.152E-03    -35.0545E-03     348.932E-03    -174.001E-03    -174.931E-03    -173.864E-03     348.795E-03    -174.931E-03     16.3778E-03    -60.1329E+06    -116.200E+06    -196.869E+06    -116.204E+06    -196.865E+06    -60.1329E+06     454.286E+03         51.7115
             797     3.35968E-03     33.4953E-03     327.892E-03     318.972E-03    -766.222E-03     318.611E-03    -765.861E-03     327.892E-03    -37.5962E-03     349.194E-03    -174.322E-03    -174.872E-03    -174.276E-03     349.148E-03    -174.872E-03     9.30481E-03    -86.1537E+06    -127.210E+06    -235.454E+06    -127.214E+06    -235.450E+06    -86.1537E+06     401.490E+03         51.2933
             798     2.52102E-03     33.4923E-03     330.165E-03     326.467E-03    -775.582E-03     325.638E-03    -774.753E-03     330.165E-03    -56.7886E-03     349.202E-03    -174.385E-03    -174.817E-03    -174.373E-03     349.190E-03    -174.817E-03     4.56445E-03    -110.760E+06    -136.714E+06    -272.763E+06    -136.718E+06    -272.760E+06    -110.760E+06    -247.193E+03         50.9655
             799     1.67982E-03     33.4938E-03     332.747E-03     330.652E-03    -781.970E-03     329.696E-03    -779.520E-03     331.253E-03    -97.8865E-03     349.326E-03    -174.493E-03    -174.833E-03    -174.522E-03     349.324E-03    -174.801E-03     1.72965E-03    -131.941E+06    -145.007E+06    -304.666E+06    -145.010E+06    -304.663E+06    -131.941E+06    -203.852E+03         50.7268
             800     839.445E-06     33.4968E-03     437.875E-03     226.874E-03    -782.767E-03     435.877E-03    -780.769E-03     226.874E-03    -42.7993E-03     349.536E-03    -174.596E-03    -174.940E-03    -174.627E-03     349.536E-03    -174.908E-03     432.866E-06    -146.187E+06    -149.920E+06    -328.536E+06    -149.729E+06    -328.524E+06    -146.391E+06     365.089E+03         50.5778
             801     14.2875E-03     33.4326E-03     253.755E-03     97.4571E-03    -461.520E-03     97.3045E-03    -461.367E-03     253.755E-03     17.6097E-03     366.117E-03    -174.997E-03    -191.120E-03    -178.404E-03     353.401E-03    -174.997E-03     160.322E-03     122.812E+06     60.9188E+06    -8.26165E+06    -8.25654E+06     60.9137E+06     122.812E+06     210.673E+03         74.2676
             802     13.4468E-03     33.1442E-03     279.513E-03     122.886E-03    -511.478E-03     122.763E-03    -511.356E-03     279.513E-03     10.4794E-03     365.951E-03    -174.830E-03    -191.121E-03    -177.986E-03     352.816E-03    -174.830E-03     164.105E-03     83.0161E+06     42.7720E+06    -14.8885E+06    -14.8804E+06     42.7639E+06     83.0161E+06      591.34E+03         71.8433
             803     12.6064E-03     32.9826E-03     304.512E-03     152.098E-03    -564.743E-03     151.976E-03    -564.620E-03     304.512E-03    -14.9049E-03     357.165E-03    -174.769E-03    -182.396E-03    -174.674E-03     349.444E-03    -174.769E-03     127.900E-03     65.2401E+06     25.3903E+06    -20.4841E+06    -20.4747E+06     25.3809E+06     65.2401E+06     408.233E+03         68.8986
             804     11.7661E-03     32.8013E-03     327.884E-03     183.451E-03    -619.135E-03     183.237E-03    -618.921E-03     327.884E-03    -25.8238E-03     356.027E-03    -174.780E-03    -181.247E-03    -174.073E-03     348.853E-03    -174.780E-03     122.649E-03     61.4744E+06     15.3844E+06    -26.8468E+06    -26.8389E+06     15.3765E+06     61.4744E+06     272.373E+03         65.7529
             805     10.9247E-03     32.6640E-03     350.434E-03     216.053E-03    -674.101E-03     215.682E-03    -673.730E-03     350.434E-03    -34.9763E-03     353.505E-03    -174.789E-03    -178.717E-03    -173.328E-03     348.116E-03    -174.789E-03     106.536E-03     58.3196E+06     10.2709E+06    -33.6901E+06    -33.6866E+06     10.2674E+06     58.3196E+06     283.198E+03         62.7225
             806     10.0838E-03     32.5283E-03     371.759E-03     249.847E-03    -729.204E-03     249.147E-03    -728.503E-03     371.759E-03    -51.3576E-03     352.031E-03    -174.796E-03    -177.234E-03    -172.693E-03     347.489E-03    -174.796E-03     97.4323E-03     52.2575E+06     5.46487E+06    -41.1852E+06    -41.1819E+06     5.46156E+06     52.2575E+06     339.284E+03         60.0392
             807     9.24180E-03     32.4163E-03     391.856E-03     283.090E-03    -782.663E-03     282.188E-03    -781.761E-03     391.856E-03    -60.9361E-03     350.741E-03    -174.823E-03    -175.918E-03    -172.407E-03     347.230E-03    -174.823E-03     85.5460E-03     45.7614E+06    -446.212E+03    -49.4724E+06    -49.4695E+06    -449.074E+03     45.7614E+06     272.295E+03         57.8166
             808     8.40233E-03     32.3193E-03     410.359E-03     314.959E-03    -833.255E-03     314.210E-03    -832.506E-03     410.359E-03    -57.1130E-03     349.937E-03    -174.730E-03    -175.207E-03    -172.448E-03     347.303E-03    -174.855E-03     73.9337E-03     39.7591E+06    -7.19363E+06    -58.5716E+06    -58.5676E+06    -7.19761E+06     39.7591E+06     255.386E+03         56.0618
             809     7.56244E-03     32.2396E-03     427.042E-03     345.756E-03    -881.042E-03     345.484E-03    -880.770E-03     427.042E-03    -23.1965E-03     348.929E-03    -174.039E-03    -174.890E-03    -172.219E-03     347.109E-03    -174.890E-03     61.2498E-03     31.5262E+06    -15.3608E+06    -68.4160E+06    -68.4102E+06    -15.3666E+06     31.5262E+06     472.024E+03         54.7123
             810     6.71932E-03     32.1778E-03     441.587E-03     375.343E-03    -925.617E-03     375.329E-03    -925.603E-03     441.587E-03     7.55938E-03     348.392E-03    -173.451E-03    -174.941E-03    -172.316E-03     347.257E-03    -174.941E-03     48.1458E-03     14.3050E+06    -44.9585E+06     -80.068E+06    -80.0478E+06    -44.9787E+06     14.3050E+06     293.035E+03         53.6784
             811     5.87923E-03     32.1331E-03     453.806E-03     402.137E-03    -965.009E-03     402.096E-03    -964.969E-03     453.806E-03    -2.86271E-03     348.582E-03    -173.596E-03    -174.986E-03    -172.976E-03     347.962E-03    -174.986E-03     35.4100E-03    -9.68817E+06    -84.3185E+06    -106.952E+06    -92.6036E+06    -98.6671E+06    -9.68817E+06     299.897E+03         52.8744
             812     5.04012E-03     32.1033E-03     463.732E-03     425.245E-03    -998.355E-03     425.122E-03    -998.231E-03     463.732E-03    -25.0068E-03     348.834E-03    -173.840E-03    -174.994E-03    -173.543E-03     348.537E-03    -174.994E-03     24.4300E-03    -34.0902E+06    -104.560E+06    -151.813E+06    -104.579E+06    -151.794E+06    -34.0902E+06     811.066E+03         52.2347
             813     4.19968E-03     32.0853E-03     471.521E-03     444.577E-03        -1.02566     444.401E-03        -1.02548     471.521E-03    -31.7266E-03     349.049E-03    -174.090E-03    -174.960E-03    -173.963E-03     348.923E-03    -174.960E-03     15.8382E-03    -59.4493E+06    -115.903E+06    -196.640E+06    -115.918E+06    -196.625E+06    -59.4493E+06     951.707E+03         51.7168
             814     3.36022E-03     32.0770E-03     477.397E-03     459.842E-03        -1.04677     459.655E-03        -1.04658     477.397E-03    -32.9797E-03     349.217E-03    -174.323E-03    -174.894E-03    -174.277E-03     349.171E-03    -174.894E-03     9.44648E-03    -85.4120E+06    -126.522E+06    -234.313E+06    -126.527E+06    -234.307E+06    -85.4120E+06     470.915E+03         51.2983
             815     2.51906E-03     32.0759E-03     481.460E-03     472.661E-03        -1.06361     472.133E-03        -1.06308     481.460E-03    -53.4763E-03     349.192E-03    -174.335E-03    -174.857E-03    -174.322E-03     349.178E-03    -174.857E-03     4.74221E-03    -110.354E+06    -136.292E+06    -272.609E+06    -136.293E+06    -272.608E+06    -110.354E+06     150.507E+03         50.9705
             816     1.67956E-03     32.0772E-03     484.338E-03     481.353E-03        -1.07508     480.504E-03        -1.07365     483.754E-03    -90.7558E-03     349.314E-03    -174.401E-03    -174.913E-03    -174.398E-03     349.311E-03    -174.913E-03     2.00041E-03    -132.368E+06    -144.475E+06    -304.770E+06    -144.476E+06    -304.769E+06    -132.368E+06     256.533E+03         50.7318
             817     839.899E-06     32.0789E-03     613.858E-03     356.138E-03        -1.07895     612.504E-03        -1.07789     356.429E-03    -41.9777E-03     349.892E-03    -174.410E-03    -175.481E-03    -175.143E-03     349.891E-03    -174.748E-03     84.6157E-06    -145.781E+06    -148.997E+06    -328.283E+06    -148.527E+06    -328.278E+06    -146.256E+06     25.2312E+03         50.5829
             818     14.2877E-03     32.0144E-03     351.112E-03     99.2206E-03    -544.476E-03     99.0972E-03    -544.352E-03     351.112E-03     16.9249E-03     366.283E-03    -174.991E-03    -191.292E-03    -178.549E-03     353.539E-03    -174.991E-03     160.190E-03     122.945E+06     60.9037E+06    -7.87506E+06    -7.87404E+06     60.9027E+06     122.945E+06    -77.0111E+03         74.2324
             819     13.4485E-03     31.7238E-03     381.125E-03     139.180E-03    -614.294E-03     139.077E-03    -614.190E-03     381.125E-03     10.3006E-03     366.069E-03    -174.829E-03    -191.240E-03    -177.881E-03     352.709E-03    -174.829E-03     165.709E-03     83.4201E+06     42.8078E+06    -14.6637E+06    -14.6622E+06     42.8062E+06     83.4201E+06     197.657E+03         71.8195
             820     12.6076E-03     31.5674E-03     410.103E-03     181.458E-03    -685.701E-03     181.378E-03    -685.620E-03     410.103E-03    -13.3334E-03     357.324E-03    -174.782E-03    -182.542E-03    -174.591E-03     349.374E-03    -174.782E-03     129.806E-03     65.1891E+06     24.8340E+06    -20.7313E+06    -20.7199E+06     24.8226E+06     65.1891E+06     571.339E+03         68.8892
             821     11.7636E-03     31.3854E-03     437.307E-03     225.188E-03    -757.185E-03     225.053E-03    -757.050E-03     437.307E-03    -22.4266E-03     356.219E-03    -174.802E-03    -181.417E-03    -174.142E-03     348.944E-03    -174.802E-03     123.450E-03     61.6609E+06     15.2929E+06    -26.7006E+06    -26.6805E+06     15.2729E+06     61.6609E+06     896.432E+03         65.7573
             822     10.9240E-03     31.2430E-03     463.427E-03     270.281E-03    -828.966E-03     270.045E-03    -828.730E-03     463.427E-03    -30.5027E-03     353.507E-03    -174.810E-03    -178.697E-03    -173.344E-03     348.154E-03    -174.810E-03     106.177E-03     58.5671E+06     10.7154E+06    -33.3221E+06    -33.3081E+06     10.7014E+06     58.5671E+06     736.513E+03         62.7370
             823     10.0837E-03     31.1137E-03     488.019E-03     315.300E-03    -899.219E-03     314.867E-03    -898.786E-03     488.019E-03    -44.9844E-03     351.867E-03    -174.823E-03    -177.044E-03    -172.538E-03     347.361E-03    -174.823E-03     97.0264E-03     52.2548E+06     5.55813E+06    -41.0532E+06    -41.0476E+06     5.55260E+06     52.2548E+06     322.479E+03         60.0582
             824     9.24229E-03     30.9990E-03     511.170E-03     359.260E-03    -967.049E-03     358.682E-03    -966.471E-03     511.170E-03    -54.7387E-03     350.281E-03    -174.658E-03    -175.623E-03    -171.904E-03     346.787E-03    -174.883E-03     85.2674E-03     45.7936E+06    -362.679E+03    -49.2688E+06    -49.2657E+06    -365.871E+03     45.7936E+06     120.464E+03         57.8347
             825     8.40055E-03     30.9009E-03     532.551E-03     401.465E-03        -1.03144     400.964E-03        -1.03094     532.551E-03    -52.2359E-03     349.698E-03    -174.553E-03    -175.145E-03    -172.092E-03     347.054E-03    -174.962E-03     74.0621E-03     39.2188E+06    -7.29201E+06    -58.5832E+06    -58.5814E+06    -7.29378E+06     39.2188E+06     50.2660E+03         56.0760
             826     7.55913E-03     30.8223E-03     551.908E-03     441.155E-03        -1.09127     440.977E-03        -1.09109     551.908E-03    -20.1550E-03     349.538E-03    -174.465E-03    -175.073E-03    -172.732E-03     347.730E-03    -174.999E-03     61.0151E-03     30.6770E+06    -16.0611E+06    -69.2321E+06    -69.2239E+06    -16.0693E+06     30.6770E+06     386.363E+03         54.7223
             827     6.72065E-03     30.7603E-03     568.968E-03     478.495E-03        -1.14652     478.477E-03        -1.14651     568.968E-03     9.53212E-03     349.036E-03    -173.972E-03    -175.065E-03    -172.963E-03     347.954E-03    -174.990E-03     47.0724E-03     14.3056E+06    -44.7829E+06    -80.8243E+06    -80.7763E+06    -44.8309E+06     14.3056E+06     1.00908E+06         53.6848
             828     5.88035E-03     30.7145E-03     583.563E-03     513.173E-03        -1.19654     513.141E-03        -1.19651     583.563E-03    -479.704E-06     348.677E-03    -173.690E-03    -174.987E-03    -173.086E-03     348.074E-03    -174.987E-03     35.0698E-03    -9.87553E+06    -84.2688E+06    -107.428E+06    -93.3172E+06    -98.3796E+06    -9.87553E+06     973.664E+03         52.8779
             829     5.03967E-03     30.6853E-03     595.673E-03     543.151E-03        -1.23913     543.077E-03        -1.23905     595.673E-03    -21.8214E-03     348.882E-03    -173.900E-03    -174.982E-03    -173.594E-03     348.576E-03    -174.982E-03     24.7829E-03    -34.5317E+06    -105.612E+06    -152.243E+06    -105.639E+06    -152.215E+06    -34.5317E+06     823.010E+03         52.2361
             830     4.19997E-03     30.6679E-03     605.452E-03     568.060E-03        -1.27424     567.945E-03        -1.27413     605.452E-03    -28.5419E-03     348.978E-03    -174.035E-03    -174.943E-03    -173.907E-03     348.850E-03    -174.943E-03     15.8637E-03    -59.9659E+06    -116.730E+06    -195.637E+06    -116.744E+06    -195.623E+06    -59.9659E+06     637.902E+03         51.7170
             831     3.35890E-03     30.6599E-03     613.037E-03     589.047E-03        -1.30296     588.927E-03        -1.30284     613.037E-03    -29.5810E-03     349.028E-03    -174.119E-03    -174.909E-03    -174.077E-03     348.985E-03    -174.909E-03     8.91613E-03    -85.8641E+06    -126.552E+06    -233.542E+06    -126.557E+06    -233.537E+06    -85.8641E+06     199.827E+03         51.2980
             832     2.52018E-03     30.6577E-03     618.518E-03     605.577E-03        -1.32524     605.154E-03        -1.32482     618.518E-03    -52.6035E-03     349.344E-03    -174.444E-03    -174.901E-03    -174.446E-03     349.334E-03    -174.888E-03     4.04829E-03    -110.328E+06    -136.381E+06    -273.022E+06    -136.384E+06    -273.018E+06    -110.328E+06     430.195E+03         50.9701
             833     1.67966E-03     30.6609E-03     622.257E-03     616.858E-03        -1.34038     615.912E-03        -1.33943     622.257E-03    -84.7425E-03     349.545E-03    -174.592E-03    -174.953E-03    -174.712E-03     349.543E-03    -174.831E-03     1.40217E-03    -131.776E+06    -144.645E+06    -304.185E+06    -144.650E+06    -304.180E+06    -131.776E+06     695.292E+03         50.7315
             834     839.164E-06     30.6605E-03     772.918E-03     475.188E-03        -1.34978     770.988E-03        -1.34917     476.515E-03    -46.2366E-03     349.522E-03    -174.175E-03    -175.347E-03    -175.018E-03     349.521E-03    -174.504E-03     216.069E-06    -145.522E+06    -149.335E+06    -327.658E+06    -148.645E+06    -327.652E+06    -146.217E+06     154.241E+03         50.5827
             835     14.2892E-03     30.5959E-03     439.385E-03     101.018E-03    -620.101E-03     100.905E-03    -619.988E-03     439.385E-03     17.3525E-03     365.663E-03    -175.015E-03    -190.649E-03    -177.722E-03     352.737E-03    -175.015E-03     161.583E-03     122.932E+06     60.7743E+06    -7.60505E+06    -7.60398E+06     60.7732E+06     122.932E+06    -30.9254E+03         74.1953
             836     13.4448E-03     30.3086E-03     472.594E-03     153.163E-03    -706.785E-03     153.069E-03    -706.691E-03     472.594E-03     13.1742E-03     365.860E-03    -174.891E-03    -190.969E-03    -177.523E-03     352.414E-03    -174.891E-03     166.278E-03     82.0589E+06     41.8520E+06    -15.4715E+06    -15.4625E+06     41.8430E+06     82.0589E+06     277.160E+03         71.7913
             837     12.6027E-03     30.1472E-03     504.577E-03     206.986E-03    -793.744E-03     206.946E-03    -793.704E-03     504.577E-03    -7.52053E-03     357.817E-03    -174.844E-03    -182.973E-03    -175.126E-03     349.970E-03    -174.844E-03     129.180E-03     64.3405E+06     24.4887E+06    -21.4854E+06    -21.4612E+06     24.4646E+06     64.3405E+06     212.529E+03         68.8756
             838     11.7665E-03     29.9672E-03     534.631E-03     262.277E-03    -880.390E-03     262.212E-03    -880.324E-03     534.631E-03    -16.6228E-03     356.388E-03    -174.843E-03    -181.545E-03    -174.333E-03     349.176E-03    -174.843E-03     123.177E-03     61.9547E+06     15.5099E+06    -26.9170E+06    -26.8916E+06     15.4845E+06     61.9547E+06     326.886E+03         65.7587
             839     10.9243E-03     29.8267E-03     563.383E-03     317.960E-03    -966.132E-03     317.830E-03    -966.002E-03     563.383E-03    -24.4162E-03     353.429E-03    -174.856E-03    -178.573E-03    -173.143E-03     347.998E-03    -174.856E-03     106.845E-03     59.0233E+06     10.8530E+06    -33.1892E+06    -33.1768E+06     10.8406E+06     59.0233E+06     646.604E+03         62.7480
             840     10.0827E-03     29.6955E-03     590.442E-03     372.645E-03        -1.04913     372.372E-03        -1.04886     590.442E-03    -38.9054E-03     352.123E-03    -174.871E-03    -177.252E-03    -172.756E-03     347.626E-03    -174.871E-03     97.0075E-03     52.4947E+06     5.89294E+06    -40.6121E+06    -40.5997E+06     5.88062E+06     52.4947E+06     465.724E+03         60.0729
             841     9.24215E-03     29.5828E-03     615.866E-03     425.989E-03        -1.12912     425.602E-03        -1.12873     615.866E-03    -48.6313E-03     350.700E-03    -174.678E-03    -176.022E-03    -172.323E-03     347.226E-03    -174.903E-03     85.0261E-03     45.8030E+06    -242.595E+03    -49.1182E+06    -49.1069E+06    -253.921E+03     45.8030E+06     447.965E+03         57.8488
             842     8.40006E-03     29.4859E-03     639.401E-03     476.675E-03        -1.20459     476.353E-03        -1.20427     639.401E-03    -45.0351E-03     349.845E-03    -174.542E-03    -175.303E-03    -172.359E-03     347.308E-03    -174.948E-03     72.5205E-03     39.4046E+06    -7.21375E+06    -58.5268E+06    -58.5136E+06    -7.22694E+06     39.4046E+06     546.280E+03         56.0862
             843     7.56029E-03     29.4016E-03     660.801E-03     524.391E-03        -1.27498     524.280E-03        -1.27487     660.801E-03    -14.4846E-03     349.308E-03    -174.264E-03    -175.044E-03    -172.629E-03     347.599E-03    -174.969E-03     59.3245E-03     30.2076E+06    -16.4550E+06    -69.6564E+06    -69.6376E+06    -16.4739E+06     30.2076E+06     547.062E+03         54.7268
             844     6.72037E-03     29.3411E-03     679.740E-03     569.117E-03        -1.33992     569.090E-03        -1.33990     679.740E-03     13.6543E-03     348.853E-03    -173.807E-03    -175.045E-03    -172.829E-03     347.800E-03    -174.971E-03     46.5014E-03     13.8450E+06    -45.5086E+06    -81.3649E+06    -81.3049E+06    -45.5685E+06     13.8450E+06     885.711E+03         53.6836
             845     5.87974E-03     29.2986E-03     696.124E-03     609.406E-03        -1.39768     609.376E-03        -1.39765     696.124E-03     4.10858E-03     348.617E-03    -173.638E-03    -174.979E-03    -173.027E-03     348.006E-03    -174.979E-03     35.2958E-03    -9.65122E+06    -83.8869E+06    -106.604E+06    -92.7233E+06    -97.7679E+06    -9.65122E+06     1.32918E+06         52.8724
             846     5.03951E-03     29.2664E-03     710.009E-03     645.023E-03        -1.44794     644.983E-03        -1.44790     710.009E-03    -16.5857E-03     348.737E-03    -173.746E-03    -174.992E-03    -173.439E-03     348.431E-03    -174.992E-03     24.7493E-03    -33.8980E+06    -103.894E+06    -151.085E+06    -103.925E+06    -151.054E+06    -33.8980E+06     624.342E+03         52.2278
             847     4.19960E-03     29.2504E-03     721.376E-03     675.772E-03        -1.49060     675.699E-03        -1.49053     721.376E-03    -24.6989E-03     349.082E-03    -174.118E-03    -174.964E-03    -173.991E-03     348.955E-03    -174.964E-03     15.8654E-03    -58.9399E+06    -115.302E+06    -195.016E+06    -115.303E+06    -195.015E+06    -58.9399E+06    -194.979E+03         51.7072
             848     3.36075E-03     29.2421E-03     730.288E-03     700.983E-03        -1.52499     700.905E-03        -1.52491     730.288E-03    -26.3027E-03     349.304E-03    -174.385E-03    -174.919E-03    -174.375E-03     349.260E-03    -174.886E-03     8.89944E-03    -85.1097E+06    -126.572E+06    -234.225E+06    -126.580E+06    -234.217E+06    -85.1097E+06     362.340E+03         51.2877
             849     2.51908E-03     29.2415E-03     736.893E-03     720.800E-03        -1.55168     720.462E-03        -1.55134     736.893E-03    -49.7769E-03     349.458E-03    -174.562E-03    -174.896E-03    -174.688E-03     349.449E-03    -174.762E-03     3.76426E-03    -109.614E+06    -136.399E+06    -273.227E+06    -136.413E+06    -273.214E+06    -109.614E+06     1.24966E+06         50.9597
             850     1.68029E-03     29.2414E-03     741.520E-03     734.350E-03        -1.57019     733.662E-03        -1.56950     741.520E-03    -78.9430E-03     349.370E-03    -174.541E-03    -174.829E-03    -174.827E-03     349.369E-03    -174.541E-03     776.906E-06    -130.192E+06    -143.416E+06    -302.572E+06    -143.425E+06    -302.563E+06    -130.192E+06     796.750E+03         50.7214
             851     841.472E-06     29.2459E-03     908.614E-03     578.221E-03        -1.58182     906.175E-03        -1.58141     580.247E-03    -52.9202E-03     348.735E-03    -173.960E-03    -174.775E-03    -174.146E-03     348.734E-03    -174.589E-03    -207.277E-06    -144.661E+06    -148.798E+06    -326.708E+06    -148.544E+06    -326.698E+06    -144.926E+06     264.445E+03         50.5726
             852     14.2847E-03     29.1753E-03     515.386E-03     103.153E-03    -687.429E-03     103.036E-03    -687.312E-03     515.386E-03     18.1780E-03     365.516E-03    -175.028E-03    -190.488E-03    -177.797E-03     352.825E-03    -175.028E-03     160.699E-03     122.410E+06     60.0771E+06    -7.90170E+06    -7.89562E+06     60.0710E+06     122.410E+06     388.020E+03         74.1573
             853     13.4459E-03     28.8941E-03     550.630E-03     164.855E-03    -786.470E-03     164.753E-03    -786.367E-03     550.630E-03     16.0746E-03     365.729E-03    -174.885E-03    -190.844E-03    -177.813E-03     352.697E-03    -174.885E-03     163.791E-03     82.7171E+06     42.4795E+06    -14.8624E+06    -14.8517E+06     42.4688E+06     82.7171E+06     343.710E+03         71.7651
             854     12.6073E-03     28.7250E-03     584.528E-03     228.495E-03    -885.852E-03     228.471E-03    -885.828E-03     584.528E-03    -3.77487E-03     356.979E-03    -174.842E-03    -182.138E-03    -174.413E-03     349.255E-03    -174.842E-03     127.957E-03     64.9274E+06     25.1953E+06    -20.7557E+06    -20.7365E+06     25.1760E+06     64.9274E+06    -8.21888E+03         68.8631
             855     11.7627E-03     28.5528E-03     616.458E-03     292.746E-03    -984.024E-03     292.716E-03    -983.993E-03     616.458E-03    -12.2298E-03     355.864E-03    -174.880E-03    -180.984E-03    -173.795E-03     348.675E-03    -174.880E-03     122.871E-03     61.4380E+06     15.0333E+06    -27.1242E+06    -27.1073E+06     15.0164E+06     61.4380E+06    -356.404E+03         65.7567
             856     10.9221E-03     28.4066E-03     646.954E-03     356.726E-03        -1.08038     356.644E-03        -1.08030     646.954E-03    -20.0429E-03     353.527E-03    -174.914E-03    -178.613E-03    -173.195E-03     348.109E-03    -174.914E-03     106.740E-03     58.4005E+06     10.0287E+06    -33.9382E+06    -33.9319E+06     10.0224E+06     58.4005E+06    -13.1373E+03         62.7529
             857     10.0825E-03     28.2792E-03     675.636E-03     420.338E-03        -1.17447     420.158E-03        -1.17429     675.636E-03    -33.4458E-03     352.514E-03    -174.916E-03    -177.598E-03    -173.133E-03     348.049E-03    -174.916E-03     96.7257E-03     52.2214E+06     5.49327E+06    -41.0421E+06    -41.0328E+06     5.48403E+06     52.2214E+06     428.347E+03         60.0803
             858     9.24111E-03     28.1645E-03     702.479E-03     481.469E-03        -1.26406     481.211E-03        -1.26380     702.479E-03    -41.9459E-03     351.813E-03    -174.878E-03    -176.935E-03    -173.508E-03     348.386E-03    -174.878E-03     84.6074E-03     45.8592E+06    -117.984E+03    -49.0513E+06    -49.0272E+06    -142.169E+03     45.8592E+06     861.141E+03         57.8544
             859     8.40355E-03     28.0664E-03     727.279E-03     539.019E-03        -1.34800     538.813E-03        -1.34779     727.279E-03    -38.0778E-03     350.341E-03    -174.648E-03    -175.693E-03    -173.017E-03     347.845E-03    -174.828E-03     72.0610E-03     39.6584E+06    -7.19369E+06    -58.6032E+06    -58.5737E+06    -7.22318E+06     39.6584E+06     1.08653E+06         56.0865
             860     7.56250E-03     27.9858E-03     749.878E-03     592.794E-03        -1.42593     592.724E-03        -1.42586     749.878E-03    -8.31482E-03     348.552E-03    -173.716E-03    -174.837E-03    -172.005E-03     346.842E-03    -174.837E-03     59.3009E-03     30.9384E+06    -15.6046E+06    -68.7764E+06    -68.7479E+06    -15.6330E+06     30.9384E+06     914.332E+03         54.7192
             861     6.71982E-03     27.9242E-03     770.071E-03     642.742E-03        -1.49767     642.703E-03        -1.49763     770.071E-03     17.8433E-03     348.275E-03    -173.384E-03    -174.891E-03    -172.342E-03     347.232E-03    -174.891E-03     46.1341E-03     13.9832E+06    -45.6972E+06    -80.2832E+06    -80.2137E+06    -45.7667E+06     13.9832E+06     289.550E+03         53.6683
             862     5.88022E-03     27.8791E-03     787.687E-03     688.508E-03        -1.56247     688.478E-03        -1.56244     787.687E-03     8.27936E-03     348.606E-03    -173.691E-03    -174.915E-03    -173.121E-03     348.036E-03    -174.915E-03     33.9928E-03    -8.92042E+06    -83.8373E+06    -105.206E+06    -91.4695E+06    -97.5737E+06    -8.92042E+06     330.247E+03         52.8515
             863     5.04009E-03     27.8504E-03     802.724E-03     728.437E-03        -1.61843     728.419E-03        -1.61841     802.724E-03    -11.5378E-03     348.508E-03    -173.590E-03    -174.918E-03    -173.307E-03     348.225E-03    -174.918E-03     23.8765E-03    -33.5088E+06    -102.821E+06    -149.671E+06    -102.835E+06    -149.658E+06    -33.5088E+06     365.074E+03         52.2033
             864     4.19931E-03     27.8317E-03     815.274E-03     762.572E-03        -1.66586     762.524E-03        -1.66581     815.274E-03    -20.9136E-03     348.862E-03    -173.952E-03    -174.910E-03    -173.832E-03     348.741E-03    -174.910E-03     15.2522E-03    -58.5934E+06    -114.606E+06    -195.104E+06    -114.607E+06    -195.103E+06    -58.5934E+06    -23.3320E+03         51.6808
             865     3.35872E-03     27.8245E-03     825.251E-03     791.912E-03        -1.70548     791.855E-03        -1.70542     825.251E-03    -23.6021E-03     349.358E-03    -174.499E-03    -174.859E-03    -174.495E-03     349.320E-03    -174.825E-03     8.34865E-03    -84.0934E+06    -126.019E+06    -235.877E+06    -126.026E+06    -235.870E+06    -84.0934E+06     461.061E+03         51.2606
             866     2.52143E-03     27.8228E-03     832.494E-03     815.148E-03        -1.73620     814.881E-03        -1.73593     832.494E-03    -46.5249E-03     349.341E-03    -174.557E-03    -174.784E-03    -174.670E-03     349.332E-03    -174.662E-03     3.86265E-03    -108.183E+06    -134.976E+06    -272.825E+06    -134.987E+06    -272.814E+06    -108.183E+06     975.845E+03         50.9328
             867     1.68089E-03     27.8256E-03     837.205E-03     830.241E-03        -1.75641     829.727E-03        -1.75589     837.205E-03    -72.5793E-03     348.952E-03    -174.269E-03    -174.683E-03    -174.433E-03     348.951E-03    -174.518E-03     1.18536E-03    -128.734E+06    -141.475E+06    -300.646E+06    -141.490E+06    -300.630E+06    -128.734E+06     980.934E+03         50.6948
             868     839.614E-06     27.8293E-03         1.01451     663.692E-03        -1.76714         1.01245        -1.76681     665.417E-03    -56.1940E-03     348.878E-03    -173.752E-03    -175.126E-03    -174.515E-03     348.878E-03    -174.363E-03    -117.880E-06    -142.973E+06    -147.365E+06    -325.793E+06    -146.549E+06    -325.769E+06    -143.812E+06     473.346E+03         50.5464
             869     14.2899E-03     27.7641E-03     576.781E-03     105.246E-03    -743.611E-03     105.145E-03    -743.510E-03     576.781E-03     17.4398E-03     366.596E-03    -175.002E-03    -191.594E-03    -178.861E-03     353.863E-03    -175.002E-03     160.791E-03     123.332E+06     60.2351E+06    -7.60968E+06    -7.59979E+06     60.2253E+06     123.332E+06     602.217E+03         74.1204
             870     13.4486E-03     27.4691E-03     612.837E-03     174.937E-03    -851.608E-03     174.847E-03    -851.518E-03     612.837E-03     15.8803E-03     365.451E-03    -174.845E-03    -190.606E-03    -177.400E-03     352.245E-03    -174.845E-03     164.783E-03     84.1631E+06     43.4684E+06    -14.0750E+06    -14.0655E+06     43.4589E+06     84.1631E+06     580.397E+03         71.7389
             871     12.6043E-03     27.3164E-03     647.474E-03     245.777E-03    -959.523E-03     245.760E-03    -959.506E-03     647.474E-03    -1.84357E-03     356.822E-03    -174.823E-03    -181.999E-03    -174.179E-03     349.003E-03    -174.823E-03     128.703E-03     65.3788E+06     25.4476E+06    -20.5781E+06    -20.5696E+06     25.4391E+06     65.3788E+06     430.280E+03         68.8476
             872     11.7642E-03     27.1304E-03     680.190E-03     316.752E-03        -1.06574     316.736E-03        -1.06572     680.190E-03    -8.76280E-03     355.960E-03    -174.860E-03    -181.099E-03    -174.016E-03     348.877E-03    -174.860E-03     121.820E-03     61.6796E+06     15.2300E+06    -26.8079E+06    -26.7985E+06     15.2207E+06     61.6796E+06     97.6306E+03         65.7508
             873     10.9240E-03     26.9926E-03     711.329E-03     387.560E-03        -1.17013     387.515E-03        -1.17008     711.329E-03    -14.7899E-03     353.304E-03    -174.873E-03    -178.431E-03    -173.250E-03     348.123E-03    -174.873E-03     104.393E-03     57.8914E+06     9.83942E+06    -33.8577E+06    -33.8519E+06     9.83359E+06     57.8914E+06    -279.241E+03         62.7518
             874     10.0810E-03     26.8594E-03     740.596E-03     456.541E-03        -1.27059     456.431E-03        -1.27048     740.596E-03    -27.0452E-03     352.568E-03    -174.852E-03    -177.716E-03    -173.359E-03     348.211E-03    -174.852E-03     95.5919E-03     51.2076E+06     4.46709E+06    -41.9376E+06    -41.9362E+06     4.46570E+06     51.2076E+06    -76.2903E+03         60.0775
             875     9.24374E-03     26.7444E-03     767.982E-03     522.808E-03        -1.36620     522.648E-03        -1.36605     767.982E-03    -34.2548E-03     351.713E-03    -174.798E-03    -176.915E-03    -173.528E-03     348.326E-03    -174.798E-03     84.1337E-03     45.3242E+06    -928.411E+03    -50.0464E+06    -50.0314E+06    -943.361E+03     45.3242E+06     438.869E+03         57.8446
             876     8.40246E-03     26.6475E-03     793.263E-03     585.241E-03        -1.45575     585.115E-03        -1.45562     793.263E-03    -30.5151E-03     350.132E-03    -174.628E-03    -175.504E-03    -172.912E-03     347.656E-03    -174.743E-03     71.7206E-03     39.7810E+06    -6.91265E+06    -58.4494E+06    -58.4314E+06    -6.93060E+06     39.7810E+06     607.382E+03         56.0665
             877     7.56187E-03     26.5706E-03     816.320E-03     643.770E-03        -1.53910     643.714E-03        -1.53905     816.320E-03    -2.46022E-03     348.845E-03    -174.093E-03    -174.752E-03    -172.425E-03     347.149E-03    -174.725E-03     59.0978E-03     31.5711E+06    -15.1044E+06    -68.3476E+06    -68.3307E+06    -15.1213E+06     31.5711E+06     554.486E+03         54.6888
             878     6.72231E-03     26.5065E-03     837.033E-03     697.964E-03        -1.61574     697.906E-03        -1.61568     837.033E-03     22.8390E-03     348.237E-03    -173.505E-03    -174.732E-03    -172.461E-03     347.193E-03    -174.732E-03     46.1725E-03     14.8882E+06    -44.5546E+06    -79.4218E+06    -79.3574E+06    -44.6190E+06     14.8882E+06     295.484E+03         53.6291
             879     5.88146E-03     26.4614E-03     855.270E-03     746.692E-03        -1.68434     746.654E-03        -1.68430     855.270E-03     13.0886E-03     348.241E-03    -173.504E-03    -174.737E-03    -172.945E-03     347.682E-03    -174.737E-03     33.5352E-03    -9.37288E+06    -83.6075E+06    -106.029E+06    -91.4802E+06    -98.1565E+06    -9.37288E+06    -247.725E+03         52.8055
             880     5.04087E-03     26.4336E-03     870.952E-03     790.234E-03        -1.74475     790.224E-03        -1.74474     870.952E-03    -7.10337E-03     348.472E-03    -173.765E-03    -174.706E-03    -173.504E-03     348.210E-03    -174.706E-03     22.9601E-03    -33.8265E+06    -103.168E+06    -149.656E+06    -103.184E+06    -149.639E+06    -33.8265E+06     204.152E+03         52.1530
             881     4.20094E-03     26.4143E-03     884.042E-03     827.765E-03        -1.79618     827.738E-03        -1.79615     884.042E-03    -16.6376E-03     348.412E-03    -173.757E-03    -174.654E-03    -173.651E-03     348.306E-03    -174.654E-03     14.1705E-03    -59.1006E+06    -114.599E+06    -194.471E+06    -114.607E+06    -194.464E+06    -59.1006E+06     523.036E+03         51.6283
             882     3.36160E-03     26.4069E-03     894.546E-03     858.471E-03        -1.83787     858.436E-03        -1.83783     894.546E-03    -19.1604E-03     348.362E-03    -173.717E-03    -174.644E-03    -173.687E-03     348.331E-03    -174.644E-03     7.67664E-03    -84.4683E+06    -125.239E+06    -236.243E+06    -125.240E+06    -236.241E+06    -84.4683E+06    -36.6796E+03         51.2073
             883     2.51928E-03     26.4055E-03     902.316E-03     883.512E-03        -1.87080     883.285E-03        -1.87057     902.316E-03    -43.6430E-03     348.576E-03    -173.869E-03    -174.707E-03    -173.860E-03     348.567E-03    -174.707E-03     3.87478E-03    -108.292E+06    -134.615E+06    -273.536E+06    -134.617E+06    -273.534E+06    -108.292E+06     27.1022E+03         50.8796
             884     1.67958E-03     26.4098E-03     907.426E-03     899.757E-03        -1.89262     899.369E-03        -1.89223     907.426E-03    -65.3507E-03     349.066E-03    -174.231E-03    -174.835E-03    -174.229E-03     349.064E-03    -174.835E-03     1.52112E-03    -128.681E+06    -141.115E+06    -299.875E+06    -141.125E+06    -299.865E+06    -128.681E+06     845.464E+03         50.6422
             885     839.812E-06     26.4130E-03         1.08878     730.719E-03        -1.90426         1.08615        -1.90396     733.054E-03    -58.8064E-03     349.777E-03    -173.954E-03    -175.824E-03    -175.609E-03     349.777E-03    -174.168E-03     244.281E-06    -141.751E+06    -146.393E+06    -323.837E+06    -145.588E+06    -323.804E+06    -142.590E+06     992.632E+03         50.4946
             886     14.2876E-03     26.3386E-03     621.823E-03     108.189E-03    -786.451E-03     108.103E-03    -786.365E-03     621.823E-03     16.8573E-03     366.633E-03    -175.044E-03    -191.588E-03    -178.538E-03     353.582E-03    -175.044E-03     162.878E-03     122.765E+06     59.0913E+06    -8.60922E+06    -8.60035E+06     59.0825E+06     122.765E+06    -181.503E+03         74.0809
             887     13.4452E-03     26.0599E-03     657.413E-03     183.348E-03    -900.224E-03     183.270E-03    -900.146E-03     657.413E-03     16.0718E-03     366.429E-03    -174.883E-03    -191.546E-03    -178.199E-03     353.082E-03    -174.883E-03     165.493E-03     84.1383E+06     43.1761E+06    -14.7535E+06    -14.7421E+06     43.1647E+06     84.1383E+06     293.473E+03         71.7069
             888     12.6057E-03     25.8927E-03     691.521E-03     259.117E-03        -1.01305     259.105E-03        -1.01304     691.521E-03     863.466E-06     357.761E-03    -174.801E-03    -182.960E-03    -175.271E-03     350.072E-03    -174.801E-03     127.842E-03     65.8275E+06     26.1570E+06    -20.5319E+06    -20.5214E+06     26.1465E+06     65.8275E+06     645.301E+03         68.8266
             889     11.7660E-03     25.7162E-03     723.772E-03     334.766E-03        -1.12398     334.760E-03        -1.12398     723.772E-03    -5.18477E-03     356.273E-03    -174.779E-03    -181.495E-03    -174.457E-03     349.236E-03    -174.779E-03     121.565E-03     61.8388E+06     15.4391E+06    -26.8538E+06    -26.8467E+06     15.4321E+06     61.8388E+06     375.519E+03         65.7371
             890     10.9241E-03     25.5727E-03     754.385E-03     409.076E-03        -1.23178     409.053E-03        -1.23175     754.385E-03    -10.4243E-03     353.674E-03    -174.750E-03    -178.924E-03    -173.730E-03     348.480E-03    -174.750E-03     104.617E-03     58.3610E+06     9.98264E+06    -33.3168E+06    -33.3018E+06     9.96767E+06     58.3610E+06     269.703E+03         62.7379
             891     10.0864E-03     25.4435E-03     783.169E-03     480.878E-03        -1.33500     480.814E-03        -1.33493     783.169E-03    -20.8766E-03     352.583E-03    -174.694E-03    -177.889E-03    -173.537E-03     348.231E-03    -174.694E-03     95.5411E-03     51.8177E+06     4.78892E+06    -40.8570E+06    -40.8317E+06     4.76364E+06     51.8177E+06     604.350E+03         60.0561
             892     9.24307E-03     25.3248E-03     810.113E-03     549.376E-03        -1.43275     549.282E-03        -1.43266     810.113E-03    -27.0237E-03     350.765E-03    -174.650E-03    -176.115E-03    -172.811E-03     347.461E-03    -174.650E-03     82.8910E-03     45.4399E+06    -800.580E+03    -49.5118E+06    -49.4985E+06    -813.891E+03     45.4399E+06     134.941E+03         57.8096
             893     8.40358E-03     25.2316E-03     835.049E-03     614.276E-03        -1.52466     614.207E-03        -1.52459     835.049E-03    -22.4784E-03     349.690E-03    -174.625E-03    -175.065E-03    -172.683E-03     347.308E-03    -174.625E-03     70.3259E-03     39.8736E+06    -6.80736E+06    -58.3365E+06    -58.3335E+06    -6.81038E+06     39.8736E+06    -268.656E+03         56.0156
             894     7.56381E-03     25.1507E-03     857.868E-03     675.102E-03        -1.61020     675.055E-03        -1.61015     857.868E-03     4.51369E-03     349.181E-03    -174.429E-03    -174.752E-03    -172.979E-03     347.548E-03    -174.569E-03     58.0185E-03     31.1192E+06    -15.6072E+06    -68.7102E+06    -68.7086E+06    -15.6089E+06     31.1192E+06    -249.387E+03         54.6238
             895     6.72319E-03     25.0907E-03     878.430E-03     732.020E-03        -1.68949     731.939E-03        -1.68941     878.430E-03     27.7176E-03     348.249E-03    -173.748E-03    -174.501E-03    -172.756E-03     347.257E-03    -174.501E-03     45.0223E-03     14.4840E+06    -44.6016E+06    -79.9975E+06    -79.9719E+06    -44.6272E+06     14.4840E+06     265.085E+03         53.5527
             896     5.88211E-03     25.0447E-03     896.571E-03     783.552E-03        -1.76079     783.501E-03        -1.76074     896.571E-03     18.8440E-03     347.828E-03    -173.366E-03    -174.462E-03    -172.829E-03     347.291E-03    -174.462E-03     32.8695E-03    -9.17558E+06    -82.9871E+06    -105.533E+06    -91.5740E+06    -96.9463E+06    -9.17558E+06     305.298E+03         52.7204
             897     5.04280E-03     25.0149E-03     912.236E-03     828.397E-03        -1.82257     828.391E-03        -1.82257     912.236E-03    -514.335E-06     347.836E-03    -173.412E-03    -174.425E-03    -173.159E-03     347.584E-03    -174.425E-03     22.4980E-03    -34.5609E+06    -103.650E+06    -150.631E+06    -103.669E+06    -150.612E+06    -34.5609E+06     28.7958E+03         52.0624
             898     4.20295E-03     24.9983E-03     925.408E-03     867.120E-03        -1.87540     867.107E-03        -1.87539     925.408E-03    -10.9032E-03     347.650E-03    -173.247E-03    -174.403E-03    -173.137E-03     347.540E-03    -174.403E-03     14.7209E-03    -59.9215E+06    -114.637E+06    -194.252E+06    -114.645E+06    -194.243E+06    -59.9215E+06     373.614E+03         51.5350
             899     3.36069E-03     24.9917E-03     936.011E-03     899.219E-03        -1.91864     899.200E-03        -1.91862     936.011E-03    -14.4234E-03     347.770E-03    -173.324E-03    -174.446E-03    -173.287E-03     347.733E-03    -174.446E-03     8.07294E-03    -85.2869E+06    -125.346E+06    -235.401E+06    -125.349E+06    -235.398E+06    -85.2869E+06     152.194E+03         51.1132
             900     2.52069E-03     24.9905E-03     944.067E-03     923.782E-03        -1.95133     923.605E-03        -1.95115     944.067E-03    -38.3803E-03     348.123E-03    -173.556E-03    -174.566E-03    -173.551E-03     348.117E-03    -174.566E-03     2.74589E-03    -109.247E+06    -134.966E+06    -274.126E+06    -134.970E+06    -274.121E+06    -109.247E+06    -206.071E+03         50.7859
             901     1.67895E-03     24.9925E-03     949.863E-03     940.505E-03        -1.97426     940.217E-03        -1.97397     949.863E-03    -57.5695E-03     348.825E-03    -174.087E-03    -174.738E-03    -174.087E-03     348.825E-03    -174.738E-03     480.146E-06    -129.554E+06    -142.393E+06    -300.560E+06    -142.395E+06    -300.557E+06    -129.554E+06    -348.662E+03         50.5495
             902     839.389E-06     24.9938E-03         1.13004     775.081E-03        -1.98850         1.12712        -1.98824     777.744E-03    -57.1733E-03     349.602E-03    -174.202E-03    -175.400E-03    -175.262E-03     349.602E-03    -174.340E-03     4.80725E-06    -141.713E+06    -147.478E+06    -322.079E+06    -146.476E+06    -322.061E+06    -142.733E+06     766.849E+03         50.4027
             903     14.2840E-03     24.9265E-03     648.953E-03     110.335E-03    -813.493E-03     110.261E-03    -813.418E-03     648.953E-03     15.7812E-03     366.247E-03    -175.067E-03    -191.180E-03    -178.424E-03     353.491E-03    -175.067E-03     161.093E-03     122.255E+06     58.8811E+06    -8.49427E+06    -8.48587E+06     58.8727E+06     122.255E+06    -45.4679E+03         74.0431
             904     13.4460E-03     24.6322E-03     682.867E-03     189.636E-03    -930.370E-03     189.564E-03    -930.298E-03     682.867E-03     16.2175E-03     366.675E-03    -174.875E-03    -191.800E-03    -178.819E-03     353.694E-03    -174.875E-03     163.256E-03     82.4549E+06     42.0199E+06    -15.9373E+06    -15.9256E+06     42.0082E+06     82.4549E+06    -428.792E+03         71.6746
             905     12.6076E-03     24.4788E-03     715.234E-03     268.303E-03        -1.04497     268.291E-03        -1.04496     715.234E-03     2.90632E-03     358.043E-03    -174.756E-03    -183.287E-03    -175.627E-03     350.383E-03    -174.756E-03     127.570E-03     65.0128E+06     25.7530E+06    -21.2518E+06    -21.2390E+06     25.7402E+06     65.0128E+06    -257.666E+03         68.7989
             906     11.7654E-03     24.2955E-03     745.865E-03     345.303E-03        -1.15604     345.301E-03        -1.15604     745.865E-03    -1.96729E-03     356.833E-03    -174.699E-03    -182.134E-03    -175.064E-03     349.763E-03    -174.699E-03     121.822E-03     62.1162E+06     15.6367E+06    -26.6071E+06    -26.5964E+06     15.6261E+06     62.1162E+06     199.439E+03         65.7087
             907     10.9268E-03     24.1568E-03     774.874E-03     420.296E-03        -1.26327     420.284E-03        -1.26326     774.874E-03    -5.95382E-03     354.311E-03    -174.614E-03    -179.697E-03    -174.553E-03     349.168E-03    -174.614E-03     104.269E-03     59.1639E+06     9.87206E+06    -33.2507E+06    -33.2314E+06     9.85277E+06     59.1639E+06     604.447E+03         62.7021
             908     10.0846E-03     24.0219E-03     802.138E-03     492.584E-03        -1.36576     492.554E-03        -1.36573     802.138E-03    -14.6464E-03     352.724E-03    -174.491E-03    -178.233E-03    -173.992E-03     348.483E-03    -174.491E-03     94.2478E-03     52.8447E+06     5.38432E+06    -40.2115E+06    -40.1856E+06     5.35845E+06     52.8447E+06     595.880E+03         60.0057
             909     9.24760E-03     23.9108E-03     827.641E-03     561.275E-03        -1.46256     561.224E-03        -1.46251     827.641E-03    -19.6009E-03     350.453E-03    -174.397E-03    -176.056E-03    -172.918E-03     347.315E-03    -174.397E-03     80.8157E-03     46.3310E+06     267.881E+03    -48.1064E+06    -48.0882E+06     249.690E+03     46.3310E+06     209.615E+03         57.7389
             910     8.40521E-03     23.8129E-03     851.322E-03     625.968E-03        -1.55326     625.932E-03        -1.55323     851.322E-03    -15.3067E-03     349.146E-03    -174.326E-03    -174.820E-03    -172.501E-03     346.848E-03    -174.347E-03     69.0052E-03     39.7746E+06    -6.80947E+06    -57.7965E+06    -57.7902E+06    -6.81578E+06     39.7746E+06    -104.169E+03         55.9228
             911     7.56504E-03     23.7333E-03     873.086E-03     687.034E-03        -1.63818     686.985E-03        -1.63813     873.086E-03     10.3331E-03     348.611E-03    -174.174E-03    -174.437E-03    -172.774E-03     347.054E-03    -174.280E-03     56.5416E-03     30.7609E+06    -15.9228E+06    -68.5870E+06    -68.5830E+06    -15.9268E+06     30.7609E+06    -53.8271E+03         54.5104
             912     6.72561E-03     23.6728E-03     892.777E-03     744.173E-03        -1.71681     744.063E-03        -1.71670     892.777E-03     32.6086E-03     347.980E-03    -173.798E-03    -174.181E-03    -172.868E-03     347.050E-03    -174.181E-03     43.5969E-03     14.3112E+06    -44.9094E+06    -79.8599E+06    -79.8247E+06    -44.9446E+06     14.3112E+06    -83.8728E+03         53.4227
             913     5.88613E-03     23.6291E-03     910.212E-03     796.454E-03        -1.78816     796.381E-03        -1.78809     910.212E-03     24.3325E-03     347.117E-03    -173.001E-03    -174.116E-03    -172.490E-03     346.606E-03    -174.116E-03     32.1642E-03    -8.85519E+06    -82.8879E+06    -104.973E+06    -91.1737E+06    -96.6873E+06    -8.85519E+06     177.942E+03         52.5786
             914     5.04404E-03     23.5989E-03     925.301E-03     841.782E-03        -1.84982     841.773E-03        -1.84981     925.301E-03     5.87422E-03     346.680E-03    -172.552E-03    -174.128E-03    -172.307E-03     346.435E-03    -174.128E-03     22.0373E-03    -33.9001E+06    -102.755E+06    -150.180E+06    -102.771E+06    -150.164E+06    -33.9001E+06     508.285E+03         51.9128
             915     4.20151E-03     23.5847E-03     938.136E-03     879.313E-03        -1.90106     879.309E-03        -1.90106     938.136E-03    -4.65558E-03     347.110E-03    -172.953E-03    -174.157E-03    -172.855E-03     347.012E-03    -174.157E-03     13.6808E-03    -60.2059E+06    -114.614E+06    -194.726E+06    -114.623E+06    -194.717E+06    -60.2059E+06     242.619E+03         51.3813
             916     3.36202E-03     23.5745E-03     948.743E-03     910.895E-03        -1.94387     910.887E-03        -1.94386     948.743E-03    -9.44265E-03     347.497E-03    -173.325E-03    -174.172E-03    -173.296E-03     347.468E-03    -174.172E-03     6.92448E-03    -84.6120E+06    -125.099E+06    -234.794E+06    -125.101E+06    -234.792E+06    -84.6120E+06     348.837E+03         50.9583
             917     2.52153E-03     23.5755E-03     956.945E-03     936.259E-03        -1.97764     936.119E-03        -1.97750     956.945E-03    -33.3532E-03     347.854E-03    -173.581E-03    -174.273E-03    -173.675E-03     347.850E-03    -174.175E-03     2.73561E-03    -107.565E+06    -134.325E+06    -272.807E+06    -134.328E+06    -272.803E+06    -107.565E+06     62.5740E+03         50.6313
             918     1.68179E-03     23.5769E-03     962.597E-03     954.122E-03        -2.00132     953.876E-03        -2.00108     962.597E-03    -53.8466E-03     348.142E-03    -173.816E-03    -174.326E-03    -174.030E-03     348.141E-03    -174.111E-03     685.329E-06    -130.193E+06    -143.334E+06    -301.854E+06    -143.339E+06    -301.849E+06    -130.193E+06    -96.1163E+03         50.3958
             919     840.592E-06     23.5773E-03         1.13161     797.695E-03        -2.01491         1.12956        -2.01468     799.509E-03    -53.9947E-03     348.056E-03    -173.080E-03    -174.976E-03    -173.287E-03     348.056E-03    -174.769E-03    -262.313E-06    -143.775E+06    -148.688E+06    -322.705E+06    -147.688E+06    -322.685E+06    -144.795E+06    -672.297E+03         50.2497
             920     14.2905E-03     23.5065E-03     657.162E-03     112.397E-03    -824.622E-03     112.330E-03    -824.554E-03     657.162E-03     15.1292E-03     367.528E-03    -175.012E-03    -192.516E-03    -179.709E-03     354.721E-03    -175.012E-03     161.863E-03     123.011E+06     59.3088E+06    -7.91274E+06    -7.90306E+06     59.2991E+06     123.011E+06     576.941E+03         74.0125
             921     13.4482E-03     23.2164E-03     688.195E-03     192.320E-03    -939.972E-03     192.246E-03    -939.899E-03     688.195E-03     17.2203E-03     366.437E-03    -174.780E-03    -191.657E-03    -178.758E-03     353.538E-03    -174.780E-03     162.497E-03     82.8228E+06     42.6710E+06    -14.9612E+06    -14.9472E+06     42.6570E+06     82.8228E+06     129.578E+03         71.6463
             922     12.6050E-03     23.0587E-03     717.740E-03     270.927E-03        -1.05224     270.908E-03        -1.05222     717.740E-03     6.95997E-03     357.956E-03    -174.641E-03    -183.315E-03    -175.918E-03     350.560E-03    -174.641E-03     125.394E-03     64.6320E+06     25.7430E+06    -21.0329E+06    -21.0165E+06     25.7266E+06     64.6320E+06    -635.860E+03         68.7677
             923     11.7677E-03     22.8765E-03     745.711E-03     347.078E-03        -1.16012     347.073E-03        -1.16012     745.711E-03     3.19889E-03     357.362E-03    -174.520E-03    -182.841E-03    -176.100E-03     350.620E-03    -174.520E-03     119.057E-03     61.2458E+06     14.6494E+06    -27.3811E+06    -27.3556E+06     14.6238E+06     61.2458E+06    -511.386E+03         65.6687
             924     10.9277E-03     22.7367E-03     772.110E-03     420.420E-03        -1.26334     420.414E-03        -1.26333     772.110E-03     286.169E-06     354.442E-03    -174.346E-03    -180.096E-03    -175.252E-03     349.599E-03    -174.346E-03     101.241E-03     58.6016E+06     9.18479E+06    -33.7578E+06    -33.7403E+06     9.16726E+06     58.6016E+06    -60.4847E+03         62.6452
             925     10.0913E-03     22.6039E-03     796.940E-03     490.563E-03        -1.36144     490.551E-03        -1.36143     796.940E-03    -8.16110E-03     352.420E-03    -174.152E-03    -178.268E-03    -174.316E-03     348.468E-03    -174.152E-03     90.9736E-03     52.9852E+06     5.55308E+06    -40.4172E+06    -40.4151E+06     5.55095E+06     52.9852E+06    -60.6216E+03         59.9231
             926     9.24888E-03     22.4929E-03     820.161E-03     557.440E-03        -1.45436     557.419E-03        -1.45434     820.161E-03    -12.5702E-03     350.322E-03    -173.982E-03    -176.340E-03    -173.426E-03     347.408E-03    -173.982E-03     77.9001E-03     46.7187E+06     481.246E+03    -48.0518E+06    -48.0449E+06     474.389E+03     46.7187E+06    -56.3527E+03         57.6257
             927     8.41032E-03     22.3977E-03     841.750E-03     620.196E-03        -1.54122     620.183E-03        -1.54121     841.750E-03    -8.11334E-03     348.694E-03    -173.826E-03    -174.868E-03    -172.735E-03     346.582E-03    -173.847E-03     66.0696E-03     39.8279E+06    -6.80193E+06    -57.5437E+06    -57.5373E+06    -6.80830E+06     39.8279E+06     119.776E+03         55.7780
             928     7.56910E-03     22.3167E-03     861.649E-03     679.388E-03        -1.62252     679.329E-03        -1.62246     861.649E-03     15.2360E-03     347.223E-03    -173.331E-03    -173.892E-03    -172.076E-03     345.827E-03    -173.752E-03     53.4139E-03     31.1686E+06    -15.6216E+06    -68.0814E+06    -68.0734E+06    -15.6295E+06     31.1686E+06     20.5691E+03         54.3360
             929     6.72802E-03     22.2561E-03     879.729E-03     735.047E-03        -1.69819     734.908E-03        -1.69805     879.729E-03     36.5419E-03     346.474E-03    -172.785E-03    -173.688E-03    -171.952E-03     345.640E-03    -173.688E-03     41.1336E-03     14.7269E+06    -44.6220E+06    -79.1295E+06    -79.0707E+06    -44.6809E+06     14.7269E+06    -46.2221E+03         53.2235
             930     5.88671E-03     22.2135E-03     895.897E-03     784.562E-03        -1.76546     784.463E-03        -1.76536     895.897E-03     29.5634E-03     346.166E-03    -172.521E-03    -173.644E-03    -172.075E-03     345.719E-03    -173.644E-03     29.7597E-03    -9.78114E+06    -83.5862E+06    -106.071E+06    -91.4659E+06    -98.1908E+06    -9.78114E+06     186.373E+03         52.3612
             931     5.04540E-03     22.1871E-03     910.116E-03     827.934E-03        -1.82427     827.913E-03        -1.82425     910.116E-03     12.7317E-03     346.087E-03    -172.468E-03    -173.619E-03    -172.269E-03     345.888E-03    -173.619E-03     19.6894E-03    -33.4216E+06    -103.121E+06    -149.980E+06    -103.134E+06    -149.968E+06    -33.4216E+06     581.152E+03         51.6834
             932     4.20579E-03     22.1670E-03     922.287E-03     865.378E-03        -1.87464     865.374E-03        -1.87463     922.287E-03     1.59739E-03     346.157E-03    -172.562E-03    -173.594E-03    -172.491E-03     346.086E-03    -173.594E-03     11.4757E-03    -58.2448E+06    -114.277E+06    -193.479E+06    -114.302E+06    -193.453E+06    -58.2448E+06     993.669E+03         51.1446
             933     3.36411E-03     22.1619E-03     932.386E-03     895.689E-03        -1.91558     895.686E-03        -1.91558     932.386E-03    -3.84596E-03     346.329E-03    -172.750E-03    -173.579E-03    -172.734E-03     346.313E-03    -173.579E-03     5.36453E-03    -84.6304E+06    -125.392E+06    -233.812E+06    -125.417E+06    -233.787E+06    -84.6304E+06     318.107E+03         50.7179
             934     2.52188E-03     22.1602E-03     940.286E-03     920.223E-03        -1.94818     920.118E-03        -1.94808     940.286E-03    -26.4663E-03     346.799E-03    -173.157E-03    -173.642E-03    -173.251E-03     346.795E-03    -173.544E-03     1.72008E-03    -108.503E+06    -135.445E+06    -272.981E+06    -135.452E+06    -272.974E+06    -108.503E+06    -172.840E+03         50.3896
             935     1.68141E-03     22.1606E-03     945.718E-03     937.713E-03        -1.97126     937.515E-03        -1.97107     945.718E-03    -47.7429E-03     346.875E-03    -173.229E-03    -173.646E-03    -173.443E-03     346.874E-03    -173.431E-03    -34.2812E-06    -129.218E+06    -142.876E+06    -301.765E+06    -142.883E+06    -301.759E+06    -129.218E+06     30.5955E+03         50.1540
             936     841.678E-06     22.1649E-03         1.09832     797.295E-03        -1.98416         1.09626        -1.98396     799.165E-03    -48.8850E-03     346.650E-03    -171.879E-03    -174.771E-03    -173.043E-03     346.649E-03    -173.606E-03    -966.561E-06    -143.314E+06    -148.366E+06    -322.921E+06    -147.263E+06    -322.885E+06    -144.453E+06    -142.880E+03         50.0083
             937     14.2857E-03     22.0817E-03     646.021E-03     113.877E-03    -819.189E-03     113.794E-03    -819.105E-03     646.021E-03     16.4714E-03     368.312E-03    -174.971E-03    -193.341E-03    -180.566E-03     355.537E-03    -174.971E-03     162.751E-03     123.469E+06     59.0161E+06    -8.29297E+06    -8.27673E+06     58.9998E+06     123.469E+06    -71.5552E+03         73.9929
             938     13.4487E-03     21.7996E-03     673.044E-03     191.269E-03    -928.762E-03     191.167E-03    -928.660E-03     673.044E-03     20.5613E-03     367.924E-03    -174.647E-03    -193.277E-03    -180.703E-03     355.350E-03    -174.647E-03     160.896E-03     84.2895E+06     43.4142E+06    -14.6938E+06    -14.6766E+06     43.3970E+06     84.2895E+06     79.7003E+03         71.6275
             939     12.6123E-03     21.6381E-03     698.716E-03     266.371E-03        -1.03410     266.335E-03        -1.03406     698.716E-03     12.4246E-03     359.388E-03    -174.353E-03    -185.035E-03    -178.025E-03     352.379E-03    -174.353E-03     122.585E-03     65.7328E+06     26.5293E+06    -20.5661E+06    -20.5297E+06     26.4929E+06     65.7328E+06     504.193E+03         68.7447
             940     11.7721E-03     21.4582E-03     723.099E-03     338.815E-03        -1.13500     338.795E-03        -1.13498     723.099E-03     10.0406E-03     357.702E-03    -174.073E-03    -183.629E-03    -177.454E-03     351.527E-03    -174.073E-03     114.038E-03     61.4665E+06     14.8582E+06    -27.0524E+06    -27.0053E+06     14.8111E+06     61.4665E+06    -84.4165E+03         65.6305
             941     10.9351E-03     21.3155E-03     746.066E-03     408.493E-03        -1.23126     408.478E-03        -1.23124     746.066E-03     7.37031E-03     353.803E-03    -173.776E-03    -180.027E-03    -175.728E-03     349.504E-03    -173.776E-03     95.2826E-03     57.9063E+06     8.93378E+06    -33.7942E+06    -33.7499E+06     8.88939E+06     57.9063E+06    -964.288E+03         62.5783
             942     10.0937E-03     21.1875E-03     767.669E-03     475.037E-03        -1.32262     475.033E-03        -1.32261     767.669E-03     382.978E-06     351.418E-03    -173.491E-03    -177.927E-03    -174.467E-03     347.957E-03    -173.491E-03     84.9449E-03     51.7269E+06     4.94757E+06    -40.6583E+06    -40.6117E+06     4.90098E+06     51.7269E+06    -922.581E+03         59.8163
             943     9.25654E-03     21.0753E-03     787.836E-03     537.613E-03        -1.40826     537.606E-03        -1.40825     787.836E-03    -3.63360E-03     349.404E-03    -173.235E-03    -176.169E-03    -173.645E-03     346.880E-03    -173.235E-03     72.3366E-03     45.8396E+06    -334.896E+03    -48.6257E+06    -48.6094E+06    -351.274E+03     45.8396E+06    -438.565E+03         57.4734
             944     8.41621E-03     20.9811E-03     806.602E-03     596.705E-03        -1.48866     596.696E-03        -1.48865     806.602E-03     879.435E-06     347.665E-03    -173.003E-03    -174.662E-03    -172.870E-03     345.873E-03    -173.003E-03     60.7544E-03     40.2080E+06    -6.84009E+06    -57.5469E+06    -57.5435E+06    -6.84355E+06     40.2080E+06     62.1024E+03         55.5801
             945     7.57629E-03     20.9034E-03     823.965E-03     651.683E-03        -1.56327     651.600E-03        -1.56318     823.965E-03     22.3299E-03     345.774E-03    -172.457E-03    -173.317E-03    -171.816E-03     344.628E-03    -172.812E-03     48.1129E-03     31.2083E+06    -15.3740E+06    -67.6328E+06    -67.6232E+06    -15.3836E+06     31.2083E+06     146.844E+03         54.0958
             946     6.73389E-03     20.8435E-03     839.944E-03     702.464E-03        -1.63199     702.275E-03        -1.63181     839.944E-03     41.6333E-03     344.384E-03    -171.673E-03    -172.711E-03    -171.065E-03     343.765E-03    -172.701E-03     34.9635E-03     14.1299E+06    -44.8820E+06    -79.9011E+06    -79.8636E+06    -44.9194E+06     14.1299E+06     404.219E+03         52.9470
             947     5.89185E-03     20.8000E-03     854.430E-03     749.014E-03        -1.69461     748.872E-03        -1.69447     854.430E-03     35.3162E-03     344.226E-03    -171.591E-03    -172.635E-03    -171.300E-03     343.935E-03    -172.635E-03     23.7507E-03    -9.25961E+06    -83.2958E+06    -106.310E+06    -91.9035E+06    -97.7020E+06    -9.25961E+06     607.099E+03         52.0557
             948     5.05168E-03     20.7719E-03     867.301E-03     789.643E-03        -1.74922     789.603E-03        -1.74918     867.301E-03     18.8740E-03     344.247E-03    -171.689E-03    -172.559E-03    -171.569E-03     344.128E-03    -172.559E-03     14.9769E-03    -34.0129E+06    -103.811E+06    -150.649E+06    -103.821E+06    -150.639E+06    -34.0129E+06     465.649E+03         51.3567
             949     4.20870E-03     20.7562E-03     878.485E-03     824.450E-03        -1.79597     824.439E-03        -1.79596     878.485E-03     8.96078E-03     343.967E-03    -171.461E-03    -172.505E-03    -171.421E-03     343.926E-03    -172.505E-03     8.07452E-03    -58.5695E+06    -115.364E+06    -193.049E+06    -115.385E+06    -193.028E+06    -58.5695E+06     829.837E+03         50.8034
             950     3.36633E-03     20.7492E-03     887.695E-03     854.446E-03        -1.83558     854.443E-03        -1.83557     887.695E-03     1.44255E-03     344.353E-03    -171.897E-03    -172.455E-03    -171.889E-03     344.344E-03    -172.455E-03     2.88948E-03    -84.3793E+06    -125.980E+06    -231.654E+06    -126.016E+06    -231.619E+06    -84.3793E+06     739.936E+03         50.3673
             951     2.52655E-03     20.7464E-03     894.686E-03     877.124E-03        -1.86531     877.058E-03        -1.86524     894.686E-03    -20.1447E-03     344.599E-03    -172.243E-03    -172.356E-03    -172.241E-03     344.597E-03    -172.356E-03    -610.824E-06    -109.659E+06    -135.764E+06    -272.490E+06    -135.783E+06    -272.470E+06    -109.659E+06    -81.0060E+03         50.0335
             952     1.68420E-03     20.7501E-03     899.647E-03     891.936E-03        -1.88528     891.781E-03        -1.88513     899.647E-03    -41.3318E-03     344.372E-03    -172.027E-03    -172.345E-03    -172.101E-03     344.370E-03    -172.269E-03    -2.11589E-03    -130.094E+06    -143.319E+06    -302.466E+06    -143.326E+06    -302.459E+06    -130.094E+06    -782.005E+03         49.7951
             953     840.537E-06     20.7515E-03         1.03191     772.133E-03        -1.89724         1.02986        -1.89708     774.028E-03    -41.9535E-03     344.422E-03    -171.276E-03    -173.146E-03    -173.001E-03     344.420E-03    -171.419E-03    -1.74414E-03    -143.652E+06    -150.490E+06    -323.343E+06    -149.371E+06    -323.323E+06    -144.792E+06    -84.3480E+03         49.6482
             954     14.2899E-03     20.6623E-03     615.720E-03     114.398E-03    -797.637E-03     114.311E-03    -797.551E-03     615.720E-03     16.3222E-03     369.907E-03    -174.824E-03    -195.082E-03    -182.944E-03     357.768E-03    -174.824E-03     160.127E-03     124.188E+06     59.3419E+06    -8.10769E+06    -8.07974E+06     59.3139E+06     124.188E+06    -32.8271E+03         74.0021
             955     13.4522E-03     20.3737E-03     637.746E-03     186.911E-03    -897.600E-03     186.777E-03    -897.466E-03     637.746E-03     23.6926E-03     369.258E-03    -174.309E-03    -194.949E-03    -183.357E-03     357.666E-03    -174.309E-03     155.022E-03       83.85E+06     42.6495E+06    -15.9355E+06    -15.9008E+06     42.6149E+06       83.85E+06    -140.406E+03         71.6391
             956     12.6152E-03     20.2167E-03     658.622E-03     255.953E-03    -992.456E-03     255.872E-03    -992.375E-03     658.622E-03     18.9851E-03     361.095E-03    -173.783E-03    -187.312E-03    -180.983E-03     354.766E-03    -173.783E-03     116.910E-03     65.6487E+06     26.2834E+06    -21.6543E+06    -21.5745E+06     26.2037E+06     65.6487E+06    -340.887E+03         68.7497
             957     11.7827E-03     20.0342E-03     678.591E-03     321.955E-03        -1.08259     321.891E-03        -1.08252     678.591E-03     18.1585E-03     358.089E-03    -173.265E-03    -184.824E-03    -179.449E-03     352.714E-03    -173.265E-03     106.401E-03     62.4248E+06     16.0752E+06    -26.3611E+06    -26.2901E+06     16.0041E+06     62.4248E+06    -127.929E+03         65.6140
             958     10.9448E-03     19.8999E-03     697.379E-03     385.548E-03        -1.16867     385.489E-03        -1.16861     697.379E-03     17.4142E-03     353.159E-03    -172.767E-03    -180.392E-03    -176.790E-03     349.556E-03    -172.767E-03     87.2123E-03     58.6816E+06     9.93776E+06    -32.6092E+06    -32.5760E+06     9.90454E+06     58.6816E+06    -684.789E+03         62.5224
             959     10.1084E-03     19.7699E-03     715.047E-03     445.902E-03        -1.24985     445.875E-03        -1.24983     715.047E-03     11.3204E-03     350.283E-03    -172.299E-03    -177.984E-03    -175.207E-03     347.506E-03    -172.299E-03     75.9496E-03     51.0064E+06     4.38297E+06    -40.7347E+06    -40.6856E+06     4.33385E+06     51.0064E+06    -911.048E+03         59.7068
             960     9.26751E-03     19.6611E-03     731.483E-03     502.820E-03        -1.32596     502.807E-03        -1.32594     731.483E-03     7.80836E-03     347.589E-03    -171.871E-03    -175.717E-03    -173.789E-03     345.660E-03    -171.871E-03     62.9500E-03     44.0584E+06    -1.36012E+06    -49.1794E+06    -49.1547E+06    -1.38485E+06     44.0584E+06    -484.153E+03         57.3022
             961     8.42768E-03     19.5671E-03     746.837E-03     554.947E-03        -1.39588     554.920E-03        -1.39585     746.837E-03     12.2625E-03     345.453E-03    -171.488E-03    -173.965E-03    -172.683E-03     344.171E-03    -171.488E-03     50.6795E-03     38.8531E+06    -7.47637E+06    -57.7055E+06    -57.6962E+06    -7.48565E+06     38.8531E+06    -337.157E+03         55.3450
             962     7.58681E-03     19.4908E-03     761.258E-03     603.218E-03        -1.46075     603.077E-03        -1.46061     761.258E-03     31.1165E-03     343.382E-03    -171.147E-03    -172.235E-03    -171.496E-03     342.642E-03    -171.147E-03     38.0309E-03     30.9992E+06    -15.8568E+06    -67.9838E+06    -67.9756E+06    -15.8649E+06     30.9992E+06     342.849E+03         53.8003
             963     6.74660E-03     19.4331E-03     774.768E-03     648.662E-03        -1.52164     648.391E-03        -1.52136     774.768E-03     48.1909E-03     341.707E-03    -170.595E-03    -171.112E-03    -170.468E-03     341.342E-03    -170.874E-03     26.3418E-03     14.8631E+06    -44.1956E+06    -79.2115E+06    -79.2014E+06    -44.2057E+06     14.8631E+06     591.968E+03         52.5979
             964     5.90415E-03     19.3912E-03     787.239E-03     690.056E-03        -1.57707     689.844E-03        -1.57686     787.239E-03     42.2656E-03     340.633E-03    -169.884E-03    -170.749E-03    -169.786E-03     340.486E-03    -170.699E-03     16.2846E-03    -8.02751E+06    -81.9085E+06    -105.591E+06    -90.5014E+06    -96.9979E+06    -8.02751E+06     731.403E+03         51.6613
             965     5.05952E-03     19.3621E-03     798.536E-03     726.917E-03        -1.62634     726.837E-03        -1.62626     798.536E-03     25.6583E-03     340.235E-03    -169.642E-03    -170.593E-03    -169.594E-03     340.187E-03    -170.593E-03     7.73893E-03    -33.1714E+06    -102.507E+06    -149.878E+06    -102.542E+06    -149.843E+06    -33.1714E+06     1.17665E+06         50.9260
             966     4.21698E-03     19.3489E-03     808.516E-03     758.680E-03        -1.66874     758.657E-03        -1.66872     808.516E-03     13.3428E-03     340.337E-03    -169.844E-03    -170.493E-03    -169.834E-03     340.328E-03    -170.493E-03     1.65666E-03    -59.6845E+06    -114.787E+06    -192.702E+06    -114.801E+06    -192.688E+06    -59.6845E+06     619.670E+03         50.3453
             967     3.37426E-03     19.3388E-03     816.978E-03     785.218E-03        -1.70400     785.214E-03        -1.70400     816.978E-03     3.57167E-03     340.279E-03    -169.866E-03    -170.412E-03    -169.859E-03     340.272E-03    -170.412E-03    -1.91772E-03    -84.2341E+06    -125.348E+06    -231.163E+06    -125.360E+06    -231.151E+06    -84.2341E+06     522.306E+03         49.8894
             968     2.52952E-03     19.3389E-03     823.604E-03     806.889E-03        -1.73233     806.840E-03        -1.73228     823.604E-03    -16.3278E-03     340.366E-03    -169.998E-03    -170.367E-03    -169.988E-03     340.355E-03    -170.367E-03    -3.88793E-03    -107.501E+06    -133.962E+06    -270.341E+06    -133.985E+06    -270.318E+06    -107.501E+06     764.631E+03         49.5422
             969     1.68660E-03     19.3414E-03     828.090E-03     821.817E-03        -1.75190     821.663E-03        -1.75175     828.090E-03    -39.0191E-03     340.599E-03    -170.213E-03    -170.385E-03    -170.319E-03     340.590E-03    -170.271E-03    -3.93782E-03    -130.081E+06    -142.453E+06    -302.577E+06    -142.467E+06    -302.562E+06    -130.081E+06     413.856E+03         49.2955
             970     845.322E-06     19.3443E-03     934.971E-03     724.929E-03        -1.76181     933.517E-03        -1.76167     726.247E-03    -36.2151E-03     340.328E-03    -169.561E-03    -170.767E-03    -170.274E-03     340.324E-03    -170.050E-03    -2.40687E-03    -144.670E+06    -151.212E+06    -324.085E+06    -149.682E+06    -324.078E+06    -146.206E+06    -12.6725E+03         49.1441
             971     14.2940E-03     19.2289E-03     567.175E-03     115.432E-03    -761.993E-03     115.323E-03    -761.884E-03     567.175E-03     17.6024E-03     374.610E-03    -174.521E-03    -200.089E-03    -188.518E-03     363.039E-03    -174.521E-03     159.004E-03     125.229E+06     59.4041E+06    -8.26969E+06    -8.25062E+06     59.3851E+06     125.229E+06     144.645E+03         74.0596
             972     13.4626E-03     18.9561E-03     583.370E-03     179.307E-03    -847.709E-03     179.126E-03    -847.528E-03     583.370E-03     27.0251E-03     371.990E-03    -173.652E-03    -198.337E-03    -187.864E-03     361.516E-03    -173.652E-03     148.460E-03     85.1717E+06     43.6943E+06    -14.8503E+06    -14.8237E+06     43.6676E+06     85.1717E+06     132.572E+03         71.7058
             973     12.6307E-03     18.7847E-03     598.773E-03     240.433E-03    -929.026E-03     240.289E-03    -928.882E-03     598.773E-03     25.4912E-03     362.101E-03    -172.805E-03    -189.296E-03    -183.854E-03     356.659E-03    -172.805E-03     108.946E-03     65.6974E+06     26.8465E+06    -20.8843E+06    -20.8333E+06     26.7955E+06     65.6974E+06    -908.670E+03         68.8102
             974     11.7968E-03     18.6161E-03     613.699E-03     298.207E-03        -1.00585     298.082E-03        -1.00572     613.699E-03     25.1632E-03     358.075E-03    -172.007E-03    -186.067E-03    -181.680E-03     353.687E-03    -172.007E-03     96.3630E-03     61.7198E+06     15.7988E+06    -26.6657E+06    -26.5816E+06     15.7147E+06     61.7198E+06    -1.33909E+06         65.6472
             975     10.9620E-03     18.4794E-03     627.732E-03     353.034E-03        -1.07830     352.928E-03        -1.07819     627.732E-03     24.3226E-03     353.229E-03    -171.209E-03    -182.020E-03    -179.174E-03     350.383E-03    -171.209E-03     77.4501E-03     58.2905E+06     9.53856E+06    -33.0171E+06    -32.9721E+06     9.49355E+06     58.2905E+06    -566.611E+03         62.5085
             976     10.1251E-03     18.3551E-03     640.948E-03     404.874E-03        -1.14631     404.812E-03        -1.14625     640.948E-03     18.9411E-03     349.610E-03    -170.405E-03    -179.205E-03    -177.189E-03     347.594E-03    -170.405E-03     64.2845E-03     51.1003E+06     4.29167E+06    -40.6636E+06    -40.6543E+06     4.28236E+06     51.1003E+06    -14.1079E+03         59.6288
             977     9.28845E-03     18.2491E-03     653.284E-03     452.785E-03        -1.20911     452.749E-03        -1.20907     653.284E-03     15.0676E-03     345.816E-03    -169.634E-03    -176.182E-03    -174.933E-03     344.567E-03    -169.634E-03     50.1233E-03     44.2718E+06    -1.02949E+06    -48.5607E+06    -48.5451E+06    -1.04508E+06     44.2718E+06    -313.384E+03         57.1474
             978     8.44961E-03     18.1560E-03     664.958E-03     496.958E-03        -1.26714     496.899E-03        -1.26708     664.958E-03     19.6069E-03     342.305E-03    -168.941E-03    -173.364E-03    -172.659E-03     341.599E-03    -168.941E-03     36.8785E-03     37.9938E+06    -8.02916E+06    -57.9353E+06    -57.9244E+06    -8.03999E+06     37.9938E+06    -484.805E+03         55.1070
             979     7.60903E-03     18.0843E-03     676.137E-03     537.890E-03        -1.32121     537.696E-03        -1.32101     676.137E-03     36.3591E-03     339.053E-03    -168.360E-03    -170.693E-03    -170.362E-03     338.722E-03    -168.360E-03     24.5002E-03     30.5553E+06    -16.4020E+06    -68.2173E+06    -68.2027E+06    -16.4167E+06     30.5553E+06    -390.629E+03         53.4797
             980     6.76482E-03     18.0270E-03     686.852E-03     576.266E-03        -1.37214     575.911E-03        -1.37179     686.852E-03     52.2837E-03     336.824E-03    -167.900E-03    -168.923E-03    -168.785E-03     336.686E-03    -167.900E-03     14.1258E-03     15.3849E+06    -43.6311E+06    -78.7656E+06    -78.7308E+06    -43.6659E+06     15.3849E+06     261.444E+03         52.2005
             981     5.92119E-03     17.9877E-03     697.017E-03     611.205E-03        -1.41872     610.916E-03        -1.41843     697.017E-03     47.0384E-03     335.361E-03    -167.273E-03    -168.087E-03    -167.766E-03     335.315E-03    -167.550E-03     4.96981E-03    -8.29750E+06    -81.6373E+06    -105.210E+06    -90.5111E+06    -96.3358E+06    -8.29750E+06     1.09958E+06         51.1967
             982     5.07690E-03     17.9614E-03     706.562E-03     642.015E-03        -1.46014     641.898E-03        -1.46002     706.562E-03     30.3710E-03     334.405E-03    -166.884E-03    -167.521E-03    -167.090E-03     334.382E-03    -167.293E-03    -2.20475E-03    -33.1791E+06    -102.711E+06    -148.908E+06    -102.760E+06    -148.859E+06    -33.1791E+06     1.40853E+06         50.4047
             983     4.23088E-03     17.9448E-03     715.333E-03     669.544E-03        -1.49705     669.499E-03        -1.49700     715.333E-03     17.9941E-03     333.836E-03    -166.736E-03    -167.100E-03    -166.699E-03     333.798E-03    -167.100E-03    -6.84465E-03    -59.4611E+06    -113.994E+06    -190.679E+06    -114.024E+06    -190.648E+06    -59.4611E+06     1.35183E+06         49.7780
             984     3.38468E-03     17.9394E-03     723.036E-03     693.505E-03        -1.52873     693.491E-03        -1.52872     723.036E-03     7.31371E-03     333.358E-03    -166.347E-03    -167.011E-03    -166.298E-03     333.309E-03    -167.011E-03    -8.82686E-03    -85.8983E+06    -124.325E+06    -230.385E+06    -124.338E+06    -230.372E+06    -85.8983E+06     518.190E+03         49.2866
             985     2.53844E-03     17.9381E-03     729.359E-03     712.688E-03        -1.55429     712.650E-03        -1.55426     729.359E-03    -12.1852E-03     333.432E-03    -166.369E-03    -167.063E-03    -166.327E-03     333.390E-03    -167.063E-03    -8.79606E-03    -107.902E+06    -133.543E+06    -270.516E+06    -133.554E+06    -270.506E+06    -107.902E+06     263.815E+03         48.9132
             986     1.69221E-03     17.9391E-03     734.004E-03     727.033E-03        -1.57326     726.904E-03        -1.57313     734.004E-03    -33.6260E-03     333.923E-03    -166.719E-03    -167.204E-03    -166.728E-03     333.894E-03    -167.165E-03    -7.26383E-03    -126.801E+06    -140.749E+06    -301.036E+06    -140.763E+06    -301.022E+06    -126.801E+06     948.170E+03         48.6486
             987     844.353E-06     17.9445E-03     817.566E-03     654.495E-03        -1.58429     816.086E-03        -1.58418     655.868E-03    -29.6185E-03     334.379E-03    -166.437E-03    -167.942E-03    -167.253E-03     334.365E-03    -167.113E-03    -4.65669E-03    -139.876E+06    -146.185E+06    -322.197E+06    -144.654E+06    -322.192E+06    -141.412E+06     886.178E+03         48.4869
             988     14.2984E-03     17.7893E-03     501.989E-03     116.260E-03    -713.391E-03     116.138E-03    -713.269E-03     501.989E-03     17.9792E-03     380.303E-03    -174.129E-03    -206.174E-03    -195.148E-03     369.277E-03    -174.129E-03     157.771E-03     126.413E+06     59.6436E+06    -8.27910E+06    -8.26652E+06     59.6311E+06     126.413E+06    -450.355E+03         74.1797
             989     13.4755E-03     17.5215E-03     511.867E-03     170.029E-03    -781.986E-03     169.818E-03    -781.775E-03     511.867E-03     28.2359E-03     376.314E-03    -172.828E-03    -203.486E-03    -193.873E-03     366.701E-03    -172.828E-03     143.939E-03     86.1612E+06     44.2885E+06    -14.7510E+06    -14.7359E+06     44.2733E+06     86.1612E+06    -598.758E+03         71.8396
             990     12.6470E-03     17.3591E-03     521.450E-03     220.331E-03    -846.340E-03     220.151E-03    -846.160E-03     521.450E-03     27.5332E-03     365.261E-03    -171.545E-03    -193.716E-03    -188.834E-03     360.379E-03    -171.545E-03     103.943E-03     66.4066E+06     27.9086E+06    -20.2407E+06    -20.2369E+06     27.9047E+06     66.4066E+06    -130.912E+03         68.9432
             991     11.8169E-03     17.1923E-03     531.009E-03     267.547E-03    -906.855E-03     267.383E-03    -906.690E-03     531.009E-03     27.6574E-03     359.979E-03    -170.306E-03    -189.673E-03    -186.075E-03     356.381E-03    -170.306E-03     87.4485E-03     61.2752E+06     15.9481E+06    -27.0646E+06    -27.0174E+06     15.9010E+06     61.2752E+06    -567.429E+03         65.7575
             992     10.9858E-03     17.0598E-03     539.993E-03     311.959E-03    -963.494E-03     311.817E-03    -963.353E-03     539.993E-03     26.5241E-03     354.348E-03    -169.024E-03    -185.324E-03    -183.263E-03     352.287E-03    -169.024E-03     65.9260E-03     56.9127E+06     8.65576E+06    -34.6156E+06    -34.5312E+06     8.57143E+06     56.9127E+06    -959.112E+03         62.5725
             993     10.1541E-03     16.9399E-03     548.558E-03     353.202E-03        -1.01597     353.110E-03        -1.01588     548.558E-03     22.0493E-03     349.260E-03    -167.712E-03    -181.549E-03    -180.287E-03     347.999E-03    -167.712E-03     50.7621E-03     50.7138E+06     4.00231E+06    -41.2022E+06    -41.1527E+06     3.95274E+06     50.7138E+06    -1.01931E+06         59.6229
             994     9.31907E-03     16.8374E-03     556.682E-03     390.801E-03        -1.06392     390.732E-03        -1.06385     556.682E-03     19.6399E-03     343.947E-03    -166.443E-03    -177.504E-03    -176.833E-03     343.276E-03    -166.443E-03     36.2914E-03     44.8104E+06    -1.19633E+06    -48.7207E+06    -48.7060E+06    -1.21106E+06     44.8104E+06    -621.690E+03         57.0525
             995     8.48115E-03     16.7516E-03     564.597E-03     425.738E-03        -1.10870     425.642E-03        -1.10860     564.597E-03     23.6641E-03     338.704E-03    -165.286E-03    -173.417E-03    -173.119E-03     338.405E-03    -165.286E-03     22.5178E-03     38.3477E+06    -7.87599E+06    -57.6542E+06    -57.6487E+06    -7.88159E+06     38.3477E+06    -116.358E+03         54.9115
             996     7.63920E-03     16.6833E-03     572.416E-03     458.833E-03        -1.15131     458.579E-03        -1.15106     572.416E-03     38.7533E-03     334.068E-03    -164.284E-03    -169.784E-03    -169.691E-03     333.975E-03    -164.284E-03     9.60485E-03     29.8399E+06    -16.3751E+06    -67.6906E+06    -67.6684E+06    -16.3973E+06     29.8399E+06     2.67680E+03         53.1805
             997     6.79617E-03     16.6314E-03     580.171E-03     488.900E-03        -1.19070     488.460E-03        -1.19026     580.171E-03     53.9676E-03     330.353E-03    -163.457E-03    -166.895E-03    -166.850E-03     330.308E-03    -163.457E-03    -1.19026E-03     14.0869E+06    -43.4604E+06    -79.9337E+06    -79.8933E+06    -43.5008E+06     14.0869E+06     346.301E+03         51.8015
             998     5.94937E-03     16.5926E-03     587.857E-03     516.405E-03        -1.22720     516.033E-03        -1.22683     587.857E-03     49.7811E-03     327.544E-03    -162.819E-03    -164.726E-03    -164.645E-03     327.464E-03    -162.819E-03    -9.51919E-03    -9.27941E+06    -81.5755E+06    -105.720E+06    -92.1226E+06    -95.1726E+06    -9.27941E+06     978.019E+03         50.7058
             999     5.10153E-03     16.5691E-03     595.333E-03     541.634E-03        -1.26077     541.461E-03        -1.26060     595.333E-03     33.5766E-03     325.571E-03    -162.342E-03    -163.229E-03    -163.084E-03     325.441E-03    -162.357E-03    -14.2542E-03    -34.0320E+06    -103.300E+06    -147.365E+06    -103.353E+06    -147.312E+06    -34.0320E+06     1.43796E+06         49.8327
            1000     4.25257E-03     16.5550E-03     602.444E-03     563.595E-03        -1.29035     563.528E-03        -1.29028     602.444E-03     21.7291E-03     324.198E-03    -161.869E-03    -162.329E-03    -161.978E-03     324.033E-03    -162.055E-03    -16.9872E-03    -59.2160E+06    -114.157E+06    -188.697E+06    -114.195E+06    -188.659E+06    -59.2160E+06     1.07334E+06         49.1371
            1001     3.40188E-03     16.5504E-03     608.933E-03     583.547E-03        -1.31676     583.526E-03        -1.31674     608.933E-03     10.1126E-03     323.513E-03    -161.547E-03    -161.967E-03    -161.442E-03     323.347E-03    -161.905E-03    -17.3122E-03    -85.0308E+06    -124.191E+06    -228.370E+06    -124.228E+06    -228.333E+06    -85.0308E+06     1.03106E+06         48.5899
            1002     2.55115E-03     16.5486E-03     614.264E-03     600.459E-03        -1.33889     600.435E-03        -1.33886     614.264E-03    -8.46769E-03     323.295E-03    -161.391E-03    -161.904E-03    -161.263E-03     323.167E-03    -161.904E-03    -15.1303E-03    -108.953E+06    -133.366E+06    -269.420E+06    -133.389E+06    -269.397E+06    -108.953E+06     432.210E+03         48.1735
            1003     1.69970E-03     16.5513E-03     618.250E-03     611.937E-03        -1.35419     611.821E-03        -1.35407     618.250E-03    -28.5331E-03     323.537E-03    -161.495E-03    -162.043E-03    -161.416E-03     323.459E-03    -162.043E-03    -11.7747E-03    -127.931E+06    -140.452E+06    -300.654E+06    -140.471E+06    -300.635E+06    -127.931E+06    -848.539E+03         47.8784
            1004     850.704E-06     16.5522E-03     678.608E-03     561.610E-03        -1.36393     676.704E-03        -1.36383     563.412E-03    -25.4659E-03     324.262E-03    -161.591E-03    -162.671E-03    -162.419E-03     324.233E-03    -161.814E-03    -6.85539E-03    -140.003E+06    -145.309E+06    -321.813E+06    -144.641E+06    -321.790E+06    -140.695E+06    -919.184E+03         47.6979
            1005     14.3079E-03     16.3434E-03     422.650E-03     117.808E-03    -653.766E-03     117.706E-03    -653.664E-03     422.650E-03     15.7944E-03     385.878E-03    -173.731E-03    -212.147E-03    -201.271E-03     375.003E-03    -173.731E-03     158.621E-03     127.066E+06     59.9190E+06    -8.08714E+06    -8.06518E+06     59.8971E+06     127.066E+06    -388.147E+03         74.3683
            1006     13.4845E-03     16.0812E-03     425.997E-03     159.104E-03    -702.826E-03     158.900E-03    -702.623E-03     425.997E-03     26.4696E-03     381.408E-03    -172.020E-03    -209.388E-03    -200.267E-03     372.287E-03    -172.020E-03     141.205E-03     86.3016E+06     44.3543E+06    -15.3001E+06    -15.2831E+06     44.3372E+06     86.3016E+06    -418.314E+03         72.0433
            1007     12.6636E-03     15.9222E-03     429.615E-03     196.890E-03    -747.996E-03     196.698E-03    -747.803E-03     429.615E-03     26.7887E-03     371.029E-03    -170.213E-03    -200.816E-03    -196.471E-03     366.684E-03    -170.213E-03     99.1982E-03     66.4490E+06     28.0604E+06    -21.5936E+06    -21.5899E+06     28.0567E+06     66.4490E+06    -410.349E+03         69.1540
            1008     11.8420E-03     15.7638E-03     433.683E-03     231.907E-03    -790.177E-03     231.732E-03    -790.002E-03     433.683E-03     26.6858E-03     364.819E-03    -168.338E-03    -196.481E-03    -193.464E-03     361.803E-03    -168.338E-03     80.8323E-03     62.0474E+06     16.6145E+06    -27.6563E+06    -27.6425E+06     16.6006E+06     62.0474E+06    -247.954E+03         65.9587
            1009     11.0173E-03     15.6357E-03     437.577E-03     264.175E-03    -829.060E-03     264.006E-03    -828.891E-03     437.577E-03     27.0325E-03     357.368E-03    -166.378E-03    -190.990E-03    -189.453E-03     355.831E-03    -166.378E-03     57.2750E-03     58.2736E+06     9.98577E+06    -33.8921E+06    -33.8420E+06     9.93564E+06     58.2736E+06    -628.701E+03         62.7372
            1010     10.1889E-03     15.5241E-03     441.541E-03     293.544E-03    -864.639E-03     293.417E-03    -864.513E-03     441.541E-03     23.8704E-03     350.120E-03    -164.383E-03    -185.737E-03    -184.955E-03     349.338E-03    -164.383E-03     39.7173E-03     50.9209E+06     4.00872E+06    -41.5900E+06    -41.5293E+06     3.94797E+06     50.9209E+06    -1.24542E+06         59.7209
            1011     9.35676E-03     15.4295E-03     445.521E-03     320.732E-03    -897.706E-03     320.629E-03    -897.602E-03     445.521E-03     22.2991E-03     342.543E-03    -162.452E-03    -180.092E-03    -179.786E-03     342.238E-03    -162.452E-03     23.0666E-03     43.6710E+06    -2.19679E+06    -49.6841E+06    -49.6483E+06    -2.23256E+06     43.6710E+06    -1.23889E+06         57.0579
            1012     8.52069E-03     15.3508E-03     449.706E-03     345.450E-03    -928.178E-03     345.313E-03    -928.040E-03     449.706E-03     26.1587E-03     335.387E-03    -160.656E-03    -174.731E-03    -174.651E-03     335.307E-03    -160.656E-03     8.01503E-03     36.9016E+06    -8.60638E+06    -58.0436E+06    -58.0284E+06    -8.62158E+06     36.9016E+06    -543.690E+03         54.8071
            1013     7.68129E-03     15.2904E-03     454.253E-03     368.083E-03    -956.686E-03     367.762E-03    -956.365E-03     454.253E-03     39.8811E-03     328.999E-03    -159.032E-03    -169.967E-03    -169.914E-03     328.946E-03    -159.032E-03    -5.03337E-03     28.5871E+06    -17.0948E+06    -68.0340E+06    -68.0179E+06    -17.1108E+06     28.5871E+06     523.119E+03         52.9585
            1014     6.83664E-03     15.2433E-03     459.178E-03     390.362E-03    -985.180E-03     389.823E-03    -984.641E-03     459.178E-03     54.0074E-03     323.154E-03    -157.620E-03    -165.534E-03    -165.369E-03     322.989E-03    -157.620E-03    -15.7814E-03     13.3267E+06    -41.9284E+06    -79.0305E+06    -78.9313E+06    -42.0275E+06     13.3267E+06     1.26333E+06         51.4615
            1015     5.98870E-03     15.2130E-03     464.324E-03     411.326E-03        -1.01221     410.851E-03        -1.01174     464.324E-03     51.1115E-03     318.061E-03    -156.502E-03    -161.559E-03    -161.238E-03     317.739E-03    -156.502E-03    -23.5998E-03    -9.01334E+06    -79.5587E+06    -104.162E+06    -90.8825E+06    -92.8382E+06    -9.01334E+06     1.57372E+06         50.2530
            1016     5.13590E-03     15.1917E-03     469.542E-03     429.394E-03        -1.03611     429.152E-03        -1.03587     469.542E-03     36.4042E-03     314.150E-03    -155.701E-03    -158.449E-03    -158.009E-03     313.709E-03    -155.701E-03    -27.8197E-03    -32.9682E+06    -102.702E+06    -144.666E+06    -102.780E+06    -144.588E+06    -32.9682E+06     1.36619E+06         49.2764
            1017     4.28118E-03     15.1809E-03     474.669E-03     445.919E-03        -1.05810     445.821E-03        -1.05800     474.669E-03     23.2482E-03     311.627E-03    -155.170E-03    -156.457E-03    -155.990E-03     311.160E-03    -155.170E-03    -28.6671E-03    -58.4441E+06    -113.791E+06    -186.596E+06    -113.822E+06    -186.564E+06    -58.4441E+06     783.969E+03         48.4895
            1018     3.42610E-03     15.1768E-03     479.357E-03     461.104E-03        -1.07770     461.073E-03        -1.07767     479.357E-03     10.8582E-03     310.261E-03    -154.786E-03    -155.474E-03    -155.012E-03     309.861E-03    -154.849E-03    -26.6403E-03    -84.5639E+06    -124.759E+06    -227.875E+06    -124.796E+06    -227.837E+06    -84.5639E+06     947.996E+03         47.8653
            1019     2.56973E-03     15.1772E-03     483.271E-03     473.041E-03        -1.09336     473.021E-03        -1.09334     483.271E-03    -5.98489E-03     309.467E-03    -154.535E-03    -154.933E-03    -154.507E-03     309.186E-03    -154.679E-03    -22.3443E-03    -109.137E+06    -133.957E+06    -266.301E+06    -133.991E+06    -266.268E+06    -109.137E+06     1.19099E+06         47.3879
            1020     1.71375E-03     15.1781E-03     486.421E-03     481.681E-03        -1.10484     481.814E-03        -1.10471     486.160E-03    -26.2564E-03     309.194E-03    -154.507E-03    -154.687E-03    -154.418E-03     309.043E-03    -154.625E-03    -16.1648E-03    -130.137E+06    -141.351E+06    -298.946E+06    -141.380E+06    -298.917E+06    -130.137E+06     5.97120E+03         47.0482
            1021     855.841E-06     15.1803E-03     526.225E-03     448.582E-03        -1.11135     525.134E-03        -1.11124     449.555E-03    -23.8499E-03     309.239E-03    -154.433E-03    -154.806E-03    -154.715E-03     309.185E-03    -154.470E-03    -9.17797E-03    -144.972E+06    -148.757E+06    -324.287E+06    -148.089E+06    -324.264E+06    -145.664E+06    -1.09887E+06         46.8397
            1022     14.3081E-03     14.8896E-03     332.148E-03     118.513E-03    -583.702E-03     118.422E-03    -583.610E-03     332.148E-03     14.1239E-03     391.366E-03    -173.423E-03    -217.943E-03    -207.136E-03     380.560E-03    -173.423E-03     159.819E-03     127.779E+06     60.0498E+06    -7.93685E+06    -7.92381E+06     60.0368E+06     127.779E+06    -83.4855E+03         74.6173
            1023     13.4952E-03     14.6299E-03     328.917E-03     146.567E-03    -612.332E-03     146.379E-03    -612.144E-03     328.917E-03     23.8772E-03     387.577E-03    -171.296E-03    -216.281E-03    -207.453E-03     378.749E-03    -171.296E-03     140.123E-03     87.3890E+06     44.6867E+06    -15.4485E+06    -15.4426E+06     44.6807E+06     87.3890E+06     27.8180E+03         72.3115
            1024     12.6807E-03     14.4750E-03     326.520E-03     171.359E-03    -637.798E-03     171.164E-03    -637.603E-03     326.520E-03     25.1016E-03     377.673E-03    -168.930E-03    -208.743E-03    -204.725E-03     373.656E-03    -168.930E-03     96.6663E-03     67.2325E+06     28.7533E+06    -21.7536E+06    -21.7498E+06     28.7495E+06     67.2325E+06    -347.904E+03         69.4382
            1025     11.8654E-03     14.3241E-03     325.167E-03     192.849E-03    -660.361E-03     192.666E-03    -660.178E-03     325.167E-03     24.9071E-03     370.923E-03    -166.382E-03    -204.541E-03    -201.833E-03     368.215E-03    -166.382E-03     77.4514E-03     63.2109E+06     17.6012E+06    -27.4231E+06    -27.4089E+06     17.5870E+06     63.2109E+06    -709.743E+03         66.2451
            1026     11.0478E-03     14.2055E-03     324.173E-03     212.105E-03    -680.730E-03     211.926E-03    -680.551E-03     324.173E-03     25.2224E-03     362.099E-03    -163.672E-03    -198.427E-03    -197.156E-03     360.827E-03    -163.672E-03     52.4463E-03     59.5412E+06     10.4580E+06    -34.0655E+06    -34.0390E+06     10.4315E+06     59.5412E+06    -760.100E+03         63.0010
            1027     10.2266E-03     14.1048E-03     323.762E-03     229.590E-03    -699.515E-03     229.441E-03    -699.366E-03     323.762E-03     23.3169E-03     352.961E-03    -160.873E-03    -192.087E-03    -191.546E-03     352.419E-03    -160.873E-03     33.1213E-03     51.4474E+06     4.38342E+06    -41.2241E+06    -41.1915E+06     4.35081E+06     51.4474E+06    -637.299E+03         59.9316
            1028     9.40069E-03     14.0211E-03     323.854E-03     244.826E-03    -716.281E-03     244.697E-03    -716.152E-03     323.854E-03     22.0380E-03     343.379E-03    -158.099E-03    -185.281E-03    -185.141E-03     343.240E-03    -158.099E-03     14.2155E-03     43.0011E+06    -2.28469E+06    -49.3933E+06    -49.3662E+06    -2.31180E+06     43.0011E+06    -694.429E+03         57.1865
            1029     8.56778E-03     13.9557E-03     324.629E-03     258.554E-03    -731.933E-03     258.374E-03    -731.753E-03     324.629E-03     26.2414E-03     333.646E-03    -155.449E-03    -178.198E-03    -178.160E-03     333.608E-03    -155.449E-03    -2.78352E-03     35.2251E+06    -9.51550E+06    -58.6561E+06    -58.6443E+06    -9.52732E+06     35.2251E+06    -443.140E+03         54.8312
            1030     7.72849E-03     13.9029E-03     326.149E-03     271.827E-03    -747.629E-03     271.451E-03    -747.253E-03     326.149E-03     38.0529E-03     324.448E-03    -153.001E-03    -171.447E-03    -171.253E-03     324.254E-03    -153.001E-03    -17.2573E-03     26.3418E+06    -18.4966E+06    -68.8459E+06    -68.8355E+06    -18.5070E+06     26.3418E+06     356.254E+03         52.8640
            1031     6.88447E-03     13.8683E-03     328.406E-03     285.321E-03    -764.103E-03     284.680E-03    -763.462E-03     328.406E-03     51.3388E-03     315.942E-03    -150.824E-03    -165.119E-03    -164.637E-03     315.461E-03    -150.824E-03    -29.1673E-03     11.4210E+06    -41.6055E+06    -80.8008E+06    -80.6326E+06    -41.7737E+06     11.4210E+06     1.91977E+06         51.2429
            1032     6.03384E-03     13.8447E-03     331.218E-03     298.511E-03    -780.619E-03     297.892E-03    -780.000E-03     331.218E-03     50.6593E-03     308.392E-03    -148.993E-03    -159.398E-03    -158.639E-03     307.633E-03    -148.993E-03    -36.8434E-03    -10.0283E+06    -78.6894E+06    -102.276E+06    -92.4537E+06    -88.5116E+06    -10.0283E+06     2.48810E+06         49.9117
            1033     5.17978E-03     13.8330E-03     334.282E-03     310.465E-03    -795.882E-03     310.127E-03    -795.544E-03     334.282E-03     36.9669E-03     301.934E-03    -147.562E-03    -154.372E-03    -153.446E-03     301.008E-03    -147.562E-03    -40.5300E-03    -33.4155E+06    -103.700E+06    -140.832E+06    -103.823E+06    -140.709E+06    -33.4155E+06     1.36347E+06         48.8191
            1034     4.31998E-03     13.8265E-03     337.345E-03     320.708E-03    -809.207E-03     320.569E-03    -809.068E-03     337.345E-03     24.3300E-03     296.875E-03    -146.538E-03    -150.337E-03    -149.418E-03     295.956E-03    -146.538E-03    -40.0521E-03    -59.1232E+06    -115.215E+06    -184.435E+06    -115.238E+06    -184.412E+06    -59.1232E+06     1.10845E+06         47.9265
            1035     3.45710E-03     13.8247E-03     340.169E-03     329.658E-03    -820.567E-03     329.612E-03    -820.521E-03     340.169E-03     12.0125E-03     293.743E-03    -145.872E-03    -147.871E-03    -147.110E-03     292.983E-03    -145.872E-03    -36.1202E-03    -86.0802E+06    -125.829E+06    -226.462E+06    -125.860E+06    -226.430E+06    -86.0802E+06     1.30934E+06         47.2102
            1036     2.59382E-03     13.8264E-03     342.756E-03     336.708E-03    -829.890E-03     336.906E-03    -829.868E-03     342.536E-03    -4.72288E-03     291.962E-03    -145.442E-03    -146.520E-03    -145.998E-03     291.440E-03    -145.442E-03    -29.5748E-03    -110.986E+06    -135.793E+06    -264.368E+06    -135.821E+06    -264.340E+06    -110.986E+06     1.21803E+06         46.6576
            1037     1.72877E-03     13.8291E-03     344.685E-03     341.758E-03    -836.359E-03     342.106E-03    -836.227E-03     344.203E-03    -23.0441E-03     290.840E-03    -145.147E-03    -145.694E-03    -145.420E-03     290.567E-03    -145.147E-03    -21.0292E-03    -130.668E+06    -142.878E+06    -296.514E+06    -142.899E+06    -296.493E+06    -130.668E+06     1.52349E+06         46.2620
            1038     865.469E-06     13.8300E-03     368.895E-03     320.988E-03    -839.498E-03     368.400E-03    -839.376E-03     321.361E-03    -20.9649E-03     290.085E-03    -144.748E-03    -145.337E-03    -145.239E-03     289.987E-03    -144.748E-03    -12.1737E-03    -144.101E+06    -147.762E+06    -323.808E+06    -147.594E+06    -323.789E+06    -144.288E+06     1.45629E+06         46.0183
            1039     14.3151E-03     13.4318E-03     233.746E-03     119.340E-03    -506.576E-03     119.265E-03    -506.502E-03     233.746E-03     11.9465E-03     396.383E-03    -173.160E-03    -223.223E-03    -212.653E-03     385.814E-03    -173.160E-03     159.297E-03     127.990E+06     59.7339E+06    -8.01899E+06    -8.01576E+06     59.7307E+06     127.990E+06     50.2985E+03         74.9101
            1040     13.5023E-03     13.1661E-03     224.050E-03     133.630E-03    -514.267E-03     133.440E-03    -514.077E-03     224.050E-03     21.8090E-03     392.697E-03    -170.672E-03    -222.025E-03    -213.276E-03     383.948E-03    -170.672E-03     140.804E-03     89.0277E+06     45.6344E+06    -14.6866E+06    -14.6837E+06     45.6314E+06     89.0277E+06    -349.259E+03          72.625
            1041     12.6945E-03     13.0181E-03     215.731E-03     144.358E-03    -519.245E-03     144.124E-03    -519.010E-03     215.731E-03     24.6831E-03     383.473E-03    -167.849E-03    -215.624E-03    -211.668E-03     379.516E-03    -167.849E-03     96.9564E-03     68.7068E+06     29.7766E+06    -20.7070E+06    -20.7022E+06     29.7718E+06     68.7068E+06    -406.885E+03         69.7720
            1042     11.8861E-03     12.8734E-03     209.140E-03     152.113E-03    -522.234E-03     151.855E-03    -521.976E-03     209.140E-03     25.7435E-03     376.552E-03    -164.727E-03    -211.825E-03    -209.179E-03     373.907E-03    -164.727E-03     77.5010E-03     63.1849E+06     17.8297E+06    -27.1812E+06    -27.1681E+06     17.8166E+06     63.1849E+06    -130.570E+03         66.5900
            1043     11.0755E-03     12.7663E-03     203.491E-03     157.799E-03    -523.750E-03     157.522E-03    -523.473E-03     203.491E-03     26.6150E-03     367.480E-03    -161.338E-03    -206.141E-03    -204.884E-03     366.222E-03    -161.338E-03     52.7931E-03     58.9879E+06     10.5806E+06    -34.3143E+06    -34.2902E+06     10.5566E+06     58.9879E+06    -295.578E+03         63.3380
            1044     10.2599E-03     12.6792E-03     199.005E-03     162.257E-03    -524.812E-03     162.007E-03    -524.562E-03     199.005E-03     25.0520E-03     357.648E-03    -157.744E-03    -199.904E-03    -199.392E-03     357.137E-03    -157.744E-03     32.1768E-03     51.4842E+06     4.27067E+06    -41.5457E+06    -41.5287E+06     4.25372E+06     51.4842E+06    -487.010E+03         60.2351
            1045     9.43894E-03     12.6087E-03     195.587E-03     165.624E-03    -525.616E-03     165.384E-03    -525.376E-03     195.587E-03     24.5145E-03     346.482E-03    -154.059E-03    -192.423E-03    -192.316E-03     346.375E-03    -154.059E-03     11.4764E-03     43.1867E+06    -2.50796E+06    -49.6362E+06    -49.6262E+06    -2.51794E+06     43.1867E+06     230.529E+03         57.4299
            1046     8.61286E-03     12.5593E-03     193.345E-03     168.654E-03    -527.012E-03     168.342E-03    -526.699E-03     193.345E-03     28.1369E-03     334.693E-03    -150.404E-03    -184.288E-03    -184.219E-03     334.623E-03    -150.404E-03    -7.65612E-03     34.2338E+06    -10.2105E+06    -59.1206E+06    -59.0868E+06    -10.2443E+06     34.2338E+06     915.447E+03         54.9911
            1047     7.77885E-03     12.5226E-03     192.259E-03     172.708E-03    -530.286E-03     172.121E-03    -529.700E-03     192.259E-03     38.4694E-03     322.291E-03    -146.922E-03    -175.369E-03    -175.021E-03     321.943E-03    -146.922E-03    -24.7737E-03     24.3572E+06    -20.1548E+06    -70.3694E+06    -70.1436E+06    -20.3806E+06     24.3572E+06     2.45680E+06         52.9232
            1048     6.93560E-03     12.5012E-03     192.468E-03     177.195E-03    -535.182E-03     176.471E-03    -534.228E-03     192.238E-03     50.1624E-03     310.279E-03    -143.753E-03    -166.526E-03    -165.731E-03     309.484E-03    -143.753E-03    -38.3088E-03     9.81409E+06    -39.8442E+06    -82.7151E+06    -82.3824E+06    -40.1769E+06     9.81409E+06     3.34169E+06         51.1910
            1049     6.08546E-03     12.4921E-03     193.976E-03     181.664E-03    -541.061E-03     181.647E-03    -540.115E-03     193.048E-03     50.4041E-03     299.440E-03    -140.997E-03    -158.442E-03    -157.237E-03     298.235E-03    -140.997E-03    -46.6127E-03    -12.2721E+06    -77.1206E+06    -101.000E+06    -94.5333E+06    -83.5874E+06    -12.2721E+06     2.37740E+06         49.7458
            1050     5.22668E-03     12.4898E-03     195.008E-03     186.845E-03    -547.062E-03     186.978E-03    -546.497E-03     194.309E-03     38.4305E-03     289.991E-03    -138.712E-03    -151.279E-03    -149.853E-03     288.565E-03    -138.712E-03    -49.8726E-03    -36.2970E+06    -105.710E+06    -136.624E+06    -105.837E+06    -136.497E+06    -36.2970E+06     1.22511E+06         48.5419
            1051     4.36341E-03     12.4941E-03     196.304E-03     190.831E-03    -552.057E-03     191.190E-03    -551.808E-03     195.696E-03     25.2658E-03     282.122E-03    -136.904E-03    -145.219E-03    -143.819E-03     280.723E-03    -136.904E-03    -48.5997E-03    -60.2872E+06    -117.174E+06    -182.337E+06    -117.187E+06    -182.325E+06    -60.2872E+06     801.830E+03         47.5456
            1052     3.49478E-03     12.4975E-03     198.419E-03     193.252E-03    -556.007E-03     194.629E-03    -555.924E-03     196.959E-03     13.0362E-03     275.948E-03    -135.571E-03    -140.377E-03    -139.209E-03     274.781E-03    -135.571E-03    -43.7165E-03    -85.7388E+06    -127.820E+06    -224.776E+06    -127.854E+06    -224.741E+06    -85.7388E+06     1.72990E+06         46.7368
            1053     2.62250E-03     12.5021E-03     199.134E-03     196.353E-03    -559.320E-03     197.622E-03    -559.288E-03     197.833E-03    -2.62182E-03     271.878E-03    -134.635E-03    -137.242E-03    -136.433E-03     271.068E-03    -134.635E-03    -35.9023E-03    -112.117E+06    -136.763E+06    -261.396E+06    -136.802E+06    -261.357E+06    -112.117E+06     1.88989E+06         46.1064
            1054     1.75018E-03     12.5062E-03     199.310E-03     197.829E-03    -560.431E-03     198.793E-03    -560.287E-03     198.202E-03    -19.0718E-03     269.256E-03    -133.995E-03    -135.261E-03    -134.832E-03     268.827E-03    -133.995E-03    -25.5926E-03    -133.362E+06    -144.682E+06    -295.117E+06    -144.701E+06    -295.099E+06    -133.362E+06     936.935E+03         45.6517
            1055     874.734E-06     12.5094E-03     212.041E-03     184.872E-03    -559.707E-03     211.532E-03    -559.572E-03     185.246E-03    -17.8616E-03     267.581E-03    -133.452E-03    -134.129E-03    -133.774E-03     267.431E-03    -133.656E-03    -14.4335E-03    -143.857E+06    -148.046E+06    -320.813E+06    -147.349E+06    -320.793E+06    -144.573E+06     1.18733E+06         45.3702
            1056     14.3164E-03     11.9613E-03     152.264E-03     99.7773E-03    -425.684E-03     120.987E-03    -425.597E-03     130.966E-03     11.7260E-03     400.099E-03    -172.943E-03    -227.156E-03    -216.494E-03     389.436E-03    -172.943E-03     160.376E-03     127.470E+06     59.9422E+06    -7.71927E+06    -7.71221E+06     59.9351E+06     127.470E+06    -76.2199E+03         75.2179
            1057     13.5105E-03     11.7023E-03     142.705E-03     93.6413E-03    -412.841E-03     120.976E-03    -412.593E-03     115.124E-03     22.3096E-03     396.542E-03    -170.215E-03    -226.327E-03    -217.192E-03     387.407E-03    -170.215E-03     144.536E-03     88.6135E+06     46.0152E+06    -14.0581E+06    -14.0500E+06     46.0071E+06     88.6135E+06    -347.784E+03         72.9495
            1058     12.7039E-03     11.5482E-03     131.710E-03     86.9794E-03    -397.241E-03     117.191E-03    -396.867E-03     101.124E-03     27.0767E-03     386.810E-03    -167.123E-03    -219.688E-03    -215.511E-03     382.634E-03    -167.123E-03     100.223E-03     68.3206E+06     29.2765E+06    -20.3828E+06    -20.3776E+06     29.2713E+06     68.3206E+06     18.9771E+03         70.1148
            1059     11.8998E-03     11.4167E-03     120.307E-03     80.4389E-03    -380.586E-03     110.818E-03    -380.129E-03     89.4704E-03     29.0523E-03     380.901E-03    -163.647E-03    -217.254E-03    -214.308E-03     377.955E-03    -163.647E-03     82.5146E-03     62.6877E+06     17.4237E+06    -26.4700E+06    -26.4604E+06     17.4140E+06     62.6877E+06     281.892E+03         66.9462
            1060     11.0915E-03     11.3185E-03     109.094E-03     73.6645E-03    -363.420E-03     102.889E-03    -362.890E-03     79.3397E-03     30.2425E-03     372.709E-03    -159.752E-03    -212.957E-03    -211.515E-03     371.267E-03    -159.752E-03     57.1152E-03     58.6984E+06     11.2431E+06    -33.1444E+06    -33.1024E+06     11.2011E+06     58.6984E+06     864.167E+03         63.6974
            1061     10.2839E-03     11.2420E-03     98.3289E-03     67.2575E-03    -346.686E-03     94.0249E-03    -346.147E-03     71.0221E-03     29.2294E-03     362.498E-03    -155.502E-03    -206.997E-03    -206.377E-03     361.879E-03    -155.502E-03     36.1174E-03     50.9316E+06     4.39958E+06    -41.5532E+06    -41.4731E+06     4.31942E+06     50.9316E+06     1.15239E+06         60.5811
            1062     9.47056E-03     11.1927E-03     88.6354E-03     61.8733E-03    -331.818E-03     85.5641E-03    -331.229E-03     64.3552E-03     28.9675E-03     351.066E-03    -151.007E-03    -200.060E-03    -199.894E-03     350.901E-03    -151.007E-03     15.3345E-03     41.9441E+06    -3.50455E+06    -50.6076E+06    -50.5033E+06    -3.60881E+06     41.9441E+06     1.63012E+06         57.7431
            1063     8.64926E-03     11.1562E-03     80.2886E-03     58.0419E-03    -319.551E-03     78.1202E-03    -318.754E-03     59.4137E-03     32.0595E-03     337.770E-03    -146.391E-03    -191.379E-03    -191.307E-03     337.698E-03    -146.391E-03    -5.77045E-03     32.9523E+06    -11.6686E+06    -60.3518E+06    -60.0818E+06    -11.9386E+06     32.9523E+06     3.14667E+06         55.2537
            1064     7.82086E-03     11.1431E-03     73.8707E-03     55.2294E-03    -310.034E-03     71.5455E-03    -308.686E-03     56.2059E-03     40.4009E-03     322.651E-03    -141.867E-03    -180.785E-03    -180.451E-03     322.318E-03    -141.867E-03    -24.2381E-03     23.5454E+06    -21.3142E+06    -71.3829E+06    -70.9010E+06    -21.7961E+06     23.5454E+06     4.61309E+06         53.1201
            1065     6.98177E-03     11.1410E-03     69.9482E-03     53.9526E-03    -304.384E-03     67.2222E-03    -302.190E-03     54.4847E-03     50.7460E-03     307.254E-03    -137.639E-03    -169.616E-03    -168.823E-03     306.461E-03    -137.639E-03    -38.1492E-03     9.99061E+06    -36.5893E+06    -82.5659E+06    -82.0120E+06    -37.1432E+06     9.99061E+06     4.85255E+06         51.3122
            1066     6.13187E-03     11.1497E-03     67.0781E-03     53.8205E-03    -300.768E-03     64.7372E-03    -298.427E-03     53.8205E-03     50.8063E-03     293.021E-03    -133.847E-03    -159.174E-03    -157.911E-03     291.758E-03    -133.847E-03    -47.4339E-03    -12.0040E+06    -73.0274E+06    -98.8464E+06    -94.1679E+06    -77.7058E+06    -12.0040E+06     3.65339E+06         49.7864
            1067     5.27346E-03     11.1646E-03     64.0961E-03     53.8166E-03    -297.073E-03     62.5963E-03    -295.579E-03     53.8225E-03     39.0489E-03     280.345E-03    -130.551E-03    -149.794E-03    -148.243E-03     278.793E-03    -130.551E-03    -51.5196E-03    -37.4567E+06    -106.609E+06    -132.706E+06    -107.422E+06    -131.893E+06    -37.4567E+06     1.80911E+06         48.5013
            1068     4.40611E-03     11.1790E-03     62.0376E-03     54.0984E-03    -294.579E-03     61.3157E-03    -293.863E-03     54.1044E-03     26.6348E-03     269.356E-03    -127.747E-03    -141.609E-03    -140.030E-03     267.776E-03    -127.747E-03    -50.8529E-03    -62.2650E+06    -119.693E+06    -180.454E+06    -119.724E+06    -180.423E+06    -62.2650E+06     1.09836E+06         47.4269
            1069     3.53308E-03     11.1951E-03     61.0062E-03     54.2467E-03    -292.865E-03     60.7157E-03    -292.574E-03     54.2467E-03     15.1804E-03     259.907E-03    -125.454E-03    -134.452E-03    -133.092E-03     258.546E-03    -125.454E-03    -46.1724E-03    -87.3091E+06    -130.957E+06    -223.930E+06    -130.984E+06    -223.904E+06    -87.3091E+06     1.40975E+06         46.5463
            1070     2.65422E-03     11.2056E-03     58.6132E-03     54.0930E-03    -289.610E-03     58.5539E-03    -289.551E-03     54.0930E-03     459.807E-06     252.285E-03    -123.725E-03    -128.559E-03    -127.609E-03     251.335E-03    -123.725E-03    -37.7190E-03    -112.860E+06    -140.658E+06    -259.157E+06    -140.701E+06    -259.113E+06    -112.860E+06     2.10958E+06         45.8539
            1071     1.77051E-03     11.2143E-03     56.5477E-03     53.7678E-03    -286.521E-03     56.2565E-03    -286.230E-03     53.7678E-03    -14.8898E-03     247.250E-03    -122.566E-03    -124.684E-03    -124.163E-03     246.729E-03    -122.566E-03    -27.2986E-03    -136.242E+06    -148.812E+06    -291.835E+06    -148.852E+06    -291.795E+06    -136.242E+06     1.71948E+06         45.3506
            1072     886.111E-06     11.2206E-03     61.7309E-03     46.2614E-03    -283.790E-03     61.4442E-03    -283.504E-03     46.2614E-03    -14.4960E-03     244.398E-03    -121.577E-03    -122.821E-03    -122.421E-03     244.202E-03    -121.781E-03    -15.7397E-03    -151.056E+06    -155.183E+06    -318.101E+06    -154.667E+06    -318.087E+06    -151.585E+06     345.206E+03         45.0373
            1073     14.3197E-03     10.5019E-03     121.946E-03     27.4876E-03    -343.510E-03     121.832E-03    -343.396E-03     27.4876E-03     12.1242E-03     401.821E-03    -172.833E-03    -228.989E-03    -218.159E-03     390.992E-03    -172.833E-03     161.365E-03     126.356E+06     60.1145E+06    -7.49655E+06    -7.48791E+06     60.1058E+06     126.356E+06    -366.967E+03         75.5064
            1074     13.5110E-03     10.2185E-03     108.442E-03     6.16202E-03    -310.845E-03     108.086E-03    -310.489E-03     6.16202E-03     23.4477E-03     397.427E-03    -170.036E-03    -227.390E-03    -217.694E-03     387.731E-03    -170.036E-03     149.279E-03     86.2901E+06     45.3231E+06    -13.8146E+06    -13.8039E+06     45.3124E+06     86.2901E+06    -388.545E+03         73.2437
            1075     12.7086E-03     10.0876E-03     91.0407E-03    -13.0138E-03    -275.743E-03     90.4618E-03    -275.164E-03    -13.0138E-03     28.3573E-03     387.758E-03    -166.909E-03    -220.849E-03    -216.105E-03     383.014E-03    -166.909E-03     106.970E-03     66.0412E+06     28.2006E+06    -19.6978E+06    -19.6761E+06     28.1789E+06     66.0412E+06     410.213E+03         70.4144
            1076     11.9003E-03     9.94880E-03     71.1401E-03    -29.4546E-03    -239.980E-03     70.3097E-03    -239.149E-03    -29.4546E-03     30.2991E-03     383.539E-03    -163.327E-03    -220.212E-03    -216.646E-03     379.973E-03    -163.327E-03     91.1529E-03     60.8239E+06     16.6891E+06    -26.1870E+06    -26.0973E+06     16.5994E+06     60.8239E+06     1.36975E+06         67.2507
            1077     11.1017E-03     9.86006E-03     50.4124E-03    -42.3698E-03    -206.527E-03     49.2406E-03    -203.898E-03    -43.8272E-03     31.0935E-03     376.232E-03    -159.190E-03    -217.042E-03    -215.172E-03     374.361E-03    -159.190E-03     65.5439E-03     57.2045E+06     10.5017E+06    -33.3789E+06    -33.2020E+06     10.3248E+06     57.2045E+06     2.36133E+06         64.0054
            1078     10.2936E-03     9.80387E-03     30.4779E-03    -40.5884E-03    -188.105E-03     28.5216E-03    -170.958E-03    -55.7792E-03     30.4234E-03     366.989E-03    -154.543E-03    -212.446E-03    -211.502E-03     366.045E-03    -154.543E-03     45.3074E-03     50.1417E+06     3.97342E+06    -41.2561E+06    -40.9272E+06     3.64444E+06     50.1417E+06     3.62458E+06         60.8887
            1079     9.48341E-03     9.76128E-03     15.6674E-03    -31.0295E-03    -182.284E-03     8.01633E-03    -140.168E-03    -65.4941E-03     29.6817E-03     354.789E-03    -149.525E-03    -205.264E-03    -204.953E-03     354.479E-03    -149.525E-03     23.7882E-03     41.1041E+06    -4.12878E+06    -50.6398E+06    -50.1170E+06    -4.65160E+06     41.1041E+06     4.59702E+06         58.0444
            1080     8.67022E-03     9.75192E-03     14.0823E-03    -34.3091E-03    -176.648E-03    -11.2168E-03    -112.893E-03    -72.7650E-03     32.1157E-03     339.477E-03    -144.360E-03    -195.117E-03    -195.048E-03     339.408E-03    -144.360E-03     4.70144E-03     32.7187E+06    -12.4889E+06    -60.6797E+06    -60.0630E+06    -13.1056E+06     32.7187E+06     5.23562E+06         55.5413
            1081     7.84481E-03     9.75850E-03     21.7846E-03    -45.8419E-03    -171.902E-03    -27.4122E-03    -90.8277E-03    -77.7192E-03     38.4091E-03     323.319E-03    -139.244E-03    -184.075E-03    -183.930E-03     323.174E-03    -139.244E-03    -10.3976E-03     24.3512E+06    -21.3482E+06    -71.0006E+06    -70.2578E+06    -22.0910E+06     24.3512E+06     5.81583E+06         53.3898
            1082     7.00962E-03     9.78385E-03     29.1383E-03    -55.7547E-03    -168.360E-03    -40.4715E-03    -73.7319E-03    -80.7732E-03     46.1745E-03     306.948E-03    -134.289E-03    -172.659E-03    -172.276E-03     306.565E-03    -134.289E-03    -23.3084E-03     11.3772E+06    -34.4891E+06    -83.0397E+06    -82.1951E+06    -35.3337E+06     11.3772E+06     6.14948E+06         51.5632
            1083     6.16261E-03     9.81360E-03     33.7443E-03    -62.6270E-03    -164.953E-03    -50.6237E-03    -60.7651E-03    -82.4472E-03     46.9670E-03     290.740E-03    -129.634E-03    -161.106E-03    -160.412E-03     290.046E-03    -129.634E-03    -32.8452E-03    -9.80296E+06    -69.3432E+06    -97.7402E+06    -94.8407E+06    -72.2426E+06    -9.80296E+06     5.58349E+06         50.0177
            1084     5.30513E-03     9.84820E-03     36.9436E-03    -67.7333E-03    -161.878E-03    -58.4151E-03    -50.9547E-03    -83.2979E-03     37.3984E-03     275.671E-03    -125.376E-03    -150.295E-03    -149.347E-03     274.723E-03    -125.376E-03    -38.4455E-03    -36.2298E+06    -104.846E+06    -129.376E+06    -107.539E+06    -126.682E+06    -36.2298E+06     3.89091E+06         48.7110
            1085     4.43826E-03     9.88104E-03     40.1430E-03    -72.3977E-03    -159.235E-03    -65.2333E-03    -42.5172E-03    -83.7392E-03     25.2406E-03     261.660E-03    -121.585E-03    -140.075E-03    -139.024E-03     260.610E-03    -121.585E-03    -39.9223E-03    -62.7088E+06    -120.436E+06    -178.679E+06    -120.587E+06    -178.528E+06    -62.7088E+06     2.51010E+06         47.6123
            1086     3.56227E-03     9.90926E-03     42.7145E-03    -76.3630E-03    -156.690E-03    -71.1969E-03    -35.1074E-03    -84.0342E-03     14.2694E-03     249.297E-03    -118.327E-03    -130.970E-03    -130.007E-03     248.334E-03    -118.327E-03    -37.4016E-03    -88.5566E+06    -132.997E+06    -222.857E+06    -133.065E+06    -222.789E+06    -88.5566E+06     2.19802E+06         46.7060
            1087     2.67878E-03     9.93473E-03     43.8900E-03    -79.1456E-03    -154.139E-03    -75.7029E-03    -29.1965E-03    -84.4948E-03     1.63834E-03     238.916E-03    -115.642E-03    -123.273E-03    -122.558E-03     238.200E-03    -115.642E-03    -31.5914E-03    -114.076E+06    -144.391E+06    -258.302E+06    -144.447E+06    -258.245E+06    -114.076E+06     2.08677E+06         45.9885
            1088     1.78935E-03     9.94897E-03     45.8539E-03    -82.3390E-03    -151.999E-03    -80.6066E-03    -22.7256E-03    -85.1516E-03    -11.4293E-03     230.808E-03    -113.639E-03    -117.169E-03    -116.744E-03     230.383E-03    -113.639E-03    -23.8091E-03    -137.139E+06    -153.009E+06    -288.582E+06    -153.063E+06    -288.529E+06    -137.139E+06     2.50551E+06         45.4638
            1089     895.566E-06     9.96064E-03     49.9460E-03    -86.5555E-03    -151.162E-03    -81.3976E-03    -17.8333E-03    -88.5408E-03    -12.9605E-03     225.780E-03    -112.160E-03    -113.620E-03    -113.382E-03     225.615E-03    -112.232E-03    -13.6562E-03    -154.098E+06    -159.770E+06    -313.253E+06    -159.032E+06    -313.207E+06    -154.883E+06     1.98505E+06         45.1354
            1090     14.3185E-03     9.01869E-03     122.425E-03    -72.6226E-03    -264.034E-03     122.308E-03    -263.917E-03    -72.6226E-03     10.3048E-03     400.547E-03    -172.907E-03    -227.640E-03    -216.380E-03     389.286E-03    -172.907E-03     162.625E-03     125.826E+06     60.4771E+06    -7.14845E+06    -7.13881E+06     60.4675E+06     125.826E+06    -665.975E+03         75.7433
            1091     13.5125E-03     8.75815E-03     94.6931E-03    -90.6018E-03    -219.427E-03     94.2882E-03    -211.137E-03    -98.4866E-03     21.1982E-03     395.825E-03    -170.266E-03    -225.559E-03    -214.774E-03     385.040E-03    -170.266E-03     157.185E-03     84.4965E+06     44.7361E+06    -13.5060E+06    -13.4862E+06     44.7163E+06     84.4965E+06    -248.411E+03         73.4643
            1092     12.6984E-03     8.61436E-03     64.3834E-03    -85.1403E-03    -195.104E-03     63.4646E-03    -157.167E-03    -122.159E-03     25.9857E-03     387.496E-03    -167.305E-03    -220.190E-03    -214.622E-03     381.928E-03    -167.305E-03     115.697E-03     62.8402E+06     26.0809E+06    -20.3768E+06    -20.3280E+06     26.0321E+06     62.8402E+06     950.317E+03         70.6160
            1093     11.8993E-03     8.48140E-03     35.1546E-03    -66.7659E-03    -184.093E-03     30.8264E-03    -103.672E-03    -142.859E-03     28.1084E-03     383.557E-03    -163.849E-03    -219.708E-03    -215.357E-03     379.206E-03    -163.849E-03     100.877E-03     58.1725E+06     14.9438E+06    -26.2903E+06    -26.1107E+06     14.7642E+06     58.1725E+06     2.56342E+06         67.4346
            1094     11.0886E-03     8.40276E-03     26.7896E-03    -68.0766E-03    -173.821E-03    -2.36290E-03    -51.6543E-03    -161.091E-03     28.1384E-03     377.047E-03    -159.803E-03    -217.244E-03    -214.772E-03     374.575E-03    -159.803E-03     75.8077E-03     55.1377E+06     8.76790E+06    -33.1192E+06    -32.6437E+06     8.29234E+06     55.1377E+06     4.21041E+06         64.1763
            1095     10.2881E-03     8.34859E-03     40.1542E-03    -77.9378E-03    -176.329E-03    -35.2101E-03    -2.57349E-03    -176.329E-03     27.1331E-03     367.376E-03    -155.235E-03    -212.141E-03    -210.657E-03     365.891E-03    -155.235E-03     57.5200E-03     49.5064E+06     2.58979E+06    -41.2325E+06    -40.4177E+06     1.77496E+06     49.5064E+06     5.72381E+06         61.0571
            1096     9.48301E-03     8.33236E-03     58.1385E-03    -82.3933E-03    -188.637E-03    -66.9144E-03     42.6596E-03    -188.637E-03     26.0104E-03     353.101E-03    -150.400E-03    -202.701E-03    -201.811E-03     352.211E-03    -150.400E-03     41.4530E-03     42.1730E+06    -3.93060E+06    -49.6304E+06    -48.5623E+06    -4.99872E+06     42.1730E+06     6.85626E+06         58.2218
            1097     8.66271E-03     8.34437E-03     85.7843E-03    -99.2775E-03    -197.998E-03    -96.2326E-03     82.7395E-03    -197.998E-03     27.4436E-03     337.705E-03    -145.535E-03    -192.170E-03    -191.614E-03     337.149E-03    -145.535E-03     29.2685E-03     34.1083E+06    -11.4291E+06    -59.1119E+06    -57.8965E+06    -12.6444E+06     34.1083E+06     7.31798E+06         55.7429
            1098     7.83610E-03     8.37682E-03     118.996E-03    -124.309E-03    -204.723E-03    -122.308E-03     116.996E-03    -204.723E-03     32.4468E-03     323.012E-03    -140.693E-03    -182.319E-03    -181.946E-03     322.639E-03    -140.693E-03     19.4981E-03     26.4732E+06    -20.7856E+06    -70.3166E+06    -69.1319E+06    -21.9703E+06     26.4732E+06     7.35102E+06         53.6348
            1099     7.00134E-03     8.42115E-03     146.264E-03    -145.623E-03    -209.188E-03    -143.638E-03     144.279E-03    -209.188E-03     38.7331E-03     308.473E-03    -135.838E-03    -172.635E-03    -172.344E-03     308.182E-03    -135.838E-03     9.85607E-03     14.9846E+06    -32.6345E+06    -81.6595E+06    -80.5440E+06    -33.7500E+06     14.9846E+06     7.23012E+06         51.8669
            1100     6.15855E-03     8.47848E-03     166.868E-03    -161.908E-03    -211.956E-03    -160.153E-03     165.113E-03    -211.956E-03     39.3759E-03     293.704E-03    -131.018E-03    -162.686E-03    -162.396E-03     293.414E-03    -131.018E-03     1.98500E-03    -6.33643E+06    -66.4192E+06    -96.7510E+06    -92.6700E+06    -70.5002E+06    -6.33643E+06     6.68995E+06         50.3872
            1101     5.30472E-03     8.53238E-03     183.505E-03    -175.322E-03    -213.630E-03    -174.251E-03     182.435E-03    -213.630E-03     31.9146E-03     278.799E-03    -126.348E-03    -152.450E-03    -152.139E-03     278.487E-03    -126.348E-03    -5.12290E-03    -32.4580E+06    -102.038E+06    -128.093E+06    -105.785E+06    -124.346E+06    -32.4580E+06     6.59979E+06         49.1449
            1102     4.44140E-03     8.58686E-03     197.569E-03    -186.941E-03    -214.535E-03    -186.464E-03     197.093E-03    -214.535E-03     21.7655E-03     264.132E-03    -121.957E-03    -142.175E-03    -141.860E-03     263.817E-03    -121.957E-03    -10.8033E-03    -59.1575E+06    -118.704E+06    -176.475E+06    -119.631E+06    -175.547E+06    -59.1575E+06     5.60666E+06         48.1026
            1103     3.56685E-03     8.63444E-03     208.830E-03    -196.234E-03    -215.011E-03    -196.100E-03     208.697E-03    -215.011E-03     12.4424E-03     250.441E-03    -117.967E-03    -132.475E-03    -132.185E-03     250.152E-03    -117.967E-03    -13.5995E-03    -85.9388E+06    -133.364E+06    -221.016E+06    -133.565E+06    -220.816E+06    -85.9388E+06     3.88803E+06         47.2412
            1104     2.68519E-03     8.67057E-03     218.066E-03    -203.861E-03    -215.352E-03    -203.812E-03     218.017E-03    -215.352E-03     1.37787E-03     238.204E-03    -114.490E-03    -123.715E-03    -123.474E-03     237.964E-03    -114.490E-03    -14.1658E-03    -112.948E+06    -146.006E+06    -256.118E+06    -146.094E+06    -256.030E+06    -112.948E+06     2.81031E+06         46.5562
            1105     1.79606E-03     8.70168E-03     225.366E-03    -209.665E-03    -215.733E-03    -209.596E-03     225.297E-03    -215.733E-03    -9.02683E-03     227.902E-03    -111.774E-03    -116.129E-03    -115.972E-03     227.745E-03    -111.774E-03    -11.3773E-03    -137.243E+06    -155.793E+06    -286.623E+06    -155.853E+06    -286.564E+06    -137.243E+06     1.33161E+06         46.0521
            1106     899.567E-06     8.71782E-03     231.552E-03    -212.338E-03    -218.008E-03    -212.231E-03     231.446E-03    -218.008E-03    -11.4838E-03     221.251E-03    -109.998E-03    -111.253E-03    -111.121E-03     221.191E-03    -110.070E-03    -6.46141E-03    -154.675E+06    -162.570E+06    -310.646E+06    -161.834E+06    -310.599E+06    -155.459E+06     1.22095E+06         45.7352
            1107     14.3180E-03     7.56814E-03     122.157E-03    -137.996E-03    -217.209E-03     122.061E-03    -189.894E-03    -165.216E-03     6.83008E-03     397.745E-03    -173.372E-03    -224.373E-03    -212.203E-03     385.576E-03    -173.372E-03     167.915E-03     124.090E+06     59.7145E+06    -8.27042E+06    -8.25776E+06     59.7018E+06     124.090E+06    -795.534E+03         75.8922
            1108     13.4941E-03     7.28455E-03     81.0817E-03    -104.397E-03    -209.478E-03     80.6571E-03    -118.839E-03    -194.611E-03     16.2452E-03     394.081E-03    -171.028E-03    -223.054E-03    -210.932E-03     381.959E-03    -171.028E-03     166.963E-03     82.3089E+06     42.4202E+06    -15.9308E+06    -15.9044E+06     42.3937E+06     82.3089E+06     334.929E+03         73.5710
            1109     12.6929E-03     7.14787E-03     49.4619E-03    -59.7541E-03    -221.947E-03     37.0977E-03    -47.3899E-03    -221.947E-03     20.0173E-03     386.115E-03    -168.378E-03    -217.738E-03    -210.959E-03     379.336E-03    -168.378E-03     127.027E-03     61.3001E+06     24.2942E+06    -21.8262E+06    -21.7806E+06     24.2485E+06     61.3001E+06     1.39988E+06         70.6707
            1110     11.8756E-03     7.01870E-03     51.0436E-03    -36.0414E-03    -246.133E-03    -7.22062E-03     22.2228E-03    -246.133E-03     21.1471E-03     382.301E-03    -165.239E-03    -217.062E-03    -211.864E-03     377.103E-03    -165.239E-03     109.726E-03     56.2918E+06     12.1079E+06    -27.4475E+06    -27.2532E+06     11.9136E+06     56.2918E+06     2.46950E+06         67.4381
            1111     11.0756E-03     6.93773E-03     92.9090E-03    -55.2616E-03    -267.412E-03    -51.6120E-03     89.2595E-03    -267.412E-03     20.2818E-03     371.343E-03    -161.712E-03    -209.631E-03    -206.494E-03     368.207E-03    -161.712E-03     84.5377E-03     53.7584E+06     5.72437E+06    -33.4480E+06    -32.8938E+06     5.17015E+06     53.7584E+06     4.49408E+06         64.1386
            1112     10.2630E-03     6.90473E-03     153.017E-03    -95.8490E-03    -285.314E-03    -95.2064E-03     152.375E-03    -285.314E-03     19.6259E-03     357.421E-03    -158.127E-03    -199.295E-03    -196.717E-03     354.844E-03    -158.127E-03     74.4082E-03     48.7059E+06     841.827E+03    -40.2951E+06    -39.1963E+06    -257.056E+03     48.7059E+06     6.50944E+06         60.9964
            1113     9.43952E-03     6.90976E-03     210.563E-03    -136.937E-03    -300.037E-03    -136.578E-03     210.204E-03    -300.037E-03     19.2742E-03     344.705E-03    -154.644E-03    -190.061E-03    -187.704E-03     342.348E-03    -154.644E-03     69.0307E-03     42.4254E+06    -4.16930E+06    -48.3444E+06    -46.7570E+06    -5.75670E+06     42.4254E+06     8.16702E+06         58.1764
            1114     8.61533E-03     6.94430E-03     262.215E-03    -175.064E-03    -311.738E-03    -174.744E-03     261.896E-03    -311.738E-03     21.5997E-03     333.619E-03    -151.196E-03    -182.423E-03    -180.123E-03     331.319E-03    -151.196E-03     65.5302E-03     36.0115E+06    -10.2403E+06    -57.4833E+06    -55.7224E+06    -12.0012E+06     36.0115E+06     8.91115E+06         55.7671
            1115     7.78324E-03     6.99342E-03     307.510E-03    -209.493E-03    -320.723E-03    -209.105E-03     307.122E-03    -320.723E-03     26.7722E-03     323.099E-03    -147.713E-03    -175.386E-03    -173.152E-03     320.866E-03    -147.713E-03     61.8724E-03     31.0681E+06    -17.6422E+06    -66.6325E+06    -65.2613E+06    -19.0134E+06     31.0681E+06     7.96272E+06         53.7768
            1116     6.94506E-03     7.05987E-03     345.484E-03    -239.012E-03    -327.266E-03    -238.521E-03     344.993E-03    -327.266E-03     31.8382E-03     313.280E-03    -144.101E-03    -169.179E-03    -167.156E-03     311.257E-03    -144.101E-03     56.6980E-03     20.6177E+06    -33.3081E+06    -77.5370E+06    -76.3368E+06    -34.5083E+06     20.6177E+06     7.06896E+06         52.1594
            1117     6.10105E-03     7.13183E-03     376.376E-03    -263.592E-03    -331.725E-03    -263.113E-03     375.896E-03    -331.725E-03     33.0879E-03     303.621E-03    -140.272E-03    -163.349E-03    -161.634E-03     301.906E-03    -140.272E-03     50.4676E-03    -588.148E+03    -67.0804E+06    -96.5899E+06    -89.6146E+06    -74.0557E+06    -588.148E+03     8.49269E+06         50.8463
            1118     5.25332E-03     7.20771E-03     401.017E-03    -283.607E-03    -334.551E-03    -283.312E-03     400.722E-03    -334.551E-03     26.6634E-03     292.798E-03    -136.264E-03    -156.534E-03    -155.187E-03     291.451E-03    -136.264E-03     42.5147E-03    -25.7756E+06    -99.4526E+06    -129.640E+06    -104.253E+06    -124.840E+06    -25.7756E+06     9.22300E+06         49.7702
            1119     4.39662E-03     7.28056E-03     420.420E-03    -299.612E-03    -336.230E-03    -299.480E-03     420.288E-03    -336.230E-03     18.2591E-03     281.332E-03    -132.195E-03    -149.138E-03    -148.128E-03     280.323E-03    -132.195E-03     33.8912E-03    -51.3811E+06    -117.116E+06    -174.304E+06    -118.533E+06    -172.887E+06    -51.3811E+06     8.00986E+06         48.8811
            1120     3.53446E-03     7.34515E-03     436.417E-03    -313.080E-03    -337.115E-03    -313.030E-03     436.367E-03    -337.115E-03     10.6318E-03     269.262E-03    -128.231E-03    -141.031E-03    -140.366E-03     268.597E-03    -128.231E-03     24.7130E-03    -79.0769E+06    -132.163E+06    -218.367E+06    -132.603E+06    -217.927E+06    -79.0769E+06     5.41566E+06         48.1505
            1121     2.66095E-03     7.40083E-03     448.742E-03    -323.505E-03    -337.401E-03    -323.493E-03     448.730E-03    -337.401E-03     430.804E-06     257.276E-03    -124.692E-03    -132.584E-03    -132.202E-03     256.894E-03    -124.692E-03     16.3223E-03    -106.987E+06    -145.133E+06    -252.919E+06    -145.230E+06    -252.822E+06    -106.987E+06     2.14360E+06         47.5683
            1122     1.77845E-03     7.44367E-03     457.299E-03    -330.651E-03    -337.362E-03    -330.628E-03     457.276E-03    -337.362E-03    -7.73214E-03     247.725E-03    -121.837E-03    -125.888E-03    -125.722E-03     247.560E-03    -121.837E-03     9.51975E-03    -134.206E+06    -155.569E+06    -285.145E+06    -155.612E+06    -285.102E+06    -134.206E+06    -394.998E+03         47.1376
            1123     890.845E-06     7.47147E-03     463.053E-03    -333.783E-03    -338.450E-03    -334.466E-03     463.023E-03    -337.737E-03    -9.57006E-03     240.859E-03    -119.625E-03    -121.234E-03    -121.193E-03     240.818E-03    -119.625E-03     4.62933E-03    -155.634E+06    -163.658E+06    -311.995E+06    -162.957E+06    -311.942E+06    -156.387E+06    -1.75907E+06         46.8652
            1124     14.2924E-03     6.08534E-03     121.615E-03    -124.298E-03    -246.475E-03     121.568E-03    -124.251E-03    -246.475E-03     715.432E-06     393.667E-03    -174.487E-03    -219.180E-03    -204.863E-03     379.350E-03    -174.487E-03     179.548E-03     123.223E+06     59.1848E+06    -9.42436E+06    -9.40361E+06     59.1641E+06     123.223E+06     330.942E+03         75.9227
            1125     13.4891E-03     5.83269E-03     72.1211E-03    -41.0900E-03    -278.544E-03     68.0852E-03    -37.0542E-03    -278.544E-03     7.62040E-03     396.594E-03    -172.544E-03    -224.050E-03    -209.111E-03     381.655E-03    -172.544E-03     185.538E-03     80.7841E+06     40.4556E+06    -17.8784E+06    -17.8576E+06     40.4347E+06     80.7841E+06     791.025E+03         73.5329
            1126     12.6582E-03     5.68314E-03     70.1902E-03    -7.63583E-03    -308.473E-03     13.7681E-03     48.7863E-03    -308.473E-03     9.62327E-03     388.397E-03    -170.101E-03    -218.296E-03    -210.674E-03     380.775E-03    -170.101E-03     134.370E-03     60.2742E+06     22.8337E+06    -23.1680E+06    -23.0184E+06     22.6841E+06     60.2742E+06     1.85884E+06         70.5608
            1127     11.8588E-03     5.54624E-03     132.421E-03    -41.4530E-03    -334.941E-03    -40.9842E-03     131.953E-03    -334.941E-03     10.9539E-03     373.630E-03    -167.482E-03    -206.148E-03    -200.934E-03     368.416E-03    -167.482E-03     108.589E-03     55.6216E+06     10.6026E+06    -28.6080E+06    -28.3448E+06     10.3394E+06     55.6216E+06     2.85268E+06         67.2549
            1128     11.0371E-03     5.49601E-03     212.151E-03    -95.7411E-03    -358.317E-03    -95.5844E-03     211.994E-03    -358.317E-03     11.4592E-03     354.647E-03    -165.301E-03    -189.345E-03    -185.300E-03     350.602E-03    -165.301E-03     93.0993E-03     52.1588E+06     2.84879E+06    -34.9936E+06    -34.6182E+06     2.47340E+06     52.1588E+06     3.63160E+06         63.8797
            1129     10.2030E-03     5.48748E-03     286.943E-03    -148.171E-03    -378.562E-03    -148.069E-03     286.841E-03    -378.562E-03     11.7981E-03     341.385E-03    -162.384E-03    -179.001E-03    -173.440E-03     337.186E-03    -163.746E-03     92.2981E-03     47.0131E+06    -2.62734E+06    -41.3614E+06    -40.5228E+06    -3.46597E+06     47.0131E+06     5.45629E+06         60.6982
            1130     9.36485E-03     5.50516E-03     356.520E-03    -198.213E-03    -395.981E-03    -198.127E-03     356.434E-03    -395.981E-03     12.7889E-03     333.233E-03    -158.787E-03    -174.447E-03    -166.049E-03     328.678E-03    -162.629E-03     94.1808E-03     42.9566E+06    -5.89437E+06    -48.0354E+06    -46.6166E+06    -7.31310E+06     42.9566E+06     7.48317E+06         57.9145
            1131     8.52108E-03     5.55126E-03     419.892E-03    -244.828E-03    -410.607E-03    -244.722E-03     419.786E-03    -410.607E-03     15.7872E-03     328.787E-03    -156.795E-03    -171.992E-03    -162.041E-03     323.727E-03    -161.685E-03     98.2974E-03     40.3360E+06    -9.06992E+06    -55.1566E+06    -53.7521E+06    -10.4745E+06     40.3360E+06     7.77391E+06         55.6259
            1132     7.67774E-03     5.61363E-03     475.987E-03    -286.859E-03    -422.554E-03    -286.693E-03     475.821E-03    -422.554E-03     21.4647E-03     326.225E-03    -156.540E-03    -169.685E-03    -160.115E-03     320.797E-03    -160.682E-03     101.395E-03     37.6087E+06    -15.4024E+06    -63.7750E+06    -62.7097E+06    -16.4678E+06     37.6087E+06     7.02151E+06         53.8279
            1133     6.83426E-03     5.68943E-03     525.094E-03    -324.499E-03    -431.952E-03    -324.290E-03     524.885E-03    -431.952E-03     25.8029E-03     324.406E-03    -156.555E-03    -167.850E-03    -159.574E-03     319.002E-03    -159.427E-03     100.771E-03     27.3936E+06    -36.7519E+06    -76.3830E+06    -74.4447E+06    -38.6902E+06     27.3936E+06     7.61149E+06         52.4510
            1134     5.99203E-03     5.76934E-03     566.173E-03    -356.532E-03    -438.950E-03    -356.323E-03     565.964E-03    -438.950E-03     26.6875E-03     322.113E-03    -156.076E-03    -166.037E-03    -159.321E-03     317.124E-03    -157.803E-03     96.3048E-03     8.64349E+06    -70.5831E+06    -96.0819E+06    -86.9498E+06    -79.7151E+06     8.64349E+06     8.46110E+06         51.4007
            1135     5.14725E-03     5.85800E-03     599.376E-03    -382.995E-03    -443.824E-03    -382.858E-03     599.239E-03    -443.824E-03     21.4913E-03     318.862E-03    -155.176E-03    -163.686E-03    -158.780E-03     314.544E-03    -155.764E-03     89.0162E-03    -14.5090E+06    -95.2263E+06    -128.481E+06    -98.5772E+06    -125.130E+06    -14.5090E+06     7.12825E+06         50.5879
            1136     4.30175E-03     5.94117E-03     625.803E-03    -404.546E-03    -446.950E-03    -404.489E-03     625.746E-03    -446.950E-03     14.3456E-03     314.036E-03    -153.371E-03    -160.665E-03    -157.220E-03     310.591E-03    -153.371E-03     78.8632E-03    -39.8989E+06    -108.827E+06    -173.520E+06    -109.520E+06    -172.827E+06    -39.8989E+06     4.60712E+06         49.9447
            1137     3.45062E-03     6.02010E-03     645.707E-03    -420.969E-03    -448.727E-03    -420.949E-03     645.687E-03    -448.727E-03     7.76423E-03     307.592E-03    -150.795E-03    -156.797E-03    -154.387E-03     305.181E-03    -150.795E-03     65.0462E-03    -67.1535E+06    -119.101E+06    -215.252E+06    -119.413E+06    -214.940E+06    -67.1535E+06     2.27479E+06         49.4283
            1138     2.59529E-03     6.09177E-03     660.393E-03    -433.141E-03    -449.602E-03    -433.134E-03     660.386E-03    -449.602E-03    -1.40510E-03     300.794E-03    -148.275E-03    -152.520E-03    -151.065E-03     299.340E-03    -148.275E-03     49.6710E-03    -96.6145E+06    -130.006E+06     -251.54E+06    -130.059E+06    -251.487E+06    -96.6145E+06    -18.3066E+03         49.0195
            1139     1.73484E-03     6.14292E-03     671.569E-03    -442.267E-03    -449.868E-03    -442.256E-03     671.558E-03    -449.868E-03    -6.24208E-03     294.518E-03    -146.059E-03    -148.459E-03    -147.746E-03     293.813E-03    -146.067E-03     33.2729E-03    -123.707E+06    -140.941E+06    -286.825E+06    -140.952E+06    -286.814E+06    -123.707E+06    -334.854E+03         48.7162
            1140     870.656E-06     6.17944E-03     677.911E-03    -446.885E-03    -449.945E-03    -447.571E-03     677.883E-03    -449.231E-03    -9.90452E-03     289.540E-03    -144.211E-03    -145.328E-03    -145.094E-03     289.313E-03    -144.219E-03     17.6814E-03    -143.296E+06    -149.331E+06    -314.884E+06    -148.244E+06    -314.832E+06    -144.435E+06    -373.530E+03         48.5224
            1141     14.2797E-03     4.65626E-03     120.156E-03    -67.7438E-03    -313.308E-03     119.906E-03    -67.4943E-03    -313.308E-03    -9.28563E-03     399.604E-03    -176.446E-03    -223.159E-03    -204.024E-03     380.469E-03    -176.446E-03     210.662E-03     124.728E+06     58.3489E+06    -10.8552E+06    -10.7811E+06     58.2748E+06     124.728E+06     1.89678E+06         75.8439
            1142     13.4281E-03     4.35546E-03     83.3192E-03     5.16939E-03    -347.071E-03     59.2193E-03     29.2693E-03    -347.071E-03    -5.02519E-03     409.906E-03    -174.403E-03    -235.504E-03    -220.616E-03     395.019E-03    -174.403E-03     181.978E-03     80.2185E+06     38.3795E+06    -18.5951E+06    -18.5126E+06     38.2970E+06     80.2185E+06      1.8673E+06         73.4117
            1143     12.6495E-03     4.19019E-03     124.549E-03    -2.86813E-03    -378.002E-03    -2.77219E-03     124.453E-03    -378.002E-03    -1.31856E-03     380.665E-03    -171.983E-03    -208.682E-03    -203.160E-03     375.144E-03    -171.983E-03     110.153E-03     58.5366E+06     21.6744E+06    -22.7916E+06    -22.6405E+06     21.5232E+06     58.5366E+06     1.79102E+06         70.3936
            1144     11.8232E-03     4.11599E-03     218.787E-03    -66.9339E-03    -405.642E-03    -66.9123E-03     218.766E-03    -405.642E-03     1.45178E-03     351.127E-03    -166.348E-03    -184.778E-03    -175.923E-03     346.558E-03    -170.635E-03     98.1038E-03     51.6566E+06     9.07972E+06    -28.9118E+06    -28.5408E+06     8.70871E+06     51.6566E+06     3.10612E+06         66.9947
            1145     10.9735E-03     4.08899E-03     310.155E-03    -130.486E-03    -430.862E-03    -130.463E-03     310.132E-03    -430.862E-03     3.13314E-03     333.507E-03    -158.668E-03    -174.839E-03    -158.172E-03     328.866E-03    -170.694E-03     95.4334E-03     49.8975E+06     1.75658E+06    -35.4524E+06    -34.9291E+06     1.23329E+06     49.8975E+06     4.16723E+06         63.5238
            1146     10.1192E-03     4.09176E-03     397.172E-03    -192.256E-03    -453.615E-03    -192.239E-03     397.155E-03    -453.615E-03     4.44455E-03     325.778E-03    -153.306E-03    -172.472E-03    -148.783E-03     320.528E-03    -171.746E-03     99.6336E-03     47.0388E+06    -3.75134E+06    -42.1774E+06    -41.7003E+06    -4.22851E+06     47.0388E+06     3.97538E+06         60.3157
            1147     9.25720E-03     4.12380E-03     478.284E-03    -250.674E-03    -473.942E-03    -250.654E-03     478.263E-03    -473.942E-03     6.07155E-03     324.024E-03    -150.582E-03    -173.442E-03    -144.565E-03     318.006E-03    -173.442E-03     106.089E-03     44.0364E+06    -7.04620E+06    -48.0543E+06    -47.5648E+06    -7.53574E+06     44.0364E+06     3.24981E+06         57.6038
            1148     8.39634E-03     4.16824E-03     552.659E-03    -304.950E-03    -491.777E-03    -304.917E-03     552.626E-03    -491.777E-03     9.43372E-03     327.103E-03    -151.609E-03    -175.494E-03    -144.998E-03     320.492E-03    -175.494E-03     111.710E-03     44.2308E+06    -8.76221E+06    -53.5100E+06    -53.0261E+06    -9.24613E+06     44.2308E+06     3.18394E+06         55.4833
            1149     7.53933E-03     4.23087E-03     619.861E-03    -354.724E-03    -507.052E-03    -354.661E-03     619.797E-03    -507.052E-03     14.8003E-03     333.282E-03    -155.709E-03    -177.573E-03    -148.662E-03     326.235E-03    -177.573E-03     116.543E-03     41.3907E+06    -17.0283E+06    -60.8343E+06    -60.4211E+06    -17.4415E+06     41.3907E+06     3.54777E+06         53.9321
            1150     6.68936E-03     4.29885E-03     678.730E-03    -398.800E-03    -519.749E-03    -398.708E-03     678.638E-03    -519.749E-03     18.9948E-03     340.277E-03    -160.856E-03    -179.421E-03    -153.702E-03     333.123E-03    -179.421E-03     118.869E-03     28.8097E+06    -40.1459E+06    -70.7580E+06    -68.1923E+06    -42.7116E+06     28.8097E+06     3.01642E+06         52.8542
            1151     5.84389E-03     4.38209E-03     729.025E-03    -436.991E-03    -529.925E-03    -436.909E-03     728.943E-03    -529.925E-03     18.2745E-03     347.131E-03    -166.227E-03    -180.903E-03    -159.363E-03     340.267E-03    -180.903E-03     117.888E-03     9.78693E+06    -66.9486E+06    -90.8660E+06    -75.0412E+06    -82.7734E+06     9.78693E+06     727.537E+03         52.1284
            1152     5.00447E-03     4.46431E-03     770.955E-03    -469.264E-03    -537.739E-03    -469.217E-03     770.908E-03    -537.739E-03     14.0672E-03     353.433E-03    -171.310E-03    -182.123E-03    -165.334E-03     347.240E-03    -181.906E-03     113.235E-03    -13.1496E+06    -80.9737E+06    -128.951E+06    -81.6484E+06    -128.276E+06    -13.1496E+06    -1.00354E+06         51.6422
            1153     4.16898E-03     4.55028E-03     804.925E-03    -495.813E-03    -543.388E-03    -495.792E-03     804.904E-03    -543.388E-03     9.87475E-03     358.011E-03    -175.207E-03    -182.803E-03    -170.564E-03     352.952E-03    -182.387E-03     103.160E-03    -38.5363E+06    -88.5287E+06    -176.310E+06    -88.7632E+06    -176.076E+06    -38.5363E+06    -2.09366E+06         51.3073
            1154     3.33543E-03     4.63311E-03     830.978E-03    -516.439E-03    -547.149E-03    -516.432E-03     830.971E-03    -547.149E-03     5.03394E-03     360.917E-03    -177.825E-03    -183.092E-03    -174.833E-03     357.233E-03    -182.400E-03     88.4046E-03    -63.3732E+06    -97.0260E+06    -218.144E+06    -97.0789E+06    -218.091E+06    -63.3732E+06    -2.26416E+06         51.0649
            1155     2.50319E-03     4.70397E-03     850.077E-03    -531.683E-03    -549.452E-03    -531.677E-03     850.071E-03    -549.452E-03    -2.89245E-03     362.227E-03    -179.166E-03    -183.061E-03    -177.851E-03     359.914E-03    -182.063E-03     69.9288E-03    -86.9758E+06    -105.538E+06    -256.617E+06    -105.561E+06    -256.595E+06    -86.9758E+06    -156.050E+03         50.8826
            1156     1.67040E-03     4.76421E-03     863.135E-03    -541.878E-03    -550.840E-03    -541.872E-03     863.129E-03    -550.840E-03    -5.09413E-03     362.122E-03    -179.919E-03    -182.203E-03    -179.245E-03     360.944E-03    -181.699E-03     49.3983E-03    -104.859E+06    -112.573E+06    -290.321E+06    -112.603E+06    -290.290E+06    -104.859E+06     1.93341E+06         50.7486
            1157     833.331E-06     4.80270E-03     872.420E-03    -547.772E-03    -552.412E-03    -547.747E-03     872.394E-03    -552.412E-03    -9.46235E-03     362.444E-03    -180.402E-03    -182.042E-03    -181.011E-03     362.036E-03    -181.026E-03     27.3774E-03    -116.272E+06    -119.055E+06    -313.408E+06    -118.720E+06    -313.358E+06    -116.658E+06     3.00497E+06         50.6622
            1158     14.1914E-03     3.14981E-03     121.708E-03    -26.8611E-03    -363.200E-03     121.094E-03    -26.2466E-03    -363.200E-03    -17.6286E-03     426.490E-03    -177.902E-03    -248.588E-03    -230.187E-03     408.089E-03    -177.902E-03     205.329E-03     134.532E+06     58.5362E+06    -9.40765E+06    -9.20383E+06     58.3324E+06     134.532E+06     1.88756E+06         75.8617
            1159     13.4592E-03     2.82093E-03     109.094E-03     21.7553E-03    -396.870E-03     56.3511E-03     74.4984E-03    -396.870E-03    -10.6605E-03     400.374E-03    -171.748E-03    -228.626E-03    -217.923E-03     393.109E-03    -175.186E-03     116.257E-03     87.2932E+06     40.4948E+06    -14.3419E+06    -14.1404E+06     40.2934E+06     87.2932E+06     1.73145E+06         73.4898
            1160     12.6303E-03     2.76417E-03     178.255E-03    -13.8623E-03    -427.663E-03    -13.7615E-03     178.154E-03    -427.663E-03    -6.55894E-03     349.608E-03    -163.878E-03    -185.730E-03    -172.870E-03     346.657E-03    -173.787E-03     77.5676E-03     54.5750E+06     20.3330E+06    -22.4300E+06    -22.0547E+06     19.9577E+06     54.5750E+06     3.14487E+06         70.4262
            1161     11.7683E-03     2.72045E-03     281.129E-03    -85.0600E-03    -456.423E-03    -85.0436E-03     281.112E-03    -456.423E-03    -4.21566E-03     327.316E-03    -152.463E-03    -174.854E-03    -149.056E-03     323.662E-03    -174.606E-03     83.1909E-03     45.7660E+06     7.32085E+06    -29.0306E+06    -28.5329E+06     6.82316E+06     45.7660E+06     3.44974E+06         66.9164
            1162     10.9018E-03     2.70928E-03     382.413E-03    -156.431E-03    -483.545E-03    -156.427E-03     382.408E-03    -483.545E-03    -2.42057E-03     316.334E-03    -139.372E-03    -176.962E-03    -135.554E-03     312.515E-03    -176.962E-03     82.6024E-03     46.0116E+06     2.04866E+06    -33.6565E+06    -33.2597E+06     1.65187E+06     46.0116E+06     3.20664E+06         63.3714
            1163     10.0216E-03     2.72498E-03     479.836E-03    -225.984E-03    -508.727E-03    -225.982E-03     479.834E-03    -508.727E-03    -1.45027E-03     314.448E-03    -134.024E-03    -180.424E-03    -129.677E-03     310.101E-03    -180.424E-03     87.1716E-03     42.7067E+06    -1.13961E+06    -38.5807E+06    -38.3988E+06    -1.32144E+06     42.7067E+06     1.56880E+06         60.1682
            1164     9.14450E-03     2.74832E-03     571.331E-03    -291.914E-03    -531.769E-03    -291.912E-03     571.329E-03    -531.769E-03    -361.283E-06     320.068E-03    -135.434E-03    -184.634E-03    -130.610E-03     315.244E-03    -184.634E-03     92.2818E-03     35.6167E+06    -5.05426E+06    -44.4864E+06    -44.3644E+06    -5.17621E+06     35.6167E+06    -997.334E+03         57.5563
            1165     8.27187E-03     2.78828E-03     655.542E-03    -353.129E-03    -552.478E-03    -353.123E-03     655.535E-03    -552.478E-03     3.52643E-03     329.969E-03    -140.683E-03    -189.286E-03    -135.600E-03     324.887E-03    -189.286E-03     96.0699E-03     28.9317E+06    -9.10069E+06    -50.6002E+06    -50.3183E+06    -9.38254E+06     28.9317E+06    -2.31916E+06         55.6246
            1166     7.40616E-03     2.83212E-03     731.248E-03    -408.501E-03    -570.752E-03    -408.484E-03     731.230E-03    -570.752E-03     7.93657E-03     342.154E-03    -147.989E-03    -194.165E-03    -142.736E-03     336.901E-03    -194.165E-03     99.4667E-03     18.5431E+06    -16.8726E+06    -55.9095E+06    -55.1074E+06    -17.6746E+06     18.5431E+06    -3.16759E+06         54.3291
            1167     6.54770E-03     2.88994E-03     797.806E-03    -457.355E-03    -586.582E-03    -457.327E-03     797.778E-03    -586.582E-03     10.9228E-03     356.436E-03    -157.337E-03    -199.099E-03    -152.063E-03     351.162E-03    -199.099E-03     101.897E-03     2.04504E+06    -37.6039E+06    -64.4653E+06    -58.5318E+06    -43.5373E+06     2.04504E+06    -6.31941E+06         53.5514
            1168     5.70015E-03     2.95222E-03     855.855E-03    -500.134E-03    -600.003E-03    -500.109E-03     855.830E-03    -600.003E-03     10.7757E-03     372.294E-03    -168.406E-03    -203.888E-03    -163.280E-03     367.168E-03    -203.888E-03     102.981E-03    -14.8448E+06    -57.2822E+06    -92.4803E+06    -61.7862E+06    -87.9764E+06    -14.8448E+06    -8.72461E+06         53.1500
            1169     4.86305E-03     3.02006E-03     905.676E-03    -537.098E-03    -611.064E-03    -537.085E-03     905.663E-03    -611.064E-03     7.95210E-03     388.046E-03    -179.729E-03    -208.317E-03    -175.039E-03     383.356E-03    -208.317E-03     100.827E-03    -30.7204E+06    -64.4891E+06    -139.637E+06    -65.4896E+06    -138.637E+06    -30.7204E+06    -7.60877E+06         52.9928
            1170     4.03543E-03     3.09046E-03     946.959E-03    -567.878E-03    -619.844E-03    -567.872E-03     946.953E-03    -619.844E-03     4.62522E-03     402.955E-03    -190.750E-03    -212.205E-03    -186.821E-03     399.026E-03    -212.205E-03     94.3665E-03    -46.9463E+06    -70.4511E+06    -186.469E+06    -70.6979E+06    -186.222E+06    -46.9463E+06    -4.33776E+06         52.9737
            1171     3.21835E-03     3.15886E-03     980.104E-03    -592.777E-03    -626.506E-03    -592.775E-03     980.101E-03    -626.506E-03     683.390E-06     416.161E-03    -200.726E-03    -215.435E-03    -197.748E-03     413.183E-03    -215.435E-03     83.7326E-03    -62.1991E+06    -77.1734E+06    -228.141E+06    -77.2216E+06    -228.093E+06    -62.1991E+06    -856.659E+03         53.0174
            1172     2.40741E-03     3.22224E-03         1.00524    -611.761E-03    -631.279E-03    -611.756E-03         1.00523    -631.279E-03    -4.25434E-03     426.930E-03    -208.931E-03    -217.999E-03    -207.003E-03     425.003E-03    -217.999E-03     68.0276E-03    -72.8638E+06    -82.8024E+06    -265.193E+06    -82.8430E+06    -265.153E+06    -72.8638E+06     1.94102E+06         53.0766
            1173     1.60047E-03     3.27544E-03         1.02304    -625.345E-03    -634.408E-03    -625.341E-03         1.02303    -634.408E-03    -4.10925E-03     435.322E-03    -215.454E-03    -219.867E-03    -214.475E-03     434.342E-03    -219.867E-03     48.3107E-03    -81.5077E+06    -87.7884E+06    -291.294E+06    -87.8874E+06    -291.195E+06    -81.5077E+06     4.28645E+06         53.1271
            1174     800.343E-06     3.30678E-03         1.03382    -632.650E-03    -636.938E-03    -633.408E-03         1.03380    -636.160E-03    -8.64086E-03     440.690E-03    -218.952E-03    -221.738E-03    -219.444E-03     440.349E-03    -220.904E-03     27.5028E-03    -89.7548E+06    -92.1095E+06    -303.462E+06    -92.2050E+06    -303.367E+06    -89.7548E+06     3.29680E+06         53.1604
            1175     14.2896E-03     1.50695E-03     126.693E-03    -4.81685E-03    -394.935E-03     126.255E-03    -4.37881E-03    -394.935E-03    -13.3727E-03     467.881E-03    -178.779E-03    -289.101E-03    -276.797E-03     455.576E-03    -178.779E-03     175.716E-03     145.970E+06     58.4922E+06    -5.60922E+06    -4.73246E+06     57.6154E+06     145.970E+06     3.40967E+06         76.4085
            1176     13.4671E-03     1.42261E-03     124.926E-03     31.4286E-03    -426.457E-03     55.1168E-03     101.237E-03    -426.457E-03    -6.70234E-03     370.000E-03    -167.809E-03    -202.192E-03    -192.279E-03     367.793E-03    -175.514E-03     69.2454E-03     95.3968E+06     43.3565E+06    -12.5133E+06    -11.3310E+06     42.1742E+06     95.3968E+06     5.72117E+06         74.1266
            1177     12.5879E-03     1.37045E-03     211.060E-03    -20.8978E-03    -457.116E-03    -20.8539E-03     211.016E-03    -457.116E-03    -5.40398E-03     325.121E-03    -149.404E-03    -175.717E-03    -147.761E-03     323.478E-03    -175.717E-03     52.3667E-03     57.7668E+06     23.6164E+06    -19.1803E+06    -18.4766E+06     22.9127E+06     57.7668E+06     4.61771E+06         71.0018
            1178     11.7223E-03     1.34931E-03     320.193E-03    -97.1975E-03    -486.981E-03    -97.1818E-03     320.177E-03    -486.981E-03    -3.91466E-03     310.909E-03    -132.641E-03    -178.267E-03    -130.957E-03     309.224E-03    -178.267E-03     49.7133E-03     46.5363E+06     9.14392E+06    -22.3105E+06    -22.0195E+06     8.85291E+06     46.5363E+06     1.79837E+06         67.4133
            1179     10.8341E-03     1.35387E-03     427.720E-03    -173.281E-03    -515.583E-03    -173.278E-03     427.717E-03    -515.583E-03    -2.70560E-03     306.329E-03    -124.127E-03    -182.202E-03    -122.426E-03     304.628E-03    -182.202E-03     49.9957E-03     38.1200E+06     2.97740E+06    -26.0469E+06    -26.0148E+06     2.94525E+06     38.1200E+06     410.457E+03         63.8315
            1180     9.94815E-03     1.36304E-03     531.415E-03    -247.337E-03    -542.519E-03    -247.334E-03     531.412E-03    -542.519E-03    -2.82346E-03     310.455E-03    -123.287E-03    -187.169E-03    -121.437E-03     308.605E-03    -187.169E-03     51.7521E-03     25.4549E+06     1.30562E+06    -30.2781E+06    -30.2395E+06     1.26699E+06     25.4549E+06    -552.424E+03         60.6580
            1181     9.06152E-03     1.37699E-03     629.778E-03    -318.195E-03    -567.479E-03    -318.193E-03     629.777E-03    -567.479E-03    -1.46800E-03     319.869E-03    -126.934E-03    -192.934E-03    -125.005E-03     317.939E-03    -192.934E-03     53.1807E-03     13.2794E+06    -3.20022E+06    -35.1917E+06    -35.0516E+06    -3.07869E+06     13.0178E+06    -1.83599E+06         58.1458
            1182     8.18222E-03     1.39484E-03     720.684E-03    -384.126E-03    -590.196E-03    -384.125E-03     720.683E-03    -590.196E-03     974.008E-06     333.189E-03    -133.866E-03    -199.322E-03    -131.895E-03     331.218E-03    -199.322E-03     54.7114E-03     2.79577E+06    -9.64757E+06    -41.0811E+06    -40.7046E+06    -8.44792E+06     1.21963E+06    -3.28648E+06         56.3718
            1183     7.31059E-03     1.42304E-03     802.345E-03    -443.510E-03    -610.547E-03    -443.507E-03     802.342E-03    -610.547E-03     3.46951E-03     349.688E-03    -143.529E-03    -206.159E-03    -141.538E-03     347.697E-03    -206.159E-03     56.4929E-03    -9.42148E+06    -18.7927E+06    -47.7720E+06    -46.6646E+06    -15.8153E+06    -13.5063E+06    -5.66464E+06         55.2788
            1184     6.44851E-03     1.45327E-03     874.592E-03    -495.988E-03    -628.544E-03    -495.982E-03     874.586E-03    -628.544E-03     4.43425E-03     369.106E-03    -155.803E-03    -213.303E-03    -153.827E-03     367.130E-03    -213.303E-03     57.9548E-03    -26.7356E+06    -36.8909E+06    -62.0404E+06    -52.5140E+06    -43.6469E+06    -29.5059E+06    -8.36460E+06         54.7356
            1185     5.59871E-03     1.48712E-03     937.562E-03    -541.515E-03    -644.266E-03    -541.509E-03     937.556E-03    -644.266E-03     3.51226E-03     390.671E-03    -170.097E-03    -220.574E-03    -168.189E-03     388.763E-03    -220.574E-03     58.5232E-03    -41.3413E+06    -54.6383E+06    -100.681E+06    -58.1445E+06    -97.1746E+06    -41.3413E+06    -9.18517E+06         54.5876
            1186     4.76221E-03     1.52525E-03     992.420E-03    -581.090E-03    -657.775E-03    -581.087E-03     992.417E-03    -657.775E-03     1.65865E-03     413.235E-03    -185.526E-03    -227.709E-03    -183.778E-03     411.487E-03    -227.709E-03     57.8728E-03    -49.0931E+06    -62.7611E+06    -153.916E+06    -63.5592E+06    -153.118E+06    -49.0931E+06    -6.49224E+06         54.6899
            1187     3.94041E-03     1.56450E-03         1.03915    -614.772E-03    -669.104E-03    -614.771E-03         1.03915    -669.104E-03    -171.595E-06     435.902E-03    -201.471E-03    -234.430E-03    -199.967E-03     434.397E-03    -234.430E-03     55.4675E-03    -55.8551E+06    -67.7632E+06    -199.397E+06    -67.8671E+06    -199.293E+06    -55.8551E+06    -2.47595E+06         54.9245
            1188     3.13090E-03     1.60465E-03         1.07714    -642.004E-03    -678.391E-03    -642.003E-03         1.07714    -678.391E-03    -2.37894E-03     457.456E-03    -216.976E-03    -240.479E-03    -215.805E-03     456.284E-03    -240.479E-03     49.9779E-03    -61.2823E+06    -70.3473E+06    -237.524E+06    -70.3635E+06    -237.508E+06    -61.2823E+06     754.988E+03         55.2029
            1189     2.33466E-03     1.64295E-03         1.10782    -664.267E-03    -685.708E-03    -664.264E-03         1.10782    -685.708E-03    -4.24060E-03     476.746E-03    -231.171E-03    -245.575E-03    -230.392E-03     475.966E-03    -245.575E-03     41.7013E-03    -64.5321E+06    -72.5042E+06    -270.843E+06    -72.5549E+06    -270.792E+06    -64.5321E+06     3.09233E+06         55.4652
            1190     1.55181E-03     1.67169E-03         1.13058    -681.031E-03    -690.983E-03    -681.029E-03         1.13058    -690.983E-03    -2.85085E-03     492.021E-03    -242.648E-03    -249.373E-03    -242.243E-03     491.616E-03    -249.373E-03     30.8779E-03    -68.9707E+06    -75.3061E+06    -288.308E+06    -75.3970E+06    -288.217E+06    -68.9707E+06     3.69868E+06         55.6745
            1191     773.896E-06     1.69398E-03         1.14424    -690.542E-03    -695.062E-03    -691.305E-03         1.14423    -694.284E-03    -7.56731E-03     501.560E-03    -249.512E-03    -252.048E-03    -249.408E-03     501.416E-03    -252.008E-03     17.9429E-03    -74.9552E+06    -77.6809E+06    -292.128E+06    -77.7749E+06    -292.034E+06    -74.9552E+06     2.74352E+06         55.8111
            1192     841.377E-06     78.8567E-03     556.797E-03     407.986E-03    -947.024E-03     554.873E-03    -945.397E-03     408.283E-03    -95.2958E-03     349.326E-03    -174.306E-03    -175.020E-03    -174.755E-03     349.325E-03    -174.570E-03     81.3806E-06    -144.374E+06    -149.532E+06    -331.509E+06    -148.544E+06    -331.482E+06    -145.389E+06     1.64300E+06         50.3292
            1193     1.68099E-03     78.8561E-03     480.418E-03     477.685E-03    -939.736E-03     475.101E-03    -937.153E-03     480.418E-03    -119.636E-03     349.843E-03    -174.762E-03    -175.081E-03    -175.015E-03     349.841E-03    -174.825E-03     1.19951E-03    -129.266E+06    -143.366E+06    -309.919E+06    -143.391E+06    -309.895E+06    -129.266E+06     1.91135E+06         50.4846
            1194     2.51811E-03     78.8547E-03     477.331E-03     468.019E-03    -926.665E-03     466.421E-03    -925.067E-03     477.331E-03    -83.9838E-03     349.846E-03    -174.684E-03    -175.161E-03    -174.832E-03     349.834E-03    -175.002E-03     4.24566E-03    -109.238E+06    -135.785E+06    -279.211E+06    -135.797E+06    -279.199E+06    -109.238E+06     524.976E+03         50.7315
            1195     3.35829E-03     78.8568E-03     472.875E-03     454.263E-03    -907.894E-03     453.911E-03    -907.542E-03     472.875E-03    -43.0922E-03     349.225E-03    -174.178E-03    -175.046E-03    -174.131E-03     349.177E-03    -175.046E-03     9.38751E-03    -86.8660E+06    -126.209E+06    -238.726E+06    -126.225E+06    -238.709E+06    -86.8660E+06     303.446E+03         51.0657
            1196     4.19918E-03     78.8638E-03     466.581E-03     436.220E-03    -883.065E-03     435.959E-03    -882.804E-03     466.581E-03    -35.4856E-03     348.619E-03    -173.602E-03    -175.017E-03    -173.470E-03     348.487E-03    -175.017E-03     16.1607E-03    -60.4613E+06    -115.198E+06    -200.213E+06    -115.226E+06    -200.186E+06    -60.4613E+06     1.09152E+06         51.4818
            1197     5.04038E-03     78.8811E-03     458.046E-03     413.372E-03    -851.192E-03     413.300E-03    -851.120E-03     458.046E-03    -14.7517E-03     348.452E-03    -173.483E-03    -174.969E-03    -173.170E-03     348.139E-03    -174.969E-03     25.0410E-03    -35.0868E+06    -104.632E+06    -156.946E+06    -104.673E+06    -156.905E+06    -35.0868E+06     1.26070E+06         51.9781
            1198     5.88017E-03     78.9099E-03     447.049E-03     386.533E-03    -812.909E-03     386.419E-03    -812.795E-03     447.049E-03     14.5575E-03     348.566E-03    -173.631E-03    -174.935E-03    -172.985E-03     347.920E-03    -174.935E-03     36.1960E-03    -10.6408E+06    -86.5842E+06    -110.110E+06    -93.5490E+06    -103.145E+06    -10.6408E+06     1.10694E+06         52.5636
            1199     6.72036E-03     78.9569E-03     433.517E-03     355.303E-03    -767.713E-03     355.121E-03    -767.531E-03     433.517E-03     28.3716E-03     348.592E-03    -173.681E-03    -174.912E-03    -172.557E-03     347.469E-03    -174.912E-03     48.0319E-03     14.4241E+06    -46.1131E+06    -81.5359E+06    -81.4869E+06    -46.1621E+06     14.4241E+06     1.08667E+06         53.2686
            1200     7.56182E-03     79.0183E-03     417.455E-03     320.237E-03    -716.083E-03     319.763E-03    -715.609E-03     417.455E-03    -15.5718E-03     349.116E-03    -174.197E-03    -174.919E-03    -172.428E-03     347.315E-03    -174.887E-03     60.8963E-03     32.2272E+06    -11.5056E+06    -70.2100E+06    -70.1755E+06    -11.5401E+06     32.2272E+06     1.35730E+06         54.1561
            1201     8.40184E-03     79.0988E-03     398.973E-03     282.711E-03    -659.520E-03     281.533E-03    -658.342E-03     398.973E-03    -64.3139E-03     349.694E-03    -174.762E-03    -174.931E-03    -172.248E-03     347.101E-03    -174.853E-03     73.3601E-03     40.9507E+06    -848.791E+03    -59.7237E+06    -59.7005E+06    -871.936E+03     40.9507E+06     1.11475E+06         55.3299
            1202     9.24322E-03     79.1962E-03     378.402E-03     243.969E-03    -599.568E-03     242.443E-03    -598.041E-03     378.402E-03    -70.4624E-03     350.404E-03    -174.801E-03    -175.603E-03    -172.159E-03     346.966E-03    -174.807E-03     84.5875E-03     47.4279E+06     4.82071E+06    -50.3899E+06    -50.3663E+06     4.79720E+06     47.4279E+06     1.07461E+06         56.9295
            1203     10.0841E-03     79.3100E-03     356.078E-03     204.079E-03    -536.783E-03     202.766E-03    -535.470E-03     356.078E-03    -61.1824E-03     352.058E-03    -174.787E-03    -177.271E-03    -172.832E-03     347.619E-03    -174.787E-03     96.3642E-03     54.6512E+06     8.78733E+06    -41.8949E+06    -41.8574E+06     8.74991E+06     54.6512E+06     1.35998E+06         59.0977
            1204     10.9241E-03     79.4425E-03     332.389E-03     163.125E-03    -471.725E-03     162.484E-03    -471.085E-03     332.389E-03    -36.5655E-03     353.416E-03    -174.797E-03    -178.619E-03    -173.317E-03     348.114E-03    -174.797E-03     105.639E-03     61.2222E+06     12.3249E+06    -34.1304E+06    -34.1055E+06     12.3000E+06     61.2222E+06     1.02725E+06         61.9185
            1205     11.7646E-03     79.5827E-03     307.302E-03     122.642E-03    -405.984E-03     122.415E-03    -405.757E-03     307.302E-03    -20.9340E-03     355.821E-03    -174.784E-03    -181.037E-03    -173.874E-03     348.659E-03    -174.784E-03     122.499E-03     63.4030E+06     16.6547E+06    -27.1581E+06    -27.1335E+06     16.6301E+06     63.4030E+06     515.063E+03         65.3352
            1206     12.6069E-03     79.7652E-03     281.283E-03     83.7323E-03    -341.098E-03     83.5396E-03    -340.905E-03     281.283E-03    -5.80881E-03     356.770E-03    -174.748E-03    -182.022E-03    -174.187E-03     348.935E-03    -174.748E-03     128.809E-03     65.0399E+06     24.9318E+06    -20.6329E+06    -20.6039E+06     24.9029E+06     65.0399E+06    -228.958E+03         69.0849
            1207     13.4485E-03     79.9194E-03     253.482E-03     47.1567E-03    -277.176E-03     46.4359E-03    -276.455E-03     253.482E-03     24.5440E-03     366.009E-03    -174.784E-03    -191.225E-03    -177.880E-03     352.664E-03    -174.784E-03     165.672E-03     81.8400E+06     44.9447E+06    -15.0649E+06    -15.0387E+06     44.9184E+06     81.8400E+06     103.702E+03         72.7076
            1208     14.2875E-03     80.2116E-03     224.632E-03     13.1184E-03    -214.992E-03     12.2585E-03    -214.132E-03     224.632E-03     26.6908E-03     366.596E-03    -174.959E-03    -191.637E-03    -178.825E-03     353.784E-03    -174.959E-03     160.996E-03     124.092E+06     73.4327E+06    -8.55646E+06    -8.53619E+06     73.4124E+06     124.092E+06     530.914E+03         75.6674
            1209     838.686E-06     80.2755E-03     422.330E-03     248.045E-03    -658.680E-03     419.898E-03    -656.385E-03     248.183E-03    -92.1202E-03     350.547E-03    -174.440E-03    -176.106E-03    -175.782E-03     350.546E-03    -174.764E-03    -599.230E-06    -146.263E+06    -152.054E+06    -335.978E+06    -151.057E+06    -335.961E+06    -147.278E+06     1.08327E+06         50.3175
            1210     1.67793E-03     80.2736E-03     334.418E-03     332.249E-03    -655.006E-03     329.589E-03    -651.163E-03     333.236E-03    -119.341E-03     349.522E-03    -174.257E-03    -175.266E-03    -174.351E-03     349.520E-03    -175.168E-03     1.12363E-03    -132.217E+06    -144.406E+06    -310.727E+06    -144.417E+06    -310.715E+06    -132.217E+06     1.09173E+06         50.4732
            1211     2.52023E-03     80.2731E-03     331.302E-03     325.765E-03    -644.977E-03     323.532E-03    -642.583E-03     331.142E-03    -85.4681E-03     348.812E-03    -173.866E-03    -174.945E-03    -173.851E-03     348.796E-03    -174.945E-03     5.12439E-03    -109.825E+06    -136.175E+06    -278.061E+06    -136.178E+06    -278.058E+06    -109.825E+06     671.975E+03         50.7208
            1212     3.36043E-03     80.2731E-03     327.952E-03     315.466E-03    -630.801E-03     314.852E-03    -630.187E-03     327.952E-03    -46.3351E-03     348.701E-03    -173.864E-03    -174.837E-03    -173.810E-03     348.647E-03    -174.837E-03     10.2372E-03    -85.6332E+06    -127.225E+06    -239.925E+06    -127.247E+06    -239.904E+06    -85.6332E+06     959.883E+03         51.0561
            1213     4.20021E-03     80.2817E-03     323.271E-03     302.620E-03    -613.016E-03     302.209E-03    -612.605E-03     323.271E-03    -37.0928E-03     348.655E-03    -173.826E-03    -174.829E-03    -173.688E-03     348.517E-03    -174.829E-03     16.5884E-03    -60.8962E+06    -117.092E+06    -200.603E+06    -117.128E+06    -200.567E+06    -60.8962E+06     1.26922E+06         51.4730
            1214     5.04019E-03     80.2969E-03     316.673E-03     286.096E-03    -589.602E-03     285.967E-03    -589.474E-03     316.673E-03    -16.6899E-03     348.673E-03    -173.812E-03    -174.861E-03    -173.496E-03     348.357E-03    -174.861E-03     25.1758E-03    -34.9835E+06    -105.362E+06    -157.501E+06    -105.413E+06    -157.450E+06    -34.9835E+06     1.40162E+06         51.9696
            1215     5.88082E-03     80.3293E-03     307.897E-03     266.427E-03    -560.937E-03     266.282E-03    -560.792E-03     307.897E-03     12.5449E-03     348.707E-03    -173.823E-03    -174.884E-03    -173.188E-03     348.072E-03    -174.884E-03     35.9636E-03    -10.0961E+06    -85.6887E+06    -111.764E+06    -94.0531E+06    -103.400E+06    -10.0961E+06     1.74935E+06         52.5543
            1216     6.72109E-03     80.3733E-03     296.862E-03     243.476E-03    -526.840E-03     243.257E-03    -526.622E-03     296.862E-03     25.1410E-03     348.742E-03    -173.852E-03    -174.890E-03    -172.760E-03     347.650E-03    -174.890E-03     47.3801E-03     13.8547E+06    -45.8697E+06    -83.2460E+06    -83.0943E+06    -46.0213E+06     13.8547E+06     1.68188E+06         53.2569
            1217     7.56134E-03     80.4358E-03     283.552E-03     218.051E-03    -487.934E-03     217.324E-03    -487.206E-03     283.552E-03    -18.2227E-03     349.080E-03    -174.165E-03    -174.915E-03    -172.437E-03     347.321E-03    -174.883E-03     60.1580E-03     31.7491E+06    -11.8252E+06    -71.2731E+06    -71.2426E+06    -11.8557E+06     31.7491E+06     1.27765E+06         54.1400
            1218     8.40173E-03     80.5176E-03     268.114E-03     191.402E-03    -445.663E-03     189.449E-03    -443.710E-03     268.114E-03    -66.7408E-03     349.737E-03    -174.645E-03    -175.092E-03    -172.345E-03     347.203E-03    -174.858E-03     72.5533E-03     41.0097E+06    -603.699E+03    -59.9665E+06    -59.9405E+06    -629.731E+03     41.0097E+06     1.17097E+06         55.3076
            1219     9.24207E-03     80.6117E-03     250.844E-03     163.366E-03    -400.225E-03     160.804E-03    -397.663E-03     250.844E-03    -72.9760E-03     350.806E-03    -174.834E-03    -175.972E-03    -172.513E-03     347.347E-03    -174.834E-03     84.8129E-03     47.7426E+06     4.77659E+06    -50.7354E+06    -50.7004E+06     4.74161E+06     47.7426E+06     1.33918E+06         56.9003
            1220     10.0826E-03     80.7290E-03     231.992E-03     134.259E-03    -352.257E-03     131.980E-03    -349.977E-03     231.992E-03    -63.5907E-03     352.185E-03    -174.826E-03    -177.359E-03    -172.853E-03     347.679E-03    -174.826E-03     97.1327E-03     54.5755E+06     8.52140E+06    -42.2452E+06    -42.2105E+06     8.48672E+06     54.5755E+06     1.22517E+06         59.0641
            1221     10.9240E-03     80.8586E-03     212.047E-03     105.221E-03    -303.445E-03     104.036E-03    -302.260E-03     212.047E-03    -39.1471E-03     353.166E-03    -174.817E-03    -178.349E-03    -172.985E-03     347.802E-03    -174.817E-03     106.188E-03     61.3645E+06     13.1316E+06    -33.4858E+06    -33.4673E+06     13.1131E+06     61.3645E+06     793.294E+03         61.8878
            1222     11.7652E-03     81.0018E-03     191.009E-03     77.3681E-03    -255.050E-03     76.9320E-03    -254.614E-03     191.009E-03    -22.3614E-03     355.293E-03    -174.770E-03    -180.523E-03    -173.325E-03     348.095E-03    -174.770E-03     122.750E-03     63.8071E+06     17.9726E+06    -26.3579E+06    -26.3475E+06     17.9621E+06     63.8071E+06     172.784E+03         65.3183
            1223     12.6074E-03     81.1770E-03     169.233E-03     51.1117E-03    -207.744E-03     50.7636E-03    -207.396E-03     169.233E-03    -6.40721E-03     356.847E-03    -174.722E-03    -182.124E-03    -174.359E-03     349.081E-03    -174.722E-03     128.234E-03     64.9261E+06     25.1931E+06    -21.0070E+06    -21.0011E+06     25.1871E+06     64.9261E+06    -115.665E+03         69.0902
            1224     13.4485E-03     81.3413E-03     145.791E-03     28.5809E-03    -163.018E-03     27.2216E-03    -161.659E-03     145.791E-03     24.2522E-03     366.439E-03    -174.786E-03    -191.653E-03    -178.440E-03     353.226E-03    -174.786E-03     164.910E-03     81.5464E+06     44.5913E+06    -15.7261E+06    -15.7103E+06     44.5754E+06     81.5464E+06     606.579E+03         72.7371
            1225     14.2884E-03     81.6310E-03     121.617E-03     9.23916E-03    -120.988E-03     7.54022E-03    -119.289E-03     121.617E-03     26.9513E-03     366.223E-03    -174.973E-03    -191.250E-03    -178.526E-03     353.499E-03    -174.973E-03     160.428E-03     123.925E+06     73.5565E+06    -8.69569E+06    -8.67825E+06     73.5391E+06     123.925E+06     374.202E+03         75.7173
            1226     838.539E-06     81.6954E-03     273.449E-03     82.1032E-03    -351.475E-03     268.410E-03    -346.436E-03     82.1032E-03    -88.8503E-03     350.390E-03    -174.488E-03    -175.902E-03    -175.380E-03     350.389E-03    -175.010E-03     498.144E-06    -145.870E+06    -153.289E+06    -337.998E+06    -150.509E+06    -337.989E+06    -148.659E+06     397.559E+03         50.3075
            1227     1.67959E-03     81.6902E-03     182.022E-03     175.065E-03    -352.872E-03     172.827E-03    -343.677E-03     175.065E-03    -123.204E-03     349.237E-03    -174.173E-03    -175.063E-03    -174.172E-03     349.235E-03    -175.063E-03     1.53831E-03    -134.087E+06    -145.672E+06    -310.112E+06    -145.676E+06    -310.109E+06    -134.087E+06      71.621E+03         50.4635
            1228     2.51997E-03     81.6869E-03     177.562E-03     171.931E-03    -345.061E-03     169.888E-03    -339.439E-03     173.983E-03    -89.2699E-03     348.527E-03    -173.709E-03    -174.818E-03    -173.698E-03     348.516E-03    -174.818E-03     4.33481E-03     -111.85E+06    -137.949E+06    -278.853E+06    -137.956E+06    -278.846E+06     -111.85E+06     317.359E+03         50.7115
            1229     3.36092E-03     81.6912E-03     172.265E-03     166.584E-03    -333.937E-03     165.128E-03    -332.314E-03     172.099E-03    -49.8620E-03     348.391E-03    -173.682E-03    -174.709E-03    -173.641E-03     348.350E-03    -174.709E-03     8.83515E-03    -85.7815E+06    -128.083E+06    -241.806E+06    -128.107E+06    -241.781E+06    -85.7815E+06     1.26734E+06         51.0472
            1230     4.20146E-03     81.6974E-03     169.102E-03     159.576E-03    -323.591E-03     158.442E-03    -322.457E-03     169.102E-03    -39.5935E-03     348.728E-03    -174.002E-03    -174.727E-03    -173.870E-03     348.597E-03    -174.727E-03     15.9108E-03    -60.0392E+06    -117.329E+06    -200.473E+06    -117.381E+06    -200.422E+06    -60.0392E+06     1.63555E+06         51.4645
            1231     5.04099E-03     81.7169E-03     164.613E-03     149.179E-03    -308.671E-03     148.796E-03    -308.289E-03     164.613E-03    -19.0195E-03     349.053E-03    -174.229E-03    -174.824E-03    -173.926E-03     348.750E-03    -174.824E-03     24.7982E-03    -34.9962E+06    -106.067E+06    -158.077E+06    -106.125E+06    -158.019E+06    -34.9962E+06     1.49876E+06         51.9608
            1232     5.88041E-03     81.7451E-03     158.310E-03     136.826E-03    -290.015E-03     136.536E-03    -289.725E-03     158.310E-03     10.3338E-03     348.815E-03    -173.920E-03    -174.895E-03    -173.305E-03     348.200E-03    -174.895E-03     35.2926E-03    -10.3189E+06    -86.6597E+06    -112.306E+06    -94.1888E+06    -104.777E+06    -10.3189E+06     2.03891E+06         52.5445
            1233     6.72058E-03     81.7931E-03     150.081E-03     123.121E-03    -268.211E-03     122.666E-03    -267.757E-03     150.081E-03     23.4931E-03     348.750E-03    -173.844E-03    -174.906E-03    -172.746E-03     347.652E-03    -174.906E-03     47.4793E-03     14.4372E+06    -45.2580E+06    -82.2240E+06    -81.9272E+06    -45.5548E+06     14.4372E+06     2.31143E+06         53.2446
            1234     7.56029E-03     81.8531E-03     140.001E-03     109.775E-03    -244.923E-03     107.881E-03    -243.029E-03     140.001E-03    -18.8583E-03     349.072E-03    -174.179E-03    -174.893E-03    -172.402E-03     347.295E-03    -174.893E-03     60.4777E-03     32.0952E+06    -10.9927E+06    -70.6087E+06     -70.561E+06    -11.0404E+06     32.0952E+06     1.48752E+06         54.1235
            1235     8.40193E-03     81.9341E-03     128.204E-03     96.9118E-03    -220.481E-03     91.6546E-03    -215.224E-03     128.204E-03    -67.1196E-03     349.666E-03    -174.588E-03    -175.078E-03    -172.236E-03     347.095E-03    -174.858E-03     73.0586E-03     40.9234E+06    -988.192E+03    -60.0947E+06    -60.0665E+06    -1.01642E+06     40.9234E+06     1.24778E+06         55.2853
            1236     9.24269E-03     82.0307E-03     114.850E-03     81.9621E-03    -192.537E-03     74.3126E-03    -184.888E-03     114.850E-03    -74.3505E-03     350.824E-03    -174.827E-03    -175.997E-03    -172.490E-03     347.317E-03    -174.827E-03     85.4203E-03     48.0673E+06     4.93090E+06    -50.2858E+06    -50.2501E+06     4.89520E+06     48.0673E+06     1.38290E+06         56.8717
            1237     10.0837E-03     82.1453E-03     100.486E-03     65.2118E-03    -161.946E-03     57.6220E-03    -154.045E-03     100.174E-03    -65.7274E-03     352.072E-03    -174.810E-03    -177.262E-03    -172.688E-03     347.498E-03    -174.810E-03     97.8280E-03     55.2647E+06     9.43832E+06    -41.7716E+06    -41.7518E+06     9.41846E+06     55.2647E+06     895.142E+03         59.0320
            1238     10.9241E-03     82.2773E-03     85.0132E-03     47.1430E-03    -129.138E-03     42.3183E-03    -124.002E-03     84.7016E-03    -41.5234E-03     352.882E-03    -174.783E-03    -178.099E-03    -172.716E-03     347.499E-03    -174.783E-03     106.344E-03     61.2632E+06     13.5310E+06    -34.3312E+06    -34.3278E+06     13.5276E+06     61.2632E+06     277.189E+03         61.8591
            1239     11.7663E-03     82.4155E-03     71.4972E-03     29.4535E-03    -98.9809E-03     28.4400E-03    -94.8384E-03     68.3682E-03    -24.1977E-03     355.789E-03    -174.750E-03    -181.039E-03    -173.889E-03     348.639E-03    -174.750E-03     122.461E-03     63.5599E+06     18.0181E+06    -27.4110E+06    -27.4087E+06     18.0157E+06     63.5599E+06     186.975E+03         65.3010
            1240     12.6068E-03     82.5969E-03     61.6228E-03     15.9127E-03    -76.8999E-03     16.4837E-03    -67.3288E-03     51.4807E-03    -7.46236E-03     357.899E-03    -174.755E-03    -183.144E-03    -175.369E-03     350.125E-03    -174.755E-03     128.586E-03     64.5910E+06     25.3838E+06    -21.5909E+06    -21.5698E+06     25.3627E+06     64.5910E+06     664.396E+03         69.0912
            1241     13.4455E-03     82.7597E-03     56.7010E-03     6.14910E-03    -64.0933E-03     7.54768E-03    -42.0200E-03     33.2291E-03     22.5817E-03     365.934E-03    -174.832E-03    -191.102E-03    -177.889E-03     352.721E-03    -174.832E-03     164.745E-03     80.9656E+06     44.6552E+06    -15.5900E+06    -15.5686E+06     44.6338E+06     80.9656E+06     453.846E+03         72.7628
            1242     14.2879E-03     83.0466E-03     51.7134E-03     1.27133E-03    -56.1665E-03     2.54543E-03    -20.3134E-03     14.5862E-03     25.6768E-03     365.302E-03    -174.978E-03    -190.324E-03    -177.591E-03     352.569E-03    -174.978E-03     160.271E-03     123.939E+06     73.8607E+06    -8.22279E+06    -8.22151E+06     73.8595E+06     123.939E+06    -131.871E+03         75.7663
            1243     841.468E-06     83.1125E-03     175.098E-03     9.64404E-03    -188.770E-03     107.496E-03    -23.2613E-03    -88.2633E-03    -84.1746E-03     348.892E-03    -174.227E-03    -174.665E-03    -174.467E-03     348.892E-03    -174.425E-03     337.085E-06    -143.817E+06    -152.131E+06    -336.975E+06    -149.352E+06    -336.965E+06    -146.606E+06    -1.01902E+06         50.3001
            1244     1.68018E-03     83.1073E-03     129.939E-03     10.0228E-03    -143.649E-03     9.90378E-03    -23.6139E-03     10.0228E-03    -125.445E-03     349.706E-03    -174.604E-03    -175.102E-03    -175.065E-03     349.705E-03    -174.640E-03     1.00105E-03    -133.183E+06    -144.484E+06    -309.677E+06    -144.495E+06    -309.666E+06    -133.183E+06    -476.409E+03         50.4561
            1245     2.51948E-03     83.1046E-03     122.766E-03     10.2070E-03    -136.565E-03     10.2871E-03    -24.0867E-03     10.2070E-03    -89.5245E-03     349.570E-03    -174.456E-03    -175.113E-03    -174.688E-03     349.562E-03    -174.874E-03     3.56679E-03    -112.009E+06    -137.554E+06    -279.283E+06    -137.563E+06    -279.274E+06    -112.009E+06     97.7195E+03         50.7039
            1246     3.35965E-03     83.1061E-03     114.520E-03     10.0226E-03    -127.863E-03     10.2624E-03    -23.5278E-03     9.94512E-03    -53.3471E-03     348.864E-03    -173.939E-03    -174.926E-03    -173.906E-03     348.831E-03    -174.926E-03     7.89468E-03    -86.4394E+06    -127.914E+06    -243.861E+06    -127.928E+06    -243.847E+06    -86.4394E+06     697.446E+03         51.0391
            1247     4.20020E-03     83.1151E-03     111.410E-03     8.86984E-03    -123.536E-03     9.14142E-03    -21.2719E-03     8.87460E-03    -42.2446E-03     348.573E-03    -173.672E-03    -174.901E-03    -173.553E-03     348.454E-03    -174.901E-03     15.0643E-03    -59.6484E+06    -116.379E+06    -201.440E+06    -116.419E+06    -201.399E+06    -59.6484E+06     1.16308E+06         51.4560
            1248     5.04020E-03     83.1350E-03     108.809E-03     6.53286E-03    -118.639E-03     6.61988E-03    -16.5992E-03     6.68225E-03    -20.2414E-03     348.595E-03    -173.697E-03    -174.898E-03    -173.397E-03     348.295E-03    -174.898E-03     24.5438E-03    -34.3822E+06    -104.386E+06    -158.715E+06    -104.458E+06    -158.643E+06    -34.3822E+06     1.43442E+06         51.9518
            1249     5.87989E-03     83.1643E-03     106.363E-03     3.29935E-03    -113.188E-03     3.30735E-03    -10.0240E-03     3.19097E-03     9.51031E-03     348.570E-03    -173.673E-03    -174.896E-03    -173.043E-03     347.939E-03    -174.896E-03     35.6999E-03    -10.0408E+06    -86.5477E+06    -112.256E+06    -92.4693E+06    -106.335E+06    -10.0408E+06     1.84782E+06         52.5342
            1250     6.72068E-03     83.2089E-03     103.675E-03    -345.645E-06    -107.203E-03    -368.439E-06    -1.75771E-03    -1.74754E-03     22.0266E-03     348.558E-03    -173.681E-03    -174.877E-03    -172.545E-03     347.422E-03    -174.877E-03     48.2500E-03     15.0746E+06    -46.0491E+06    -80.7211E+06    -80.4554E+06    -46.3148E+06     15.0746E+06     2.47430E+06         53.2320
            1251     7.56232E-03     83.2721E-03     102.071E-03    -4.47872E-03    -101.937E-03    -4.74693E-03     8.55576E-03    -8.15285E-03    -19.8501E-03     349.036E-03    -174.181E-03    -174.855E-03    -172.403E-03     347.258E-03    -174.855E-03     60.5914E-03     33.6411E+06    -9.83184E+06    -69.1090E+06    -68.9790E+06    -9.96187E+06     33.6411E+06     2.65835E+06         54.1067
            1252     8.40176E-03     83.3506E-03     100.756E-03    -8.56670E-03    -97.1372E-03    -9.87557E-03     20.8594E-03    -15.9317E-03    -66.7071E-03     349.740E-03    -174.704E-03    -175.037E-03    -172.344E-03     347.173E-03    -174.829E-03     72.9574E-03     42.0100E+06    -359.141E+03    -59.1590E+06    -59.0830E+06    -435.190E+03     42.0100E+06     1.95958E+06         55.2627
            1253     9.24292E-03     83.4482E-03     97.7210E-03    -11.8539E-03    -91.5902E-03    -14.7975E-03     34.0192E-03    -24.9448E-03    -73.2393E-03     350.637E-03    -174.797E-03    -175.840E-03    -172.337E-03     347.134E-03    -174.797E-03     85.3869E-03     48.3554E+06     5.09803E+06    -50.0040E+06    -49.9661E+06     5.06010E+06     48.3554E+06     1.41027E+06         56.8431
            1254     10.0834E-03     83.5626E-03     93.4921E-03    -15.1762E-03    -85.0031E-03    -18.7931E-03     47.0488E-03    -34.9429E-03    -65.6711E-03     351.795E-03    -174.768E-03    -177.027E-03    -172.497E-03     347.266E-03    -174.768E-03     97.2940E-03     55.5734E+06     10.4603E+06    -41.6519E+06    -41.6340E+06     10.4424E+06     55.5734E+06     895.749E+03         59.0001
            1255     10.9257E-03     83.6933E-03     86.7595E-03    -18.3829E-03    -76.2595E-03    -21.1927E-03     58.7809E-03    -45.4712E-03    -42.0505E-03     353.186E-03    -174.756E-03    -178.430E-03    -173.101E-03     347.856E-03    -174.756E-03     105.890E-03     61.8155E+06     13.9266E+06    -34.2267E+06    -34.2220E+06     13.9219E+06     61.8155E+06     345.785E+03         61.8292
            1256     11.7657E-03     83.8335E-03     81.8526E-03    -21.1938E-03    -70.1209E-03    -21.5427E-03     68.7494E-03    -56.6688E-03    -24.8429E-03     356.758E-03    -174.772E-03    -181.986E-03    -174.840E-03     349.612E-03    -174.772E-03     122.586E-03     63.7849E+06     17.9674E+06    -27.5285E+06    -27.5091E+06     17.9480E+06     63.7849E+06     556.350E+03         65.2803
            1257     12.6050E-03     84.0167E-03     79.8260E-03    -19.8399E-03    -71.3608E-03    -18.8101E-03     75.5388E-03    -68.1034E-03    -8.72628E-03     357.808E-03    -174.801E-03    -183.007E-03    -175.217E-03     350.018E-03    -174.801E-03     128.681E-03     64.4771E+06     25.6877E+06    -21.6782E+06    -21.6407E+06     25.6501E+06     64.4771E+06     921.078E+03         69.0902
            1258     13.4471E-03     84.1775E-03     82.0438E-03    -15.4918E-03    -80.4719E-03    -12.6705E-03     79.2225E-03    -80.4719E-03     21.0238E-03     365.280E-03    -174.851E-03    -190.430E-03    -177.202E-03     352.052E-03    -174.851E-03     164.612E-03     81.3785E+06     45.0751E+06    -15.3548E+06    -15.3319E+06     45.0522E+06     81.3785E+06     144.742E+03         72.7893
            1259     14.2890E-03     84.4618E-03     82.2913E-03    -6.04020E-03    -92.9925E-03    -3.00109E-03     79.2522E-03    -92.9925E-03     24.5400E-03     365.457E-03    -174.978E-03    -190.479E-03    -177.696E-03     352.674E-03    -174.978E-03     160.650E-03     124.612E+06     74.2469E+06    -7.84728E+06    -7.84439E+06      74.244E+06     124.612E+06    -280.147E+03         75.8155
            1260     840.113E-06     84.5268E-03     307.535E-03    -57.2881E-03    -261.625E-03    -54.9143E-03     299.208E-03    -255.672E-03    -77.1061E-03     349.411E-03    -174.166E-03    -175.245E-03    -175.083E-03     349.410E-03    -174.327E-03    -741.928E-06    -142.231E+06    -151.633E+06    -335.590E+06    -149.315E+06    -335.573E+06    -144.566E+06     111.287E+03         50.2937
            1261     1.68058E-03     84.5261E-03     308.146E-03    -154.795E-03    -164.961E-03    -153.561E-03     296.746E-03    -154.795E-03    -123.927E-03     349.788E-03    -174.497E-03    -175.290E-03    -174.958E-03     349.787E-03    -174.828E-03     383.609E-06    -132.530E+06    -145.517E+06    -309.663E+06    -145.535E+06    -309.645E+06    -132.530E+06    -248.488E+03         50.4496
            1262     2.51912E-03     84.5236E-03     299.068E-03    -152.067E-03    -158.534E-03    -150.378E-03     292.591E-03    -153.746E-03    -87.6876E-03     349.856E-03    -174.621E-03    -175.235E-03    -174.852E-03     349.848E-03    -174.996E-03     3.58496E-03    -111.860E+06    -137.736E+06    -279.908E+06    -137.746E+06    -279.898E+06    -111.860E+06    -75.3142E+03         50.6971
            1263     3.35832E-03     84.5236E-03     289.003E-03    -147.279E-03    -153.136E-03    -145.513E-03     286.664E-03    -152.562E-03    -52.4533E-03     349.463E-03    -174.378E-03    -175.086E-03    -174.331E-03     349.416E-03    -175.086E-03     9.12061E-03    -86.5545E+06    -127.433E+06    -244.246E+06    -127.449E+06    -244.230E+06    -86.5545E+06     223.696E+03         51.0319
            1264     4.19814E-03     84.5327E-03     282.148E-03    -142.017E-03    -151.654E-03    -140.592E-03     280.723E-03    -151.654E-03    -39.5721E-03     348.713E-03    -173.646E-03    -175.067E-03    -173.513E-03     348.580E-03    -175.067E-03     16.2053E-03    -61.4228E+06    -116.800E+06    -202.575E+06    -116.838E+06    -202.537E+06    -61.4228E+06     673.359E+03         51.4480
            1265     5.03978E-03     84.5504E-03     275.753E-03    -136.097E-03    -151.395E-03    -135.616E-03     275.272E-03    -151.395E-03    -18.6001E-03     348.086E-03    -173.098E-03    -174.988E-03    -172.790E-03     347.777E-03    -174.988E-03     24.8261E-03    -35.7478E+06    -105.806E+06    -160.205E+06    -105.869E+06    -160.142E+06    -35.7478E+06     1.31845E+06         51.9430
            1266     5.88165E-03     84.5820E-03     269.778E-03    -129.917E-03    -151.945E-03    -129.644E-03     269.504E-03    -151.945E-03     9.88452E-03     348.133E-03    -173.232E-03    -174.901E-03    -172.623E-03     347.523E-03    -174.901E-03     35.2041E-03    -10.6837E+06    -87.3890E+06    -113.305E+06    -93.9430E+06    -106.751E+06    -10.6837E+06     1.41263E+06         52.5240
            1267     6.72165E-03     84.6263E-03     264.543E-03    -123.827E-03    -153.431E-03    -123.422E-03     264.138E-03    -153.431E-03     21.6068E-03     348.436E-03    -173.586E-03    -174.850E-03    -172.484E-03     347.334E-03    -174.850E-03     47.4117E-03     14.1947E+06    -47.9780E+06    -81.5092E+06    -81.3886E+06    -48.0986E+06     14.1947E+06     1.80488E+06         53.2192
            1268     7.56112E-03     84.6897E-03     261.306E-03    -118.811E-03    -155.960E-03    -117.230E-03     259.726E-03    -155.960E-03    -19.5138E-03     348.792E-03    -173.973E-03    -174.819E-03    -172.209E-03     347.028E-03    -174.819E-03     60.3230E-03     33.1198E+06    -11.0326E+06    -69.7058E+06    -69.5267E+06    -11.2117E+06     33.1198E+06     3.13737E+06         54.0898
            1269     8.40261E-03     84.7685E-03     259.335E-03    -114.252E-03    -159.458E-03    -110.532E-03     255.616E-03    -159.458E-03    -65.6632E-03     349.616E-03    -174.505E-03    -175.112E-03    -172.258E-03     347.041E-03    -174.782E-03     73.0340E-03     42.4571E+06     1.16591E+06    -59.4207E+06    -59.2361E+06     981.342E+03     42.4571E+06     3.25669E+06         55.2401
            1270     9.24292E-03     84.8650E-03     255.882E-03    -107.606E-03    -163.806E-03    -103.291E-03     251.567E-03    -163.806E-03    -71.4985E-03     350.750E-03    -174.757E-03    -175.993E-03    -172.475E-03     347.232E-03    -174.757E-03     85.6070E-03     48.9000E+06     6.37384E+06    -50.2208E+06    -50.1461E+06     6.29918E+06     48.9000E+06     1.87817E+06         56.8141
            1271     10.0846E-03     84.9795E-03     250.288E-03    -98.3178E-03    -168.823E-03    -94.8030E-03     246.773E-03    -168.823E-03    -63.6388E-03     352.132E-03    -174.755E-03    -177.377E-03    -172.898E-03     347.653E-03    -174.755E-03     96.8525E-03     56.1619E+06     11.4850E+06    -41.7529E+06    -41.7320E+06     11.4641E+06     56.1619E+06     999.832E+03         58.9662
            1272     10.9246E-03     85.1100E-03     241.365E-03    -85.7395E-03    -174.113E-03    -84.0315E-03     239.657E-03    -174.113E-03    -39.7997E-03     353.805E-03    -174.784E-03    -179.021E-03    -173.718E-03     348.501E-03    -174.784E-03     105.732E-03     62.3158E+06     14.5358E+06    -34.0884E+06    -34.0777E+06     14.5251E+06     62.3158E+06     659.235E+03         61.7954
            1273     11.7647E-03     85.2540E-03     230.226E-03    -71.0665E-03    -179.768E-03    -70.5619E-03     229.721E-03    -179.768E-03    -22.4584E-03     356.706E-03    -174.813E-03    -181.893E-03    -174.685E-03     349.498E-03    -174.813E-03     123.072E-03     63.8839E+06     17.8797E+06    -27.2640E+06    -27.2427E+06     17.8584E+06     63.8839E+06     802.484E+03         65.2572
            1274     12.6051E-03     85.4349E-03     216.494E-03    -54.3664E-03    -185.265E-03    -54.0384E-03     216.166E-03    -185.265E-03    -6.64337E-03     357.105E-03    -174.813E-03    -182.293E-03    -174.493E-03     349.306E-03    -174.813E-03     128.548E-03     65.4460E+06     26.1622E+06    -20.7254E+06    -20.7065E+06     26.1432E+06     65.4460E+06     520.811E+03         69.0902
            1275     13.4469E-03     85.5916E-03     199.571E-03    -34.6823E-03    -191.368E-03    -33.8449E-03     198.734E-03    -191.368E-03     22.7063E-03     365.332E-03    -174.841E-03    -190.491E-03    -177.249E-03     352.089E-03    -174.841E-03     164.649E-03     82.5881E+06     45.9830E+06    -14.5783E+06    -14.5699E+06     45.9745E+06     82.5881E+06     129.265E+03         72.8173
            1276     14.2878E-03     85.8817E-03     176.641E-03    -9.58429E-03    -197.384E-03    -8.60399E-03     175.661E-03    -197.384E-03     25.3213E-03     365.621E-03    -174.970E-03    -190.651E-03    -177.845E-03     352.815E-03    -174.970E-03     160.773E-03     124.773E+06     74.4150E+06    -7.99860E+06    -7.98994E+06     74.4063E+06     124.773E+06     176.991E+03         75.8657
            1277     838.519E-06     85.9455E-03     610.546E-03    -213.847E-03    -415.563E-03    -213.936E-03     608.088E-03    -413.016E-03    -70.7437E-03     350.507E-03    -174.780E-03    -175.728E-03    -175.540E-03     350.506E-03    -174.966E-03     154.318E-06    -144.934E+06    -152.580E+06    -337.106E+06    -150.256E+06    -337.095E+06    -147.268E+06     1.07922E+06         50.2862
            1278     1.67799E-03     85.9429E-03     609.081E-03    -312.240E-03    -316.006E-03    -311.174E-03     604.882E-03    -312.874E-03    -119.433E-03     349.730E-03    -174.538E-03    -175.192E-03    -174.536E-03     349.728E-03    -175.192E-03     1.10882E-03    -131.854E+06    -145.838E+06    -308.851E+06    -145.852E+06    -308.837E+06    -131.854E+06     637.433E+03         50.4422
            1279     2.51965E-03     85.9412E-03     599.404E-03    -306.670E-03    -311.834E-03    -305.012E-03     597.160E-03    -311.249E-03    -82.0576E-03     349.286E-03    -174.235E-03    -175.050E-03    -174.225E-03     349.276E-03    -175.050E-03     3.91128E-03    -111.749E+06    -138.152E+06    -279.734E+06    -138.167E+06    -279.720E+06    -111.749E+06    -269.617E+03         50.6900
            1280     3.35995E-03     85.9419E-03     587.175E-03    -297.285E-03    -308.915E-03    -296.557E-03     586.448E-03    -308.915E-03    -48.3263E-03     349.253E-03    -174.241E-03    -175.013E-03    -174.192E-03     349.204E-03    -175.013E-03     9.47418E-03    -88.1435E+06    -128.652E+06    -245.030E+06    -128.683E+06    -244.999E+06    -88.1435E+06     256.940E+03         51.0250
            1281     4.19996E-03     85.9503E-03     573.650E-03    -286.503E-03    -306.332E-03    -286.104E-03     573.251E-03    -306.332E-03    -34.8549E-03     349.018E-03    -173.989E-03    -175.028E-03    -173.852E-03     348.881E-03    -175.028E-03     16.4772E-03    -62.4037E+06    -118.181E+06    -203.865E+06    -118.230E+06    -203.816E+06    -62.4037E+06     967.588E+03         51.4410
            1282     5.03937E-03     85.9669E-03     557.804E-03    -273.604E-03    -303.781E-03    -273.469E-03     557.669E-03    -303.781E-03    -15.3205E-03     348.556E-03    -173.534E-03    -175.022E-03    -173.226E-03     348.248E-03    -175.022E-03     24.9039E-03    -36.3668E+06    -106.775E+06    -160.770E+06    -106.826E+06    -160.720E+06    -36.3668E+06     1.22221E+06         51.9350
            1283     5.87919E-03     85.9985E-03     540.545E-03    -259.209E-03    -301.490E-03    -259.091E-03     540.426E-03    -301.490E-03     12.4027E-03     348.108E-03    -173.151E-03    -174.957E-03    -172.535E-03     347.492E-03    -174.957E-03     35.3315E-03    -11.4690E+06    -88.5374E+06    -113.122E+06    -94.9155E+06    -106.744E+06    -11.4690E+06     1.07800E+06         52.5145
            1284     6.72031E-03     86.0441E-03     522.146E-03    -243.522E-03    -299.636E-03    -243.333E-03     521.957E-03    -299.636E-03     23.5657E-03     348.088E-03    -173.216E-03    -174.872E-03    -172.113E-03     346.985E-03    -174.872E-03     47.4481E-03     12.8883E+06    -50.3486E+06    -83.0203E+06    -82.9190E+06    -50.4499E+06     12.8883E+06     1.71987E+06         53.2070
            1285     7.56237E-03     86.1061E-03     503.063E-03    -226.867E-03    -298.309E-03    -226.231E-03     502.427E-03    -298.309E-03    -17.1624E-03     348.572E-03    -173.769E-03    -174.803E-03    -172.008E-03     346.810E-03    -174.803E-03     60.2359E-03     31.2130E+06    -13.3273E+06    -71.6926E+06    -71.5263E+06    -13.4936E+06     31.2130E+06     2.92991E+06         54.0732
            1286     8.40307E-03     86.1854E-03     484.245E-03    -210.056E-03    -297.518E-03    -208.491E-03     482.680E-03    -297.518E-03    -62.8527E-03     349.551E-03    -174.449E-03    -175.102E-03    -172.254E-03     347.013E-03    -174.759E-03     72.5372E-03     42.0695E+06     2.25846E+06    -60.3217E+06    -60.1754E+06     2.11214E+06     42.0695E+06     2.77377E+06         55.2171
            1287     9.24416E-03     86.2829E-03     463.246E-03    -190.810E-03    -297.168E-03    -188.837E-03     461.273E-03    -297.168E-03    -69.5507E-03     350.910E-03    -174.751E-03    -176.159E-03    -172.721E-03     347.472E-03    -174.751E-03     84.6370E-03     49.4963E+06     8.45832E+06    -50.3202E+06    -50.2349E+06     8.37306E+06     49.4963E+06     2.00490E+06         56.7837
            1288     10.0836E-03     86.3969E-03     439.075E-03    -168.418E-03    -297.051E-03    -166.792E-03     437.448E-03    -297.051E-03    -60.7682E-03     352.438E-03    -174.774E-03    -177.665E-03    -173.202E-03     347.976E-03    -174.774E-03     96.6910E-03     56.3132E+06     12.5726E+06    -41.8009E+06    -41.7557E+06     12.5274E+06     56.3132E+06     1.41319E+06         58.9301
            1289     10.9238E-03     86.5296E-03     411.884E-03    -143.494E-03    -296.836E-03    -142.745E-03     411.135E-03    -296.836E-03    -36.3385E-03     353.931E-03    -174.811E-03    -179.120E-03    -173.699E-03     348.510E-03    -174.811E-03     106.879E-03     62.3799E+06     15.3515E+06    -34.3186E+06    -34.2993E+06     15.3323E+06     62.3799E+06     921.727E+03         61.7603
            1290     11.7641E-03     86.6713E-03     381.796E-03    -116.237E-03    -296.603E-03    -116.047E-03     381.606E-03    -296.603E-03    -18.5191E-03     356.214E-03    -174.819E-03    -181.396E-03    -174.144E-03     348.962E-03    -174.819E-03     123.454E-03     64.2483E+06     18.0262E+06    -27.4212E+06    -27.4109E+06     18.0160E+06     64.2483E+06     436.861E+03         65.2347
            1291     12.6067E-03     86.8513E-03     348.225E-03    -86.4945E-03    -295.902E-03    -86.3365E-03     348.067E-03    -295.902E-03    -1.93144E-03     356.795E-03    -174.793E-03    -182.002E-03    -174.234E-03     349.028E-03    -174.793E-03     128.242E-03     66.1424E+06     26.3080E+06    -20.6060E+06    -20.6038E+06     26.3058E+06     66.1424E+06     79.3380E+03         69.0914
            1292     13.4473E-03     87.0101E-03     310.605E-03    -53.1170E-03    -295.505E-03    -52.4710E-03     309.959E-03    -295.505E-03     26.4059E-03     365.469E-03    -174.813E-03    -190.656E-03    -177.322E-03     352.135E-03    -174.813E-03     165.228E-03     82.6718E+06     46.1112E+06    -14.6395E+06    -14.6299E+06     46.1016E+06     82.6718E+06     598.948E+03         72.8464
            1293     14.2888E-03     87.2988E-03     266.243E-03    -13.8296E-03    -294.735E-03    -13.1189E-03     265.532E-03    -294.735E-03     26.9301E-03     365.704E-03    -174.944E-03    -190.760E-03    -177.895E-03     352.839E-03    -174.944E-03     161.048E-03     124.745E+06     74.7530E+06    -8.12212E+06    -8.11222E+06     74.7431E+06     124.745E+06     574.009E+03         75.9177
            1294     840.372E-06     87.3645E-03     899.006E-03    -364.819E-03    -559.917E-03    -364.025E-03     897.433E-03    -559.138E-03    -64.4723E-03     349.763E-03    -174.733E-03    -175.031E-03    -174.816E-03     349.762E-03    -174.946E-03     733.884E-06    -147.282E+06    -152.466E+06    -337.793E+06    -151.175E+06    -337.779E+06    -148.587E+06    -798.034E+03         50.2767
            1295     1.67988E-03     87.3613E-03     893.981E-03    -458.528E-03    -461.147E-03    -456.715E-03     891.390E-03    -460.368E-03    -116.203E-03     349.557E-03    -174.484E-03    -175.073E-03    -174.647E-03     349.555E-03    -174.908E-03     2.15332E-03    -133.905E+06    -145.126E+06    -310.010E+06    -145.146E+06    -309.990E+06    -133.905E+06     468.066E+03         50.4333
            1296     2.51905E-03     87.3569E-03     882.312E-03    -450.352E-03    -457.833E-03    -449.049E-03     881.009E-03    -457.833E-03    -78.8575E-03     349.404E-03    -174.310E-03    -175.094E-03    -174.464E-03     349.393E-03    -174.929E-03     4.52365E-03    -112.285E+06    -138.448E+06    -279.390E+06    -138.491E+06    -279.347E+06    -112.285E+06     1.31440E+06         50.6819
            1297     3.35931E-03     87.3600E-03     865.889E-03    -437.295E-03    -454.421E-03    -436.870E-03     865.464E-03    -454.421E-03    -45.7317E-03     349.111E-03    -174.156E-03    -174.955E-03    -174.113E-03     349.068E-03    -174.955E-03     9.10636E-03    -88.3910E+06    -130.505E+06    -245.567E+06    -130.574E+06    -245.498E+06    -88.3910E+06     579.534E+03         51.0176
            1298     4.19938E-03     87.3672E-03     844.935E-03    -420.749E-03    -450.176E-03    -420.537E-03     844.722E-03    -450.176E-03    -31.8123E-03     348.972E-03    -173.999E-03    -174.972E-03    -173.865E-03     348.838E-03    -174.972E-03     16.1636E-03    -63.2137E+06    -119.413E+06    -204.486E+06    -119.463E+06    -204.437E+06    -63.2137E+06     466.767E+03         51.4341
            1299     5.03957E-03     87.3864E-03     820.428E-03    -401.582E-03    -445.361E-03    -401.510E-03     820.356E-03    -445.361E-03    -11.6743E-03     348.738E-03    -173.748E-03    -174.990E-03    -173.437E-03     348.427E-03    -174.990E-03     25.0635E-03    -37.4439E+06    -107.201E+06    -161.086E+06    -107.237E+06    -161.049E+06    -37.4439E+06     761.564E+03         51.9281
            1300     5.88036E-03     87.4145E-03     793.108E-03    -380.084E-03    -440.327E-03    -379.986E-03     793.009E-03    -440.327E-03     16.0486E-03     348.329E-03    -173.369E-03    -174.960E-03    -172.735E-03     347.695E-03    -174.960E-03     35.8030E-03    -12.6043E+06    -89.2418E+06    -114.344E+06    -95.5429E+06    -108.043E+06    -12.6043E+06     1.49253E+06         52.5063
            1301     6.72155E-03     87.4609E-03     762.389E-03    -355.585E-03    -435.273E-03    -355.429E-03     762.233E-03    -435.273E-03     26.0201E-03     348.115E-03    -173.225E-03    -174.890E-03    -172.135E-03     347.025E-03    -174.890E-03     47.3111E-03     11.4506E+06    -51.8405E+06    -84.4453E+06    -84.0911E+06    -52.1947E+06     11.4506E+06     2.36654E+06         53.1960
            1302     7.56162E-03     87.5224E-03     729.482E-03    -328.998E-03    -430.270E-03    -328.629E-03     729.112E-03    -430.270E-03    -13.4088E-03     348.625E-03    -173.803E-03    -174.823E-03    -172.052E-03     346.875E-03    -174.823E-03     59.9413E-03     30.5311E+06    -13.7042E+06    -72.1446E+06    -72.0501E+06    -13.7987E+06     30.5311E+06     2.13259E+06         54.0572
            1303     8.40219E-03     87.6036E-03     694.810E-03    -300.699E-03    -425.340E-03    -299.809E-03     693.920E-03    -425.340E-03    -57.4637E-03     349.921E-03    -174.597E-03    -175.324E-03    -172.589E-03     347.386E-03    -174.797E-03     72.5917E-03     41.7157E+06     2.30009E+06    -61.0624E+06    -61.0089E+06     2.24655E+06     41.7157E+06     1.78143E+06         55.1939
            1304     9.24213E-03     87.6998E-03     657.138E-03    -269.714E-03    -420.338E-03    -268.557E-03     655.982E-03    -420.338E-03    -64.1929E-03     350.940E-03    -174.802E-03    -176.137E-03    -172.731E-03     347.534E-03    -174.802E-03     84.2338E-03     48.9794E+06     8.66862E+06    -51.0646E+06    -51.0065E+06     8.61048E+06     48.9794E+06     1.54532E+06         56.7522
            1305     10.0834E-03     87.8159E-03     615.416E-03    -235.170E-03    -415.112E-03    -234.215E-03     614.462E-03    -415.112E-03    -55.6895E-03     352.066E-03    -174.803E-03    -177.263E-03    -172.764E-03     347.567E-03    -174.803E-03     96.9705E-03     56.1421E+06     13.2826E+06    -41.7363E+06    -41.6977E+06     13.2440E+06     56.1421E+06     1.12001E+06         58.8932
            1306     10.9248E-03     87.9457E-03     569.318E-03    -197.186E-03    -409.408E-03    -196.765E-03     568.898E-03    -409.408E-03    -31.8831E-03     353.444E-03    -174.802E-03    -178.642E-03    -173.191E-03     347.994E-03    -174.802E-03     107.088E-03     62.7715E+06     16.0969E+06    -34.0542E+06    -34.0268E+06     16.0695E+06     62.7715E+06     1.13232E+06         61.7259
            1307     11.7658E-03     88.0912E-03     520.036E-03    -157.059E-03    -403.275E-03    -156.979E-03     519.956E-03    -403.275E-03    -14.1027E-03     355.906E-03    -174.786E-03    -181.120E-03    -173.894E-03     348.680E-03    -174.786E-03     123.164E-03     65.1821E+06     19.0723E+06    -27.2617E+06    -27.2354E+06     19.0460E+06     65.1821E+06     863.395E+03         65.2135
            1308     12.6054E-03     88.2661E-03     466.719E-03    -114.110E-03    -396.383E-03    -114.005E-03     466.615E-03    -396.383E-03     2.03708E-03     356.937E-03    -174.757E-03    -182.180E-03    -174.378E-03     349.135E-03    -174.757E-03     128.585E-03     66.3066E+06     26.4709E+06    -21.2498E+06    -21.2428E+06     26.4639E+06     66.3066E+06     172.210E+03         69.0932
            1309     13.4478E-03     88.4288E-03     408.799E-03    -67.2111E-03    -389.428E-03    -66.6838E-03     408.272E-03    -389.428E-03     27.9282E-03     365.454E-03    -174.789E-03    -190.665E-03    -177.441E-03     352.229E-03    -174.789E-03     164.802E-03     82.4120E+06     45.9415E+06    -15.6004E+06    -15.5969E+06     45.9381E+06     82.4120E+06     301.718E+03         72.8757
            1310     14.2899E-03     88.7135E-03     346.390E-03    -16.5004E-03    -381.863E-03    -15.9527E-03     345.843E-03    -381.863E-03     26.7149E-03     365.791E-03    -174.938E-03    -190.853E-03    -178.151E-03     353.090E-03    -174.938E-03     160.165E-03     124.831E+06     75.3265E+06    -8.73190E+06    -8.72827E+06     75.3229E+06     124.831E+06     320.207E+03         75.9694
            1311     839.670E-06     88.7796E-03         1.16182    -503.121E-03    -689.456E-03    -502.006E-03         1.16070    -689.456E-03    -62.1841E-03     348.860E-03    -174.187E-03    -174.673E-03    -174.187E-03     348.860E-03    -174.673E-03    -338.685E-06    -146.954E+06    -153.920E+06    -336.318E+06    -152.633E+06    -336.300E+06    -148.260E+06    -272.966E+03         50.2660
            1312     1.68099E-03     88.7777E-03         1.15345    -590.350E-03    -594.066E-03    -588.466E-03         1.15157    -594.066E-03    -113.117E-03     349.016E-03    -174.333E-03    -174.683E-03    -174.495E-03     349.013E-03    -174.518E-03     1.80088E-03    -135.763E+06    -147.925E+06    -311.708E+06    -147.951E+06    -311.681E+06    -135.763E+06    -24.7762E+03         50.4235
            1313     2.52043E-03     88.7765E-03         1.13700    -577.924E-03    -590.346E-03    -576.964E-03         1.13604    -590.346E-03    -76.1559E-03     349.576E-03    -174.574E-03    -175.002E-03    -174.862E-03     349.564E-03    -174.701E-03     4.85697E-03    -114.127E+06    -139.780E+06    -281.227E+06    -139.822E+06    -281.186E+06    -114.127E+06     842.118E+03         50.6730
            1314     3.35962E-03     88.7763E-03         1.11441    -560.554E-03    -585.216E-03    -560.265E-03         1.11412    -585.216E-03    -43.0686E-03     349.446E-03    -174.418E-03    -175.028E-03    -174.508E-03     349.400E-03    -174.892E-03     9.34032E-03    -88.1023E+06    -129.637E+06    -244.686E+06    -129.727E+06    -244.597E+06    -88.1023E+06     1.11408E+06         51.0098
            1315     4.19991E-03     88.7855E-03         1.08693    -539.645E-03    -578.942E-03    -539.503E-03         1.08679    -578.942E-03    -29.4320E-03     348.794E-03    -173.841E-03    -174.953E-03    -173.708E-03     348.661E-03    -174.953E-03     16.1906E-03    -63.4213E+06    -119.448E+06    -204.406E+06    -119.524E+06    -204.330E+06    -63.4213E+06     671.939E+03         51.4272
            1316     5.04013E-03     88.8030E-03         1.05469    -515.124E-03    -571.844E-03    -515.078E-03         1.05465    -571.844E-03    -8.27394E-03     348.572E-03    -173.624E-03    -174.948E-03    -173.317E-03     348.265E-03    -174.948E-03     24.8443E-03    -38.5338E+06    -108.375E+06    -161.797E+06    -108.431E+06    -161.740E+06    -38.5338E+06     771.981E+03         51.9216
            1317     5.88023E-03     88.8322E-03         1.01771    -486.756E-03    -564.129E-03    -486.668E-03         1.01762    -564.129E-03     18.9835E-03     348.607E-03    -173.671E-03    -174.936E-03    -173.058E-03     347.994E-03    -174.936E-03     35.2994E-03    -13.7905E+06    -91.5031E+06    -114.177E+06    -96.4210E+06    -109.259E+06    -13.7905E+06     1.06172E+06         52.4989
            1318     6.71965E-03     88.8785E-03     976.357E-03    -454.933E-03    -555.935E-03    -454.780E-03     976.205E-03    -555.935E-03     29.5249E-03     348.411E-03    -173.504E-03    -174.907E-03    -172.423E-03     347.331E-03    -174.907E-03     47.0452E-03     10.4712E+06    -53.0556E+06    -84.2012E+06    -83.8322E+06    -53.4247E+06     10.4712E+06     1.55058E+06         53.1858
            1319     7.56142E-03     88.9385E-03     930.916E-03    -419.552E-03    -547.374E-03    -419.295E-03     930.658E-03    -547.374E-03    -8.30264E-03     348.802E-03    -173.941E-03    -174.861E-03    -172.160E-03     347.021E-03    -174.861E-03     60.4748E-03     30.1448E+06    -13.2643E+06    -71.8528E+06    -71.7932E+06    -13.3239E+06     30.1448E+06     1.78265E+06         54.0419
            1320     8.40240E-03     89.0220E-03     881.835E-03    -381.058E-03    -538.429E-03    -380.507E-03     881.285E-03    -538.429E-03    -51.3074E-03     349.815E-03    -174.619E-03    -175.197E-03    -172.378E-03     347.205E-03    -174.827E-03     73.6208E-03     41.9041E+06     2.63959E+06    -60.9679E+06    -60.9209E+06     2.59256E+06     41.9041E+06     1.67413E+06         55.1713
            1321     9.24221E-03     89.1192E-03     829.117E-03    -339.769E-03    -528.933E-03    -339.048E-03     828.396E-03    -528.933E-03    -57.3370E-03     350.980E-03    -174.784E-03    -176.196E-03    -172.690E-03     347.505E-03    -174.815E-03     85.1245E-03     49.2608E+06      8.9646E+06    -50.9684E+06    -50.9367E+06     8.93285E+06     49.2608E+06     1.13441E+06         56.7218
            1322     10.0835E-03     89.2297E-03     771.992E-03    -294.968E-03    -518.821E-03    -294.370E-03     771.394E-03    -518.821E-03    -49.8001E-03     352.307E-03    -174.820E-03    -177.487E-03    -172.989E-03     347.810E-03    -174.820E-03     97.0193E-03     55.9799E+06     13.6548E+06    -42.4311E+06    -42.4112E+06     13.6349E+06     55.9799E+06     883.849E+03         58.8567
            1323     10.9239E-03     89.3664E-03     709.631E-03    -246.196E-03    -507.905E-03    -245.942E-03     709.377E-03    -507.905E-03    -26.7964E-03     353.049E-03    -174.820E-03    -178.230E-03    -172.884E-03     347.704E-03    -174.820E-03     106.007E-03     62.8029E+06     16.2127E+06    -34.3512E+06    -34.3238E+06     16.1853E+06     62.8029E+06     993.954E+03         61.6903
            1324     11.7653E-03     89.5042E-03     642.285E-03    -193.787E-03    -496.191E-03    -193.756E-03     642.254E-03    -496.191E-03    -9.70288E-03     355.263E-03    -174.775E-03    -180.488E-03    -173.338E-03     348.114E-03    -174.775E-03     122.280E-03     65.3883E+06     19.1401E+06    -26.9907E+06    -26.9693E+06     19.1187E+06     65.3883E+06     827.346E+03         65.1910
            1325     12.6083E-03     89.6873E-03     570.277E-03    -138.187E-03    -483.433E-03    -138.110E-03     570.199E-03    -483.433E-03     4.27412E-03     356.933E-03    -174.731E-03    -182.202E-03    -174.404E-03     349.135E-03    -174.731E-03     128.529E-03     66.7367E+06     27.0842E+06    -21.1684E+06    -21.1538E+06     27.0696E+06     66.7367E+06     670.325E+03         69.0946
            1326     13.4478E-03     89.8435E-03     494.976E-03    -80.2144E-03    -470.251E-03    -79.8144E-03     494.576E-03    -470.251E-03     27.3519E-03     365.976E-03    -174.784E-03    -191.192E-03    -178.006E-03     352.790E-03    -174.784E-03     164.703E-03     82.9616E+06     46.4833E+06    -15.5594E+06    -15.5537E+06     46.4775E+06     82.9616E+06     296.835E+03         72.9044
            1327     14.2873E-03     90.1343E-03     416.240E-03    -19.7759E-03    -456.247E-03    -19.3660E-03     415.830E-03    -456.247E-03     25.6829E-03     365.783E-03    -174.950E-03    -190.832E-03    -178.115E-03     353.065E-03    -174.950E-03     160.437E-03     125.342E+06     75.8189E+06    -8.32966E+06    -8.32804E+06     75.8173E+06     125.342E+06     170.283E+03         76.0211
            1328     840.699E-06     90.1973E-03         1.38835    -621.304E-03    -801.274E-03    -620.441E-03         1.38749    -801.274E-03    -63.2094E-03     349.177E-03    -174.322E-03    -174.854E-03    -174.557E-03     349.176E-03    -174.620E-03    -454.519E-06    -146.369E+06    -154.251E+06    -337.066E+06    -152.447E+06    -337.052E+06    -148.186E+06     1.20975E+06         50.2563
            1329     1.67991E-03     90.1923E-03         1.37570    -701.705E-03    -708.604E-03    -700.259E-03         1.37426    -708.604E-03    -108.685E-03     349.175E-03    -174.419E-03    -174.757E-03    -174.519E-03     349.173E-03    -174.654E-03     1.02207E-03    -134.363E+06    -148.079E+06    -311.259E+06    -148.093E+06    -311.245E+06    -134.363E+06     415.902E+03         50.4140
            1330     2.52072E-03     90.1944E-03         1.35480    -686.298E-03    -703.511E-03    -685.572E-03         1.35407    -703.511E-03    -72.7326E-03     349.152E-03    -174.288E-03    -174.863E-03    -174.414E-03     349.142E-03    -174.727E-03     4.20710E-03    -114.284E+06    -140.658E+06    -282.013E+06    -140.671E+06    -282.001E+06    -114.284E+06     43.3498E+03         50.6642
            1331     3.35998E-03     90.1951E-03         1.32658    -665.042E-03    -696.738E-03    -664.832E-03         1.32637    -696.738E-03    -40.0849E-03     349.311E-03    -174.347E-03    -174.964E-03    -174.440E-03     349.268E-03    -174.828E-03     8.97019E-03    -90.5069E+06    -130.830E+06    -246.216E+06    -130.878E+06    -246.167E+06    -90.5069E+06     913.814E+03         51.0019
            1332     4.19923E-03     90.2028E-03         1.29273    -639.922E-03    -688.507E-03    -639.830E-03         1.29264    -688.507E-03    -25.2466E-03     348.942E-03    -174.028E-03    -174.914E-03    -173.902E-03     348.816E-03    -174.914E-03     15.7946E-03    -64.2894E+06    -119.871E+06    -204.632E+06    -119.953E+06    -204.549E+06    -64.2894E+06     1.42799E+06         51.4201
            1333     5.04021E-03     90.2192E-03         1.25304    -610.274E-03    -679.181E-03    -610.244E-03         1.25301    -679.181E-03    -3.35056E-03     348.543E-03    -173.609E-03    -174.934E-03    -173.295E-03     348.229E-03    -174.934E-03     25.0099E-03    -38.5414E+06    -108.468E+06    -161.030E+06    -108.554E+06    -160.945E+06    -38.5414E+06     860.841E+03         51.9149
            1334     5.87993E-03     90.2522E-03         1.20762    -576.086E-03    -668.890E-03    -575.978E-03         1.20752    -668.890E-03     23.9530E-03     348.391E-03    -173.481E-03    -174.909E-03    -172.856E-03     347.765E-03    -174.909E-03     35.7256E-03    -13.9807E+06    -91.7048E+06    -114.484E+06    -96.8958E+06    -109.293E+06    -13.9807E+06     656.743E+03         52.4917
            1335     6.72140E-03     90.2936E-03         1.15645    -537.512E-03    -657.709E-03    -537.336E-03         1.15627    -657.709E-03     34.5628E-03     348.652E-03    -173.766E-03    -174.885E-03    -172.652E-03     347.537E-03    -174.885E-03     47.7421E-03     10.2621E+06    -53.9779E+06    -85.4622E+06    -85.2197E+06    -54.2203E+06     10.2621E+06     564.881E+03         53.1760
            1336     7.56121E-03     90.3577E-03         1.10004    -494.704E-03    -645.746E-03    -494.504E-03         1.09984    -645.746E-03    -3.10275E-03     349.141E-03    -174.272E-03    -174.869E-03    -172.481E-03     347.350E-03    -174.869E-03     60.8062E-03     29.3400E+06    -13.9929E+06    -73.2040E+06    -73.1490E+06    -14.0480E+06     29.3400E+06     806.787E+03         54.0270
            1337     8.40141E-03     90.4379E-03         1.03931    -448.546E-03    -632.996E-03    -448.188E-03         1.03895    -632.996E-03    -44.8480E-03     349.406E-03    -174.574E-03    -174.833E-03    -171.990E-03     346.822E-03    -174.833E-03     73.1607E-03     41.4519E+06     3.07791E+06    -61.4244E+06    -61.4052E+06     3.05873E+06     41.4519E+06     958.454E+03         55.1494
            1338     9.24440E-03     90.5358E-03     973.646E-03    -398.564E-03    -619.370E-03    -398.092E-03     973.174E-03    -619.370E-03    -50.3898E-03     350.816E-03    -174.766E-03    -176.050E-03    -172.511E-03     347.309E-03    -174.798E-03     85.4689E-03     49.7266E+06     9.67761E+06    -51.5168E+06    -51.4988E+06     9.65959E+06     49.7266E+06     964.008E+03         56.6922
            1339     10.0825E-03     90.6516E-03     902.797E-03    -344.636E-03    -604.769E-03    -344.248E-03     902.410E-03    -604.769E-03    -43.2829E-03     352.599E-03    -174.808E-03    -177.792E-03    -173.273E-03     348.081E-03    -174.808E-03     97.3301E-03     56.4490E+06     14.0853E+06    -42.9970E+06    -42.9711E+06     14.0594E+06     56.4490E+06     1.17491E+06         58.8213
            1340     10.9234E-03     90.7799E-03     826.461E-03    -286.849E-03    -589.008E-03    -286.694E-03     826.306E-03    -589.008E-03    -21.4600E-03     353.235E-03    -174.822E-03    -178.412E-03    -173.031E-03     347.853E-03    -174.822E-03     106.378E-03     62.7077E+06     16.2955E+06    -34.7212E+06    -34.6965E+06     16.2708E+06     62.7077E+06     934.566E+03         61.6554
            1341     11.7653E-03     90.9230E-03     744.577E-03    -225.086E-03    -572.169E-03    -225.076E-03     744.567E-03    -572.169E-03    -5.88652E-03     355.518E-03    -174.792E-03    -180.726E-03    -173.583E-03     348.376E-03    -174.792E-03     122.374E-03     65.2534E+06     19.0840E+06    -27.4332E+06    -27.4191E+06     19.0699E+06     65.2534E+06     500.648E+03         65.1670
            1342     12.6060E-03     91.1000E-03     658.063E-03    -160.311E-03    -554.116E-03    -160.242E-03     657.993E-03    -554.116E-03     6.67006E-03     356.944E-03    -174.758E-03    -182.186E-03    -174.433E-03     349.191E-03    -174.758E-03     128.197E-03     66.7686E+06     27.1988E+06    -21.0510E+06    -21.0405E+06     27.1883E+06     66.7686E+06     565.254E+03         69.0928
            1343     13.4477E-03     91.2667E-03     568.474E-03    -93.7146E-03    -535.304E-03    -93.3395E-03     568.099E-03    -535.304E-03     28.7471E-03     365.375E-03    -174.793E-03    -190.583E-03    -177.394E-03     352.187E-03    -174.793E-03     164.553E-03     83.3529E+06     46.8103E+06    -14.7835E+06    -14.7762E+06     46.8031E+06     83.3529E+06     394.947E+03         72.9326
            1344     14.2897E-03     91.5487E-03     474.872E-03    -24.6272E-03    -515.436E-03    -24.2579E-03     474.503E-03    -515.436E-03     25.9548E-03     365.397E-03    -174.930E-03    -190.467E-03    -177.729E-03     352.660E-03    -174.930E-03     160.510E-03     125.864E+06     76.2873E+06    -7.79155E+06    -7.79006E+06     76.2858E+06     125.864E+06     234.746E+03         76.0754
            1345     839.507E-06     91.6126E-03         1.56708    -714.974E-03    -887.684E-03    -714.289E-03         1.56640    -887.684E-03    -64.3349E-03     350.065E-03    -174.569E-03    -175.496E-03    -175.384E-03     350.065E-03    -174.681E-03    -294.221E-06    -146.896E+06    -153.020E+06    -339.722E+06    -151.222E+06    -339.704E+06    -148.713E+06     895.834E+03         50.2484
            1346     1.67921E-03     91.6123E-03         1.55258    -790.215E-03    -798.550E-03    -789.017E-03         1.55138    -798.550E-03    -105.544E-03     349.740E-03    -174.600E-03    -175.140E-03    -174.701E-03     349.739E-03    -175.038E-03     877.985E-06    -134.464E+06    -146.539E+06    -311.437E+06    -146.554E+06    -311.422E+06    -134.464E+06     1.14132E+06         50.4060
            1347     2.51875E-03     91.6087E-03         1.52810    -772.176E-03    -792.626E-03    -771.533E-03         1.52746    -792.626E-03    -72.1684E-03     348.954E-03    -174.000E-03    -174.954E-03    -173.989E-03     348.943E-03    -174.954E-03     4.21441E-03    -113.968E+06    -140.544E+06    -282.342E+06    -140.564E+06    -282.323E+06    -113.968E+06     1.44343E+06         50.6563
            1348     3.36022E-03     91.6138E-03         1.49513    -747.487E-03    -784.615E-03    -747.329E-03         1.49497    -784.615E-03    -36.4660E-03     348.605E-03    -173.751E-03    -174.854E-03    -173.707E-03     348.561E-03    -174.854E-03     9.16943E-03    -90.2639E+06    -131.758E+06    -247.233E+06    -131.779E+06    -247.211E+06    -90.2639E+06     1.14400E+06         50.9945
            1349     4.20052E-03     91.6197E-03         1.45559    -718.435E-03    -774.789E-03    -718.382E-03         1.45554    -774.789E-03    -19.4858E-03     348.869E-03    -174.024E-03    -174.845E-03    -173.890E-03     348.735E-03    -174.845E-03     16.2009E-03    -65.0692E+06    -120.615E+06    -205.284E+06    -120.659E+06    -205.241E+06    -65.0692E+06     1.13909E+06         51.4133
            1350     5.03947E-03     91.6379E-03         1.40977    -684.716E-03    -763.529E-03    -684.690E-03         1.40974    -763.529E-03     2.98101E-03     348.641E-03    -173.753E-03    -174.888E-03    -173.439E-03     348.327E-03    -174.888E-03     25.1540E-03    -38.7397E+06    -109.332E+06    -160.447E+06    -109.493E+06    -160.286E+06    -38.7397E+06     1.58829E+06         51.9082
            1351     5.88129E-03     91.6669E-03         1.35729    -645.855E-03    -750.988E-03    -645.723E-03         1.35716    -750.988E-03     29.7208E-03     348.321E-03    -173.436E-03    -174.886E-03    -172.823E-03     347.709E-03    -174.886E-03     35.3071E-03    -13.4809E+06     -92.084E+06    -115.369E+06    -98.4989E+06    -108.954E+06    -13.4809E+06     1.11676E+06         52.4841
            1352     6.72116E-03     91.7129E-03         1.29779    -601.630E-03    -737.206E-03    -601.421E-03         1.29758    -737.206E-03     39.8154E-03     348.738E-03    -173.868E-03    -174.870E-03    -172.769E-03     347.640E-03    -174.870E-03     47.4124E-03     10.7349E+06    -53.2436E+06    -86.5452E+06    -86.3611E+06    -53.4277E+06     10.7349E+06     387.176E+03         53.1660
            1353     7.56098E-03     91.7757E-03         1.23245    -552.885E-03    -722.223E-03    -552.721E-03         1.23228    -722.223E-03     3.37194E-03     349.155E-03    -174.289E-03    -174.866E-03    -172.521E-03     347.387E-03    -174.866E-03     60.4113E-03     29.3850E+06    -13.8163E+06    -74.4340E+06    -74.3978E+06    -13.8524E+06     29.3850E+06    -356.704E+03         54.0121
            1354     8.40232E-03     91.8545E-03         1.16204    -500.471E-03    -706.070E-03    -500.250E-03         1.16182    -706.070E-03    -37.0725E-03     349.721E-03    -174.611E-03    -175.110E-03    -172.313E-03     347.159E-03    -174.846E-03     72.8919E-03     40.4203E+06     2.67272E+06    -63.0722E+06    -63.0574E+06     2.65791E+06     40.4203E+06    -295.579E+03         55.1272
            1355     9.24157E-03     91.9524E-03         1.08615    -444.000E-03    -688.751E-03    -443.688E-03         1.08584    -688.751E-03    -43.2771E-03     350.492E-03    -174.809E-03    -175.682E-03    -172.171E-03     346.980E-03    -174.810E-03     85.4377E-03     48.4169E+06     9.22905E+06    -52.7188E+06    -52.7108E+06     9.22109E+06     48.4169E+06     398.576E+03         56.6620
            1356     10.0849E-03     92.0699E-03         1.00388    -382.667E-03    -670.157E-03    -382.415E-03         1.00363    -670.157E-03    -36.9085E-03     351.832E-03    -174.776E-03    -177.056E-03    -172.520E-03     347.296E-03    -174.776E-03     97.4019E-03     56.1769E+06     13.6402E+06    -43.4581E+06    -43.4483E+06     13.6304E+06     56.1769E+06     556.695E+03         58.7868
            1357     10.9250E-03     92.1981E-03     915.618E-03    -317.197E-03    -650.117E-03    -317.104E-03     915.525E-03    -650.117E-03    -16.1294E-03     353.598E-03    -174.780E-03    -178.817E-03    -173.465E-03     348.245E-03    -174.780E-03     106.179E-03     62.9108E+06     16.7405E+06    -35.3735E+06    -35.3588E+06     16.7258E+06     62.9108E+06     406.009E+03         61.6224
            1358     11.7653E-03     92.3392E-03     822.691E-03    -248.806E-03    -628.756E-03    -248.804E-03     822.688E-03    -628.756E-03    -2.15246E-03     356.304E-03    -174.795E-03    -181.509E-03    -174.354E-03     349.149E-03    -174.795E-03     122.584E-03     65.3296E+06     19.9510E+06    -27.7825E+06    -27.7696E+06     19.9382E+06     65.3296E+06     119.842E+03         65.1438
            1359     12.6056E-03     92.5200E-03     725.792E-03    -178.188E-03    -606.043E-03    -178.103E-03     725.708E-03    -606.043E-03     10.2098E-03     356.886E-03    -174.779E-03    -182.107E-03    -174.261E-03     349.040E-03    -174.779E-03     128.959E-03     66.1984E+06     26.7060E+06    -21.3704E+06    -21.3667E+06     26.7022E+06     66.1984E+06     175.005E+03         69.0920
            1360     13.4471E-03     92.6799E-03     625.012E-03    -105.212E-03    -582.270E-03    -104.831E-03     624.630E-03    -582.270E-03     31.2059E-03     364.897E-03    -174.785E-03    -190.112E-03    -176.772E-03     351.557E-03    -174.785E-03     165.378E-03     83.0517E+06     46.6325E+06    -15.2612E+06    -15.2568E+06     46.6281E+06     83.0517E+06     411.446E+03         72.9627
            1361     14.2896E-03     92.9668E-03     519.999E-03    -29.5018E-03    -557.281E-03    -29.1461E-03     519.643E-03    -557.281E-03     26.7717E-03     365.678E-03    -174.910E-03    -190.768E-03    -177.983E-03     352.893E-03    -174.910E-03     160.574E-03     126.347E+06     77.2408E+06    -8.05961E+06    -8.05708E+06     77.2383E+06     126.347E+06     387.997E+03         76.1310
            1362     839.116E-06     93.0333E-03         1.68976    -779.329E-03    -945.245E-03    -778.758E-03         1.68919    -945.245E-03    -65.7389E-03     350.234E-03    -174.472E-03    -175.762E-03    -175.642E-03     350.233E-03    -174.591E-03     732.511E-06    -146.700E+06    -152.671E+06    -340.694E+06    -150.598E+06    -340.675E+06    -148.793E+06    -354.837E+03         50.2417
            1363     1.67901E-03     93.0282E-03         1.67499    -851.117E-03    -859.643E-03    -850.126E-03         1.67400    -859.643E-03    -99.7305E-03     349.838E-03    -174.729E-03    -175.108E-03    -174.728E-03     349.836E-03    -175.108E-03     1.59942E-03    -135.335E+06    -146.505E+06    -314.271E+06    -146.533E+06    -314.243E+06    -135.335E+06     922.608E+03         50.3993
            1364     2.51948E-03     93.0276E-03         1.64938    -832.169E-03    -853.568E-03    -831.628E-03         1.64884    -853.568E-03    -67.5908E-03     349.209E-03    -174.176E-03    -175.033E-03    -174.166E-03     349.199E-03    -175.033E-03     4.27912E-03    -113.237E+06    -138.760E+06    -284.107E+06    -138.788E+06    -284.080E+06    -113.237E+06     1.80597E+06         50.6495
            1365     3.35955E-03     93.0274E-03         1.61422    -805.792E-03    -845.079E-03    -805.683E-03         1.61411    -845.079E-03    -31.3270E-03     348.529E-03    -173.603E-03    -174.927E-03    -173.559E-03     348.486E-03    -174.927E-03     8.97211E-03    -87.5068E+06    -129.387E+06    -246.503E+06    -129.434E+06    -246.456E+06    -87.5068E+06     2.19035E+06         50.9877
            1366     4.20062E-03     93.0383E-03         1.57122    -774.195E-03    -834.439E-03    -774.163E-03         1.57119    -834.439E-03    -14.0734E-03     348.505E-03    -173.646E-03    -174.859E-03    -173.516E-03     348.375E-03    -174.859E-03     15.9596E-03    -61.7597E+06    -119.243E+06    -205.088E+06    -119.287E+06    -205.044E+06    -61.7597E+06     1.78993E+06         51.4067
            1367     5.04114E-03     93.0554E-03         1.52045    -736.791E-03    -821.913E-03    -736.757E-03         1.52042    -821.913E-03     9.46968E-03     348.765E-03    -173.892E-03    -174.874E-03    -173.597E-03     348.471E-03    -174.874E-03     24.3815E-03    -36.8484E+06    -107.754E+06    -161.773E+06    -107.892E+06    -161.635E+06    -36.8484E+06     1.86325E+06         51.9013
            1368     5.87984E-03     93.0843E-03         1.46222    -693.978E-03    -807.644E-03    -693.806E-03         1.46205    -807.644E-03     35.9500E-03     348.794E-03    -173.884E-03    -174.910E-03    -173.269E-03     348.179E-03    -174.910E-03     35.2602E-03    -11.9442E+06    -90.0905E+06    -114.602E+06    -96.1742E+06    -108.518E+06    -11.9442E+06     2.07752E+06         52.4759
            1369     6.72028E-03     93.1311E-03         1.39674    -645.929E-03    -791.753E-03    -645.669E-03         1.39648    -791.753E-03     45.9959E-03     348.539E-03    -173.631E-03    -174.909E-03    -172.540E-03     347.448E-03    -174.909E-03     47.3320E-03     12.3839E+06    -51.2875E+06    -85.4879E+06    -85.0505E+06    -51.7249E+06     12.3839E+06     1.27148E+06         53.1550
            1370     7.56173E-03     93.1923E-03         1.32461    -592.846E-03    -774.304E-03    -592.692E-03         1.32445    -774.304E-03     10.9819E-03     348.900E-03    -174.027E-03    -174.873E-03    -172.253E-03     347.126E-03    -174.873E-03     60.3803E-03     31.1484E+06    -11.8658E+06    -73.6417E+06    -73.6152E+06    -11.8923E+06     31.1484E+06     206.004E+03         53.9967
            1371     8.40146E-03     93.2732E-03         1.24685    -535.795E-03    -755.363E-03    -535.664E-03         1.24672    -755.363E-03    -28.9567E-03     349.918E-03    -174.747E-03    -175.171E-03    -172.489E-03     347.335E-03    -174.846E-03     73.2611E-03     41.2322E+06     2.94210E+06    -63.1019E+06    -63.0738E+06     2.91403E+06     41.2322E+06    -698.629E+03         55.1049
            1372     9.24275E-03     93.3703E-03         1.16279    -474.141E-03    -734.928E-03    -473.936E-03         1.16258    -734.928E-03    -36.3299E-03     350.603E-03    -174.821E-03    -175.783E-03    -172.294E-03     347.115E-03    -174.821E-03     85.1769E-03     48.2795E+06     8.50192E+06    -52.9186E+06    -52.8903E+06     8.47357E+06     48.2795E+06    -927.944E+03         56.6318
            1373     10.0834E-03     93.4828E-03         1.07212    -407.663E-03    -712.942E-03    -407.494E-03         1.07195    -712.942E-03    -31.1759E-03     351.654E-03    -174.786E-03    -176.868E-03    -172.358E-03     347.144E-03    -174.786E-03     97.0846E-03     56.1475E+06     12.9229E+06    -42.8368E+06    -42.8169E+06     12.9030E+06     56.1475E+06    -645.302E+03         58.7509
            1374     10.9252E-03     93.6190E-03     975.584E-03    -337.316E-03    -689.338E-03    -337.254E-03     975.522E-03    -689.338E-03    -11.4106E-03     353.190E-03    -174.769E-03    -178.421E-03    -173.084E-03     347.853E-03    -174.769E-03     105.941E-03     63.2604E+06     16.8139E+06    -34.4376E+06    -34.4331E+06     16.8094E+06     63.2604E+06    -334.474E+03         61.5884
            1375     11.7645E-03     93.7568E-03     874.527E-03    -264.349E-03    -664.207E-03    -264.347E-03     874.525E-03    -664.207E-03     2.37606E-03     356.079E-03    -174.757E-03    -181.321E-03    -174.088E-03     348.845E-03    -174.757E-03     123.137E-03     64.9401E+06     20.0514E+06    -28.0768E+06    -28.0701E+06     20.0448E+06     64.9401E+06     36.0882E+03         65.1234
            1376     12.6064E-03     93.9370E-03     769.594E-03    -189.353E-03    -637.593E-03    -189.255E-03     769.495E-03    -637.593E-03     13.8360E-03     356.890E-03    -174.735E-03    -182.155E-03    -174.288E-03     349.023E-03    -174.735E-03     129.061E-03     66.2562E+06     27.2511E+06    -21.7153E+06    -21.7087E+06     27.2446E+06     66.2562E+06     236.947E+03         69.0959
            1377     13.4492E-03     94.0950E-03     661.107E-03    -112.341E-03    -609.659E-03    -111.946E-03     660.712E-03    -609.659E-03     33.1080E-03     365.539E-03    -174.769E-03    -190.770E-03    -177.488E-03     352.257E-03    -174.769E-03     165.100E-03     83.3224E+06     47.1094E+06    -15.3516E+06    -15.3485E+06     47.1063E+06     83.3224E+06     300.782E+03         72.9949
            1378     14.2900E-03     94.3860E-03     549.610E-03    -33.6376E-03    -580.412E-03    -33.2858E-03     549.259E-03    -580.412E-03     27.3269E-03     366.175E-03    -174.929E-03    -191.246E-03    -178.500E-03     353.428E-03    -174.929E-03     160.386E-03     125.642E+06     77.2179E+06    -8.71228E+06    -8.70951E+06     77.2151E+06     125.642E+06     320.701E+03         76.1860
            1379     840.441E-06     94.4496E-03         1.75138    -810.927E-03    -973.352E-03    -810.451E-03         1.75090    -973.352E-03    -64.6655E-03     349.614E-03    -174.455E-03    -175.159E-03    -175.115E-03     349.612E-03    -174.497E-03     258.475E-06    -145.693E+06    -153.285E+06    -340.029E+06    -151.204E+06    -340.017E+06    -147.786E+06    -89.8233E+03         50.2351
            1380     1.67994E-03     94.4470E-03         1.73786    -881.547E-03    -889.678E-03    -880.714E-03         1.73702    -889.678E-03    -93.2476E-03     349.580E-03    -174.710E-03    -174.870E-03    -174.708E-03     349.578E-03    -174.870E-03     1.72451E-03    -133.381E+06    -146.730E+06    -316.245E+06    -146.749E+06    -316.225E+06    -133.381E+06     453.589E+03         50.3929
            1381     2.51918E-03     94.4443E-03         1.71439    -864.235E-03    -884.040E-03    -863.755E-03         1.71391    -884.040E-03    -63.4962E-03     349.533E-03    -174.598E-03    -174.934E-03    -174.587E-03     349.522E-03    -174.934E-03     4.41473E-03    -112.139E+06    -138.312E+06    -285.820E+06    -138.330E+06    -285.802E+06    -112.139E+06     1.35929E+06         50.6433
            1382     3.35935E-03     94.4452E-03         1.67987    -838.006E-03    -875.939E-03    -837.934E-03         1.67980    -875.939E-03    -26.0397E-03     349.324E-03    -174.329E-03    -174.994E-03    -174.286E-03     349.280E-03    -174.994E-03     9.03329E-03    -86.9972E+06    -128.742E+06    -247.758E+06    -128.781E+06    -247.719E+06    -86.9972E+06     1.93689E+06         50.9813
            1383     4.19936E-03     94.4540E-03         1.63529    -804.867E-03    -865.257E-03    -804.847E-03         1.63527    -865.257E-03    -8.31821E-03     348.761E-03    -173.754E-03    -175.007E-03    -173.632E-03     348.640E-03    -175.007E-03     15.5166E-03    -60.4041E+06    -117.600E+06    -205.344E+06    -117.669E+06    -205.275E+06    -60.4041E+06     2.38992E+06         51.3998
            1384     5.03976E-03     94.4734E-03         1.58162    -765.172E-03    -852.171E-03    -765.122E-03         1.58157    -852.171E-03     16.3164E-03     348.437E-03    -173.461E-03    -174.976E-03    -173.174E-03     348.150E-03    -174.976E-03     23.9804E-03    -35.2187E+06    -105.926E+06    -161.987E+06    -105.989E+06    -161.923E+06    -35.2187E+06     1.85251E+06         51.8938
            1385     5.88058E-03     94.5030E-03         1.51998    -719.955E-03    -836.879E-03    -719.735E-03         1.51976    -836.879E-03     42.2516E-03     348.437E-03    -173.501E-03    -174.936E-03    -172.876E-03     347.812E-03    -174.936E-03     35.4829E-03    -10.5512E+06    -89.4286E+06    -113.375E+06    -93.5382E+06    -109.265E+06    -10.5512E+06     1.99101E+06         52.4673
            1386     6.72053E-03     94.5485E-03         1.45055    -669.331E-03    -819.561E-03    -669.007E-03         1.45023    -819.561E-03     52.3073E-03     348.422E-03    -173.525E-03    -174.897E-03    -172.413E-03     347.310E-03    -174.897E-03     47.7846E-03     14.8505E+06    -50.4730E+06    -81.9309E+06    -81.3491E+06    -51.0549E+06     14.8505E+06     2.68077E+06         53.1439
            1387     7.56117E-03     94.6084E-03         1.37404    -613.550E-03    -800.339E-03    -613.385E-03         1.37388    -800.339E-03     18.5253E-03     348.946E-03    -174.092E-03    -174.854E-03    -172.271E-03     347.125E-03    -174.854E-03     61.1423E-03     33.9837E+06    -9.62787E+06    -70.6209E+06    -70.4790E+06    -9.76972E+06     33.9837E+06     1.86144E+06         53.9811
            1388     8.40237E-03     94.6927E-03         1.29086    -553.029E-03    -779.283E-03    -552.960E-03         1.29079    -779.283E-03    -20.4882E-03     349.800E-03    -174.706E-03    -175.094E-03    -172.389E-03     347.211E-03    -174.823E-03     73.4010E-03     43.9941E+06     5.27295E+06    -60.2297E+06    -60.2097E+06     5.25294E+06     43.9941E+06     219.904E+03         55.0829
            1389     9.24280E-03     94.7853E-03         1.20149    -488.277E-03    -756.425E-03    -488.157E-03         1.20137    -756.425E-03    -28.0378E-03     350.901E-03    -174.810E-03    -176.091E-03    -172.620E-03     347.431E-03    -174.810E-03     84.9725E-03     50.5433E+06     9.11391E+06    -50.8179E+06    -50.7866E+06     9.08264E+06     50.5433E+06    -920.448E+03         56.6022
            1390     10.0831E-03     94.9034E-03         1.10607    -419.433E-03    -731.805E-03    -419.334E-03         1.10597    -731.805E-03    -24.1339E-03     351.953E-03    -174.798E-03    -177.156E-03    -172.597E-03     347.395E-03    -174.798E-03     97.6349E-03     56.9199E+06     12.3270E+06    -42.6214E+06    -42.5989E+06     12.3046E+06     56.9199E+06    -960.679E+03         58.7152
            1391     10.9238E-03     95.0317E-03         1.00481    -346.831E-03    -705.454E-03    -346.786E-03         1.00477    -705.454E-03    -6.00939E-03     352.743E-03    -174.763E-03    -177.980E-03    -172.540E-03     347.302E-03    -174.763E-03     106.859E-03     63.0705E+06     16.3726E+06    -34.9749E+06    -34.9695E+06     16.3672E+06     63.0705E+06    -445.232E+03         61.5545
            1392     11.7678E-03     95.1765E-03     898.777E-03    -271.469E-03    -677.432E-03    -271.454E-03     898.763E-03    -677.432E-03     7.64922E-03     355.584E-03    -174.717E-03    -180.867E-03    -173.680E-03     348.397E-03    -174.717E-03     122.791E-03     65.2673E+06     20.0518E+06    -27.8907E+06    -27.8832E+06     20.0443E+06     65.2673E+06    -15.4719E+03         65.1034
            1393     12.6079E-03     95.3529E-03     789.236E-03    -194.410E-03    -647.861E-03    -194.286E-03     789.112E-03    -647.861E-03     17.9148E-03     357.341E-03    -174.707E-03    -182.633E-03    -174.935E-03     349.642E-03    -174.707E-03     127.813E-03     66.3552E+06     27.4900E+06    -21.3997E+06    -21.3931E+06     27.4834E+06     66.3552E+06     91.5593E+03         69.0989
            1394     13.4472E-03     95.5142E-03     676.998E-03    -116.257E-03    -616.760E-03    -115.847E-03     676.588E-03    -616.760E-03     34.5911E-03     366.234E-03    -174.788E-03    -191.447E-03    -178.274E-03     353.062E-03    -174.788E-03     164.522E-03     82.3264E+06     46.9374E+06    -15.3631E+06    -15.3614E+06     46.9357E+06     82.3264E+06     192.676E+03         73.0247
            1395     14.2871E-03     95.8031E-03     562.627E-03    -37.3744E-03    -584.278E-03    -37.0378E-03     562.290E-03    -584.278E-03     26.8086E-03     365.814E-03    -174.962E-03    -190.852E-03    -178.116E-03     353.078E-03    -174.962E-03     160.466E-03     124.853E+06     77.2950E+06    -8.49420E+06    -8.49263E+06     77.2935E+06     124.853E+06     183.887E+03         76.2405
            1396     839.525E-06     95.8656E-03         1.75702    -813.769E-03    -971.514E-03    -813.313E-03         1.75657    -971.514E-03    -66.4720E-03     349.635E-03    -174.461E-03    -175.174E-03    -175.033E-03     349.633E-03    -174.600E-03    -323.579E-06    -145.322E+06    -151.868E+06    -340.535E+06    -150.915E+06    -340.527E+06    -146.283E+06     464.074E+03         50.2276
            1397     1.68007E-03     95.8645E-03         1.74442    -882.748E-03    -890.394E-03    -882.012E-03         1.74368    -890.394E-03    -87.7358E-03     349.375E-03    -174.525E-03    -174.850E-03    -174.524E-03     349.374E-03    -174.850E-03     937.974E-06    -130.651E+06    -145.264E+06    -317.817E+06    -145.277E+06    -317.804E+06    -130.651E+06     1.10718E+06         50.3856
            1398     2.52052E-03     95.8613E-03         1.72168    -865.894E-03    -885.040E-03    -865.449E-03         1.72123    -885.040E-03    -59.8952E-03     349.534E-03    -174.647E-03    -174.887E-03    -174.635E-03     349.522E-03    -174.887E-03     4.28977E-03    -110.539E+06    -137.705E+06    -287.314E+06    -137.724E+06    -287.294E+06    -110.539E+06     1.45142E+06         50.6363
            1399     3.35940E-03     95.8644E-03         1.68799    -840.195E-03    -877.123E-03    -840.145E-03         1.68794    -877.123E-03    -21.8736E-03     349.613E-03    -174.623E-03    -174.990E-03    -174.576E-03     349.566E-03    -174.990E-03     9.50449E-03    -86.7653E+06    -127.503E+06    -248.662E+06    -127.524E+06    -248.641E+06    -86.7653E+06     1.52202E+06         50.9744
            1400     4.19838E-03     95.8720E-03         1.64457    -808.050E-03    -866.560E-03    -808.034E-03         1.64455    -866.560E-03    -4.26709E-03     349.069E-03    -174.016E-03    -175.053E-03    -173.877E-03     348.930E-03    -175.053E-03     16.4691E-03    -61.2746E+06    -116.644E+06    -206.582E+06    -116.685E+06    -206.541E+06    -61.2746E+06     1.69417E+06         51.3928
            1401     5.03907E-03     95.8895E-03         1.59121    -768.629E-03    -853.452E-03    -768.561E-03         1.59114    -853.452E-03     21.0081E-03     348.346E-03    -173.320E-03    -175.027E-03    -173.007E-03     348.034E-03    -175.027E-03     25.1175E-03    -34.9803E+06    -105.061E+06    -162.178E+06    -105.137E+06    -162.101E+06    -34.9803E+06     1.96768E+06         51.8864
            1402     5.88005E-03     95.9199E-03         1.52856    -722.651E-03    -837.827E-03    -722.378E-03         1.52829    -837.827E-03     47.4275E-03     347.916E-03    -172.978E-03    -174.938E-03    -172.357E-03     347.295E-03    -174.938E-03     35.4553E-03    -9.17281E+06    -89.1570E+06    -113.273E+06    -93.0869E+06    -109.344E+06    -9.17281E+06     1.43061E+06         52.4588
            1403     6.72191E-03     95.9650E-03         1.45754    -670.989E-03    -819.796E-03    -670.580E-03         1.45713    -819.796E-03     58.8944E-03     348.355E-03    -173.495E-03    -174.861E-03    -172.382E-03     347.243E-03    -174.861E-03     47.7312E-03     15.8255E+06    -52.4515E+06    -80.5387E+06    -80.3379E+06    -52.6524E+06     15.8255E+06     1.65854E+06         53.1331
            1404     7.56205E-03     96.0276E-03         1.37858    -613.618E-03    -799.487E-03    -613.415E-03         1.37838    -799.487E-03     26.2611E-03     349.054E-03    -174.225E-03    -174.830E-03    -172.439E-03     347.269E-03    -174.830E-03     60.6617E-03     36.0208E+06    -9.26624E+06    -68.0184E+06    -67.7793E+06    -9.50538E+06     36.0208E+06     2.75356E+06         53.9658
            1405     8.40250E-03     96.1079E-03         1.29287    -551.763E-03    -777.017E-03    -551.733E-03         1.29284    -777.017E-03    -12.0060E-03     349.608E-03    -174.587E-03    -175.021E-03    -172.225E-03     347.027E-03    -174.801E-03     73.1475E-03     46.6307E+06     8.45934E+06    -57.7072E+06    -57.5758E+06     8.32794E+06     46.6307E+06     2.37098E+06         55.0612
            1406     9.24282E-03     96.2060E-03         1.20143    -486.335E-03    -752.522E-03    -486.278E-03         1.20137    -752.522E-03    -19.2069E-03     350.716E-03    -174.774E-03    -175.942E-03    -172.436E-03     347.210E-03    -174.774E-03     85.4315E-03     52.4685E+06     10.9400E+06    -49.5632E+06    -49.5189E+06     10.8957E+06     52.4685E+06     1.12181E+06         56.5734
            1407     10.0840E-03     96.3178E-03         1.10439    -417.373E-03    -726.130E-03    -417.327E-03         1.10434    -726.130E-03    -15.8899E-03     352.071E-03    -174.764E-03    -177.307E-03    -172.775E-03     347.539E-03    -174.764E-03     97.3806E-03     58.6705E+06     13.8606E+06    -42.0598E+06    -42.0423E+06     13.8431E+06     58.6705E+06     221.693E+03         58.6809
            1408     10.9262E-03     96.4503E-03         1.00209    -345.205E-03    -697.959E-03    -345.166E-03         1.00206    -697.959E-03     1.21330E-03     353.170E-03    -174.760E-03    -178.410E-03    -173.062E-03     347.822E-03    -174.760E-03     106.047E-03     64.3522E+06     16.5271E+06    -34.0831E+06    -34.0786E+06     16.5226E+06     64.3522E+06    -380.090E+03         61.5201
            1409     11.7649E-03     96.5910E-03     895.335E-03    -270.544E-03    -668.048E-03    -270.502E-03     895.292E-03    -668.048E-03     13.7371E-03     355.851E-03    -174.748E-03    -181.103E-03    -174.004E-03     348.751E-03    -174.748E-03     122.046E-03     66.1599E+06     19.3000E+06    -26.4129E+06    -26.4077E+06     19.2947E+06     66.1599E+06    -348.382E+03         65.0787
            1410     12.6065E-03     96.7725E-03     785.427E-03    -194.504E-03    -636.581E-03    -194.341E-03     785.265E-03    -636.581E-03     22.1643E-03     357.375E-03    -174.743E-03    -182.632E-03    -174.929E-03     349.673E-03    -174.743E-03     127.867E-03     66.0027E+06     26.7408E+06    -21.0438E+06    -21.0377E+06     26.7347E+06     66.0027E+06     203.795E+03         69.0969
            1411     13.4470E-03     96.9333E-03     673.469E-03    -118.176E-03    -603.426E-03    -117.720E-03     673.014E-03    -603.426E-03     36.7369E-03     365.874E-03    -174.800E-03    -191.074E-03    -177.762E-03     352.562E-03    -174.800E-03     165.174E-03     81.4676E+06     46.8838E+06    -15.4171E+06    -15.4119E+06     46.8786E+06     81.4676E+06     408.227E+03         73.0541
            1412     14.2891E-03     97.2205E-03     559.505E-03    -41.3243E-03    -568.873E-03    -40.9696E-03     559.151E-03    -568.873E-03     27.3671E-03     365.602E-03    -174.946E-03    -190.655E-03    -177.770E-03     352.716E-03    -174.946E-03     161.266E-03     124.929E+06     78.1365E+06    -7.98926E+06    -7.98827E+06     78.1355E+06     124.929E+06     229.320E+03         76.2974
            1413     839.681E-06     97.2851E-03         1.70899    -787.035E-03    -943.321E-03    -786.585E-03         1.70854    -943.321E-03    -66.6051E-03     349.601E-03    -174.153E-03    -175.448E-03    -175.342E-03     349.600E-03    -174.258E-03     439.637E-06    -144.137E+06    -148.478E+06    -341.999E+06    -147.531E+06    -341.985E+06    -145.098E+06     722.967E+03         50.2188
            1414     1.67916E-03     97.2798E-03         1.69540    -854.604E-03    -862.881E-03    -853.947E-03         1.69474    -862.881E-03    -81.4293E-03     349.698E-03    -174.624E-03    -175.074E-03    -174.813E-03     349.696E-03    -174.883E-03     1.53699E-03    -130.749E+06    -143.223E+06    -319.414E+06    -143.233E+06    -319.403E+06    -130.749E+06     1.05847E+06         50.3769
            1415     2.51909E-03     97.2795E-03         1.67288    -838.044E-03    -857.375E-03    -837.633E-03         1.67247    -857.375E-03    -55.4094E-03     349.567E-03    -174.498E-03    -175.069E-03    -174.591E-03     349.555E-03    -174.964E-03     4.39210E-03    -109.278E+06    -135.036E+06    -288.326E+06    -135.054E+06    -288.308E+06    -109.278E+06     1.42905E+06         50.6280
            1416     3.35950E-03     97.2822E-03         1.64039    -813.540E-03    -849.495E-03    -813.506E-03         1.64035    -849.495E-03    -17.6351E-03     349.088E-03    -174.108E-03    -174.980E-03    -174.064E-03     349.045E-03    -174.980E-03     9.11766E-03    -86.2001E+06    -126.045E+06    -249.593E+06    -126.069E+06    -249.569E+06    -86.2001E+06     1.53488E+06         50.9667
            1417     4.20064E-03     97.2894E-03         1.59858    -782.718E-03    -839.084E-03    -782.698E-03         1.59856    -839.084E-03     321.763E-06     348.665E-03    -173.706E-03    -174.959E-03    -173.570E-03     348.529E-03    -174.959E-03     16.2335E-03    -60.6185E+06    -115.932E+06    -207.273E+06    -115.980E+06    -207.225E+06    -60.6185E+06     1.88184E+06         51.3857
            1418     5.04023E-03     97.3074E-03         1.54744    -745.141E-03    -826.136E-03    -745.040E-03         1.54734    -826.136E-03     26.7209E-03     348.456E-03    -173.520E-03    -174.936E-03    -173.200E-03     348.135E-03    -174.936E-03     25.3968E-03    -34.2432E+06    -104.889E+06    -162.472E+06    -104.964E+06    -162.397E+06    -34.2432E+06     1.95275E+06         51.8794
            1419     5.88055E-03     97.3359E-03         1.48705    -701.061E-03    -810.612E-03    -700.709E-03         1.48670    -810.612E-03     53.3569E-03     348.492E-03    -173.577E-03    -174.915E-03    -172.955E-03     347.870E-03    -174.915E-03     35.6234E-03    -8.63710E+06    -88.6430E+06    -113.933E+06    -93.5646E+06    -109.011E+06    -8.63710E+06     2.04342E+06         52.4508
            1420     6.72080E-03     97.3817E-03         1.41690    -650.124E-03    -792.476E-03    -649.618E-03         1.41640    -792.476E-03     64.5930E-03     348.573E-03    -173.676E-03    -174.897E-03    -172.581E-03     347.478E-03    -174.897E-03     47.3557E-03     16.0388E+06    -52.7463E+06    -83.0031E+06    -82.5474E+06    -53.2020E+06     16.0388E+06     1.95334E+06         53.1225
            1421     7.56134E-03     97.4462E-03         1.33828    -593.274E-03    -771.774E-03    -593.027E-03         1.33803    -771.774E-03     33.1420E-03     348.716E-03    -173.859E-03    -174.857E-03    -172.115E-03     346.972E-03    -174.857E-03     59.9530E-03     34.8288E+06    -11.1875E+06    -71.5322E+06    -71.3664E+06    -11.3533E+06     34.8288E+06     2.06121E+06         53.9508
            1422     8.40207E-03     97.5243E-03         1.25365    -532.824E-03    -748.702E-03    -532.811E-03         1.25364    -748.702E-03    -3.42386E-03     349.172E-03    -174.375E-03    -174.797E-03    -171.820E-03     346.608E-03    -174.788E-03     72.8060E-03     45.6821E+06     8.63944E+06    -59.9058E+06    -59.7217E+06     8.45530E+06     45.6821E+06     2.88347E+06         55.0399
            1423     9.24435E-03     97.6223E-03         1.16324    -468.884E-03    -723.463E-03    -468.863E-03         1.16321    -723.463E-03    -11.0423E-03     350.470E-03    -174.715E-03    -175.754E-03    -172.226E-03     346.962E-03    -174.736E-03     85.4351E-03     53.3357E+06     13.3611E+06    -49.3822E+06    -49.2752E+06     13.2541E+06     53.3357E+06     2.46116E+06         56.5447
            1424     10.0847E-03     97.7364E-03         1.06727    -401.461E-03    -696.216E-03    -401.447E-03         1.06726    -696.216E-03    -7.88829E-03     352.422E-03    -174.740E-03    -177.682E-03    -173.191E-03     347.931E-03    -174.740E-03     97.0189E-03     60.4938E+06     16.6738E+06    -40.5628E+06    -40.5394E+06     16.6504E+06     60.4938E+06     801.769E+03         58.6459
            1425     10.9231E-03     97.8677E-03     967.542E-03    -332.269E-03    -667.197E-03    -332.215E-03     967.488E-03    -667.197E-03     8.77602E-03     353.691E-03    -174.776E-03    -178.915E-03    -173.588E-03     348.364E-03    -174.776E-03     105.939E-03     65.5249E+06     17.4081E+06    -33.2662E+06    -33.2602E+06     17.4021E+06     65.5249E+06     38.3117E+03         61.4838
            1426     11.7658E-03     98.0089E-03     864.299E-03    -261.463E-03    -636.452E-03    -261.373E-03     864.210E-03    -636.452E-03     19.7727E-03     356.247E-03    -174.788E-03    -181.459E-03    -174.238E-03     349.026E-03    -174.788E-03     123.083E-03     66.0535E+06     18.0223E+06    -27.1292E+06    -27.1123E+06     18.0053E+06     66.0535E+06     462.223E+03         65.0521
            1427     12.6057E-03     98.1902E-03     758.151E-03    -189.439E-03    -604.215E-03    -189.211E-03     757.923E-03    -604.215E-03     26.7581E-03     357.047E-03    -174.770E-03    -182.277E-03    -174.440E-03     349.209E-03    -174.770E-03     128.862E-03     66.8011E+06     26.8598E+06    -21.0467E+06    -21.0288E+06     26.8418E+06     66.8011E+06     821.299E+03         69.0945
            1428     13.4478E-03     98.3499E-03     649.904E-03    -117.031E-03    -570.185E-03    -116.492E-03     649.365E-03    -570.185E-03     39.6627E-03     365.182E-03    -174.790E-03    -190.392E-03    -177.112E-03     351.902E-03    -174.790E-03     164.901E-03     82.8702E+06     47.6986E+06    -15.0298E+06    -15.0197E+06     47.6885E+06     82.8702E+06     678.025E+03         73.0846
            1429     14.2898E-03     98.6366E-03     540.211E-03    -44.5137E-03    -534.760E-03    -44.1256E-03     539.823E-03    -534.760E-03     27.9068E-03     365.753E-03    -174.925E-03    -190.828E-03    -178.043E-03     352.968E-03    -174.925E-03     160.549E-03     125.527E+06     78.5255E+06    -8.24117E+06    -8.23772E+06     78.5220E+06     125.527E+06     247.956E+03         76.3546
            1430     840.751E-06     98.6998E-03         1.60393    -731.186E-03    -885.870E-03    -730.741E-03         1.60349    -885.870E-03    -64.1620E-03     349.446E-03    -174.141E-03    -175.305E-03    -174.847E-03     349.445E-03    -174.598E-03    -311.417E-06    -144.802E+06    -147.407E+06    -343.714E+06    -147.433E+06    -343.688E+06    -144.802E+06     399.166E+03         50.2085
            1431     1.68064E-03     98.6991E-03         1.59218    -799.102E-03    -806.429E-03    -798.509E-03         1.59158    -806.429E-03    -74.4084E-03     349.807E-03    -174.755E-03    -175.052E-03    -174.963E-03     349.804E-03    -174.842E-03     1.77600E-03    -131.694E+06    -142.652E+06    -319.207E+06    -142.656E+06    -319.203E+06    -131.694E+06     784.781E+03         50.3671
            1432     2.51920E-03     98.6975E-03         1.57074    -783.129E-03    -801.376E-03    -782.732E-03         1.57034    -801.376E-03    -50.5337E-03     349.544E-03    -174.472E-03    -175.072E-03    -174.565E-03     349.532E-03    -174.968E-03     4.68984E-03    -110.104E+06    -135.614E+06    -289.211E+06    -135.622E+06    -289.202E+06    -110.104E+06     970.801E+03         50.6188
            1433     3.35944E-03     98.6983E-03         1.53974    -759.705E-03    -793.866E-03    -759.687E-03         1.53972    -793.866E-03    -11.6488E-03     348.900E-03    -173.930E-03    -174.970E-03    -173.886E-03     348.856E-03    -174.970E-03     9.14017E-03    -85.1462E+06    -126.311E+06    -251.254E+06    -126.345E+06    -251.219E+06    -85.1462E+06     1.88877E+06         50.9584
            1434     4.19920E-03     98.7068E-03         1.50065    -730.981E-03    -783.856E-03    -730.951E-03         1.50062    -783.856E-03     6.79104E-03     348.565E-03    -173.637E-03    -174.928E-03    -173.512E-03     348.441E-03    -174.928E-03     15.6711E-03    -59.0463E+06    -115.651E+06    -208.398E+06    -115.716E+06    -208.333E+06    -59.0463E+06     2.39902E+06         51.3782
            1435     5.04088E-03     98.7233E-03         1.45323    -696.468E-03    -771.397E-03    -696.317E-03         1.45308    -771.397E-03     33.3144E-03     348.581E-03    -173.665E-03    -174.916E-03    -173.369E-03     348.284E-03    -174.916E-03     24.3652E-03    -32.7978E+06    -103.996E+06    -162.279E+06    -104.115E+06    -162.160E+06    -32.7978E+06     2.38269E+06         51.8723
            1436     5.88091E-03     98.7551E-03         1.39654    -655.307E-03    -756.384E-03    -654.870E-03         1.39611    -756.384E-03     58.0418E-03     348.697E-03    -173.774E-03    -174.923E-03    -173.158E-03     348.080E-03    -174.923E-03     35.3609E-03    -8.18262E+06    -89.5848E+06    -114.260E+06    -92.8818E+06    -110.963E+06    -8.18262E+06     3.25091E+06         52.4431
            1437     6.71984E-03     98.8002E-03         1.33009    -607.335E-03    -738.694E-03    -606.731E-03         1.32949    -738.694E-03     68.2357E-03     348.537E-03    -173.626E-03    -174.911E-03    -172.501E-03     347.412E-03    -174.911E-03     47.9571E-03     16.4148E+06    -52.1623E+06    -83.5220E+06    -81.6606E+06    -54.0237E+06     16.4148E+06     4.53571E+06         53.1126
            1438     7.56123E-03     98.8614E-03         1.25525    -553.653E-03    -718.334E-03    -553.354E-03         1.25495    -718.334E-03     38.2408E-03     348.517E-03    -173.667E-03    -174.849E-03    -171.873E-03     346.723E-03    -174.849E-03     60.7887E-03     35.7386E+06    -9.43935E+06    -71.2080E+06    -70.8654E+06    -9.78200E+06     35.7386E+06     3.65106E+06         53.9367
            1439     8.40297E-03     98.9420E-03         1.17421    -496.288E-03    -695.484E-03    -496.278E-03         1.17420    -695.484E-03     3.76733E-03     349.449E-03    -174.305E-03    -175.144E-03    -172.107E-03     346.889E-03    -174.783E-03     72.8587E-03     45.8680E+06     8.06754E+06    -60.6299E+06    -60.4752E+06     7.91284E+06     45.8680E+06     1.80473E+06         55.0188
            1440     9.24323E-03     99.0375E-03         1.08818    -436.228E-03    -670.379E-03    -436.224E-03         1.08818    -670.379E-03    -3.56265E-03     350.835E-03    -174.739E-03    -176.096E-03    -172.617E-03     347.377E-03    -174.760E-03     84.8633E-03     52.9646E+06     13.9490E+06    -50.3050E+06    -50.1943E+06     13.8383E+06     52.9646E+06     1.76576E+06         56.5147
            1441     10.0840E-03     99.1562E-03     997.723E-03    -373.764E-03    -643.263E-03    -373.759E-03     997.717E-03    -643.263E-03    -290.308E-06     352.009E-03    -174.762E-03    -177.246E-03    -172.791E-03     347.554E-03    -174.762E-03     96.5540E-03     59.8569E+06     18.0643E+06    -41.9315E+06    -41.8489E+06     17.9817E+06     59.8569E+06     1.82021E+06         58.6088
            1442     10.9259E-03     99.2852E-03     903.614E-03    -309.457E-03    -614.452E-03    -309.372E-03     903.529E-03    -614.452E-03     15.2788E-03     353.455E-03    -174.773E-03    -178.682E-03    -173.319E-03     348.092E-03    -174.773E-03     106.230E-03     65.0775E+06     18.0891E+06    -34.8676E+06    -34.8146E+06     18.0361E+06     65.0775E+06     1.28514E+06         61.4470
            1443     11.7648E-03     99.4268E-03     806.489E-03    -243.974E-03    -583.958E-03    -243.824E-03     806.339E-03    -583.958E-03     24.8413E-03     356.125E-03    -174.773E-03    -181.352E-03    -174.109E-03     348.881E-03    -174.773E-03     123.319E-03     66.2662E+06     18.5262E+06    -28.1718E+06    -28.1432E+06     18.4975E+06     66.2662E+06     795.234E+03         65.0272
            1444     12.6066E-03     99.6075E-03     707.548E-03    -178.165E-03    -552.079E-03    -177.872E-03     707.255E-03    -552.079E-03     30.2932E-03     356.884E-03    -174.749E-03    -182.135E-03    -174.296E-03     349.045E-03    -174.749E-03     128.862E-03     67.1728E+06     26.8052E+06    -21.8684E+06    -21.8506E+06     26.7874E+06     67.1728E+06     573.440E+03         69.0940
            1445     13.4481E-03     99.7654E-03     606.821E-03    -112.195E-03    -518.353E-03    -111.617E-03     606.243E-03    -518.353E-03     40.1596E-03     365.696E-03    -174.786E-03    -190.910E-03    -177.686E-03     352.472E-03    -174.786E-03     164.898E-03     83.6893E+06     47.9028E+06    -15.3735E+06    -15.3632E+06     47.8925E+06     83.6893E+06     797.403E+03         73.1143
            1446     14.2885E-03     100.056E-03     505.635E-03    -46.8709E-03    -483.294E-03    -46.4797E-03     505.244E-03    -483.294E-03     27.0715E-03     365.872E-03    -174.946E-03    -190.926E-03    -178.227E-03     353.173E-03    -174.946E-03     160.206E-03     126.662E+06     79.6968E+06    -8.05506E+06    -8.04955E+06     79.6912E+06     126.662E+06     464.290E+03         76.4097
            1447     839.130E-06     100.118E-03         1.44710    -647.948E-03    -801.044E-03    -647.444E-03         1.44660    -801.044E-03    -63.8270E-03     350.138E-03    -174.389E-03    -175.749E-03    -175.103E-03     350.137E-03    -175.034E-03     176.637E-06    -143.922E+06    -147.526E+06    -344.592E+06    -147.557E+06    -344.560E+06    -143.922E+06     104.243E+03         50.1975
            1448     1.67873E-03     100.116E-03         1.43642    -716.276E-03    -722.658E-03    -715.717E-03         1.43586    -722.658E-03    -68.0181E-03     349.510E-03    -174.462E-03    -175.048E-03    -174.481E-03     349.508E-03    -175.027E-03     1.31833E-03    -131.060E+06    -143.365E+06    -321.101E+06    -143.377E+06    -321.089E+06    -131.060E+06     812.645E+03         50.3565
            1449     2.52009E-03     100.115E-03         1.41809    -702.750E-03    -718.321E-03    -702.360E-03         1.41770    -718.321E-03    -45.3472E-03     349.074E-03    -174.151E-03    -174.923E-03    -174.141E-03     349.064E-03    -174.923E-03     4.29836E-03    -109.954E+06    -136.577E+06    -290.463E+06    -136.597E+06    -290.443E+06    -109.954E+06     1.64243E+06         50.6090
            1450     3.35976E-03     100.116E-03         1.39099    -682.160E-03    -711.787E-03    -682.153E-03         1.39098    -711.787E-03    -6.15463E-03     348.948E-03    -174.055E-03    -174.893E-03    -174.008E-03     348.902E-03    -174.893E-03     9.30726E-03    -83.9567E+06    -126.589E+06    -252.499E+06    -126.620E+06    -252.468E+06    -83.9567E+06     1.88449E+06         50.9496
            1451     4.20069E-03     100.123E-03         1.35630    -656.546E-03    -702.834E-03    -656.500E-03         1.35626    -702.834E-03     11.8380E-03     348.960E-03    -174.044E-03    -174.917E-03    -173.909E-03     348.826E-03    -174.917E-03     16.3048E-03    -58.1160E+06    -115.257E+06    -209.462E+06    -115.329E+06    -209.390E+06    -58.1160E+06     2.36365E+06         51.3703
            1452     5.03912E-03     100.142E-03         1.31290    -624.843E-03    -691.395E-03    -624.631E-03         1.31269    -691.395E-03     38.2132E-03     348.778E-03    -173.828E-03    -174.950E-03    -173.518E-03     348.468E-03    -174.950E-03     24.9595E-03    -32.9896E+06    -104.067E+06    -163.773E+06    -104.296E+06    -163.544E+06    -32.9896E+06     3.26078E+06         51.8648
            1453     5.87944E-03     100.172E-03         1.26074    -587.048E-03    -677.321E-03    -586.499E-03         1.26019    -677.321E-03     61.9317E-03     348.234E-03    -173.300E-03    -174.934E-03    -172.675E-03     347.608E-03    -174.934E-03     35.6126E-03    -8.25165E+06    -90.5098E+06    -116.094E+06    -92.6818E+06    -113.922E+06    -8.25165E+06     4.19393E+06         52.4354
            1454     6.72224E-03     100.217E-03         1.20027    -543.910E-03    -660.554E-03    -543.161E-03         1.19952    -660.554E-03     71.9493E-03     348.109E-03    -173.247E-03    -174.862E-03    -172.136E-03     346.998E-03    -174.862E-03     47.6768E-03     16.2065E+06    -53.3493E+06    -83.3363E+06    -80.3947E+06    -56.2909E+06     16.2065E+06     4.86649E+06         53.1032
            1455     7.56249E-03     100.279E-03         1.13214    -495.732E-03    -641.158E-03    -495.340E-03         1.13175    -641.158E-03     43.5505E-03     348.862E-03    -173.952E-03    -174.909E-03    -172.287E-03     347.092E-03    -174.805E-03     60.3946E-03     37.0113E+06    -7.39729E+06    -68.6536E+06    -68.1906E+06    -7.86027E+06     37.0113E+06     5.17501E+06         53.9229
            1456     8.40272E-03     100.358E-03         1.05801    -443.910E-03    -619.293E-03    -443.883E-03         1.05798    -619.293E-03     10.3309E-03     350.099E-03    -174.625E-03    -175.474E-03    -172.739E-03     347.540E-03    -174.802E-03     72.9041E-03     48.6186E+06     10.8399E+06    -58.5968E+06    -58.1409E+06     10.3840E+06     48.6186E+06     4.34022E+06         54.9975
            1457     9.24230E-03     100.458E-03     979.872E-03    -390.259E-03    -595.242E-03    -390.253E-03     979.866E-03    -595.242E-03     3.79157E-03     351.031E-03    -174.813E-03    -176.218E-03    -172.750E-03     347.563E-03    -174.813E-03     85.0236E-03     53.9563E+06     14.1935E+06    -51.0634E+06    -50.7439E+06     13.8740E+06     53.9563E+06     3.01718E+06         56.4839
            1458     10.0829E-03     100.570E-03     898.354E-03    -335.008E-03    -569.302E-03    -334.994E-03     898.340E-03    -569.302E-03     6.80617E-03     351.828E-03    -174.804E-03    -177.024E-03    -172.560E-03     347.364E-03    -174.804E-03     96.6147E-03     60.1427E+06     18.2593E+06    -42.4433E+06    -42.3307E+06     18.1467E+06     60.1427E+06     2.57729E+06         58.5705
            1459     10.9244E-03     100.703E-03     813.325E-03    -277.979E-03    -541.770E-03    -277.843E-03     813.189E-03    -541.770E-03     20.6172E-03     352.952E-03    -174.782E-03    -178.169E-03    -172.813E-03     347.595E-03    -174.782E-03     106.067E-03     66.0048E+06     19.5187E+06    -33.9206E+06    -33.8402E+06     19.4383E+06     66.0048E+06     2.01877E+06         61.4088
            1460     11.7661E-03     100.846E-03     725.394E-03    -219.731E-03    -512.618E-03    -219.503E-03     725.166E-03    -512.618E-03     29.1076E-03     355.709E-03    -174.753E-03    -180.956E-03    -173.773E-03     348.526E-03    -174.753E-03     122.752E-03     67.6744E+06     20.3501E+06    -26.7836E+06    -26.7507E+06     20.3172E+06     67.6744E+06     901.575E+03         65.0014
            1461     12.6074E-03     101.021E-03     636.114E-03    -161.476E-03    -482.186E-03    -161.108E-03     635.745E-03    -482.186E-03     32.8222E-03     357.348E-03    -174.740E-03    -182.608E-03    -174.828E-03     349.568E-03    -174.740E-03     128.501E-03     68.2977E+06     26.8568E+06    -20.5663E+06    -20.5380E+06     26.8285E+06     68.2977E+06     781.243E+03         69.0918
            1462     13.4477E-03     101.187E-03     546.492E-03    -104.401E-03    -449.903E-03    -103.754E-03     545.845E-03    -449.903E-03     40.4367E-03     365.900E-03    -174.799E-03    -191.100E-03    -177.913E-03     352.712E-03    -174.799E-03     164.681E-03     83.4717E+06     47.8283E+06    -15.2722E+06    -15.2514E+06     47.8075E+06     83.4717E+06     975.986E+03         73.1421
            1463     14.2881E-03     101.472E-03     457.843E-03    -49.1365E-03    -416.447E-03    -48.7157E-03     457.422E-03    -416.447E-03     26.8019E-03     365.439E-03    -174.953E-03    -190.486E-03    -177.768E-03     352.721E-03    -174.953E-03     160.355E-03     126.253E+06     80.6877E+06    -8.52195E+06    -8.51679E+06     80.6826E+06     126.253E+06     644.925E+03         76.4651
            1464     839.253E-06     101.537E-03         1.24470    -541.861E-03    -692.477E-03    -541.189E-03         1.24403    -692.477E-03    -64.8593E-03     350.122E-03    -174.322E-03    -175.800E-03    -175.534E-03     350.121E-03    -174.588E-03     381.815E-06    -143.012E+06    -149.638E+06    -345.995E+06    -147.465E+06    -345.964E+06    -145.216E+06     1.23682E+06         50.1864
            1465     1.67966E-03     101.533E-03         1.23570    -610.217E-03    -615.648E-03    -609.623E-03         1.23510    -615.648E-03    -63.5435E-03     349.319E-03    -174.320E-03    -174.998E-03    -174.318E-03     349.316E-03    -174.998E-03     1.85329E-03    -130.123E+06    -143.986E+06    -322.942E+06    -144.010E+06    -322.918E+06    -130.123E+06     1.27818E+06         50.3460
            1466     2.51939E-03     101.531E-03         1.22132    -599.602E-03    -612.075E-03    -599.150E-03         1.22086    -612.075E-03    -42.9935E-03     348.933E-03    -174.074E-03    -174.859E-03    -174.062E-03     348.921E-03    -174.859E-03     4.60768E-03    -109.168E+06    -135.941E+06    -292.513E+06    -135.968E+06    -292.486E+06    -109.168E+06     1.83255E+06         50.5992
            1467     3.36060E-03     101.533E-03         1.19933    -582.912E-03    -606.710E-03    -582.910E-03         1.19932    -606.710E-03    -2.64105E-03     348.967E-03    -174.132E-03    -174.835E-03    -174.088E-03     348.923E-03    -174.835E-03     9.22031E-03    -84.6792E+06    -126.456E+06    -253.729E+06    -126.508E+06    -253.676E+06    -84.6792E+06     2.39884E+06         50.9407
            1468     4.19951E-03     101.542E-03         1.16907    -560.223E-03    -599.064E-03    -560.152E-03         1.16900    -599.064E-03     15.3413E-03     348.839E-03    -173.967E-03    -174.871E-03    -173.830E-03     348.702E-03    -174.871E-03     16.3866E-03    -59.1659E+06    -116.107E+06    -211.186E+06    -116.217E+06    -211.076E+06    -59.1659E+06     3.00325E+06         51.3622
            1469     5.04075E-03     101.560E-03         1.13065    -532.058E-03    -588.886E-03    -531.763E-03         1.13035    -588.886E-03     42.2098E-03     348.549E-03    -173.657E-03    -174.892E-03    -173.338E-03     348.230E-03    -174.892E-03     25.3548E-03    -33.9074E+06    -104.757E+06    -166.240E+06    -105.066E+06    -165.931E+06    -33.9074E+06     3.97722E+06         51.8572
            1470     5.88138E-03     101.588E-03         1.08522    -499.438E-03    -576.136E-03    -498.715E-03         1.08449    -576.136E-03     65.7534E-03     348.428E-03    -173.541E-03    -174.887E-03    -172.921E-03     347.808E-03    -174.887E-03     35.5410E-03    -9.01850E+06    -91.3106E+06    -117.739E+06    -93.4349E+06    -115.615E+06    -9.01850E+06     4.47778E+06         52.4273
            1471     6.72048E-03     101.634E-03         1.03274    -462.595E-03    -560.819E-03    -461.611E-03         1.03175    -560.819E-03     76.1970E-03     348.438E-03    -173.576E-03    -174.862E-03    -172.497E-03     347.358E-03    -174.862E-03     47.0307E-03     15.7070E+06    -54.9141E+06    -84.6015E+06    -81.6859E+06    -57.8297E+06     15.7070E+06     4.78829E+06         53.0928
            1472     7.56198E-03     101.696E-03     973.695E-03    -421.637E-03    -542.994E-03    -421.100E-03     973.158E-03    -542.994E-03     48.7786E-03     349.009E-03    -174.074E-03    -174.935E-03    -172.420E-03     347.251E-03    -174.831E-03     60.1479E-03     35.5505E+06    -8.92507E+06    -71.0355E+06    -70.5143E+06    -9.44624E+06     35.5505E+06     5.56290E+06         53.9078
            1473     8.40161E-03     101.778E-03     910.469E-03    -378.518E-03    -522.906E-03    -378.453E-03     910.404E-03    -522.906E-03     16.8920E-03     349.896E-03    -174.662E-03    -175.234E-03    -172.494E-03     347.311E-03    -174.817E-03     73.2522E-03     47.3845E+06     11.7121E+06    -60.2585E+06    -59.6870E+06     11.1405E+06     47.3845E+06     6.16774E+06         54.9752
            1474     9.24293E-03     101.874E-03     843.724E-03    -333.725E-03    -500.896E-03    -333.702E-03     843.702E-03    -500.896E-03     9.86261E-03     350.683E-03    -174.804E-03    -175.879E-03    -172.388E-03     347.193E-03    -174.804E-03     85.2565E-03     55.4705E+06     16.8743E+06    -49.3893E+06    -48.9673E+06     16.4523E+06     55.4705E+06     4.80457E+06         56.4534
            1475     10.0842E-03     101.989E-03     772.474E-03    -286.057E-03    -477.121E-03    -286.025E-03     772.441E-03    -477.121E-03     11.1459E-03     352.064E-03    -174.790E-03    -177.274E-03    -172.714E-03     347.505E-03    -174.790E-03     97.6341E-03     62.7086E+06     19.4067E+06    -39.9639E+06    -39.7866E+06     19.2294E+06     62.7086E+06     3.08556E+06         58.5330
            1476     10.9239E-03     102.120E-03     698.712E-03    -237.448E-03    -451.821E-03    -237.246E-03     698.511E-03    -451.821E-03     24.1718E-03     353.334E-03    -174.785E-03    -178.549E-03    -173.142E-03     347.927E-03    -174.785E-03     106.678E-03     68.1439E+06     21.2811E+06    -32.5293E+06    -32.4006E+06     21.1524E+06     68.1439E+06     2.51300E+06         61.3698
            1477     11.7664E-03     102.260E-03     623.144E-03    -188.641E-03    -424.981E-03    -188.316E-03     622.819E-03    -424.981E-03     32.2004E-03     356.009E-03    -174.778E-03    -181.231E-03    -174.118E-03     348.896E-03    -174.778E-03     122.210E-03     69.0586E+06     22.0377E+06    -25.8821E+06    -25.7852E+06     21.9409E+06     69.0586E+06     2.04189E+06         64.9717
            1478     12.6062E-03     102.444E-03     547.162E-03    -140.567E-03    -397.002E-03    -140.065E-03     546.660E-03    -397.002E-03     35.6202E-03     357.267E-03    -174.773E-03    -182.493E-03    -174.756E-03     349.529E-03    -174.773E-03     128.148E-03     68.6463E+06     26.5788E+06    -20.3623E+06    -20.2887E+06     26.5052E+06     68.6463E+06     1.78592E+06         69.0855
            1479     13.4463E-03     102.602E-03     472.319E-03    -94.8841E-03    -367.296E-03    -94.0767E-03     471.511E-03    -367.296E-03     42.2813E-03     365.315E-03    -174.805E-03    -190.510E-03    -177.225E-03     352.030E-03    -174.805E-03     164.968E-03     83.7933E+06     48.5234E+06    -15.0713E+06    -15.0319E+06     48.4840E+06     83.7933E+06     1.45809E+06         73.1696
            1480     14.2897E-03     102.889E-03     398.855E-03    -51.2431E-03    -336.626E-03    -50.7485E-03     398.361E-03    -336.626E-03     27.1016E-03     365.283E-03    -174.927E-03    -190.356E-03    -177.549E-03     352.476E-03    -174.927E-03     160.664E-03     126.543E+06     82.0232E+06    -8.52533E+06    -8.51046E+06     82.0084E+06     126.543E+06     990.760E+03         76.5226
            1481     840.347E-06     102.953E-03         1.00413    -418.979E-03    -561.707E-03    -418.008E-03         1.00316    -561.707E-03    -65.3553E-03     349.078E-03    -173.878E-03    -175.199E-03    -174.535E-03     349.077E-03    -174.543E-03     1.57833E-06    -144.899E+06    -152.985E+06    -347.772E+06    -150.804E+06    -347.750E+06    -147.103E+06    -186.400E+03         50.1765
            1482     1.68007E-03     102.950E-03     998.768E-03    -485.975E-03    -489.190E-03    -485.354E-03     998.146E-03    -489.190E-03    -56.6554E-03     349.312E-03    -174.449E-03    -174.863E-03    -174.662E-03     349.311E-03    -174.649E-03     1.59237E-03    -131.441E+06    -143.817E+06    -324.551E+06    -143.853E+06    -324.515E+06    -131.441E+06     1.20249E+06         50.3364
            1483     2.52069E-03     102.947E-03     987.859E-03    -477.580E-03    -486.722E-03    -477.063E-03     987.342E-03    -486.722E-03    -38.6056E-03     349.266E-03    -174.422E-03    -174.844E-03    -174.485E-03     349.254E-03    -174.769E-03     4.49473E-03    -109.870E+06    -136.432E+06    -294.204E+06    -136.465E+06    -294.171E+06    -109.870E+06     1.97495E+06         50.5900
            1484     3.35952E-03     102.950E-03     968.890E-03    -462.689E-03    -482.355E-03    -462.687E-03     968.888E-03    -482.355E-03     1.55340E-03     349.062E-03    -174.224E-03    -174.838E-03    -174.178E-03     349.016E-03    -174.838E-03     9.39747E-03    -85.9484E+06    -126.637E+06    -255.919E+06    -126.699E+06    -255.857E+06    -85.9484E+06     2.61150E+06         50.9319
            1485     4.20067E-03     102.959E-03     944.445E-03    -444.498E-03    -475.844E-03    -444.377E-03     944.325E-03    -475.844E-03     18.8613E-03     348.717E-03    -173.844E-03    -174.873E-03    -173.718E-03     348.591E-03    -174.873E-03     15.8264E-03    -60.2734E+06    -115.857E+06    -213.596E+06    -115.993E+06    -213.459E+06    -60.2734E+06     3.50553E+06         51.3537
            1486     5.04070E-03     102.976E-03     913.987E-03    -422.598E-03    -467.191E-03    -422.169E-03     913.558E-03    -467.191E-03     45.7829E-03     348.402E-03    -173.526E-03    -174.877E-03    -173.229E-03     348.105E-03    -174.877E-03     24.3614E-03    -34.3279E+06    -104.332E+06    -168.719E+06    -104.682E+06    -168.369E+06    -34.3279E+06     4.36242E+06         51.8488
            1487     5.88048E-03     103.007E-03     877.524E-03    -396.931E-03    -456.278E-03    -395.945E-03     876.538E-03    -456.278E-03     68.6444E-03     348.569E-03    -173.692E-03    -174.877E-03    -173.083E-03     347.960E-03    -174.877E-03     35.1968E-03    -8.68075E+06    -90.4001E+06    -119.264E+06    -92.8646E+06    -116.800E+06    -8.68075E+06     5.14657E+06         52.4180
            1488     6.72136E-03     103.051E-03     835.418E-03    -368.093E-03    -443.088E-03    -366.778E-03     834.103E-03    -443.088E-03     78.7686E-03     348.759E-03    -173.876E-03    -174.883E-03    -172.783E-03     347.666E-03    -174.883E-03     47.3094E-03     15.9320E+06    -56.4566E+06    -85.5420E+06    -81.7062E+06    -60.2924E+06     15.9320E+06     6.04614E+06         53.0811
            1489     7.56073E-03     103.114E-03     787.990E-03    -335.968E-03    -427.667E-03    -335.242E-03     787.265E-03    -427.667E-03     51.7017E-03     348.818E-03    -173.967E-03    -174.851E-03    -172.152E-03     347.003E-03    -174.851E-03     61.0497E-03     35.7677E+06    -10.2638E+06    -71.3998E+06    -70.5833E+06    -11.0803E+06     35.7677E+06     6.78038E+06         53.8915
            1490     8.40288E-03     103.195E-03     736.857E-03    -301.894E-03    -410.192E-03    -301.778E-03     736.741E-03    -410.192E-03     20.9113E-03     349.372E-03    -174.441E-03    -174.931E-03    -171.949E-03     346.738E-03    -174.790E-03     73.9037E-03     47.9451E+06     12.4706E+06    -59.8327E+06    -59.3716E+06     12.0095E+06     47.9451E+06     5.66373E+06         54.9524
            1491     9.24328E-03     103.292E-03     682.248E-03    -265.960E-03    -390.940E-03    -265.913E-03     682.201E-03    -390.940E-03     12.9872E-03     350.656E-03    -174.751E-03    -175.905E-03    -172.395E-03     347.145E-03    -174.751E-03     85.4936E-03     55.6895E+06     18.1653E+06    -49.6085E+06    -49.2828E+06     17.8396E+06     55.6895E+06     4.67016E+06         56.4224
            1492     10.0840E-03     103.405E-03     624.206E-03    -228.057E-03    -370.034E-03    -227.988E-03     624.137E-03    -370.034E-03     14.2450E-03     352.254E-03    -174.754E-03    -177.500E-03    -172.998E-03     347.751E-03    -174.754E-03     97.1040E-03     62.8352E+06     21.3926E+06    -41.2132E+06    -40.9235E+06     21.1029E+06     62.8352E+06     4.22408E+06         58.4944
            1493     10.9264E-03     103.538E-03     564.101E-03    -189.536E-03    -347.760E-03    -189.236E-03     563.801E-03    -347.760E-03     27.2008E-03     353.712E-03    -174.786E-03    -178.926E-03    -173.600E-03     348.386E-03    -174.786E-03     105.933E-03     68.4590E+06     22.0641E+06    -33.8545E+06    -33.5929E+06     21.8025E+06     68.4590E+06     3.73256E+06         61.3289
            1494     11.7637E-03     103.679E-03     503.353E-03    -151.727E-03    -324.117E-03    -151.261E-03     502.887E-03    -324.117E-03     34.4750E-03     356.244E-03    -174.800E-03    -181.444E-03    -174.242E-03     349.042E-03    -174.800E-03     122.916E-03     69.1403E+06     22.5054E+06    -27.3645E+06    -27.1212E+06     22.2620E+06     69.1403E+06     3.39765E+06         64.9404
            1495     12.6053E-03     103.859E-03     444.297E-03    -116.388E-03    -299.599E-03    -115.714E-03     443.624E-03    -299.599E-03     37.5192E-03     356.747E-03    -174.773E-03    -181.975E-03    -174.079E-03     348.851E-03    -174.773E-03     129.297E-03     68.8730E+06     27.3543E+06    -21.3413E+06    -21.1931E+06     27.2061E+06     68.8730E+06     2.60159E+06         69.0800
            1496     13.4492E-03     104.019E-03     386.606E-03    -83.4240E-03    -273.534E-03    -82.4296E-03     385.612E-03    -273.534E-03     42.7966E-03     365.125E-03    -174.776E-03    -190.349E-03    -177.017E-03     351.793E-03    -174.776E-03     165.405E-03     84.7247E+06     49.3010E+06    -15.3993E+06    -15.3222E+06     49.2239E+06     84.7247E+06     2.01877E+06         73.1992
            1497     14.2893E-03     104.307E-03     330.521E-03    -52.4300E-03    -246.693E-03    -51.8474E-03     329.938E-03    -246.693E-03     26.8148E-03     365.349E-03    -174.898E-03    -190.451E-03    -177.668E-03     352.566E-03    -174.898E-03     160.541E-03     128.050E+06     84.0244E+06    -8.55345E+06    -8.53324E+06     84.0042E+06     128.050E+06     1.04478E+06         76.5814
            1498     840.831E-06     104.369E-03     734.882E-03    -282.932E-03    -413.208E-03    -281.331E-03     733.232E-03    -413.159E-03    -64.4257E-03     348.995E-03    -173.694E-03    -175.301E-03    -174.642E-03     348.995E-03    -174.353E-03     29.3934E-06    -141.963E+06    -152.325E+06    -346.926E+06    -149.155E+06    -346.915E+06    -145.143E+06    -301.017E+03         50.1682
            1499     1.68072E-03     104.367E-03     730.645E-03    -345.301E-03    -346.961E-03    -344.586E-03     729.882E-03    -346.911E-03    -49.3446E-03     349.366E-03    -174.522E-03    -174.844E-03    -174.735E-03     349.364E-03    -174.629E-03     1.07029E-03    -131.116E+06    -143.633E+06    -327.098E+06    -143.659E+06    -327.072E+06    -131.116E+06     21.9505E+03         50.3280
            1500     2.51933E-03     104.365E-03     722.995E-03    -339.381E-03    -345.303E-03    -338.674E-03     722.288E-03    -345.303E-03    -34.7497E-03     349.459E-03    -174.595E-03    -174.864E-03    -174.659E-03     349.449E-03    -174.790E-03     4.26480E-03    -110.702E+06    -135.561E+06    -297.138E+06    -135.616E+06    -297.084E+06    -110.702E+06     1.83952E+06         50.5814
            1501     3.36040E-03     104.367E-03     709.296E-03    -328.377E-03    -342.140E-03    -328.369E-03     709.288E-03    -342.140E-03     4.96977E-03     349.209E-03    -174.322E-03    -174.887E-03    -174.278E-03     349.165E-03    -174.887E-03     9.15231E-03    -87.1031E+06    -127.221E+06    -257.877E+06    -127.289E+06    -257.809E+06    -87.1031E+06     2.76970E+06         50.9230
            1502     4.19947E-03     104.376E-03     692.006E-03    -315.558E-03    -337.236E-03    -315.354E-03     691.801E-03    -337.236E-03     21.4993E-03     348.944E-03    -174.006E-03    -174.938E-03    -173.883E-03     348.821E-03    -174.938E-03     15.5898E-03    -61.6548E+06    -116.861E+06    -216.178E+06    -117.000E+06    -216.038E+06    -61.6548E+06     3.48379E+06         51.3446
            1503     5.03953E-03     104.393E-03     671.365E-03    -301.252E-03    -330.640E-03    -300.580E-03     670.693E-03    -330.640E-03     48.8009E-03     348.533E-03    -173.581E-03    -174.952E-03    -173.290E-03     348.243E-03    -174.952E-03     24.1058E-03    -35.2440E+06    -105.077E+06    -171.165E+06    -105.434E+06    -170.808E+06    -35.2440E+06     4.54975E+06         51.8392
            1504     5.88106E-03     104.423E-03     646.626E-03    -284.566E-03    -322.230E-03    -283.137E-03     645.197E-03    -322.230E-03     70.2236E-03     348.085E-03    -173.174E-03    -174.911E-03    -172.553E-03     347.463E-03    -174.911E-03     35.3935E-03    -9.61174E+06    -91.0798E+06    -122.151E+06    -93.6856E+06    -119.545E+06    -9.61174E+06     5.80236E+06         52.4076
            1505     6.72064E-03     104.470E-03     616.448E-03    -264.483E-03    -311.855E-03    -262.600E-03     614.565E-03    -311.855E-03     79.7974E-03     348.313E-03    -173.464E-03    -174.849E-03    -172.350E-03     347.200E-03    -174.849E-03     47.7901E-03     14.9802E+06    -57.8167E+06    -87.6659E+06    -82.1377E+06     -63.345E+06     14.9802E+06     7.19384E+06         53.0687
            1506     7.56255E-03     104.529E-03     581.150E-03    -241.058E-03    -299.483E-03    -239.952E-03     580.044E-03    -299.483E-03     55.0287E-03     348.831E-03    -174.033E-03    -174.798E-03    -172.229E-03     347.028E-03    -174.798E-03     60.8890E-03     35.7971E+06    -10.2283E+06    -71.4502E+06    -70.4831E+06    -11.1954E+06     35.7971E+06     7.21997E+06         53.8749
            1507     8.40272E-03     104.612E-03     542.051E-03    -215.421E-03    -285.181E-03    -215.169E-03     541.799E-03    -285.181E-03     25.6440E-03     349.363E-03    -174.481E-03    -174.881E-03    -172.019E-03     346.771E-03    -174.752E-03     73.3237E-03     48.4727E+06     14.1347E+06    -60.1858E+06    -59.6197E+06     13.5685E+06     48.4727E+06     6.40739E+06         54.9287
            1508     9.24458E-03     104.708E-03     500.796E-03    -189.148E-03    -269.151E-03    -189.014E-03     500.662E-03    -269.151E-03     17.7686E-03     350.792E-03    -174.729E-03    -176.062E-03    -172.574E-03     347.304E-03    -174.729E-03     85.2140E-03     55.5280E+06     18.6058E+06    -51.1655E+06    -50.6267E+06     18.0670E+06     55.5280E+06     6.02401E+06         56.3895
            1509     10.0844E-03     104.826E-03     458.164E-03    -162.737E-03    -251.670E-03    -162.585E-03     458.012E-03    -251.670E-03     18.2821E-03     352.599E-03    -174.756E-03    -177.843E-03    -173.354E-03     348.109E-03    -174.756E-03     97.0462E-03     62.2415E+06     22.0359E+06    -43.3450E+06    -42.8278E+06     21.5187E+06     62.2415E+06     5.62900E+06         58.4531
            1510     10.9223E-03     104.954E-03     415.356E-03    -137.137E-03    -233.183E-03    -136.665E-03     414.884E-03    -233.183E-03     29.4760E-03     353.379E-03    -174.788E-03    -178.591E-03    -173.215E-03     348.003E-03    -174.788E-03     106.319E-03     68.0268E+06     22.7465E+06    -35.7138E+06    -35.3077E+06     22.3403E+06     68.0268E+06     4.68181E+06         61.2864
            1511     11.7666E-03     105.099E-03     372.844E-03    -112.768E-03    -213.661E-03    -112.072E-03     372.148E-03    -213.661E-03     36.0631E-03     355.513E-03    -174.762E-03    -180.751E-03    -173.479E-03     348.241E-03    -174.762E-03     123.409E-03     69.3689E+06     23.2298E+06    -28.2143E+06    -27.9549E+06     22.9705E+06     69.3689E+06     3.57903E+06         64.9112
            1512     12.6082E-03     105.274E-03     331.802E-03    -90.3442E-03    -193.531E-03    -89.3957E-03     330.854E-03    -193.531E-03     38.4600E-03     356.858E-03    -174.719E-03    -182.139E-03    -174.263E-03     348.982E-03    -174.719E-03     129.145E-03     69.8768E+06     28.4327E+06    -21.3732E+06    -21.1782E+06     28.2377E+06     69.8768E+06     3.10534E+06         69.0776
            1513     13.4477E-03     105.437E-03     292.571E-03    -70.4215E-03    -172.021E-03    -69.1618E-03     291.311E-03    -172.021E-03     42.1757E-03     365.259E-03    -174.739E-03    -190.520E-03    -177.200E-03     351.939E-03    -174.739E-03     165.266E-03     85.7914E+06     50.2414E+06    -15.2626E+06    -15.1380E+06     50.1168E+06     85.7914E+06     2.56274E+06         73.2298
            1514     14.2901E-03     105.723E-03     256.170E-03    -53.3425E-03    -149.934E-03    -52.6637E-03     255.491E-03    -149.934E-03     25.8400E-03     365.451E-03    -174.872E-03    -190.579E-03    -177.761E-03     352.633E-03    -174.872E-03     160.802E-03     129.874E+06     86.6012E+06    -8.01865E+06    -7.98856E+06     86.5712E+06     129.874E+06     1.38679E+06         76.6404
            1515     838.972E-06     105.785E-03     445.994E-03    -140.693E-03    -252.034E-03    -136.397E-03     441.649E-03    -251.985E-03    -66.5486E-03     350.031E-03    -174.135E-03    -175.896E-03    -175.710E-03     350.030E-03    -174.321E-03    -487.299E-06    -141.993E+06    -151.778E+06    -347.678E+06    -148.617E+06    -347.659E+06    -145.172E+06     1.15865E+06         50.1606
            1516     1.67928E-03     105.784E-03     441.347E-03    -192.778E-03    -195.316E-03    -192.545E-03     439.919E-03    -194.120E-03    -45.5417E-03     349.595E-03    -174.580E-03    -175.015E-03    -174.579E-03     349.594E-03    -175.015E-03     747.590E-06    -131.234E+06    -144.934E+06    -328.955E+06    -144.978E+06    -328.911E+06    -131.234E+06     1.67039E+06         50.3197
            1517     2.52051E-03     105.782E-03     438.013E-03    -190.295E-03    -194.387E-03    -190.033E-03     436.604E-03    -193.241E-03    -35.4492E-03     349.445E-03    -174.468E-03    -174.977E-03    -174.458E-03     349.435E-03    -174.977E-03     3.97355E-03    -111.695E+06    -137.926E+06    -299.889E+06    -137.988E+06    -299.827E+06    -111.695E+06     1.92323E+06         50.5724
            1518     3.35889E-03     105.785E-03     430.697E-03    -185.168E-03    -191.551E-03    -185.154E-03     430.684E-03    -191.551E-03     4.44223E-03     349.187E-03    -174.204E-03    -174.982E-03    -174.161E-03     349.144E-03    -174.982E-03     8.99855E-03    -88.0565E+06    -128.432E+06    -260.195E+06    -128.544E+06    -260.083E+06    -88.0565E+06     3.29917E+06         50.9136
            1519     4.19980E-03     105.793E-03     422.787E-03    -179.537E-03    -188.762E-03    -179.147E-03     422.398E-03    -188.762E-03     20.8200E-03     348.719E-03    -173.743E-03    -174.976E-03    -173.610E-03     348.587E-03    -174.976E-03     16.1015E-03    -62.7053E+06    -118.436E+06    -218.761E+06    -118.612E+06    -218.586E+06    -62.7053E+06     4.05239E+06         51.3351
            1520     5.03998E-03     105.812E-03     412.481E-03    -172.708E-03    -184.737E-03    -171.523E-03     411.295E-03    -184.737E-03     48.9307E-03     348.317E-03    -173.377E-03    -174.940E-03    -173.068E-03     348.008E-03    -174.940E-03     24.9144E-03    -37.2181E+06    -107.444E+06    -174.317E+06    -107.916E+06    -173.845E+06    -37.2181E+06     4.96536E+06         51.8296
            1521     5.87948E-03     105.839E-03     399.322E-03    -164.422E-03    -179.190E-03    -161.887E-03     396.787E-03    -179.190E-03     69.8031E-03     347.965E-03    -173.091E-03    -174.874E-03    -172.454E-03     347.328E-03    -174.874E-03     35.8557E-03    -12.6673E+06    -94.3601E+06    -126.098E+06    -96.8499E+06    -123.609E+06    -12.6673E+06     6.30593E+06         52.3974
            1522     6.72292E-03     105.885E-03     381.670E-03    -153.509E-03    -171.854E-03    -150.050E-03     378.211E-03    -171.854E-03     80.6001E-03     348.167E-03    -173.365E-03    -174.802E-03    -172.240E-03     347.042E-03    -174.802E-03     48.0224E-03     12.4369E+06    -59.6464E+06    -90.7469E+06    -84.6843E+06    -65.7089E+06     12.4369E+06     7.29709E+06         53.0564
            1523     7.56187E-03     105.949E-03     357.976E-03    -138.071E-03    -162.689E-03    -135.963E-03     355.868E-03    -162.689E-03     57.5278E-03     348.997E-03    -174.185E-03    -174.811E-03    -172.466E-03     347.231E-03    -174.765E-03     60.3496E-03     34.4704E+06    -10.5244E+06    -73.6850E+06    -72.6341E+06    -11.5753E+06     34.4704E+06     7.73907E+06         53.8580
            1524     8.40292E-03     106.027E-03     332.301E-03    -122.014E-03    -151.845E-03    -121.447E-03     331.734E-03    -151.845E-03     29.5538E-03     349.846E-03    -174.687E-03    -175.159E-03    -172.537E-03     347.301E-03    -174.764E-03     72.6862E-03     47.5456E+06     14.4446E+06    -62.7797E+06    -62.0331E+06     13.6980E+06     47.5456E+06     7.51797E+06         54.9040
            1525     9.24271E-03     106.127E-03     307.287E-03    -107.796E-03    -139.576E-03    -107.470E-03     306.961E-03    -139.576E-03     21.7400E-03     350.737E-03    -174.764E-03    -175.973E-03    -172.492E-03     347.256E-03    -174.764E-03     85.1087E-03     54.9375E+06     18.8987E+06    -53.0080E+06    -52.2903E+06     18.1810E+06     54.9375E+06     7.14681E+06         56.3550
            1526     10.0837E-03     106.242E-03     282.108E-03    -94.1286E-03    -126.337E-03    -93.9180E-03     281.768E-03    -126.208E-03     20.9983E-03     351.836E-03    -174.751E-03    -177.085E-03    -172.536E-03     347.288E-03    -174.751E-03     97.5066E-03     62.3985E+06     22.2846E+06    -43.8698E+06    -43.1764E+06     21.5913E+06     62.3985E+06     6.72968E+06         58.4114
            1527     10.9265E-03     106.374E-03     258.264E-03    -80.3749E-03    -114.386E-03    -81.6187E-03     257.361E-03    -112.240E-03     31.0873E-03     352.896E-03    -174.735E-03    -178.161E-03    -172.754E-03     347.489E-03    -174.735E-03     106.577E-03     69.4227E+06     24.7227E+06    -35.4167E+06    -34.9164E+06     24.2224E+06     69.4227E+06     5.36069E+06         61.2456
            1528     11.7660E-03     106.510E-03     235.314E-03    -65.8491E-03    -103.912E-03    -70.9387E-03     234.040E-03    -97.5487E-03     37.3860E-03     355.787E-03    -174.710E-03    -181.077E-03    -173.840E-03     348.550E-03    -174.710E-03     123.170E-03     71.1643E+06     25.5602E+06    -28.0819E+06    -27.7610E+06     25.2394E+06     71.1643E+06     4.04782E+06         64.8822
            1529     12.6071E-03     106.695E-03     214.041E-03    -51.6198E-03    -94.5654E-03    -62.1520E-03     212.501E-03    -82.4934E-03     39.1691E-03     356.898E-03    -174.688E-03    -182.211E-03    -174.417E-03     349.104E-03    -174.688E-03     128.470E-03     70.4185E+06     29.6835E+06    -22.3219E+06    -22.0920E+06     29.4537E+06     70.4185E+06     3.20119E+06         69.0733
            1530     13.4490E-03     106.852E-03     195.335E-03    -38.3398E-03    -86.0859E-03    -56.2758E-03     193.516E-03    -66.3312E-03     41.7751E-03     365.201E-03    -174.718E-03    -190.482E-03    -177.238E-03     351.956E-03    -174.718E-03     164.634E-03     85.9777E+06     51.1512E+06    -16.1412E+06    -16.0516E+06     51.0615E+06     85.9777E+06     2.19349E+06         73.2591
            1531     14.2915E-03     107.140E-03     179.890E-03    -26.7255E-03    -78.6199E-03    -54.6056E-03     178.964E-03    -49.8138E-03     25.7475E-03     365.921E-03    -174.872E-03    -191.049E-03    -178.268E-03     353.140E-03    -174.872E-03     160.590E-03     130.661E+06     88.6571E+06    -8.60333E+06    -8.56902E+06     88.6228E+06     130.661E+06     1.74196E+06         76.6985
            1532     839.621E-06     107.206E-03     197.059E-03    -32.5071E-03    -97.1252E-03     9.52202E-03     140.425E-03    -82.5205E-03    -69.4711E-03     350.420E-03    -174.698E-03    -175.722E-03    -175.501E-03     350.420E-03    -174.919E-03    -232.107E-09    -145.042E+06    -154.940E+06    -351.743E+06    -152.132E+06    -351.722E+06    -147.870E+06     1.16491E+06         50.1512
            1533     1.67890E-03     107.200E-03     173.211E-03    -36.1133E-03    -69.1332E-03    -36.6856E-03     141.442E-03    -36.7925E-03    -43.4799E-03     350.159E-03    -174.877E-03    -175.282E-03    -174.910E-03     350.157E-03    -175.247E-03     1.41949E-03    -131.350E+06    -145.782E+06    -331.299E+06    -145.826E+06    -331.255E+06    -131.350E+06     2.33164E+06         50.3099
            1534     2.51794E-03     107.201E-03     172.577E-03    -37.0988E-03    -67.2767E-03    -37.7772E-03     142.957E-03    -36.9780E-03    -36.4570E-03     349.493E-03    -174.315E-03    -175.179E-03    -174.305E-03     349.483E-03    -175.179E-03     4.21141E-03    -111.464E+06    -138.524E+06    -301.681E+06    -138.598E+06    -301.607E+06    -111.464E+06     2.92032E+06         50.5624
            1535     3.35974E-03     107.202E-03     164.207E-03    -37.8878E-03    -57.3704E-03    -38.0184E-03     143.896E-03    -36.9283E-03     4.46522E-03     348.703E-03    -173.653E-03    -175.050E-03    -173.608E-03     348.659E-03    -175.050E-03     9.07030E-03    -88.0493E+06    -129.154E+06    -263.515E+06    -129.281E+06    -263.389E+06    -88.0493E+06     3.57744E+06         50.9037
            1536     4.19956E-03     107.211E-03     163.577E-03    -36.7714E-03    -57.2110E-03    -38.8616E-03     144.774E-03    -36.3177E-03     21.4318E-03     348.135E-03    -173.216E-03    -174.920E-03    -173.081E-03     348.000E-03    -174.920E-03     16.2994E-03    -62.2491E+06    -117.822E+06    -221.856E+06    -118.123E+06    -221.555E+06    -62.2491E+06     5.10744E+06         51.3257
            1537     5.04077E-03     107.227E-03     163.228E-03    -33.3713E-03    -59.4388E-03    -38.1750E-03     143.459E-03    -34.8653E-03     49.1689E-03     348.022E-03    -173.193E-03    -174.829E-03    -172.878E-03     347.707E-03    -174.829E-03     25.1548E-03    -36.9393E+06    -106.603E+06    -178.268E+06    -107.335E+06    -177.536E+06    -36.9393E+06     6.67268E+06         51.8207
            1538     5.88274E-03     107.257E-03     163.619E-03    -30.2794E-03    -61.9676E-03    -35.6203E-03     139.110E-03    -32.1176E-03     69.7411E-03     348.509E-03    -173.706E-03    -174.802E-03    -173.075E-03     347.878E-03    -174.802E-03     35.8197E-03    -12.6655E+06    -93.8477E+06    -128.903E+06    -96.7739E+06    -125.977E+06    -12.6655E+06     7.38821E+06         52.3879
            1539     6.72026E-03     107.302E-03     159.518E-03    -25.8528E-03    -61.3204E-03    -32.2054E-03     132.387E-03    -27.8371E-03     79.6857E-03     348.671E-03    -173.860E-03    -174.810E-03    -172.758E-03     347.568E-03    -174.810E-03     47.5671E-03     11.4797E+06    -61.8221E+06    -92.0100E+06    -85.5386E+06    -68.2935E+06     11.4797E+06     7.62530E+06         53.0444
            1540     7.56286E-03     107.366E-03     148.127E-03    -22.1273E-03    -52.4009E-03    -28.4660E-03     124.131E-03    -22.0654E-03     56.0681E-03     348.853E-03    -174.012E-03    -174.840E-03    -172.295E-03     347.089E-03    -174.794E-03     60.2591E-03     33.3634E+06    -12.6876E+06    -75.2385E+06    -73.9997E+06    -13.9264E+06     33.3634E+06     8.44732E+06         53.8411
            1541     8.40210E-03     107.447E-03     139.141E-03    -21.4984E-03    -42.4563E-03    -25.5101E-03     115.724E-03    -15.0268E-03     29.4421E-03     349.863E-03    -174.571E-03    -175.292E-03    -172.501E-03     347.280E-03    -174.778E-03     73.2107E-03     47.1859E+06     14.6964E+06    -64.1967E+06    -63.1884E+06     13.6882E+06     47.1859E+06     8.83080E+06         54.8795
            1542     9.24290E-03     107.543E-03     133.808E-03    -20.5342E-03    -36.1843E-03    -23.8450E-03     107.965E-03    -7.03076E-03     21.8957E-03     350.587E-03    -174.767E-03    -175.821E-03    -172.305E-03     347.072E-03    -174.767E-03     85.5250E-03     54.8678E+06     19.8057E+06    -54.4286E+06    -53.5878E+06     18.9649E+06     54.8678E+06     7.80585E+06         56.3211
            1543     10.0845E-03     107.658E-03     129.143E-03    -18.4747E-03    -31.3743E-03    -23.6864E-03     101.313E-03     1.66771E-03     21.8433E-03     351.240E-03    -174.723E-03    -176.516E-03    -171.976E-03     346.699E-03    -174.723E-03     97.3177E-03     62.1353E+06     23.3528E+06    -45.4774E+06    -44.8667E+06     22.7422E+06     62.1353E+06     6.43338E+06         58.3703
            1544     10.9257E-03     107.789E-03     125.271E-03    -12.1263E-03    -31.4419E-03    -25.2377E-03     96.2563E-03     10.6847E-03     32.0266E-03     352.794E-03    -174.690E-03    -178.103E-03    -172.755E-03     347.445E-03    -174.690E-03     106.004E-03     69.5434E+06     25.9208E+06    -37.1032E+06    -36.5747E+06     25.3923E+06     69.5434E+06     5.72036E+06         61.2038
            1545     11.7674E-03     107.932E-03     121.894E-03    -3.40534E-03    -34.0456E-03    -28.5906E-03     92.9140E-03     20.1195E-03     37.4941E-03     356.049E-03    -174.685E-03    -181.364E-03    -174.155E-03     348.839E-03    -174.685E-03     122.939E-03     71.9794E+06     27.1456E+06    -29.5684E+06    -29.0904E+06     26.6676E+06     71.9794E+06     5.16196E+06         64.8509
            1546     12.6073E-03     108.111E-03     119.845E-03     6.09209E-03    -38.5095E-03    -34.6514E-03     92.5269E-03     29.5524E-03     38.1116E-03     356.955E-03    -174.680E-03    -182.275E-03    -174.500E-03     349.180E-03    -174.680E-03     128.302E-03     71.8993E+06     32.1199E+06    -22.5880E+06    -22.3205E+06     31.8523E+06     71.8993E+06     3.54393E+06         69.0666
            1547     13.4496E-03     108.268E-03     119.494E-03     18.8970E-03    -47.2387E-03    -43.9308E-03     95.3120E-03     39.7708E-03     40.0028E-03     365.776E-03    -174.734E-03    -191.042E-03    -177.875E-03     352.609E-03    -174.734E-03     164.316E-03     87.1145E+06     53.2286E+06    -16.5859E+06    -16.4850E+06     53.1276E+06     87.1145E+06     2.48229E+06         73.2853
            1548     14.2881E-03     108.560E-03     120.570E-03     32.6665E-03    -57.7076E-03    -56.3328E-03     101.773E-03     50.0880E-03     24.3123E-03     365.691E-03    -174.900E-03    -190.791E-03    -178.052E-03     352.952E-03    -174.900E-03     160.406E-03     131.174E+06     90.1010E+06    -9.55060E+06    -9.49854E+06     90.0489E+06     131.174E+06     1.43293E+06         76.7547
            1549     839.877E-06     108.622E-03     161.608E-03     90.8096E-03    -170.537E-03     151.376E-03    -160.817E-03     91.3211E-03    -70.6380E-03     350.136E-03    -174.544E-03    -175.592E-03    -175.468E-03     350.136E-03    -174.667E-03     446.185E-06    -145.562E+06    -154.322E+06    -354.453E+06    -151.435E+06    -354.436E+06    -148.465E+06     624.739E+03         50.1376
            1550     1.67938E-03     108.621E-03     125.881E-03     118.901E-03    -162.778E-03     117.715E-03    -156.094E-03     120.383E-03    -39.1356E-03     350.052E-03    -174.888E-03    -175.164E-03    -174.921E-03     350.050E-03    -175.129E-03     1.74522E-03    -133.242E+06    -147.068E+06    -334.864E+06    -147.032E+06    -334.825E+06    -133.317E+06     2.13207E+06         50.2971
            1551     2.51934E-03     108.617E-03     124.095E-03     114.131E-03    -155.878E-03     112.825E-03    -149.074E-03     118.597E-03    -34.3932E-03     349.405E-03    -174.297E-03    -175.107E-03    -174.285E-03     349.393E-03    -175.107E-03     4.66935E-03    -111.734E+06    -138.867E+06    -304.389E+06    -138.947E+06    -304.309E+06    -111.734E+06     3.20679E+06         50.5507
            1552     3.35884E-03     108.618E-03     116.707E-03     107.632E-03    -141.011E-03     107.468E-03    -140.847E-03     116.707E-03     6.75922E-03     348.519E-03    -173.535E-03    -174.983E-03    -173.491E-03     348.474E-03    -174.983E-03     9.20861E-03    -88.3689E+06    -129.480E+06    -266.784E+06    -129.637E+06    -266.627E+06    -88.3689E+06     4.10301E+06         50.8933
            1553     4.20089E-03     108.626E-03     115.930E-03     104.402E-03    -136.154E-03     101.748E-03    -132.731E-03     115.161E-03     23.1656E-03     348.075E-03    -173.221E-03    -174.854E-03    -173.094E-03     347.947E-03    -174.854E-03     15.8482E-03    -63.3333E+06    -119.048E+06    -226.239E+06    -119.404E+06    -225.884E+06    -63.3333E+06     5.71579E+06         51.3165
            1554     5.04165E-03     108.643E-03     117.083E-03     101.799E-03    -133.690E-03     95.4724E-03    -124.524E-03     114.244E-03     50.0780E-03     348.338E-03    -173.535E-03    -174.803E-03    -173.236E-03     348.039E-03    -174.803E-03     24.5153E-03    -37.8237E+06    -107.283E+06    -182.761E+06    -108.130E+06    -181.914E+06    -37.8237E+06     7.42186E+06         51.8120
            1555     5.88032E-03     108.675E-03     120.764E-03     97.7835E-03    -132.175E-03     89.3701E-03    -117.181E-03     114.183E-03     67.8592E-03     348.623E-03    -173.807E-03    -174.816E-03    -173.190E-03     348.005E-03    -174.816E-03     35.3914E-03    -12.6130E+06    -92.5531E+06    -132.057E+06    -96.4496E+06    -128.160E+06    -12.6130E+06     8.97568E+06         52.3784
            1556     6.72202E-03     108.721E-03     121.934E-03     94.5062E-03    -128.722E-03     84.0337E-03    -111.471E-03     115.155E-03     75.8434E-03     348.665E-03    -173.836E-03    -174.829E-03    -172.726E-03     347.555E-03    -174.829E-03     47.6939E-03     11.7213E+06     -62.168E+06    -93.9748E+06    -85.6084E+06    -70.5344E+06     11.7213E+06     9.71168E+06         53.0325
            1557     7.56052E-03     108.782E-03     119.471E-03     86.3371E-03    -116.456E-03     77.5229E-03    -105.373E-03     117.203E-03     53.2746E-03     348.772E-03    -173.973E-03    -174.799E-03    -172.164E-03     346.963E-03    -174.799E-03     60.9943E-03     32.5637E+06    -14.8526E+06    -77.1308E+06    -75.2785E+06    -16.7050E+06     32.5637E+06     9.97121E+06         53.8244
            1558     8.40343E-03     108.865E-03     120.141E-03     73.6216E-03    -102.485E-03     68.9093E-03    -97.7729E-03     120.141E-03     28.3334E-03     349.428E-03    -174.407E-03    -175.022E-03    -172.048E-03     346.799E-03    -174.751E-03     73.8421E-03     46.5626E+06     14.4598E+06    -66.1380E+06    -64.8742E+06     13.1960E+06     46.5626E+06     9.99189E+06         54.8556
            1559     9.24368E-03     108.961E-03     123.590E-03     62.0528E-03    -92.0874E-03     58.3279E-03    -88.3625E-03     123.590E-03     21.3319E-03     350.430E-03    -174.719E-03    -175.712E-03    -172.245E-03     346.963E-03    -174.719E-03     84.9781E-03     55.2415E+06     21.8628E+06    -55.8204E+06    -54.8055E+06     20.8479E+06     55.2415E+06     8.77876E+06         56.2882
            1560     10.0847E-03     109.073E-03     127.328E-03     51.1029E-03    -82.2433E-03     45.5735E-03    -76.7139E-03     127.328E-03     21.1464E-03     351.755E-03    -174.705E-03    -177.050E-03    -172.552E-03     347.257E-03    -174.705E-03     96.9121E-03     62.9755E+06     25.3642E+06    -46.6906E+06    -45.9690E+06     24.6425E+06     62.9755E+06     7.12821E+06         58.3282
            1561     10.9260E-03     109.207E-03     131.107E-03     42.7233E-03    -74.6449E-03     30.5739E-03    -62.4955E-03     131.107E-03     29.9706E-03     353.168E-03    -174.710E-03    -178.458E-03    -173.102E-03     347.813E-03    -174.710E-03     106.153E-03     69.9248E+06     26.7332E+06    -38.2676E+06    -37.7410E+06     26.2066E+06     69.9248E+06     5.67966E+06         61.1581
            1562     11.7661E-03     109.348E-03     134.941E-03     33.6208E-03    -66.0836E-03     13.0187E-03    -45.4816E-03     134.941E-03     34.8450E-03     355.547E-03    -174.704E-03    -180.842E-03    -173.759E-03     348.463E-03    -174.704E-03     121.821E-03     72.2743E+06     28.2167E+06    -29.9946E+06    -29.6418E+06     27.8638E+06     72.2743E+06     4.39140E+06         64.8150
            1563     12.6089E-03     109.528E-03     138.434E-03     24.0770E-03    -56.4846E-03    -7.55648E-03    -24.8511E-03     138.434E-03     35.6916E-03     357.038E-03    -174.695E-03    -182.344E-03    -174.635E-03     349.330E-03    -174.695E-03     127.839E-03     72.7021E+06     33.0680E+06    -22.1361E+06    -21.9007E+06     32.8326E+06     72.7021E+06     3.55540E+06         69.0558
            1564     13.4472E-03     109.688E-03     142.392E-03     20.0788E-03    -52.1908E-03    -30.8050E-03    -1.30706E-03     142.392E-03     37.4443E-03     365.604E-03    -174.742E-03    -190.862E-03    -177.532E-03     352.273E-03    -174.742E-03     165.178E-03     88.6599E+06     55.3403E+06    -15.0984E+06    -14.9386E+06     55.1805E+06     88.6599E+06     3.27822E+06         73.3101
            1565     14.2898E-03     109.977E-03     146.148E-03     30.1103E-03    -61.1975E-03    -56.8396E-03     25.7524E-03     146.148E-03     21.9960E-03     364.948E-03    -174.866E-03    -190.082E-03    -177.119E-03     351.985E-03    -174.866E-03     161.735E-03     133.292E+06     93.2129E+06    -7.95937E+06    -7.87586E+06     93.1294E+06     133.292E+06     2.13168E+06         76.8133
            1566     839.521E-06     110.041E-03     290.824E-03     261.114E-03    -457.782E-03     285.620E-03    -453.777E-03     262.314E-03    -69.7579E-03     349.538E-03    -174.269E-03    -175.269E-03    -175.184E-03     349.537E-03    -174.353E-03     344.833E-06    -147.144E+06    -154.973E+06    -357.892E+06    -153.272E+06    -357.826E+06    -148.910E+06     2.23309E+06         50.1195
            1567     1.67947E-03     110.037E-03     272.166E-03     267.396E-03    -444.656E-03     266.164E-03    -443.424E-03     272.166E-03    -33.4339E-03     349.330E-03    -174.523E-03    -174.807E-03    -174.520E-03     349.328E-03    -174.807E-03     2.00656E-03    -135.047E+06    -148.508E+06    -338.325E+06    -148.473E+06    -338.284E+06    -135.122E+06     2.36714E+06         50.2808
            1568     2.51986E-03     110.035E-03     268.510E-03     257.936E-03    -430.825E-03     256.680E-03    -429.568E-03     268.510E-03    -31.3689E-03     349.097E-03    -174.287E-03    -174.810E-03    -174.275E-03     349.086E-03    -174.810E-03     4.48125E-03    -114.044E+06    -140.506E+06    -307.997E+06    -140.615E+06    -307.889E+06    -114.044E+06     3.39502E+06         50.5369
            1569     3.36058E-03     110.035E-03     264.533E-03     247.123E-03    -414.862E-03     247.075E-03    -414.813E-03     264.533E-03     8.19488E-03     348.900E-03    -174.074E-03    -174.826E-03    -174.032E-03     348.858E-03    -174.826E-03     8.97947E-03    -89.6859E+06    -131.092E+06    -270.722E+06    -131.303E+06    -270.511E+06    -89.6859E+06     4.91318E+06         50.8819
            1570     4.20000E-03     110.041E-03     260.739E-03     236.119E-03    -399.065E-03     235.689E-03    -398.634E-03     260.739E-03     21.9260E-03     348.735E-03    -173.883E-03    -174.852E-03    -173.756E-03     348.608E-03    -174.852E-03     15.7792E-03    -64.7556E+06    -120.738E+06    -230.845E+06    -121.160E+06    -230.423E+06    -64.7556E+06     6.41882E+06         51.3066
            1571     5.03982E-03     110.062E-03     257.293E-03     224.227E-03    -382.537E-03     223.151E-03    -381.460E-03     257.293E-03     47.5269E-03     348.510E-03    -173.641E-03    -174.869E-03    -173.329E-03     348.197E-03    -174.869E-03     24.9955E-03    -39.5636E+06    -109.290E+06    -187.065E+06    -110.224E+06    -186.131E+06    -39.5636E+06     7.93784E+06         51.8027
            1572     5.88105E-03     110.092E-03     254.344E-03     211.637E-03    -365.582E-03     209.617E-03    -363.561E-03     254.344E-03     62.7457E-03     348.230E-03    -173.381E-03    -174.849E-03    -172.747E-03     347.596E-03    -174.849E-03     35.8970E-03    -14.1273E+06    -94.5470E+06    -135.804E+06    -98.3553E+06    -131.995E+06    -14.1273E+06     9.44863E+06         52.3687
            1573     6.72114E-03     110.137E-03     251.985E-03     197.511E-03    -347.468E-03     194.919E-03    -344.876E-03     251.985E-03     70.3875E-03     348.313E-03    -173.502E-03    -174.812E-03    -172.385E-03     347.196E-03    -174.812E-03     47.8338E-03     11.1639E+06    -64.2079E+06    -96.9985E+06     -86.555E+06    -74.6514E+06     11.1639E+06     11.3051E+06         53.0204
            1574     7.56360E-03     110.201E-03     250.223E-03     179.784E-03    -326.046E-03     178.255E-03    -324.517E-03     250.223E-03     49.8912E-03     348.794E-03    -174.024E-03    -174.770E-03    -172.239E-03     347.009E-03    -174.770E-03     60.6188E-03     33.2694E+06    -15.6217E+06    -78.1172E+06    -75.2451E+06    -18.4937E+06     33.2694E+06     12.0107E+06         53.8074
            1575     8.40253E-03     110.280E-03     248.880E-03     158.878E-03    -301.538E-03     158.432E-03    -301.093E-03     248.880E-03     26.2515E-03     349.193E-03    -174.416E-03    -174.778E-03    -171.872E-03     346.591E-03    -174.719E-03     73.3848E-03     47.7231E+06     15.2718E+06    -65.4373E+06    -63.9069E+06     13.7414E+06     47.7231E+06     10.9794E+06         54.8308
            1576     9.24447E-03     110.380E-03     247.646E-03     135.864E-03    -274.662E-03     135.604E-03    -274.402E-03     247.646E-03     18.9785E-03     350.425E-03    -174.596E-03    -175.829E-03    -172.256E-03     346.941E-03    -174.684E-03     85.1820E-03     56.9132E+06     22.9305E+06    -54.9587E+06    -53.7114E+06     21.6831E+06     56.9132E+06     9.73200E+06         56.2537
            1577     10.0847E-03     110.490E-03     246.314E-03     110.701E-03    -245.101E-03     110.407E-03    -244.807E-03     246.314E-03     18.7956E-03     352.358E-03    -174.699E-03    -177.659E-03    -173.165E-03     347.864E-03    -174.699E-03     97.0051E-03     65.1185E+06     27.3782E+06    -45.7061E+06    -44.7471E+06     26.4191E+06     65.1185E+06     8.27825E+06         58.2840
            1578     10.9246E-03     110.625E-03     244.649E-03     83.7237E-03    -213.061E-03     82.9073E-03    -212.245E-03     244.649E-03     26.9911E-03     353.321E-03    -174.733E-03    -178.588E-03    -173.204E-03     347.936E-03    -174.733E-03     106.434E-03     72.3495E+06     29.7756E+06    -36.8684E+06    -36.1544E+06     29.0617E+06     72.3495E+06     6.65362E+06         61.1098
            1579     11.7661E-03     110.765E-03     242.730E-03     53.9318E-03    -177.601E-03     52.5935E-03    -176.263E-03     242.730E-03     32.4962E-03     355.769E-03    -174.731E-03    -181.038E-03    -173.870E-03     348.601E-03    -174.731E-03     122.617E-03     74.5795E+06     31.5060E+06    -29.3073E+06    -28.8786E+06     31.0773E+06     74.5795E+06     4.75712E+06         64.7758
            1580     12.6061E-03     110.944E-03     240.238E-03     21.8296E-03    -139.021E-03     19.1473E-03    -136.339E-03     240.238E-03     34.2209E-03     356.689E-03    -174.699E-03    -181.990E-03    -174.126E-03     348.825E-03    -174.699E-03     129.073E-03     72.7862E+06     33.9283E+06    -23.6570E+06    -23.4619E+06     33.7332E+06     72.7862E+06     3.32341E+06         69.0431
            1581     13.4490E-03     111.108E-03     237.871E-03    -9.00665E-03    -101.176E-03    -17.0739E-03    -93.1090E-03     237.871E-03     35.9386E-03     364.444E-03    -174.688E-03    -189.756E-03    -176.388E-03     351.077E-03    -174.688E-03     165.465E-03     87.4290E+06     55.2073E+06    -17.4923E+06    -17.3809E+06     55.0958E+06     87.4290E+06     2.40580E+06         73.3368
            1582     14.2933E-03     111.386E-03     235.073E-03    -21.8275E-03    -80.3055E-03    -56.4662E-03    -45.6667E-03     235.073E-03     21.4098E-03     365.020E-03    -174.796E-03    -190.224E-03    -177.372E-03     352.167E-03    -174.796E-03     161.017E-03     133.761E+06     95.7180E+06    -9.13753E+06    -9.09229E+06     95.6728E+06     133.761E+06     1.72705E+06         76.8732
            1583     840.647E-06     111.456E-03     426.660E-03     402.122E-03    -722.880E-03     403.638E-03    -720.159E-03     422.423E-03    -68.1235E-03     348.766E-03    -173.877E-03    -174.889E-03    -173.903E-03     348.765E-03    -174.862E-03    -79.1834E-06    -149.780E+06    -158.042E+06    -363.662E+06    -156.439E+06    -363.574E+06    -151.471E+06     1.90918E+06         50.0981
            1584     1.68116E-03     111.454E-03     410.878E-03     404.062E-03    -708.202E-03     403.316E-03    -707.456E-03     410.878E-03    -29.7975E-03     348.714E-03    -174.261E-03    -174.453E-03    -174.259E-03     348.712E-03    -174.453E-03     1.81054E-03    -134.966E+06    -149.247E+06    -341.080E+06    -149.291E+06    -341.036E+06    -134.966E+06     2.55978E+06         50.2616
            1585     2.52078E-03     111.451E-03     406.310E-03     391.820E-03    -690.406E-03     391.076E-03    -689.662E-03     406.310E-03    -30.4956E-03     348.875E-03    -174.317E-03    -174.558E-03    -174.333E-03     348.864E-03    -174.531E-03     4.43751E-03    -115.595E+06    -141.676E+06    -313.088E+06    -141.805E+06    -312.959E+06    -115.595E+06     4.01266E+06         50.5204
            1586     3.36042E-03     111.452E-03     400.852E-03     375.947E-03    -668.069E-03     375.912E-03    -668.034E-03     400.852E-03     7.32551E-03     349.091E-03    -174.398E-03    -174.693E-03    -174.378E-03     349.044E-03    -174.666E-03     9.37557E-03    -91.2326E+06    -132.720E+06    -275.421E+06    -133.002E+06    -275.138E+06    -91.2326E+06     6.00684E+06         50.8681
            1587     4.20016E-03     111.461E-03     394.977E-03     359.346E-03    -644.375E-03     359.134E-03    -644.163E-03     394.977E-03     18.9746E-03     349.049E-03    -174.248E-03    -174.800E-03    -174.109E-03     348.909E-03    -174.800E-03     16.6027E-03    -65.1813E+06    -122.025E+06    -234.896E+06    -122.519E+06    -234.402E+06    -65.1813E+06     7.09801E+06         51.2950
            1588     5.04056E-03     111.477E-03     389.080E-03     341.430E-03    -619.215E-03     340.910E-03    -618.696E-03     389.080E-03     43.3639E-03     348.547E-03    -173.684E-03    -174.863E-03    -173.362E-03     348.225E-03    -174.863E-03     25.4707E-03    -39.5936E+06    -109.639E+06    -191.039E+06    -110.592E+06    -190.086E+06    -39.5936E+06     8.32609E+06         51.7922
            1589     5.88111E-03     111.509E-03     383.338E-03     321.411E-03    -591.842E-03     320.413E-03    -590.844E-03     383.338E-03     57.6139E-03     348.203E-03    -173.358E-03    -174.845E-03    -172.729E-03     347.574E-03    -174.845E-03     35.7829E-03    -14.5910E+06    -95.4608E+06    -140.092E+06    -98.7626E+06    -136.791E+06    -14.5910E+06     9.66041E+06         52.3578
            1590     6.72211E-03     111.554E-03     377.755E-03     298.123E-03    -561.057E-03     296.864E-03    -559.798E-03     377.755E-03     64.0308E-03     348.389E-03    -173.579E-03    -174.811E-03    -172.470E-03     347.281E-03    -174.811E-03     47.6348E-03     9.97499E+06    -67.7224E+06    -99.9346E+06    -87.3205E+06    -80.3364E+06     9.97499E+06     11.5672E+06         53.0071
            1591     7.56122E-03     111.617E-03     372.230E-03     270.643E-03    -525.909E-03     269.929E-03    -525.196E-03     372.230E-03     44.0456E-03     348.744E-03    -173.973E-03    -174.771E-03    -172.216E-03     346.987E-03    -174.771E-03     60.1911E-03     33.0355E+06    -16.8871E+06    -78.5709E+06    -75.2499E+06    -20.2080E+06     33.0355E+06     12.5702E+06         53.7890
            1592     8.40336E-03     111.698E-03     366.572E-03     239.731E-03    -486.802E-03     239.538E-03    -486.609E-03     366.572E-03     22.1757E-03     349.089E-03    -174.332E-03    -174.757E-03    -171.842E-03     346.560E-03    -174.718E-03     72.3324E-03     47.9805E+06     16.3822E+06    -65.7256E+06    -63.8732E+06     14.5297E+06     47.9805E+06     12.1765E+06         54.8041
            1593     9.24467E-03     111.793E-03     360.655E-03     206.057E-03    -444.266E-03     205.959E-03    -444.168E-03     360.655E-03     15.3221E-03     350.172E-03    -174.582E-03    -175.590E-03    -171.973E-03     346.643E-03    -174.669E-03     85.5572E-03     56.9844E+06     24.0957E+06    -55.9204E+06    -54.2957E+06     22.4710E+06     56.9844E+06     11.2404E+06         56.2167
            1594     10.0850E-03     111.913E-03     354.354E-03     169.870E-03    -398.444E-03     169.755E-03    -398.329E-03     354.354E-03     15.3380E-03     352.008E-03    -174.657E-03    -177.351E-03    -172.746E-03     347.403E-03    -174.657E-03     98.1825E-03     66.1412E+06     29.6385E+06    -46.9549E+06    -45.7387E+06     28.4223E+06     66.1412E+06     9.53676E+06         58.2383
            1595     10.9255E-03     112.039E-03     347.361E-03     131.135E-03    -348.979E-03     130.761E-03    -348.605E-03     347.361E-03     23.8498E-03     353.309E-03    -174.674E-03    -178.635E-03    -173.160E-03     347.834E-03    -174.674E-03     107.313E-03     73.8273E+06     32.2862E+06    -38.4893E+06    -37.6079E+06     31.4049E+06     73.8273E+06     7.69036E+06         61.0620
            1596     11.7673E-03     112.183E-03     339.819E-03     89.4656E-03    -295.740E-03     88.8285E-03    -295.102E-03     339.819E-03     30.2543E-03     355.790E-03    -174.665E-03    -181.125E-03    -173.736E-03     348.402E-03    -174.665E-03     124.447E-03     76.3726E+06     34.6679E+06    -30.3927E+06    -29.7609E+06     34.0361E+06     76.3726E+06     6.14571E+06         64.7393
            1597     12.6080E-03     112.363E-03     331.477E-03     45.0615E-03    -238.709E-03     43.9988E-03    -237.646E-03     331.477E-03     32.0900E-03     356.557E-03    -174.625E-03    -181.932E-03    -173.996E-03     348.621E-03    -174.625E-03     129.519E-03     75.0624E+06     37.2025E+06    -23.7672E+06    -23.4499E+06     36.8852E+06     75.0624E+06     3.97803E+06         69.0342
            1598     13.4517E-03     112.517E-03     322.941E-03    -2.10624E-03    -178.043E-03    -4.08210E-03    -176.068E-03     322.941E-03     33.6402E-03     365.137E-03    -174.644E-03    -190.493E-03    -177.245E-03     351.889E-03    -174.644E-03     164.852E-03     89.4224E+06     56.3825E+06    -17.0885E+06    -17.0110E+06     56.3050E+06     89.4224E+06     2.06720E+06         73.3628
            1599     14.2901E-03     112.811E-03     313.753E-03    -46.4972E-03    -118.829E-03    -55.4874E-03    -109.838E-03     313.753E-03     19.9842E-03     365.182E-03    -174.791E-03    -190.391E-03    -177.667E-03     352.458E-03    -174.791E-03     160.159E-03     135.233E+06     97.1604E+06    -8.96179E+06    -8.93286E+06     97.1315E+06     135.233E+06     1.30280E+06         76.9292
            1600     839.947E-06     112.871E-03     565.007E-03     503.215E-03    -951.815E-03     501.146E-03    -949.746E-03     565.007E-03    -66.0174E-03     348.534E-03    -173.643E-03    -174.891E-03    -173.911E-03     348.534E-03    -174.623E-03     92.3619E-06    -151.690E+06    -158.174E+06    -366.508E+06    -156.371E+06    -366.470E+06    -153.531E+06    -587.830E+03         50.0756
            1601     1.68037E-03     112.869E-03     530.946E-03     523.767E-03    -938.030E-03     523.238E-03    -937.501E-03     530.946E-03    -27.8472E-03     348.327E-03    -174.021E-03    -174.305E-03    -174.020E-03     348.325E-03    -174.305E-03     1.45642E-03    -138.465E+06    -151.553E+06    -346.682E+06    -151.628E+06    -346.608E+06    -138.465E+06     2.72958E+06         50.2404
            1602     2.52137E-03     112.867E-03     526.149E-03     509.852E-03    -918.349E-03     509.337E-03    -917.834E-03     526.149E-03    -30.5256E-03     348.581E-03    -174.179E-03    -174.402E-03    -174.194E-03     348.569E-03    -174.375E-03     4.61795E-03    -116.280E+06    -143.804E+06    -317.737E+06    -143.942E+06    -317.599E+06    -116.280E+06     4.83125E+06         50.5012
            1603     3.36133E-03     112.869E-03     519.998E-03     491.414E-03    -892.663E-03     491.393E-03    -892.642E-03     519.998E-03     4.64089E-03     348.871E-03    -174.322E-03    -174.548E-03    -174.300E-03     348.821E-03    -174.521E-03     9.67710E-03    -91.8600E+06    -133.557E+06    -280.233E+06    -133.838E+06    -279.952E+06    -91.8600E+06     6.07774E+06         50.8512
            1604     4.20138E-03     112.877E-03     512.869E-03     470.125E-03    -862.846E-03     469.996E-03    -862.716E-03     512.869E-03     15.4209E-03     348.865E-03    -174.196E-03    -174.670E-03    -174.056E-03     348.725E-03    -174.670E-03     16.6601E-03    -65.7687E+06    -122.262E+06    -238.832E+06    -122.756E+06    -238.338E+06    -65.7687E+06     7.35589E+06         51.2803
            1605     5.04085E-03     112.895E-03     505.011E-03     445.120E-03    -828.469E-03     444.826E-03    -828.176E-03     505.011E-03     37.6690E-03     348.747E-03    -173.974E-03    -174.773E-03    -173.654E-03     348.427E-03    -174.773E-03     25.4229E-03    -40.3988E+06    -110.705E+06    -195.730E+06    -111.707E+06    -194.728E+06    -40.3988E+06     8.66399E+06         51.7790
            1606     5.88069E-03     112.925E-03     496.632E-03     417.233E-03    -790.434E-03     416.659E-03    -789.860E-03     496.632E-03     50.1122E-03     348.555E-03    -173.742E-03    -174.813E-03    -173.101E-03     347.914E-03    -174.813E-03     36.1052E-03    -16.4742E+06    -96.9816E+06    -145.981E+06    -100.458E+06    -142.505E+06    -16.4742E+06     10.6906E+06         52.3446
            1607     6.72111E-03     112.971E-03     487.873E-03     385.919E-03    -748.317E-03     385.190E-03    -747.589E-03     487.873E-03     56.4452E-03     348.391E-03    -173.588E-03    -174.803E-03    -172.463E-03     347.266E-03    -174.803E-03     48.0094E-03     7.86579E+06    -70.0604E+06    -103.567E+06    -88.6097E+06    -85.0175E+06     7.86579E+06     12.2696E+06         52.9920
            1608     7.56279E-03     113.035E-03     478.702E-03     350.161E-03    -701.036E-03     349.774E-03    -700.649E-03     478.702E-03     37.2887E-03     348.435E-03    -173.689E-03    -174.746E-03    -171.886E-03     346.632E-03    -174.746E-03     60.8787E-03     31.5825E+06    -18.8133E+06    -81.1739E+06    -77.4063E+06    -22.5809E+06     31.5825E+06     13.3793E+06         53.7693
            1609     8.40280E-03     113.113E-03     468.991E-03     310.508E-03    -648.896E-03     310.422E-03    -648.809E-03     468.991E-03     16.9716E-03     349.255E-03    -174.268E-03    -174.987E-03    -171.976E-03     346.660E-03    -174.684E-03     73.3345E-03     47.0281E+06     16.0858E+06    -69.1399E+06    -66.9531E+06     13.8990E+06     47.0281E+06     13.4524E+06         54.7766
            1610     9.24335E-03     113.211E-03     458.657E-03     267.683E-03    -592.574E-03     267.645E-03    -592.536E-03     458.657E-03     10.6936E-03     350.128E-03    -174.640E-03    -175.488E-03    -171.943E-03     346.583E-03    -174.640E-03     85.7660E-03     56.0425E+06     25.4636E+06    -58.8598E+06    -56.9306E+06     23.5343E+06     56.0425E+06     12.5692E+06         56.1787
            1611     10.0867E-03     113.326E-03     447.633E-03     221.774E-03    -532.082E-03     221.730E-03    -532.037E-03     447.633E-03     10.7645E-03     351.164E-03    -174.599E-03    -176.565E-03    -171.954E-03     346.552E-03    -174.599E-03     98.0836E-03     66.3764E+06     32.6721E+06    -48.8933E+06    -47.3807E+06     31.1594E+06     66.3764E+06     10.9703E+06         58.1914
            1612     10.9282E-03     113.460E-03     435.661E-03     172.775E-03    -467.245E-03     172.582E-03    -467.053E-03     435.661E-03     19.4342E-03     352.829E-03    -174.582E-03    -178.247E-03    -172.815E-03     347.397E-03    -174.582E-03     106.832E-03     75.2373E+06     35.0910E+06    -39.5582E+06    -38.6673E+06     34.2001E+06     75.2373E+06     7.91873E+06         61.0139
            1613     11.7677E-03     113.598E-03     422.816E-03     120.601E-03    -398.053E-03     120.267E-03    -397.719E-03     422.816E-03     25.5951E-03     355.551E-03    -174.571E-03    -180.979E-03    -173.732E-03     348.304E-03    -174.571E-03     123.206E-03     77.3791E+06     35.9925E+06    -31.3285E+06    -30.8341E+06     35.4981E+06     77.3791E+06     5.51843E+06         64.7024
            1614     12.6118E-03     113.779E-03     408.936E-03     65.3008E-03    -324.432E-03     64.7590E-03    -323.890E-03     408.936E-03     27.0914E-03     356.893E-03    -174.565E-03    -182.327E-03    -174.563E-03     349.128E-03    -174.565E-03     128.201E-03     77.4455E+06     40.4567E+06    -23.2601E+06    -22.9477E+06     40.1443E+06     77.4455E+06     4.01998E+06         69.0221
            1615     13.4484E-03     113.939E-03     394.508E-03     7.48279E-03    -247.187E-03     6.56493E-03    -246.269E-03     394.508E-03     28.7823E-03     365.496E-03    -174.621E-03    -190.875E-03    -177.550E-03     352.171E-03    -174.621E-03     165.000E-03     92.0600E+06     58.8245E+06    -16.3908E+06     -16.282E+06     58.7156E+06     92.0600E+06     2.70733E+06         73.3859
            1616     14.2916E-03     114.226E-03     379.151E-03    -53.8815E-03    -164.857E-03    -54.6532E-03    -164.085E-03     379.151E-03     17.0141E-03     364.858E-03    -174.757E-03    -190.101E-03    -177.151E-03     351.908E-03    -174.757E-03     161.477E-03     136.871E+06     98.6079E+06    -9.39165E+06    -9.35319E+06     98.5694E+06     136.871E+06     1.52663E+06         76.9863
            1617     840.582E-06     114.288E-03     686.746E-03     578.445E-03        -1.14193     576.675E-03        -1.14016     686.746E-03    -65.9544E-03     348.417E-03    -173.720E-03    -174.697E-03    -174.634E-03     348.416E-03    -173.783E-03     25.2694E-06    -152.211E+06    -159.940E+06    -368.180E+06    -158.122E+06    -368.158E+06    -154.052E+06     899.703E+03         50.0532
            1618     1.68107E-03     114.283E-03     629.441E-03     621.266E-03        -1.12661     620.819E-03        -1.12616     629.441E-03    -27.5889E-03     348.327E-03    -174.051E-03    -174.276E-03    -174.053E-03     348.325E-03    -174.272E-03     1.54407E-03    -139.678E+06    -153.643E+06    -351.792E+06    -153.697E+06    -351.738E+06    -139.678E+06     2.01111E+06         50.2183
            1619     2.52126E-03     114.283E-03     624.304E-03     606.939E-03        -1.10606     606.514E-03        -1.10564     624.304E-03    -32.7541E-03     348.375E-03    -174.041E-03    -174.334E-03    -174.027E-03     348.361E-03    -174.334E-03     4.96911E-03    -117.849E+06    -144.435E+06    -322.926E+06    -144.545E+06    -322.817E+06    -117.849E+06     3.93931E+06         50.4798
            1620     3.36141E-03     114.286E-03     617.730E-03     587.105E-03        -1.07857     587.087E-03        -1.07855     617.730E-03    -61.6201E-06     348.536E-03    -174.098E-03    -174.438E-03    -174.050E-03     348.488E-03    -174.438E-03     9.65514E-03    -93.0448E+06    -134.127E+06    -285.219E+06    -134.419E+06    -284.926E+06    -93.0448E+06     6.18286E+06         50.8310
            1621     4.20132E-03     114.295E-03     609.712E-03     561.935E-03        -1.04371     561.861E-03        -1.04364     609.712E-03     8.63320E-03     348.535E-03    -173.982E-03    -174.553E-03    -173.840E-03     348.392E-03    -174.553E-03     16.6922E-03    -67.8108E+06    -123.866E+06    -244.450E+06    -124.553E+06    -243.763E+06    -67.8108E+06     8.69043E+06         51.2617
            1622     5.04167E-03     114.313E-03     600.320E-03     531.367E-03        -1.00210     531.220E-03        -1.00196     600.320E-03     29.1261E-03     348.610E-03    -173.957E-03    -174.654E-03    -173.629E-03     348.283E-03    -174.654E-03     25.7290E-03    -42.2558E+06    -112.622E+06    -200.890E+06    -113.919E+06    -199.593E+06    -42.2558E+06     10.2742E+06         51.7619
            1623     5.88206E-03     114.343E-03     589.750E-03     496.860E-03    -955.122E-03     496.542E-03    -954.805E-03     589.750E-03     40.6596E-03     348.574E-03    -173.858E-03    -174.717E-03    -173.202E-03     347.919E-03    -174.717E-03     36.4751E-03    -18.1036E+06    -99.1912E+06    -150.702E+06    -102.435E+06    -147.458E+06    -18.1036E+06     11.0771E+06         52.3284
            1624     6.72180E-03     114.390E-03     578.225E-03     458.778E-03    -903.308E-03     458.358E-03    -902.888E-03     578.225E-03     46.9684E-03     348.197E-03    -173.480E-03    -174.717E-03    -172.339E-03     347.056E-03    -174.717E-03     48.3754E-03     6.02347E+06    -73.0412E+06    -108.051E+06    -90.6374E+06    -90.4544E+06     6.02347E+06     12.9799E+06         52.9749
            1625     7.56271E-03     114.449E-03     565.849E-03     416.169E-03    -845.867E-03     415.955E-03    -845.652E-03     565.849E-03     29.7261E-03     348.324E-03    -173.664E-03    -174.660E-03    -171.847E-03     346.507E-03    -174.660E-03     61.1086E-03     30.5953E+06    -21.2045E+06    -83.5383E+06    -78.7369E+06    -26.0059E+06     30.5953E+06     14.7608E+06         53.7487
            1626     8.40511E-03     114.532E-03     552.576E-03     369.177E-03    -782.670E-03     369.142E-03    -782.635E-03     552.576E-03     10.9131E-03     349.226E-03    -174.319E-03    -174.907E-03    -172.012E-03     346.617E-03    -174.605E-03     73.5344E-03     46.9018E+06     15.6522E+06    -70.2175E+06    -67.7099E+06     13.1445E+06     46.9018E+06     14.4410E+06         54.7491
            1627     9.24566E-03     114.627E-03     538.296E-03     318.338E-03    -714.247E-03     318.329E-03    -714.238E-03     538.296E-03     4.75209E-03     350.494E-03    -174.593E-03    -175.901E-03    -172.402E-03     346.996E-03    -174.593E-03     85.3171E-03     56.8764E+06     26.6342E+06    -58.9623E+06    -56.9518E+06     24.6237E+06     56.8764E+06     12.8703E+06         56.1408
            1628     10.0851E-03     114.742E-03     522.946E-03     263.816E-03    -640.742E-03     263.805E-03    -640.731E-03     522.946E-03     4.88609E-03     351.365E-03    -174.590E-03    -176.775E-03    -172.264E-03     346.854E-03    -174.590E-03     97.0447E-03     67.4643E+06     35.3160E+06    -47.9075E+06    -46.4292E+06     33.8376E+06     67.4643E+06     10.9471E+06         58.1425
            1629     10.9272E-03     114.875E-03     506.384E-03     206.002E-03    -562.434E-03     205.919E-03    -562.351E-03     506.384E-03     12.6801E-03     352.171E-03    -174.570E-03    -177.601E-03    -172.246E-03     346.816E-03    -174.570E-03     105.935E-03     76.4322E+06     38.7803E+06    -39.0320E+06    -38.0054E+06     37.7537E+06     76.4322E+06     8.81222E+06         60.9613
            1630     11.7699E-03     115.017E-03     488.684E-03     145.170E-03    -479.719E-03     145.018E-03    -479.567E-03     488.684E-03     18.6616E-03     355.482E-03    -174.550E-03    -180.932E-03    -173.776E-03     348.325E-03    -174.550E-03     122.472E-03     79.3532E+06     39.2806E+06    -31.4617E+06    -30.9086E+06     38.7274E+06     79.3532E+06     6.02334E+06         64.6596
            1631     12.6069E-03     115.195E-03     469.737E-03     81.4359E-03    -392.632E-03     81.1659E-03    -392.362E-03     469.737E-03     21.0939E-03     356.700E-03    -174.539E-03    -182.161E-03    -174.317E-03     348.856E-03    -174.539E-03     128.921E-03     78.4622E+06     41.9919E+06    -24.4120E+06    -24.1369E+06     41.7169E+06     78.4622E+06     4.15925E+06         69.0060
            1632     13.4520E-03     115.357E-03     449.883E-03     14.9992E-03    -301.458E-03     14.5040E-03    -300.963E-03     449.883E-03     24.0275E-03     364.407E-03    -174.552E-03    -189.855E-03    -176.473E-03     351.025E-03    -174.552E-03     165.475E-03     92.5331E+06     60.5398E+06    -17.6336E+06    -17.4806E+06     60.3868E+06     92.5331E+06     3.22317E+06         73.4104
            1633     14.2947E-03     115.638E-03     428.926E-03    -53.8265E-03    -206.321E-03    -54.1939E-03    -205.954E-03     428.926E-03     14.7192E-03     365.076E-03    -174.675E-03    -190.402E-03    -177.494E-03     352.169E-03    -174.675E-03     161.408E-03     138.913E+06     102.031E+06    -9.51438E+06    -9.47497E+06     101.991E+06     138.913E+06     1.54079E+06         77.0460
            1634     840.418E-06     115.702E-03     784.296E-03     628.758E-03        -1.28532     627.206E-03        -1.28377     784.296E-03    -64.8293E-03     348.479E-03    -173.556E-03    -174.923E-03    -174.922E-03     348.478E-03    -173.556E-03    -148.944E-06    -154.783E+06    -162.229E+06    -371.710E+06    -160.484E+06    -371.685E+06    -156.554E+06     2.09339E+06         50.0306
            1635     1.68062E-03     115.700E-03     703.498E-03     694.906E-03        -1.26966     694.493E-03        -1.26925     703.498E-03    -28.8861E-03     348.669E-03    -174.203E-03    -174.465E-03    -174.314E-03     348.667E-03    -174.353E-03     1.02039E-03    -140.500E+06    -154.796E+06    -354.898E+06    -154.834E+06    -354.859E+06    -140.500E+06     2.45173E+06         50.1953
            1636     2.52106E-03     115.698E-03     698.076E-03     679.497E-03        -1.24760     679.108E-03        -1.24721     698.076E-03    -36.9857E-03     348.261E-03    -173.847E-03    -174.414E-03    -173.833E-03     348.247E-03    -174.414E-03     4.61222E-03    -119.932E+06    -146.997E+06    -328.632E+06    -147.094E+06    -328.535E+06    -119.932E+06     3.68964E+06         50.4565
            1637     3.36167E-03     115.703E-03     690.867E-03     657.152E-03        -1.21689     657.132E-03        -1.21687     690.867E-03    -6.37115E-03     348.077E-03    -173.659E-03    -174.418E-03    -173.608E-03     348.026E-03    -174.418E-03     9.96129E-03    -96.1521E+06    -137.200E+06    -292.253E+06    -137.527E+06    -291.927E+06    -96.1521E+06     6.61937E+06         50.8080
            1638     4.20212E-03     115.711E-03     681.908E-03     630.155E-03        -1.17913     630.108E-03        -1.17908     681.908E-03     1.74878E-03     348.300E-03    -173.828E-03    -174.472E-03    -173.685E-03     348.157E-03    -174.472E-03     16.7587E-03    -70.1055E+06    -126.003E+06    -249.965E+06    -126.687E+06    -249.281E+06    -70.1055E+06     8.92298E+06         51.2395
            1639     5.04256E-03     115.730E-03     671.340E-03     596.968E-03        -1.13358     596.898E-03        -1.13351     671.340E-03     21.6957E-03     348.270E-03    -173.715E-03    -174.554E-03    -173.392E-03     347.946E-03    -174.554E-03     25.5459E-03    -43.8486E+06    -113.466E+06    -205.536E+06    -114.704E+06    -204.298E+06    -43.8486E+06     10.1873E+06         51.7410
            1640     5.88183E-03     115.761E-03     659.176E-03     558.001E-03        -1.08044     557.823E-03        -1.08026     659.176E-03     32.2538E-03     347.955E-03    -173.370E-03    -174.586E-03    -172.723E-03     347.308E-03    -174.586E-03     36.2096E-03    -18.5565E+06    -99.4257E+06    -155.529E+06    -102.779E+06    -152.177E+06    -18.5565E+06     11.8324E+06         52.3087
            1641     6.72359E-03     115.804E-03     645.546E-03     514.570E-03        -1.02106     514.343E-03        -1.02083     645.546E-03     36.5292E-03     348.180E-03    -173.600E-03    -174.580E-03    -172.458E-03     347.037E-03    -174.580E-03     48.3864E-03     5.70804E+06    -75.8873E+06    -111.533E+06    -90.9369E+06    -96.4837E+06     5.70804E+06     13.6191E+06         52.9552
            1642     7.56427E-03     115.868E-03     630.612E-03     466.633E-03    -955.629E-03     466.533E-03    -955.529E-03     630.612E-03     20.6274E-03     348.736E-03    -174.171E-03    -174.566E-03    -172.361E-03     346.927E-03    -174.566E-03     61.0651E-03     29.1644E+06    -25.3041E+06    -85.3260E+06    -79.5331E+06    -31.0970E+06     29.1644E+06     15.3864E+06         53.7262
            1643     8.40353E-03     115.947E-03     614.365E-03     413.491E-03    -883.288E-03     413.479E-03    -883.276E-03     614.365E-03     3.51477E-03     349.401E-03    -174.462E-03    -174.940E-03    -172.257E-03     346.815E-03    -174.558E-03     73.2340E-03     46.5252E+06     16.0688E+06    -71.6561E+06    -68.6848E+06     13.0975E+06     46.5252E+06     15.8172E+06         54.7199
            1644     9.24511E-03     116.045E-03     596.705E-03     355.842E-03    -804.634E-03     355.837E-03    -804.629E-03     596.705E-03    -2.60560E-03     350.530E-03    -174.566E-03    -175.964E-03    -172.486E-03     347.053E-03    -174.566E-03     85.0746E-03     56.9414E+06     29.4392E+06    -60.7339E+06    -58.6005E+06     27.3059E+06     56.9414E+06     13.5620E+06         56.1017
            1645     10.0858E-03     116.161E-03     577.590E-03     294.447E-03    -720.474E-03     294.443E-03    -720.470E-03     577.590E-03    -2.21277E-03     351.555E-03    -174.579E-03    -176.976E-03    -172.482E-03     347.061E-03    -174.579E-03     96.8894E-03     66.5639E+06     37.1606E+06    -51.2579E+06    -49.8786E+06     35.7813E+06     66.5639E+06     10.9193E+06         58.0929
            1646     10.9267E-03     116.288E-03     557.005E-03     229.909E-03    -631.430E-03     229.882E-03    -631.403E-03     557.005E-03     5.28234E-03     352.443E-03    -174.577E-03    -177.865E-03    -172.418E-03     346.996E-03    -174.577E-03     106.849E-03     76.5160E+06     41.4319E+06    -41.7296E+06    -40.7289E+06     40.4312E+06     76.5160E+06     9.01248E+06         60.9064
            1647     11.7678E-03     116.434E-03     535.073E-03     162.720E-03    -538.201E-03     162.663E-03    -538.144E-03     535.073E-03     12.2158E-03     354.799E-03    -174.535E-03    -180.264E-03    -172.944E-03     347.478E-03    -174.535E-03     123.723E-03     81.3228E+06     43.7335E+06    -32.0627E+06    -31.3946E+06     43.0653E+06     81.3228E+06     7.04068E+06         64.6149
            1648     12.6123E-03     116.613E-03     511.732E-03     92.7564E-03    -440.579E-03     92.6066E-03    -440.430E-03     511.732E-03     16.3425E-03     355.765E-03    -174.464E-03    -181.301E-03    -173.378E-03     347.842E-03    -174.464E-03     129.319E-03     80.3695E+06     44.4694E+06    -24.4427E+06    -24.0848E+06     44.1116E+06     80.3695E+06     4.83838E+06         68.9919
            1649     13.4526E-03     116.769E-03     487.223E-03     20.7309E-03    -339.335E-03     20.4112E-03    -339.015E-03     487.223E-03     20.5395E-03     364.804E-03    -174.469E-03    -190.336E-03    -177.042E-03     351.510E-03    -174.469E-03     165.251E-03     94.3557E+06     63.1365E+06    -17.2368E+06    -17.1061E+06     63.0057E+06     94.3557E+06     2.52519E+06         73.4353
            1650     14.2938E-03     117.059E-03     461.523E-03    -52.7945E-03    -234.889E-03    -53.0425E-03    -234.641E-03     461.523E-03     13.2919E-03     365.449E-03    -174.633E-03    -190.816E-03    -178.025E-03     352.658E-03    -174.633E-03     160.920E-03     140.866E+06     105.127E+06    -8.89883E+06    -8.86370E+06     105.092E+06     140.866E+06     1.41335E+06         77.1029
            1651     840.565E-06     117.118E-03     852.854E-03     655.514E-03        -1.37894     654.317E-03        -1.37775     852.854E-03    -61.1597E-03     348.503E-03    -173.541E-03    -174.962E-03    -174.863E-03     348.502E-03    -173.639E-03     666.872E-06    -159.715E+06    -166.672E+06    -375.250E+06    -164.909E+06    -375.242E+06    -161.486E+06     1.22141E+06         50.0054
            1652     1.68002E-03     117.116E-03     751.233E-03     741.878E-03        -1.36272     741.526E-03        -1.36237     751.233E-03    -30.9674E-03     348.653E-03    -174.154E-03    -174.499E-03    -174.291E-03     348.650E-03    -174.359E-03     1.97368E-03    -145.293E+06    -159.095E+06    -359.735E+06    -159.127E+06    -359.703E+06    -145.293E+06     2.26448E+06         50.1698
            1653     2.52028E-03     117.114E-03     745.293E-03     724.620E-03        -1.33816     724.280E-03        -1.33782     745.293E-03    -39.0254E-03     348.455E-03    -173.978E-03    -174.477E-03    -173.995E-03     348.441E-03    -174.445E-03     4.91588E-03    -123.123E+06    -151.211E+06    -333.718E+06    -151.341E+06    -333.588E+06    -123.123E+06     4.58260E+06         50.4307
            1654     3.36157E-03     117.117E-03     737.383E-03     701.402E-03        -1.30566     701.372E-03        -1.30563     737.383E-03    -12.0851E-03     348.090E-03    -173.625E-03    -174.465E-03    -173.576E-03     348.040E-03    -174.465E-03     9.76409E-03    -98.9337E+06    -140.875E+06    -297.604E+06    -141.100E+06    -297.380E+06    -98.9337E+06     5.76405E+06         50.7822
            1655     4.20225E-03     117.127E-03     727.644E-03     672.845E-03        -1.26554     672.804E-03        -1.26549     727.644E-03    -4.54744E-03     347.911E-03    -173.445E-03    -174.467E-03    -173.303E-03     347.770E-03    -174.467E-03     16.6382E-03    -73.3155E+06    -128.217E+06    -255.108E+06    -128.624E+06    -254.701E+06    -73.3155E+06     6.79541E+06         51.2142
            1656     5.04150E-03     117.147E-03     716.055E-03     637.584E-03        -1.21677     637.555E-03        -1.21674     716.055E-03     13.5568E-03     347.625E-03    -173.155E-03    -174.470E-03    -172.831E-03     347.301E-03    -174.470E-03     25.5291E-03    -46.8638E+06    -115.397E+06    -210.686E+06    -116.411E+06    -209.672E+06    -46.8638E+06      9.2624E+06         51.7168
            1657     5.88422E-03     117.175E-03     702.636E-03     597.046E-03        -1.16073     596.959E-03        -1.16064     702.636E-03     22.2872E-03     347.648E-03    -173.189E-03    -174.459E-03    -172.545E-03     347.004E-03    -174.459E-03     36.1283E-03    -21.1904E+06    -101.122E+06    -161.717E+06    -104.201E+06    -158.638E+06    -21.1904E+06     11.8755E+06         52.2855
            1658     6.72414E-03     117.222E-03     687.494E-03     550.838E-03        -1.09704     550.731E-03        -1.09693     687.494E-03     25.6265E-03     348.164E-03    -173.701E-03    -174.463E-03    -172.563E-03     347.026E-03    -174.463E-03     48.2817E-03     3.29755E+06    -78.0972E+06    -117.014E+06    -92.5422E+06    -102.569E+06     3.29755E+06     14.4859E+06         52.9319
            1659     7.56382E-03     117.284E-03     670.621E-03     498.549E-03        -1.02531     498.507E-03        -1.02527     670.621E-03     10.5307E-03     348.725E-03    -174.202E-03    -174.523E-03    -172.429E-03     346.902E-03    -174.473E-03     61.2746E-03     27.3708E+06    -29.5548E+06    -88.3572E+06    -81.3323E+06    -36.5797E+06     27.3708E+06     16.5233E+06         53.7003
            1660     8.40573E-03     117.365E-03     651.986E-03     441.142E-03    -946.330E-03     441.126E-03    -946.314E-03     651.986E-03    -5.76493E-03     349.534E-03    -174.472E-03    -175.062E-03    -172.387E-03     346.866E-03    -174.478E-03     74.3683E-03     45.2811E+06     15.2341E+06    -73.4189E+06    -69.9146E+06     11.7298E+06     45.2811E+06     17.2085E+06         54.6879
            1661     9.24475E-03     117.463E-03     631.591E-03     379.174E-03    -860.646E-03     379.144E-03    -860.616E-03     631.591E-03    -11.3587E-03     350.320E-03    -174.482E-03    -175.838E-03    -172.252E-03     346.734E-03    -174.482E-03     86.3894E-03     56.1228E+06     32.9059E+06    -62.7574E+06    -60.0794E+06     30.2278E+06     56.1228E+06     15.6341E+06         56.0608
            1662     10.0867E-03     117.575E-03     609.477E-03     313.542E-03    -769.300E-03     313.510E-03    -769.268E-03     609.477E-03    -10.7477E-03     351.481E-03    -174.491E-03    -176.990E-03    -172.407E-03     346.898E-03    -174.491E-03     97.8389E-03     67.6728E+06     41.6918E+06    -52.3319E+06    -50.7277E+06     40.0876E+06     67.6728E+06     12.0320E+06         58.0429
            1663     10.9279E-03     117.707E-03     585.715E-03     244.874E-03    -673.066E-03     244.852E-03    -673.045E-03     585.715E-03    -2.40343E-03     352.752E-03    -174.509E-03    -178.244E-03    -172.730E-03     347.238E-03    -174.509E-03     107.586E-03     78.9582E+06     45.2334E+06    -41.3292E+06    -40.4264E+06     44.3306E+06     78.9582E+06     8.76099E+06         60.8523
            1664     11.7696E-03     117.848E-03     560.392E-03     173.149E-03    -572.036E-03     173.132E-03    -572.019E-03     560.392E-03     5.28834E-03     354.602E-03    -174.479E-03    -180.123E-03    -172.845E-03     347.324E-03    -174.479E-03     123.379E-03     82.8360E+06     45.9667E+06    -32.4528E+06    -31.8424E+06     45.3562E+06     82.8360E+06     6.88167E+06         64.5696
            1665     12.6116E-03     118.026E-03     533.542E-03     99.3319E-03    -467.250E-03     99.2587E-03    -467.176E-03     533.542E-03     10.3335E-03     355.660E-03    -174.416E-03    -181.245E-03    -173.451E-03     347.867E-03    -174.416E-03     128.239E-03     82.2284E+06     48.2549E+06    -24.8081E+06    -24.4536E+06     47.9004E+06     82.2284E+06     4.94411E+06         68.9725
            1666     13.4540E-03     118.190E-03     505.296E-03     24.5037E-03    -359.721E-03     24.3236E-03    -359.541E-03     505.296E-03     15.6561E-03     365.140E-03    -174.440E-03    -190.700E-03    -177.411E-03     351.851E-03    -174.440E-03     165.094E-03     96.1937E+06     66.8918E+06    -17.8668E+06    -17.7347E+06     66.7596E+06     96.1937E+06     2.68780E+06         73.4529
            1667     14.2935E-03     118.475E-03     475.738E-03    -51.5141E-03    -249.109E-03    -51.6653E-03    -248.958E-03     475.738E-03     10.7173E-03     364.945E-03    -174.600E-03    -190.345E-03    -177.520E-03     352.120E-03    -174.600E-03     160.896E-03     141.345E+06     106.710E+06    -10.6817E+06    -10.6324E+06     106.660E+06     141.345E+06     787.014E+03         77.1557
            1668     840.000E-06     118.533E-03     890.246E-03     657.844E-03        -1.41995     656.869E-03        -1.41897     890.246E-03    -57.7370E-03     348.181E-03    -173.621E-03    -174.560E-03    -174.345E-03     348.180E-03    -173.835E-03     417.565E-06    -162.581E+06    -170.151E+06    -378.300E+06    -169.194E+06    -378.288E+06    -163.550E+06     1.44735E+06         49.9742
            1669     1.68185E-03     118.531E-03     770.846E-03     760.078E-03        -1.40179     759.770E-03        -1.40148     770.846E-03    -31.9962E-03     348.183E-03    -173.963E-03    -174.219E-03    -174.001E-03     348.179E-03    -174.178E-03     2.32593E-03    -148.029E+06    -162.941E+06    -363.427E+06    -162.973E+06    -363.394E+06    -148.029E+06     2.35645E+06         50.1391
            1670     2.52169E-03     118.530E-03     764.371E-03     742.467E-03        -1.37632     742.156E-03        -1.37601     764.371E-03    -40.9756E-03     348.668E-03    -174.259E-03    -174.409E-03    -174.341E-03     348.652E-03    -174.311E-03     5.42418E-03    -127.032E+06    -153.751E+06    -338.189E+06    -153.825E+06    -338.115E+06    -127.032E+06     3.22860E+06         50.4006
            1671     3.36051E-03     118.533E-03     755.971E-03     718.332E-03        -1.34230     718.278E-03        -1.34225     755.971E-03    -18.6868E-03     348.280E-03    -173.784E-03    -174.496E-03    -173.784E-03     348.224E-03    -174.440E-03     10.3489E-03    -101.852E+06    -142.681E+06    -300.758E+06    -142.817E+06    -300.623E+06    -101.852E+06     4.08457E+06         50.7528
            1672     4.20101E-03     118.543E-03     745.582E-03     688.590E-03        -1.30029     688.540E-03        -1.30025     745.582E-03    -12.0378E-03     347.244E-03    -172.832E-03    -174.413E-03    -172.679E-03     347.092E-03    -174.413E-03     17.3316E-03    -77.4537E+06    -131.965E+06    -259.893E+06    -132.226E+06    -259.633E+06    -77.4537E+06     5.48776E+06         51.1860
            1673     5.04432E-03     118.561E-03     733.238E-03     653.123E-03        -1.25046     653.119E-03        -1.25045     733.238E-03     4.15920E-03     347.179E-03    -172.841E-03    -174.338E-03    -172.500E-03     346.839E-03    -174.338E-03     26.1405E-03    -51.8711E+06    -119.148E+06    -217.093E+06    -119.878E+06    -216.363E+06    -51.8711E+06     7.66662E+06         51.6899
            1674     5.88330E-03     118.592E-03     718.964E-03     611.843E-03        -1.19288     611.813E-03        -1.19285     718.964E-03     12.0822E-03     347.778E-03    -173.443E-03    -174.335E-03    -172.783E-03     347.118E-03    -174.335E-03     36.6465E-03    -26.1670E+06    -104.949E+06    -168.742E+06    -107.337E+06    -166.354E+06    -26.1670E+06     10.7851E+06         52.2594
            1675     6.72410E-03     118.638E-03     702.710E-03     564.150E-03        -1.12660     564.110E-03        -1.12656     702.710E-03     15.4523E-03     347.922E-03    -173.560E-03    -174.362E-03    -172.410E-03     346.772E-03    -174.362E-03     48.5039E-03    -508.208E+03    -82.6781E+06    -121.469E+06    -94.6471E+06    -109.500E+06    -508.208E+03     13.8058E+06         52.9051
            1676     7.56614E-03     118.701E-03     684.397E-03     510.121E-03        -1.05172     510.098E-03        -1.05169     684.397E-03     259.923E-06     348.371E-03    -173.930E-03    -174.442E-03    -172.155E-03     346.516E-03    -174.361E-03     61.7623E-03     25.1542E+06    -34.6302E+06    -89.8182E+06    -81.5876E+06    -42.8608E+06     25.1542E+06     16.6395E+06         53.6706
            1677     8.40539E-03     118.782E-03     664.023E-03     450.885E-03    -969.266E-03     450.835E-03    -969.216E-03     664.023E-03    -15.3694E-03     349.152E-03    -174.351E-03    -174.801E-03    -172.143E-03     346.494E-03    -174.351E-03     74.2412E-03     44.5842E+06     13.2013E+06    -73.9366E+06    -70.0288E+06     9.29345E+06     44.5842E+06     17.8479E+06         54.6523
            1678     9.24835E-03     118.879E-03     641.664E-03     387.345E-03    -880.138E-03     387.260E-03    -880.053E-03     641.664E-03    -20.2569E-03     350.027E-03    -174.352E-03    -175.675E-03    -172.135E-03     346.487E-03    -174.352E-03     85.7750E-03     58.0659E+06     36.3732E+06    -61.3533E+06    -58.6173E+06     33.6373E+06     58.0659E+06     15.9421E+06         56.0164
            1679     10.0885E-03     118.993E-03     617.408E-03     319.953E-03    -785.067E-03     319.855E-03    -784.970E-03     617.408E-03    -20.1900E-03     351.425E-03    -174.372E-03    -177.053E-03    -172.478E-03     346.849E-03    -174.372E-03     97.7457E-03     70.7429E+06     46.9868E+06    -49.2321E+06    -47.5600E+06     45.3147E+06     70.7429E+06     12.4665E+06         57.9893
            1680     10.9291E-03     119.123E-03     591.364E-03     249.460E-03    -684.935E-03     249.402E-03    -684.877E-03     591.364E-03    -12.1375E-03     352.597E-03    -174.404E-03    -178.193E-03    -172.742E-03     347.146E-03    -174.404E-03     106.976E-03     81.3261E+06     48.9299E+06    -39.7113E+06    -38.6404E+06     47.8590E+06     81.3261E+06     9.64348E+06         60.7947
            1681     11.7705E-03     119.264E-03     563.613E-03     176.471E-03    -580.509E-03     176.461E-03    -580.499E-03     563.613E-03    -3.39648E-03     355.226E-03    -174.415E-03    -180.811E-03    -173.592E-03     348.007E-03    -174.415E-03     122.984E-03     85.2628E+06     48.2301E+06    -31.2944E+06    -30.6111E+06     47.5468E+06     85.2628E+06     7.27390E+06         64.5191
            1682     12.6111E-03     119.443E-03     534.289E-03     101.628E-03    -472.507E-03     101.605E-03    -472.484E-03     534.289E-03     2.94051E-03     356.505E-03    -174.406E-03    -182.099E-03    -174.232E-03     348.638E-03    -174.406E-03     129.076E-03     84.8655E+06     51.6253E+06    -23.1115E+06    -22.6842E+06     51.1979E+06     84.8655E+06     5.56496E+06         68.9441
            1683     13.4520E-03     119.604E-03     503.320E-03     25.8046E-03    -361.658E-03     25.7268E-03    -361.581E-03     503.320E-03     9.74129E-03     364.532E-03    -174.428E-03    -190.104E-03    -176.665E-03     351.094E-03    -174.428E-03     165.843E-03     98.5284E+06     70.4900E+06    -15.9444E+06    -15.6895E+06     70.2350E+06     98.5284E+06     4.42227E+06         73.4626
            1684     14.2960E-03     119.893E-03     470.930E-03    -50.2853E-03    -248.686E-03    -50.3683E-03    -248.603E-03     470.930E-03     8.04474E-03     363.896E-03    -174.535E-03    -189.361E-03    -176.469E-03     351.004E-03    -174.535E-03     160.824E-03     143.818E+06     109.543E+06    -8.18432E+06    -8.09131E+06     109.450E+06     143.818E+06     2.06850E+06         77.2040
            1685     840.776E-06     119.948E-03     894.479E-03     634.321E-03        -1.40471     633.562E-03        -1.40395     894.479E-03    -51.2878E-03     348.157E-03    -173.837E-03    -174.320E-03    -174.204E-03     348.157E-03    -173.953E-03     164.432E-06    -166.706E+06    -171.429E+06    -381.097E+06    -170.435E+06    -381.064E+06    -167.733E+06     582.098E+03         49.9334
            1686     1.68054E-03     119.945E-03     761.235E-03     750.131E-03        -1.38648     749.855E-03        -1.38620     761.235E-03    -31.4710E-03     348.099E-03    -173.837E-03    -174.262E-03    -173.946E-03     348.096E-03    -174.150E-03     2.02834E-03    -151.509E+06    -164.831E+06    -365.243E+06    -164.856E+06    -365.217E+06    -151.509E+06     1.85443E+06         50.0996
            1687     2.52131E-03     119.947E-03     754.560E-03     731.920E-03        -1.36026     731.631E-03        -1.35997     754.560E-03    -41.8096E-03     347.784E-03    -173.547E-03    -174.237E-03    -173.596E-03     347.767E-03    -174.171E-03     5.62472E-03    -130.669E+06    -156.505E+06    -339.541E+06    -156.524E+06    -339.522E+06    -130.669E+06     1.36311E+06         50.3633
            1688     3.36214E-03     119.949E-03     745.879E-03     707.604E-03        -1.32567     707.529E-03        -1.32560     745.879E-03    -23.3512E-03     347.484E-03    -173.263E-03    -174.221E-03    -173.256E-03     347.420E-03    -174.164E-03     11.0412E-03    -106.465E+06    -145.920E+06    -304.262E+06    -145.983E+06    -304.198E+06    -106.465E+06     1.96043E+06         50.7183
            1689     4.20359E-03     119.956E-03     735.217E-03     678.390E-03        -1.28393     678.325E-03        -1.28387     735.217E-03    -18.5830E-03     347.469E-03    -173.205E-03    -174.264E-03    -173.132E-03     347.310E-03    -174.178E-03     17.8749E-03    -80.0039E+06    -132.953E+06    -263.130E+06    -133.089E+06    -262.994E+06    -80.0039E+06     3.53602E+06         51.1541
            1690     5.04330E-03     119.975E-03     722.564E-03     643.243E-03        -1.23407     643.235E-03        -1.23406     722.564E-03    -5.18167E-03     347.471E-03    -173.169E-03    -174.302E-03    -172.913E-03     347.129E-03    -174.216E-03     26.2340E-03    -55.2050E+06    -120.560E+06    -222.872E+06    -120.892E+06    -222.539E+06    -55.2050E+06     5.38177E+06         51.6598
            1691     5.88525E-03     120.009E-03     707.769E-03     601.317E-03        -1.17534     601.306E-03        -1.17532     707.769E-03     1.56021E-03     347.360E-03    -173.123E-03    -174.237E-03    -172.463E-03     346.700E-03    -174.237E-03     36.6236E-03    -30.1254E+06    -106.696E+06    -175.232E+06    -108.147E+06    -173.781E+06    -30.1254E+06     8.00052E+06         52.2300
            1692     6.72565E-03     120.053E-03     690.758E-03     553.888E-03        -1.10865     553.875E-03        -1.10864     690.758E-03     3.47370E-03     347.602E-03    -173.361E-03    -174.241E-03    -172.202E-03     346.443E-03    -174.241E-03     48.6625E-03    -3.99727E+06    -87.1468E+06    -124.547E+06    -94.4148E+06    -117.279E+06    -3.99727E+06     11.1591E+06         52.8750
            1693     7.56558E-03     120.117E-03     671.561E-03     501.258E-03        -1.03439     501.218E-03        -1.03435     671.561E-03    -10.2639E-03     348.212E-03    -173.926E-03    -174.286E-03    -172.096E-03     346.334E-03    -174.238E-03     62.1289E-03     21.7046E+06    -42.8498E+06    -91.3193E+06    -82.0125E+06    -52.1566E+06     21.7046E+06     15.3394E+06         53.6371
            1694     8.40796E-03     120.199E-03     650.189E-03     442.700E-03    -951.805E-03     442.580E-03    -951.684E-03     650.189E-03    -24.6693E-03     348.990E-03    -174.236E-03    -174.754E-03    -172.105E-03     346.342E-03    -174.236E-03     74.1273E-03     43.8683E+06     11.3434E+06    -74.2384E+06    -70.2624E+06     7.36739E+06     43.8683E+06     17.6757E+06         54.6121
            1695     9.24683E-03     120.295E-03     626.690E-03     379.555E-03    -862.168E-03     379.371E-03    -861.984E-03     626.690E-03    -29.6389E-03     349.883E-03    -174.244E-03    -175.639E-03    -172.121E-03     346.365E-03    -174.244E-03     85.4748E-03     58.7361E+06     40.4687E+06    -61.8463E+06    -59.3502E+06     37.9726E+06     58.7361E+06     15.5917E+06         55.9663
            1696     10.0888E-03     120.409E-03     601.155E-03     312.630E-03    -766.575E-03     312.432E-03    -766.378E-03     601.155E-03    -28.8033E-03     351.225E-03    -174.269E-03    -176.956E-03    -172.373E-03     346.642E-03    -174.269E-03     97.7996E-03     70.7155E+06     50.0170E+06    -51.0880E+06    -49.4995E+06     48.4284E+06     70.7155E+06     12.5560E+06         57.9288
            1697     10.9303E-03     120.540E-03     573.756E-03     242.847E-03    -666.164E-03     242.720E-03    -666.037E-03     573.756E-03    -20.5538E-03     352.538E-03    -174.311E-03    -178.226E-03    -172.806E-03     347.117E-03    -174.311E-03     106.688E-03     81.8185E+06     51.8266E+06    -41.6794E+06    -40.5329E+06     50.6801E+06     81.8185E+06     10.2360E+06         60.7288
            1698     11.7713E-03     120.681E-03     544.575E-03     171.331E-03    -562.150E-03     171.282E-03    -562.101E-03     544.575E-03    -11.2223E-03     355.296E-03    -174.337E-03    -180.960E-03    -173.663E-03     348.000E-03    -174.337E-03     123.541E-03     86.8254E+06     51.2301E+06    -32.5247E+06    -31.7591E+06     50.4644E+06     86.8254E+06     7.91869E+06         64.4604
            1699     12.6124E-03     120.861E-03     513.810E-03     98.1762E-03    -454.877E-03     98.1550E-03    -454.856E-03     513.810E-03    -3.63056E-03     356.607E-03    -174.334E-03    -182.273E-03    -174.268E-03     348.602E-03    -174.334E-03     130.184E-03     86.4226E+06     54.3765E+06    -24.7611E+06    -24.2798E+06     53.8951E+06     86.4226E+06     5.94428E+06         68.9107
            1700     13.4542E-03     121.020E-03     481.247E-03     24.5325E-03    -345.271E-03     24.5072E-03    -345.245E-03     481.247E-03     4.14093E-03     364.223E-03    -174.348E-03    -189.875E-03    -176.364E-03     350.712E-03    -174.348E-03     166.179E-03     99.2147E+06     73.1815E+06    -17.7532E+06    -17.5202E+06     72.9485E+06     99.2147E+06     4.25908E+06         73.4683
            1701     14.2964E-03     121.305E-03     447.268E-03    -48.2981E-03    -234.647E-03    -48.3384E-03    -234.606E-03     447.268E-03     5.01049E-03     363.020E-03    -174.428E-03    -188.592E-03    -175.604E-03     350.032E-03    -174.428E-03     161.275E-03     144.948E+06     112.931E+06    -9.47697E+06    -9.39928E+06     112.853E+06     144.948E+06     2.67344E+06         77.2479
            1702     840.449E-06     121.363E-03     862.762E-03     586.138E-03        -1.33197     585.552E-03        -1.33139     862.762E-03    -47.3057E-03     347.737E-03    -173.658E-03    -174.079E-03    -173.901E-03     347.736E-03    -173.835E-03     819.248E-06    -170.083E+06    -174.247E+06    -381.470E+06    -174.251E+06    -381.409E+06    -170.141E+06    -389.688E+03         49.8802
            1703     1.68073E-03     121.361E-03     721.626E-03     711.477E-03        -1.31546     711.218E-03        -1.31520     721.626E-03    -33.7241E-03     347.468E-03    -173.466E-03    -174.002E-03    -173.562E-03     347.462E-03    -173.900E-03     3.27738E-03    -155.939E+06    -168.003E+06    -366.479E+06    -168.026E+06    -366.456E+06    -155.939E+06    -423.442E+03         50.0489
            1704     2.52168E-03     121.360E-03     715.393E-03     693.912E-03        -1.29019     693.618E-03        -1.28990     715.393E-03    -43.6613E-03     346.883E-03    -173.041E-03    -173.842E-03    -173.019E-03     346.861E-03    -173.842E-03     6.46279E-03    -134.983E+06    -159.697E+06    -338.434E+06    -159.709E+06    -338.423E+06    -134.983E+06    -339.783E+03         50.3163
            1705     3.36430E-03     121.362E-03     707.013E-03     670.422E-03        -1.25675     670.288E-03        -1.25661     707.013E-03    -30.3549E-03     347.115E-03    -173.239E-03    -173.876E-03    -173.227E-03     347.054E-03    -173.827E-03     10.8804E-03    -111.733E+06    -149.239E+06    -304.639E+06    -149.261E+06    -304.617E+06    -111.733E+06    -959.686E+03         50.6757
            1706     4.20422E-03     121.373E-03     696.511E-03     641.646E-03        -1.21573     641.521E-03        -1.21560     696.511E-03    -28.1422E-03     347.716E-03    -173.632E-03    -174.084E-03    -173.610E-03     347.559E-03    -173.949E-03     17.6011E-03    -86.1473E+06    -137.302E+06    -266.929E+06    -137.341E+06    -266.890E+06    -86.1473E+06     120.225E+03         51.1156
            1707     5.04386E-03     121.392E-03     683.832E-03     606.805E-03        -1.16612     606.752E-03        -1.16607     683.832E-03    -17.7517E-03     347.520E-03    -173.347E-03    -174.173E-03    -173.085E-03     347.173E-03    -174.087E-03     26.4646E-03    -59.8359E+06    -124.300E+06    -226.643E+06    -124.418E+06    -226.526E+06    -59.8359E+06     1.99266E+06         51.6247
            1708     5.88409E-03     121.422E-03     668.922E-03     567.088E-03        -1.10958     567.050E-03        -1.10954     668.922E-03    -12.9533E-03     347.052E-03    -172.927E-03    -174.125E-03    -172.251E-03     346.377E-03    -174.125E-03     36.9958E-03    -34.8566E+06    -110.694E+06    -179.410E+06    -111.059E+06    -179.045E+06    -34.8566E+06     3.86214E+06         52.1968
            1709     6.72619E-03     121.470E-03     651.822E-03     522.906E-03        -1.04615     522.869E-03        -1.04612     651.822E-03    -12.2171E-03     347.356E-03    -173.239E-03    -174.118E-03    -172.066E-03     346.184E-03    -174.118E-03     48.9615E-03    -10.1594E+06    -94.4800E+06    -129.672E+06    -98.4424E+06    -125.710E+06    -10.1594E+06     7.45626E+06         52.8415
            1710     7.56773E-03     121.532E-03     632.506E-03     472.849E-03    -974.553E-03     472.722E-03    -974.426E-03     632.506E-03    -23.8216E-03     348.074E-03    -173.885E-03    -174.189E-03    -172.077E-03     346.198E-03    -174.121E-03     62.1058E-03     15.5903E+06    -54.6472E+06    -94.4622E+06    -85.2725E+06    -63.8368E+06     15.5903E+06     12.7399E+06         53.6001
            1711     8.40733E-03     121.615E-03     610.926E-03     417.038E-03    -894.822E-03     416.767E-03    -894.552E-03     610.926E-03    -36.2604E-03     348.587E-03    -174.109E-03    -174.478E-03    -171.803E-03     345.913E-03    -174.109E-03     74.4219E-03     39.3168E+06     5.92781E+06    -76.3812E+06    -72.5089E+06     2.05547E+06     39.3168E+06     16.8100E+06         54.5677
            1712     9.24989E-03     121.712E-03     587.148E-03     356.679E-03    -808.049E-03     356.317E-03    -807.687E-03     587.148E-03    -40.3004E-03     349.637E-03    -174.101E-03    -175.535E-03    -171.954E-03     346.055E-03    -174.101E-03     86.2186E-03     56.2896E+06     44.2196E+06    -64.2656E+06    -61.6002E+06     41.5543E+06     56.2896E+06     16.6791E+06         55.9110
            1713     10.0905E-03     121.825E-03     561.283E-03     292.813E-03    -715.625E-03     292.435E-03    -715.246E-03     561.283E-03    -38.3465E-03     351.267E-03    -174.138E-03    -177.129E-03    -172.477E-03     346.615E-03    -174.138E-03     98.5461E-03     69.1163E+06     52.9912E+06    -54.2224E+06    -52.4148E+06     51.1837E+06     69.1163E+06     13.7083E+06         57.8615
            1714     10.9310E-03     121.958E-03     533.544E-03     226.126E-03    -618.420E-03     225.853E-03    -618.147E-03     533.544E-03    -29.3099E-03     352.552E-03    -174.204E-03    -178.349E-03    -172.879E-03     347.083E-03    -174.204E-03     107.187E-03     82.0122E+06     55.2883E+06    -44.7645E+06    -43.6061E+06     54.1300E+06     82.0122E+06     10.6562E+06         60.6543
            1715     11.7724E-03     122.096E-03     503.973E-03     157.635E-03    -517.569E-03     157.475E-03    -517.409E-03     503.973E-03    -19.8669E-03     355.040E-03    -174.238E-03    -180.802E-03    -173.500E-03     347.738E-03    -174.238E-03     123.551E-03     87.9234E+06     55.1692E+06    -35.5109E+06    -34.7631E+06     54.4214E+06     87.9234E+06     8.09176E+06         64.3924
            1716     12.6144E-03     122.278E-03     472.840E-03     88.9501E-03    -414.992E-03     88.8657E-03    -414.908E-03     472.840E-03    -11.1468E-03     355.692E-03    -174.213E-03    -181.479E-03    -173.460E-03     347.673E-03    -174.213E-03     130.106E-03     87.3519E+06     57.1068E+06    -27.2288E+06    -26.7645E+06     56.6424E+06     87.3519E+06     6.01593E+06         68.8700
            1717     13.4556E-03     122.436E-03     439.868E-03     20.9655E-03    -311.366E-03     20.9490E-03    -311.349E-03     439.868E-03    -1.85964E-03     363.489E-03    -174.189E-03    -189.300E-03    -175.718E-03     349.907E-03    -174.189E-03     166.461E-03      100.23E+06     75.2434E+06    -19.2175E+06    -19.0016E+06     75.0275E+06      100.23E+06     3.98106E+06         73.4706
            1718     14.2992E-03     122.719E-03     405.595E-03    -45.8479E-03    -207.388E-03    -45.8622E-03    -207.374E-03     405.595E-03     1.80695E-03     362.782E-03    -174.253E-03    -188.528E-03    -175.450E-03     349.703E-03    -174.253E-03     161.876E-03     146.433E+06     115.998E+06    -10.2339E+06    -10.1905E+06     115.954E+06     146.433E+06     2.00243E+06         77.2889
            1719     841.070E-06     122.776E-03     795.441E-03     513.677E-03        -1.20195     513.128E-03        -1.20140     795.441E-03    -46.7029E-03     346.436E-03    -173.022E-03    -173.414E-03    -173.133E-03     346.434E-03    -173.301E-03     1.13846E-03    -172.558E+06    -179.797E+06    -379.569E+06    -178.110E+06    -379.528E+06    -174.285E+06    -279.808E+03         49.8131
            1720     1.68292E-03     122.775E-03     652.216E-03     643.800E-03        -1.18809     643.517E-03        -1.18781     652.216E-03    -36.8853E-03     346.219E-03    -172.918E-03    -173.301E-03    -172.956E-03     346.213E-03    -173.257E-03     3.10512E-03    -160.114E+06    -172.420E+06    -363.717E+06    -172.503E+06    -363.634E+06    -160.114E+06    -2.58838E+06         49.9851
            1721     2.52455E-03     122.772E-03     646.875E-03     628.360E-03        -1.16597     628.005E-03        -1.16562     646.875E-03    -48.1515E-03     346.707E-03    -173.159E-03    -173.548E-03    -173.347E-03     346.683E-03    -173.336E-03     6.61117E-03    -140.831E+06    -163.286E+06    -336.905E+06    -163.373E+06    -336.819E+06    -140.831E+06    -2.97552E+06         50.2572
            1722     3.36338E-03     122.777E-03     639.342E-03     606.750E-03        -1.13527     606.504E-03        -1.13503     639.342E-03    -40.1425E-03     347.063E-03    -173.319E-03    -173.744E-03    -173.462E-03     346.990E-03    -173.527E-03     11.9326E-03    -117.102E+06    -153.859E+06    -302.730E+06    -153.937E+06    -302.651E+06    -117.102E+06    -3.15871E+06         50.6220
            1723     4.20377E-03     122.788E-03     629.542E-03     579.426E-03        -1.09648     579.184E-03        -1.09624     629.542E-03    -38.9425E-03     346.875E-03    -173.143E-03    -173.732E-03    -173.004E-03     346.688E-03    -173.684E-03     19.1689E-03    -92.3971E+06    -143.224E+06    -268.219E+06    -143.391E+06    -268.051E+06    -92.3971E+06    -3.75708E+06         51.0678
            1724     5.04554E-03     122.807E-03     617.518E-03     547.789E-03        -1.05092     547.626E-03        -1.05076     617.518E-03    -31.2067E-03     347.055E-03    -173.248E-03    -173.808E-03    -172.876E-03     346.668E-03    -173.792E-03     27.9824E-03    -66.5560E+06    -129.865E+06    -229.244E+06    -129.997E+06    -229.112E+06    -66.5560E+06    -2.70777E+06         51.5826
            1725     5.88664E-03     122.838E-03     603.364E-03     512.217E-03    -999.401E-03     512.064E-03    -999.249E-03     603.364E-03    -28.7428E-03     347.386E-03    -173.433E-03    -173.952E-03    -172.782E-03     346.675E-03    -173.893E-03     38.0415E-03    -41.1633E+06    -116.310E+06    -183.004E+06    -116.520E+06    -182.794E+06    -41.1633E+06    -485.020E+03         52.1587
            1726     6.72679E-03     122.884E-03     587.012E-03     471.633E-03    -940.552E-03     471.469E-03    -940.388E-03     587.012E-03    -28.4910E-03     347.544E-03    -173.534E-03    -174.011E-03    -172.365E-03     346.332E-03    -173.967E-03     49.8125E-03    -16.9963E+06    -101.689E+06    -134.798E+06    -102.734E+06    -133.753E+06    -16.9963E+06     2.60076E+06         52.8043
            1727     7.56713E-03     122.949E-03     568.361E-03     425.962E-03    -874.288E-03     425.626E-03    -873.952E-03     568.361E-03    -39.2521E-03     347.807E-03    -173.766E-03    -174.040E-03    -171.923E-03     345.914E-03    -173.990E-03     62.4051E-03     6.89951E+06    -67.5132E+06    -99.1006E+06    -88.8697E+06    -77.7442E+06     6.89951E+06     8.61780E+06         53.5600
            1728     8.40947E-03     123.030E-03     547.434E-03     375.231E-03    -800.673E-03     374.681E-03    -800.122E-03     547.434E-03    -49.6072E-03     348.142E-03    -173.898E-03    -174.243E-03    -171.504E-03     345.470E-03    -173.965E-03     74.3166E-03     32.0881E+06    -3.46553E+06    -79.5581E+06    -76.1999E+06    -6.82375E+06     32.0881E+06     14.8908E+06         54.5201
            1729     9.25063E-03     123.127E-03     524.296E-03     319.861E-03    -720.014E-03     319.192E-03    -719.345E-03     524.296E-03    -51.7483E-03     349.365E-03    -173.947E-03    -175.418E-03    -171.828E-03     345.775E-03    -173.947E-03     86.2851E-03     51.9729E+06     44.5188E+06    -67.4327E+06    -64.8198E+06     42.1184E+06     51.7604E+06     16.8716E+06         55.8515
            1730     10.0915E-03     123.243E-03     499.047E-03     260.780E-03    -633.495E-03     260.086E-03    -632.800E-03     499.047E-03    -48.9997E-03     351.061E-03    -173.994E-03    -177.067E-03    -172.458E-03     346.452E-03    -173.994E-03     98.0970E-03     67.0528E+06     57.0425E+06    -56.4077E+06    -54.4883E+06     55.3356E+06     66.8403E+06     14.5290E+06         57.7880
            1731     10.9332E-03     123.372E-03     471.968E-03     199.508E-03    -542.923E-03     198.957E-03    -542.372E-03     471.968E-03    -39.5213E-03     352.123E-03    -174.069E-03    -178.054E-03    -172.569E-03     346.638E-03    -174.069E-03     107.230E-03     82.2609E+06     59.5331E+06    -45.5469E+06    -44.3532E+06     58.3395E+06     82.2609E+06     11.0977E+06         60.5721
            1732     11.7737E-03     123.515E-03     443.110E-03     137.618E-03    -450.005E-03     137.237E-03    -449.623E-03     443.110E-03    -29.1555E-03     354.519E-03    -174.091E-03    -180.428E-03    -173.020E-03     347.111E-03    -174.091E-03     124.363E-03     89.7331E+06     59.4361E+06    -35.7494E+06    -35.0498E+06     58.7365E+06     89.7331E+06     8.00150E+06         64.3166
            1733     12.6149E-03     123.690E-03     412.847E-03     75.9333E-03    -355.963E-03     75.6990E-03    -355.728E-03     412.847E-03    -19.1245E-03     355.036E-03    -174.042E-03    -180.994E-03    -172.896E-03     346.938E-03    -174.042E-03     130.591E-03     89.4914E+06     59.8416E+06    -26.7824E+06    -26.4137E+06     59.4728E+06     89.4914E+06     5.31998E+06         68.8214
            1734     13.4602E-03     123.851E-03     380.751E-03     15.4612E-03    -261.558E-03     15.3875E-03    -261.484E-03     380.751E-03    -7.80991E-03     362.506E-03    -173.986E-03    -188.520E-03    -174.912E-03     348.897E-03    -173.986E-03     166.430E-03     102.002E+06     76.6496E+06    -18.0675E+06    -17.8586E+06     76.4407E+06     102.002E+06     3.86275E+06         73.4644
            1735     14.3034E-03     124.133E-03     347.456E-03    -43.0544E-03    -167.660E-03    -43.0706E-03    -167.644E-03     347.456E-03    -739.328E-06     362.493E-03    -174.039E-03    -188.454E-03    -175.380E-03     349.419E-03    -174.039E-03     161.739E-03     149.140E+06     119.654E+06    -9.45655E+06    -9.39209E+06     119.590E+06     149.140E+06     2.18204E+06         77.3203
            1736     841.625E-06     124.188E-03     698.047E-03     419.034E-03        -1.02217     418.493E-03        -1.02163     698.047E-03    -44.0041E-03     345.089E-03    -172.163E-03    -172.926E-03    -172.823E-03     345.088E-03    -172.265E-03     1.15562E-03    -180.084E+06    -185.618E+06    -374.618E+06    -183.966E+06    -374.544E+06    -181.811E+06    -2.90750E+06         49.7310
            1737     1.68325E-03     124.185E-03     556.484E-03     548.963E-03        -1.00960     548.616E-03        -1.00925     556.484E-03    -38.6728E-03     345.612E-03    -172.603E-03    -173.009E-03    -172.901E-03     345.606E-03    -172.705E-03     3.04114E-03    -166.794E+06    -178.458E+06    -357.988E+06    -178.581E+06    -357.865E+06    -166.794E+06    -3.92624E+06         49.9065
            1738     2.52385E-03     124.186E-03     551.769E-03     536.323E-03    -990.954E-03     535.866E-03    -990.498E-03     551.769E-03    -51.0350E-03     345.999E-03    -172.739E-03    -173.260E-03    -173.037E-03     345.971E-03    -172.934E-03     7.13759E-03    -146.506E+06    -170.748E+06    -332.974E+06    -171.038E+06    -332.684E+06    -146.506E+06    -5.96487E+06         50.1839
            1739     3.36570E-03     124.192E-03     545.236E-03     517.781E-03    -964.636E-03     517.414E-03    -964.269E-03     545.236E-03    -45.5398E-03     345.942E-03    -172.667E-03    -173.275E-03    -172.752E-03     345.860E-03    -173.107E-03     12.7251E-03    -122.472E+06    -159.461E+06    -300.137E+06    -159.856E+06    -299.742E+06    -122.472E+06    -6.70623E+06         50.5556
            1740     4.20771E-03     124.200E-03     536.711E-03     495.385E-03    -932.094E-03     494.979E-03    -931.688E-03     536.711E-03    -47.1616E-03     345.987E-03    -172.756E-03    -173.231E-03    -172.557E-03     345.788E-03    -173.231E-03     19.8728E-03    -96.5036E+06    -146.848E+06    -264.973E+06    -147.339E+06    -264.482E+06    -96.5036E+06    -7.31129E+06         51.0093
            1741     5.04820E-03     124.222E-03     526.163E-03     468.724E-03    -893.215E-03     468.358E-03    -892.848E-03     526.163E-03    -43.3860E-03     346.442E-03    -173.071E-03    -173.371E-03    -172.670E-03     346.025E-03    -173.356E-03     28.9613E-03    -72.1986E+06    -134.029E+06    -230.027E+06    -134.806E+06    -229.250E+06    -72.1986E+06    -7.69983E+06         51.5319
            1742     5.88776E-03     124.254E-03     513.469E-03     437.247E-03    -847.510E-03     436.855E-03    -847.118E-03     513.469E-03    -43.3966E-03     347.300E-03    -173.457E-03    -173.844E-03    -173.021E-03     346.532E-03    -173.512E-03     39.5548E-03    -48.0154E+06    -119.686E+06    -186.553E+06    -120.497E+06    -185.742E+06    -48.0154E+06    -6.42488E+06         52.1143
            1743     6.72802E-03     124.300E-03     498.540E-03     401.742E-03    -795.459E-03     401.288E-03    -795.005E-03     498.540E-03    -44.6293E-03     347.843E-03    -173.661E-03    -174.182E-03    -172.884E-03     346.563E-03    -173.679E-03     51.2463E-03    -24.2947E+06    -105.616E+06    -142.084E+06    -106.327E+06    -141.373E+06    -24.2947E+06    -3.12341E+06         52.7633
            1744     7.56934E-03     124.364E-03     481.339E-03     362.248E-03    -737.183E-03     361.502E-03    -736.437E-03     481.339E-03    -54.7405E-03     347.947E-03    -173.694E-03    -174.253E-03    -172.219E-03     345.998E-03    -173.779E-03     63.3958E-03    -1.08519E+06    -77.8653E+06    -104.627E+06    -92.1643E+06    -90.3280E+06    -1.08519E+06     2.20044E+06         53.5176
            1745     8.41003E-03     124.444E-03     461.883E-03     318.031E-03    -671.986E-03     316.967E-03    -670.922E-03     461.883E-03    -63.1896E-03     348.361E-03    -173.736E-03    -174.625E-03    -171.860E-03     345.663E-03    -173.803E-03     74.7378E-03     24.6800E+06    -18.3103E+06    -78.8581E+06    -77.1011E+06    -20.0673E+06     24.6800E+06     9.40260E+06         54.4703
            1746     9.25137E-03     124.543E-03     440.217E-03     269.323E-03    -599.976E-03     268.095E-03    -598.748E-03     440.217E-03    -63.7649E-03     349.263E-03    -173.814E-03    -175.449E-03    -171.807E-03     345.621E-03    -173.814E-03     86.8715E-03     48.8025E+06     38.8152E+06    -66.0448E+06    -63.7094E+06     37.2352E+06     48.0471E+06     15.4649E+06         55.7881
            1747     10.0929E-03     124.658E-03     416.478E-03     217.559E-03    -522.876E-03     216.270E-03    -521.587E-03     416.478E-03    -60.2286E-03     350.430E-03    -173.840E-03    -176.590E-03    -171.904E-03     345.744E-03    -173.840E-03     98.8146E-03     66.4756E+06     61.7366E+06    -54.5244E+06    -52.3748E+06     60.3425E+06     65.7201E+06     15.5813E+06         57.7090
            1748     10.9333E-03     124.789E-03     391.088E-03     164.984E-03    -443.305E-03     163.857E-03    -442.178E-03     391.088E-03    -50.7249E-03     351.350E-03    -173.877E-03    -177.473E-03    -171.901E-03     345.778E-03    -173.877E-03     107.911E-03     80.9022E+06     63.7456E+06    -44.8280E+06    -43.4411E+06     62.3587E+06     80.9022E+06     12.1109E+06         60.4828
            1749     11.7771E-03     124.927E-03     364.097E-03     112.473E-03    -362.316E-03     111.606E-03    -361.449E-03     364.097E-03    -39.0599E-03     353.811E-03    -173.882E-03    -179.929E-03    -172.453E-03     346.335E-03    -173.882E-03     124.833E-03     91.2327E+06     64.0996E+06    -36.4816E+06    -35.7128E+06     63.3309E+06     91.2327E+06     8.52961E+06         64.2313
            1750     12.6207E-03     125.107E-03     335.915E-03     60.1629E-03    -280.517E-03     59.5494E-03    -279.903E-03     335.915E-03    -27.4425E-03     354.617E-03    -173.835E-03    -180.782E-03    -172.770E-03     346.604E-03    -173.835E-03     129.779E-03     92.6028E+06     64.3543E+06    -28.0549E+06    -27.7713E+06     64.0707E+06     92.6028E+06     4.83744E+06         68.7588
            1751     13.4607E-03     125.262E-03     305.987E-03     9.09107E-03    -198.517E-03     8.76085E-03    -198.187E-03     305.987E-03    -14.8011E-03     362.072E-03    -173.788E-03    -188.284E-03    -174.825E-03     348.613E-03    -173.788E-03     165.227E-03     103.182E+06     78.5770E+06    -20.2209E+06    -20.1070E+06     78.4631E+06     103.182E+06     2.32698E+06         73.4376
            1752     14.3063E-03     125.545E-03     274.920E-03    -38.4261E-03    -118.831E-03    -39.8267E-03    -117.431E-03     274.920E-03    -4.76254E-03     361.751E-03    -173.842E-03    -187.909E-03    -174.844E-03     348.687E-03    -173.842E-03     161.694E-03     150.933E+06     122.057E+06    -10.4958E+06    -10.4370E+06     121.999E+06     150.933E+06     1.30986E+06         77.3274
            1753     842.799E-06     125.597E-03     573.296E-03     306.739E-03    -799.519E-03     306.147E-03    -798.927E-03     573.296E-03    -41.9970E-03     344.199E-03    -171.350E-03    -172.849E-03    -172.848E-03     344.197E-03    -171.350E-03     1.44152E-03    -181.975E+06    -188.650E+06    -367.085E+06    -187.659E+06    -366.994E+06    -183.056E+06    -2.24698E+06         49.6320
            1754     1.68395E-03     125.597E-03     438.323E-03     432.399E-03    -789.056E-03     431.930E-03    -788.588E-03     438.323E-03    -41.3477E-03     344.782E-03    -172.209E-03    -172.573E-03    -172.500E-03     344.772E-03    -172.273E-03     3.97068E-03    -169.592E+06    -183.036E+06    -351.125E+06    -183.202E+06    -350.959E+06    -169.592E+06    -4.69759E+06         49.8118
            1755     2.52546E-03     125.598E-03     434.447E-03     422.335E-03    -773.876E-03     421.684E-03    -773.225E-03     434.447E-03    -54.0964E-03     344.660E-03    -172.098E-03    -172.563E-03    -172.179E-03     344.628E-03    -172.449E-03     7.92709E-03    -149.313E+06    -174.554E+06    -324.334E+06    -175.004E+06    -323.884E+06    -149.313E+06    -7.67009E+06         50.0959
            1756     3.36737E-03     125.601E-03     429.126E-03     408.317E-03    -753.530E-03     407.703E-03    -752.916E-03     429.126E-03    -51.4064E-03     344.771E-03    -172.200E-03    -172.571E-03    -172.123E-03     344.676E-03    -172.553E-03     13.5110E-03    -126.157E+06    -163.640E+06    -294.478E+06    -164.620E+06    -293.497E+06    -126.157E+06    -10.7299E+06         50.4763
            1757     4.20795E-03     125.615E-03     422.169E-03     391.250E-03    -728.118E-03     390.510E-03    -727.378E-03     422.169E-03    -55.9295E-03     345.421E-03    -172.588E-03    -172.834E-03    -172.502E-03     345.209E-03    -172.707E-03     20.5865E-03    -101.860E+06    -150.519E+06    -261.551E+06    -151.965E+06    -260.105E+06    -101.860E+06    -11.9618E+06         50.9398
            1758     5.04949E-03     125.634E-03     413.384E-03     369.784E-03    -696.476E-03     369.012E-03    -695.705E-03     413.384E-03    -55.3578E-03     345.800E-03    -172.789E-03    -173.011E-03    -172.471E-03     345.369E-03    -172.898E-03     29.3992E-03    -77.3754E+06    -136.930E+06    -226.736E+06    -138.994E+06    -224.672E+06    -77.3754E+06    -12.8574E+06         51.4719
            1759     5.89203E-03     125.669E-03     402.508E-03     344.320E-03    -658.917E-03     343.426E-03    -658.023E-03     402.508E-03    -57.5527E-03     346.407E-03    -173.018E-03    -173.389E-03    -172.524E-03     345.597E-03    -173.073E-03     40.5710E-03    -54.0691E+06    -122.856E+06    -189.390E+06    -125.682E+06    -186.565E+06    -54.0691E+06    -12.8084E+06         52.0629
            1760     6.73175E-03     125.716E-03     389.508E-03     315.841E-03    -616.142E-03     314.724E-03    -615.025E-03     389.508E-03    -61.4391E-03     347.550E-03    -173.265E-03    -174.285E-03    -172.963E-03     346.228E-03    -173.265E-03     52.1607E-03    -31.0016E+06    -107.808E+06    -149.901E+06    -111.231E+06    -146.479E+06    -31.0016E+06    -10.5641E+06         52.7173
            1761     7.57124E-03     125.778E-03     374.406E-03     283.765E-03    -567.830E-03     282.134E-03    -566.200E-03     374.406E-03    -71.0364E-03     348.179E-03    -173.440E-03    -174.738E-03    -172.737E-03     346.178E-03    -173.440E-03     64.2421E-03    -8.04175E+06    -83.0240E+06    -110.884E+06    -95.9924E+06    -97.9152E+06    -8.04175E+06    -7.36273E+06         53.4717
            1762     8.41178E-03     125.861E-03     357.105E-03     247.026E-03    -512.743E-03     244.886E-03    -510.603E-03     357.105E-03    -77.6131E-03     348.678E-03    -173.544E-03    -175.134E-03    -172.300E-03     345.843E-03    -173.544E-03     76.6184E-03     15.4164E+06    -36.0177E+06    -82.2866E+06    -80.4095E+06    -37.8948E+06     15.4164E+06     373.174E+03         54.4172
            1763     9.25268E-03     125.956E-03     337.680E-03     207.381E-03    -452.612E-03     204.934E-03    -450.165E-03     337.680E-03    -77.2670E-03     349.362E-03    -173.593E-03    -175.769E-03    -172.032E-03     345.625E-03    -173.593E-03     88.0978E-03     42.3408E+06     22.2030E+06    -67.3675E+06    -65.9666E+06     24.1994E+06     38.9435E+06     10.6742E+06         55.7202
            1764     10.0945E-03     126.074E-03     316.431E-03     166.406E-03    -389.411E-03     163.853E-03    -386.858E-03     316.431E-03    -72.5102E-03     349.806E-03    -173.611E-03    -176.195E-03    -171.485E-03     345.096E-03    -173.611E-03     98.9473E-03     63.8935E+06     56.6411E+06    -57.0353E+06    -55.0354E+06     60.8691E+06     57.6657E+06      15.118E+06         57.6219
            1765     10.9385E-03     126.202E-03     293.777E-03     124.489E-03    -323.947E-03     122.125E-03    -321.582E-03     293.777E-03    -62.4347E-03     350.943E-03    -173.653E-03    -177.290E-03    -171.762E-03     345.415E-03    -173.653E-03     107.452E-03     78.9830E+06     65.4938E+06    -47.1149E+06    -45.6235E+06     66.8330E+06     76.1525E+06     12.8773E+06         60.3787
            1766     11.7792E-03     126.343E-03     269.715E-03     82.7323E-03    -257.438E-03     80.6448E-03    -255.350E-03     269.715E-03    -50.2744E-03     353.497E-03    -173.702E-03    -179.795E-03    -172.518E-03     346.220E-03    -173.702E-03     123.136E-03     93.0060E+06     69.9286E+06    -35.8392E+06    -35.0855E+06     69.1749E+06     93.0060E+06     8.66122E+06         64.1210
            1767     12.6202E-03     126.520E-03     244.709E-03     41.8574E-03    -191.031E-03     40.1226E-03    -189.296E-03     244.709E-03    -37.1156E-03     353.629E-03    -173.671E-03    -179.958E-03    -172.131E-03     345.802E-03    -173.671E-03     128.107E-03     97.3353E+06     69.4848E+06    -25.6385E+06    -25.3427E+06     69.1891E+06     97.3353E+06     5.12110E+06         68.6628
            1768     13.4656E-03     126.676E-03     218.084E-03     2.48240E-03    -125.048E-03     1.18173E-03    -123.748E-03     218.084E-03    -22.3235E-03     361.437E-03    -173.608E-03    -187.829E-03    -174.383E-03     347.991E-03    -173.608E-03     164.848E-03     107.914E+06     82.2582E+06    -17.1439E+06    -17.0008E+06     82.1151E+06     107.914E+06     2.72608E+06         73.3735
            1769     14.3075E-03     126.956E-03     190.497E-03    -22.4815E-03    -72.5219E-03    -35.3196E-03    -59.6838E-03     190.497E-03    -8.44605E-03     360.471E-03    -173.623E-03    -186.848E-03    -173.671E-03     347.294E-03    -173.623E-03     162.276E-03     153.916E+06     123.894E+06    -9.24353E+06    -9.16571E+06     123.816E+06     153.916E+06     1.70649E+06         77.2968
            1770     841.840E-06     127.006E-03     426.306E-03     182.209E-03    -543.179E-03     181.449E-03    -542.419E-03     426.306E-03    -38.9687E-03     342.809E-03    -170.849E-03    -171.960E-03    -171.795E-03     342.804E-03    -171.009E-03     2.18877E-03    -188.015E+06    -193.741E+06    -359.822E+06    -192.050E+06    -359.696E+06    -189.833E+06    -2.48989E+06         49.5137
            1771     1.68456E-03     127.007E-03     302.798E-03     298.843E-03    -535.614E-03     298.243E-03    -535.015E-03     302.798E-03    -39.8686E-03     342.924E-03    -171.367E-03    -171.557E-03    -171.407E-03     342.907E-03    -171.500E-03     5.50066E-03    -172.231E+06    -185.010E+06    -339.892E+06    -185.365E+06    -339.537E+06    -172.231E+06    -6.65142E+06         49.6994
            1772     2.52735E-03     127.007E-03     299.827E-03     291.056E-03    -523.812E-03     290.106E-03    -522.863E-03     299.827E-03    -54.1259E-03     343.320E-03    -171.485E-03    -171.834E-03    -171.634E-03     343.276E-03    -171.642E-03     9.13216E-03    -151.554E+06    -175.409E+06    -314.443E+06    -176.192E+06    -313.660E+06    -151.554E+06    -9.96977E+06         49.9925
            1773     3.36959E-03     127.012E-03     295.604E-03     281.272E-03    -509.040E-03     280.078E-03    -507.846E-03     295.604E-03    -58.0349E-03     343.918E-03    -171.765E-03    -172.154E-03    -171.946E-03     343.803E-03    -171.858E-03     14.9622E-03    -127.661E+06    -164.472E+06    -284.911E+06    -165.967E+06    -283.416E+06    -127.661E+06    -12.8772E+06         50.3837
            1774     4.21202E-03     127.026E-03     290.080E-03     269.604E-03    -490.668E-03     268.035E-03    -489.099E-03     290.080E-03    -65.4554E-03     344.671E-03    -172.117E-03    -172.554E-03    -172.309E-03     344.426E-03    -172.117E-03     22.2087E-03    -103.981E+06    -151.849E+06    -255.112E+06    -154.516E+06    -252.445E+06    -103.981E+06    -16.0110E+06         50.8587
            1775     5.05241E-03     127.047E-03     283.094E-03     254.730E-03    -467.845E-03     252.896E-03    -466.011E-03     283.094E-03    -68.0817E-03     345.489E-03    -172.399E-03    -173.090E-03    -172.630E-03     345.028E-03    -172.399E-03     30.5319E-03    -80.3986E+06    -137.740E+06    -222.417E+06    -141.826E+06    -218.331E+06    -80.3986E+06    -17.6658E+06         51.4021
            1776     5.89211E-03     127.080E-03     274.381E-03     237.510E-03    -441.021E-03     235.279E-03    -438.790E-03     274.381E-03    -72.6114E-03     345.962E-03    -172.659E-03    -173.303E-03    -172.481E-03     345.139E-03    -172.659E-03     40.8937E-03    -57.1515E+06    -122.813E+06    -189.161E+06    -129.044E+06    -182.930E+06    -57.1515E+06    -18.6966E+06         52.0023
            1777     6.73460E-03     127.131E-03     263.782E-03     217.105E-03    -409.144E-03     214.335E-03    -406.374E-03     263.782E-03    -77.6326E-03     346.555E-03    -172.859E-03    -173.696E-03    -172.350E-03     345.209E-03    -172.859E-03     52.5188E-03    -35.8377E+06    -105.623E+06    -156.173E+06    -115.202E+06    -146.593E+06    -35.8377E+06    -18.9580E+06         52.6625
            1778     7.57452E-03     127.196E-03     251.241E-03     193.397E-03    -372.263E-03     189.642E-03    -368.508E-03     251.241E-03    -85.9057E-03     347.721E-03    -173.035E-03    -174.686E-03    -172.656E-03     345.691E-03    -173.035E-03     64.6977E-03    -14.4288E+06    -82.8512E+06    -120.369E+06    -100.584E+06    -102.636E+06    -14.4288E+06    -16.5028E+06         53.4169
            1779     8.41587E-03     127.273E-03     236.707E-03     166.928E-03    -330.776E-03     162.212E-03    -326.060E-03     236.707E-03    -90.5703E-03     348.990E-03    -173.207E-03    -175.783E-03    -172.925E-03     346.133E-03    -173.207E-03     76.9998E-03     6.33129E+06    -49.6633E+06    -91.3636E+06    -86.0588E+06    -54.9682E+06     6.33129E+06    -9.47741E+06         54.3536
            1780     9.25615E-03     127.376E-03     220.368E-03     138.833E-03    -285.905E-03     133.343E-03    -280.414E-03     220.368E-03    -89.6085E-03     349.477E-03    -173.325E-03    -176.152E-03    -172.491E-03     345.816E-03    -173.325E-03     87.3000E-03     29.4871E+06     2.19360E+06    -72.7213E+06    -71.6297E+06     3.95621E+06     26.6328E+06     1.39502E+06         55.6380
            1781     10.0969E-03     127.484E-03     202.521E-03     109.935E-03    -238.923E-03     103.829E-03    -232.818E-03     202.521E-03    -84.2911E-03     350.193E-03    -173.404E-03    -176.789E-03    -172.209E-03     345.613E-03    -173.404E-03     97.6415E-03     56.5883E+06     46.3152E+06    -58.6031E+06    -57.5480E+06     54.0897E+06     47.7587E+06     10.2718E+06         57.5125
            1782     10.9377E-03     127.618E-03     183.503E-03     80.5468E-03    -190.385E-03     74.2517E-03    -184.090E-03     183.503E-03    -73.6319E-03     350.959E-03    -173.504E-03    -177.455E-03    -172.082E-03     345.587E-03    -173.504E-03     105.994E-03     76.7365E+06     66.3701E+06    -46.5265E+06    -45.4003E+06     71.7996E+06     70.1808E+06     11.3461E+06         60.2404
            1783     11.7793E-03     127.758E-03     163.351E-03     51.9453E-03    -141.773E-03     45.3751E-03    -135.203E-03     163.351E-03    -60.8149E-03     352.290E-03    -173.562E-03    -178.727E-03    -171.546E-03     345.109E-03    -173.562E-03     121.935E-03     90.5665E+06     74.3866E+06    -36.3389E+06    -35.7755E+06     74.4036E+06     89.9862E+06     7.73817E+06         63.9666
            1784     12.6237E-03     127.932E-03     142.542E-03     25.5449E-03    -95.0074E-03     18.0165E-03    -87.4791E-03     142.542E-03    -45.5358E-03     352.478E-03    -173.504E-03    -178.974E-03    -171.053E-03     344.557E-03    -173.504E-03     128.617E-03     99.5653E+06     73.6718E+06    -27.3994E+06    -27.1598E+06     73.4322E+06     99.5653E+06     4.65398E+06         68.5164
            1785     13.4664E-03     128.087E-03     120.285E-03     8.18134E-03    -56.3865E-03    -7.48910E-03    -40.7160E-03     120.285E-03    -27.3792E-03     359.947E-03    -173.381E-03    -186.566E-03    -172.901E-03     346.282E-03    -173.381E-03     165.727E-03     111.564E+06     84.4099E+06    -19.1067E+06    -18.9897E+06     84.2928E+06     111.564E+06     2.84840E+06         73.2582
            1786     14.3134E-03     128.369E-03     101.253E-03     10.8316E-03    -41.0820E-03    -30.7458E-03     4.39620E-03     97.3524E-03    -10.3481E-03     357.645E-03    -172.950E-03    -184.695E-03    -170.988E-03     344.274E-03    -173.286E-03     162.683E-03     157.414E+06     125.311E+06    -10.3463E+06    -10.2608E+06     125.225E+06     157.414E+06     2.41212E+06         77.2170
            1787     844.073E-06     128.412E-03     265.580E-03     53.8334E-03    -269.964E-03     46.4398E-03    -262.571E-03     265.580E-03    -37.0211E-03     340.347E-03    -169.998E-03    -170.349E-03    -170.061E-03     340.338E-03    -170.278E-03     3.26140E-03    -185.391E+06    -188.527E+06    -346.521E+06    -188.040E+06    -346.272E+06    -186.126E+06    -5.87645E+06         49.3730
            1788     1.68785E-03     128.413E-03     155.395E-03     152.162E-03    -258.070E-03     150.855E-03    -256.234E-03     154.866E-03    -40.1456E-03     340.819E-03    -170.241E-03    -170.578E-03    -170.486E-03     340.797E-03    -170.311E-03     6.43456E-03    -171.895E+06    -181.061E+06    -326.408E+06    -181.677E+06    -325.792E+06    -171.895E+06    -9.19636E+06         49.5659
            1789     2.53061E-03     128.415E-03     152.965E-03     148.690E-03    -251.212E-03     146.178E-03    -248.171E-03     152.436E-03    -56.2844E-03     341.953E-03    -170.631E-03    -171.323E-03    -171.266E-03     341.897E-03    -170.631E-03     10.4984E-03    -150.161E+06    -172.713E+06    -303.414E+06    -174.076E+06    -302.052E+06    -150.161E+06    -12.8201E+06         49.8693
            1790     3.37222E-03     128.422E-03     149.516E-03     143.189E-03    -241.921E-03     139.229E-03    -237.715E-03     149.270E-03    -63.8824E-03     342.984E-03    -171.034E-03    -171.951E-03    -171.819E-03     342.853E-03    -171.034E-03     16.1204E-03    -127.548E+06    -161.977E+06    -275.172E+06    -164.365E+06    -272.784E+06    -127.548E+06    -15.8931E+06         50.2728
            1791     4.21337E-03     128.436E-03     145.895E-03     137.512E-03    -231.709E-03     132.431E-03    -225.856E-03     145.122E-03    -74.1623E-03     343.745E-03    -171.426E-03    -172.319E-03    -172.040E-03     343.466E-03    -171.426E-03     23.5599E-03    -102.682E+06    -149.510E+06    -245.296E+06    -153.275E+06    -241.531E+06    -102.682E+06    -18.1874E+06         50.7608
            1792     5.05523E-03     128.460E-03     142.283E-03     129.875E-03    -219.837E-03     124.707E-03    -212.364E-03     139.978E-03    -80.3434E-03     344.890E-03    -171.794E-03    -173.096E-03    -172.576E-03     344.370E-03    -171.794E-03     32.4699E-03    -79.8924E+06    -135.443E+06    -215.932E+06    -141.958E+06    -209.417E+06    -79.8924E+06    -21.3423E+06         51.3159
            1793     5.89623E-03     128.494E-03     137.780E-03     120.895E-03    -206.004E-03     115.318E-03    -196.278E-03     133.630E-03    -87.6034E-03     345.943E-03    -172.155E-03    -173.788E-03    -172.895E-03     345.051E-03    -172.155E-03     42.6725E-03    -58.7011E+06    -119.767E+06    -186.201E+06    -129.755E+06    -176.213E+06    -58.7011E+06    -23.2948E+06         51.9249
            1794     6.73535E-03     128.544E-03     131.754E-03     109.754E-03    -188.476E-03     103.591E-03    -176.371E-03     125.811E-03    -92.2416E-03     346.451E-03    -172.461E-03    -173.989E-03    -172.606E-03     345.067E-03    -172.461E-03     53.3491E-03    -37.8499E+06    -101.230E+06    -157.176E+06    -117.518E+06    -140.888E+06    -37.8499E+06    -24.4781E+06         52.5886
            1795     7.57883E-03     128.608E-03     125.248E-03     96.1258E-03    -168.301E-03     88.9027E-03    -152.135E-03     116.305E-03    -99.0351E-03     347.738E-03    -172.718E-03    -175.020E-03    -173.011E-03     345.729E-03    -172.718E-03     64.4284E-03    -18.7281E+06    -80.6484E+06    -129.573E+06    -104.810E+06    -105.412E+06    -18.7281E+06    -23.7350E+06         53.3388
            1796     8.41676E-03     128.693E-03     118.044E-03     81.3040E-03    -146.402E-03     72.6763E-03    -124.893E-03     105.162E-03    -102.844E-03     348.986E-03    -172.961E-03    -176.025E-03    -173.279E-03     346.240E-03    -172.961E-03     75.5575E-03    -264.385E+03    -53.8189E+06    -103.155E+06    -90.9385E+06    -66.0355E+06    -264.385E+03    -19.4846E+06         54.2613
            1797     9.25657E-03     128.788E-03     110.624E-03     65.1165E-03    -123.081E-03     55.6514E-03    -95.6231E-03     92.6315E-03    -101.315E-03     349.629E-03    -173.144E-03    -176.485E-03    -172.913E-03     346.057E-03    -173.144E-03     86.2292E-03     19.2138E+06    -11.8914E+06    -78.8999E+06    -74.8615E+06    -15.9298E+06     19.2138E+06    -11.4894E+06         55.5200
            1798     10.0980E-03     128.902E-03     103.724E-03     47.8845E-03    -99.4863E-03     38.1709E-03    -64.9329E-03     78.8838E-03    -95.3919E-03     350.404E-03    -173.247E-03    -177.158E-03    -172.580E-03     345.827E-03    -173.247E-03     97.6762E-03     46.6402E+06     28.9802E+06    -59.9627E+06    -58.8425E+06     37.2803E+06     37.2199E+06     510.503E+03         57.3586
            1799     10.9374E-03     129.034E-03     97.5484E-03     30.6948E-03    -76.8592E-03     21.9219E-03    -34.8454E-03     64.3074E-03    -84.4519E-03     350.192E-03    -173.305E-03    -176.887E-03    -171.384E-03     344.689E-03    -173.305E-03     107.066E-03     71.5629E+06     57.1986E+06    -47.2741E+06    -46.5975E+06     70.8863E+06     57.1986E+06     8.35784E+06         60.0501
            1800     11.7817E-03     129.167E-03     92.1586E-03     13.6992E-03    -55.5893E-03     7.33151E-03    -6.01295E-03     48.9500E-03    -70.4159E-03     351.222E-03    -173.324E-03    -177.898E-03    -170.589E-03     343.913E-03    -173.324E-03     122.914E-03     86.3733E+06     75.4922E+06    -37.9037E+06    -37.3645E+06     79.8970E+06     81.4292E+06     7.77068E+06         63.7537
            1801     12.6264E-03     129.343E-03     87.7130E-03    -1.33877E-03    -37.5208E-03    -5.95868E-03     21.6070E-03     33.2051E-03    -53.7715E-03     351.018E-03    -173.246E-03    -177.772E-03    -169.789E-03     343.035E-03    -173.246E-03     128.827E-03     98.7914E+06     78.7593E+06    -29.1368E+06    -28.9309E+06     78.5534E+06     98.7914E+06     4.59404E+06         68.3089
            1802     13.4719E-03     129.498E-03     82.9324E-03    -4.28468E-03    -31.7760E-03    -17.1997E-03     47.7891E-03     16.2823E-03    -33.7329E-03     356.716E-03    -173.026E-03    -183.689E-03    -169.768E-03     342.794E-03    -173.026E-03     166.195E-03     114.118E+06     85.4539E+06    -20.8486E+06    -20.7296E+06     85.3349E+06     114.118E+06     2.93477E+06         73.0852
            1803     14.3201E-03     129.771E-03     81.6876E-03     3.64643E-03    -40.5000E-03    -26.1213E-03     71.9535E-03    -998.220E-06    -13.1501E-03     353.220E-03    -171.295E-03    -181.926E-03    -166.687E-03     339.426E-03    -172.738E-03     164.308E-03     161.202E+06     126.021E+06    -11.5397E+06    -11.4571E+06     125.938E+06     161.202E+06     1.95509E+06         77.0928
            1804     844.731E-06     129.814E-03     187.829E-03    -4.12383E-03    -150.954E-03    -96.3800E-03     37.5403E-03     91.5904E-03    -37.2288E-03     338.285E-03    -168.484E-03    -169.801E-03    -169.650E-03     338.279E-03    -168.629E-03     3.00074E-03    -172.808E+06    -179.032E+06    -329.042E+06    -177.470E+06    -328.822E+06    -174.590E+06    -5.04776E+06         49.2018
            1805     1.68888E-03     129.816E-03     136.126E-03    -3.62046E-03    -99.5648E-03    -4.11604E-03     39.9327E-03    -2.87561E-03    -43.3498E-03     338.876E-03    -169.271E-03    -169.605E-03    -169.556E-03     338.852E-03    -169.296E-03     6.51581E-03    -163.746E+06    -173.887E+06    -311.096E+06    -174.715E+06    -310.268E+06    -163.746E+06    -10.0661E+06         49.4015
            1806     2.53256E-03     129.821E-03     136.214E-03    -4.19734E-03    -98.4410E-03    -5.50070E-03     43.1240E-03    -4.04756E-03    -60.7231E-03     340.017E-03    -169.632E-03    -170.385E-03    -170.311E-03     339.943E-03    -169.632E-03     11.8981E-03    -144.617E+06    -165.464E+06    -289.769E+06    -167.257E+06    -287.976E+06    -144.617E+06    -14.5300E+06         49.7149
            1807     3.37539E-03     129.830E-03     135.330E-03    -5.80696E-03    -95.9312E-03    -7.51132E-03     46.7604E-03    -5.65718E-03    -71.0360E-03     341.499E-03    -170.088E-03    -171.411E-03    -171.244E-03     341.332E-03    -170.088E-03     18.1917E-03    -122.219E+06    -155.092E+06    -264.516E+06    -158.214E+06    -261.395E+06    -122.219E+06    -17.9510E+06         50.1304
            1808     4.21777E-03     129.845E-03     135.046E-03    -7.88900E-03    -93.1067E-03    -8.97693E-03     50.9162E-03    -7.88900E-03    -84.3610E-03     342.950E-03    -170.594E-03    -172.356E-03    -172.027E-03     342.621E-03    -170.594E-03     25.6938E-03    -99.1793E+06    -142.426E+06    -235.147E+06    -147.659E+06    -229.915E+06    -99.1793E+06    -20.9464E+06         50.6302
            1809     5.05912E-03     129.870E-03     135.386E-03    -10.5948E-03    -90.5581E-03    -10.1368E-03     55.2209E-03    -10.8512E-03    -93.3073E-03     344.286E-03    -171.097E-03    -173.189E-03    -172.616E-03     343.713E-03    -171.097E-03     34.1400E-03    -76.7686E+06    -128.284E+06    -206.260E+06    -136.558E+06    -197.986E+06    -76.7686E+06    -23.6299E+06         51.1950
            1810     5.89947E-03     129.908E-03     135.356E-03    -13.1080E-03    -88.2004E-03    -11.7909E-03     60.5177E-03    -14.6794E-03    -101.539E-03     345.741E-03    -171.586E-03    -174.155E-03    -173.239E-03     344.824E-03    -171.586E-03     43.3474E-03    -55.7867E+06    -113.182E+06    -180.363E+06    -125.623E+06    -167.922E+06    -55.7867E+06    -25.7044E+06         51.8091
            1811     6.74072E-03     129.957E-03     134.654E-03    -15.5659E-03    -85.2742E-03    -13.8357E-03     67.1928E-03    -19.5433E-03    -106.915E-03     347.294E-03    -172.053E-03    -175.241E-03    -173.832E-03     345.885E-03    -172.053E-03     53.8943E-03    -35.9347E+06    -94.8775E+06    -153.159E+06    -114.680E+06    -133.356E+06    -35.9347E+06    -26.7878E+06         52.4710
            1812     7.57674E-03     130.024E-03     134.645E-03    -18.7765E-03    -82.7173E-03    -16.7452E-03     75.5024E-03    -25.6056E-03    -113.269E-03     348.236E-03    -172.465E-03    -175.771E-03    -173.680E-03     346.145E-03    -172.465E-03     65.7649E-03    -17.9803E+06    -75.6621E+06    -131.305E+06    -104.065E+06    -102.902E+06    -17.9803E+06    -27.6358E+06         53.2100
            1813     8.41814E-03     130.108E-03     134.866E-03    -22.4762E-03    -80.1032E-03    -20.9436E-03     86.0344E-03    -32.8042E-03    -116.358E-03     348.576E-03    -172.749E-03    -175.827E-03    -173.006E-03     345.754E-03    -172.749E-03     76.5629E-03    -2.23215E+06    -50.2603E+06    -111.448E+06    -92.8274E+06    -68.8809E+06    -2.23215E+06    -26.8796E+06         54.1110
            1814     9.25938E-03     130.203E-03     135.760E-03    -26.4668E-03    -78.0551E-03    -25.6345E-03     97.8743E-03    -41.0016E-03    -113.572E-03     349.406E-03    -172.925E-03    -176.481E-03    -172.728E-03     345.653E-03    -172.925E-03     88.2466E-03     13.3642E+06    -20.5390E+06    -89.4478E+06    -80.4229E+06    -29.5639E+06     13.3642E+06    -22.1808E+06         55.3375
            1815     10.0976E-03     130.320E-03     137.112E-03    -30.2626E-03    -77.0570E-03    -29.7490E-03     109.570E-03    -50.0284E-03    -106.883E-03     349.550E-03    -172.990E-03    -176.559E-03    -171.816E-03     344.806E-03    -172.990E-03     99.3587E-03     32.8228E+06     11.4779E+06    -69.8733E+06    -66.5234E+06     14.4035E+06     26.5472E+06    -12.1876E+06         57.1375
            1816     10.9435E-03     130.441E-03     138.632E-03    -33.2643E-03    -77.2803E-03    -32.3205E-03     119.873E-03    -59.4653E-03    -96.4052E-03     348.915E-03    -172.950E-03    -175.965E-03    -170.385E-03     343.335E-03    -172.950E-03     107.576E-03     60.0480E+06     41.4916E+06    -52.5091E+06    -51.7115E+06     58.6464E+06     42.0956E+06    -280.890E+03         59.7944
            1817     11.7862E-03     130.583E-03     140.479E-03    -35.6642E-03    -78.8919E-03    -33.0393E-03     128.387E-03    -69.4250E-03    -82.3138E-03     350.135E-03    -172.896E-03    -177.238E-03    -169.726E-03     342.622E-03    -172.896E-03     124.356E-03     83.5363E+06     66.9118E+06    -38.9693E+06    -38.6548E+06     82.2922E+06     67.8414E+06     4.83862E+06         63.4829
            1818     12.6289E-03     130.750E-03     141.413E-03    -35.8830E-03    -82.1348E-03    -31.6095E-03     134.452E-03    -79.4476E-03    -64.8603E-03     348.624E-03    -172.675E-03    -175.950E-03    -167.574E-03     340.337E-03    -172.763E-03     130.680E-03     95.9551E+06     78.8189E+06    -28.9199E+06    -28.7681E+06     82.6852E+06     91.9370E+06     3.82703E+06         68.0606
            1819     13.4780E-03     130.902E-03     140.963E-03    -30.5800E-03    -90.1919E-03    -27.5008E-03     137.884E-03    -90.1919E-03    -42.8314E-03     352.182E-03    -172.312E-03    -179.870E-03    -165.323E-03     337.724E-03    -172.400E-03     167.904E-03     114.754E+06     87.3034E+06    -20.2625E+06    -20.1494E+06     87.1903E+06     114.754E+06     2.54807E+06         72.9129
            1820     14.3334E-03     131.167E-03     139.483E-03    -21.4365E-03    -100.940E-03    -20.7113E-03     138.757E-03    -100.940E-03    -17.1728E-03     346.933E-03    -167.934E-03    -179.000E-03    -160.511E-03     332.359E-03    -171.849E-03     167.573E-03     165.699E+06     127.115E+06    -10.1627E+06    -10.0561E+06     127.009E+06     165.699E+06     2.09412E+06         77.0122
            1821     844.903E-06     131.215E-03     345.271E-03    -86.3003E-03    -242.089E-03    -241.238E-03     344.644E-03    -86.5247E-03    -34.3550E-03     336.192E-03    -167.465E-03    -168.727E-03    -168.686E-03     336.182E-03    -167.496E-03     3.72482E-03    -163.789E+06    -170.402E+06    -313.266E+06    -168.862E+06    -313.025E+06    -165.570E+06    -4.54561E+06         48.9787
            1822     1.69038E-03     131.217E-03     344.401E-03    -162.973E-03    -164.471E-03    -162.358E-03     343.119E-03    -163.804E-03    -41.6776E-03     336.815E-03    -168.227E-03    -168.589E-03    -168.525E-03     336.777E-03    -168.252E-03     8.37640E-03    -153.772E+06    -163.773E+06    -293.225E+06    -164.695E+06    -292.303E+06    -153.772E+06    -10.3827E+06         49.1837
            1823     2.53543E-03     131.223E-03     343.714E-03    -161.768E-03    -164.767E-03    -160.437E-03     341.340E-03    -163.723E-03    -62.1202E-03     337.897E-03    -168.582E-03    -169.315E-03    -169.217E-03     337.799E-03    -168.582E-03     13.7978E-03    -135.807E+06    -156.334E+06    -274.945E+06    -158.335E+06    -272.944E+06    -135.807E+06    -14.9778E+06         49.5047
            1824     3.37977E-03     131.235E-03     341.625E-03    -159.839E-03    -164.890E-03    -157.266E-03     337.960E-03    -163.797E-03    -76.8626E-03     339.792E-03    -169.063E-03    -170.729E-03    -170.527E-03     339.590E-03    -169.063E-03     20.0145E-03    -113.845E+06    -145.131E+06    -251.138E+06    -148.692E+06    -247.577E+06    -113.845E+06    -18.7832E+06         49.9284
            1825     4.22162E-03     131.254E-03     338.424E-03    -156.768E-03    -164.785E-03    -152.133E-03     333.018E-03    -164.014E-03    -94.2328E-03     342.093E-03    -169.681E-03    -172.411E-03    -172.040E-03     341.722E-03    -169.681E-03     27.3337E-03    -93.8014E+06    -133.727E+06    -223.590E+06    -139.727E+06    -217.590E+06    -93.8014E+06    -22.0002E+06         50.4351
            1826     5.06211E-03     131.281E-03     334.369E-03    -153.129E-03    -164.762E-03    -146.458E-03     327.446E-03    -164.510E-03    -106.937E-03     343.941E-03    -170.358E-03    -173.583E-03    -172.956E-03     343.314E-03    -170.358E-03     35.7236E-03    -72.6394E+06    -121.380E+06    -196.354E+06    -130.611E+06    -187.123E+06    -72.6394E+06    -24.3000E+06         51.0034
            1827     5.90281E-03     131.320E-03     329.393E-03    -148.192E-03    -165.516E-03    -139.983E-03     321.184E-03    -165.516E-03    -116.303E-03     345.481E-03    -170.989E-03    -174.492E-03    -173.483E-03     344.472E-03    -170.989E-03     45.4003E-03    -52.2093E+06    -107.235E+06    -172.350E+06    -121.541E+06    -158.044E+06    -52.2093E+06    -26.3555E+06         51.6155
            1828     6.74065E-03     131.373E-03     323.449E-03    -141.561E-03    -167.131E-03    -132.216E-03     314.105E-03    -167.131E-03    -123.069E-03     346.901E-03    -171.539E-03    -175.362E-03    -173.790E-03     345.329E-03    -171.539E-03     56.8149E-03    -33.1573E+06    -89.8603E+06    -148.598E+06    -111.898E+06    -126.560E+06    -33.1573E+06    -27.8837E+06         52.2681
            1829     7.58238E-03     131.441E-03     317.094E-03    -134.379E-03    -169.379E-03    -123.961E-03     306.676E-03    -169.379E-03    -128.239E-03     347.723E-03    -171.986E-03    -175.737E-03    -173.445E-03     345.431E-03    -171.986E-03     68.8469E-03    -14.0670E+06    -68.6323E+06    -127.481E+06    -100.631E+06    -95.4820E+06    -14.0670E+06    -28.9208E+06         52.9893
            1830     8.42163E-03     131.521E-03     310.512E-03    -126.631E-03    -172.252E-03    -115.822E-03     299.703E-03    -172.252E-03    -128.869E-03     348.245E-03    -172.290E-03    -175.955E-03    -172.855E-03     345.145E-03    -172.290E-03     80.1696E-03     758.057E+03    -45.9165E+06    -110.587E+06    -90.5613E+06    -65.9425E+06     758.057E+03    -29.4289E+06         53.8638
            1831     9.26121E-03     131.620E-03     303.412E-03    -118.052E-03    -175.698E-03    -107.663E-03     293.024E-03    -175.698E-03    -125.190E-03     348.330E-03    -172.453E-03    -175.877E-03    -171.848E-03     344.300E-03    -172.453E-03     91.3460E-03     14.1236E+06    -21.2830E+06    -93.5641E+06    -80.3779E+06    -34.4692E+06     14.1236E+06    -27.3115E+06         55.0586
            1832     10.1063E-03     131.730E-03     294.861E-03    -108.076E-03    -179.559E-03    -98.4531E-03     285.238E-03    -179.559E-03    -118.851E-03     348.273E-03    -172.474E-03    -175.799E-03    -170.739E-03     343.213E-03    -172.474E-03     102.314E-03     25.8403E+06     5.84178E+06    -75.9587E+06    -68.7558E+06    -1.36114E+06     25.8403E+06    -22.0387E+06         56.8319
            1833     10.9452E-03     131.857E-03     283.558E-03    -95.6493E-03    -183.451E-03    -87.1966E-03     275.105E-03    -183.451E-03    -108.803E-03     347.561E-03    -172.336E-03    -175.225E-03    -169.211E-03     341.547E-03    -172.336E-03     111.310E-03     48.0466E+06     28.0320E+06    -58.6665E+06    -55.6871E+06     39.9107E+06     33.1885E+06    -13.6075E+06         59.4847
            1834     11.7910E-03     131.987E-03     269.068E-03    -80.4606E-03    -187.503E-03    -73.6845E-03     262.292E-03    -187.503E-03    -94.3351E-03     347.134E-03    -172.090E-03    -175.044E-03    -166.692E-03     338.782E-03    -172.090E-03     129.987E-03     75.4088E+06      50.053E+06    -42.9325E+06    -42.2440E+06     74.7203E+06      50.053E+06    -4.23860E+06         63.2199
            1835     12.6415E-03     132.159E-03     250.377E-03    -61.9207E-03    -191.229E-03    -57.1396E-03     245.596E-03    -191.229E-03    -75.3877E-03     344.617E-03    -171.039E-03    -173.578E-03    -163.541E-03     335.281E-03    -171.741E-03     137.484E-03     87.1175E+06     70.5566E+06    -30.5048E+06    -30.4574E+06     81.0070E+06     76.6197E+06     803.996E+03         67.9162
            1836     13.4923E-03     132.296E-03     227.845E-03    -40.0220E-03    -195.153E-03    -37.4762E-03     225.299E-03    -195.153E-03    -50.6746E-03     347.539E-03    -170.473E-03    -177.066E-03    -160.459E-03     331.633E-03    -171.175E-03     174.482E-03     109.454E+06     89.0674E+06    -20.7947E+06    -20.7216E+06     88.9944E+06     109.454E+06     1.72619E+06         72.9527
            1837     14.3512E-03     132.556E-03     202.481E-03    -16.0201E-03    -198.651E-03    -15.2957E-03     201.757E-03    -198.651E-03    -20.9131E-03     339.908E-03    -163.662E-03    -176.246E-03    -153.474E-03     323.829E-03    -170.355E-03     173.843E-03     166.644E+06     127.832E+06    -11.3453E+06    -11.2513E+06     127.738E+06     166.644E+06     2.02943E+06         77.2700
            1838     847.648E-06     132.611E-03     644.111E-03    -258.449E-03    -383.161E-03    -382.760E-03     643.821E-03    -258.560E-03    -33.1039E-03     332.674E-03    -165.959E-03    -166.715E-03    -166.689E-03     332.654E-03    -165.965E-03     5.86996E-03    -151.056E+06    -156.616E+06    -296.560E+06    -154.058E+06    -296.187E+06    -153.986E+06    -6.42762E+06         48.6643
            1839     1.69331E-03     132.615E-03     641.475E-03    -318.674E-03    -320.823E-03    -318.322E-03     640.927E-03    -320.628E-03    -41.6987E-03     334.163E-03    -166.617E-03    -167.546E-03    -167.484E-03     334.101E-03    -166.617E-03     10.7722E-03    -143.153E+06    -150.791E+06    -276.561E+06    -151.699E+06    -275.653E+06    -143.153E+06    -10.3011E+06         48.8717
            1840     2.53850E-03     132.622E-03     635.510E-03    -313.681E-03    -319.881E-03    -312.566E-03     634.395E-03    -319.881E-03    -63.0082E-03     336.051E-03    -167.225E-03    -168.826E-03    -168.682E-03     335.907E-03    -167.225E-03     16.6174E-03    -125.264E+06    -144.366E+06    -259.432E+06    -146.331E+06    -257.467E+06    -125.264E+06    -14.5772E+06         49.1950
            1841     3.38227E-03     132.638E-03     626.419E-03    -306.484E-03    -318.622E-03    -304.605E-03     624.540E-03    -318.622E-03    -80.8442E-03     338.120E-03    -167.897E-03    -170.223E-03    -169.946E-03     337.843E-03    -167.897E-03     23.3259E-03    -106.335E+06    -135.963E+06    -236.993E+06    -139.510E+06    -233.446E+06    -106.335E+06    -18.3046E+06         49.6196
            1842     4.22535E-03     132.660E-03     614.611E-03    -296.779E-03    -317.043E-03    -293.888E-03     611.720E-03    -317.043E-03    -99.8798E-03     340.262E-03    -168.605E-03    -171.658E-03    -171.162E-03     339.766E-03    -168.605E-03     31.3877E-03    -85.7211E+06    -125.549E+06    -211.441E+06    -131.325E+06    -205.665E+06    -85.7211E+06    -21.1813E+06         50.1247
            1843     5.06684E-03     132.692E-03     599.945E-03    -284.869E-03    -315.235E-03    -280.867E-03     595.942E-03    -315.235E-03    -115.803E-03     342.421E-03    -169.319E-03    -173.102E-03    -172.276E-03     341.595E-03    -169.319E-03     40.7666E-03    -64.7108E+06    -113.389E+06    -185.579E+06    -122.266E+06    -176.702E+06    -64.7108E+06    -23.3553E+06         50.6876
            1844     5.90668E-03     132.732E-03     581.769E-03    -270.142E-03    -313.334E-03    -265.021E-03     576.648E-03    -313.334E-03    -129.292E-03     344.359E-03    -170.004E-03    -174.355E-03    -173.051E-03     343.056E-03    -170.004E-03     51.4600E-03    -43.8919E+06    -98.5540E+06    -161.587E+06    -112.380E+06    -147.761E+06    -43.8919E+06    -25.5351E+06         51.2891
            1845     6.74875E-03     132.787E-03     560.866E-03    -252.863E-03    -311.420E-03    -246.827E-03     554.830E-03    -311.420E-03    -137.310E-03     345.691E-03    -170.602E-03    -175.090E-03    -173.209E-03     343.811E-03    -170.602E-03     62.2227E-03    -24.2566E+06    -80.9059E+06    -139.013E+06    -102.273E+06    -117.646E+06    -24.2566E+06    -27.4746E+06         51.9253
            1846     7.58781E-03     132.853E-03     538.822E-03    -234.913E-03    -309.588E-03    -228.188E-03     532.097E-03    -309.588E-03    -141.494E-03     346.430E-03    -171.060E-03    -175.370E-03    -172.779E-03     343.840E-03    -171.060E-03     73.0520E-03    -7.62402E+06    -61.3100E+06    -120.040E+06    -93.5495E+06    -87.8008E+06    -7.62402E+06    -28.6704E+06         52.6250
            1847     8.42889E-03     132.938E-03     515.518E-03    -215.881E-03    -307.939E-03    -208.849E-03     508.486E-03    -307.939E-03    -140.877E-03     346.599E-03    -171.357E-03    -175.242E-03    -171.737E-03     343.094E-03    -171.357E-03     84.9694E-03     8.11754E+06    -39.7325E+06    -104.377E+06    -84.2435E+06    -59.8665E+06     8.11754E+06    -29.7488E+06         53.4764
            1848     9.27133E-03     133.031E-03     490.064E-03    -194.934E-03    -306.401E-03    -187.879E-03     483.009E-03    -306.401E-03    -136.647E-03     346.246E-03    -171.457E-03    -174.789E-03    -170.187E-03     341.645E-03    -171.457E-03     97.1528E-03     19.8303E+06    -18.0506E+06    -90.4573E+06    -74.6702E+06    -33.8377E+06     19.8303E+06    -29.5586E+06         54.6572
            1849     10.1119E-03     133.141E-03     462.009E-03    -171.982E-03    -304.809E-03    -165.142E-03     455.169E-03    -304.809E-03    -129.587E-03     345.181E-03    -171.342E-03    -173.839E-03    -167.858E-03     339.200E-03    -171.342E-03     110.310E-03     28.7179E+06     4.24585E+06    -76.1176E+06    -65.1263E+06    -6.74538E+06     28.7179E+06    -27.1734E+06         56.4489
            1850     10.9609E-03     133.265E-03     430.320E-03    -146.223E-03    -302.849E-03    -139.947E-03     424.045E-03    -302.849E-03    -118.600E-03     343.766E-03    -170.993E-03    -172.773E-03    -165.359E-03     336.351E-03    -170.993E-03     122.474E-03     44.0067E+06     24.3708E+06    -61.1131E+06    -54.8597E+06     28.5911E+06     33.5330E+06    -22.4960E+06         59.1931
            1851     11.8090E-03     133.390E-03     394.155E-03    -116.988E-03    -300.580E-03    -111.606E-03     388.773E-03    -300.580E-03    -103.683E-03     343.058E-03    -170.473E-03    -172.585E-03    -162.550E-03     333.023E-03    -170.473E-03     141.524E-03     62.9845E+06     41.9235E+06    -46.0067E+06    -43.3198E+06     60.2976E+06     41.9235E+06    -14.8572E+06         63.1417
            1852     12.6625E-03     133.553E-03     353.323E-03    -84.4183E-03    -297.592E-03    -80.3065E-03     349.211E-03    -297.592E-03    -84.0110E-03     339.385E-03    -168.283E-03    -171.102E-03    -158.341E-03     328.164E-03    -169.823E-03     149.121E-03     74.0710E+06     59.3818E+06    -31.7447E+06    -30.8562E+06     71.8484E+06     60.7159E+06    -6.42521E+06         68.1985
            1853     13.5203E-03     133.690E-03     307.779E-03    -48.3548E-03    -294.426E-03    -45.9725E-03     305.397E-03    -294.426E-03    -57.3469E-03     342.340E-03    -167.460E-03    -174.880E-03    -155.325E-03     324.325E-03    -169.001E-03     184.931E-03     97.1987E+06     82.8194E+06    -19.1805E+06    -19.0511E+06     85.4578E+06     94.4308E+06    -318.152E+03         73.7180
            1854     14.3875E-03     133.931E-03     257.584E-03    -8.97360E-03    -290.466E-03    -8.22723E-03     256.838E-03    -290.466E-03    -24.6473E-03     336.180E-03    -162.197E-03    -173.983E-03    -150.788E-03     318.892E-03    -168.104E-03     178.499E-03     162.823E+06     127.082E+06    -8.79638E+06    -8.62091E+06     126.906E+06     162.823E+06     2.95532E+06         78.5071
            1855     848.657E-06     134.001E-03     927.972E-03    -420.837E-03    -517.426E-03    -516.176E-03     927.791E-03    -421.905E-03    -31.3618E-03     328.411E-03    -163.734E-03    -164.676E-03    -164.444E-03     328.380E-03    -163.936E-03     6.74926E-03    -137.470E+06    -144.628E+06    -277.875E+06    -142.178E+06    -277.396E+06    -140.400E+06    -7.68701E+06         48.1986
            1856     1.69741E-03     134.008E-03     921.660E-03    -463.954E-03    -468.599E-03    -463.596E-03     921.303E-03    -468.599E-03    -41.1315E-03     330.397E-03    -164.562E-03    -165.835E-03    -165.735E-03     330.297E-03    -164.562E-03     13.5888E-03    -128.738E+06    -136.406E+06    -261.637E+06    -137.369E+06    -260.673E+06    -128.738E+06    -10.6576E+06         48.4032
            1857     2.54339E-03     134.020E-03     911.333E-03    -455.959E-03    -466.720E-03    -455.198E-03     910.572E-03    -466.720E-03    -63.2999E-03     332.884E-03    -165.325E-03    -167.559E-03    -167.333E-03     332.658E-03    -165.325E-03     20.7872E-03    -111.008E+06    -128.957E+06    -244.495E+06    -130.764E+06    -242.688E+06    -111.008E+06    -14.0967E+06         48.7214
            1858     3.38821E-03     134.038E-03     896.475E-03    -444.781E-03    -464.099E-03    -443.421E-03     895.115E-03    -464.099E-03    -83.4790E-03     334.979E-03    -166.112E-03    -168.868E-03    -168.433E-03     334.544E-03    -166.112E-03     29.0836E-03    -91.5751E+06    -120.466E+06    -222.585E+06    -123.859E+06    -219.192E+06    -91.5751E+06    -17.9350E+06         49.1382
            1859     4.23216E-03     134.063E-03     876.779E-03    -429.515E-03    -460.772E-03    -427.344E-03     874.609E-03    -460.772E-03    -105.162E-03     337.051E-03    -166.848E-03    -170.203E-03    -169.467E-03     336.316E-03    -166.848E-03     38.1338E-03    -70.3064E+06    -109.092E+06    -199.197E+06    -114.561E+06    -193.727E+06    -70.3064E+06    -21.2781E+06         49.6323
            1860     5.07605E-03     134.097E-03     851.480E-03    -409.921E-03    -456.687E-03    -406.811E-03     848.370E-03    -456.687E-03    -123.891E-03     339.316E-03    -167.554E-03    -171.762E-03    -170.624E-03     338.178E-03    -167.554E-03     47.8105E-03    -50.2393E+06    -96.8111E+06    -175.168E+06    -104.566E+06    -167.413E+06    -50.2393E+06    -23.1047E+06         50.1809
            1861     5.91894E-03     134.142E-03     821.145E-03    -386.590E-03    -451.892E-03    -382.489E-03     817.045E-03    -451.892E-03    -139.408E-03     341.447E-03    -168.232E-03    -173.216E-03    -171.509E-03     339.741E-03    -168.232E-03     58.7607E-03    -30.6016E+06    -83.9586E+06    -149.285E+06    -94.9860E+06    -138.258E+06    -30.6016E+06    -24.0725E+06         50.7656
            1862     6.75811E-03     134.198E-03     786.992E-03    -360.364E-03    -446.519E-03    -355.516E-03     782.144E-03    -446.519E-03    -147.815E-03     342.944E-03    -168.825E-03    -174.119E-03    -171.651E-03     340.476E-03    -168.825E-03     70.7154E-03    -12.2578E+06    -69.3682E+06    -125.776E+06    -86.3756E+06    -108.768E+06    -12.2578E+06    -25.2687E+06         51.3842
            1863     7.59965E-03     134.266E-03     750.003E-03    -332.331E-03    -440.710E-03    -326.911E-03     744.583E-03    -440.710E-03    -151.749E-03     343.497E-03    -169.254E-03    -174.243E-03    -170.807E-03     340.061E-03    -169.254E-03     83.3958E-03     4.09833E+06    -52.0806E+06    -106.322E+06    -78.4864E+06    -79.9162E+06     4.09833E+06    -26.5427E+06         52.0701
            1864     8.44197E-03     134.346E-03     709.605E-03    -301.750E-03    -434.522E-03    -295.991E-03     703.846E-03    -434.522E-03    -151.296E-03     342.968E-03    -169.455E-03    -173.513E-03    -168.918E-03     338.373E-03    -169.455E-03     96.3083E-03     18.7738E+06    -32.6611E+06    -90.7503E+06    -70.5060E+06    -52.9054E+06     18.7738E+06    -27.2863E+06         52.9211
            1865     9.28667E-03     134.440E-03     665.431E-03    -268.243E-03    -427.882E-03    -262.433E-03     659.621E-03    -427.882E-03    -146.064E-03     341.624E-03    -169.380E-03    -172.243E-03    -166.191E-03     335.571E-03    -169.380E-03     110.115E-03     29.3471E+06    -15.0748E+06    -79.0239E+06    -63.3654E+06    -30.7333E+06     29.3471E+06    -27.3481E+06         54.1358
            1866     10.1364E-03     134.546E-03     617.191E-03    -231.904E-03    -420.663E-03    -226.165E-03     611.452E-03    -420.663E-03    -138.522E-03     339.779E-03    -169.022E-03    -170.757E-03    -162.997E-03     332.019E-03    -169.022E-03     124.357E-03      37.156E+06     7.59327E+06    -68.6939E+06    -56.5884E+06    -4.51217E+06      37.156E+06    -27.4722E+06         56.0376
            1867     10.9878E-03     134.659E-03     564.070E-03    -191.984E-03    -412.666E-03    -186.569E-03     558.654E-03    -412.666E-03    -127.092E-03     337.935E-03    -168.426E-03    -169.508E-03    -159.991E-03     328.417E-03    -168.426E-03     137.197E-03     46.0468E+06     29.8309E+06    -56.8551E+06    -48.7666E+06     24.6712E+06     43.1181E+06    -25.1768E+06         59.0380
            1868     11.8430E-03     134.791E-03     506.548E-03    -149.135E-03    -403.978E-03    -144.361E-03     501.775E-03    -403.978E-03    -111.155E-03     337.362E-03    -167.640E-03    -169.722E-03    -157.300E-03     324.940E-03    -167.640E-03     155.914E-03     58.3586E+06     40.3691E+06    -45.7806E+06    -41.2900E+06     49.8215E+06     44.4155E+06    -20.1414E+06         63.4787
            1869     12.7009E-03     134.936E-03     443.943E-03    -103.134E-03    -394.277E-03    -99.3750E-03     440.185E-03    -394.277E-03    -90.0878E-03     335.063E-03    -165.853E-03    -169.210E-03    -154.719E-03     321.499E-03    -166.780E-03     162.760E-03     64.4220E+06     50.5202E+06    -35.8895E+06    -33.4462E+06     61.8591E+06     50.6399E+06    -14.4818E+06         69.3056
            1870     13.5653E-03     135.071E-03     375.809E-03    -53.1967E-03    -384.225E-03    -50.8992E-03     373.512E-03    -384.225E-03    -62.1197E-03     340.719E-03    -165.027E-03    -175.692E-03    -155.257E-03     321.211E-03    -165.954E-03     193.908E-03     77.7926E+06     70.0899E+06    -25.6336E+06    -24.6956E+06     73.2081E+06     73.7364E+06    -6.39487E+06         75.8251
            1871     14.4300E-03     135.308E-03     303.139E-03    -345.922E-06    -373.386E-03     443.865E-06     302.349E-03    -373.386E-03    -28.2176E-03     340.572E-03    -163.445E-03    -177.127E-03    -157.973E-03     323.439E-03    -165.466E-03     177.747E-03     150.868E+06     121.730E+06    -14.5715E+06    -14.4228E+06     122.869E+06     149.580E+06     518.837E+03         81.5537
            1872     851.131E-06     135.384E-03         1.18374    -566.366E-03    -637.687E-03    -636.314E-03         1.18363    -567.634E-03    -26.6740E-03     323.502E-03    -161.088E-03    -162.414E-03    -162.159E-03     323.449E-03    -161.290E-03     9.22437E-03    -114.765E+06    -123.711E+06    -256.954E+06    -121.078E+06    -256.493E+06    -117.858E+06    -7.13862E+06         47.5043
            1873     1.70095E-03     135.395E-03         1.17580    -595.517E-03    -601.380E-03    -595.268E-03         1.17555    -601.380E-03    -38.6130E-03     324.820E-03    -161.978E-03    -162.842E-03    -162.675E-03     324.654E-03    -161.978E-03     17.2682E-03    -107.437E+06    -116.375E+06    -247.091E+06    -117.389E+06    -246.077E+06    -107.437E+06    -11.3685E+06         47.7005
            1874     2.54991E-03     135.412E-03         1.16176    -584.865E-03    -598.841E-03    -584.269E-03         1.16116    -598.841E-03    -63.3879E-03     326.700E-03    -162.483E-03    -164.217E-03    -163.840E-03     326.322E-03    -162.483E-03     26.5165E-03    -93.4287E+06    -109.892E+06    -230.189E+06    -111.803E+06    -228.278E+06    -93.4287E+06    -14.6688E+06         48.0064
            1875     3.39805E-03     135.431E-03         1.14088    -569.299E-03    -595.003E-03    -568.177E-03         1.13975    -595.003E-03    -86.1263E-03     329.176E-03    -163.116E-03    -166.060E-03    -165.359E-03     328.475E-03    -163.116E-03     36.5506E-03    -76.0070E+06    -101.138E+06    -208.056E+06    -104.525E+06    -204.669E+06    -76.0070E+06    -18.4587E+06         48.4079
            1876     4.24497E-03     135.461E-03         1.11226    -547.638E-03    -589.817E-03    -545.758E-03         1.11038    -589.817E-03    -110.522E-03     331.828E-03    -163.844E-03    -167.984E-03    -166.843E-03     330.687E-03    -163.844E-03     47.0923E-03    -57.5830E+06    -92.1667E+06    -187.829E+06    -97.0052E+06    -182.990E+06    -57.5830E+06    -20.7933E+06         48.8848
            1877     5.08942E-03     135.497E-03         1.07683    -521.050E-03    -583.261E-03    -518.319E-03         1.07410    -583.261E-03    -130.963E-03     334.177E-03    -164.570E-03    -169.607E-03    -167.879E-03     332.448E-03    -164.570E-03     58.1184E-03    -39.4545E+06    -82.8041E+06    -165.175E+06    -89.4541E+06    -158.525E+06    -39.4545E+06    -22.1729E+06         49.4163
            1878     5.93305E-03     135.545E-03         1.03649    -491.359E-03    -575.549E-03    -487.769E-03         1.03290    -575.549E-03    -147.109E-03     335.639E-03    -165.187E-03    -170.452E-03    -167.938E-03     333.125E-03    -165.187E-03     70.3145E-03    -21.7817E+06    -72.4153E+06    -139.895E+06    -81.8916E+06    -130.419E+06    -21.7817E+06    -23.0792E+06         49.9883
            1879     6.77967E-03     135.602E-03     990.736E-03    -457.667E-03    -566.866E-03    -453.399E-03     986.468E-03    -566.866E-03    -156.426E-03     336.273E-03    -165.618E-03    -170.655E-03    -167.069E-03     332.687E-03    -165.618E-03     84.1650E-03    -3.18394E+06    -60.0921E+06    -115.150E+06    -73.8650E+06    -101.377E+06    -3.18394E+06    -23.3774E+06         50.6047
            1880     7.62543E-03     135.670E-03     938.878E-03    -419.514E-03    -557.224E-03    -414.788E-03     934.153E-03    -557.224E-03    -159.411E-03     336.527E-03    -165.832E-03    -170.695E-03    -165.726E-03     331.558E-03    -165.832E-03     99.1401E-03     15.0985E+06    -44.9684E+06    -93.7188E+06    -65.6726E+06    -73.0146E+06     15.0985E+06    -23.5367E+06         51.3076
            1881     8.47262E-03     135.749E-03     881.865E-03    -377.783E-03    -546.580E-03    -372.782E-03     876.864E-03    -546.580E-03    -157.898E-03     336.088E-03    -165.817E-03    -170.271E-03    -163.676E-03     329.493E-03    -165.817E-03     114.033E-03     30.1555E+06    -29.2286E+06    -76.9926E+06    -58.4448E+06    -47.7763E+06     30.1555E+06    -22.9143E+06         52.2104
            1882     9.32270E-03     135.837E-03     819.602E-03    -332.395E-03    -534.907E-03    -327.317E-03     814.524E-03    -534.907E-03    -152.183E-03     334.599E-03    -165.548E-03    -169.051E-03    -160.661E-03     326.209E-03    -165.548E-03     128.237E-03     42.8659E+06    -11.6117E+06    -65.1091E+06    -52.0732E+06    -24.6476E+06     42.8659E+06    -22.6461E+06         53.5419
            1883     10.1768E-03     135.936E-03     751.984E-03    -283.306E-03    -522.204E-03    -278.232E-03     746.910E-03    -522.204E-03    -144.176E-03     333.427E-03    -165.029E-03    -168.398E-03    -157.973E-03     323.002E-03    -165.029E-03     142.446E-03     52.0229E+06     11.8710E+06    -55.7005E+06    -46.0341E+06     2.20461E+06     52.0229E+06    -23.2093E+06         55.6815
            1884     11.0325E-03     136.051E-03     679.059E-03    -230.666E-03    -508.381E-03    -225.800E-03     674.193E-03    -508.381E-03    -132.398E-03     332.192E-03    -164.344E-03    -167.848E-03    -155.613E-03     319.957E-03    -164.344E-03     154.057E-03     57.1815E+06     32.1077E+06    -47.8061E+06    -40.3642E+06     24.6657E+06     57.1815E+06    -23.1541E+06         59.1333
            1885     11.8936E-03     136.167E-03     600.751E-03    -174.568E-03    -493.586E-03    -170.226E-03     596.409E-03    -493.586E-03    -115.519E-03     332.739E-03    -163.538E-03    -169.202E-03    -154.286E-03     317.824E-03    -163.538E-03     169.970E-03     62.1503E+06     43.7707E+06    -39.0818E+06    -33.7643E+06     45.3599E+06     55.2436E+06    -20.6117E+06         64.3568
            1886     12.7586E-03     136.321E-03     517.411E-03    -115.591E-03    -477.731E-03    -112.097E-03     513.917E-03    -477.731E-03    -93.7114E-03     334.896E-03    -162.869E-03    -172.026E-03    -156.860E-03     319.730E-03    -162.869E-03     172.371E-03     63.1235E+06     48.8175E+06    -30.8144E+06    -27.9921E+06     52.9019E+06     56.2167E+06    -14.7028E+06         71.3516
            1887     13.6137E-03     136.449E-03     430.012E-03    -54.2884E-03    -461.583E-03    -52.0745E-03     427.798E-03    -461.583E-03    -65.0331E-03     347.403E-03    -162.604E-03    -184.798E-03    -165.280E-03     327.884E-03    -162.604E-03     198.020E-03     70.8897E+06     62.7252E+06    -24.2287E+06    -22.9606E+06     62.7454E+06     69.6013E+06    -8.71916E+06         79.2985
            1888     14.4681E-03     136.699E-03     339.586E-03     8.53316E-03    -444.958E-03     9.36796E-03     338.752E-03    -444.958E-03    -31.4804E-03     355.608E-03    -163.105E-03    -192.503E-03    -176.346E-03     339.451E-03    -163.105E-03     176.201E-03     141.062E+06     116.942E+06    -13.8519E+06    -13.5293E+06     117.908E+06     139.773E+06    -3.83101E+06         86.3504
            1889     853.621E-06     136.764E-03         1.40488    -690.758E-03    -740.546E-03    -739.126E-03         1.40481    -692.105E-03    -24.9117E-03     314.843E-03    -156.886E-03    -157.957E-03    -157.852E-03     314.737E-03    -156.886E-03     12.7635E-03    -100.129E+06    -107.653E+06    -238.536E+06    -104.802E+06    -238.294E+06    -103.222E+06    -4.88633E+06         46.5007
            1890     1.70694E-03     136.773E-03         1.39486    -707.802E-03    -714.726E-03    -707.604E-03         1.39466    -714.726E-03    -38.0586E-03     315.771E-03    -157.526E-03    -158.245E-03    -157.918E-03     315.444E-03    -157.526E-03     23.7101E-03    -93.7691E+06    -101.616E+06    -230.476E+06    -102.533E+06    -229.559E+06    -93.7691E+06    -10.2397E+06         46.6859
            1891     2.56167E-03     136.791E-03         1.37618    -693.824E-03    -711.313E-03    -693.337E-03         1.37570    -711.313E-03    -62.3207E-03     317.552E-03    -157.875E-03    -159.676E-03    -159.013E-03     316.888E-03    -157.875E-03     34.8195E-03    -83.5286E+06    -96.1812E+06    -215.365E+06    -98.2358E+06    -213.311E+06    -83.5286E+06    -15.1815E+06         46.9761
            1892     3.41392E-03     136.815E-03         1.34830    -673.302E-03    -705.955E-03    -672.343E-03         1.34734    -705.955E-03    -86.3912E-03     320.051E-03    -158.407E-03    -161.644E-03    -160.498E-03     318.905E-03    -158.407E-03     46.1645E-03    -69.3186E+06    -89.3903E+06    -195.438E+06    -92.5686E+06    -192.259E+06    -69.3186E+06    -17.9892E+06         47.3604
            1893     4.26394E-03     136.848E-03         1.31245    -646.960E-03    -698.748E-03    -645.298E-03         1.31079    -698.748E-03    -112.876E-03     322.506E-03    -159.038E-03    -163.467E-03    -161.608E-03     320.647E-03    -159.038E-03     59.0840E-03    -51.1166E+06    -82.1256E+06    -177.540E+06    -86.5205E+06    -173.145E+06    -51.1166E+06    -19.8342E+06         47.8234
            1894     5.11392E-03     136.889E-03         1.26941    -615.809E-03    -689.875E-03    -613.360E-03         1.26696    -689.875E-03    -135.031E-03     324.431E-03    -159.612E-03    -164.819E-03    -161.990E-03     321.602E-03    -159.612E-03     73.2186E-03    -31.4322E+06    -72.8251E+06    -155.431E+06    -78.8182E+06    -149.438E+06    -31.4322E+06    -21.2797E+06         48.3509
            1895     5.96403E-03     136.937E-03         1.21893    -579.439E-03    -679.462E-03    -576.223E-03         1.21571    -679.462E-03    -151.341E-03     325.734E-03    -160.043E-03    -165.691E-03    -161.651E-03     321.694E-03    -160.043E-03     87.7463E-03    -11.5082E+06    -61.9904E+06    -131.366E+06    -70.2392E+06    -123.117E+06    -11.5082E+06    -22.1102E+06         48.9364
            1896     6.81363E-03     136.992E-03         1.16088    -537.584E-03    -667.523E-03    -533.742E-03         1.15704    -667.523E-03    -160.903E-03     326.038E-03    -160.270E-03    -165.768E-03    -160.290E-03     320.560E-03    -160.270E-03     102.205E-03     7.75718E+06    -51.0494E+06    -106.601E+06    -62.0326E+06    -95.6180E+06     7.75718E+06    -21.7579E+06         49.5926
            1897     7.66694E-03     137.060E-03         1.09563    -490.748E-03    -654.106E-03    -486.509E-03         1.09139    -654.106E-03    -163.400E-03     325.816E-03    -160.257E-03    -165.559E-03    -158.257E-03     318.514E-03    -160.257E-03     117.867E-03     26.8276E+06    -39.4777E+06    -83.6974E+06    -54.5209E+06    -68.6542E+06     26.8276E+06    -20.2408E+06         50.3735
            1898     8.52224E-03     137.136E-03         1.02359    -439.296E-03    -639.245E-03    -434.843E-03         1.01913    -639.245E-03    -160.826E-03     325.842E-03    -160.039E-03    -165.804E-03    -156.532E-03     316.570E-03    -160.039E-03     132.995E-03     44.0942E+06    -25.4161E+06    -65.4218E+06    -47.1829E+06    -43.6550E+06     44.0942E+06    -19.3376E+06         51.4104
            1899     9.37934E-03     137.221E-03     944.981E-03    -383.313E-03    -622.926E-03    -378.782E-03     940.450E-03    -622.926E-03    -154.583E-03     326.210E-03    -159.684E-03    -166.526E-03    -155.237E-03     314.921E-03    -159.684E-03     146.819E-03     58.0171E+06    -7.77335E+06    -51.1370E+06    -39.5119E+06    -19.3984E+06     58.0171E+06    -18.6229E+06         52.9642
            1900     10.2370E-03     137.317E-03     860.493E-03    -323.568E-03    -605.258E-03    -319.027E-03     855.952E-03    -605.258E-03    -146.093E-03     327.146E-03    -159.245E-03    -167.901E-03    -154.424E-03     313.670E-03    -159.245E-03     160.688E-03     68.7864E+06     14.6595E+06    -39.7435E+06    -33.0948E+06     8.01071E+06     68.7864E+06    -17.1445E+06         55.4717
            1901     11.0990E-03     137.428E-03     770.310E-03    -260.168E-03    -586.284E-03    -255.744E-03     765.887E-03    -586.284E-03    -134.566E-03     328.825E-03    -158.825E-03    -170.000E-03    -155.302E-03     314.127E-03    -158.825E-03     168.614E-03     74.9642E+06     34.2445E+06    -33.0552E+06    -28.3554E+06     29.5447E+06     74.9642E+06    -16.9486E+06         59.5224
            1902     11.9583E-03     137.544E-03     674.287E-03    -193.001E-03    -566.243E-03    -188.918E-03     670.204E-03    -566.243E-03    -118.656E-03     334.449E-03    -158.563E-03    -175.886E-03    -159.553E-03     318.115E-03    -158.563E-03     179.499E-03     71.5531E+06     46.9933E+06    -29.3853E+06    -25.6453E+06     43.2533E+06     71.5531E+06    -15.7161E+06         65.6585
            1903     12.8135E-03     137.700E-03     573.745E-03    -123.490E-03    -545.286E-03    -120.095E-03     570.351E-03    -545.286E-03    -97.0261E-03     342.512E-03    -158.734E-03    -183.779E-03    -168.276E-03     327.010E-03    -158.734E-03     177.305E-03     68.0894E+06     48.5766E+06    -24.1937E+06    -21.6843E+06     46.0672E+06     68.0894E+06    -12.1810E+06         73.8760
            1904     13.6619E-03     137.847E-03     470.734E-03    -53.2470E-03    -524.136E-03    -50.9950E-03     468.482E-03    -524.136E-03    -68.3654E-03     361.749E-03    -159.591E-03    -202.158E-03    -183.834E-03     343.425E-03    -159.591E-03     198.382E-03     74.9610E+06     59.0711E+06    -16.6934E+06    -15.2753E+06     57.6529E+06     74.9610E+06    -8.22987E+06         83.1412
            1905     14.4929E-03     138.116E-03     366.403E-03     17.2096E-03    -502.666E-03     18.1464E-03     365.466E-03    -502.666E-03    -34.9754E-03     376.187E-03    -161.440E-03    -214.747E-03    -199.868E-03     361.308E-03    -161.440E-03     176.046E-03     137.997E+06     112.506E+06    -9.04897E+06    -8.68760E+06     112.145E+06     137.997E+06    -4.41347E+06         91.1607
            1906     860.578E-06     138.122E-03         1.58408    -789.329E-03    -822.813E-03    -819.993E-03         1.58402    -792.095E-03    -22.2380E-03     300.597E-03    -150.059E-03    -150.538E-03    -150.363E-03     300.422E-03    -150.059E-03     16.2553E-03    -94.7849E+06    -98.8781E+06    -224.033E+06    -97.8072E+06    -223.761E+06    -96.1273E+06    -4.73666E+06         45.1300
            1907     1.72185E-03     138.135E-03         1.56871    -794.068E-03    -804.232E-03    -793.922E-03         1.56856    -804.232E-03    -34.1758E-03     302.123E-03    -150.416E-03    -151.707E-03    -151.190E-03     301.606E-03    -150.416E-03     29.7562E-03    -89.5523E+06    -93.7188E+06    -212.423E+06    -94.5800E+06    -211.376E+06    -89.7378E+06    -10.4361E+06         45.3052
            1908     2.57884E-03     138.155E-03         1.54514    -777.416E-03    -799.110E-03    -777.016E-03         1.54474    -799.110E-03    -59.5158E-03     304.166E-03    -150.873E-03    -153.292E-03    -152.187E-03     303.060E-03    -150.873E-03     43.9129E-03    -77.0588E+06    -87.8666E+06    -200.512E+06    -90.0590E+06    -198.320E+06    -77.0588E+06    -15.3182E+06         45.5838
            1909     3.43630E-03     138.184E-03         1.51260    -754.375E-03    -792.114E-03    -753.538E-03         1.51176    -792.114E-03    -85.6664E-03     306.079E-03    -151.339E-03    -154.740E-03    -152.785E-03     304.124E-03    -151.339E-03     58.7385E-03    -60.5544E+06    -80.6908E+06    -184.110E+06    -84.1067E+06    -180.694E+06    -60.5544E+06    -18.3619E+06         45.9620
            1910     4.29442E-03     138.218E-03         1.47124    -724.997E-03    -783.181E-03    -723.508E-03         1.46975    -783.181E-03    -113.154E-03     307.802E-03    -151.731E-03    -156.071E-03    -152.990E-03     304.721E-03    -151.731E-03     74.1966E-03    -41.5863E+06    -71.8634E+06    -167.438E+06    -76.5916E+06    -162.710E+06    -41.5863E+06    -20.6027E+06         46.4338
            1911     5.15237E-03     138.260E-03         1.42046    -688.889E-03    -772.266E-03    -686.681E-03         1.41826    -772.266E-03    -135.612E-03     309.271E-03    -152.010E-03    -157.261E-03    -152.740E-03     304.749E-03    -152.010E-03     90.2902E-03    -21.4434E+06    -62.3893E+06    -147.240E+06    -68.3305E+06    -141.299E+06    -21.4434E+06    -21.5565E+06         46.9948
            1912     6.01086E-03     138.308E-03         1.36001    -645.864E-03    -759.315E-03    -642.965E-03         1.35711    -759.315E-03    -151.795E-03     310.780E-03    -152.172E-03    -158.608E-03    -152.289E-03     304.461E-03    -152.172E-03     107.028E-03    -597.067E+03    -52.7379E+06    -123.928E+06    -59.7892E+06    -116.876E+06    -597.067E+03    -21.1212E+06         47.6482
            1913     6.86969E-03     138.366E-03         1.29092    -596.999E-03    -744.344E-03    -593.555E-03         1.28748    -744.344E-03    -160.775E-03     312.185E-03    -152.230E-03    -159.955E-03    -151.609E-03     303.839E-03    -152.230E-03     123.377E-03     18.7465E+06    -44.8468E+06    -100.931E+06    -52.4691E+06    -93.3083E+06     18.7465E+06    -18.8533E+06         48.4166
            1914     7.72930E-03     138.427E-03         1.21399    -542.933E-03    -727.510E-03    -539.130E-03         1.21019    -727.510E-03    -162.985E-03     313.612E-03    -152.185E-03    -161.427E-03    -150.810E-03     302.995E-03    -152.185E-03     139.506E-03     37.4303E+06    -37.6932E+06    -75.8348E+06    -46.5516E+06    -66.9763E+06     37.4303E+06    -15.1206E+06         49.3634
            1915     8.59155E-03     138.505E-03         1.12915    -483.454E-03    -708.939E-03    -479.445E-03         1.12514    -708.939E-03    -160.388E-03     315.506E-03    -152.074E-03    -163.431E-03    -150.727E-03     302.801E-03    -152.074E-03     153.319E-03     54.5816E+06    -25.6626E+06    -55.3152E+06    -42.3681E+06    -38.6098E+06     54.5816E+06    -12.8978E+06         50.6334
            1916     9.45316E-03     138.588E-03         1.03723    -419.348E-03    -688.695E-03    -415.238E-03         1.03312    -688.695E-03    -154.317E-03     318.775E-03    -152.008E-03    -166.767E-03    -152.354E-03     304.362E-03    -152.008E-03     164.457E-03     66.9407E+06    -9.96291E+06    -46.0118E+06    -39.2978E+06    -16.6769E+06     66.9407E+06    -12.0167E+06         52.5109
            1917     10.3159E-03     138.686E-03     939.072E-03    -351.245E-03    -666.943E-03    -347.066E-03     934.893E-03    -666.943E-03    -146.462E-03     323.813E-03    -152.107E-03    -171.706E-03    -155.995E-03     308.102E-03    -152.107E-03     173.571E-03     77.0963E+06     14.9782E+06    -39.6317E+06    -36.3546E+06     11.7012E+06     77.0963E+06    -10.5515E+06         55.4694
            1918     11.1730E-03     138.799E-03     834.758E-03    -279.198E-03    -643.815E-03    -275.047E-03     830.607E-03    -643.815E-03    -135.615E-03     330.832E-03    -152.511E-03    -178.320E-03    -162.453E-03     314.965E-03    -152.511E-03     176.910E-03     82.5221E+06     38.8366E+06    -34.6594E+06    -32.4184E+06     36.5955E+06     82.5221E+06    -11.7802E+06         60.1378
            1919     12.0245E-03     138.927E-03     725.745E-03    -204.563E-03    -619.632E-03    -200.627E-03     721.809E-03    -619.632E-03    -120.682E-03     343.349E-03    -153.383E-03    -189.966E-03    -173.457E-03     326.840E-03    -153.383E-03     184.670E-03     77.4222E+06     45.0130E+06    -27.3474E+06    -24.9087E+06     42.5744E+06     77.4222E+06    -12.5496E+06         67.0527
            1920     12.8666E-03     139.097E-03     613.329E-03    -128.601E-03    -594.648E-03    -125.275E-03     610.003E-03    -594.648E-03    -99.1183E-03     358.267E-03    -154.935E-03    -203.332E-03    -188.355E-03     343.289E-03    -154.935E-03     180.037E-03     69.5111E+06     44.4109E+06    -20.6424E+06    -18.4850E+06     42.2534E+06     69.5111E+06    -9.47995E+06         76.1008
            1921     13.6910E-03     139.267E-03     498.661E-03    -52.0756E-03    -569.308E-03    -49.8124E-03     496.398E-03    -569.308E-03    -70.3571E-03     381.050E-03    -157.271E-03    -223.779E-03    -206.663E-03     363.934E-03    -157.271E-03     199.220E-03     71.5887E+06     56.1204E+06    -16.9040E+06    -15.4685E+06     54.6849E+06     71.5887E+06    -7.21191E+06         85.9658
            1922     14.5043E-03     139.566E-03     382.973E-03     24.1500E-03    -543.375E-03     25.1354E-03     381.987E-03    -543.375E-03    -36.5659E-03     394.199E-03    -160.436E-03    -233.763E-03    -219.653E-03     380.089E-03    -160.436E-03     178.649E-03     133.736E+06     106.492E+06    -9.03939E+06    -8.52805E+06     105.981E+06     133.736E+06    -4.06897E+06         94.1427
            1923     868.851E-06     139.461E-03         1.70979    -856.492E-03    -878.071E-03    -875.364E-03         1.70976    -859.162E-03    -18.9479E-03     282.472E-03    -140.695E-03    -141.776E-03    -141.530E-03     282.226E-03    -140.695E-03     18.4514E-03    -87.1869E+06    -89.5582E+06    -207.912E+06    -87.7204E+06    -207.378E+06    -89.5582E+06    -7.35203E+06         43.3808
            1924     1.73502E-03     139.476E-03         1.69250    -853.942E-03    -864.986E-03    -853.823E-03         1.69238    -864.986E-03    -32.5819E-03     283.417E-03    -141.174E-03    -142.243E-03    -141.472E-03     282.646E-03    -141.174E-03     34.9175E-03    -81.9234E+06     -85.662E+06    -195.599E+06    -86.6501E+06    -194.097E+06    -82.4364E+06    -12.2233E+06         43.5544
            1925     2.60383E-03     139.498E-03         1.66541    -835.197E-03    -858.936E-03    -834.857E-03         1.66507    -858.936E-03    -56.7871E-03     284.320E-03    -141.288E-03    -143.032E-03    -141.323E-03     282.611E-03    -141.288E-03     52.6997E-03    -68.8985E+06    -79.9681E+06    -186.325E+06    -82.6511E+06    -183.642E+06    -68.8985E+06    -16.4925E+06         43.8397
            1926     3.47199E-03     139.527E-03         1.62890    -810.042E-03    -850.724E-03    -809.305E-03         1.62816    -850.724E-03    -83.2154E-03     285.669E-03    -141.329E-03    -144.339E-03    -141.245E-03     282.575E-03    -141.329E-03     71.5676E-03    -53.2299E+06    -73.7807E+06    -172.517E+06    -77.5213E+06    -168.777E+06    -53.2299E+06    -18.7187E+06         44.2429
            1927     4.33924E-03     139.563E-03         1.58154    -776.899E-03    -840.258E-03    -775.591E-03         1.58023    -840.258E-03    -109.883E-03     287.469E-03    -141.367E-03    -146.101E-03    -141.243E-03     282.610E-03    -141.367E-03     90.1045E-03    -36.0075E+06    -67.1365E+06    -158.024E+06    -71.7875E+06    -153.373E+06    -36.0075E+06    -19.9608E+06         44.7698
            1928     5.20738E-03     139.605E-03         1.52339    -736.211E-03    -827.385E-03    -734.247E-03         1.52142    -827.385E-03    -132.469E-03     289.494E-03    -141.400E-03    -148.094E-03    -141.096E-03     282.496E-03    -141.400E-03     108.560E-03    -18.0142E+06    -61.5602E+06    -140.883E+06    -66.4604E+06    -135.983E+06    -18.0142E+06    -19.0392E+06         45.4276
            1929     6.07569E-03     139.655E-03         1.45522    -688.762E-03    -812.150E-03    -686.155E-03         1.45262    -812.150E-03    -148.941E-03     291.762E-03    -141.411E-03    -150.350E-03    -140.912E-03     282.323E-03    -141.411E-03     126.706E-03     361.628E+03    -58.5371E+06    -118.623E+06    -63.2290E+06    -113.931E+06     361.628E+03    -15.8697E+06         46.2287
            1930     6.94585E-03     139.710E-03         1.37739    -634.684E-03    -794.669E-03    -631.597E-03         1.37431    -794.669E-03    -157.237E-03     295.748E-03    -141.491E-03    -154.256E-03    -142.264E-03     283.755E-03    -141.491E-03     144.089E-03     18.5306E+06    -57.3742E+06    -97.8434E+06    -61.2438E+06    -93.9738E+06     18.5306E+06    -11.6632E+06         47.2009
            1931     7.81376E-03     139.778E-03         1.29071    -574.704E-03    -775.090E-03    -571.287E-03         1.28729    -775.090E-03    -159.265E-03     301.435E-03    -141.774E-03    -159.661E-03    -145.397E-03     287.171E-03    -141.774E-03     159.161E-03     36.7278E+06    -50.7220E+06    -75.9025E+06    -58.6260E+06    -67.9984E+06     36.7278E+06    -6.83863E+06         48.4097
            1932     8.67880E-03     139.854E-03         1.19634    -509.781E-03    -753.587E-03    -506.151E-03         1.19271    -753.587E-03    -157.060E-03     307.783E-03    -142.319E-03    -165.465E-03    -149.583E-03     291.902E-03    -142.319E-03     170.273E-03     54.2615E+06    -32.5914E+06    -58.9534E+06    -55.5430E+06    -36.0017E+06     54.2615E+06    -2.73579E+06         50.0027
            1933     9.54242E-03     139.945E-03         1.09455    -439.954E-03    -730.322E-03    -436.195E-03         1.09079    -730.322E-03    -151.521E-03     316.036E-03    -143.185E-03    -172.851E-03    -156.149E-03     299.334E-03    -143.185E-03     177.566E-03     67.4194E+06    -10.2942E+06    -53.3678E+06    -52.4403E+06    -11.2217E+06     67.4194E+06    -2.57653E+06         52.2687
            1934     10.3969E-03     140.051E-03     985.969E-03    -365.765E-03    -705.446E-03    -361.876E-03     982.081E-03    -705.446E-03    -144.607E-03     326.651E-03    -144.469E-03    -182.182E-03    -165.437E-03     309.906E-03    -144.469E-03     181.522E-03     77.2898E+06     20.4618E+06    -46.5622E+06    -45.6603E+06     19.5599E+06     77.2898E+06    -6.22566E+06         55.6827
            1935     11.2458E-03     140.178E-03     872.071E-03    -288.556E-03    -679.130E-03    -284.616E-03     868.131E-03    -679.130E-03    -134.888E-03     339.692E-03    -146.279E-03    -193.413E-03    -177.519E-03     323.798E-03    -146.279E-03     181.162E-03     80.9482E+06     47.2096E+06    -37.5054E+06    -36.0604E+06     45.7646E+06     80.9482E+06    -10.5878E+06         60.8506
            1936     12.0830E-03     140.323E-03     754.460E-03    -209.771E-03    -651.686E-03    -205.995E-03     750.684E-03    -651.686E-03    -120.376E-03     358.203E-03    -148.721E-03    -209.482E-03    -193.670E-03     342.391E-03    -148.721E-03     186.718E-03     70.2281E+06     44.2323E+06    -31.6138E+06    -29.1761E+06     41.7945E+06     70.2281E+06    -12.9497E+06         68.2218
            1937     12.9050E-03     140.523E-03     634.204E-03    -130.393E-03    -623.318E-03    -127.107E-03     630.919E-03    -623.318E-03    -100.005E-03     377.062E-03    -151.893E-03    -225.170E-03    -211.000E-03     362.893E-03    -151.893E-03     181.680E-03     62.1984E+06     38.3133E+06    -25.5177E+06    -22.6007E+06     35.3963E+06     62.1984E+06    -11.1854E+06         77.5317
            1938     13.7120E-03     140.720E-03     511.533E-03    -50.6702E-03    -594.097E-03    -48.3531E-03     509.216E-03    -594.097E-03    -71.9389E-03     399.419E-03    -155.663E-03    -243.756E-03    -227.246E-03     382.909E-03    -155.663E-03     201.850E-03     69.3305E+06     54.6315E+06    -16.7767E+06    -14.9305E+06     52.7853E+06     69.3305E+06    -7.43219E+06         87.3365
            1939     14.5094E-03     141.037E-03     387.031E-03     29.1648E-03    -563.816E-03     30.2039E-03     385.992E-03    -563.816E-03    -37.7489E-03     406.929E-03    -159.836E-03    -247.093E-03    -233.238E-03     393.074E-03    -159.836E-03     181.592E-03     130.212E+06     102.159E+06    -10.0250E+06    -9.49108E+06     101.625E+06     130.212E+06    -3.94497E+06         95.2411
            1940     876.966E-06     140.774E-03         1.78114    -892.562E-03    -904.787E-03    -902.214E-03         1.78111    -895.105E-03    -16.9348E-03     259.520E-03    -129.267E-03    -130.252E-03    -129.560E-03     259.144E-03    -129.584E-03     21.8254E-03    -83.8253E+06    -86.7178E+06    -188.101E+06    -86.4412E+06    -187.349E+06    -84.8543E+06    -7.59345E+06         41.3063
            1941     1.75653E-03     140.788E-03         1.76305    -885.247E-03    -896.107E-03    -885.145E-03         1.76295    -896.107E-03    -31.1992E-03     258.820E-03    -129.143E-03    -129.677E-03    -128.331E-03     257.656E-03    -129.325E-03     40.9636E-03    -78.4948E+06    -83.0085E+06    -179.339E+06    -84.2756E+06    -177.744E+06    -78.8224E+06    -11.8910E+06         41.5006
            1942     2.63569E-03     140.808E-03         1.73305    -864.727E-03    -889.461E-03    -864.456E-03         1.73278    -889.461E-03    -51.5369E-03     258.802E-03    -128.857E-03    -129.945E-03    -127.421E-03     256.278E-03    -128.857E-03     61.1203E-03    -70.1004E+06    -80.7511E+06    -173.761E+06    -83.1180E+06    -171.394E+06    -70.1004E+06    -14.4719E+06         41.8290
            1943     3.51648E-03     140.838E-03         1.69194    -836.661E-03    -880.114E-03    -836.071E-03         1.69135    -880.114E-03    -75.7435E-03     259.599E-03    -128.424E-03    -131.175E-03    -126.705E-03     255.128E-03    -128.424E-03     81.8964E-03    -60.5319E+06    -80.7380E+06    -164.135E+06    -83.4498E+06    -161.423E+06    -60.5319E+06    -14.4293E+06         42.3089
            1944     4.39853E-03     140.874E-03         1.64002    -801.144E-03    -868.175E-03    -800.053E-03         1.63893    -868.175E-03    -101.922E-03     261.701E-03    -128.098E-03    -133.603E-03    -126.558E-03     254.656E-03    -128.098E-03     103.407E-03    -46.9508E+06    -82.9532E+06    -150.909E+06    -85.3909E+06    -148.472E+06    -46.9508E+06    -12.0307E+06         42.9579
            1945     5.27906E-03     140.918E-03         1.57709    -758.224E-03    -853.699E-03    -756.540E-03         1.57540    -853.699E-03    -124.477E-03     265.705E-03    -127.986E-03    -137.719E-03    -127.700E-03     255.686E-03    -127.986E-03     124.563E-03    -30.0657E+06    -85.9407E+06    -137.112E+06    -88.1253E+06    -134.927E+06    -30.0657E+06    -8.52696E+06         43.7922
            1946     6.15989E-03     140.968E-03         1.50352    -707.994E-03    -836.751E-03    -705.748E-03         1.50127    -836.751E-03    -140.270E-03     271.790E-03    -128.195E-03    -143.595E-03    -130.677E-03     258.872E-03    -128.195E-03     143.536E-03    -10.7681E+06    -86.5337E+06    -117.016E+06    -88.8810E+06    -114.669E+06    -10.7681E+06    -4.15889E+06         44.8277
            1947     7.03732E-03     141.029E-03         1.41970    -650.830E-03    -817.432E-03    -648.126E-03         1.41699    -817.432E-03    -149.196E-03     280.473E-03    -128.837E-03    -151.636E-03    -136.071E-03     264.908E-03    -128.837E-03     160.651E-03     8.95608E+06    -81.8948E+06    -98.9622E+06    -86.6742E+06    -94.1829E+06     8.95608E+06    -1.35390E+06         46.0893
            1948     7.90989E-03     141.106E-03         1.32643    -587.277E-03    -795.869E-03    -584.243E-03         1.32340    -795.869E-03    -152.026E-03     291.551E-03    -130.013E-03    -161.539E-03    -144.222E-03     274.235E-03    -130.013E-03     173.581E-03     28.6572E+06    -64.0830E+06    -84.5702E+06    -80.6399E+06    -68.0134E+06     28.6572E+06     90.7051E+03         47.6359
            1949     8.77507E-03     141.193E-03         1.22479    -518.237E-03    -772.211E-03    -514.991E-03         1.22155    -772.211E-03    -150.110E-03     304.555E-03    -131.796E-03    -172.758E-03    -154.791E-03     286.588E-03    -131.796E-03     181.645E-03     48.2738E+06    -34.3079E+06    -70.1330E+06    -70.0096E+06    -34.4313E+06     48.2738E+06     1.07675E+06         49.6048
            1950     9.62952E-03     141.299E-03         1.11602    -444.793E-03    -746.627E-03    -441.381E-03         1.11261    -746.627E-03    -145.604E-03     319.168E-03    -134.191E-03    -184.977E-03    -167.131E-03     301.322E-03    -134.191E-03     186.264E-03     64.9757E+06    -2.26034E+06    -56.7003E+06    -56.4330E+06    -2.52768E+06     64.9757E+06    -842.529E+03         52.2687
            1951     10.4761E-03     141.424E-03         1.00159    -368.228E-03    -719.312E-03    -364.624E-03     997.989E-03    -719.312E-03    -140.125E-03     335.854E-03    -137.181E-03    -198.673E-03    -181.692E-03     318.873E-03    -137.181E-03     187.356E-03     77.3469E+06     34.2103E+06    -44.7969E+06    -44.0933E+06     33.5068E+06     77.3469E+06    -6.25428E+06         56.0728
            1952     11.3084E-03     141.571E-03     882.696E-03    -289.550E-03    -690.476E-03    -285.825E-03     878.971E-03    -690.476E-03    -131.803E-03     354.817E-03    -140.797E-03    -214.019E-03    -198.583E-03     339.380E-03    -140.797E-03     184.570E-03     77.6226E+06     53.4943E+06    -36.8586E+06    -35.5679E+06     52.2037E+06     77.6226E+06    -10.3832E+06         61.5578
            1953     12.1260E-03     141.746E-03     760.172E-03    -209.505E-03    -660.267E-03    -205.823E-03     756.491E-03    -660.267E-03    -119.142E-03     376.559E-03    -145.021E-03    -231.537E-03    -216.453E-03     361.474E-03    -145.021E-03     189.097E-03     66.5597E+06     46.3361E+06    -30.9638E+06    -29.1804E+06     44.5528E+06     66.5597E+06    -11.4803E+06         69.0738
            1954     12.9304E-03     141.974E-03     634.625E-03    -128.825E-03    -628.773E-03    -125.507E-03     631.307E-03    -628.773E-03    -100.401E-03     394.494E-03    -149.726E-03    -244.769E-03    -231.130E-03     380.856E-03    -149.726E-03     184.035E-03     59.7692E+06     37.7585E+06    -26.2404E+06    -23.0678E+06     34.5858E+06     59.7692E+06    -13.4546E+06         78.2969
            1955     13.7246E-03     142.193E-03     506.485E-03    -48.0884E-03    -595.843E-03    -45.6483E-03     504.044E-03    -595.843E-03    -73.3771E-03     412.168E-03    -154.603E-03    -257.564E-03    -241.579E-03     396.182E-03    -154.603E-03     202.775E-03     65.2208E+06     47.5351E+06    -21.1997E+06    -18.0937E+06     44.4291E+06     65.2208E+06    -11.8996E+06         87.8720
            1956     14.5148E-03     142.524E-03     376.245E-03     32.6878E-03    -561.597E-03     33.8695E-03     375.063E-03    -561.597E-03    -39.7272E-03     414.524E-03    -159.457E-03    -255.067E-03    -241.606E-03     401.063E-03    -159.457E-03     181.632E-03     128.938E+06     94.6856E+06    -11.3035E+06    -10.2240E+06     93.6061E+06     128.938E+06    -5.14915E+06         95.5805
            1957     890.722E-06     142.053E-03         1.79661    -896.505E-03    -903.352E-03    -900.336E-03         1.79660    -899.505E-03    -11.1016E-03     229.692E-03    -114.495E-03    -115.197E-03    -114.367E-03     229.178E-03    -114.811E-03     24.6273E-03    -88.3670E+06    -91.8405E+06    -170.465E+06    -90.8784E+06    -169.817E+06     -89.977E+06    -5.50628E+06         39.0366
            1958     1.78269E-03     142.063E-03         1.77712    -885.783E-03    -896.979E-03    -885.725E-03         1.77706    -896.979E-03    -23.2582E-03     228.670E-03    -114.050E-03    -114.620E-03    -112.807E-03     227.039E-03    -114.232E-03     45.4673E-03    -92.2809E+06    -95.7061E+06    -168.747E+06    -95.8792E+06    -168.027E+06    -92.8273E+06    -5.68337E+06         39.2855
            1959     2.67688E-03     142.084E-03         1.74593    -864.974E-03    -889.768E-03    -864.791E-03         1.74575    -889.768E-03    -41.7934E-03     228.696E-03    -113.560E-03    -115.136E-03    -111.587E-03     225.148E-03    -113.560E-03     68.1091E-03    -92.4689E+06    -102.985E+06    -168.912E+06    -104.493E+06    -167.403E+06    -92.4689E+06    -3.29218E+06         39.7070
            1960     3.57126E-03     142.110E-03         1.70231    -835.647E-03    -879.699E-03    -835.214E-03         1.70188    -879.699E-03    -64.6852E-03     230.163E-03    -113.016E-03    -117.147E-03    -110.927E-03     223.943E-03    -113.016E-03     90.8499E-03    -84.2663E+06    -110.277E+06    -164.205E+06    -113.171E+06    -161.312E+06    -84.2663E+06     341.523E+03         40.3274
            1961     4.46677E-03     142.146E-03         1.64763    -799.037E-03    -866.808E-03    -798.205E-03         1.64680    -866.808E-03    -88.8251E-03     234.057E-03    -112.733E-03    -121.325E-03    -111.870E-03     224.603E-03    -112.733E-03     113.426E-03    -68.1039E+06    -114.398E+06    -154.688E+06    -119.435E+06    -149.651E+06    -68.1039E+06     4.18727E+06         41.1705
            1962     5.36317E-03     142.193E-03         1.58240    -755.507E-03    -851.259E-03    -754.207E-03         1.58110    -851.259E-03    -109.407E-03     241.624E-03    -112.940E-03    -128.684E-03    -115.867E-03     228.807E-03    -112.940E-03     134.839E-03    -45.3004E+06    -114.019E+06    -140.952E+06    -120.240E+06    -134.730E+06    -45.3004E+06     5.62489E+06         42.2543
            1963     6.25263E-03     142.253E-03         1.50628    -704.750E-03    -833.159E-03    -702.969E-03         1.50450    -833.159E-03    -124.771E-03     253.533E-03    -113.862E-03    -139.671E-03    -123.769E-03     237.631E-03    -113.862E-03     154.616E-03    -21.3304E+06    -106.524E+06    -121.808E+06    -114.579E+06    -113.753E+06    -21.3304E+06     4.69168E+06         43.5910
            1964     7.13399E-03     142.326E-03         1.41949    -646.684E-03    -812.559E-03    -644.480E-03         1.41729    -812.559E-03    -134.419E-03     268.659E-03    -115.620E-03    -153.040E-03    -134.787E-03     250.407E-03    -115.620E-03     171.500E-03     1.08889E+06    -89.4062E+06    -104.521E+06    -103.154E+06    -90.7724E+06     1.08889E+06     2.61111E+06         45.1959
            1965     8.00679E-03     142.419E-03         1.32249    -581.699E-03    -789.510E-03    -579.172E-03         1.31996    -789.510E-03    -138.228E-03     286.081E-03    -118.212E-03    -167.869E-03    -148.409E-03     266.622E-03    -118.212E-03     183.850E-03     22.8060E+06    -61.0678E+06    -89.0989E+06    -88.3983E+06    -61.7684E+06     22.8060E+06    -829.662E+03         47.1136
            1966     8.86613E-03     142.530E-03         1.21672    -511.065E-03    -764.134E-03    -508.279E-03         1.21394    -764.134E-03    -138.398E-03     305.995E-03    -121.641E-03    -184.354E-03    -164.931E-03     286.572E-03    -121.641E-03     191.183E-03     42.7790E+06    -27.8285E+06    -72.9406E+06    -71.9531E+06    -28.8159E+06     42.7790E+06    -4.89718E+06         49.4608
            1967     9.71258E-03     142.659E-03         1.10446    -436.833E-03    -736.649E-03    -433.793E-03         1.10142    -736.649E-03    -136.500E-03     327.524E-03    -125.886E-03    -201.638E-03    -183.257E-03     309.143E-03    -125.886E-03     193.619E-03     60.4621E+06     6.94521E+06    -57.3629E+06    -56.0135E+06     5.59583E+06     60.4621E+06    -8.07265E+06         52.4798
            1968     10.5431E-03     142.810E-03     987.308E-03    -360.353E-03    -707.268E-03    -357.021E-03     983.977E-03    -707.268E-03    -133.609E-03     349.894E-03    -130.842E-03    -219.052E-03    -202.207E-03     333.049E-03    -130.842E-03     192.652E-03     75.0537E+06     42.5483E+06    -43.9750E+06    -43.0533E+06     41.6266E+06     75.0537E+06    -8.60631E+06         56.5701
            1969     11.3582E-03     142.991E-03     865.895E-03    -282.133E-03    -676.151E-03    -278.567E-03     862.330E-03    -676.151E-03    -127.538E-03     372.809E-03    -136.370E-03    -236.439E-03    -221.305E-03     357.675E-03    -136.370E-03     189.394E-03     77.1857E+06     58.2033E+06    -34.0695E+06    -33.1018E+06     57.2356E+06     77.1857E+06    -9.08137E+06         62.2099
            1970     12.1579E-03     143.194E-03     740.899E-03    -202.895E-03    -643.308E-03    -199.274E-03     737.277E-03    -643.308E-03    -116.555E-03     394.534E-03    -142.274E-03    -252.260E-03    -237.644E-03     379.918E-03    -142.274E-03     192.194E-03     69.2917E+06     54.4717E+06    -27.0923E+06    -24.8384E+06     52.2178E+06     69.2917E+06    -12.6128E+06         69.7024
            1971     12.9483E-03     143.447E-03     612.945E-03    -123.437E-03    -608.881E-03    -120.107E-03     609.616E-03    -608.881E-03    -98.7444E-03     408.376E-03    -148.239E-03    -260.137E-03    -246.808E-03     395.048E-03    -148.239E-03     186.435E-03     61.0965E+06     39.6446E+06    -21.8831E+06    -18.6803E+06     36.4418E+06     61.0965E+06    -13.4201E+06         78.7695
            1972     13.7308E-03     143.683E-03     482.176E-03    -44.1197E-03    -572.704E-03    -41.5837E-03     479.640E-03    -572.704E-03    -72.8539E-03     420.432E-03    -153.901E-03    -266.531E-03    -250.842E-03     404.744E-03    -153.901E-03     203.708E-03     64.2094E+06     38.9952E+06    -16.3794E+06    -13.7994E+06     36.4151E+06     64.2094E+06    -9.48313E+06         88.1849
            1973     14.5173E-03     144.010E-03     349.465E-03     34.8969E-03    -535.339E-03     36.1860E-03     348.176E-03    -535.339E-03    -39.8542E-03     419.414E-03    -159.193E-03    -260.221E-03    -247.065E-03     406.258E-03    -159.193E-03     181.461E-03     128.129E+06     84.7462E+06    -9.91775E+06    -8.65148E+06     83.4800E+06     128.129E+06    -5.46419E+06         95.8212
            1974     907.166E-06     143.289E-03         1.75455    -868.150E-03    -872.729E-03    -870.350E-03         1.75454    -870.526E-03    -4.28473E-03     193.887E-03    -96.3974E-03    -97.4899E-03    -96.4380E-03     193.211E-03    -96.7727E-03     25.5210E-03    -115.959E+06    -119.892E+06    -176.422E+06    -122.085E+06    -171.360E+06    -118.828E+06     7.20845E+06         36.7751
            1975     1.81515E-03     143.298E-03         1.73620    -857.387E-03    -867.537E-03    -857.366E-03         1.73617    -867.537E-03    -11.9781E-03     194.250E-03    -96.4336E-03    -97.8162E-03    -95.6222E-03     192.056E-03    -96.4336E-03     48.5805E-03    -127.309E+06    -130.102E+06    -182.168E+06    -137.645E+06    -172.757E+06    -129.177E+06     11.7115E+06         37.1112
            1976     2.72399E-03     143.315E-03         1.70540    -837.252E-03    -860.440E-03    -837.163E-03         1.70531    -860.440E-03    -27.1725E-03     195.878E-03    -96.1279E-03    -99.7504E-03    -95.0564E-03     191.184E-03    -96.1279E-03     72.5938E-03    -126.037E+06    -136.367E+06    -186.000E+06    -148.921E+06    -173.384E+06    -126.100E+06     15.4726E+06         37.6735
            1977     3.63491E-03     143.342E-03         1.66272    -809.117E-03    -850.328E-03    -808.874E-03         1.66247    -850.328E-03    -46.5068E-03     200.505E-03    -96.0958E-03    -104.409E-03    -96.4945E-03     192.590E-03    -96.0958E-03     96.1137E-03    -108.888E+06    -138.396E+06    -180.427E+06    -152.764E+06    -166.058E+06    -108.888E+06     17.5141E+06         38.4884
            1978     4.54343E-03     143.381E-03         1.60854    -773.455E-03    -837.234E-03    -772.944E-03         1.60803    -837.234E-03    -67.7519E-03     209.042E-03    -96.6349E-03    -112.407E-03    -100.923E-03     197.558E-03    -96.6349E-03     118.852E-03    -81.5000E+06    -131.829E+06    -167.075E+06    -148.361E+06    -150.543E+06    -81.5000E+06     16.5293E+06         39.5773
            1979     5.44538E-03     143.436E-03         1.54329    -730.851E-03    -821.235E-03    -729.977E-03         1.54241    -821.235E-03    -87.6683E-03     221.734E-03    -97.9159E-03    -123.819E-03    -108.842E-03     206.757E-03    -97.9159E-03     140.469E-03    -52.4205E+06    -120.280E+06    -146.694E+06    -137.410E+06    -129.564E+06    -52.4205E+06     11.5741E+06         40.9527
            1980     6.34182E-03     143.511E-03         1.46664    -680.721E-03    -802.357E-03    -679.447E-03         1.46536    -802.357E-03    -103.555E-03     239.095E-03    -100.083E-03    -139.012E-03    -120.978E-03     221.062E-03    -100.083E-03     161.057E-03    -26.7827E+06    -103.583E+06    -125.452E+06    -122.710E+06    -106.325E+06    -26.7827E+06     4.48557E+06         42.6175
            1981     7.22607E-03     143.608E-03         1.37867    -623.114E-03    -780.613E-03    -621.479E-03         1.37704    -780.613E-03    -113.748E-03     260.435E-03    -103.267E-03    -157.168E-03    -137.115E-03     240.381E-03    -103.267E-03     178.530E-03    -3.68905E+06    -78.7991E+06    -106.903E+06    -105.396E+06    -80.3058E+06    -3.68905E+06    -3.08128E+06         44.5735
            1982     8.09406E-03     143.725E-03         1.28097    -559.350E-03    -756.111E-03    -557.386E-03         1.27901    -756.111E-03    -119.740E-03     284.688E-03    -107.488E-03    -177.201E-03    -156.287E-03     263.774E-03    -107.488E-03     192.014E-03     18.0155E+06    -47.6694E+06    -89.5838E+06    -86.5290E+06    -50.7242E+06     18.0155E+06    -9.98479E+06         46.8455
            1983     8.94835E-03     143.866E-03         1.17498    -490.622E-03    -729.040E-03    -488.331E-03         1.17269    -729.040E-03    -123.122E-03     311.260E-03    -112.704E-03    -198.557E-03    -178.109E-03     290.812E-03    -112.704E-03     199.881E-03     37.5321E+06    -17.2759E+06    -73.4560E+06    -69.3340E+06    -21.3978E+06     37.5321E+06    -14.0516E+06         49.5237
            1984     9.78198E-03     144.031E-03         1.06190    -417.875E-03    -699.640E-03    -415.242E-03         1.05927    -699.640E-03    -124.374E-03     339.049E-03    -118.836E-03    -220.212E-03    -201.336E-03     320.173E-03    -118.836E-03     201.764E-03     54.6749E+06     12.0886E+06    -58.6846E+06    -55.6118E+06     9.01581E+06     54.6749E+06    -13.9640E+06         52.8169
            1985     10.5962E-03     144.219E-03     943.358E-03    -342.553E-03    -668.100E-03    -339.546E-03     940.351E-03    -668.100E-03    -123.894E-03     366.220E-03    -125.692E-03    -240.529E-03    -223.466E-03     349.158E-03    -125.692E-03     200.387E-03     70.0843E+06     46.3255E+06    -46.0402E+06    -44.0381E+06     44.3234E+06     70.0843E+06    -13.1368E+06         57.0828
            1986     11.3957E-03     144.431E-03     820.810E-03    -265.967E-03    -634.577E-03    -262.659E-03     817.502E-03    -634.577E-03    -119.490E-03     390.134E-03    -132.946E-03    -257.188E-03    -241.888E-03     374.834E-03    -132.946E-03     196.494E-03     75.4508E+06     63.4626E+06    -34.6918E+06    -32.2557E+06     61.0264E+06     75.4508E+06    -14.2198E+06         62.7663
            1987     12.1805E-03     144.671E-03     695.477E-03    -189.508E-03    -599.144E-03    -186.071E-03     692.040E-03    -599.144E-03    -109.882E-03     409.501E-03    -140.210E-03    -269.291E-03    -254.605E-03     394.815E-03    -140.210E-03     197.515E-03     67.2285E+06     57.2501E+06    -26.4661E+06    -23.6627E+06     54.4467E+06     67.2285E+06    -13.6518E+06         70.1775
            1988     12.9579E-03     144.932E-03     568.047E-03    -113.778E-03    -562.261E-03    -110.518E-03     564.787E-03    -562.261E-03    -93.9408E-03     419.043E-03    -147.134E-03    -271.909E-03    -258.659E-03     405.794E-03    -147.134E-03     189.128E-03     59.8650E+06     40.6847E+06    -22.5634E+06    -19.1954E+06     37.3167E+06     59.8650E+06    -13.1025E+06         79.1031
            1989     13.7399E-03     145.181E-03     438.224E-03    -38.7218E-03    -523.813E-03    -36.1261E-03     435.628E-03    -523.813E-03    -70.1275E-03     426.235E-03    -153.388E-03    -272.847E-03    -257.690E-03     411.078E-03    -153.388E-03     202.258E-03     62.2532E+06     31.4000E+06    -17.9107E+06    -13.5995E+06     27.0888E+06     62.2532E+06    -11.1119E+06         88.3926
            1990     14.5213E-03     145.506E-03     307.320E-03     35.2935E-03    -484.629E-03     36.7058E-03     305.908E-03    -484.629E-03    -38.8780E-03     422.628E-03    -159.009E-03    -263.619E-03    -250.958E-03     409.967E-03    -159.009E-03     179.473E-03     128.367E+06     75.7409E+06    -8.57798E+06    -5.70970E+06     72.8726E+06     128.367E+06    -4.02608E+06         95.9317
            1991     926.146E-06     144.480E-03         1.66131    -811.761E-03    -815.120E-03    -813.007E-03         1.66130    -813.869E-03     4.13247E-03     154.940E-03    -76.6327E-03    -78.3076E-03    -76.9961E-03     154.004E-03    -77.0080E-03     27.1949E-03    -172.899E+06    -194.105E+06    -227.352E+06    -199.110E+06    -200.216E+06    -195.030E+06     20.5341E+06         34.7722
            1992     1.85110E-03     144.487E-03         1.64415    -801.897E-03    -810.604E-03    -801.889E-03         1.64414    -810.604E-03     2.09878E-03     158.561E-03    -77.3869E-03    -81.1737E-03    -78.3834E-03     155.770E-03    -77.3869E-03     49.8936E-03    -164.779E+06    -179.072E+06    -222.202E+06    -197.478E+06    -189.503E+06    -179.072E+06     26.6973E+06         35.2117
            1993     2.77639E-03     144.505E-03         1.61636    -784.091E-03    -803.877E-03    -784.071E-03         1.61634    -803.877E-03    -7.18605E-03     164.824E-03    -78.2321E-03    -86.5923E-03    -80.9287E-03     159.161E-03    -78.2321E-03     73.7014E-03    -151.831E+06    -161.678E+06    -215.620E+06    -191.087E+06    -183.081E+06    -154.960E+06     27.6572E+06         35.9366
            1994     3.69753E-03     144.536E-03         1.57750    -759.259E-03    -794.176E-03    -759.179E-03         1.57742    -794.176E-03    -22.7769E-03     174.709E-03    -79.5560E-03    -95.1534E-03    -85.9808E-03     165.537E-03    -79.5560E-03     97.2874E-03    -124.560E+06    -148.670E+06    -198.994E+06    -180.229E+06    -167.435E+06    -124.560E+06     23.2223E+06         36.9656
            1995     4.61343E-03     144.586E-03         1.52694    -726.894E-03    -781.377E-03    -726.678E-03         1.52673    -781.377E-03    -41.3028E-03     188.787E-03    -81.5663E-03    -107.221E-03    -94.3571E-03     175.923E-03    -81.5663E-03     120.445E-03    -91.4340E+06    -135.103E+06    -172.818E+06    -162.859E+06    -145.062E+06    -91.4340E+06     14.6382E+06         38.3113
            1996     5.52257E-03     144.655E-03         1.46391    -686.470E-03    -765.279E-03    -686.027E-03         1.46346    -765.279E-03    -59.4073E-03     207.248E-03    -84.4106E-03    -122.837E-03    -106.502E-03     190.912E-03    -84.4106E-03     143.104E-03    -60.1381E+06    -114.937E+06    -145.377E+06    -141.603E+06    -118.711E+06    -60.1381E+06     5.10277E+06         39.9752
            1997     6.41874E-03     144.751E-03         1.38848    -638.172E-03    -745.720E-03    -637.429E-03         1.38773    -745.720E-03    -76.0103E-03     229.693E-03    -88.1778E-03    -141.515E-03    -122.293E-03     210.471E-03    -88.1778E-03     164.497E-03    -32.5226E+06    -90.4760E+06    -122.250E+06    -119.492E+06    -93.2335E+06    -32.5226E+06    -4.25469E+06         41.9469
            1998     7.30164E-03     144.876E-03         1.30170    -582.916E-03    -722.719E-03    -581.854E-03         1.30063    -722.719E-03    -88.3965E-03     255.982E-03    -92.9324E-03    -163.050E-03    -142.015E-03     234.948E-03    -92.9324E-03     182.959E-03    -8.40394E+06    -62.3549E+06    -104.032E+06    -99.4491E+06    -66.9375E+06    -8.40394E+06    -12.4647E+06         44.2117
            1999     8.16867E-03     145.027E-03         1.20499    -521.838E-03    -696.452E-03    -520.461E-03         1.20362    -696.452E-03    -96.6721E-03     286.165E-03    -98.7585E-03    -187.406E-03    -165.837E-03     264.595E-03    -98.7585E-03     197.369E-03     12.6786E+06    -32.6101E+06    -90.6349E+06    -84.1070E+06    -39.1380E+06     12.6786E+06    -18.1646E+06         46.7719
            2000     9.01204E-03     145.208E-03         1.09972    -455.933E-03    -667.180E-03    -454.222E-03         1.09801    -667.180E-03    -102.464E-03     318.119E-03    -105.634E-03    -212.485E-03    -191.520E-03     297.154E-03    -105.634E-03     206.543E-03     30.8839E+06    -7.94445E+06    -78.9401E+06    -71.7570E+06    -15.1276E+06     30.8839E+06    -21.2719E+06         49.6915
            2001     9.83562E-03     145.416E-03     987.070E-03    -386.131E-03    -635.196E-03    -384.042E-03     984.981E-03    -635.196E-03    -106.489E-03     350.359E-03    -113.383E-03    -236.976E-03    -217.362E-03     330.745E-03    -113.383E-03     210.829E-03     47.8701E+06     16.0134E+06    -64.9685E+06    -58.3774E+06     9.42230E+06     47.8701E+06    -21.6577E+06         53.1536
            2002     10.6396E-03     145.646E-03     869.109E-03    -314.077E-03    -600.861E-03    -311.586E-03     866.617E-03    -600.861E-03    -108.019E-03     380.547E-03    -121.740E-03    -258.807E-03    -240.920E-03     362.660E-03    -121.740E-03     210.636E-03     64.8982E+06     49.2622E+06    -49.4427E+06    -45.0665E+06     44.8859E+06     64.8982E+06    -19.3243E+06         57.4926
            2003     11.4226E-03     145.897E-03     748.303E-03    -242.003E-03    -564.688E-03    -239.148E-03     745.447E-03    -564.688E-03    -105.865E-03     404.390E-03    -130.297E-03    -274.094E-03    -258.019E-03     388.315E-03    -130.297E-03     206.217E-03     71.7526E+06     66.4545E+06    -39.6751E+06    -36.3959E+06     64.1587E+06     70.7693E+06    -18.0520E+06         63.1466
            2004     12.1996E-03     146.154E-03     625.528E-03    -170.773E-03    -526.998E-03    -167.645E-03     622.400E-03    -526.998E-03    -99.3023E-03     421.350E-03    -138.588E-03    -282.762E-03    -267.686E-03     406.273E-03    -138.588E-03     203.803E-03     63.6581E+06     55.0319E+06    -34.0144E+06    -28.6996E+06     50.7004E+06     62.6748E+06    -18.4718E+06         70.4508
            2005     12.9729E-03     146.440E-03     501.578E-03    -101.058E-03    -488.573E-03    -97.9191E-03     498.439E-03    -488.573E-03    -86.5452E-03     427.788E-03    -146.262E-03    -281.525E-03    -268.608E-03     414.870E-03    -146.262E-03     189.095E-03     57.0138E+06     37.3245E+06    -25.1153E+06    -20.1417E+06     32.3509E+06     57.0138E+06    -14.8683E+06         79.2378
            2006     13.7411E-03     146.680E-03     376.945E-03    -33.3605E-03    -449.349E-03    -30.6431E-03     374.227E-03    -449.349E-03    -66.2699E-03     431.053E-03    -153.028E-03    -278.026E-03    -263.860E-03     416.887E-03    -153.028E-03     197.077E-03     58.5412E+06     26.3818E+06    -20.6631E+06    -16.9532E+06     22.6719E+06     58.5412E+06    -10.5961E+06         88.4177
            2007     14.5203E-03     147.008E-03     252.040E-03     32.8126E-03    -410.125E-03     34.5241E-03     250.328E-03    -410.125E-03    -38.1908E-03     423.627E-03    -158.941E-03    -264.686E-03    -252.787E-03     411.728E-03    -158.941E-03     174.811E-03     126.690E+06     65.6546E+06    -18.0175E+06    -14.4837E+06     62.1208E+06     126.690E+06    -7.69817E+06         95.9205
            2008     944.450E-06     145.621E-03         1.52420    -731.743E-03    -734.749E-03    -732.841E-03         1.52418    -733.626E-03     13.4922E-03     119.251E-03    -58.6000E-03    -60.6508E-03    -59.6017E-03     118.202E-03    -58.6000E-03     25.4763E-03    -220.859E+06    -320.915E+06    -332.493E+06    -322.273E+06    -227.475E+06    -324.520E+06     5.80445E+06         33.2882
            2009     1.88683E-03     145.636E-03         1.50915    -723.456E-03    -730.195E-03    -723.405E-03         1.50910    -730.195E-03     18.6355E-03     126.807E-03    -60.0998E-03    -66.7069E-03    -63.5973E-03     123.697E-03    -60.0998E-03     47.6131E-03    -192.893E+06    -274.356E+06    -300.892E+06    -289.105E+06    -203.065E+06    -275.971E+06     8.43097E+06         33.8210
            2010     2.82205E-03     145.659E-03         1.48568    -709.243E-03    -723.746E-03    -709.192E-03         1.48563    -723.746E-03     16.0523E-03     138.840E-03    -62.4197E-03    -76.4207E-03    -70.2418E-03     132.662E-03    -62.4197E-03     71.3095E-03    -173.171E+06    -216.971E+06    -258.553E+06    -246.449E+06    -187.376E+06    -214.870E+06     6.99277E+06         34.6903
            2011     3.75199E-03     145.702E-03         1.45174    -688.294E-03    -714.412E-03    -688.251E-03         1.45169    -714.412E-03     6.32558E-03     154.548E-03    -65.4387E-03    -89.1088E-03    -79.2598E-03     144.698E-03    -65.4387E-03     95.6957E-03    -143.436E+06    -166.657E+06    -211.955E+06    -202.372E+06    -163.151E+06    -156.525E+06     2.38673E+06         35.9069
            2012     4.67335E-03     145.766E-03         1.40563    -659.638E-03    -701.668E-03    -659.576E-03         1.40557    -701.668E-03    -7.91800E-03     174.236E-03    -69.1472E-03    -105.089E-03    -91.5158E-03     160.663E-03    -69.1472E-03     120.038E-03    -108.160E+06    -131.558E+06    -171.696E+06    -165.514E+06    -135.708E+06    -110.192E+06    -4.19692E+06         37.4713
            2013     5.58241E-03     145.858E-03         1.34653    -622.824E-03    -685.115E-03    -622.694E-03         1.34640    -685.115E-03    -24.4055E-03     197.987E-03    -73.6744E-03    -124.312E-03    -107.423E-03     181.098E-03    -73.6744E-03     143.629E-03    -73.5349E+06    -102.638E+06    -142.636E+06    -137.335E+06    -107.939E+06    -73.5349E+06    -9.87376E+06         39.3709
            2014     6.47818E-03     145.981E-03         1.27506    -578.706E-03    -664.558E-03    -578.429E-03         1.27479    -664.558E-03    -40.1131E-03     225.143E-03    -79.0947E-03    -146.049E-03    -126.616E-03     205.711E-03    -79.0947E-03     165.339E-03    -43.3847E+06    -74.8846E+06    -123.291E+06    -117.546E+06    -80.6296E+06    -43.3847E+06    -15.3512E+06         41.5787
            2015     7.35831E-03     146.134E-03         1.19164    -527.610E-03    -639.932E-03    -527.140E-03         1.19117    -639.932E-03    -53.3304E-03     256.025E-03    -85.4538E-03    -170.571E-03    -149.560E-03     235.013E-03    -85.4538E-03     184.563E-03    -17.2033E+06    -46.3116E+06    -110.922E+06    -102.657E+06    -54.5761E+06    -17.2033E+06    -21.5199E+06         44.0602
            2016     8.21665E-03     146.328E-03         1.09673    -469.868E-03    -611.316E-03    -469.167E-03         1.09603    -611.316E-03    -63.8414E-03     289.616E-03    -92.7756E-03    -196.840E-03    -175.377E-03     268.153E-03    -92.7756E-03     199.663E-03     7.51633E+06    -17.7800E+06    -98.0002E+06    -87.0138E+06    -28.7664E+06     7.51633E+06    -27.2182E+06         46.7969
            2017     9.05510E-03     146.553E-03     992.265E-03    -407.009E-03    -579.037E-03    -406.025E-03     991.280E-03    -579.037E-03    -72.6578E-03     324.410E-03    -100.983E-03    -223.428E-03    -202.492E-03     303.474E-03    -100.983E-03     209.876E-03     29.0945E+06     3.41721E+06    -81.5388E+06    -68.6278E+06    -9.49382E+06     29.0945E+06    -29.9912E+06         49.8331
            2018     9.87213E-03     146.806E-03     881.341E-03    -341.559E-03    -543.620E-03    -340.217E-03     879.999E-03    -543.620E-03    -79.8109E-03     358.656E-03    -109.889E-03    -248.767E-03    -228.905E-03     338.794E-03    -109.889E-03     215.862E-03     47.0921E+06     21.3507E+06    -64.2338E+06    -52.4329E+06     9.54987E+06     47.0921E+06    -29.0823E+06         53.3366
            2019     10.6659E-03     147.087E-03     766.898E-03    -275.870E-03    -505.898E-03    -274.087E-03     765.115E-03    -505.898E-03    -85.4021E-03     388.722E-03    -119.183E-03    -269.540E-03    -251.173E-03     370.356E-03    -119.183E-03     216.632E-03     62.1357E+06      44.743E+06    -47.5536E+06    -39.9633E+06     37.1527E+06     62.1357E+06    -24.1982E+06         57.6410
            2020     11.4484E-03     147.371E-03     650.478E-03    -210.813E-03    -466.917E-03    -208.556E-03     648.221E-03    -466.917E-03    -87.4976E-03     412.903E-03    -128.498E-03    -284.405E-03    -267.914E-03     396.412E-03    -128.498E-03     211.702E-03     72.3724E+06     65.6391E+06    -32.8355E+06    -29.3648E+06     63.1518E+06     71.3890E+06    -17.5513E+06         63.1998
            2021     12.2149E-03     147.660E-03     533.543E-03    -147.666E-03    -427.472E-03    -144.968E-03     530.845E-03    -427.472E-03    -85.0778E-03     428.826E-03    -137.455E-03    -291.371E-03    -276.393E-03     413.848E-03    -137.455E-03     205.493E-03     69.1733E+06     58.4563E+06    -29.1020E+06    -24.6297E+06     54.9674E+06       68.19E+06    -15.3464E+06         70.3817
            2022     12.9763E-03     147.948E-03     417.099E-03    -87.0567E-03    -388.644E-03    -84.0644E-03     414.106E-03    -388.644E-03    -76.9458E-03     433.787E-03    -145.647E-03    -288.140E-03    -275.407E-03     421.054E-03    -145.647E-03     189.604E-03     59.3075E+06     33.2041E+06    -30.1772E+06    -23.0763E+06     26.1033E+06     59.3075E+06    -16.3128E+06         79.0831
            2023     13.7455E-03     148.200E-03     301.159E-03    -29.0198E-03    -350.291E-03    -26.1552E-03     298.295E-03    -350.291E-03    -60.8071E-03     435.084E-03    -152.764E-03    -282.319E-03    -268.970E-03     421.734E-03    -152.764E-03     192.996E-03     57.6826E+06     23.9274E+06    -22.2660E+06    -16.1591E+06     17.8206E+06     57.6826E+06    -12.7465E+06         88.2499
            2024     14.5197E-03     148.505E-03     186.156E-03     26.7216E-03    -313.155E-03     28.9202E-03     183.957E-03    -313.155E-03    -35.9193E-03     423.660E-03    -158.893E-03    -264.768E-03    -253.821E-03     412.714E-03    -158.893E-03     168.432E-03     128.645E+06     58.1044E+06    -9.57546E+06    -4.73817E+06     53.2671E+06     128.645E+06    -6.49655E+06         95.8351
            2025     956.031E-06     146.729E-03         1.34862    -631.967E-03    -633.825E-03    -632.971E-03         1.34851    -632.720E-03     24.9007E-03     96.6437E-03    -47.1940E-03    -49.4496E-03    -48.5697E-03     95.7637E-03    -47.1940E-03     21.1364E-03    -212.569E+06    -361.920E+06    -370.680E+06    -366.161E+06    -215.474E+06    -363.535E+06    -18.4661E+06         32.5584
            2026     1.90801E-03     146.749E-03         1.33734    -626.046E-03    -629.720E-03    -626.078E-03         1.33709    -629.443E-03     40.2684E-03     105.672E-03    -49.0891E-03    -56.5833E-03    -53.8613E-03     102.950E-03    -49.0891E-03     40.7433E-03    -185.335E+06    -325.154E+06    -346.915E+06    -338.112E+06    -192.524E+06    -326.769E+06    -28.9955E+06         33.1504
            2027     2.85454E-03     146.788E-03         1.31757    -614.586E-03    -622.994E-03    -614.225E-03         1.31721    -622.994E-03     47.4999E-03     120.264E-03    -52.0440E-03    -68.2195E-03    -62.5686E-03     114.613E-03    -52.0440E-03     63.8337E-03    -163.387E+06    -272.901E+06    -310.801E+06    -298.203E+06    -175.986E+06    -272.901E+06    -38.2581E+06         34.1121
            2028     3.78957E-03     146.846E-03         1.28822    -597.181E-03    -613.272E-03    -596.807E-03         1.28784    -613.272E-03     45.9810E-03     140.129E-03    -55.9971E-03    -84.1316E-03    -74.8861E-03     130.883E-03    -55.9971E-03     88.9796E-03    -135.719E+06    -218.540E+06    -269.404E+06    -252.104E+06    -153.019E+06    -218.540E+06    -44.3560E+06         35.4475
            2029     4.71333E-03     146.932E-03         1.24755    -573.057E-03    -599.803E-03    -572.758E-03         1.24725    -599.803E-03     36.8783E-03     164.548E-03    -60.9359E-03    -103.612E-03    -90.6625E-03     151.598E-03    -60.9359E-03     114.911E-03    -103.169E+06    -168.631E+06    -228.046E+06    -206.339E+06    -126.958E+06    -166.549E+06    -46.5102E+06         37.1461
            2030     5.62251E-03     147.050E-03         1.19433    -541.592E-03    -582.130E-03    -541.385E-03         1.19412    -582.130E-03     23.1489E-03     192.747E-03    -66.8400E-03    -125.907E-03    -109.728E-03     176.568E-03    -66.8400E-03     139.867E-03    -74.5305E+06    -122.783E+06    -188.455E+06    -164.123E+06    -105.232E+06    -116.413E+06    -44.5696E+06         39.1807
            2031     6.51538E-03     147.202E-03         1.12812    -502.600E-03    -559.914E-03    -502.459E-03         1.12798    -559.914E-03     8.43204E-03     224.801E-03    -73.7124E-03    -151.089E-03    -132.610E-03     206.323E-03    -73.7124E-03     162.446E-03    -47.8466E+06    -75.9965E+06    -150.219E+06    -127.732E+06    -78.7717E+06    -67.5581E+06    -39.1342E+06         41.5059
            2032     7.38719E-03     147.395E-03         1.04909    -456.442E-03    -532.971E-03    -456.318E-03         1.04896    -532.971E-03    -6.28600E-03     259.282E-03    -81.5188E-03    -177.763E-03    -157.948E-03     239.467E-03    -81.5188E-03     181.711E-03    -18.7891E+06    -31.9991E+06    -117.796E+06    -97.9205E+06    -47.6275E+06    -23.0361E+06    -35.7786E+06         44.0671
            2033     8.23996E-03     147.629E-03     957.928E-03    -403.654E-03    -501.379E-03    -403.471E-03     957.744E-03    -501.379E-03    -20.6215E-03     294.483E-03    -90.0998E-03    -204.383E-03    -184.175E-03     274.274E-03    -90.0998E-03     196.473E-03     10.7781E+06    -1.21226E+06    -94.3189E+06    -75.6141E+06    -19.9170E+06     10.7781E+06    -36.3558E+06         46.8285
            2034     9.07253E-03     147.896E-03     857.038E-03    -346.191E-03    -465.564E-03    -345.865E-03     856.712E-03    -465.564E-03    -34.0609E-03     329.739E-03    -99.3063E-03    -230.433E-03    -210.732E-03     310.038E-03    -99.3063E-03     206.109E-03     32.1508E+06     11.6896E+06    -80.5245E+06    -62.2590E+06    -6.57597E+06     32.1508E+06    -36.7374E+06         49.8210
            2035     9.88100E-03     148.202E-03     750.221E-03    -287.080E-03    -426.435E-03    -286.507E-03     749.648E-03    -426.435E-03    -45.6980E-03     362.342E-03    -108.925E-03    -253.417E-03    -234.711E-03     343.636E-03    -108.925E-03     211.131E-03     47.8519E+06     22.1934E+06    -69.3643E+06    -54.1888E+06     7.01781E+06     47.8519E+06    -33.6355E+06         53.2091
            2036     10.6765E-03     148.518E-03     640.725E-03    -228.675E-03    -385.261E-03    -227.731E-03     639.781E-03    -385.261E-03    -55.2726E-03     390.809E-03    -118.663E-03    -272.145E-03    -254.861E-03     373.524E-03    -118.663E-03     210.985E-03     61.6103E+06     41.5131E+06    -57.5768E+06    -46.6649E+06     30.6012E+06     61.6103E+06    -30.7477E+06         57.3410
            2037     11.4526E-03     148.849E-03     531.096E-03    -172.693E-03    -343.605E-03    -171.251E-03     529.654E-03    -343.605E-03    -62.3719E-03     412.926E-03    -128.217E-03    -284.709E-03    -269.196E-03     397.414E-03    -128.217E-03     205.498E-03     69.6381E+06     59.2779E+06    -45.1615E+06    -37.3500E+06     51.4665E+06     69.6381E+06    -26.5701E+06         62.7141
            2038     12.2189E-03     149.167E-03     423.042E-03    -120.113E-03    -302.954E-03    -118.109E-03     421.037E-03    -302.954E-03    -65.1411E-03     427.159E-03    -137.248E-03    -289.911E-03    -275.794E-03     413.042E-03    -137.248E-03     199.142E-03     69.0391E+06     54.6115E+06    -31.1945E+06    -25.0771E+06     48.4941E+06     69.0391E+06    -18.3068E+06         69.7745
            2039     12.9868E-03     149.463E-03     317.629E-03    -71.4673E-03    -264.665E-03    -68.8963E-03     315.058E-03    -264.665E-03    -62.2610E-03     433.567E-03    -145.511E-03    -288.055E-03    -275.979E-03     421.491E-03    -145.511E-03     184.636E-03     69.3500E+06     33.7037E+06    -21.9329E+06    -15.1184E+06     26.8891E+06     69.3500E+06    -12.9960E+06         78.4767
            2040     13.7486E-03     149.726E-03     214.446E-03    -26.3534E-03    -228.676E-03    -23.3548E-03     211.447E-03    -228.676E-03    -52.0851E-03     433.648E-03    -152.706E-03    -280.942E-03    -268.938E-03     421.644E-03    -152.706E-03     183.126E-03     67.0769E+06     18.8080E+06    -19.1840E+06    -12.2688E+06     11.8928E+06     67.0769E+06    -12.5546E+06         87.8193
            2041     14.5203E-03     150.009E-03     115.735E-03     13.8197E-03    -195.686E-03     19.8784E-03     109.677E-03    -195.686E-03    -32.5250E-03     421.470E-03    -158.837E-03    -262.633E-03    -252.997E-03     411.835E-03    -158.837E-03     158.256E-03     127.671E+06     45.8112E+06    -16.9410E+06    -11.2431E+06     40.1133E+06     127.671E+06    -8.19020E+06         95.5859
            2042     957.867E-06     147.820E-03         1.13496    -512.313E-03    -514.142E-03    -513.820E-03         1.13464    -512.313E-03     40.7785E-03     93.2234E-03    -45.6685E-03    -47.5549E-03    -47.0608E-03     92.7294E-03    -45.6685E-03     15.0243E-03    -164.681E+06    -286.458E+06    -299.602E+06    -293.888E+06    -170.395E+06    -286.458E+06    -25.6057E+06         32.7648
            2043     1.91217E-03     147.849E-03         1.12729    -508.088E-03    -510.450E-03    -508.795E-03         1.12642    -508.878E-03     69.6311E-03     101.186E-03    -47.5493E-03    -53.6367E-03    -52.0577E-03     99.6070E-03    -47.5493E-03     29.3845E-03    -139.492E+06    -267.212E+06    -299.599E+06    -284.525E+06    -154.566E+06    -267.212E+06    -45.7487E+06         33.3712
            2044     2.86015E-03     147.899E-03         1.11309    -499.392E-03    -504.251E-03    -500.210E-03         1.11168    -502.028E-03     89.1235E-03     114.517E-03    -50.3996E-03    -64.1177E-03    -60.5876E-03     110.987E-03    -50.3996E-03     48.0783E-03    -116.214E+06    -242.163E+06    -295.994E+06    -269.302E+06    -142.906E+06    -242.163E+06    -63.0048E+06         34.3534
            2045     3.80013E-03     147.978E-03         1.08995    -486.256E-03    -493.940E-03    -486.924E-03         1.08825    -491.566E-03     96.4692E-03     134.124E-03    -54.3980E-03    -79.7264E-03    -73.4379E-03     127.836E-03    -54.3980E-03     70.8280E-03    -88.7414E+06    -211.942E+06    -285.975E+06    -247.696E+06    -127.020E+06    -211.942E+06    -76.7748E+06         35.7115
            2046     4.72394E-03     148.088E-03         1.05609    -467.744E-03    -478.876E-03    -467.975E-03         1.05437    -476.928E-03     93.4383E-03     159.546E-03    -59.6088E-03    -99.9368E-03    -90.4591E-03     150.068E-03    -59.6088E-03     96.2473E-03    -64.2993E+06    -178.505E+06    -266.815E+06    -219.167E+06    -111.947E+06    -178.505E+06    -84.6309E+06         37.4259
            2047     5.63232E-03     148.235E-03         1.01016    -443.308E-03    -458.383E-03    -442.627E-03         1.00868    -457.585E-03     82.9089E-03     190.240E-03    -66.0411E-03    -124.199E-03    -111.768E-03     177.809E-03    -66.0411E-03     121.672E-03    -48.0599E+06    -140.814E+06    -240.764E+06    -186.989E+06    -101.834E+06    -140.814E+06    -85.7834E+06         39.4565
            2048     6.52029E-03     148.423E-03     950.435E-03    -410.800E-03    -433.064E-03    -409.655E-03     949.290E-03    -433.064E-03     68.0190E-03     224.991E-03    -73.6344E-03    -151.356E-03    -136.556E-03     210.190E-03    -73.6344E-03     145.600E-03    -30.5541E+06    -98.8677E+06    -207.530E+06    -153.326E+06    -84.7582E+06    -98.8677E+06    -81.5324E+06         41.7415
            2049     7.38635E-03     148.658E-03     876.826E-03    -369.873E-03    -403.182E-03    -369.066E-03     876.019E-03    -403.182E-03     50.9356E-03     261.315E-03    -82.2153E-03    -179.100E-03    -162.878E-03     245.093E-03    -82.2153E-03     165.265E-03    -5.91576E+06    -54.6148E+06    -168.677E+06    -120.414E+06    -55.3599E+06    -53.4338E+06    -73.8755E+06         44.2097
            2050     8.23203E-03     148.927E-03     791.369E-03    -323.266E-03    -368.127E-03    -322.773E-03     790.877E-03    -368.127E-03     32.3621E-03     298.171E-03    -91.5777E-03    -206.593E-03    -189.886E-03     281.464E-03    -91.5777E-03     180.005E-03     14.0551E+06    -14.0702E+06    -131.627E+06    -92.5605E+06    -29.8944E+06    -9.18735E+06    -62.7106E+06         46.8106
            2051     9.05360E-03     149.246E-03     697.381E-03    -273.610E-03    -328.645E-03    -273.316E-03     697.087E-03    -328.645E-03     14.7078E-03     332.285E-03    -101.431E-03    -230.854E-03    -214.539E-03     315.969E-03    -101.431E-03     188.268E-03     30.9594E+06     9.18693E+06    -100.895E+06    -70.9176E+06    -16.6627E+06     26.8312E+06    -49.8217E+06         49.5679
            2052     9.86207E-03     149.583E-03     597.813E-03    -222.933E-03    -286.027E-03    -222.709E-03     597.589E-03    -286.027E-03    -1.14552E-03     362.135E-03    -111.409E-03    -250.727E-03    -235.431E-03     346.840E-03    -111.409E-03     190.498E-03     52.7074E+06     21.5133E+06    -75.4534E+06    -51.9710E+06    -1.96914E+06     52.7074E+06    -39.8222E+06         52.6515
            2053     10.6510E-03     149.949E-03     495.866E-03    -173.447E-03    -241.896E-03    -173.181E-03     495.601E-03    -241.896E-03    -14.7267E-03     386.383E-03    -121.178E-03    -265.205E-03    -251.064E-03     372.242E-03    -121.178E-03     189.335E-03     73.0426E+06     41.8580E+06    -50.1541E+06    -34.5975E+06     26.3014E+06     73.0426E+06    -32.1821E+06         56.4396
            2054     11.4287E-03     150.312E-03     395.664E-03    -128.101E-03    -198.365E-03    -127.590E-03     395.153E-03    -198.365E-03    -26.2313E-03     403.145E-03    -130.392E-03    -272.753E-03    -259.723E-03     390.115E-03    -130.392E-03     185.567E-03     81.8177E+06     47.5200E+06    -31.1411E+06    -23.3996E+06     39.7785E+06     81.8177E+06    -23.3501E+06         61.5130
            2055     12.2063E-03     150.651E-03     299.405E-03    -88.2487E-03    -157.316E-03    -87.3384E-03     298.495E-03    -157.316E-03    -34.4865E-03     415.499E-03    -138.821E-03    -276.678E-03    -264.531E-03     403.352E-03    -138.821E-03     181.572E-03     78.2641E+06     44.6226E+06    -25.9807E+06    -20.0423E+06     38.6842E+06     78.2641E+06    -15.5187E+06         68.4352
            2056     12.9723E-03     150.976E-03     207.985E-03    -52.5432E-03    -121.797E-03    -52.5076E-03     206.444E-03    -120.292E-03    -38.3080E-03     423.354E-03    -146.470E-03    -276.884E-03    -266.111E-03     412.581E-03    -146.470E-03     172.114E-03     76.3296E+06     37.5484E+06    -25.6029E+06    -18.4417E+06     30.3872E+06     76.3296E+06    -13.6910E+06         77.2655
            2057     13.7422E-03     151.243E-03     121.216E-03    -19.2740E-03    -93.3096E-03    -22.0983E-03     118.525E-03    -87.7944E-03    -36.6512E-03     424.798E-03    -153.239E-03    -271.559E-03    -261.378E-03     414.618E-03    -153.239E-03     166.815E-03     77.0280E+06     12.1672E+06    -22.0912E+06    -14.3371E+06     4.41301E+06     77.0280E+06    -10.4489E+06         86.9130
            2058     14.5246E-03     151.505E-03     54.5546E-03     4.78174E-03    -80.7391E-03     6.12646E-03     33.0749E-03    -60.6041E-03    -25.7264E-03     413.894E-03    -159.070E-03    -254.824E-03    -247.088E-03     406.157E-03    -159.070E-03     140.570E-03     141.036E+06     38.1475E+06    -15.4920E+06    -6.20433E+06     28.8599E+06     141.036E+06    -4.57450E+06         95.1185
            2059     949.225E-06     148.920E-03     879.766E-03    -371.872E-03    -375.449E-03    -374.549E-03     878.865E-03    -371.872E-03     60.3217E-03     111.885E-03    -55.3302E-03    -56.5549E-03    -56.2962E-03     111.760E-03    -55.4638E-03     5.90745E-03    -109.863E+06    -197.513E+06    -208.734E+06    -201.369E+06    -117.228E+06    -197.513E+06    -24.3226E+06         33.9736
            2060     1.89551E-03     148.955E-03     877.496E-03    -368.168E-03    -373.839E-03    -371.513E-03     875.170E-03    -368.168E-03     100.731E-03     118.435E-03    -57.1570E-03    -61.2783E-03    -60.8499E-03     118.007E-03    -57.1570E-03     11.6027E-03    -84.8036E+06    -178.257E+06    -213.263E+06    -193.494E+06    -104.572E+06    -178.257E+06    -44.9952E+06         34.5545
            2061     2.83639E-03     149.017E-03     870.687E-03    -360.875E-03    -370.200E-03    -366.095E-03     866.581E-03    -360.875E-03     134.268E-03     129.390E-03    -59.9766E-03    -69.4130E-03    -68.3556E-03     128.332E-03    -59.9766E-03     21.3572E-03    -62.0310E+06    -153.696E+06    -216.595E+06    -181.362E+06    -97.2643E+06    -153.696E+06    -63.9492E+06         35.4885
            2062     3.76652E-03     149.111E-03     857.291E-03    -349.685E-03    -363.425E-03    -357.885E-03     851.751E-03    -349.685E-03     154.111E-03     144.910E-03    -63.8516E-03    -81.0586E-03    -78.9378E-03     142.789E-03    -63.8516E-03     35.0536E-03    -39.4549E+06    -128.858E+06    -216.999E+06    -167.983E+06    -88.4711E+06    -128.858E+06    -79.0173E+06         36.7692
            2063     4.68784E-03     149.243E-03     833.857E-03    -333.946E-03    -351.264E-03    -345.068E-03     827.661E-03    -333.946E-03     159.779E-03     165.965E-03    -68.8268E-03    -97.1382E-03    -93.5075E-03     162.334E-03    -68.8268E-03     52.4285E-03    -24.2310E+06    -110.896E+06    -217.083E+06    -157.825E+06    -83.4893E+06    -110.896E+06    -88.8500E+06         38.3696
            2064     5.59070E-03     149.419E-03     797.412E-03    -312.715E-03    -332.077E-03    -325.733E-03     791.218E-03    -312.865E-03     154.066E-03     192.868E-03    -75.0011E-03    -117.867E-03    -112.471E-03     187.472E-03    -75.0011E-03     73.1273E-03    -15.3888E+06    -98.4956E+06    -216.935E+06    -149.912E+06    -82.4127E+06    -98.4956E+06    -94.7836E+06         40.2400
            2065     6.47253E-03     149.644E-03     746.421E-03    -284.285E-03    -306.333E-03    -299.092E-03     740.785E-03    -285.891E-03     139.913E-03     223.934E-03    -82.3479E-03    -141.586E-03    -134.455E-03     216.803E-03    -82.3479E-03     94.3028E-03    -3.42789E+06    -80.7208E+06    -210.687E+06    -139.224E+06    -74.8902E+06    -80.7208E+06    -98.2716E+06         42.3085
            2066     7.33600E-03     149.912E-03     680.763E-03    -247.923E-03    -274.996E-03    -265.284E-03     676.005E-03    -252.877E-03     120.337E-03     258.312E-03    -90.7355E-03    -167.577E-03    -159.146E-03     249.881E-03    -90.7355E-03     112.739E-03     12.8962E+06    -54.9152E+06    -195.187E+06    -124.868E+06    -57.4231E+06    -54.9152E+06    -97.8191E+06         44.4931
            2067     8.17375E-03     150.231E-03     603.394E-03    -206.084E-03    -238.683E-03    -226.521E-03     599.414E-03    -214.266E-03     99.5588E-03     292.790E-03    -99.9465E-03    -192.843E-03    -183.707E-03     283.654E-03    -99.9465E-03     126.625E-03     18.7458E+06    -24.7108E+06    -172.064E+06    -106.508E+06    -46.8101E+06    -24.7108E+06    -89.8741E+06         46.7351
            2068     8.99388E-03     150.583E-03     517.859E-03    -160.986E-03    -199.223E-03    -185.638E-03     514.560E-03    -171.272E-03     79.4458E-03     323.837E-03    -109.547E-03    -214.290E-03    -205.022E-03     314.570E-03    -109.547E-03     135.568E-03     26.3263E+06     475.696E+03    -142.733E+06    -83.5828E+06    -39.9269E+06     7.57886E+06    -77.4628E+06         49.0589
            2069     9.79308E-03     150.963E-03     428.119E-03    -114.434E-03    -159.277E-03    -145.387E-03     425.343E-03    -125.548E-03     60.8186E-03     350.646E-03    -119.036E-03    -231.609E-03    -222.351E-03     341.387E-03    -119.036E-03     143.148E-03     41.3396E+06     15.6187E+06    -111.576E+06    -62.5635E+06    -26.4483E+06     34.3937E+06    -64.2541E+06         51.6483
            2070     10.5801E-03     151.360E-03     338.754E-03    -68.9679E-03    -121.779E-03    -108.965E-03     336.340E-03    -79.3683E-03     43.9267E-03     369.603E-03    -127.957E-03    -241.646E-03    -232.342E-03     360.298E-03    -127.957E-03     148.421E-03     60.7468E+06     32.8360E+06    -80.0662E+06    -46.9149E+06     819.441E+03     59.6120E+06    -50.4034E+06         54.9326
            2071     11.3714E-03     151.740E-03     252.367E-03    -26.9250E-03    -88.2830E-03    -78.0111E-03     250.370E-03    -35.1994E-03     28.0189E-03     383.089E-03    -136.029E-03    -247.060E-03    -237.699E-03     373.728E-03    -136.029E-03     151.833E-03     84.5803E+06     27.0843E+06    -51.7671E+06    -35.2339E+06     10.5510E+06     84.5803E+06    -31.2793E+06         59.5962
            2072     12.1531E-03     152.115E-03     180.179E-03     554.477E-06    -59.5923E-03    -53.6949E-03     169.709E-03     5.12749E-03     13.4842E-03     394.070E-03    -143.152E-03    -250.919E-03    -241.542E-03     384.694E-03    -143.152E-03     154.137E-03     98.9696E+06     28.4661E+06    -32.3362E+06     -26.376E+06     22.5059E+06     98.9696E+06    -13.4817E+06         66.3765
            2073     12.9433E-03     152.449E-03     137.418E-03     310.938E-06    -38.5553E-03    -36.0856E-03     95.3013E-03     39.9582E-03     1.04614E-03     401.882E-03    -149.399E-03    -252.483E-03    -243.600E-03     392.999E-03    -149.399E-03     151.101E-03     96.1011E+06     45.2014E+06    -26.0107E+06    -20.1584E+06     39.3492E+06     96.1011E+06    -8.47202E+06         75.4910
            2074     13.7286E-03     152.748E-03     111.443E-03    -9.72510E-03    -30.9417E-03    -23.4974E-03     26.0996E-03     68.1743E-03    -8.82811E-03     405.779E-03    -154.924E-03    -250.855E-03    -242.546E-03     397.470E-03    -154.924E-03     146.584E-03     78.5692E+06     17.0775E+06    -30.5715E+06    -15.5510E+06     2.05700E+06     78.5692E+06    -9.07806E+06         85.9047
            2075     14.5057E-03     152.993E-03     97.1350E-03    -9.38550E-03    -51.9528E-03    -12.8975E-03    -39.5619E-03     88.2562E-03    -11.5499E-03     396.220E-03    -159.794E-03    -236.426E-03    -230.400E-03     390.194E-03    -159.794E-03     121.216E-03     134.509E+06     30.9395E+06    -27.3823E+06    -11.6202E+06     15.1774E+06     134.509E+06    -5.55396E+06         94.8570
            2076     928.696E-06     150.054E-03     584.042E-03    -214.849E-03    -218.892E-03    -216.314E-03     581.955E-03    -215.340E-03     72.8795E-03     157.805E-03    -78.3591E-03    -79.4463E-03    -78.9527E-03     157.668E-03    -78.7149E-03    -8.07208E-03    -51.8015E+06    -93.7997E+06    -110.975E+06    -96.7586E+06    -66.0178E+06    -93.7997E+06    -21.8450E+06         35.9874
            2077     1.85430E-03     150.095E-03     587.280E-03    -209.557E-03    -220.045E-03    -214.044E-03     581.280E-03    -209.557E-03     125.575E-03     164.173E-03    -80.5161E-03    -83.6572E-03    -83.2546E-03     163.771E-03    -80.5161E-03    -14.6281E-03    -31.1527E+06    -78.3988E+06    -118.277E+06    -93.2080E+06    -56.2216E+06    -78.3988E+06    -37.7424E+06         36.5238
            2078     2.77255E-03     150.166E-03     589.713E-03    -201.060E-03    -221.147E-03    -209.970E-03     578.536E-03    -201.060E-03     173.852E-03     173.790E-03    -83.6275E-03    -90.1621E-03    -89.2790E-03     172.907E-03    -83.6275E-03    -20.4294E-03    -13.9089E+06    -60.7497E+06    -127.934E+06    -89.9362E+06    -51.9064E+06    -60.7497E+06    -53.0908E+06         37.3716
            2079     3.68421E-03     150.272E-03     588.494E-03    -188.648E-03    -220.646E-03    -204.314E-03     572.163E-03    -188.648E-03     208.928E-03     185.395E-03    -87.6571E-03    -97.7382E-03    -96.2949E-03     183.952E-03    -87.6571E-03    -23.3903E-03    -2.45142E+06    -47.2698E+06    -136.583E+06    -88.0186E+06    -51.0158E+06    -47.2698E+06    -63.8081E+06         38.5085
            2080     4.58176E-03     150.419E-03     579.732E-03    -171.481E-03    -216.536E-03    -196.118E-03     559.315E-03    -171.481E-03     229.286E-03     199.456E-03    -92.5407E-03    -106.915E-03    -105.088E-03     197.629E-03    -92.5407E-03    -21.1213E-03     4.83972E+06    -35.1608E+06    -141.094E+06     -85.423E+06    -50.8315E+06    -35.1608E+06    -70.1136E+06         39.8964
            2081     5.46714E-03     150.616E-03     558.668E-03    -148.655E-03    -206.048E-03    -183.491E-03     536.111E-03    -148.655E-03     234.095E-03     216.890E-03    -98.3550E-03    -118.535E-03    -116.246E-03     214.601E-03    -98.3550E-03    -14.9067E-03     11.3024E+06    -23.6287E+06    -143.232E+06    -80.3755E+06    -51.5545E+06    -23.6287E+06    -75.2137E+06         41.4792
            2082     6.33927E-03     150.862E-03     522.182E-03    -119.585E-03    -187.499E-03    -164.433E-03     499.116E-03    -119.585E-03     225.073E-03     237.513E-03    -105.139E-03    -132.374E-03    -129.435E-03     234.574E-03    -105.139E-03    -8.19693E-03     19.4646E+06    -10.8771E+06    -141.918E+06    -74.2840E+06    -49.1140E+06    -9.93253E+06    -78.7964E+06         43.1805
            2083     7.18952E-03     151.162E-03     470.374E-03    -84.0436E-03    -161.796E-03    -138.767E-03     447.345E-03    -84.0436E-03     207.239E-03     259.942E-03    -112.763E-03    -147.179E-03    -143.845E-03     256.608E-03    -112.763E-03     558.438E-06     30.4273E+06     1.46141E+06    -135.952E+06    -69.6799E+06    -40.2700E+06     5.88689E+06    -79.3986E+06         44.9190
            2084     8.02127E-03     151.513E-03     406.820E-03    -42.6432E-03    -132.624E-03    -108.673E-03     382.868E-03    -42.6432E-03     188.361E-03     281.484E-03    -120.851E-03    -160.633E-03    -157.283E-03     278.134E-03    -120.851E-03     9.46387E-03     36.3607E+06     4.74445E+06    -132.120E+06    -68.2203E+06    -38.9413E+06     16.1466E+06    -77.1241E+06         46.6439
            2085     8.83716E-03     151.894E-03     337.832E-03     3.01258E-03    -105.258E-03    -78.4636E-03     311.037E-03     3.01258E-03     171.023E-03     300.666E-03    -128.536E-03    -172.130E-03    -168.557E-03     297.453E-03    -128.896E-03     20.0714E-03     37.6817E+06     7.22140E+06    -131.312E+06    -69.7249E+06    -39.7469E+06     23.0625E+06    -74.9223E+06         48.3917
            2086     9.64388E-03     152.309E-03     268.622E-03     50.6481E-03    -83.6491E-03    -52.7838E-03     237.757E-03     50.6481E-03     153.960E-03     314.982E-03    -133.095E-03    -181.887E-03    -175.350E-03     311.684E-03    -136.334E-03     35.3759E-03     39.0891E+06     10.7456E+06    -126.606E+06    -71.1536E+06    -37.7608E+06     32.1432E+06    -69.8599E+06         50.3717
            2087     10.4531E-03     152.724E-03     224.395E-03     74.7721E-03    -68.7348E-03    -33.7776E-03     166.810E-03     97.4000E-03     134.185E-03     324.878E-03    -136.214E-03    -188.663E-03    -178.772E-03     321.453E-03    -142.682E-03     53.6017E-03     49.6859E+06     18.7442E+06    -114.074E+06    -71.7382E+06    -22.4572E+06     48.5511E+06    -61.3213E+06         53.0653
            2088     11.2545E-03     153.134E-03     205.582E-03     74.4758E-03    -60.5712E-03    -22.2952E-03     101.020E-03     140.761E-03     110.986E-03     334.676E-03    -141.512E-03    -193.164E-03    -182.926E-03     330.751E-03    -147.825E-03     77.0845E-03     68.3758E+06     13.3061E+06    -98.6971E+06    -63.7474E+06    -21.6436E+06     68.3758E+06    -49.6860E+06         57.2761
            2089     12.0654E-03     153.523E-03     196.636E-03     64.0084E-03    -58.5296E-03    -18.3167E-03     41.4093E-03     179.022E-03     86.2134E-03     346.479E-03    -149.165E-03    -197.315E-03    -189.192E-03     341.082E-03    -151.890E-03     103.942E-03     84.0103E+06     12.9104E+06    -70.4889E+06    -45.6029E+06    -11.9756E+06     84.0103E+06    -34.5694E+06         63.9784
            2090     12.8695E-03     153.885E-03     210.574E-03     28.7214E-03    -61.7533E-03    -21.0500E-03    -11.9819E-03     210.574E-03     59.7488E-03     360.057E-03    -155.205E-03    -204.852E-03    -197.523E-03     352.728E-03    -155.205E-03     126.934E-03     94.8976E+06     34.9557E+06    -38.4688E+06    -24.7887E+06     21.2756E+06     94.8976E+06    -19.7711E+06         73.7451
            2091     13.6741E-03     154.201E-03     233.883E-03    -14.1621E-03    -74.3198E-03    -29.2211E-03    -59.2608E-03     233.883E-03     32.8877E-03     372.370E-03    -158.197E-03    -214.173E-03    -205.411E-03     363.609E-03    -158.197E-03     141.172E-03     94.0205E+06     21.1786E+06    -31.5605E+06    -10.2498E+06    -132.172E+03     94.0205E+06    -6.34682E+06         85.5585
            2092     14.4954E-03     154.456E-03     246.137E-03    -37.6210E-03    -103.496E-03    -39.0339E-03    -102.083E-03     246.137E-03     10.3040E-03     370.469E-03    -161.099E-03    -209.370E-03    -203.235E-03     364.334E-03    -161.099E-03     114.383E-03     147.974E+06     41.5559E+06    -30.2445E+06     764.476E+03     10.5470E+06     147.974E+06    -1.59364E+06         96.1320
            2093     893.577E-06     151.258E-03     263.810E-03    -53.0341E-03    -59.4897E-03    -51.9694E-03     256.781E-03    -53.5256E-03     63.4063E-03     239.800E-03    -119.296E-03    -120.504E-03    -119.568E-03     239.086E-03    -119.518E-03    -29.3833E-03     24.4629E+06     13.2216E+06    -35.1316E+06     10.5393E+06    -24.5018E+06     16.5154E+06    -13.8147E+06         38.1080
            2094     1.78262E-03     151.308E-03     274.035E-03    -44.6126E-03    -64.8347E-03    -43.3832E-03     252.584E-03    -44.6126E-03     116.913E-03     246.614E-03    -121.927E-03    -124.687E-03    -122.553E-03     244.481E-03    -121.927E-03    -53.2335E-03     35.5753E+06     17.2019E+06    -38.2123E+06     7.94437E+06    -18.7705E+06     25.3911E+06    -21.2882E+06         38.6061
            2095     2.66385E-03     151.389E-03     291.462E-03    -32.6738E-03    -74.6713E-03    -31.7207E-03     248.511E-03    -32.6738E-03     169.682E-03     256.338E-03    -125.468E-03    -130.870E-03    -126.445E-03     251.912E-03    -125.468E-03    -79.3117E-03     45.9457E+06     20.4263E+06    -45.2704E+06     3.98402E+06     -18.584E+06     35.7016E+06    -27.5014E+06         39.3761
            2096     3.53366E-03     151.502E-03     310.963E-03    -16.4062E-03    -86.1712E-03    -17.5196E-03     242.312E-03    -16.4062E-03     218.250E-03     267.432E-03    -130.009E-03    -137.423E-03    -129.990E-03     259.999E-03    -130.009E-03    -104.770E-03     53.3906E+06     21.0909E+06    -51.4753E+06    -770.595E+03    -20.7294E+06     44.5062E+06    -32.5672E+06         40.3757
            2097     4.39696E-03     151.657E-03     328.725E-03     4.90411E-03    -98.2394E-03    -2.64613E-03     233.132E-03     4.90411E-03     261.345E-03     278.809E-03    -135.414E-03    -143.394E-03    -132.157E-03     267.571E-03    -135.414E-03    -128.701E-03     60.0843E+06     21.9061E+06    -55.7797E+06    -5.00924E+06    -22.6714E+06     53.8914E+06    -36.4599E+06         41.5481
            2098     5.24769E-03     151.860E-03     340.012E-03     31.8439E-03    -108.872E-03     12.0994E-03     219.041E-03     31.8439E-03     294.117E-03     289.020E-03    -141.133E-03    -147.887E-03    -132.076E-03     273.606E-03    -141.530E-03    -149.533E-03     66.3981E+06     23.6982E+06    -59.3430E+06    -9.35923E+06    -23.5901E+06     63.7026E+06    -39.5217E+06         42.8254
            2099     6.07986E-03     152.116E-03     339.576E-03     64.7914E-03    -115.855E-03     26.7891E-03     196.932E-03     64.7914E-03     314.820E-03     297.201E-03    -144.089E-03    -153.112E-03    -130.053E-03     278.173E-03    -148.120E-03    -164.687E-03     71.4974E+06     24.9716E+06    -61.1425E+06    -14.6783E+06    -20.7863E+06     70.7911E+06    -42.2263E+06         44.1319
            2100     6.90073E-03     152.420E-03     324.801E-03     103.580E-03    -118.740E-03     40.9036E-03     165.158E-03     103.580E-03     323.814E-03     301.424E-03    -142.331E-03    -159.093E-03    -124.912E-03     279.705E-03    -154.793E-03    -171.268E-03     76.6912E+06     22.0876E+06    -61.5925E+06    -20.8783E+06    -18.6266E+06     76.6912E+06    -40.8826E+06         45.4004
            2101     7.71332E-03     152.774E-03     297.245E-03     147.289E-03    -119.776E-03     52.7622E-03     124.707E-03     147.289E-03     323.982E-03     300.575E-03    -136.659E-03    -163.916E-03    -117.252E-03     278.232E-03    -160.980E-03    -166.349E-03     84.0172E+06     18.0955E+06    -59.6687E+06    -25.1220E+06    -16.4512E+06     84.0172E+06    -37.7728E+06         46.6038
            2102     8.52155E-03     153.166E-03     275.706E-03     179.317E-03    -122.042E-03     59.6986E-03     79.2072E-03     194.075E-03     316.636E-03     295.797E-03    -128.509E-03    -167.288E-03    -109.069E-03     275.208E-03    -166.139E-03    -150.528E-03     89.4470E+06     13.3312E+06    -57.2818E+06    -28.1130E+06    -15.8376E+06     89.4470E+06    -33.4946E+06         47.8043
            2103     9.33369E-03     153.577E-03     268.779E-03     192.101E-03    -126.343E-03     60.0726E-03     33.4085E-03     241.055E-03     299.715E-03     286.539E-03    -116.769E-03    -169.769E-03    -99.6189E-03     269.388E-03    -169.769E-03    -126.778E-03     94.0422E+06     11.0143E+06    -55.8971E+06    -28.9529E+06    -15.9300E+06     94.0422E+06    -31.3253E+06         49.2336
            2104     10.1576E-03     153.996E-03     286.532E-03     173.900E-03    -130.973E-03     54.1935E-03    -10.1243E-03     285.390E-03     271.074E-03     275.504E-03    -103.941E-03    -171.563E-03    -91.1935E-03     262.756E-03    -171.563E-03    -94.7330E-03     97.1013E+06     13.7062E+06    -59.0884E+06    -29.0400E+06    -16.3423E+06     97.1013E+06    -27.4688E+06         51.4034
            2105     11.0075E-03     154.418E-03     325.081E-03     128.344E-03    -136.376E-03     41.0383E-03    -49.0702E-03     325.081E-03     233.932E-03     267.951E-03    -96.2810E-03    -171.670E-03    -87.1197E-03     258.789E-03    -171.670E-03    -57.8269E-03     95.6845E+06     18.0012E+06    -58.5359E+06    -26.7717E+06    -13.7630E+06     95.6845E+06    -27.6986E+06         55.2143
            2106     11.8704E-03     154.826E-03     358.685E-03     80.0658E-03    -141.745E-03     20.4651E-03    -82.1440E-03     358.685E-03     189.984E-03     266.541E-03    -94.6614E-03    -171.880E-03    -88.6582E-03     259.239E-03    -170.581E-03    -18.5540E-03     87.2927E+06     12.8464E+06    -58.5355E+06    -25.6273E+06    -20.0619E+06     87.2927E+06    -25.4037E+06         61.8985
            2107     12.7484E-03     155.227E-03     384.817E-03     30.2212E-03    -146.290E-03    -6.12559E-03    -109.943E-03     384.817E-03     140.541E-03     271.719E-03    -95.8099E-03    -175.909E-03    -95.7480E-03     264.611E-03    -168.863E-03     19.0524E-03     91.7429E+06     28.6462E+06    -51.1214E+06    -25.8190E+06     3.34389E+06     91.7429E+06    -24.3424E+06         72.4389
            2108     13.6297E-03     155.579E-03     401.852E-03    -19.3565E-03    -150.215E-03    -37.7355E-03    -131.836E-03     401.852E-03     89.6377E-03     283.689E-03    -100.776E-03    -182.913E-03    -110.196E-03     277.232E-03    -167.036E-03     53.3036E-03     100.319E+06     21.4771E+06    -56.6248E+06    -18.2666E+06    -16.8811E+06     100.319E+06    -13.0359E+06         85.9832
            2109     14.4729E-03     155.881E-03     405.604E-03    -64.2664E-03    -154.841E-03    -70.3861E-03    -148.722E-03     405.604E-03     40.0850E-03     290.895E-03    -109.066E-03    -181.830E-03    -122.163E-03     287.475E-03    -165.313E-03     54.8376E-03     146.188E+06     42.8597E+06    -45.8083E+06     1.88967E+06    -4.83823E+06     146.188E+06    -234.987E+03         98.6484


