********************************************************************************
Field Output Report, written Tue May  6 13:55:51 2025

Source 1
---------

   ODB: D:/AISI_1020/Vel_40/aisi_1020_2a_40_red_2000_cal_10_vel_40_fric_025.odb
   Step: Step-1
   Frame: Increment   3547586: Step Time =   0.3648

Loc 1 : Nodal values from source 1

Output sorted by column "Node Label".

Field Output reported at nodes for region: DIE_2A_40_D0_36-1.Region_1
   Computation algorithm: EXTRAPOLATE_COMPUTE_AVERAGE
   Averaged at nodes
   Averaging regions: ODB_REGIONS

      Node Label     COORD.COOR1     COORD.COOR2
                          @Loc 1          @Loc 1
-------------------------------------------------
               1     19.3251E-03     175.703E-03


Field Output reported at nodes for region: DIE_2A_40_D0_36-1.Region_2
   Computation algorithm: EXTRAPOLATE_COMPUTE_AVERAGE
   Averaged at nodes
   Averaging regions: ODB_REGIONS

      Node Label     COORD.COOR1     COORD.COOR2
                          @Loc 1          @Loc 1
-------------------------------------------------
               1     19.3251E-03     175.703E-03


Field Output reported at nodes for part: WIRE_1-1
   Computation algorithm: EXTRAPOLATE_COMPUTE_AVERAGE
   Averaged at nodes
   Averaging regions: ODB_REGIONS

      Node Label     COORD.COOR1     COORD.COOR2    ER.Max. Prin    ER.Mid. Prin    ER.Min. Prin         ER.ER11         ER.ER22         ER.ER33         ER.ER12    PE.Max. Prin    PE.Mid. Prin    PE.Min. Prin         PE.PE11         PE.PE22         PE.PE33         PE.PE12     S.Max. Prin     S.Mid. Prin     S.Min. Prin           S.S11           S.S22           S.S33           S.S12            TEMP
                          @Loc 1          @Loc 1          @Loc 1          @Loc 1          @Loc 1          @Loc 1          @Loc 1          @Loc 1          @Loc 1          @Loc 1          @Loc 1          @Loc 1          @Loc 1          @Loc 1          @Loc 1          @Loc 1          @Loc 1          @Loc 1          @Loc 1          @Loc 1          @Loc 1          @Loc 1          @Loc 1          @Loc 1
-----------------------------------------------------------------------------------------------------------------------------------------------------------------------------------------------------------------------------------------------------------------------------------------------------------------------------------------------------------------------------------------------------------------
               1     13.9468E-03     93.4453E-03         1.92012         1.24622        -4.70421         1.20270        -4.66069         1.92012        -1.01387     519.688E-03    -256.046E-03    -263.642E-03    -258.495E-03     514.541E-03    -256.046E-03     126.552E-03     52.6422E+06     7.44005E+06    -1.70714E+06    -1.70307E+06     7.43599E+06     52.6422E+06    -141.647E+03         83.8451
               2     1.94841E-06     91.2205E-03         3.30903         2.61095        -8.15809         2.31315        -7.16221         2.61095         6.45142     509.450E-03    -253.033E-03    -256.417E-03    -255.688E-03     509.448E-03    -253.760E-03    -1.33404E-03     -94.193E+06    -100.480E+06    -113.088E+06    -96.9604E+06    -112.904E+06    -97.8973E+06     899.692E+03         64.7427
               3     1.34155E-06     97.1445E-18         1.36281         1.28071        -1.17790         1.35892        -1.17401         1.28071     198.699E-03     737.450E-03    -367.425E-03    -370.025E-03    -367.404E-03     737.429E-03    -370.025E-03     9.73785E-03    -5.80994E+06    -6.93403E+06    -37.0617E+06    -5.97305E+06    -36.8986E+06    -6.93403E+06    -2.25183E+06         73.2338
               4     13.6268E-03     97.1445E-18         1.17581     689.342E-03    -702.139E-03    -697.551E-03         1.17122     689.342E-03     185.419E-03     929.071E-03    -266.795E-03    -662.276E-03    -637.972E-03     904.768E-03    -266.795E-03     390.304E-03     31.0925E+06     5.25502E+06    -26.4362E+06     4.27547E+06    -25.4566E+06     31.0925E+06    -5.48484E+06         85.3251
               5     14.4170E-03     184.745E-03         1.85343         1.37126        -5.66206         1.39012         1.83457        -5.66206    -186.948E-03     120.330E-03     113.248E-03    -233.578E-03     113.257E-03     120.321E-03    -233.578E-03     504.720E-06     120.383E+06     7.03105E+06    -4.19489E+06     6.21944E+06    -3.38328E+06     120.383E+06     2.90730E+06         60.7586
               6    -232.004E-09     177.667E-03         1.16765        -2.28923        -2.51762        -2.28838         1.16681        -2.51762    -108.078E-03     318.627E-03    -158.957E-03    -159.670E-03    -159.009E-03     317.965E-03    -158.957E-03    -35.5476E-03    -20.9687E+06    -42.9543E+06    -53.5516E+06    -47.2603E+06    -27.2601E+06    -42.9543E+06    -12.8612E+06         42.8377
               7     13.1718E-03     93.2446E-03         1.94256         1.38937        -4.89552         1.32803        -4.83418         1.94256        -1.22418     534.590E-03    -255.998E-03    -278.591E-03    -261.969E-03     517.968E-03    -255.998E-03     214.596E-03     48.9559E+06     6.73743E+06    -3.61474E+06    -3.49455E+06     6.61724E+06     48.9559E+06    -161.932E+03         83.0914
               8     12.4007E-03     92.7737E-03         1.98372         1.56264        -5.15224         1.50769        -5.09729         1.98372        -1.16739     533.711E-03    -255.950E-03    -277.761E-03    -258.373E-03     514.323E-03    -255.950E-03     241.948E-03     41.9613E+06     3.27669E+06    -6.51806E+06    -6.20058E+06     2.95922E+06     41.9613E+06     519.630E+03         81.4676
               9     11.6234E-03     92.5200E-03         2.01919         1.61898        -5.27041         1.58232        -5.23375         2.01919    -990.458E-03     520.011E-03    -255.996E-03    -264.015E-03    -250.996E-03     506.992E-03    -255.996E-03     199.569E-03     37.2864E+06    -87.2420E+03    -9.02649E+06    -8.68806E+06    -425.673E+03     37.2864E+06     1.14536E+06         79.7167
              10     10.8473E-03     92.2076E-03         2.05485         1.61455        -5.31511         1.59273        -5.29329         2.05485    -524.373E-03     518.967E-03    -256.061E-03    -262.906E-03    -250.074E-03     506.134E-03    -256.061E-03     197.749E-03     34.9492E+06    -2.67691E+06    -12.2095E+06    -12.0008E+06    -2.88567E+06     34.9492E+06     1.08769E+06         78.0222
              11     10.0706E-03     91.9759E-03         2.09627         1.64303        -5.39068         1.58681        -5.33447         2.09627     901.650E-03     515.755E-03    -256.044E-03    -259.711E-03    -249.696E-03     505.740E-03    -256.044E-03     175.088E-03     34.9857E+06    -5.57601E+06    -16.1446E+06    -16.0571E+06    -5.66352E+06     34.9857E+06     851.994E+03         76.4850
              12     9.29825E-03     91.7506E-03         2.14249         1.76629        -5.56681         1.65231        -5.45283         2.14249         1.80907     513.392E-03    -255.604E-03    -257.788E-03    -248.800E-03     504.763E-03    -255.963E-03     161.886E-03     35.2316E+06    -7.68543E+06    -20.4985E+06    -20.4787E+06    -7.70522E+06     35.2316E+06     413.691E+03         75.1074
              13     8.52560E-03     91.5581E-03         2.18512         1.88326        -5.74186         1.82155        -5.68015         2.18512         1.15275     509.425E-03    -253.481E-03    -255.944E-03    -246.958E-03     502.902E-03    -255.944E-03     140.066E-03     33.7916E+06    -10.6311E+06    -25.0897E+06    -25.0826E+06    -10.6382E+06     33.7916E+06     251.402E+03         73.8366
              14     7.74695E-03     91.4098E-03         2.26061         2.02111        -5.98489         2.05910        -5.97452         2.21226     569.346E-03     507.920E-03    -251.921E-03    -255.999E-03    -247.195E-03     503.195E-03    -255.999E-03     119.031E-03     28.7884E+06    -16.0186E+06    -30.6154E+06    -30.5460E+06    -16.0880E+06     28.7884E+06     800.379E+03         72.6170
              15     6.97234E-03     91.2936E-03         2.37091         2.12045        -6.23201         2.25483        -6.21290         2.21742    -118.095E-03     508.001E-03    -251.983E-03    -256.018E-03    -248.943E-03     504.961E-03    -256.018E-03     94.8641E-03     19.8361E+06    -23.2948E+06    -37.2891E+06    -37.1404E+06    -23.4435E+06     19.8361E+06     1.42608E+06         71.4179
              16     6.19849E-03     91.2200E-03         2.42555         2.16206        -6.37439         2.31537        -6.30794         2.20579        -1.43146     507.616E-03    -251.602E-03    -256.014E-03    -249.946E-03     505.960E-03    -256.014E-03     70.0470E-03     10.8536E+06    -30.6621E+06    -44.3630E+06    -44.1281E+06    -30.8970E+06     10.8536E+06     1.66440E+06         70.2379
              17     5.42239E-03     91.1744E-03         2.34121         2.18704        -6.36855         2.25756        -6.28885         2.19098        -1.63092     507.999E-03    -251.959E-03    -256.041E-03    -251.087E-03     507.128E-03    -256.041E-03     50.6602E-03     1.60238E+06    -39.1769E+06    -51.6376E+06    -51.4070E+06    -39.4075E+06     1.60238E+06     1.55599E+06         69.0991
              18     4.64814E-03     91.1509E-03         2.22522         2.11537        -6.24560         2.12395        -6.21856         2.18961    -573.983E-03     509.322E-03    -253.296E-03    -256.025E-03    -252.901E-03     508.926E-03    -256.025E-03     33.7476E-03    -10.0264E+06    -48.7339E+06    -59.1977E+06    -59.0610E+06    -48.8706E+06    -10.0264E+06     1.16426E+06         68.0365
              19     3.87250E-03     91.1541E-03         2.22548         2.09144        -6.29213         2.02826        -6.21667         2.21320         1.19537     510.096E-03    -254.164E-03    -255.931E-03    -254.021E-03     509.952E-03    -255.931E-03     20.1821E-03    -25.4489E+06    -59.7496E+06    -67.8289E+06    -67.4484E+06    -60.1301E+06    -25.4489E+06     1.31258E+06         67.0849
              20     3.09878E-03     91.1651E-03         2.31134         2.14291        -6.50519         2.03026        -6.34246         2.26125         2.35163     510.503E-03    -254.680E-03    -255.823E-03    -254.641E-03     510.464E-03    -255.823E-03     9.64325E-03    -42.9177E+06    -72.0432E+06    -77.2417E+06    -76.5192E+06    -72.7658E+06    -42.9177E+06     1.55155E+06         66.2729
              21     2.32544E-03     91.1814E-03         2.62073         2.25417        -7.00158         2.11942        -6.57109         2.32499         3.79862     511.009E-03    -255.306E-03    -255.703E-03    -255.324E-03     511.005E-03    -255.682E-03     2.00430E-03    -61.2424E+06    -82.8334E+06    -87.0720E+06    -84.4479E+06    -85.4575E+06    -61.2424E+06     1.40181E+06         65.6216
              22     1.54954E-03     91.2062E-03         2.64835         2.37579        -7.21186         2.26494        -6.84308         2.39042         3.26108     511.168E-03    -255.195E-03    -255.973E-03    -255.774E-03     511.167E-03    -255.393E-03    -1.02796E-03    -78.5149E+06    -89.8772E+06    -97.5841E+06    -90.2136E+06    -97.2477E+06    -78.5149E+06     1.49931E+06         65.1445
              23     774.484E-06     91.2160E-03         2.86523         2.50157        -7.59451         2.32547        -7.06937         2.51619         3.92796     510.282E-03    -253.916E-03    -256.366E-03    -255.802E-03     510.280E-03    -254.478E-03    -1.39703E-03    -90.2170E+06    -96.3292E+06    -107.923E+06    -94.7136E+06    -107.686E+06    -92.0691E+06     1.29664E+06         64.8467
              24    -3.05387E-06     89.5660E-03         3.21626         2.69882        -8.18887         2.23365        -7.60168         3.09424         4.75869     509.903E-03    -253.759E-03    -256.144E-03    -255.415E-03     509.901E-03    -254.487E-03    -1.29362E-03    -93.4518E+06    -97.7554E+06    -112.136E+06    -96.1506E+06    -112.020E+06    -95.1723E+06     601.492E+03         64.7677
              25     5.62791E-06     87.8900E-03         3.53852         2.24484        -8.11915         2.09950        -7.97381         3.53852         1.37740     512.396E-03    -254.834E-03    -257.561E-03    -257.559E-03     512.393E-03    -254.834E-03    -1.72967E-03    -90.3312E+06    -92.4741E+06    -107.607E+06    -90.8515E+06    -107.509E+06    -92.0518E+06     941.422E+03         64.8043
              26    -3.97564E-06     86.2232E-03         3.46925         1.75894        -7.57932         1.41295        -7.23333         3.46925        -2.66700     512.602E-03    -255.278E-03    -257.324E-03    -257.321E-03     512.599E-03    -255.278E-03    -1.22483E-03    -89.4468E+06    -92.0181E+06    -106.499E+06    -92.0659E+06    -106.452E+06    -89.4468E+06    -580.624E+03         64.8439
              27     5.53686E-06     84.5523E-03         2.76827         1.76187        -6.92173     167.811E-03        -5.13331         2.57392        -6.56329     513.709E-03    -254.741E-03    -258.968E-03    -258.965E-03     513.706E-03    -254.741E-03    -920.951E-06    -90.6902E+06    -98.5428E+06    -111.221E+06    -92.9003E+06    -111.160E+06    -96.3938E+06    -182.038E+03         64.8798
              28    -560.331E-09     82.8731E-03         3.09035         2.11132        -7.60761    -484.332E-03        -4.03293         2.11132        -10.0881     511.649E-03    -253.198E-03    -258.452E-03    -256.445E-03     511.647E-03    -255.201E-03    -582.092E-06    -82.7777E+06    -93.4356E+06    -105.780E+06    -87.9609E+06    -105.550E+06    -88.4813E+06     1.56339E+06         64.9073
              29    -2.46511E-06     81.2198E-03         4.01762         2.52078        -9.00227     137.413E-03        -5.12206         2.52078        -11.8425     510.774E-03    -254.208E-03    -256.566E-03    -254.203E-03     510.768E-03    -256.566E-03    -1.36863E-03    -80.5719E+06    -89.4263E+06    -104.378E+06    -86.3150E+06    -103.589E+06    -84.4721E+06    -1.41657E+06         64.9266
              30     1.86572E-06     79.5421E-03         3.74960         2.43110        -8.72753     603.140E-03        -5.58107         2.43110        -10.8361     511.636E-03    -254.790E-03    -256.846E-03    -256.488E-03     511.632E-03    -255.144E-03    -2.60339E-03    -87.1531E+06    -92.6349E+06    -111.062E+06    -89.8297E+06    -109.967E+06    -91.0533E+06    -357.642E+03         64.9436
              31     808.742E-09     77.8778E-03         2.68823         1.28695        -6.55613     295.905E-03        -4.16380         1.28695        -8.09243     511.178E-03    -254.542E-03    -256.636E-03    -256.636E-03     511.178E-03    -254.542E-03    -617.342E-06    -85.4451E+06    -87.8601E+06    -107.661E+06    -87.6440E+06    -107.044E+06    -86.2785E+06     1.23142E+06         64.9639
              32    -199.730E-09     76.2108E-03         1.55609     302.341E-03        -4.54132     375.257E-03        -3.36049     302.341E-03        -4.52918     512.516E-03    -255.573E-03    -256.943E-03    -256.942E-03     512.515E-03    -255.573E-03    -1.49600E-03    -84.8722E+06    -85.8150E+06    -106.157E+06    -85.0794E+06    -106.059E+06    -85.7056E+06    -840.748E+03         64.9872
              33     1.72244E-06     74.5373E-03         1.38873     135.093E-03        -4.26363         1.17390        -4.04880     135.093E-03    -641.776E-03     512.235E-03    -255.574E-03    -256.661E-03    -256.659E-03     512.233E-03    -255.574E-03    -2.43302E-03    -84.8080E+06    -85.2437E+06    -106.962E+06    -85.0129E+06    -106.867E+06    -85.1343E+06     1.18719E+06         65.0110
              34    -1.55671E-06     72.8733E-03         2.45142    -99.2513E-03        -5.05002         2.16988        -4.76849    -99.2513E-03         2.65886     511.931E-03    -253.855E-03    -258.076E-03    -258.073E-03     511.928E-03    -253.855E-03    -2.86985E-03    -78.2624E+06    -80.6595E+06    -102.780E+06    -80.4592E+06    -102.654E+06    -78.5888E+06     427.467E+03         65.0366
              35     7.94303E-06     71.1981E-03         3.53602    -106.016E-03        -6.05057         2.93179        -5.44634    -106.016E-03         4.65502     512.690E-03    -253.531E-03    -259.159E-03    -257.639E-03     512.686E-03    -255.048E-03     453.035E-06    -79.4789E+06    -85.5889E+06    -106.744E+06    -81.6050E+06    -106.688E+06    -83.5181E+06    -1.16446E+06         65.0638
              36    -10.3224E-06     69.5304E-03         4.13819     55.9191E-03        -6.77714         3.50954        -6.14849     55.9191E-03         5.06567     511.808E-03    -254.405E-03    -257.403E-03    -254.394E-03     511.797E-03    -257.403E-03    -1.91113E-03    -78.7732E+06    -85.4650E+06    -107.654E+06    -81.8047E+06    -107.275E+06    -82.8125E+06     1.47701E+06         65.0905
              37     8.01206E-06     67.8634E-03         4.35888    -84.3172E-03        -6.76436         3.80348        -6.20896    -84.3172E-03         4.84456     512.667E-03    -253.188E-03    -259.479E-03    -257.989E-03     512.657E-03    -254.668E-03    -2.61930E-03    -74.4453E+06    -78.2187E+06    -102.785E+06    -77.7074E+06    -102.175E+06    -75.5662E+06     199.448E+03         65.1145
              38    -554.551E-09     66.1894E-03         4.31658     65.2421E-03        -6.79972         3.67986        -6.16300     65.2421E-03         5.15949     513.906E-03    -253.953E-03    -259.953E-03    -258.763E-03     513.905E-03    -255.142E-03     768.219E-06    -79.0100E+06    -81.9517E+06    -106.116E+06    -79.3517E+06    -105.775E+06    -81.9517E+06    -752.816E+03         65.1330
              39    -1.29075E-06     64.5160E-03         4.52967     730.074E-03        -7.67890         3.67718        -6.82641     730.074E-03         6.21477     512.223E-03    -255.456E-03    -256.766E-03    -255.576E-03     512.222E-03    -256.646E-03    -1.59765E-03    -76.9931E+06    -81.4514E+06    -104.773E+06    -79.7195E+06    -104.684E+06    -78.8138E+06     1.04423E+06         65.1495
              40     1.50803E-06     62.8506E-03         4.91990         1.90032        -9.20804         3.79655        -8.08469         1.90032         7.64230     510.747E-03    -255.004E-03    -255.744E-03    -255.123E-03     510.746E-03    -255.623E-03    -1.48066E-03    -71.7078E+06    -78.6641E+06    -101.442E+06    -74.3648E+06    -101.422E+06    -76.0265E+06    -589.019E+03         65.1695
              41    -2.49969E-06     61.1875E-03         5.11194         3.31874        -10.6811         3.78895        -9.35811         3.31874         8.75049     511.301E-03    -254.596E-03    -256.705E-03    -256.083E-03     511.299E-03    -255.216E-03    -2.32428E-03    -73.1673E+06    -80.2470E+06    -102.900E+06    -76.1010E+06    -102.727E+06    -77.4860E+06     777.915E+03         65.1921
              42     4.82881E-06     59.5126E-03         4.67339         4.01886        -10.7021         3.13155        -9.24575         4.10439         8.95787     512.409E-03    -254.673E-03    -257.737E-03    -257.733E-03     512.406E-03    -254.673E-03    -850.993E-06    -70.6940E+06    -74.3880E+06    -97.8620E+06    -73.6132E+06    -97.7039E+06    -71.6269E+06     1.07573E+06         65.2165
              43    -2.38005E-06     57.8451E-03         4.14674         3.05824        -8.91764         1.86136        -7.72076         4.14674         7.17467     511.781E-03    -254.459E-03    -257.322E-03    -256.030E-03     511.777E-03    -255.748E-03    -851.047E-06    -72.7064E+06    -74.7388E+06    -98.7285E+06    -73.9534E+06    -98.5810E+06    -73.6394E+06    -1.55194E+06         65.2458
              44     389.012E-09     56.1792E-03         4.31492         1.78440        -7.51720         1.25025        -6.98305         4.31492         4.08251     512.916E-03    -255.326E-03    -257.590E-03    -256.298E-03     512.913E-03    -256.615E-03    -1.05902E-03    -72.7405E+06    -75.9181E+06    -99.8480E+06    -74.3741E+06    -99.3139E+06    -74.8186E+06     997.077E+03         65.2820
              45     1.12647E-06     54.5019E-03         4.85075         1.67841        -7.72828         1.58302        -7.63289         4.85075         1.30119     513.898E-03    -256.372E-03    -257.526E-03    -257.523E-03     513.895E-03    -256.372E-03    -952.065E-06    -68.0666E+06    -70.2768E+06    -94.4461E+06    -68.7670E+06    -93.8778E+06    -70.1446E+06     836.466E+03         65.3185
              46    -843.847E-09     52.8311E-03         4.86533         1.90266        -7.73903         1.90253        -7.73889         4.86533    -24.1131E-03     512.377E-03    -255.833E-03    -256.544E-03    -256.541E-03     512.374E-03    -255.833E-03    -1.21789E-03    -67.0214E+06    -67.2474E+06    -92.2191E+06    -67.6265E+06    -91.8401E+06    -67.0214E+06     120.811E+03         65.3442
              47     1.69490E-06     51.1677E-03         4.04697         1.69726        -6.54441         1.69158        -6.53873         4.04697    -329.872E-03     513.495E-03    -256.232E-03    -257.264E-03    -257.262E-03     513.493E-03    -256.232E-03    -753.739E-06    -67.4351E+06    -68.8776E+06    -92.8040E+06    -68.0514E+06    -92.2816E+06    -68.7838E+06    -398.448E+03         65.3581
              48    -928.827E-09     49.4876E-03         2.89848         1.34738        -4.87643         1.33898        -4.86802         2.89848    -112.110E-03     513.175E-03    -255.605E-03    -257.571E-03    -257.568E-03     513.173E-03    -255.605E-03    -2.80783E-03    -68.7998E+06    -71.0316E+06    -94.3894E+06    -70.4390E+06    -93.6333E+06    -70.1485E+06     268.455E+03         65.3683
              49     3.21226E-06     47.8240E-03         1.66521     992.916E-03        -3.08605     972.732E-03        -3.06586         1.66521     489.915E-03     512.405E-03    -255.231E-03    -257.174E-03    -257.173E-03     512.403E-03    -255.231E-03    -807.324E-06    -64.4223E+06    -65.4888E+06    -89.6850E+06    -65.8385E+06    -89.1519E+06    -64.6057E+06     1.16342E+06         65.3814
              50    -2.45250E-06     46.1509E-03     799.220E-03     451.571E-03        -1.44667     577.301E-03        -1.37778     604.593E-03     659.524E-03     512.371E-03    -255.701E-03    -256.670E-03    -256.664E-03     512.365E-03    -255.701E-03    -2.45977E-03    -63.7877E+06    -65.0732E+06    -88.2964E+06    -65.0021E+06    -88.1841E+06    -63.9710E+06    -682.735E+03         65.3973
              51     3.20614E-06     44.4822E-03     577.538E-03     45.4588E-03    -558.816E-03     428.747E-03    -227.789E-03    -136.778E-03     35.6904E-03     511.275E-03    -254.538E-03    -256.737E-03    -256.730E-03     511.268E-03    -254.538E-03    -1.52350E-03    -62.5047E+06    -64.6279E+06    -87.5287E+06    -63.6768E+06    -87.4586E+06    -63.5258E+06     1.24567E+06         65.4157
              52    -545.499E-09     42.8137E-03     917.907E-03    -31.4695E-03    -664.248E-03     663.521E-03    -227.624E-03    -213.706E-03        -1.06003     512.135E-03    -255.165E-03    -256.970E-03    -256.870E-03     512.133E-03    -255.262E-03     95.4568E-06    -61.0102E+06    -62.0833E+06    -86.1947E+06    -61.1274E+06    -86.1295E+06    -62.0313E+06     1.19170E+06         65.4383
              53     398.373E-09     41.1446E-03         1.26001    -63.4821E-03    -811.285E-03     780.527E-03    -34.5424E-03    -360.744E-03        -1.46278     512.491E-03    -254.587E-03    -257.904E-03    -257.805E-03     512.489E-03    -254.684E-03    -2.59327E-03    -59.9652E+06    -60.4227E+06    -85.1726E+06    -60.5008E+06    -85.0945E+06    -59.9652E+06    -563.113E+03         65.4658
              54     4.59687E-06     39.4749E-03         2.46768    -619.415E-03        -1.30845    -216.491E-03         2.06476        -1.30845        -1.06809     512.309E-03    -254.525E-03    -257.784E-03    -257.743E-03     512.307E-03    -254.564E-03    -231.268E-06    -56.8950E+06    -59.4545E+06    -83.6235E+06    -57.3684E+06    -83.5555E+06    -59.0490E+06    -880.503E+03         65.4967
              55    -4.66066E-06     37.8046E-03         4.92963        -1.67086        -2.54855        -1.65567         4.91444        -2.54855    -200.707E-03     513.134E-03    -255.754E-03    -257.380E-03    -255.750E-03     513.130E-03    -257.380E-03    -1.19624E-03    -55.4271E+06    -61.1912E+06    -84.8434E+06    -59.0636E+06    -84.8169E+06    -57.5812E+06     595.841E+03         65.5264
              56     2.23023E-06     36.1364E-03         6.13624        -2.32144        -2.89123        -2.28068         6.09548        -2.89123     970.563E-03     513.722E-03    -255.191E-03    -258.531E-03    -256.940E-03     513.718E-03    -256.778E-03    -2.88510E-03    -54.3386E+06    -61.5346E+06    -86.0498E+06    -58.0076E+06    -85.9908E+06    -57.9246E+06    -165.056E+03         65.5488
              57     453.946E-09     34.4570E-03         5.91137        -2.31264        -2.44402        -2.17115         5.72238        -2.39653         2.33775     512.540E-03    -254.985E-03    -257.554E-03    -256.738E-03     512.539E-03    -255.801E-03    -1.03220E-03    -52.2592E+06    -56.6355E+06    -84.1771E+06    -53.1349E+06    -84.0917E+06    -55.8452E+06     161.675E+03         65.5595
              58    -1.69769E-06     32.7950E-03         6.87085        -2.51049        -2.98812        -2.77209         6.65482        -2.51049         2.76149     512.234E-03    -254.529E-03    -257.704E-03    -256.887E-03     512.232E-03    -255.345E-03    -1.76742E-03    -52.2483E+06    -54.6086E+06    -85.0609E+06    -54.8734E+06    -84.7960E+06    -52.2483E+06    -914.635E+03         65.5561
              59     5.36670E-06     31.1216E-03         8.40953        -3.01789        -3.79657        -3.72170         8.33465        -3.01789     767.798E-03     512.346E-03    -254.867E-03    -257.478E-03    -257.225E-03     512.344E-03    -255.119E-03    -725.405E-06    -53.7143E+06    -58.7293E+06    -89.4135E+06    -55.7219E+06    -88.9758E+06    -57.1594E+06     235.750E+03         65.5363
              60    -5.77835E-06     29.4505E-03         9.21378        -3.35643        -4.19914        -4.08316         9.09780        -3.35643        -2.19173     511.410E-03    -255.046E-03    -256.365E-03    -256.110E-03     511.408E-03    -255.298E-03    -1.19496E-03    -47.9165E+06    -53.7614E+06    -84.9490E+06    -50.5480E+06    -84.7174E+06    -51.3616E+06     1.73027E+06         65.4975
              61     7.44252E-06     27.7890E-03         10.1207        -3.60219        -4.84972        -4.35518         9.62613        -3.60219        -5.14490     512.070E-03    -254.729E-03    -257.342E-03    -257.339E-03     512.068E-03    -254.729E-03    -1.63618E-03    -47.2157E+06    -50.9605E+06    -83.3838E+06    -49.6674E+06    -83.3319E+06    -48.5606E+06    -1.20871E+06         65.4327
              62    -5.05013E-06     26.1151E-03         11.0044        -3.89530        -5.41864        -4.44840         10.0342        -3.89530        -7.71231     509.952E-03    -254.154E-03    -255.798E-03    -255.791E-03     509.945E-03    -254.154E-03    -2.99819E-03    -52.0569E+06    -53.4118E+06    -87.1173E+06    -52.1501E+06    -87.0241E+06    -53.4118E+06     1.63563E+03         65.3278
              63     5.17829E-06     24.4530E-03         11.2287        -3.87801        -5.65198        -4.18494         9.76164        -3.87801        -9.44704     507.685E-03    -253.350E-03    -254.335E-03    -254.325E-03     507.675E-03    -253.350E-03    -914.560E-06    -49.1002E+06    -49.1580E+06    -84.2901E+06    -49.2000E+06    -84.2382E+06    -49.1102E+06     1.19268E+06         65.1588
              64    -3.77283E-06     22.7923E-03         10.6139        -3.44973        -5.41941        -3.57793         8.77242        -3.44973        -10.2117     506.930E-03    -253.016E-03    -253.914E-03    -253.889E-03     506.915E-03    -253.026E-03    -1.80800E-03    -45.2798E+06    -45.8389E+06    -82.3696E+06    -45.8991E+06    -82.3094E+06    -45.2798E+06     1.30697E+06         64.8849
              65     3.73036E-06     21.1315E-03         10.2408        -3.32155        -5.09627        -3.26921         8.41370        -3.32155        -9.93202     503.360E-03    -251.168E-03    -252.192E-03    -252.170E-03     503.348E-03    -251.178E-03    -3.30775E-03    -42.2217E+06    -44.2877E+06    -80.9816E+06    -42.7996E+06    -80.9150E+06    -43.7763E+06     553.323E+03         64.4469
              66    -2.14877E-06     19.4850E-03         10.1212        -3.34330        -4.90864        -3.23384         8.44644        -3.34330        -9.45852     498.625E-03    -248.552E-03    -250.073E-03    -250.059E-03     498.612E-03    -248.552E-03    -3.59690E-03    -38.9266E+06    -42.5785E+06    -78.2088E+06    -41.0353E+06    -78.1974E+06    -40.4812E+06    -384.795E+03         63.7820
              67     2.92015E-06     17.8380E-03         9.24435        -2.96933        -4.53345        -2.83308         7.54398        -2.96933        -9.04344     491.146E-03    -243.743E-03    -247.403E-03    -247.388E-03     491.131E-03    -243.743E-03    -5.85163E-03    -35.3090E+06    -39.6724E+06    -75.3611E+06    -37.4069E+06    -75.3605E+06    -37.5751E+06     10.1767E+03         62.8502
              68     1.99846E-06     16.2130E-03         7.39205        -2.13892        -3.64342        -1.88905         5.63768        -2.13892        -8.03820     478.449E-03    -237.353E-03    -241.097E-03    -241.085E-03     478.437E-03    -237.353E-03    -5.34321E-03    -31.5035E+06    -35.5100E+06    -71.8937E+06    -33.3284E+06    -71.8092E+06    -33.7695E+06     1.17065E+06         61.6720
              69    -1.06606E-06     14.6080E-03         5.47912        -1.32526        -2.70922        -1.08538         3.85528        -1.32526        -6.52506     457.603E-03    -228.345E-03    -229.258E-03    -228.904E-03     457.572E-03    -228.668E-03    -9.11894E-03    -26.0738E+06    -28.7114E+06    -65.6281E+06    -27.9005E+06    -65.5418E+06    -26.9710E+06     1.04074E+06         60.3638
              70     500.136E-09     13.0513E-03         4.52023        -1.02349        -2.11393    -824.934E-03         3.23124        -1.02349        -5.23957     430.765E-03    -214.673E-03    -216.092E-03    -215.717E-03     430.713E-03    -214.996E-03    -11.4734E-03    -22.4787E+06    -23.6135E+06    -60.6266E+06    -22.7385E+06    -60.6043E+06    -23.3759E+06     411.125E+03         59.1494
              71     1.21411E-06     11.5333E-03         4.01600    -981.785E-03        -1.68738    -822.657E-03         3.15127    -981.785E-03        -4.07455     399.185E-03    -198.119E-03    -201.067E-03    -200.962E-03     399.081E-03    -198.119E-03    -15.4497E-03    -19.8297E+06    -20.3331E+06    -57.2645E+06    -20.1033E+06    -57.2285E+06    -20.0955E+06     1.15460E+06         58.3286
              72     1.71160E-06     10.0705E-03         3.15065    -578.278E-03        -1.18680    -409.866E-03         2.37372    -578.278E-03        -3.24593     367.431E-03    -182.408E-03    -185.022E-03    -184.175E-03     367.344E-03    -183.169E-03    -12.8841E-03    -14.8202E+06    -15.1368E+06    -52.7401E+06    -14.8457E+06    -52.7146E+06    -15.1368E+06     113.001E+03         58.2014
              73    -3.02260E-06     8.64578E-03         1.88756     96.6367E-03    -534.515E-03     239.301E-03         1.11374     96.6367E-03        -2.21794     356.307E-03    -177.683E-03    -178.624E-03    -177.845E-03     356.290E-03    -178.445E-03    -5.88630E-03    -15.0229E+06    -15.1804E+06    -54.0088E+06    -15.1987E+06    -53.9397E+06    -15.0737E+06     649.222E+03         58.9822
              74     3.33523E-06     7.22377E-03         1.48820     888.036E-03    -887.235E-03     857.822E-03    -256.859E-03     888.036E-03        -1.83740     386.456E-03    -193.047E-03    -193.409E-03    -193.153E-03     386.383E-03    -193.230E-03     7.01844E-03    -11.0494E+06    -11.2349E+06    -49.5310E+06    -11.3130E+06    -49.4530E+06    -11.0494E+06     491.028E+03         60.7788
              75    -3.30054E-06     5.70845E-03         1.63905         1.37548        -1.51874         1.38223        -1.26192         1.37548        -1.62167     468.021E-03    -233.455E-03    -234.566E-03    -234.199E-03     467.837E-03    -233.638E-03     22.7125E-03    -8.36425E+06    -9.80427E+06    -45.0870E+06    -8.47158E+06    -45.0585E+06    -9.72548E+06    -1.01065E+06         63.6058
              76     5.18086E-06     4.02881E-03         1.61353         1.43561        -1.59016         1.48249        -1.45913         1.43561        -1.26049     586.609E-03    -292.269E-03    -294.340E-03    -294.079E-03     586.348E-03    -292.269E-03     30.3466E-03    -7.90424E+06    -11.0596E+06    -43.3891E+06    -9.92044E+06    -43.1671E+06    -9.26547E+06     1.38694E+06         67.2903
              77    -3.12435E-06     2.10125E-03         1.51128         1.39000        -1.42105         1.42692        -1.33668         1.39000    -622.287E-03     694.223E-03    -345.890E-03    -348.333E-03    -346.877E-03     694.067E-03    -347.190E-03     21.7178E-03    -5.23189E+06    -7.58804E+06    -38.2694E+06    -7.31981E+06    -37.9756E+06    -5.79393E+06     682.372E+03         71.2707
              78     684.403E-06     97.1445E-18         1.37540         1.30944        -1.22540         1.37231        -1.22230         1.30944     177.653E-03     731.672E-03    -363.705E-03    -367.966E-03    -363.599E-03     731.566E-03    -367.966E-03     19.2277E-03    -5.30878E+06    -6.36167E+06    -36.1005E+06    -5.94594E+06    -35.9541E+06    -5.87082E+06    -153.217E+03         73.1280
              79     1.37254E-03     97.1445E-18         1.36660         1.33184        -1.27340         1.35244        -1.26908         1.34169    -49.8063E-03     715.670E-03    -352.402E-03    -363.268E-03    -352.088E-03     715.356E-03    -363.268E-03     35.8066E-03    -5.44405E+06    -6.57041E+06    -34.1975E+06    -6.66839E+06    -34.0995E+06    -5.44405E+06     317.580E+03         72.8278
              80     2.07720E-03     97.1445E-18         1.35608         1.33416        -1.30764         1.34162        -1.30303         1.34401    -39.6470E-03     691.623E-03    -334.652E-03    -356.971E-03    -334.073E-03     691.044E-03    -356.971E-03     48.3126E-03    -5.31777E+06    -6.36344E+06    -30.4958E+06    -6.41008E+06    -30.4491E+06    -5.31777E+06    -268.065E+03         72.3583
              81     2.79271E-03     97.1445E-18         1.38627         1.34443        -1.37349         1.37428        -1.36150         1.34443     331.076E-03     661.452E-03    -312.631E-03    -348.821E-03    -311.771E-03     660.592E-03    -348.821E-03     57.6055E-03    -3.86965E+06    -6.00935E+06    -29.1537E+06    -6.10155E+06    -29.0615E+06    -3.86965E+06     1.35473E+06         71.7460
              82     3.53167E-03     97.1445E-18         1.37684         1.34671        -1.38085         1.36591        -1.37028         1.34706     254.814E-03     627.873E-03    -288.638E-03    -339.235E-03    -287.573E-03     626.808E-03    -339.235E-03     62.3940E-03    -2.04347E+06    -6.49571E+06    -28.5440E+06    -6.59396E+06    -28.4457E+06    -2.04347E+06     1.41034E+06         71.0385
              83     4.28831E-03     97.1445E-18         1.34320         1.28327        -1.29946         1.28322        -1.29941         1.34320     2.56306E-03     593.384E-03    -264.671E-03    -328.713E-03    -263.495E-03     592.208E-03    -328.713E-03     63.4525E-03      -7.436E+03    -6.24543E+06    -28.0299E+06    -6.26881E+06    -28.0065E+06      -7.436E+03     656.506E+03         70.3094
              84     5.06473E-03     97.1445E-18         1.32259         1.12398        -1.14010         1.11652        -1.13264         1.32259     165.036E-03     559.442E-03    -241.734E-03    -317.708E-03    -240.475E-03     558.182E-03    -317.708E-03     63.4557E-03     1.11939E+06    -5.63179E+06    -30.6970E+06    -5.63570E+06    -30.6931E+06     1.11939E+06     213.328E+03         69.6603
              85     5.85847E-03     97.1445E-18         1.28194     935.190E-03    -927.928E-03     920.038E-03    -912.776E-03         1.28194     333.969E-03     527.477E-03    -220.903E-03    -306.574E-03    -219.617E-03     526.191E-03    -306.574E-03     61.9780E-03     603.584E+03    -4.82240E+06    -29.6616E+06    -4.82240E+06    -29.6616E+06     603.584E+03     5.03934E+03         69.2198
              86     6.67067E-03     97.1445E-18         1.22640     732.197E-03    -685.342E-03     723.435E-03    -676.580E-03         1.22640     208.869E-03     498.660E-03    -203.008E-03    -295.652E-03    -201.757E-03     497.409E-03    -295.652E-03     59.2042E-03    -382.712E+03    -4.65186E+06    -28.1535E+06    -4.65826E+06    -28.1471E+06    -382.712E+03     282.889E+03         69.1388
              87     7.49428E-03     97.1445E-18         1.16270     561.102E-03    -455.703E-03     557.958E-03    -452.559E-03         1.16270    -10.2825E-03     473.975E-03    -188.729E-03    -285.246E-03    -187.536E-03     472.782E-03    -285.246E-03     56.1750E-03     118.910E+03    -4.61781E+06    -30.9158E+06    -4.62494E+06    -30.9087E+06     118.910E+03     379.365E+03         69.5766
              88     8.33194E-03     97.1445E-18         1.09832     473.477E-03    -309.214E-03     471.072E-03    -306.808E-03         1.09832    -38.9737E-03     454.590E-03    -178.984E-03    -275.606E-03    -177.880E-03     453.486E-03    -275.606E-03     52.8366E-03     723.312E+03    -4.40816E+06    -32.4676E+06    -4.41173E+06    -32.4640E+06     723.312E+03    -95.8793E+03         70.6684
              89     9.17273E-03     97.1445E-18         1.03743     394.926E-03    -184.297E-03     388.528E-03    -177.898E-03         1.03743    -52.2781E-03     441.934E-03    -174.933E-03    -267.001E-03    -173.865E-03     440.866E-03    -267.001E-03     51.2797E-03     1.28836E+06    -4.34649E+06    -33.0747E+06    -4.35555E+06    -33.0656E+06     1.28836E+06    -502.462E+03         72.4759
              90     10.0159E-03     97.1445E-18     977.545E-03     283.145E-03    -33.2824E-03     251.752E-03    -1.88887E-03     977.545E-03    -154.457E-03     437.462E-03    -177.733E-03    -259.729E-03    -176.803E-03     436.532E-03    -259.729E-03     47.6447E-03     4.91410E+06    -3.61568E+06    -33.3728E+06    -3.64093E+06    -33.3475E+06     4.91410E+06    -835.360E+03         74.9270
              91     10.8596E-03     97.1445E-18     916.786E-03     246.845E-03     47.8332E-03     114.034E-03     180.645E-03     916.786E-03    -61.6120E-03     451.425E-03    -197.046E-03    -254.379E-03    -196.479E-03     450.857E-03    -254.379E-03     37.4912E-03     11.2856E+06    -3.75713E+06    -32.8263E+06    -3.89400E+06    -32.6895E+06     11.2856E+06     759.723E+03         77.7645
              92     11.6903E-03     97.1445E-18     856.316E-03     400.279E-03    -52.5239E-03    -34.6975E-03     382.453E-03     856.316E-03     168.582E-03     498.581E-03    -232.485E-03    -266.096E-03    -245.004E-03     497.064E-03    -252.060E-03     62.1048E-03     18.7783E+06    -2.85246E+06    -31.2553E+06    -4.12407E+06    -29.9837E+06     18.7783E+06     5.16299E+06         80.5735
              93     12.3884E-03     97.1445E-18     812.455E-03     647.406E-03    -259.200E-03    -242.273E-03     647.812E-03     795.123E-03     150.696E-03     579.383E-03    -253.750E-03    -325.633E-03    -319.601E-03     573.350E-03    -253.750E-03     142.887E-03     21.4024E+06    -3.85896E+06    -34.8969E+06    -6.63053E+06    -32.1253E+06     21.4024E+06     8.84259E+06         82.9539
              94     13.0814E-03     97.1445E-18     987.204E-03     726.640E-03    -531.312E-03    -529.016E-03     984.909E-03     726.640E-03     94.5091E-03     778.057E-03    -261.235E-03    -516.822E-03    -499.976E-03     761.211E-03    -261.235E-03     291.516E-03     25.5366E+06    -686.722E+03    -33.4191E+06    -2.79430E+06    -31.3115E+06     25.5366E+06     2.22770E+06         84.6601
              95     13.7550E-03     2.99685E-03         1.39177     627.664E-03    -807.734E-03    -801.482E-03         1.38552     627.664E-03     233.761E-03     800.338E-03    -265.337E-03    -535.002E-03    -509.513E-03     774.850E-03    -265.337E-03     362.717E-03     17.1940E+06    -3.20616E+06    -31.9546E+06    -4.65706E+06    -30.5037E+06     17.1940E+06    -6.13026E+06         85.5856
              96     13.8485E-03     4.53344E-03         1.74396     497.529E-03    -895.735E-03    -889.549E-03         1.73778     497.529E-03     251.822E-03     603.737E-03    -263.292E-03    -340.445E-03    -313.056E-03     576.348E-03    -263.292E-03     315.712E-03     12.8968E+06    -160.952E+03    -23.9013E+06    -1.39583E+06    -22.6664E+06     12.8968E+06    -1.68728E+06         86.3048
              97     13.8857E-03     6.07078E-03         2.04904     308.334E-03    -880.951E-03    -877.694E-03         2.04578     308.334E-03     190.644E-03     549.925E-03    -260.920E-03    -289.005E-03    -270.892E-03     531.812E-03    -260.920E-03     231.752E-03     14.3002E+06     3.04181E+06    -19.1147E+06     2.75973E+06    -18.8326E+06     14.3002E+06     2.00730E+06         86.8833
              98     13.8952E-03     7.85372E-03         2.30969     12.9947E-03    -899.232E-03    -898.004E-03         2.30846     12.9947E-03     116.169E-03     566.397E-03    -258.427E-03    -307.970E-03    -299.521E-03     557.948E-03    -258.427E-03     171.047E-03     8.58544E+06    -1.65494E+06    -24.3577E+06    -1.67341E+06    -24.3392E+06     8.58544E+06     646.528E+03         86.7581
              99     13.9204E-03     9.56702E-03         2.61375    -353.623E-03    -895.440E-03    -892.151E-03         2.61046    -353.623E-03     187.449E-03     570.660E-03    -257.165E-03    -313.495E-03    -305.668E-03     562.832E-03    -257.165E-03     165.303E-03     11.6964E+06     2.36224E+06    -19.4444E+06     2.35079E+06     -19.433E+06     11.6964E+06     223.732E+03         86.1033
             100     13.9189E-03     11.3542E-03         3.10240    -747.987E-03    -937.840E-03    -932.486E-03         3.09705    -747.987E-03     291.848E-03     574.388E-03    -256.464E-03    -317.924E-03    -311.069E-03     567.532E-03    -256.464E-03     155.821E-03     12.8170E+06     903.518E+03    -19.4657E+06     900.301E+03    -19.4624E+06     12.8170E+06     22.2691E+03         85.2532
             101     13.9253E-03     13.1088E-03         3.70568        -1.04529        -1.17333        -1.06080         3.69661        -1.14875     405.801E-03     572.066E-03    -256.282E-03    -315.784E-03    -308.654E-03     564.936E-03    -256.282E-03     158.427E-03     14.3872E+06    -1.79516E+06    -21.3266E+06    -1.80220E+06    -21.3195E+06     14.3872E+06     359.733E+03         84.4266
             102     13.9280E-03     14.8608E-03         4.31034        -1.19019        -1.52462        -1.18232         4.30247        -1.52462     376.062E-03     562.698E-03    -256.272E-03    -306.426E-03    -299.074E-03     555.346E-03    -256.272E-03     159.195E-03     19.0048E+06    -1.03129E+06    -20.1162E+06    -1.05732E+06    -20.0902E+06     19.0048E+06     666.678E+03         83.7458
             103     13.9316E-03     16.5876E-03         4.84426        -1.25284        -1.86251        -1.24962         4.84105        -1.86251     276.656E-03     552.279E-03    -256.383E-03    -295.897E-03    -288.581E-03     544.964E-03    -256.383E-03     156.856E-03     24.3419E+06     355.408E+03    -17.7590E+06     243.452E+03    -17.6471E+06     24.3419E+06    -435.622E+03         83.2627
             104     13.9317E-03     18.2845E-03         5.32219        -1.30483        -2.17149        -1.30251         5.31988        -2.17149     211.720E-03     540.595E-03    -256.515E-03    -284.080E-03    -277.098E-03     533.612E-03    -256.515E-03     151.097E-03     26.1997E+06    -1.12777E+06    -17.4478E+06    -1.21993E+06    -17.3556E+06     26.1997E+06    -973.995E+03         82.9868
             105     13.9379E-03     19.9727E-03         5.72772        -1.37633        -2.45588        -1.37610         5.72748        -2.45588     80.6087E-03     529.306E-03    -256.594E-03    -272.711E-03    -266.039E-03     522.633E-03    -256.594E-03     145.688E-03     27.8511E+06     263.495E+03    -15.2638E+06     248.840E+03    -15.2492E+06     27.8511E+06     231.943E+03         82.8893
             106     13.9377E-03     21.6410E-03         6.04613        -1.44504        -2.69316        -1.44494         6.04603        -2.69316     18.2749E-03     525.899E-03    -256.685E-03    -269.214E-03    -263.087E-03     519.773E-03    -256.685E-03     138.867E-03     27.6005E+06    -1.59289E+06    -16.7896E+06    -1.70242E+06    -16.6801E+06     27.6005E+06    -510.881E+03         82.9057
             107     13.9309E-03     23.3151E-03         6.25572        -1.48894        -2.84397        -1.48892         6.25570        -2.84397    -26.7027E-03     525.864E-03    -256.809E-03    -269.055E-03    -263.433E-03     520.242E-03    -256.809E-03     133.221E-03     28.9029E+06    -3.85891E+06    -18.2148E+06    -3.99813E+06    -18.0755E+06     28.9029E+06    -288.344E+03         82.9617
             108     13.9377E-03     24.9958E-03         6.27327        -1.41807        -2.89972        -1.41800         6.27320        -2.89972    -43.1017E-03     521.354E-03    -256.851E-03    -264.503E-03    -258.851E-03     515.702E-03    -256.851E-03     132.813E-03     31.1013E+06    -553.919E+03    -15.0940E+06    -597.599E+03    -15.0503E+06     31.1013E+06     606.676E+03         83.0090
             109     13.9361E-03     26.6545E-03         6.24532        -1.39513        -2.88273        -1.39495         6.24514        -2.88273     8.28920E-03     519.480E-03    -256.799E-03    -262.681E-03    -257.167E-03     513.966E-03    -256.799E-03     130.876E-03     30.9821E+06    -397.897E+03    -14.6467E+06    -402.176E+03    -14.6424E+06     30.9821E+06    -100.648E+03         83.0350
             110     13.9375E-03     28.3304E-03         6.19673        -1.41587        -2.81240        -1.41569         6.19655        -2.81240     8.12607E-03     521.280E-03    -256.713E-03    -264.567E-03    -259.067E-03     515.780E-03    -256.713E-03     131.023E-03     31.9609E+06    -1.32558E+06    -14.3512E+06    -1.33456E+06    -14.3422E+06     31.9609E+06     21.0373E+03         83.0488
             111     13.9383E-03     30.0039E-03         5.97496        -1.40464        -2.69328        -1.40437         5.97469        -2.69328    -85.8029E-03     520.640E-03    -256.701E-03    -263.939E-03    -258.757E-03     515.458E-03    -256.701E-03     127.030E-03     32.1415E+06    -894.345E+03    -13.8361E+06    -913.560E+03    -13.8169E+06     32.1415E+06    -123.568E+03         83.0563
             112     13.9360E-03     31.6686E-03         5.54308        -1.32486        -2.50987        -1.32428         5.54251        -2.50987    -123.552E-03     519.133E-03    -256.738E-03    -262.395E-03    -257.195E-03     513.933E-03    -256.738E-03     126.982E-03     31.3596E+06    -1.40247E+06    -14.4079E+06    -1.43157E+06    -14.3788E+06     31.3596E+06     5.59169E+03         83.0596
             113     13.9401E-03     33.3433E-03         4.89156        -1.15624        -2.24453        -1.15491         4.89022        -2.24453    -173.831E-03     517.937E-03    -256.633E-03    -261.304E-03    -255.821E-03     512.455E-03    -256.633E-03     130.257E-03     31.8952E+06    -837.726E+03    -13.1019E+06    -892.780E+03    -13.0468E+06     31.8952E+06    -172.790E+03         83.0680
             114     13.9424E-03     35.0044E-03         4.11887    -953.416E-03        -1.90128    -950.752E-03         4.11621        -1.90128    -227.785E-03     518.866E-03    -256.474E-03    -262.392E-03    -257.011E-03     513.485E-03    -256.474E-03     129.229E-03     32.5758E+06    -783.085E+03    -11.9418E+06    -855.542E+03    -11.8693E+06     32.5758E+06    -69.5340E+03         83.0881
             115     13.9405E-03     36.6826E-03         3.35749    -763.264E-03        -1.50993    -757.359E-03         3.35158        -1.50993    -300.825E-03     521.203E-03    -256.470E-03    -264.733E-03    -259.624E-03     516.094E-03    -256.470E-03     126.270E-03     32.9010E+06    -1.26802E+06    -11.9243E+06    -1.32293E+06    -11.8694E+06     32.9010E+06     66.8364E+03         83.1135
             116     13.9380E-03     38.3541E-03         2.67871    -652.487E-03        -1.10634    -644.199E-03         2.67042        -1.10634    -331.449E-03     520.174E-03    -256.570E-03    -263.605E-03    -258.540E-03     515.110E-03    -256.570E-03     125.563E-03     32.7989E+06    -484.931E+03    -11.0539E+06    -527.718E+03    -11.0111E+06     32.7989E+06    -671.001E+03         83.1318
             117     13.9409E-03     40.0189E-03         1.97576    -545.259E-03    -708.642E-03    -530.748E-03         1.96125    -708.642E-03    -363.069E-03     518.420E-03    -256.533E-03    -261.888E-03    -256.524E-03     513.057E-03    -256.533E-03     128.939E-03     32.4835E+06    -562.769E+03    -10.7823E+06    -657.368E+03    -10.6877E+06     32.4835E+06     281.026E+03         83.1446
             118     13.9431E-03     41.6960E-03         1.14607    -299.510E-03    -421.264E-03    -380.817E-03         1.11379    -307.676E-03    -414.796E-03     519.831E-03    -256.402E-03    -263.429E-03    -257.916E-03     514.318E-03    -256.402E-03     130.957E-03     33.6393E+06    -1.04257E+06    -10.0604E+06    -1.11685E+06    -9.98608E+06     33.6393E+06     606.850E+03         83.1628
             119     13.9413E-03     43.3657E-03     521.998E-03     13.1685E-03    -425.806E-03    -115.318E-03     100.500E-03     124.178E-03    -412.955E-03     520.713E-03    -256.416E-03    -264.297E-03    -259.138E-03     515.555E-03    -256.416E-03     126.741E-03     34.4483E+06    -1.27750E+06    -9.40280E+06    -1.32446E+06    -9.35583E+06     34.4483E+06    -436.208E+03         83.1866
             120     13.9396E-03     45.0327E-03     583.004E-03     225.042E-03    -951.646E-03     182.848E-03    -909.452E-03     583.004E-03    -341.550E-03     519.350E-03    -256.563E-03    -262.787E-03    -257.838E-03     514.400E-03    -256.563E-03     124.007E-03     35.1448E+06    -1.52438E+06    -9.44283E+06    -1.57254E+06    -9.39466E+06     35.1448E+06    -504.913E+03         83.2040
             121     13.9389E-03     46.7061E-03         1.01353     401.019E-03        -1.75133     392.593E-03        -1.74290         1.01353    -260.294E-03     518.742E-03    -256.562E-03    -262.181E-03    -256.736E-03     513.298E-03    -256.562E-03     129.914E-03     35.2227E+06    -670.015E+03    -8.81347E+06    -1.01169E+06    -8.47180E+06     35.2227E+06     1.10019E+06         83.2115
             122     13.9446E-03     48.3751E-03         1.36787     496.994E-03        -2.46531     491.975E-03        -2.46029         1.36787    -240.556E-03     518.079E-03    -256.435E-03    -261.645E-03    -256.185E-03     512.619E-03    -256.435E-03     130.004E-03     35.8227E+06    -13.1752E+03    -7.94020E+06    -392.916E+03    -7.56046E+06     35.8227E+06     794.730E+03         83.2178
             123     13.9417E-03     50.0388E-03         1.66489     585.474E-03        -3.13334     581.480E-03        -3.12934         1.66489    -243.170E-03     518.462E-03    -256.358E-03    -262.104E-03    -256.764E-03     513.122E-03    -256.358E-03     128.674E-03     37.7621E+06    -764.382E+03    -6.79253E+06    -891.808E+03    -6.66510E+06     37.7621E+06     82.9832E+03         83.2342
             124     13.9453E-03     51.7114E-03         1.94613     763.612E-03        -3.82596     758.875E-03        -3.82122         1.94613    -294.603E-03     520.666E-03    -256.326E-03    -264.339E-03    -259.160E-03     515.487E-03    -256.326E-03     127.045E-03     38.6416E+06    -1.41094E+06    -6.42175E+06    -1.88146E+06    -5.95123E+06     38.6416E+06    -457.451E+03         83.2627
             125     13.9390E-03     53.3830E-03         2.21000     990.122E-03        -4.52235     985.432E-03        -4.51766         2.21000    -318.692E-03     521.266E-03    -256.401E-03    -264.865E-03    -259.892E-03     516.293E-03    -256.401E-03     124.648E-03     41.2090E+06    -1.06209E+06    -5.38165E+06    -1.47568E+06    -4.96806E+06     41.2090E+06    -681.390E+03         83.2890
             126     13.9431E-03     55.0598E-03         2.42225         1.18070        -5.08972         1.17675        -5.08577         2.42225    -314.680E-03     518.648E-03    -256.428E-03    -262.220E-03    -256.892E-03     513.319E-03    -256.428E-03     128.521E-03     42.6029E+06    -71.6022E+03    -3.51259E+06    -136.745E+03    -3.44745E+06     42.6029E+06     468.719E+03         83.3069
             127     13.9451E-03     56.7208E-03         2.55180         1.29268        -5.50809         1.28891        -5.50432         2.55180    -319.806E-03     517.615E-03    -256.359E-03    -261.255E-03    -255.948E-03     512.307E-03    -256.359E-03     128.097E-03     41.1955E+06    -889.149E+03    -3.99985E+06    -933.428E+03    -3.95557E+06     41.1955E+06     115.628E+03         83.3223
             128     13.9418E-03     58.3947E-03         2.59130         1.35311        -5.76321         1.34839        -5.75849         2.59130    -363.447E-03     519.981E-03    -256.337E-03    -263.645E-03    -258.359E-03     514.695E-03    -256.337E-03     128.250E-03     41.2155E+06    -1.97689E+06    -4.92293E+06    -2.08999E+06    -4.80983E+06     41.2155E+06     260.662E+03         83.3390
             129     13.9441E-03     60.0653E-03         2.54768         1.44009        -6.00462         1.43215        -5.99668         2.54768    -482.974E-03     519.795E-03    -256.350E-03    -263.445E-03    -258.236E-03     514.586E-03    -256.350E-03     127.263E-03     42.2195E+06    -1.79700E+06    -4.42546E+06    -1.92275E+06    -4.29971E+06     42.2195E+06     223.761E+03         83.3564
             130     13.9424E-03     61.7329E-03         2.44063         1.59716        -6.29365         1.58774        -6.28423         2.44063    -544.354E-03     518.113E-03    -256.379E-03    -261.734E-03    -256.506E-03     512.885E-03    -256.379E-03     127.202E-03     43.6430E+06    -514.894E+03    -3.01592E+06    -682.495E+03    -2.84832E+06     43.6430E+06     267.004E+03         83.3736
             131     13.9448E-03     63.4037E-03         2.29229         1.77595        -6.55311         1.76561        -6.54277         2.29229    -585.701E-03     517.928E-03    -256.367E-03    -261.561E-03    -256.168E-03     512.536E-03    -256.367E-03     129.200E-03     44.3508E+06    -295.005E+03    -2.50688E+06    -611.476E+03    -2.19041E+06     44.3508E+06     91.6761E+03         83.3908
             132     13.9434E-03     65.0679E-03         2.10991         1.92995        -6.70115         1.92078        -6.69198         2.10991    -556.094E-03     518.362E-03    -256.330E-03    -262.033E-03    -256.764E-03     513.094E-03    -256.330E-03     127.809E-03     45.7561E+06    -634.428E+03    -1.65874E+06    -829.482E+03    -1.46368E+06     45.7561E+06    -268.191E+03         83.4069
             133     13.9451E-03     66.7366E-03         1.97727         1.89185        -6.63387         1.96250        -6.62775         1.90050    -458.635E-03     519.218E-03    -256.249E-03    -262.969E-03    -257.659E-03     513.908E-03    -256.249E-03     128.452E-03     46.2718E+06    -780.314E+03    -1.40225E+06    -1.06150E+06    -1.12106E+06     46.2718E+06    -136.667E+03         83.4280
             134     13.9462E-03     68.4093E-03         1.90466         1.68993        -6.42814         1.89971        -6.42319         1.68993    -404.893E-03     520.212E-03    -256.158E-03    -264.054E-03    -258.757E-03     514.916E-03    -256.158E-03     128.470E-03     46.0371E+06    -499.590E+03    -1.53313E+06    -1.22633E+06    -806.382E+03     46.0371E+06     62.4956E+03         83.4589
             135     13.9455E-03     70.0838E-03         1.87575         1.51537        -6.23167         1.87047        -6.22639         1.51537    -411.106E-03     519.723E-03    -256.220E-03    -263.503E-03    -258.357E-03     514.577E-03    -256.220E-03     126.540E-03     46.6876E+06    -365.230E+03    -1.30711E+06    -1.13660E+06    -535.747E+03     46.6876E+06     183.573E+03         83.4917
             136     13.9431E-03     71.7519E-03         1.93575         1.37976        -6.15130         1.92830        -6.14385         1.37976    -489.290E-03     518.470E-03    -256.346E-03    -262.124E-03    -256.869E-03     513.215E-03    -256.346E-03     127.620E-03      46.877E+06    -359.639E+03    -1.79501E+06    -1.52954E+06    -625.110E+03      46.877E+06     379.270E+03         83.5168
             137     13.9443E-03     73.4176E-03         2.01206         1.25575        -6.16347         2.00377        -6.15517         1.25575    -520.421E-03     518.240E-03    -256.349E-03    -261.891E-03    -256.534E-03     512.883E-03    -256.349E-03     128.823E-03     46.7460E+06     560.706E+03    -1.64988E+06    -1.38397E+06     294.794E+03     46.7460E+06     613.783E+03         83.5322
             138     13.9447E-03     75.0861E-03         2.02669         1.14425        -6.15651         2.01784        -6.14767         1.14425    -537.226E-03     518.280E-03    -256.268E-03    -262.011E-03    -256.713E-03     512.981E-03    -256.268E-03     128.152E-03     46.1585E+06     574.009E+03    -1.55953E+06    -1.52468E+06     539.168E+03     46.1585E+06     268.513E+03         83.5437
             139     13.9465E-03     76.7538E-03         1.98018         1.08272        -6.01861         1.97238        -6.01081         1.08272    -496.438E-03     519.276E-03    -256.188E-03    -263.088E-03    -257.797E-03     513.986E-03    -256.188E-03     128.226E-03     47.8819E+06     1.72475E+06    -1.51493E+06    -1.37442E+06     1.58424E+06     47.8819E+06    -400.278E+03         83.5578
             140     13.9454E-03     78.4264E-03         1.87337         1.09595        -5.79283         1.86456        -5.78401         1.09595    -511.507E-03     519.037E-03    -256.161E-03    -262.876E-03    -257.678E-03     513.839E-03    -256.161E-03     127.079E-03     50.0481E+06     3.37521E+06    -1.53444E+06    -1.37431E+06     3.21508E+06     50.0481E+06    -220.286E+03         83.5776
             141     13.9478E-03     80.0964E-03         1.75239         1.18273        -5.58538         1.74312        -5.57610         1.18273    -517.726E-03     518.082E-03    -256.171E-03    -261.911E-03    -256.622E-03     512.793E-03    -256.171E-03     128.021E-03     50.0703E+06     4.16005E+06    -1.11361E+06    -1.08056E+06     4.12701E+06     50.0703E+06     331.840E+03         83.6064
             142     13.9453E-03     81.7615E-03         1.68238         1.32796        -5.46793         1.67003        -5.45559         1.32796    -577.830E-03     518.114E-03    -256.179E-03    -261.935E-03    -256.768E-03     512.947E-03    -256.179E-03     126.534E-03     49.6888E+06     5.26847E+06    -555.133E+03    -539.307E+03     5.25264E+06     49.6888E+06    -185.369E+03         83.6360
             143     13.9468E-03     83.4294E-03         1.65621         1.48453        -5.40414         1.64125        -5.38917         1.48453    -646.610E-03     517.849E-03    -256.123E-03    -261.727E-03    -256.408E-03     512.531E-03    -256.123E-03     128.280E-03     48.7336E+06     4.86083E+06    -1.80331E+06    -1.78323E+06     4.84076E+06     48.7336E+06    -350.210E+03         83.6612
             144     13.9500E-03     85.0984E-03         1.64978         1.50816        -5.28441         1.53968        -5.26865         1.60251    -650.320E-03     519.282E-03    -256.056E-03    -263.226E-03    -257.968E-03     514.023E-03    -256.056E-03     127.767E-03     51.2532E+06     5.21099E+06    -1.97822E+06    -1.95165E+06     5.18443E+06     51.2532E+06    -413.732E+03         83.6904
             145     13.9440E-03     86.7733E-03         1.68042         1.39187        -5.12148         1.36911        -5.09872         1.68042    -765.809E-03     520.070E-03    -256.088E-03    -263.982E-03    -258.758E-03     514.847E-03    -256.088E-03     127.486E-03     52.7189E+06     6.17051E+06    -1.47525E+06    -1.25647E+06     5.95172E+06     52.7189E+06     564.216E+03         83.7218
             146     13.9502E-03     88.4435E-03         1.75637         1.28421        -4.96790         1.25555        -4.93923         1.75637    -843.476E-03     517.065E-03    -256.128E-03    -260.938E-03    -255.587E-03     511.715E-03    -256.128E-03     128.574E-03     51.3203E+06     6.70202E+06    -899.838E+03    -615.541E+03     6.41772E+06     51.3203E+06     285.962E+03         83.7488
             147     13.9462E-03     90.1012E-03         1.84989         1.20443        -4.79892         1.16963        -4.76412         1.84989    -909.648E-03     517.321E-03    -256.096E-03    -261.225E-03    -255.871E-03     511.967E-03    -256.096E-03     128.664E-03     51.5839E+06     6.58720E+06    -1.66695E+06    -1.55932E+06     6.47958E+06     51.5839E+06    -261.865E+03         83.7774
             148     13.9493E-03     91.7756E-03         1.92392         1.21272        -4.71039         1.17078        -4.66845         1.92392    -992.555E-03     519.431E-03    -256.042E-03    -263.389E-03    -258.110E-03     514.152E-03    -256.042E-03     128.083E-03     52.5305E+06     7.24277E+06    -1.71434E+06    -1.68995E+06     7.21838E+06     52.5305E+06     168.359E+03         83.8117
             149     13.9477E-03     95.1134E-03         1.81758         1.26158        -4.75422         1.21567        -4.70831         1.81758        -1.04616     519.562E-03    -256.086E-03    -263.476E-03    -258.269E-03     514.354E-03    -256.086E-03     127.281E-03     53.0824E+06     8.51556E+06    -1.93855E+06    -1.91108E+06     8.48808E+06     53.0824E+06     388.649E+03         83.8755
             150     13.9468E-03     96.7928E-03         1.65533         1.31888        -4.88407         1.26434        -4.82952         1.65533        -1.15761     518.454E-03    -256.161E-03    -262.294E-03    -257.057E-03     513.218E-03    -256.161E-03     127.444E-03     53.6112E+06     9.62558E+06    -1.58869E+06    -1.55212E+06     9.58900E+06     53.6112E+06     173.135E+03         83.8960
             151     13.9456E-03     98.4487E-03         1.61099         1.37513        -5.12295         1.43835        -5.06093         1.48576        -1.27585     517.356E-03    -256.142E-03    -261.214E-03    -255.804E-03     511.946E-03    -256.142E-03     129.349E-03     54.8679E+06     10.0633E+06    -1.72117E+06    -1.67665E+06     10.0188E+06     54.8679E+06     248.447E+03         83.9079
             152     13.9524E-03     100.118E-03         1.68934         1.33184        -5.38090         1.63316        -5.32472         1.33184        -1.25044     517.433E-03    -256.010E-03    -261.422E-03    -256.117E-03     512.127E-03    -256.010E-03     128.109E-03     55.9486E+06     11.1991E+06    -1.64414E+06    -1.58279E+06     11.1377E+06     55.9486E+06     60.8311E+03         83.9314
             153     13.9467E-03     101.791E-03         1.80159         1.20506        -5.55649         1.75238        -5.50727         1.20506        -1.19950     518.636E-03    -256.005E-03    -262.631E-03    -257.411E-03     513.416E-03    -256.005E-03     127.291E-03     56.6086E+06     10.8424E+06    -2.09975E+06    -2.01388E+06     10.7565E+06     56.6086E+06     206.357E+03         83.9706
             154     13.9498E-03     103.456E-03         1.88639         1.11095        -5.65476         1.83825        -5.60662         1.11095        -1.20048     518.915E-03    -256.035E-03    -262.880E-03    -257.619E-03     513.654E-03    -256.035E-03     127.835E-03     57.4579E+06     10.9923E+06    -2.30767E+06    -2.20188E+06     10.8866E+06     57.4579E+06      56.962E+03         84.0099
             155     13.9478E-03     105.125E-03         1.94419         1.04221        -5.73627         1.89882        -5.69090         1.04221        -1.17713     518.008E-03    -256.026E-03    -261.981E-03    -256.775E-03     512.801E-03    -256.026E-03     127.030E-03     58.8932E+06     13.0113E+06    -603.209E+03    -509.962E+03     12.9181E+06     58.8932E+06     2.55406E+03         84.0341
             156     13.9505E-03     106.797E-03         2.02232     997.216E-03        -5.98938         1.97635        -5.94341     997.216E-03        -1.21021     516.716E-03    -255.962E-03    -260.754E-03    -255.271E-03     511.233E-03    -255.962E-03     130.071E-03     57.5320E+06     14.0751E+06    -1.12993E+06    -1.05149E+06     13.9967E+06     57.5320E+06     1.07478E+06         84.0564
             157     13.9528E-03     108.454E-03         2.13735         1.01491        -6.40031         2.09523        -6.35819         1.01491        -1.19362     517.580E-03    -255.829E-03    -261.750E-03    -256.308E-03     512.137E-03    -255.829E-03     129.721E-03     58.3018E+06     13.7545E+06    -2.29111E+06    -2.25555E+06     13.7190E+06     58.3018E+06     327.587E+03         84.0996
             158     13.9513E-03     110.131E-03         2.31466         1.13814        -6.82554         2.27981        -6.79069         1.13814        -1.12454     519.062E-03    -255.847E-03    -263.215E-03    -258.208E-03     514.055E-03    -255.847E-03     124.765E-03     62.3730E+06     14.0230E+06    -1.41659E+06    -1.40456E+06     14.0109E+06     62.3730E+06    -427.716E+03         84.1588
             159     13.9485E-03     111.795E-03         2.37651         1.34712        -7.08030         2.34970        -7.05349         1.34712        -1.00122     519.257E-03    -255.930E-03    -263.327E-03    -258.155E-03     514.085E-03    -255.930E-03     126.784E-03     62.6254E+06     13.3772E+06    -2.50084E+06    -2.49322E+06     13.3696E+06     62.6254E+06    -215.382E+03         84.2136
             160     13.9517E-03     113.470E-03         2.26268         1.60293        -7.14672         2.24230        -7.12634         1.60293    -874.398E-03     518.617E-03    -255.956E-03    -262.662E-03    -257.438E-03     513.394E-03    -255.956E-03     127.318E-03     64.8373E+06     14.4660E+06    -1.90519E+06    -1.90051E+06     14.4613E+06     64.8373E+06     223.558E+03         84.2484
             161     13.9485E-03     115.137E-03         2.12865         1.87192        -7.14682         2.07201        -7.12817         1.90991    -829.244E-03     517.097E-03    -256.008E-03    -261.089E-03    -255.846E-03     511.854E-03    -256.008E-03     127.285E-03     66.3130E+06     15.4924E+06    -1.90267E+06    -1.87607E+06     15.4658E+06     66.3130E+06     641.157E+03         84.2666
             162     13.9516E-03     116.800E-03         2.27116         2.00534        -7.19249         1.98811        -7.17526         2.27116    -794.841E-03     516.758E-03    -255.962E-03    -260.796E-03    -255.338E-03     511.300E-03    -255.962E-03     129.835E-03     67.7550E+06     16.4874E+06    -2.57687E+06    -2.55332E+06     16.4639E+06     67.7550E+06     321.098E+03         84.2880
             163     13.9526E-03     118.466E-03         2.63237         1.99568        -7.32367         1.98186        -7.30985         2.63237    -714.841E-03     518.527E-03    -255.868E-03    -262.659E-03    -257.427E-03     513.295E-03    -255.868E-03     127.394E-03     71.4973E+06     18.3466E+06    -1.56133E+06    -1.55922E+06     18.3445E+06     71.4973E+06    -199.085E+03         84.3182
             164     13.9499E-03     120.142E-03         2.92243         1.95622        -7.47343         1.94633        -7.46354         2.92243    -607.768E-03     518.051E-03    -255.893E-03    -262.158E-03    -256.942E-03     512.834E-03    -255.893E-03     127.136E-03     71.6161E+06     18.8245E+06    -1.47781E+06    -1.42350E+06     18.7702E+06     71.6161E+06     671.851E+03         84.3459
             165     13.9538E-03     121.805E-03         3.12250         1.84630        -7.50439         1.84070        -7.49878         3.12250    -445.914E-03     515.965E-03    -255.848E-03    -260.117E-03    -254.587E-03     510.435E-03    -255.848E-03     130.550E-03     71.1122E+06     18.8989E+06    -2.01347E+06    -1.95604E+06     18.8415E+06     71.1122E+06     550.187E+03         84.3772
             166     13.9551E-03     123.462E-03         3.25875         1.68905        -7.33039         1.68687        -7.32821         3.25875    -274.814E-03     516.813E-03    -255.697E-03    -261.116E-03    -255.776E-03     511.473E-03    -255.697E-03     128.410E-03     74.5139E+06     19.5450E+06    -1.68178E+06    -1.67369E+06     19.5369E+06     74.5139E+06    -413.955E+03         84.4367
             167     13.9556E-03     125.139E-03         3.32746         1.61528        -7.13991         1.61452        -7.13915         3.32746    -152.068E-03     519.511E-03    -255.691E-03    -263.820E-03    -258.785E-03     514.476E-03    -255.691E-03     125.201E-03     77.3125E+06     19.6545E+06    -2.41955E+06    -2.41460E+06     19.6495E+06     77.3125E+06    -139.431E+03         84.5201
             168     13.9495E-03     126.809E-03         3.29867         1.58581        -7.04964         1.58569        -7.04952         3.29867    -42.4360E-03     519.121E-03    -255.818E-03    -263.303E-03    -258.200E-03     514.018E-03    -255.818E-03     125.962E-03     78.4584E+06     22.0292E+06    -1.88242E+06    -1.79385E+06     21.9406E+06     78.4584E+06     1.12666E+06         84.5840
             169     13.9554E-03     128.478E-03         3.17486         1.60871        -7.00727         1.60850        -7.00706         3.17486     63.5168E-03     516.096E-03    -255.822E-03    -260.275E-03    -254.839E-03     510.661E-03    -255.822E-03     129.425E-03     77.6517E+06     24.6814E+06    -2.25135E+06    -2.16333E+06     24.5934E+06     77.6517E+06     1.04760E+06         84.6174
             170     13.9547E-03     130.135E-03         2.96786         1.71358        -6.96008         1.71223        -6.95873         2.96786     200.870E-03     518.066E-03    -255.766E-03    -262.300E-03    -257.002E-03     512.769E-03    -255.766E-03     128.051E-03     79.9561E+06     25.0400E+06    -3.36897E+06    -3.36897E+06     25.0400E+06     79.9561E+06     1.53600E+03         84.6585
             171     13.9504E-03     131.818E-03         2.66622         1.77939        -6.82709         1.77576        -6.82345         2.66622     347.057E-03     519.328E-03    -255.835E-03    -263.493E-03    -258.342E-03     514.177E-03    -255.835E-03     126.542E-03     83.2555E+06     24.3419E+06    -2.49300E+06    -2.48030E+06     24.3292E+06     83.2555E+06     405.218E+03         84.6983
             172     13.9548E-03     133.476E-03         2.28728         1.76241        -6.59740         1.75270        -6.58768         2.28728     549.943E-03     514.844E-03    -255.816E-03    -259.028E-03    -253.601E-03     509.416E-03    -255.816E-03     129.161E-03     83.2411E+06     24.5401E+06    -1.77805E+06    -1.69780E+06     24.4599E+06     83.2411E+06    -551.213E+03         84.7046
             173     13.9589E-03     135.134E-03         1.91085         1.70978        -6.27900         1.69287        -6.26210         1.91085     731.570E-03     513.739E-03    -255.632E-03    -258.107E-03    -252.722E-03     508.354E-03    -255.632E-03     128.484E-03     86.2051E+06     25.2002E+06    -1.42159E+06    -1.34204E+06     25.1206E+06     86.2051E+06    -557.792E+03         84.7211
             174     13.9582E-03     136.801E-03         1.81430         1.56385        -5.97843         1.76755        -5.95506         1.58723     847.644E-03     516.500E-03    -255.445E-03    -261.055E-03    -255.736E-03     511.181E-03    -255.445E-03     128.179E-03     87.2249E+06     28.0777E+06    -2.28358E+06    -2.24418E+06     28.0383E+06     87.2249E+06     1.08354E+06         84.7867
             175     13.9611E-03     138.468E-03         1.88384         1.27532        -5.69694         1.85122        -5.66432         1.27532     988.135E-03     517.982E-03    -255.311E-03    -262.671E-03    -257.271E-03     512.581E-03    -255.311E-03     129.409E-03     88.8004E+06     34.4023E+06    -2.50180E+06    -2.40295E+06     34.3035E+06     88.8004E+06     1.86947E+06         84.8683
             176     13.9612E-03     140.142E-03         1.84719     936.077E-03        -5.40766         1.80605        -5.36652     936.077E-03         1.08817     517.350E-03    -255.274E-03    -262.076E-03    -256.768E-03     512.042E-03    -255.274E-03     128.193E-03     92.4128E+06     40.9943E+06    -2.08974E+06    -1.99629E+06     40.9009E+06     92.4128E+06     1.90004E+06         84.9231
             177     13.9611E-03     141.802E-03         1.78530     622.320E-03        -5.14015         1.73782        -5.09266     622.320E-03         1.14182     515.718E-03    -255.242E-03    -260.476E-03    -255.061E-03     510.303E-03    -255.242E-03     129.174E-03     93.2961E+06     45.6796E+06    -3.53546E+06    -3.51057E+06     45.6547E+06     93.2961E+06     445.061E+03         84.9409
             178     13.9655E-03     143.465E-03         1.77388     408.815E-03        -4.90055         1.72468        -4.85135     408.815E-03         1.14178     514.647E-03    -255.046E-03    -259.601E-03    -253.942E-03     508.988E-03    -255.046E-03     131.902E-03     96.9679E+06     47.0926E+06    -3.36027E+06    -3.33496E+06     47.0672E+06     96.9679E+06     470.878E+03         84.9444
             179     13.9705E-03     145.129E-03         1.80665     300.756E-03        -4.77500         1.76043        -4.72878     300.756E-03         1.09900     513.837E-03    -254.763E-03    -259.074E-03    -253.471E-03     508.234E-03    -254.763E-03     131.139E-03     101.057E+06     49.6994E+06    -2.41467E+06    -2.38995E+06     49.6746E+06     101.057E+06     994.775E+03         84.9490
             180     13.9731E-03     146.786E-03         1.75731     280.269E-03        -4.67025         1.71559        -4.62852     280.269E-03         1.03207     512.280E-03    -254.461E-03    -257.819E-03    -252.202E-03     506.663E-03    -254.461E-03     131.064E-03     102.138E+06     55.6079E+06    -1.44800E+06    -1.39966E+06     55.5596E+06     102.138E+06     1.41826E+06         84.9297
             181     13.9809E-03     148.444E-03         1.65379     345.148E-03        -4.45561         1.61886        -4.42068     345.148E-03     920.455E-03     509.409E-03    -254.030E-03    -255.379E-03    -249.496E-03     503.526E-03    -254.030E-03     133.615E-03     101.431E+06     58.6137E+06    -3.99191E+06    -3.93969E+06     58.5615E+06     101.431E+06     716.533E+03         84.8858
             182     13.9903E-03     150.093E-03         1.50435     470.855E-03        -4.14985         1.47580        -4.12130     470.855E-03     801.431E-03     507.728E-03    -253.446E-03    -254.282E-03    -248.257E-03     501.704E-03    -253.446E-03     134.969E-03     103.243E+06     62.0800E+06    -2.59147E+06    -2.45885E+06     61.9474E+06     103.243E+06     1.54750E+06         84.8489
             183     13.9976E-03     151.744E-03         1.33659     616.378E-03        -3.94764         1.31887        -3.92992     616.378E-03     593.797E-03     507.203E-03    -252.794E-03    -254.409E-03    -248.469E-03     501.263E-03    -252.794E-03     133.991E-03     107.053E+06     70.5945E+06    -2.81822E+06    -2.66570E+06      70.442E+06     107.053E+06     955.712E+03         84.7496
             184     14.0089E-03     153.391E-03         1.24119     778.336E-03        -3.95798         1.23505        -3.95184     778.336E-03     343.595E-03     500.922E-03    -248.134E-03    -252.787E-03    -242.497E-03     494.421E-03    -251.924E-03     138.850E-03     108.328E+06     73.5043E+06    -2.23282E+06    -2.04908E+06     73.3205E+06     108.328E+06     1.26832E+06         84.4575
             185     14.0363E-03     155.024E-03         1.25052     974.740E-03        -4.09780         1.24890        -4.09618     974.740E-03     83.7984E-03     491.195E-03    -240.673E-03    -250.522E-03    -233.142E-03     483.665E-03    -250.522E-03     147.619E-03     111.549E+06     73.8209E+06    -3.23110E+06    -3.07022E+06     73.6600E+06     111.549E+06     1.93912E+06         83.9027
             186     14.0628E-03     156.628E-03         1.29188         1.16977        -4.23946         1.27195        -4.23626         1.18650    -223.739E-03     478.189E-03    -229.962E-03    -248.227E-03    -221.033E-03     469.260E-03    -248.227E-03     157.700E-03     117.026E+06     77.9661E+06    -2.90591E+06    -2.57101E+06     77.6312E+06     117.026E+06     3.15580E+06         83.0703
             187     14.1282E-03     158.211E-03         1.37935         1.18966        -4.16018         1.18077        -4.15129         1.37935    -428.940E-03     458.646E-03    -214.184E-03    -244.463E-03    -202.231E-03     446.694E-03    -244.463E-03     176.804E-03     119.473E+06     77.3677E+06    -5.88530E+06    -5.51293E+06     76.9953E+06     119.473E+06     2.16911E+06         82.0760
             188     14.2081E-03     159.751E-03         1.53808     939.383E-03        -3.81920     922.784E-03        -3.80260         1.53808    -550.639E-03     441.436E-03    -202.567E-03    -238.869E-03    -187.780E-03     426.649E-03    -238.869E-03     192.804E-03     121.855E+06     83.3443E+06    -314.930E+03     1.30974E+06     81.7196E+06     121.855E+06     6.26293E+06         81.3899
             189     14.3122E-03     161.273E-03         1.68666     627.402E-03        -3.35909     610.546E-03        -3.34223         1.68666    -515.066E-03     439.630E-03    -207.338E-03    -232.291E-03    -193.140E-03     425.431E-03    -232.291E-03     189.246E-03     125.432E+06     88.8932E+06    -9.21818E+06    -7.22425E+06     86.8992E+06     125.432E+06     2.68479E+06         81.7506
             190     14.3780E-03     162.826E-03         1.85378     443.011E-03        -2.89790     433.880E-03        -2.88877         1.85378    -345.900E-03     468.047E-03    -219.880E-03    -248.168E-03    -230.875E-03     457.480E-03    -226.605E-03     170.040E-03     151.809E+06     76.8262E+06    -5.41126E+06    -4.91385E+06     76.3288E+06     151.809E+06    -3.54020E+06         83.5430
             191     14.4064E-03     164.481E-03         1.98957     329.808E-03        -2.56360     326.273E-03        -2.56006         1.98957    -188.339E-03     515.768E-03    -223.078E-03    -292.690E-03    -285.657E-03     508.735E-03    -223.078E-03     149.067E-03     170.247E+06     51.5404E+06    -7.17015E+06    -4.24927E+06     48.6195E+06     170.247E+06    -8.34579E+06         86.3953
             192     14.4056E-03     166.206E-03         2.03689     151.812E-03        -2.26309     150.202E-03        -2.26148         2.03689     16.7013E-03     555.773E-03    -221.492E-03    -334.281E-03    -328.818E-03     550.310E-03    -221.492E-03     138.871E-03     168.465E+06     38.0833E+06    -13.4352E+06     699.468E+03     23.9486E+06     168.465E+06    -3.11435E+06         89.3694
             193     14.4071E-03     167.985E-03         2.00555    -84.6000E-03        -1.73930    -92.5427E-03        -1.73136         2.00555     195.758E-03     577.304E-03    -220.917E-03    -356.387E-03    -351.277E-03     572.193E-03    -220.917E-03     137.772E-03     154.626E+06     28.6099E+06    -20.1907E+06    -7.72541E+06     16.1446E+06     154.626E+06     482.193E+03         91.6084
             194     14.4036E-03     169.772E-03         1.89174    -270.496E-03        -1.08359    -335.278E-03        -1.01881         1.89174     317.405E-03     585.480E-03    -220.719E-03    -364.761E-03    -359.638E-03     580.358E-03    -220.719E-03     139.164E-03     147.150E+06     33.3794E+06    -14.9667E+06    -3.97988E+06     22.3926E+06     147.150E+06     799.859E+03         92.9425
             195     14.4062E-03     171.569E-03         1.65198    -94.6471E-03    -725.981E-03    -540.332E-03    -280.296E-03         1.65198     404.289E-03     591.142E-03    -220.612E-03    -370.529E-03    -365.312E-03     585.924E-03    -220.612E-03     141.281E-03     145.470E+06     39.8282E+06    -15.2585E+06    -4.28408E+06     28.8538E+06     145.470E+06     226.632E+03         93.5563
             196     14.4029E-03     173.382E-03         1.23792     435.076E-03    -667.781E-03    -617.541E-03     384.835E-03         1.23792     448.670E-03     592.811E-03    -220.548E-03    -372.262E-03    -367.258E-03     587.806E-03    -220.548E-03     138.584E-03     146.648E+06     51.5910E+06    -9.24007E+06     227.948E+03     42.1230E+06     146.648E+06     3.33812E+06         93.4926
             197     14.4063E-03     175.164E-03         1.17758     482.746E-03    -649.891E-03    -619.089E-03         1.01592     613.607E-03     435.761E-03     590.572E-03    -220.523E-03    -370.049E-03    -365.450E-03     585.973E-03    -220.523E-03     132.607E-03     134.733E+06     52.9317E+06    -19.9747E+06    -8.57363E+06     41.5306E+06     134.733E+06    -2.28029E+06         92.6498
             198     14.4026E-03     176.966E-03         1.64984    -105.660E-03    -679.025E-03    -539.564E-03         1.63669    -231.970E-03     321.469E-03     581.992E-03    -220.740E-03    -361.252E-03    -357.262E-03     578.002E-03    -220.740E-03     122.275E-03     146.569E+06     47.9959E+06    -39.8182E+06    -1.46017E+06     9.63785E+06     146.569E+06    -10.3451E+06         90.8525
             199     14.4108E-03     178.738E-03         2.09964    -318.766E-03        -1.29748    -315.711E-03         2.09658        -1.29748     113.124E-03     566.092E-03    -221.150E-03    -344.942E-03    -341.260E-03     562.411E-03    -221.150E-03     115.529E-03     179.422E+06     32.1010E+06    -36.6799E+06    -1.39639E+06    -3.18258E+06     179.422E+06     1.40919E+06         88.1702
             200     14.4068E-03     180.455E-03         2.25140     49.4789E-03        -2.54839     51.4447E-03         2.24943        -2.54839    -94.4356E-03     540.145E-03    -221.633E-03    -318.512E-03    -315.109E-03     536.742E-03    -221.633E-03     107.780E-03     203.638E+06     42.3152E+06    -16.7117E+06    -649.292E+03     26.2528E+06     203.638E+06     11.8176E+06         84.9436
             201     14.4192E-03     182.178E-03         2.12442     563.889E-03        -3.87099     574.479E-03         2.11383        -3.87099    -228.396E-03     491.997E-03    -222.774E-03    -269.223E-03    -261.769E-03     484.543E-03    -222.774E-03     139.897E-03     205.949E+06     69.1315E+06    -17.7167E+06     366.276E+03     51.0485E+06     205.949E+06     1.43726E+06         78.4410
             202     14.4145E-03     183.841E-03         1.93650         1.10993        -5.09614         1.12799         1.91844        -5.09614    -234.629E-03     291.043E-03    -55.1809E-03    -235.862E-03    -56.4694E-03     285.063E-03    -228.594E-03     90.9233E-03     149.687E+06     30.1371E+06    -36.6923E+06    -29.4543E+06     22.8991E+06     149.687E+06    -9.50967E+06         67.2006
             203     13.0646E-03     184.684E-03         2.01555         1.17542        -5.75396         1.25726         1.93372        -5.75396    -484.016E-03     200.823E-03     39.7865E-03    -240.609E-03     46.1131E-03     194.496E-03    -240.609E-03    -61.5778E-03     146.025E+06     29.6991E+06    -24.6068E+06    -11.7907E+06     16.8830E+06     146.025E+06    -16.2270E+06         60.5063
             204     12.2405E-03     184.089E-03         2.26743     672.663E-03        -5.81569     916.898E-03         2.02320        -5.81569        -1.14306     247.896E-03     3.68749E-03    -251.584E-03     10.6017E-03     240.982E-03    -251.584E-03    -76.1115E-03     164.631E+06     13.9106E+06    -57.5813E+06    -28.6608E+06    -15.0100E+06     164.631E+06    -23.3108E+06         59.2307
             205     11.2746E-03     183.458E-03         2.43868     46.9528E-03        -5.69497     570.129E-03         1.91550        -5.69497        -1.96418     216.554E-03     43.8048E-03    -260.359E-03     49.9501E-03     210.409E-03    -260.359E-03    -56.5632E-03     163.915E+06     7.09021E+06    -55.2045E+06    -20.9629E+06    -27.1514E+06     163.915E+06    -24.1637E+06         56.7925
             206     10.3908E-03     182.858E-03         2.49858    -505.172E-03        -5.46419     342.025E-03         1.65138        -5.46419        -2.69671     231.066E-03     38.1382E-03    -269.205E-03     53.5023E-03     215.702E-03    -269.205E-03    -104.006E-03     148.823E+06     5.43614E+06    -46.2890E+06    -25.8480E+06    -15.0048E+06     148.823E+06    -24.4867E+06         54.9524
             207     9.53224E-03     182.215E-03         2.46717    -974.498E-03        -5.13610     175.057E-03         1.31762        -5.13610        -3.24176     258.392E-03     17.2663E-03    -275.658E-03     47.2810E-03     228.377E-03    -275.658E-03    -157.720E-03     124.065E+06    -2.89628E+06    -57.6305E+06    -36.6473E+06    -23.8795E+06     124.065E+06    -25.7302E+06         54.5429
             208     8.70783E-03     181.572E-03         2.46664        -1.50074        -4.70559     20.5165E-03     945.384E-03        -4.70559        -3.85265     292.604E-03    -14.6411E-03    -277.963E-03     39.0419E-03     238.921E-03    -277.963E-03    -232.692E-03     108.121E+06     6.90209E+06    -62.7189E+06    -36.8727E+06    -18.9441E+06     108.121E+06    -33.2834E+06         54.7126
             209     7.96501E-03     180.922E-03         2.32640        -2.01977        -4.19129    -119.586E-03     426.212E-03        -4.19129        -4.30373     328.915E-03    -53.8629E-03    -275.052E-03     25.3613E-03     249.691E-03    -275.052E-03    -309.938E-03     86.1885E+06     2.02816E+06    -69.1840E+06    -37.3717E+06    -29.7841E+06     86.1885E+06    -35.3993E+06         54.9944
             210     7.25351E-03     180.321E-03         2.09120        -2.39862        -3.67072    -233.735E-03    -73.6828E-03        -3.67072        -4.48488     364.293E-03    -97.0119E-03    -267.281E-03     3.71013E-03     263.571E-03    -267.281E-03    -381.149E-03     66.5842E+06     4.28806E+06    -79.7813E+06    -42.7928E+06    -32.7004E+06     66.5842E+06    -41.7306E+06         55.1452
             211     6.58324E-03     179.763E-03         1.95906        -2.57520        -3.23033    -324.967E-03    -291.168E-03        -3.23033        -4.53413     396.456E-03    -140.932E-03    -255.524E-03    -27.1959E-03     282.720E-03    -255.524E-03    -438.936E-03     46.7888E+06     481.666E+03    -86.3681E+06    -48.9868E+06    -36.8996E+06     46.7888E+06    -42.9966E+06         55.0069
             212     5.92006E-03     179.281E-03         1.90298        -2.56390        -2.90525    -402.705E-03    -258.220E-03        -2.90525        -4.46334     421.034E-03    -180.032E-03    -241.002E-03    -66.0324E-03     307.034E-03    -241.002E-03    -470.706E-03     28.3083E+06    -1.79976E+06    -90.5353E+06    -54.0582E+06    -38.2769E+06     28.3083E+06    -43.6455E+06         54.4188
             213     5.26634E-03     178.873E-03         1.74492        -2.44045        -2.67784    -562.931E-03    -132.601E-03        -2.67784        -4.15792     432.949E-03    -207.787E-03    -225.162E-03    -108.551E-03     333.660E-03    -225.109E-03    -462.394E-03     11.7412E+06    -4.01232E+06    -92.3749E+06    -61.3760E+06    -35.0113E+06     11.7412E+06    -41.9680E+06         53.2789
             214     4.60050E-03     178.530E-03         1.41998        -2.25804        -2.53065    -862.147E-03     24.0785E-03        -2.53065        -3.55246     427.322E-03    -209.410E-03    -217.913E-03    -142.574E-03     351.984E-03    -209.410E-03    -412.698E-03    -2.30648E+06    -6.06619E+06    -91.9565E+06    -64.3495E+06    -33.6732E+06    -2.30648E+06    -40.0924E+06         51.6393
             215     3.90195E-03     178.260E-03         1.30519        -2.13585        -2.46302        -1.24895     418.295E-03        -2.46302        -2.95695     409.625E-03    -195.176E-03    -214.449E-03    -163.661E-03     358.837E-03    -195.176E-03    -339.049E-03    -3.38057E+06    -12.8397E+06    -88.3717E+06    -64.4129E+06    -29.1717E+06    -11.0074E+06    -37.4251E+06         49.6911
             216     3.17482E-03     178.045E-03         1.48728        -2.16977        -2.45030        -1.63326     950.773E-03        -2.45030        -2.55707     385.295E-03    -182.844E-03    -202.451E-03    -172.193E-03     355.037E-03    -182.844E-03    -257.376E-03    -1.62779E+06    -16.5440E+06    -83.2762E+06    -63.4969E+06    -21.4071E+06    -16.5440E+06    -34.9811E+06         47.6586
             217     2.41323E-03     177.883E-03         1.41754        -2.21773        -2.45937        -1.92348         1.12328        -2.45937        -1.93766     358.848E-03    -172.793E-03    -186.055E-03    -170.202E-03     342.995E-03    -172.793E-03    -180.596E-03    -3.64376E+06    -23.2213E+06    -75.3497E+06    -58.3635E+06    -20.6300E+06    -23.2213E+06    -30.4865E+06         45.7609
             218     1.62381E-03     177.765E-03         1.49269        -2.33704        -2.51080        -2.23836         1.35052        -2.46732        -1.44091     336.905E-03    -165.486E-03    -171.419E-03    -164.448E-03     329.934E-03    -165.486E-03    -115.176E-03    -3.66699E+06    -32.8851E+06    -66.4558E+06    -51.8902E+06    -18.2327E+06    -32.8851E+06    -26.5025E+06         44.2182
             219     817.234E-06     177.702E-03         1.46281        -2.37849        -2.53617        -2.36243         1.40327        -2.49268    -758.238E-03     323.332E-03    -160.761E-03    -162.572E-03    -160.363E-03     321.124E-03    -160.761E-03    -60.6625E-03    -13.1265E+06    -41.0493E+06    -58.3774E+06    -48.5776E+06    -22.9264E+06    -41.0493E+06    -18.6135E+06         43.2002
             220     1.45764E-06     176.305E-03     394.004E-03        -1.53513        -2.01862        -1.68215    -28.9648E-03        -1.44863    -415.755E-03     253.082E-03    -126.278E-03    -126.804E-03    -126.386E-03     252.664E-03    -126.278E-03    -24.7794E-03    -52.6394E+06    -99.6136E+06    -107.428E+06    -101.492E+06    -58.5757E+06    -99.6136E+06    -16.4128E+06         40.0371
             221    -831.288E-09     175.093E-03     582.441E-03    -108.141E-03        -2.82886     207.123E-03        -2.65423     92.5540E-03    -914.887E-03     150.196E-03    -74.7892E-03    -75.4064E-03    -74.8714E-03     150.108E-03    -75.2369E-03    -7.14533E-03    -120.025E+06    -203.263E+06    -207.928E+06    -202.066E+06    -123.739E+06    -205.411E+06    -16.5209E+06         34.5125
             222     110.953E-09     173.982E-03         2.01275         1.07828        -4.98107         1.54078        -4.95369         1.52286    -608.141E-03     96.0001E-03    -47.6415E-03    -48.3587E-03    -47.8625E-03     95.9516E-03    -48.0892E-03     3.25555E-03    -190.327E+06    -299.843E+06    -311.655E+06    -305.842E+06    -193.993E+06    -301.991E+06    -20.3139E+06         30.4170
             223     406.116E-09     172.900E-03         2.83728         2.06375        -6.33901         2.37815        -6.32446         2.50832    -591.186E-03     78.3790E-03    -39.0270E-03    -39.3520E-03    -39.0696E-03     78.1520E-03    -39.0824E-03     9.82975E-03    -261.637E+06    -405.073E+06    -421.270E+06    -411.559E+06    -264.816E+06    -411.606E+06    -19.7056E+06         28.9712
             224    -977.046E-09     171.825E-03         3.11499         2.71475        -6.83314         3.02426        -6.81370         2.78603    -221.833E-03     93.0966E-03    -46.4190E-03    -46.6776E-03    -46.1956E-03     92.6701E-03    -46.4744E-03     15.4150E-03    -277.713E+06    -386.024E+06    -396.165E+06    -381.156E+06    -286.190E+06    -392.557E+06     7.58051E+06         29.8936
             225     871.198E-09     170.712E-03         2.96186         2.85501        -6.51597         2.88350        -6.50889         2.92629     124.479E-03     138.514E-03    -68.9425E-03    -69.5717E-03    -69.0435E-03     137.986E-03    -68.9425E-03     20.8775E-03    -182.790E+06    -212.636E+06    -252.012E+06    -211.300E+06    -223.503E+06    -212.636E+06     27.2862E+06         32.6952
             226    -410.089E-09     169.533E-03         2.81820         2.74959        -6.06100         2.78157        -6.05741         2.78262    -23.7333E-03     200.544E-03    -99.9153E-03    -100.629E-03    -99.9461E-03     200.149E-03    -100.203E-03     20.8500E-03    -99.2095E+06    -102.705E+06    -163.364E+06    -106.392E+06    -156.965E+06    -101.921E+06     9.98564E+06         36.7723
             227    -183.896E-09     168.271E-03         2.70540         2.61567        -5.68796         2.66076        -5.67636         2.64871     568.954E-03     262.383E-03    -130.295E-03    -132.088E-03    -131.573E-03     262.155E-03    -130.582E-03     18.9218E-03    -71.3637E+06    -72.6880E+06    -150.514E+06    -73.3475E+06    -149.854E+06    -71.3637E+06    -5.69200E+06         41.4503
             228     2.68794E-06     166.930E-03         2.80125         2.64730        -5.81053         2.75124        -5.76052         2.64730         1.25186     318.110E-03    -157.797E-03    -160.313E-03    -160.102E-03     317.899E-03    -157.797E-03     20.0043E-03    -56.5286E+06    -57.5147E+06    -172.928E+06    -57.6853E+06    -172.758E+06    -56.5286E+06    -4.42611E+06         46.1626
             229    -1.12662E-06     165.515E-03         3.05907         2.91658        -6.53228         2.90661        -6.37982         2.91658         2.33888     367.123E-03    -182.467E-03    -184.655E-03    -183.284E-03     366.929E-03    -183.645E-03     20.6303E-03    -62.6599E+06    -64.5009E+06    -193.310E+06    -63.2379E+06    -193.177E+06    -64.0556E+06    -3.96057E+06         50.5268
             230    -954.695E-09     164.043E-03         3.37729         3.24397        -7.36707         3.02020        -7.09807         3.33207         3.33760     408.466E-03    -202.375E-03    -206.090E-03    -204.801E-03     408.354E-03    -203.553E-03     15.0477E-03    -72.6533E+06    -76.8800E+06    -216.548E+06    -75.6445E+06    -216.387E+06    -74.0490E+06    -4.51819E+06         54.2654
             231     5.07663E-06     162.512E-03         3.66341         3.46289        -8.17971         3.12459        -7.84140         3.66341         3.91042     439.256E-03    -217.559E-03    -221.697E-03    -221.642E-03     439.201E-03    -217.559E-03     11.7886E-03    -87.7246E+06    -99.1288E+06    -237.027E+06    -90.6920E+06    -236.891E+06    -96.2977E+06    -2.38789E+06         57.1693
             232    -2.64158E-06     160.943E-03         3.82035         2.99477        -8.21810         2.69920        -7.92253         3.82035         3.58121     459.606E-03    -228.889E-03    -230.717E-03    -230.677E-03     459.566E-03    -228.889E-03     8.20114E-03    -99.1644E+06    -115.934E+06    -244.605E+06    -107.374E+06    -244.592E+06    -107.737E+06     51.0186E+03         59.1980
             233     3.10300E-06     159.349E-03         3.67780         1.95219        -7.28573         1.83460        -7.16814         3.67780         1.76608     472.620E-03    -235.282E-03    -237.338E-03    -237.327E-03     472.610E-03    -235.282E-03     4.61500E-03    -118.190E+06    -133.550E+06    -261.024E+06    -126.671E+06    -260.739E+06    -125.354E+06    -5.06576E+06         60.5322
             234    -277.001E-09     157.740E-03         3.20934         1.07970        -6.13122     865.110E-03        -5.91664         3.20934        -1.32743     482.038E-03    -240.020E-03    -242.019E-03    -241.838E-03     482.028E-03    -240.191E-03     4.54784E-03    -145.192E+06    -156.367E+06    -289.159E+06    -149.481E+06    -288.880E+06    -152.356E+06    -4.46638E+06         61.4216
             235     69.1131E-09     156.112E-03         2.86825         1.22518        -6.06890     16.2740E-03        -4.86000         2.86825        -5.11763     488.869E-03    -243.362E-03    -245.507E-03    -245.335E-03     488.868E-03    -243.533E-03     1.48392E-03    -159.631E+06    -167.392E+06    -310.159E+06    -163.703E+06    -310.098E+06    -163.382E+06    -2.21340E+06         62.0301
             236     2.99723E-06     154.484E-03         2.83236         2.18974        -7.07607    -257.811E-03        -4.62852         2.83236        -8.15840     493.461E-03    -245.193E-03    -248.268E-03    -248.267E-03     493.461E-03    -245.193E-03     1.60533E-03    -164.973E+06    -171.951E+06    -323.790E+06    -168.264E+06    -323.727E+06    -168.723E+06    -2.56290E+06         62.4620
             237    -1.22090E-06     152.838E-03         3.00558         2.68608        -7.79232    -393.980E-03        -4.50949         2.80281        -9.84141     497.496E-03    -248.026E-03    -249.470E-03    -249.125E-03     497.495E-03    -248.369E-03     1.67172E-03    -165.421E+06    -172.166E+06    -333.480E+06    -168.657E+06    -333.472E+06    -168.938E+06    -1.11231E+06         62.8108
             238     668.050E-09     151.198E-03         3.14407         2.09296        -7.37648    -912.153E-03        -3.32025         2.09296        -10.1621     501.724E-03    -250.406E-03    -251.317E-03    -250.973E-03     501.723E-03    -250.750E-03     158.448E-06    -167.517E+06    -174.325E+06    -350.732E+06    -170.898E+06    -350.642E+06    -171.034E+06    -3.51401E+06         63.1068
             239     261.201E-09     149.541E-03         2.89231         1.13144        -6.16524        -1.53339        -1.73954         1.13144        -9.01861     503.752E-03    -250.831E-03    -252.922E-03    -252.921E-03     503.752E-03    -250.831E-03    -1.46919E-03    -158.840E+06    -167.240E+06    -362.459E+06    -162.367E+06    -362.222E+06    -163.949E+06     1.24927E+06         63.3113
             240     2.06570E-06     147.888E-03         2.12499     843.684E-03        -5.13285        -1.39307        -1.61478     843.684E-03        -7.20070     503.925E-03    -250.743E-03    -253.182E-03    -253.181E-03     503.924E-03    -250.743E-03    -691.035E-06    -145.976E+06    -156.067E+06    -352.578E+06    -151.139E+06    -352.398E+06    -151.086E+06     2.43438E+06         63.4392
             241    -570.336E-09     146.237E-03         1.28328     843.863E-03        -4.35207    -691.087E-03        -2.37770     843.863E-03        -5.30449     506.427E-03    -252.501E-03    -253.927E-03    -253.927E-03     506.427E-03    -252.501E-03    -393.138E-06    -147.241E+06    -156.349E+06    -346.838E+06    -152.282E+06    -346.778E+06    -151.367E+06     195.611E+03         63.5698
             242     1.33339E-06     144.573E-03     876.305E-03     688.033E-03        -3.83329    -339.655E-03        -2.61733     688.033E-03        -4.12107     508.945E-03    -253.704E-03    -255.241E-03    -255.240E-03     508.944E-03    -253.704E-03    -1.11844E-03    -137.455E+06    -146.026E+06    -338.139E+06    -141.937E+06    -338.102E+06    -141.581E+06     2.46616E+06         63.7188
             243     315.412E-09     142.909E-03     811.837E-03     101.561E-03        -3.16868    -94.1582E-03        -2.26269     101.561E-03        -3.33008     508.468E-03    -252.981E-03    -255.487E-03    -254.006E-03     508.467E-03    -254.461E-03    -75.4837E-06    -131.393E+06    -140.822E+06    -328.823E+06    -135.845E+06    -328.816E+06    -136.376E+06     179.517E+03         63.8462
             244    -2.64647E-06     141.250E-03     678.383E-03    -456.652E-03        -2.52362     203.226E-03        -2.04846    -456.652E-03        -2.21476     508.947E-03    -253.449E-03    -255.498E-03    -253.449E-03     508.946E-03    -255.498E-03    -256.462E-06    -129.058E+06    -137.069E+06    -317.090E+06    -132.253E+06    -316.924E+06    -134.041E+06     3.33111E+06         63.9487
             245     1.80883E-06     139.586E-03     790.293E-03    -460.684E-03        -2.68212     663.223E-03        -2.55505    -460.684E-03    -725.809E-03     511.267E-03    -254.192E-03    -257.075E-03    -256.505E-03     511.266E-03    -254.761E-03    -1.75324E-03    -126.375E+06    -130.431E+06    -299.999E+06    -129.608E+06    -299.793E+06    -127.403E+06     1.98392E+06         64.0329
             246     1.77019E-06     137.919E-03         1.43649    -52.5811E-03        -3.74844         1.36887        -3.68081    -52.5811E-03         1.00297     511.102E-03    -254.350E-03    -256.752E-03    -256.751E-03     511.101E-03    -254.350E-03    -1.72781E-03    -129.785E+06    -131.887E+06    -297.086E+06    -129.861E+06    -297.010E+06    -131.887E+06    -99.6081E+03         64.0798
             247    -1.63502E-06     136.254E-03         2.51050     866.436E-03        -5.77269         2.30974        -5.57193     866.436E-03         2.54380     509.788E-03    -254.112E-03    -255.676E-03    -255.673E-03     509.785E-03    -254.112E-03    -2.55691E-03    -126.429E+06    -129.365E+06    -290.314E+06    -128.330E+06    -290.274E+06    -127.503E+06     2.32431E+06         64.0939
             248     3.93648E-06     134.593E-03         3.27483         2.09458        -7.76285         3.02655        -7.51458         2.09458         3.26305     510.680E-03    -253.604E-03    -257.076E-03    -257.074E-03     510.678E-03    -253.604E-03    -1.83219E-03    -123.614E+06    -128.233E+06    -279.385E+06    -125.483E+06    -279.378E+06    -126.371E+06     143.817E+03         64.1049
             249    -853.689E-09     132.923E-03         3.15889         2.75545        -8.23973         2.94047        -8.10806         2.84220         2.24359     510.775E-03    -253.525E-03    -257.250E-03    -255.521E-03     510.775E-03    -255.253E-03    -924.830E-06    -124.600E+06    -129.491E+06    -273.829E+06    -126.789E+06    -273.774E+06    -127.358E+06     1.46468E+06         64.1269
             250    -1.79546E-06     131.257E-03         2.86919         2.45953        -7.54397         2.40077        -7.48520         2.86919    -252.544E-03     510.510E-03    -253.908E-03    -256.602E-03    -254.873E-03     510.509E-03    -255.636E-03    -1.46481E-03    -121.494E+06    -125.234E+06    -260.646E+06    -123.698E+06    -260.575E+06    -123.101E+06     3.02569E+06         64.1645
             251     3.28597E-06     129.594E-03         3.33733         2.42653        -7.90084         2.14908        -7.62339         3.33733        -3.14232     512.439E-03    -254.610E-03    -257.830E-03    -257.829E-03     512.439E-03    -254.610E-03    -121.994E-06    -124.985E+06    -128.733E+06    -248.621E+06    -127.150E+06    -248.597E+06    -126.592E+06     567.569E+03         64.2137
             252     245.619E-09     127.915E-03         4.54750         3.44306        -10.1410         2.88008        -9.57802         4.54750        -5.41502     512.049E-03    -254.352E-03    -257.697E-03    -256.605E-03     512.048E-03    -255.443E-03    -327.556E-06    -122.660E+06    -128.465E+06    -242.883E+06    -124.904E+06    -242.781E+06    -126.324E+06     1.93914E+06         64.2533
             253    -1.96319E-06     126.262E-03         5.46367         4.27946        -11.9873         3.61890        -11.3267         5.46367        -6.42111     510.487E-03    -253.913E-03    -256.574E-03    -255.478E-03     510.482E-03    -255.004E-03    -3.19940E-03    -119.636E+06    -129.239E+06    -239.858E+06    -125.734E+06    -239.699E+06    -123.299E+06     719.494E+03         64.2762
             254     4.44357E-06     124.590E-03         5.19260         3.95326        -11.4269         3.35522        -10.8289         5.19260        -5.94604     511.131E-03    -254.352E-03    -256.779E-03    -255.916E-03     511.125E-03    -255.209E-03    -1.00872E-03    -116.675E+06    -130.416E+06    -230.199E+06    -122.865E+06    -229.949E+06    -124.477E+06     1.51253E+06         64.2968
             255    -5.82851E-06     122.921E-03         3.99203         2.79663        -9.15190         2.47597        -8.83124         3.99203        -3.71827     511.711E-03    -254.744E-03    -256.968E-03    -256.100E-03     511.701E-03    -255.600E-03    -2.34106E-03    -111.923E+06    -128.181E+06    -217.730E+06    -120.709E+06    -217.401E+06    -119.724E+06      898.92E+03         64.3231
             256     7.99120E-06     121.259E-03         3.17634         2.15069        -7.80761         2.09015        -7.74708         3.17634    -769.359E-03     511.730E-03    -255.070E-03    -256.660E-03    -256.646E-03     511.716E-03    -255.070E-03    -1.16821E-03    -113.660E+06    -132.982E+06    -219.530E+06    -122.269E+06    -219.377E+06    -124.525E+06    -1.53399E+06         64.3492
             257    -7.73496E-06     119.581E-03         3.06241         2.55356        -8.20434         2.43497        -8.08576         3.06241         1.89184     511.218E-03    -254.293E-03    -256.926E-03    -256.909E-03     511.202E-03    -254.293E-03    -1.55214E-03    -108.143E+06    -128.238E+06    -203.730E+06    -118.478E+06    -202.625E+06    -119.008E+06     6.39928E+06         64.3683
             258     11.5321E-06     117.923E-03         2.93296         2.41233        -8.09633         2.44730        -7.71763         2.51929         3.88335     510.930E-03    -254.147E-03    -256.783E-03    -256.762E-03     510.909E-03    -254.147E-03    -389.414E-06    -107.302E+06    -125.362E+06    -183.692E+06    -118.425E+06    -181.799E+06    -116.132E+06     116.230E+03         64.3850
             259    -11.2392E-06     116.254E-03         2.58298         1.52432        -6.98223         2.02648        -6.42573         1.52432         4.46739     510.667E-03    -253.648E-03    -257.019E-03    -253.846E-03     510.638E-03    -256.792E-03    -1.65379E-03    -111.590E+06    -127.043E+06    -187.980E+06    -119.568E+06    -186.625E+06    -120.420E+06    -1.26705E+06         64.4081
             260     6.36526E-06     114.591E-03         2.44623     940.291E-03        -6.39030         1.98068        -5.92475     940.291E-03         3.91048     511.644E-03    -252.321E-03    -259.322E-03    -256.157E-03     511.622E-03    -255.465E-03    -3.60069E-03    -107.455E+06    -120.064E+06    -185.198E+06    -114.788E+06    -184.488E+06    -113.441E+06     1.71549E+06         64.4378
             261    -420.574E-09     112.917E-03         2.12392     382.488E-03        -5.69117         1.81794        -5.38519     382.488E-03         3.03159     513.201E-03    -254.546E-03    -258.655E-03    -258.398E-03     513.196E-03    -254.798E-03    -318.727E-06    -104.350E+06    -113.669E+06    -176.840E+06    -108.095E+06    -176.427E+06    -110.337E+06     307.399E+03         64.4625
             262     64.7538E-09     111.247E-03         1.44069    -440.773E-03        -4.24354         1.25523        -4.05808    -440.773E-03         2.00212     511.555E-03    -254.657E-03    -256.898E-03    -256.642E-03     511.551E-03    -254.909E-03    -3.43658E-03    -105.640E+06    -112.104E+06    -168.418E+06    -109.246E+06    -168.145E+06    -108.772E+06     2.07311E+06         64.4780
             263     2.98789E-06     109.584E-03         1.12940    -742.489E-03        -3.58050         1.06588        -3.51699    -742.489E-03         1.01086     510.513E-03    -253.887E-03    -256.626E-03    -256.625E-03     510.512E-03    -253.887E-03    -1.13721E-03    -102.866E+06    -109.036E+06    -160.880E+06    -105.950E+06    -160.834E+06    -105.997E+06     170.204E+03         64.4947
             264    -1.77671E-06     107.913E-03         1.41675    -175.403E-03        -4.34632         1.40535        -4.33492    -175.403E-03     235.112E-03     511.543E-03    -254.850E-03    -256.693E-03    -255.600E-03     511.542E-03    -255.942E-03    -936.494E-06    -102.619E+06    -108.512E+06    -156.161E+06    -105.689E+06    -156.129E+06    -105.473E+06     1.12454E+06         64.5188
             265     61.0268E-09     106.250E-03         1.28305     24.0977E-03        -4.26160         1.27064        -4.24919     24.0977E-03    -408.273E-03     512.587E-03    -253.714E-03    -258.873E-03    -257.778E-03     512.584E-03    -254.806E-03    -2.81522E-03    -104.270E+06    -109.590E+06    -150.089E+06    -106.760E+06    -150.064E+06    -107.125E+06     908.340E+03         64.5507
             266     6.25895E-06     104.571E-03     786.360E-03    -357.086E-03        -3.17089     565.404E-03        -2.94993    -357.086E-03        -1.46327     511.190E-03    -252.933E-03    -258.257E-03    -256.996E-03     511.187E-03    -254.190E-03    -215.165E-06    -100.083E+06    -106.080E+06    -141.548E+06    -102.630E+06    -141.465E+06    -103.615E+06     1.75531E+06         64.5910
             267    -8.23278E-06     102.911E-03     766.202E-03    -200.870E-03        -3.16394     336.018E-03        -2.73376    -200.870E-03        -2.45205     510.204E-03    -254.118E-03    -256.086E-03    -254.112E-03     510.198E-03    -256.086E-03    -1.01499E-03    -96.9577E+06    -104.497E+06    -132.094E+06    -101.031E+06    -132.027E+06    -100.490E+06     845.474E+03         64.6379
             268     7.14756E-06     101.248E-03         1.40212     635.971E-03        -4.60169     914.119E-03        -4.11369     635.971E-03        -3.26378     513.264E-03    -253.882E-03    -259.381E-03    -258.667E-03     513.259E-03    -254.592E-03    -3.09615E-03    -101.359E+06    -106.915E+06    -131.612E+06    -105.376E+06    -131.602E+06    -102.908E+06    -500.947E+03         64.6801
             269     253.836E-09     99.5672E-03         2.11168         1.45650        -6.05638         1.81024        -5.75494         1.45650        -2.72349     513.587E-03    -253.424E-03    -260.163E-03    -258.213E-03     513.587E-03    -255.374E-03    -166.386E-06    -101.041E+06    -104.472E+06    -127.240E+06    -101.472E+06    -126.809E+06    -104.472E+06     1.83294E+06         64.6998
             270    -3.27152E-06     97.8997E-03         2.04978         1.63943        -6.09844         2.01509        -6.06375         1.63943    -716.705E-03     510.826E-03    -254.224E-03    -256.602E-03    -254.644E-03     510.819E-03    -256.175E-03    -2.95158E-03    -99.6379E+06    -103.370E+06    -120.368E+06    -102.055E+06    -119.801E+06    -101.519E+06     995.865E+03         64.7011
             271     3.92536E-06     96.2386E-03         2.12527         1.55115        -6.01121         1.94031        -5.82625         1.55115         1.79990     511.225E-03    -254.787E-03    -256.438E-03    -256.430E-03     511.217E-03    -254.787E-03    -2.11648E-03    -97.5441E+06    -102.339E+06    -117.521E+06    -99.6737E+06    -117.242E+06    -100.489E+06     80.8047E+03         64.7056
             272    -2.02872E-06     94.5648E-03         2.60083         1.68652        -6.56802         2.01107        -5.97827         1.68652         4.43183     513.695E-03    -256.209E-03    -257.486E-03    -257.483E-03     513.692E-03    -256.209E-03    -522.144E-06    -97.0668E+06    -102.913E+06    -115.245E+06    -100.387E+06    -114.826E+06    -100.012E+06    -59.8854E+03         64.7178
             273     2.14515E-06     92.8887E-03         3.16803         2.09180        -7.51246         2.21456        -6.55899         2.09180         6.08746     513.213E-03    -255.252E-03    -257.962E-03    -257.960E-03     513.211E-03    -255.252E-03    -1.44625E-03    -96.5088E+06    -103.114E+06    -114.479E+06    -99.8560E+06    -114.033E+06    -100.213E+06     30.9024E+03         64.7295
             274     13.1758E-03     91.5747E-03         1.93938         1.27477        -4.82398         1.22714        -4.77635         1.93938        -1.06952     533.602E-03    -256.024E-03    -277.578E-03    -260.900E-03     516.924E-03    -256.024E-03     214.984E-03     48.9258E+06     6.78841E+06    -3.17894E+06    -3.08488E+06     6.69435E+06     48.9258E+06    -213.502E+03         83.0623
             275     12.3962E-03     91.1070E-03         1.96983         1.31308        -4.95486         1.28059        -4.92237         1.96983    -824.731E-03     533.404E-03    -256.017E-03    -277.387E-03    -258.015E-03     514.031E-03    -256.017E-03     241.645E-03     41.6450E+06     2.50850E+06    -6.44179E+06    -6.34799E+06     2.41470E+06     41.6450E+06    -453.903E+03         81.4511
             276     11.6216E-03     90.8511E-03         2.00554         1.27055        -4.98717         1.25154        -4.96816         2.00554    -654.926E-03     521.012E-03    -256.036E-03    -264.976E-03    -252.053E-03     508.088E-03    -256.036E-03     199.131E-03     36.4417E+06    -1.75556E+06    -9.81186E+06    -9.65557E+06    -1.91186E+06     36.4417E+06     310.514E+03         79.7159
             277     10.8451E-03     90.5426E-03         2.05219         1.25309        -5.03511         1.23934        -5.02136         2.05219    -318.701E-03     519.662E-03    -256.030E-03    -263.632E-03    -250.961E-03     506.991E-03    -256.030E-03     196.689E-03     33.9458E+06    -3.58704E+06    -12.9791E+06    -12.7176E+06    -3.84855E+06     33.9458E+06     1.20446E+06         78.0311
             278     10.0723E-03     90.3017E-03         2.10518         1.40700        -5.25178         1.35618        -5.20096         2.10518     916.983E-03     515.093E-03    -255.752E-03    -259.341E-03    -249.276E-03     505.265E-03    -255.989E-03     173.328E-03     34.0283E+06    -5.46698E+06    -16.2293E+06    -16.0954E+06    -5.60093E+06     34.0283E+06     895.733E+03         76.4941
             279     9.30016E-03     90.0767E-03         2.15189         1.73050        -5.63157         1.63144        -5.53251         2.15189         1.69541     511.864E-03    -254.677E-03    -257.187E-03    -247.177E-03     503.164E-03    -255.987E-03     162.348E-03     34.1939E+06    -7.32086E+06    -20.0459E+06    -20.0148E+06    -7.35195E+06     34.1939E+06     428.153E+03         75.1122
             280     8.52240E-03     89.8961E-03         2.19965         2.01290        -5.97727         1.98453        -5.92664         2.17738         1.01777     509.516E-03    -253.455E-03    -256.060E-03    -246.639E-03     502.699E-03    -256.060E-03     143.102E-03     31.4119E+06    -11.2650E+06    -25.1542E+06    -25.0622E+06    -11.3571E+06     31.4119E+06     795.107E+03         73.8395
             281     7.74682E-03     89.7433E-03         2.29958         2.14617        -6.23383         2.26145        -6.22511         2.17558     500.911E-03     508.905E-03    -252.795E-03    -256.110E-03    -248.010E-03     504.120E-03    -256.110E-03     119.762E-03     25.9252E+06    -17.4905E+06    -31.3742E+06    -31.2491E+06    -17.6156E+06     25.9252E+06     1.08797E+06         72.6228
             282     6.97149E-03     89.6226E-03         2.39470         2.15312        -6.37267         2.37442        -6.35239         2.15312    -138.368E-03     508.109E-03    -252.004E-03    -256.105E-03    -249.062E-03     505.168E-03    -256.105E-03     93.2443E-03     19.2873E+06    -24.0197E+06    -37.5288E+06    -37.4233E+06    -24.1252E+06     19.2873E+06     1.14093E+06         71.4286
             283     6.19685E-03     89.5507E-03         2.39570         2.12459        -6.38638         2.32542        -6.31610         2.12459        -1.47554     507.958E-03    -251.869E-03    -256.088E-03    -250.241E-03     506.329E-03    -256.088E-03     69.6747E-03     11.4781E+06    -30.9556E+06    -43.6599E+06    -43.4596E+06    -31.1560E+06     11.4781E+06     1.39779E+06         70.2532
             284     5.42317E-03     89.5068E-03         2.27457         2.05850        -6.24597         2.12461        -6.14707         2.10957        -1.79745     508.599E-03    -252.544E-03    -256.055E-03    -251.649E-03     507.704E-03    -256.055E-03     51.2713E-03     1.81851E+06    -39.0685E+06    -50.4434E+06    -50.2562E+06    -39.2557E+06     1.81851E+06     1.30978E+06         69.1187
             285     4.64701E-03     89.4831E-03         2.16106         1.91191        -6.04065         1.89914        -5.99415         2.12733        -1.02036     509.214E-03    -253.204E-03    -256.009E-03    -252.820E-03     508.829E-03    -256.009E-03     33.0612E-03    -9.07758E+06    -47.8775E+06    -58.0082E+06    -57.8298E+06    -48.0559E+06    -9.07758E+06     1.22502E+06         68.0591
             286     3.87342E-03     89.4840E-03         2.18544         1.82831        -6.04702         1.79292        -6.01164         2.18544     360.560E-03     510.152E-03    -254.237E-03    -255.915E-03    -254.109E-03     510.024E-03    -255.915E-03     19.0997E-03    -24.3649E+06    -58.7825E+06    -66.7970E+06    -66.3133E+06    -59.2661E+06    -24.3649E+06     1.65021E+06         67.1093
             287     3.09963E-03     89.4944E-03         2.28044         1.90235        -6.28981         1.82666        -6.21411         2.28044         1.36728     510.588E-03    -254.821E-03    -255.768E-03    -254.785E-03     510.553E-03    -255.768E-03     9.50359E-03    -43.0416E+06    -71.0821E+06    -75.6066E+06    -74.7274E+06    -71.9613E+06    -43.0416E+06     1.45785E+06         66.2983
             288     2.32327E-03     89.5172E-03         2.48360         2.18757        -6.84810         2.02024        -6.59561         2.39843         2.67594     510.765E-03    -255.135E-03    -255.629E-03    -255.133E-03     510.760E-03    -255.627E-03     2.79225E-03    -61.1306E+06    -81.6375E+06    -85.6782E+06    -82.4184E+06    -84.8973E+06    -61.1306E+06     988.261E+03         65.6472
             289     1.55023E-03     89.5337E-03         2.60401         2.42392        -7.25328         2.28159        -7.02578         2.51884         2.50102     511.004E-03    -255.024E-03    -255.980E-03    -255.584E-03     511.003E-03    -255.418E-03     5.99282E-06    -76.4672E+06    -88.0230E+06    -96.0933E+06    -88.3087E+06    -95.8075E+06    -76.4672E+06     1.42847E+06         65.1698
             290     778.098E-06     89.5518E-03         2.89674         2.56866        -7.72115         2.31626        -7.40774         2.83573         2.99737     510.417E-03    -254.148E-03    -256.268E-03    -255.534E-03     510.414E-03    -254.880E-03    -867.939E-06    -88.2770E+06    -93.8770E+06    -106.312E+06    -93.2660E+06    -106.063E+06    -89.1373E+06      1.2837E+06         64.8718
             291     13.1704E-03     89.9072E-03         1.86103         1.16815        -4.79673         1.13184        -4.76042         1.86103    -926.370E-03     533.128E-03    -256.109E-03    -277.019E-03    -260.216E-03     516.325E-03    -256.109E-03     215.937E-03     48.1567E+06     5.89036E+06    -3.28679E+06    -3.22216E+06     5.82573E+06     48.1567E+06    -42.7620E+03         83.0338
             292     12.3977E-03     89.4389E-03         1.88767         1.04374        -4.74527         1.02354        -4.72507         1.88767    -591.913E-03     534.808E-03    -256.095E-03    -278.713E-03    -259.328E-03     515.423E-03    -256.095E-03     241.875E-03     41.3853E+06     2.19362E+06    -6.34838E+06    -6.31066E+06     2.15590E+06     41.3853E+06     117.419E+03         81.4374
             293     11.6223E-03     89.1819E-03         1.92754     945.546E-03        -4.72021     934.316E-03        -4.70898         1.92754    -455.693E-03     522.560E-03    -256.012E-03    -266.549E-03    -253.873E-03     509.884E-03    -256.012E-03     197.706E-03     37.0953E+06    -1.76638E+06    -9.43693E+06    -9.35158E+06    -1.85173E+06     37.0953E+06     248.699E+03         79.7174
             294     10.8502E-03     88.8735E-03         1.97752         1.01391        -4.85604         1.00330        -4.84543         1.97752    -246.753E-03     519.610E-03    -255.926E-03    -263.684E-03    -251.073E-03     506.998E-03    -255.926E-03     196.461E-03     34.2988E+06    -4.05730E+06    -12.6458E+06    -12.4476E+06    -4.25553E+06     34.2988E+06     261.120E+03         78.0397
             295     10.0763E-03     88.6295E-03         2.02288         1.31037        -5.20794         1.26442        -5.16199         2.02288     876.137E-03     512.995E-03    -255.536E-03    -257.459E-03    -246.965E-03     502.930E-03    -255.965E-03     174.876E-03     33.0326E+06    -5.79146E+06    -15.5333E+06    -15.3549E+06    -5.96990E+06     33.0326E+06     280.859E+03         76.5014
             296     9.29466E-03     88.4197E-03         2.05074         1.70203        -5.63242         1.61091        -5.54130         2.05074         1.62217     511.065E-03    -254.892E-03    -256.173E-03    -246.198E-03     502.311E-03    -256.113E-03     162.515E-03     33.2589E+06    -8.33188E+06    -19.8907E+06    -19.7884E+06    -8.43425E+06     33.2589E+06     828.921E+03         75.1174
             297     8.51786E-03     88.2227E-03         2.07860         1.92868        -5.89390         1.90434        -5.84730         2.05634     939.115E-03     510.713E-03    -254.471E-03    -256.242E-03    -247.901E-03     504.083E-03    -256.182E-03     141.244E-03     30.7919E+06    -12.3763E+06    -25.4326E+06    -25.2686E+06    -12.5404E+06     30.7919E+06     1.38772E+06         73.8464
             298     7.74671E-03     88.0712E-03         2.12140         2.00491        -6.03003         2.06399        -6.01346         2.04574     589.872E-03     509.400E-03    -253.261E-03    -256.139E-03    -248.630E-03     504.770E-03    -256.139E-03     117.955E-03     25.6781E+06    -17.2454E+06    -30.5957E+06    -30.4364E+06    -17.4048E+06     25.6781E+06     1.40906E+06         72.6326
             299     6.97340E-03     87.9552E-03         2.12034         1.98270        -6.03273         2.04726        -6.00921         2.03225     167.738E-03     507.818E-03    -251.702E-03    -256.116E-03    -248.778E-03     504.894E-03    -256.116E-03     93.0477E-03     19.0031E+06    -23.7022E+06    -36.3472E+06    -36.2679E+06    -23.7815E+06     19.0031E+06     958.585E+03         71.4404
             300     6.19675E-03     87.8842E-03         2.08547         1.86672        -5.91617         1.87975        -5.87784         2.03411    -954.229E-03     508.161E-03    -252.057E-03    -256.104E-03    -250.414E-03     506.518E-03    -256.104E-03     69.9174E-03     10.3637E+06    -31.6758E+06    -43.1158E+06    -43.0815E+06    -31.7101E+06     10.3637E+06     575.493E+03         70.2676
             301     5.42175E-03     87.8334E-03         2.08346         1.74648        -5.83239         1.69823        -5.76747         2.06680        -1.30546     508.959E-03    -252.923E-03    -256.037E-03    -252.059E-03     508.095E-03    -256.037E-03     50.2457E-03     1.94968E+06    -39.2155E+06    -50.0219E+06    -49.8385E+06    -39.3990E+06     1.94968E+06     1.10528E+06         69.1365
             302     4.64960E-03     87.8168E-03         2.13753         1.63153        -5.81808         1.59229        -5.77884         2.13753    -788.344E-03     509.063E-03    -253.097E-03    -255.966E-03    -252.717E-03     508.683E-03    -255.966E-03     33.3177E-03    -8.74199E+06    -47.8892E+06    -57.7712E+06    -57.4702E+06    -48.1902E+06    -8.74199E+06     1.58707E+06         68.0800
             303     3.87387E-03     87.8132E-03         2.24498         1.63041        -5.98413         1.62310        -5.97681         2.24498     71.3745E-03     509.633E-03    -253.704E-03    -255.929E-03    -253.554E-03     509.483E-03    -255.929E-03     20.4558E-03    -24.1807E+06    -58.9670E+06    -66.0126E+06    -65.7668E+06    -59.2128E+06    -24.1807E+06     1.22836E+06         67.1325
             304     3.09830E-03     87.8288E-03         2.38024         1.81787        -6.37505         1.79335        -6.35054         2.38024     790.759E-03     510.378E-03    -254.481E-03    -255.897E-03    -254.442E-03     510.339E-03    -255.897E-03     10.0397E-03    -41.5366E+06    -69.9388E+06    -73.8872E+06    -73.0248E+06    -70.8012E+06    -41.5366E+06     1.15735E+06         66.3243
             305     2.32522E-03     87.8465E-03         2.52480         2.17074        -6.93776         2.09335        -6.86037         2.52480         1.57565     510.852E-03    -254.974E-03    -255.877E-03    -254.967E-03     510.845E-03    -255.877E-03     3.79357E-03    -60.1066E+06    -80.0318E+06    -84.1774E+06    -80.6091E+06    -83.6000E+06    -60.1066E+06     932.738E+03         65.6766
             306     1.54915E-03     87.8685E-03         2.65886         2.50005        -7.43384         2.40610        -7.33988         2.65886         1.84132     511.217E-03    -255.209E-03    -256.008E-03    -255.273E-03     511.213E-03    -255.940E-03     183.689E-06    -76.7848E+06    -87.6522E+06    -95.8686E+06    -87.6246E+06    -95.7273E+06    -76.9537E+06     329.400E+03         65.2026
             307     770.166E-06     87.8846E-03         3.13001         2.42233        -7.86015         2.31094        -7.74876         3.13001         1.55428     511.901E-03    -255.051E-03    -256.850E-03    -256.478E-03     511.897E-03    -255.419E-03    -1.57458E-03    -87.1942E+06    -91.5802E+06    -104.512E+06    -90.7100E+06    -104.353E+06    -88.2234E+06     506.143E+03         64.9072
             308     13.1704E-03     88.2393E-03         1.76469         1.20543        -4.90978         1.17521        -4.87956         1.76469    -855.749E-03     533.212E-03    -256.126E-03    -277.085E-03    -260.524E-03     516.650E-03    -256.126E-03     214.711E-03     47.6428E+06     5.77128E+06    -2.97469E+06    -2.82638E+06     5.62297E+06     47.6428E+06     182.508E+03         83.0103
             309     12.3941E-03     87.7638E-03         1.78470         1.07847        -4.82681         1.06209        -4.81042         1.78470    -488.161E-03     535.002E-03    -256.069E-03    -278.933E-03    -259.877E-03     515.946E-03    -256.069E-03     239.926E-03     40.3466E+06     1.69144E+06    -6.64413E+06    -6.52820E+06     1.57552E+06     40.3466E+06    -161.741E+03         81.4254
             310     11.6236E-03     87.5094E-03         1.81034         1.06699        -4.86434         1.05840        -4.85575         1.81034    -361.890E-03     521.862E-03    -255.983E-03    -265.878E-03    -253.040E-03     509.023E-03    -255.983E-03     198.510E-03     35.4201E+06    -2.38873E+06    -9.30086E+06    -9.09410E+06    -2.59548E+06     35.4201E+06    -115.647E+03         79.7158
             311     10.8500E-03     87.2001E-03         1.83421         1.17935        -5.01954         1.17066        -5.01085         1.83421    -282.646E-03     518.431E-03    -255.997E-03    -262.434E-03    -249.421E-03     505.418E-03    -255.997E-03     199.182E-03     32.6401E+06    -5.12179E+06    -12.1610E+06    -11.9919E+06    -5.29089E+06     32.6401E+06    -226.252E+03         78.0443
             312     10.0685E-03     86.9752E-03         1.84907         1.38316        -5.24393         1.35090        -5.21167         1.84907     678.272E-03     514.022E-03    -255.899E-03    -258.124E-03    -247.731E-03     503.822E-03    -256.091E-03     176.227E-03     32.1998E+06    -7.30537E+06    -15.7589E+06    -15.6120E+06    -7.45224E+06     32.1998E+06     290.993E+03         76.5111
             313     9.29566E-03     86.7437E-03         1.85330         1.59748        -5.45795         1.53145        -5.39192         1.85330         1.35089     513.274E-03    -255.915E-03    -257.359E-03    -248.608E-03     504.725E-03    -256.117E-03     161.017E-03     33.9410E+06    -8.98180E+06    -19.7927E+06    -19.6487E+06    -9.12575E+06     33.9410E+06     1.21818E+06         75.1311
             314     8.52548E-03     86.5566E-03         1.84871         1.70470        -5.55800         1.66976        -5.52307         1.84871     760.296E-03     510.490E-03    -254.363E-03    -256.126E-03    -247.989E-03     504.056E-03    -256.067E-03     139.323E-03     31.8054E+06    -12.4841E+06    -24.5099E+06    -24.3785E+06    -12.6155E+06     31.8054E+06     1.22525E+06         73.8598
             315     7.74746E-03     86.3999E-03         1.84016         1.76765        -5.61923         1.74354        -5.59511         1.84016     653.945E-03     507.943E-03    -251.873E-03    -256.070E-03    -247.312E-03     503.382E-03    -256.070E-03     116.753E-03     25.9083E+06    -17.5399E+06    -29.6404E+06    -29.5283E+06    -17.6519E+06     25.9083E+06     1.13849E+06         72.6431
             316     6.97014E-03     86.2904E-03         1.83342         1.77105        -5.63496         1.74602        -5.60993         1.83342     588.774E-03     507.838E-03    -251.734E-03    -256.103E-03    -248.832E-03     504.935E-03    -256.103E-03     92.9356E-03     19.0121E+06    -23.8014E+06    -35.4467E+06    -35.3591E+06    -23.8890E+06     19.0121E+06     982.477E+03         71.4503
             317     6.19728E-03     86.2105E-03         1.85614         1.66426        -5.57376         1.67854        -5.56816         1.83626    -176.448E-03     508.337E-03    -252.264E-03    -256.073E-03    -250.604E-03     506.677E-03    -256.073E-03     70.1144E-03     10.5450E+06    -31.2661E+06    -41.9092E+06    -41.7874E+06    -31.3879E+06     10.5450E+06     928.719E+03         70.2796
             318     5.42455E-03     86.1662E-03         1.87765         1.57140        -5.53376         1.58168        -5.52416         1.85777    -409.403E-03     508.103E-03    -252.050E-03    -256.054E-03    -251.187E-03     507.240E-03    -256.054E-03     50.4289E-03     1.07291E+06    -39.6453E+06    -49.3566E+06    -49.1297E+06    -39.8721E+06     1.07291E+06     1.09082E+06         69.1514
             319     4.64680E-03     86.1478E-03         1.90562         1.53669        -5.56771         1.51439        -5.54540         1.90562     167.974E-03     508.860E-03    -252.774E-03    -256.086E-03    -252.361E-03     508.447E-03    -256.086E-03     34.7203E-03    -9.82997E+06    -48.5387E+06    -57.1751E+06    -56.9037E+06    -48.8101E+06    -9.82997E+06     1.26092E+06         68.0985
             320     3.87219E-03     86.1471E-03         1.98061         1.57613        -5.73250         1.55300        -5.70937         1.98061     695.812E-03     510.025E-03    -253.934E-03    -256.090E-03    -253.777E-03     509.867E-03    -256.090E-03     20.7419E-03    -23.0970E+06    -58.4075E+06    -64.6293E+06    -64.4187E+06    -58.6181E+06    -23.0970E+06     983.154E+03         67.1559
             321     3.09807E-03     86.1582E-03         2.09541         1.73793        -6.06752         1.66927        -5.98231         2.07888         1.34635     510.482E-03    -254.388E-03    -256.094E-03    -254.352E-03     510.446E-03    -256.094E-03     9.41443E-03    -39.5712E+06    -69.9267E+06    -73.3520E+06    -72.7670E+06    -70.5117E+06    -39.5712E+06     866.859E+03         66.3524
             322     2.32158E-03     86.1806E-03         2.20565         1.95845        -6.45600         1.88157        -6.36257         2.18911         1.54104     510.997E-03    -254.810E-03    -256.187E-03    -254.804E-03     510.991E-03    -256.187E-03     3.36979E-03    -58.2770E+06    -79.0356E+06    -83.6307E+06    -79.8441E+06    -82.8222E+06    -58.2770E+06     1.35136E+06         65.7088
             323     1.54762E-03     86.1982E-03         2.40626         2.20163        -6.93543         2.10650        -6.73055         2.29652         2.19348     512.002E-03    -255.628E-03    -256.374E-03    -255.692E-03     511.998E-03    -256.306E-03     227.026E-06    -76.5713E+06    -85.5256E+06    -95.1799E+06    -85.6295E+06    -94.9072E+06    -76.7403E+06     372.057E+03         65.2385
             324     778.585E-06     86.2141E-03         3.01848         2.04775        -7.40827         1.79415        -7.04493         2.90874     372.987E-03     512.617E-03    -255.711E-03    -256.905E-03    -256.798E-03     512.612E-03    -255.815E-03    -1.21894E-03    -87.4338E+06    -90.5706E+06    -103.946E+06    -90.4628E+06    -103.885E+06    -87.6027E+06    -741.013E+03         64.9459
             325     13.1734E-03     86.5710E-03         1.68149         1.39148        -5.13291         1.36946        -5.11089         1.68149    -745.909E-03     534.345E-03    -256.046E-03    -278.299E-03    -261.749E-03     517.794E-03    -256.046E-03     214.314E-03     48.8101E+06     6.05009E+06    -2.47948E+06    -2.35313E+06     5.92374E+06     48.8101E+06     552.676E+03         82.9876
             326     12.4016E-03     86.0961E-03         1.69476         1.40021        -5.18190         1.40434        -5.17126         1.68000    -368.742E-03     533.517E-03    -256.007E-03    -277.510E-03    -258.182E-03     514.190E-03    -256.007E-03     241.612E-03     40.4031E+06     2.04199E+06    -5.36681E+06    -5.18616E+06     1.86134E+06     40.4031E+06     178.147E+03         81.4117
             327     11.6233E-03     85.8391E-03         1.70141         1.42844        -5.24233         1.45099        -5.23621         1.67274    -292.564E-03     520.036E-03    -256.050E-03    -263.985E-03    -251.036E-03     507.086E-03    -256.050E-03     199.069E-03     33.1494E+06    -3.48228E+06    -9.11317E+06    -8.89909E+06    -3.69635E+06     33.1494E+06    -431.536E+03         79.7123
             328     10.8415E-03     85.5410E-03         1.67552         1.44662        -5.24480         1.45358        -5.23785         1.66161    -384.442E-03     519.032E-03    -256.098E-03    -262.934E-03    -250.299E-03     506.397E-03    -256.098E-03     196.200E-03     30.2510E+06    -6.61367E+06    -12.4316E+06    -12.3502E+06    -6.69507E+06     30.2510E+06    -90.9605E+03         78.0525
             329     10.0713E-03     85.2976E-03         1.65032         1.45571        -5.22533         1.43723        -5.20685         1.65032     378.951E-03     515.531E-03    -256.068E-03    -259.464E-03    -249.714E-03     505.782E-03    -256.068E-03     172.690E-03     31.3455E+06    -8.48928E+06    -15.8686E+06    -15.7948E+06    -8.56308E+06     31.3455E+06     448.379E+03         76.5274
             330     9.29976E-03     85.0736E-03         1.64131         1.48292        -5.23212         1.44782        -5.19702         1.64131     945.425E-03     512.658E-03    -255.334E-03    -257.324E-03    -248.077E-03     504.101E-03    -256.025E-03     161.185E-03     33.3927E+06    -9.90162E+06    -19.8433E+06    -19.7780E+06    -9.96699E+06     33.3927E+06     532.968E+03         75.1471
             331     8.52173E-03     84.8859E-03         1.63678         1.53978        -5.27409         1.52397        -5.25328         1.63178     315.719E-03     509.893E-03    -253.859E-03    -256.034E-03    -247.138E-03     503.172E-03    -256.034E-03     142.225E-03     30.9134E+06    -13.2765E+06    -24.3111E+06    -24.2483E+06    -13.3393E+06     30.9134E+06     719.281E+03         73.8717
             332     7.74775E-03     84.7375E-03         1.69594         1.58496        -5.37793         1.64331        -5.35696         1.61663     342.347E-03     508.600E-03    -252.545E-03    -256.055E-03    -247.856E-03     503.911E-03    -256.055E-03     118.433E-03     25.3396E+06    -18.3376E+06    -29.3828E+06    -29.2910E+06    -18.4294E+06     25.3396E+06     894.630E+03         72.6531
             333     6.97347E-03     84.6197E-03         1.79194         1.57766        -5.47544         1.75997        -5.45628         1.59047     489.179E-03     507.765E-03    -251.695E-03    -256.070E-03    -248.745E-03     504.815E-03    -256.070E-03     93.6736E-03     19.4053E+06    -24.0151E+06    -34.9836E+06    -34.7679E+06    -24.2307E+06     19.4053E+06     1.37760E+06         71.4611
             334     6.19844E-03     84.5403E-03         1.84127         1.54641        -5.50968         1.83506        -5.50809         1.55103    -24.6115E-03     507.312E-03    -251.196E-03    -256.116E-03    -249.509E-03     505.625E-03    -256.116E-03     70.5823E-03     10.9279E+06    -31.0722E+06    -41.1033E+06    -40.8084E+06    -31.3670E+06     10.9279E+06     1.62275E+06         70.2925
             335     5.42025E-03     84.5017E-03         1.86130         1.48306        -5.48961         1.84029        -5.48572         1.50018    -226.405E-03     508.164E-03    -251.979E-03    -256.185E-03    -251.097E-03     507.282E-03    -256.185E-03     51.0084E-03     1.48694E+06    -39.5949E+06    -48.1852E+06    -48.0289E+06    -39.7513E+06     1.48694E+06     988.205E+03         69.1678
             336     4.64645E-03     84.4786E-03         1.82110         1.41793        -5.41779         1.76382        -5.38680         1.44422     408.340E-03     509.606E-03    -253.414E-03    -256.193E-03    -253.013E-03     509.206E-03    -256.193E-03     33.8427E-03    -8.58466E+06    -48.1826E+06    -55.7154E+06    -55.5786E+06    -48.3195E+06    -8.58466E+06     636.955E+03         68.1196
             337     3.87284E-03     84.4756E-03         1.72855         1.34413        -5.29586         1.64801        -5.26280         1.39161     717.851E-03     509.988E-03    -253.819E-03    -256.169E-03    -253.686E-03     509.855E-03    -256.169E-03     19.2171E-03    -22.9183E+06    -58.4633E+06    -64.0726E+06    -63.7903E+06    -58.7456E+06    -22.9183E+06     812.694E+03         67.1813
             338     3.09789E-03     84.4915E-03         1.70933         1.31136        -5.29743         1.52175        -5.14816         1.34967         1.49147     510.496E-03    -254.278E-03    -256.218E-03    -254.243E-03     510.461E-03    -256.218E-03     9.51009E-03    -40.5190E+06    -69.6494E+06    -73.0442E+06    -71.9637E+06    -70.7300E+06    -40.5190E+06     648.747E+03         66.3811
             339     2.32403E-03     84.5115E-03         1.58552         1.30580        -5.22001         1.41400        -5.06514         1.32244         1.33734     511.523E-03    -255.224E-03    -256.299E-03    -255.216E-03     511.516E-03    -256.299E-03     3.51728E-03    -57.3013E+06    -78.5745E+06    -83.1364E+06    -79.1485E+06    -82.5624E+06    -57.3013E+06     814.497E+03         65.7404
             340     1.54875E-03     84.5285E-03         1.81412         1.30263        -5.47001         1.31537        -4.98790         1.31927         2.45894     512.042E-03    -255.614E-03    -256.428E-03    -255.611E-03     512.039E-03    -256.428E-03     90.4935E-06    -72.6659E+06    -84.9931E+06    -94.4904E+06    -85.7232E+06    -93.7604E+06    -72.6659E+06     1.68532E+06         65.2723
             341     769.361E-06     84.5432E-03         2.48038         1.54385        -6.39768     709.577E-03        -5.03290         1.94987    -769.982E-03     512.907E-03    -255.161E-03    -257.746E-03    -257.270E-03     512.903E-03    -255.633E-03    -975.803E-06    -85.3318E+06    -93.0486E+06    -105.576E+06    -90.7267E+06    -105.046E+06    -88.1837E+06     1.01785E+06         64.9812
             342     13.1751E-03     84.8998E-03         1.68939         1.52637        -5.36885         1.61043        -5.35467         1.59115    -624.712E-03     533.934E-03    -256.045E-03    -277.889E-03    -260.970E-03     517.015E-03    -256.045E-03     216.271E-03     47.1357E+06     4.45421E+06    -3.18101E+06    -3.13743E+06     4.41064E+06     47.1357E+06    -221.443E+03         82.9610
             343     12.3950E-03     84.4309E-03         1.71734         1.54443        -5.45939         1.69194        -5.45159         1.56203    -199.780E-03     533.493E-03    -256.063E-03    -277.430E-03    -257.816E-03     513.878E-03    -256.063E-03     242.870E-03     39.4826E+06     846.833E+03    -5.43020E+06    -5.31971E+06     736.347E+03     39.4826E+06     153.324E+03         81.3981
             344     11.6176E-03     84.1745E-03         1.64818         1.52819        -5.39677         1.64301        -5.39160         1.52819    -110.420E-03     521.173E-03    -256.086E-03    -265.087E-03    -252.378E-03     508.464E-03    -256.086E-03     197.601E-03     34.4884E+06    -2.94400E+06    -8.07688E+06    -7.91174E+06    -3.10913E+06     34.4884E+06     391.282E+03         79.7150
             345     10.8502E-03     83.8667E-03         1.54432         1.47968        -5.24633         1.52079        -5.24190         1.49878    -297.649E-03     520.233E-03    -256.035E-03    -264.198E-03    -251.673E-03     507.708E-03    -256.035E-03     195.872E-03     32.2708E+06    -6.05637E+06    -11.8007E+06    -11.6513E+06    -6.20582E+06     32.2708E+06     647.069E+03         78.0664
             346     10.0762E-03     83.6260E-03         1.48802         1.43559        -5.12953         1.43482        -5.11685         1.47610     306.163E-03     514.480E-03    -255.991E-03    -258.489E-03    -248.516E-03     504.507E-03    -255.991E-03     174.393E-03     31.7759E+06    -8.68472E+06    -15.4546E+06    -15.3044E+06    -8.83498E+06     31.7759E+06     706.721E+03         76.5426
             347     9.29644E-03     83.4117E-03         1.50954         1.40939        -5.10303         1.44119        -5.08213         1.45684     737.244E-03     511.617E-03    -255.346E-03    -256.270E-03    -246.822E-03     502.867E-03    -256.045E-03     162.684E-03     31.6835E+06    -10.6471E+06    -19.2158E+06    -19.1233E+06    -10.7396E+06     31.6835E+06     459.809E+03         75.1588
             348     8.52081E-03     83.2172E-03         1.55915         1.40694        -5.13650         1.51927        -5.12266         1.43298     92.6802E-03     509.860E-03    -253.736E-03    -256.124E-03    -247.066E-03     503.189E-03    -256.124E-03     141.560E-03     29.2666E+06    -14.4472E+06    -23.8110E+06    -23.7966E+06    -14.4616E+06     29.2666E+06     340.382E+03         73.8814
             349     7.74631E-03     83.0650E-03         1.65600         1.39796        -5.21896         1.63942        -5.20238         1.39796     153.654E-03     508.700E-03    -252.531E-03    -256.169E-03    -247.790E-03     503.958E-03    -256.169E-03     119.380E-03     24.5381E+06    -19.5538E+06    -28.9494E+06    -28.8960E+06    -19.6072E+06     24.5381E+06     600.752E+03         72.6635
             350     6.97251E-03     82.9508E-03         1.78214         1.34632        -5.29604         1.76954        -5.28344         1.34632     308.449E-03     508.018E-03    -251.811E-03    -256.207E-03    -248.704E-03     504.911E-03    -256.207E-03     95.9889E-03     18.8775E+06    -25.0035E+06    -34.4826E+06    -34.2811E+06    -25.2050E+06     18.8775E+06     1.22969E+06         71.4740
             351     6.19476E-03     82.8781E-03         1.82357         1.27705        -5.27691         1.82257        -5.27591         1.27705    -134.862E-03     508.071E-03    -251.835E-03    -256.236E-03    -250.133E-03     506.369E-03    -256.236E-03     70.9165E-03     11.2277E+06    -31.6374E+06    -40.6880E+06    -40.4401E+06    -31.8853E+06     11.2277E+06     1.41160E+06         70.3095
             352     5.42153E-03     82.8293E-03         1.79180         1.19411        -5.17788         1.77832        -5.16441         1.19411    -449.206E-03     509.152E-03    -252.945E-03    -256.207E-03    -252.088E-03     508.295E-03    -256.207E-03     50.1683E-03     2.90850E+06    -39.0179E+06    -47.2218E+06    -47.0178E+06    -39.2219E+06     2.90850E+06     1.24377E+06         69.1893
             353     4.64855E-03     82.8070E-03         1.66419         1.10493        -4.98872         1.63451        -4.95903         1.10493     43.0633E-03     509.314E-03    -253.156E-03    -256.158E-03    -252.780E-03     508.938E-03    -256.158E-03     32.9487E-03    -7.88529E+06    -47.7808E+06    -54.7138E+06    -54.4205E+06    -48.0741E+06    -7.88529E+06     1.06215E+06         68.1444
             354     3.87265E-03     82.8099E-03         1.49444         1.01858        -4.77715         1.43431        -4.71702         1.01858    -116.272E-03     509.373E-03    -253.153E-03    -256.221E-03    -253.017E-03     509.238E-03    -256.221E-03     19.5130E-03    -22.9678E+06    -58.5802E+06    -62.9752E+06    -62.6021E+06    -58.9533E+06    -22.9678E+06     714.855E+03         67.2076
             355     3.09628E-03     82.8235E-03         1.37687     941.530E-03        -4.63095         1.22785        -4.48193     941.530E-03     493.605E-03     510.744E-03    -254.400E-03    -256.345E-03    -254.360E-03     510.705E-03    -256.345E-03     10.2862E-03    -39.9856E+06    -69.1016E+06    -71.9671E+06    -70.4494E+06    -70.6192E+06    -39.9856E+06     523.262E+03         66.4086
             356     2.32150E-03     82.8395E-03         1.27259     876.572E-03        -4.50800         1.05057        -4.28597     876.572E-03     70.2249E-03     512.048E-03    -255.680E-03    -256.368E-03    -255.684E-03     512.039E-03    -256.356E-03     3.89631E-03    -57.6711E+06    -78.2055E+06    -83.3118E+06    -78.3484E+06    -83.1689E+06    -57.6711E+06     277.349E+03         65.7690
             357     1.54840E-03     82.8608E-03         1.63191     830.232E-03        -4.84492     895.371E-03        -4.10838     830.232E-03         1.74446     512.465E-03    -255.731E-03    -256.735E-03    -256.258E-03     512.463E-03    -256.205E-03    -454.074E-06    -72.4801E+06    -83.7676E+06    -94.4450E+06    -84.4788E+06    -93.7337E+06    -72.4801E+06     437.357E+03         65.3011
             358     777.648E-06     82.8734E-03         2.56810         1.46228        -6.42448     161.033E-03        -4.01741         1.46228        -2.30637     512.065E-03    -254.276E-03    -257.789E-03    -256.416E-03     512.062E-03    -255.646E-03    -1.29602E-03    -80.7242E+06    -89.3812E+06    -102.574E+06    -87.3358E+06    -101.767E+06    -83.5760E+06     1.18755E+06         65.0092
             359     13.1689E-03     83.2342E-03         1.68286         1.46299        -5.43397         1.67235        -5.42346         1.46299    -475.723E-03     533.385E-03    -256.125E-03    -277.261E-03    -260.486E-03     516.611E-03    -256.125E-03     215.678E-03     44.9775E+06     4.12423E+06    -3.06325E+06    -3.02035E+06     4.08133E+06     44.9775E+06    -528.839E+03         82.9374
             360     12.3967E-03     82.7604E-03         1.66183         1.41629        -5.40174         1.65036        -5.39027         1.41629     166.836E-03     534.622E-03    -256.104E-03    -278.518E-03    -259.227E-03     515.332E-03    -256.104E-03     241.025E-03     38.2815E+06    -27.7843E+03    -5.94118E+06    -5.85630E+06    -112.663E+03     38.2815E+06    -264.446E+03         81.3882
             361     11.6256E-03     82.5069E-03         1.53621         1.37186        -5.24264         1.52623        -5.23266         1.37186     334.580E-03     521.994E-03    -256.059E-03    -265.935E-03    -253.061E-03     509.121E-03    -256.059E-03     198.773E-03     34.0691E+06    -4.61368E+06    -9.13643E+06    -9.00468E+06    -4.74542E+06     34.0691E+06     432.595E+03         79.7180
             362     10.8466E-03     82.1908E-03         1.42704         1.33527        -5.08309         1.42436        -5.08041         1.33527     79.2375E-03     519.129E-03    -256.060E-03    -263.070E-03    -250.098E-03     506.158E-03    -256.060E-03     198.955E-03     31.8864E+06    -7.13795E+06    -12.1141E+06    -11.9830E+06    -7.26902E+06     31.8864E+06     697.297E+03         78.0741
             363     10.0690E-03     81.9650E-03         1.43788         1.30051        -5.03359         1.41495        -5.01066         1.30051     583.804E-03     514.282E-03    -256.116E-03    -258.166E-03    -248.017E-03     504.134E-03    -256.116E-03     175.856E-03     31.6253E+06    -8.91326E+06    -15.1208E+06    -14.9781E+06    -9.05592E+06     31.6253E+06     602.234E+03         76.5512
             364     9.29598E-03     81.7388E-03         1.51506         1.26045        -5.04516         1.47892        -5.00903         1.26045     946.207E-03     512.674E-03    -255.674E-03    -257.000E-03    -247.746E-03     503.911E-03    -256.164E-03     163.004E-03     32.1169E+06    -10.5795E+06    -18.5056E+06    -18.3670E+06    -10.7182E+06     32.1169E+06     627.905E+03         75.1689
             365     8.52316E-03     81.5499E-03         1.57254         1.20929        -5.03047         1.55639        -5.01432         1.20929     281.846E-03     510.045E-03    -253.834E-03    -256.211E-03    -247.131E-03     503.342E-03    -256.211E-03     142.026E-03     29.8136E+06    -14.6334E+06    -23.0322E+06    -22.9675E+06    -14.6981E+06     29.8136E+06     645.496E+03         73.8929
             366     7.74525E-03     81.4004E-03         1.60455         1.14781        -4.99040         1.58470        -4.97055         1.14781     330.386E-03     508.474E-03    -252.198E-03    -256.276E-03    -247.473E-03     503.750E-03    -256.276E-03     118.916E-03     23.7760E+06    -20.4670E+06    -28.4903E+06    -28.4608E+06    -20.4965E+06     23.7760E+06     482.314E+03         72.6763
             367     6.96726E-03     81.2804E-03         1.54580         1.08185        -4.86369         1.52635        -4.84424         1.08185     544.898E-03     508.466E-03    -252.153E-03    -256.313E-03    -249.211E-03     505.524E-03    -256.313E-03     93.2864E-03     18.0912E+06    -26.1940E+06    -33.9722E+06    -33.9327E+06    -26.2335E+06     18.0912E+06     541.173E+03         71.4896
             368     6.19692E-03     81.2062E-03         1.38347         1.00892        -4.63315         1.36103        -4.62457         1.02278     230.807E-03     508.887E-03    -252.614E-03    -256.272E-03    -250.974E-03     507.246E-03    -256.272E-03     69.9776E-03     11.7604E+06    -32.2856E+06     -39.892E+06    -39.8135E+06    -32.3641E+06     11.7604E+06     728.665E+03         70.3288
             369     5.42332E-03     81.1576E-03         1.24214     875.664E-03        -4.37446         1.11141        -4.35376     985.689E-03    -211.566E-03     508.641E-03    -252.411E-03    -256.230E-03    -251.515E-03     507.745E-03    -256.230E-03     51.3259E-03     2.38053E+06    -39.6589E+06    -46.7779E+06    -46.6201E+06    -39.8167E+06     2.38053E+06     976.650E+03         69.2114
             370     4.64679E-03     81.1414E-03         1.16552     736.981E-03        -4.18810     876.782E-03        -4.14552     983.139E-03     114.776E-03     508.721E-03    -252.421E-03    -256.299E-03    -252.015E-03     508.314E-03    -256.299E-03     34.3245E-03    -8.00400E+06    -47.8274E+06    -53.8699E+06    -53.5836E+06    -48.1137E+06    -8.00400E+06     1.07864E+06         68.1682
             371     3.87096E-03     81.1425E-03         1.15763     718.747E-03        -4.20230     744.267E-03        -4.08890         1.01870    -428.883E-03     510.413E-03    -254.041E-03    -256.372E-03    -253.891E-03     510.259E-03    -256.369E-03     20.7681E-03    -21.1105E+06    -57.4508E+06    -61.9686E+06    -61.2056E+06    -58.2138E+06    -21.1105E+06     1.12989E+06         67.2333
             372     3.09760E-03     81.1529E-03         1.17825     824.548E-03        -4.37195     753.116E-03        -4.20830         1.08603    -17.7726E-03     511.823E-03    -255.371E-03    -256.451E-03    -255.517E-03     511.784E-03    -256.267E-03     9.38552E-03    -37.9512E+06    -67.9842E+06    -72.1118E+06    -69.5539E+06    -70.5421E+06    -37.9512E+06     1.30133E+06         66.4352
             373     2.32346E-03     81.1707E-03         1.31920         1.03926        -4.76598     892.979E-03        -4.47022         1.16972    -719.697E-03     511.891E-03    -255.649E-03    -256.243E-03    -255.839E-03     511.888E-03    -256.049E-03     1.61301E-03    -56.8972E+06    -76.1048E+06    -83.3169E+06    -76.4198E+06    -83.0019E+06    -56.8972E+06     430.958E+03         65.7942
             374     1.54879E-03     81.1877E-03         1.87566         1.23063        -5.55075         1.08996        -4.78399         1.24957         1.17660     511.756E-03    -255.417E-03    -256.339E-03    -255.946E-03     511.755E-03    -255.809E-03    -1.15042E-03    -73.6485E+06    -81.7689E+06    -94.2388E+06    -82.0401E+06    -93.9676E+06    -73.6485E+06    -1.10059E+06         65.3237
             375     773.538E-06     81.2040E-03         3.15404         1.90338        -7.52045     663.632E-03        -5.03004         1.90338        -3.12675     511.278E-03    -254.637E-03    -256.641E-03    -255.151E-03     511.275E-03    -256.124E-03    -1.43346E-03    -80.6513E+06    -86.9166E+06    -101.866E+06    -85.5584E+06    -101.274E+06    -82.6014E+06    -1.56242E+06         65.0295
             376     13.1727E-03     81.5649E-03         1.62092         1.30179        -5.38584         1.61473        -5.37966         1.30179    -282.600E-03     533.832E-03    -256.169E-03    -277.662E-03    -260.932E-03     517.101E-03    -256.169E-03     215.083E-03     45.6875E+06     4.10938E+06    -2.49968E+06    -2.43487E+06     4.04457E+06     45.6875E+06    -4.02365E+03         82.9154
             377     12.3964E-03     81.0903E-03         1.51469         1.24888        -5.23757         1.49767        -5.22054         1.24888     478.236E-03     534.962E-03    -256.143E-03    -278.819E-03    -259.256E-03     515.398E-03    -256.143E-03     243.374E-03     37.6878E+06    -952.014E+03    -6.34619E+06    -6.21745E+06    -1.08075E+06     37.6878E+06     430.288E+03         81.3738
             378     11.6196E-03     80.8323E-03         1.43476         1.20020        -5.09622         1.41484        -5.07629         1.20020     662.185E-03     521.551E-03    -256.132E-03    -265.419E-03    -252.384E-03     508.516E-03    -256.132E-03     200.139E-03     32.7411E+06    -5.70901E+06    -9.31207E+06    -9.23770E+06    -5.78339E+06     32.7411E+06     327.745E+03         79.7121
             379     10.8450E-03     80.5327E-03         1.40128         1.15435        -4.98731         1.39657        -4.98260         1.15435     340.679E-03     518.964E-03    -256.159E-03    -262.806E-03    -250.050E-03     506.209E-03    -256.159E-03     197.176E-03     30.4895E+06    -7.87114E+06    -11.5972E+06    -11.5678E+06    -7.90063E+06     30.4895E+06     205.671E+03         78.0764
             380     10.0705E-03     80.2894E-03         1.44888         1.10435        -4.95612         1.42509        -4.93232         1.10435     671.225E-03     514.379E-03    -256.024E-03    -258.355E-03    -248.274E-03     504.479E-03    -256.205E-03     173.750E-03     30.2938E+06    -9.80590E+06    -14.8447E+06    -14.7840E+06    -9.86658E+06     30.2938E+06     262.151E+03         76.5595
             381     9.29637E-03     80.0708E-03         1.51744         1.04733        -4.94117         1.48497        -4.90870         1.04733     840.303E-03     512.267E-03    -255.271E-03    -256.996E-03    -247.322E-03     503.590E-03    -256.268E-03     162.175E-03     31.6643E+06    -11.6806E+06    -18.9596E+06    -18.8725E+06    -11.7677E+06     31.6643E+06     214.092E+03         75.1799
             382     8.51734E-03     79.8827E-03         1.53923     981.090E-03        -4.87594         1.52441        -4.86112     981.090E-03     116.815E-03     510.583E-03    -254.262E-03    -256.320E-03    -247.547E-03     503.868E-03    -256.320E-03     142.185E-03     30.0316E+06    -15.2334E+06    -23.1707E+06    -23.1043E+06    -15.2997E+06     30.0316E+06     384.414E+03         73.9055
             383     7.74516E-03     79.7286E-03         1.48833     909.841E-03        -4.73424         1.46451        -4.71042     909.841E-03     278.950E-03     509.597E-03    -253.281E-03    -256.316E-03    -248.584E-03     504.900E-03    -256.316E-03     118.745E-03     24.8250E+06    -20.2252E+06    -27.8704E+06    -27.7376E+06    -20.3579E+06     24.8250E+06     765.907E+03         72.6912
             384     6.97451E-03     79.6127E-03         1.27984     845.406E-03        -4.44772         1.25756        -4.42544     845.406E-03     654.722E-03     508.540E-03    -252.250E-03    -256.290E-03    -249.258E-03     505.548E-03    -256.290E-03     94.2750E-03     17.9771E+06    -26.3859E+06    -33.6920E+06    -33.5546E+06    -26.5233E+06     17.9771E+06     801.496E+03         71.5063
             385     6.19599E-03     79.5346E-03     966.688E-03     791.860E-03        -4.08215     932.223E-03        -4.06154     805.719E-03     577.489E-03     508.015E-03    -251.710E-03    -256.305E-03    -250.012E-03     506.317E-03    -256.305E-03     70.8743E-03     10.0950E+06    -33.0967E+06    -39.7324E+06    -39.6901E+06    -33.1389E+06     10.0950E+06     513.963E+03         70.3465
             386     5.41959E-03     79.4918E-03     816.645E-03     609.598E-03        -3.77072     596.753E-03        -3.74914     807.912E-03     286.542E-03     508.268E-03    -251.885E-03    -256.383E-03    -251.011E-03     507.394E-03    -256.383E-03     50.5205E-03     2.12051E+06    -40.1646E+06    -46.0464E+06    -46.0005E+06    -40.2105E+06     2.12051E+06     403.974E+03         69.2307
             387     4.64432E-03     79.4734E-03     861.077E-03     451.857E-03        -3.69333     376.221E-03        -3.61770     861.077E-03     634.338E-03     509.749E-03    -253.304E-03    -256.445E-03    -252.921E-03     509.365E-03    -256.445E-03     33.3128E-03    -7.20673E+06    -48.4499E+06    -53.1883E+06    -53.1350E+06    -48.5033E+06    -7.20673E+06     316.820E+03         68.1899
             388     3.87101E-03     79.4706E-03     962.152E-03     487.651E-03        -3.86762     351.596E-03        -3.73157     962.152E-03     10.2586E-03     511.441E-03    -255.096E-03    -256.345E-03    -254.957E-03     511.299E-03    -256.342E-03     19.8489E-03    -20.5834E+06    -57.2814E+06    -60.9943E+06    -60.1241E+06    -58.1516E+06    -20.5834E+06     914.049E+03         67.2565
             389     3.09827E-03     79.4793E-03         1.09583     698.068E-03        -4.24791     526.691E-03        -4.07653         1.09583     311.110E-03     511.941E-03    -255.688E-03    -256.253E-03    -255.837E-03     511.905E-03    -256.069E-03     9.35661E-03    -37.3431E+06    -66.7282E+06    -70.9794E+06    -67.7806E+06    -69.9270E+06    -37.3431E+06     1.02184E+06         66.4582
             390     2.32558E-03     79.5021E-03         1.24636         1.07181        -4.80441     790.657E-03        -4.52326         1.24636    -388.264E-03     511.564E-03    -255.535E-03    -256.029E-03    -255.814E-03     511.559E-03    -255.745E-03     2.71895E-03    -55.2670E+06    -75.6146E+06    -83.6113E+06    -76.0937E+06    -83.1322E+06    -55.2670E+06     807.782E+03         65.8154
             391     1.55067E-03     79.5213E-03         1.78385         1.36455        -5.66510         1.13475        -5.04253         1.39108         1.16680     510.799E-03    -255.124E-03    -255.675E-03    -255.225E-03     510.797E-03    -255.572E-03    -934.466E-06    -71.3666E+06    -81.9037E+06    -94.8164E+06    -82.2596E+06    -94.4605E+06    -71.3666E+06     647.012E+03         65.3426
             392     774.865E-06     79.5380E-03         2.99640         1.94437        -7.48192     974.552E-03        -5.46007         1.94437        -2.80996     511.010E-03    -254.809E-03    -256.201E-03    -255.657E-03     511.007E-03    -255.350E-03    -2.47474E-03    -82.8882E+06    -88.5053E+06    -105.128E+06    -87.1114E+06    -104.571E+06    -84.8382E+06    -53.5017E+03         65.0468
             393     13.1692E-03     79.8936E-03         1.66643         1.15563        -5.46897         1.66168        -5.46422         1.15563    -222.718E-03     533.625E-03    -256.164E-03    -277.461E-03    -260.775E-03     516.939E-03    -256.164E-03     215.203E-03     45.6957E+06     3.21055E+06    -2.71100E+06    -2.64998E+06     3.14952E+06     45.6957E+06     494.182E+03         82.8891
             394     12.3944E-03     79.4220E-03         1.55085         1.10145        -5.28101         1.53380        -5.26396         1.10145     509.635E-03     533.771E-03    -256.160E-03    -277.611E-03    -258.387E-03     514.547E-03    -256.160E-03     240.525E-03     37.5442E+06    -1.08498E+06    -5.51754E+06    -5.43860E+06    -1.16392E+06     37.5442E+06     511.762E+03         81.3565
             395     11.6198E-03     79.1644E-03         1.46821         1.05076        -5.11749         1.44930        -5.09857         1.05076     599.391E-03     520.899E-03    -256.175E-03    -264.724E-03    -252.036E-03     508.212E-03    -256.175E-03     197.227E-03     32.6488E+06    -5.63525E+06    -8.28909E+06    -8.22513E+06    -5.69922E+06     32.6488E+06     281.225E+03         79.7069
             396     10.8460E-03     78.8592E-03         1.39880         1.00394        -4.96299         1.39293        -4.95712         1.00394     54.2217E-03     519.383E-03    -256.188E-03    -263.195E-03    -250.557E-03     506.745E-03    -256.188E-03     196.471E-03     30.4265E+06    -8.23881E+06    -11.1710E+06    -11.1296E+06    -8.28028E+06     30.4265E+06     166.544E+03         78.0820
             397     10.0716E-03     78.6231E-03         1.39350     957.951E-03        -4.87770         1.38286        -4.86706     957.951E-03     95.3405E-03     513.971E-03    -256.057E-03    -257.913E-03    -247.743E-03     503.982E-03    -256.239E-03     174.439E-03     30.2272E+06    -10.2809E+06    -14.4119E+06    -14.3640E+06    -10.3287E+06     30.2272E+06     377.240E+03         76.5710
             398     9.29258E-03     78.4051E-03         1.41549     910.198E-03        -4.82827         1.40585        -4.81863     910.198E-03     120.429E-03     512.475E-03    -255.800E-03    -256.674E-03    -247.431E-03     503.755E-03    -256.324E-03     162.529E-03     31.2096E+06    -12.1671E+06    -18.6229E+06    -18.4930E+06    -12.2970E+06     31.2096E+06     558.351E+03         75.1935
             399     8.52133E-03     78.2107E-03         1.40971     859.117E-03        -4.74914         1.38578        -4.72521     859.117E-03    -521.122E-03     510.934E-03    -254.421E-03    -256.513E-03    -247.962E-03     504.318E-03    -256.356E-03     141.212E-03     29.0138E+06    -15.9668E+06    -23.4247E+06    -23.2830E+06    -16.1085E+06     29.0138E+06     600.835E+03         73.9198
             400     7.74577E-03     78.0586E-03         1.31987     808.701E-03        -4.58453         1.29136        -4.55602     808.701E-03    -221.886E-03     509.111E-03    -252.744E-03    -256.367E-03    -248.013E-03     504.380E-03    -256.367E-03     119.291E-03     23.8091E+06    -21.2554E+06    -28.3022E+06    -28.1190E+06    -21.4385E+06     23.8091E+06     631.420E+03         72.7051
             401     6.96711E-03     77.9425E-03         1.16979     762.902E-03        -4.36781         1.16085        -4.35887     762.902E-03     354.451E-03     508.602E-03    -252.212E-03    -256.390E-03    -249.135E-03     505.525E-03    -256.390E-03     95.4774E-03     17.8393E+06    -26.7101E+06    -33.0801E+06    -32.9269E+06    -26.8632E+06     17.8393E+06     509.574E+03         71.5202
             402     6.19515E-03     77.8674E-03         1.01721     724.586E-03        -4.17539     999.440E-03        -4.15762     724.586E-03     496.292E-03     508.459E-03    -252.057E-03    -256.403E-03    -250.385E-03     506.788E-03    -256.403E-03     70.2549E-03     10.3788E+06    -33.2632E+06    -38.8752E+06    -38.8345E+06    -33.3039E+06     10.3788E+06     464.415E+03         70.3618
             403     5.42089E-03     77.8226E-03     922.421E-03     610.969E-03        -3.98891     815.545E-03        -3.97033     699.258E-03     292.588E-03     509.421E-03    -253.045E-03    -256.376E-03    -252.211E-03     508.587E-03    -256.376E-03     49.4470E-03     2.16547E+06    -40.6659E+06    -45.4905E+06    -45.3770E+06    -40.7795E+06     2.16547E+06     480.319E+03         69.2479
             404     4.64719E-03     77.8025E-03     900.154E-03     528.658E-03        -3.92027     676.469E-03        -3.85965     691.720E-03     566.961E-03     510.588E-03    -254.342E-03    -256.246E-03    -253.986E-03     510.232E-03    -256.246E-03     32.0442E-03    -7.58326E+06    -48.9124E+06    -52.4230E+06    -52.2918E+06    -49.0435E+06    -7.58326E+06     466.338E+03         68.2083
             405     3.87373E-03     77.7973E-03     898.161E-03     529.122E-03        -3.95746     598.133E-03        -3.83198     703.668E-03    -103.303E-03     510.466E-03    -254.374E-03    -256.093E-03    -254.249E-03     510.341E-03    -256.093E-03     18.7645E-03    -20.8064E+06    -58.2965E+06    -60.5994E+06    -59.8814E+06    -59.0146E+06    -20.8064E+06     616.642E+03         67.2746
             406     3.09824E-03     77.8126E-03     875.797E-03     595.820E-03        -4.03124     609.351E-03        -3.90108     732.104E-03    -43.6360E-03     510.519E-03    -254.476E-03    -256.043E-03    -254.441E-03     510.485E-03    -256.043E-03     9.41981E-03    -36.8322E+06    -66.8738E+06    -70.8089E+06    -67.3686E+06    -70.3140E+06    -36.8322E+06     747.566E+03         66.4753
             407     2.32240E-03     77.8300E-03     959.618E-03     725.619E-03        -4.26779     670.843E-03        -4.02311     769.715E-03    -612.752E-03     511.236E-03    -255.092E-03    -256.144E-03    -255.189E-03     511.230E-03    -256.041E-03     3.44998E-03    -54.5238E+06    -74.3967E+06    -83.5069E+06    -74.9282E+06    -82.9754E+06    -54.5238E+06     686.705E+03         65.8326
             408     1.54913E-03     77.8556E-03         1.28284     792.652E-03        -4.67603     776.386E-03        -4.17716     800.237E-03     569.435E-03     511.821E-03    -255.564E-03    -256.258E-03    -255.871E-03     511.821E-03    -255.950E-03     441.888E-06    -70.0622E+06    -80.9230E+06    -94.9609E+06    -81.4020E+06    -94.4818E+06    -70.0622E+06     1.07608E+06         65.3612
             409     774.969E-06     77.8698E-03         2.09349         1.04877        -5.73520     580.130E-03        -4.22184         1.04877        -2.13550     511.603E-03    -255.147E-03    -256.456E-03    -256.399E-03     511.603E-03    -255.204E-03    -541.989E-06    -81.0570E+06    -85.8270E+06    -103.555E+06    -85.8038E+06    -103.162E+06    -81.4738E+06     1.35738E+06         65.0668
             410     13.1727E-03     78.2283E-03         1.79215         1.07005        -5.67079         1.78764        -5.66628         1.07005    -222.373E-03     534.016E-03    -256.141E-03    -277.875E-03    -261.162E-03     517.303E-03    -256.141E-03     215.075E-03     45.2028E+06     2.32263E+06    -2.88043E+06    -2.71524E+06     2.15745E+06     45.2028E+06     252.709E+03         82.8661
             411     12.3986E-03     77.7510E-03         1.64338         1.02044        -5.44135         1.63264        -5.43061         1.02044     411.771E-03     533.845E-03    -256.130E-03    -277.716E-03    -258.401E-03     514.531E-03    -256.130E-03     241.055E-03     37.4564E+06    -1.65275E+06    -5.42428E+06    -5.25447E+06    -1.82257E+06     37.4564E+06     603.117E+03         81.3466
             412     11.6216E-03     77.5029E-03         1.48831     978.226E-03        -5.19751         1.47755        -5.18675     978.226E-03     366.545E-03     520.741E-03    -256.173E-03    -264.567E-03    -251.615E-03     507.789E-03    -256.173E-03     199.055E-03     33.4855E+06    -5.39013E+06    -8.32330E+06    -7.89829E+06    -5.81515E+06     33.4855E+06     904.355E+03         79.7097
             413     10.8449E-03     77.1839E-03         1.35195     944.856E-03        -4.98088         1.34460        -4.97354     944.856E-03    -310.236E-03     518.645E-03    -256.257E-03    -262.388E-03    -249.515E-03     505.771E-03    -256.257E-03     197.905E-03     31.0265E+06    -8.15434E+06    -11.1975E+06    -10.8509E+06    -8.50092E+06     31.0265E+06     691.197E+03         78.0933
             414     10.0678E-03     76.9622E-03         1.27167     917.361E-03        -4.83813         1.26410        -4.83056     917.361E-03    -363.968E-03     514.818E-03    -256.327E-03    -258.490E-03    -248.470E-03     504.798E-03    -256.327E-03     174.896E-03     30.4442E+06    -10.7293E+06    -14.3094E+06    -14.2427E+06    -10.7960E+06     30.4442E+06     388.625E+03         76.5871
             415     9.29531E-03     76.7304E-03         1.20150     894.323E-03        -4.71648         1.19606        -4.71104     894.323E-03    -307.462E-03     513.430E-03    -255.709E-03    -257.721E-03    -248.346E-03     504.694E-03    -256.348E-03     162.865E-03     30.9818E+06    -12.6911E+06    -18.2591E+06    -18.1007E+06    -12.8496E+06     30.9818E+06     873.311E+03         75.2110
             416     8.51948E-03     76.5411E-03         1.16705     875.917E-03        -4.63971         1.12889        -4.60156     875.917E-03    -857.353E-03     510.621E-03    -254.106E-03    -256.514E-03    -247.660E-03     504.017E-03    -256.357E-03     141.060E-03     28.6647E+06    -16.3733E+06    -22.5640E+06    -22.4004E+06    -16.5370E+06     28.6647E+06     952.744E+03         73.9352
             417     7.74296E-03     76.3938E-03         1.15681     858.793E-03        -4.58736         1.12217        -4.55272     858.793E-03    -484.209E-03     509.264E-03    -252.896E-03    -256.369E-03    -248.248E-03     504.617E-03    -256.369E-03     118.104E-03     23.4793E+06    -21.4596E+06    -27.4072E+06    -27.2609E+06    -21.6059E+06     23.4793E+06     556.118E+03         72.7178
             418     6.97116E-03     76.2701E-03         1.17376     834.352E-03        -4.56102         1.17209        -4.55935     834.352E-03     164.477E-03     508.648E-03    -252.288E-03    -256.359E-03    -249.412E-03     505.772E-03    -256.359E-03     92.2270E-03     17.5023E+06    -27.1855E+06    -32.7694E+06    -32.6756E+06    -27.2794E+06     17.5023E+06     293.168E+03         71.5317
             419     6.19520E-03     76.1977E-03         1.23007     794.695E-03        -4.57547         1.22159        -4.56699     794.695E-03     339.691E-03     508.849E-03    -252.537E-03    -256.312E-03    -250.980E-03     507.292E-03    -256.312E-03     68.1050E-03     10.5148E+06    -34.0593E+06    -38.8657E+06    -38.8101E+06    -34.1149E+06     10.5148E+06     442.736E+03         70.3732
             420     5.42090E-03     76.1515E-03         1.22237     737.877E-03        -4.52577         1.21026        -4.51367     737.877E-03     103.536E-03     509.630E-03    -253.431E-03    -256.199E-03    -252.599E-03     508.798E-03    -256.199E-03     49.5429E-03     2.26134E+06    -41.0003E+06    -45.0561E+06    -44.7907E+06    -41.2658E+06     2.26134E+06     207.112E+03         69.2597
             421     4.64883E-03     76.1275E-03         1.12785     668.817E-03        -4.39224         1.11201        -4.37640     668.817E-03     131.077E-03     509.648E-03    -253.571E-03    -256.076E-03    -253.195E-03     509.271E-03    -256.076E-03     33.0408E-03    -7.91318E+06    -48.9227E+06    -51.6407E+06    -51.3081E+06    -49.2552E+06    -7.91318E+06     164.350E+03         68.2205
             422     3.87351E-03     76.1341E-03         1.04567     598.508E-03        -4.27300     934.116E-03        -4.16145     598.508E-03    -668.712E-03     509.687E-03    -253.648E-03    -256.039E-03    -253.503E-03     509.543E-03    -256.039E-03     20.2730E-03    -21.7962E+06    -58.7356E+06    -61.1879E+06    -59.7560E+06    -60.1675E+06    -21.7962E+06     500.851E+03         67.2878
             423     3.09793E-03     76.1422E-03     881.022E-03     535.792E-03        -4.06775     765.821E-03        -3.95255     535.792E-03    -957.417E-03     510.300E-03    -254.200E-03    -256.101E-03    -254.159E-03     510.260E-03    -256.101E-03     9.83375E-03    -36.8653E+06    -66.8425E+06    -71.7454E+06    -67.3426E+06    -71.2454E+06    -36.8653E+06     851.787E+03         66.4905
             424     2.32324E-03     76.1654E-03     827.818E-03     485.793E-03        -3.97599     610.679E-03        -3.75885     485.793E-03        -1.30756     511.198E-03    -254.987E-03    -256.211E-03    -254.983E-03     511.194E-03    -256.211E-03     2.14307E-03    -52.4061E+06    -72.7206E+06    -82.4801E+06    -73.3007E+06    -81.9000E+06    -52.4061E+06     1.03584E+06         65.8504
             425     1.54683E-03     76.1819E-03     852.061E-03     439.390E-03        -3.97532     540.224E-03        -3.66348     439.390E-03    -531.370E-03     512.108E-03    -255.616E-03    -256.492E-03    -255.819E-03     512.106E-03    -256.287E-03    -1.43326E-03    -68.8371E+06    -78.9586E+06    -94.1692E+06    -79.5136E+06    -93.6142E+06    -68.8371E+06     670.884E+03         65.3816
             426     774.146E-06     76.2006E-03         1.17058     358.162E-03        -4.22200     469.702E-03        -3.52113     358.162E-03        -1.44310     512.509E-03    -255.681E-03    -256.828E-03    -256.568E-03     512.506E-03    -255.939E-03    -2.00372E-03    -80.9271E+06    -84.1486E+06    -102.984E+06    -83.8886E+06    -102.827E+06    -81.3438E+06    -212.423E+03         65.0892
             427     13.1716E-03     76.5573E-03         1.88945         1.06203        -5.88475         1.88554        -5.88085         1.06203    -240.996E-03     533.935E-03    -256.193E-03    -277.742E-03    -260.828E-03     517.021E-03    -256.193E-03     216.374E-03     44.8481E+06     1.25684E+06    -2.65217E+06    -2.49031E+06     1.09498E+06     44.8481E+06     198.722E+03         82.8506
             428     12.3930E-03     76.0855E-03         1.72616         1.02470        -5.63207         1.71547        -5.62138         1.02470     394.453E-03     534.092E-03    -256.228E-03    -277.864E-03    -258.165E-03     514.393E-03    -256.228E-03     243.833E-03     38.7015E+06    -2.35767E+06    -5.60914E+06    -5.29506E+06    -2.67176E+06     38.7015E+06     784.915E+03         81.3420
             429     11.6198E-03     75.8280E-03         1.56490     993.900E-03        -5.38570         1.55351        -5.37431     993.900E-03     426.369E-03     521.148E-03    -256.288E-03    -264.860E-03    -251.797E-03     508.085E-03    -256.288E-03     200.251E-03     34.3875E+06    -5.80006E+06    -8.54556E+06    -7.91778E+06    -6.42784E+06     34.3875E+06     700.092E+03         79.7175
             430     10.8426E-03     75.5273E-03         1.40479     968.734E-03        -5.14961         1.39889        -5.14371     968.734E-03    -206.157E-03     519.379E-03    -256.340E-03    -263.039E-03    -250.220E-03     506.560E-03    -256.340E-03     197.776E-03     31.6007E+06    -8.03625E+06    -11.1687E+06    -10.5576E+06    -8.64738E+06     31.6007E+06     718.852E+03         78.1104
             431     10.0683E-03     75.2822E-03         1.23134     951.060E-03        -4.91831         1.22575        -4.91273     951.060E-03    -237.934E-03     515.676E-03    -256.350E-03    -259.325E-03    -249.390E-03     505.740E-03    -256.350E-03     174.322E-03     31.0008E+06    -10.8087E+06    -14.3827E+06    -14.0810E+06    -11.1104E+06     31.0008E+06     855.950E+03         76.6075
             432     9.29504E-03     75.0629E-03         1.07442     942.720E-03        -4.72297         1.07105        -4.71960     942.720E-03    -139.604E-03     513.325E-03    -255.683E-03    -257.642E-03    -248.484E-03     504.805E-03    -256.322E-03     160.868E-03     31.2055E+06    -13.0936E+06    -17.9064E+06    -17.7643E+06    -13.2357E+06     31.2055E+06     783.846E+03         75.2292
             433     8.51862E-03     74.8750E-03         1.03138     941.215E-03        -4.64936         1.00500        -4.62298     941.215E-03    -651.088E-03     511.031E-03    -254.739E-03    -256.292E-03    -248.269E-03     504.552E-03    -256.283E-03     139.799E-03     29.0321E+06    -16.3740E+06    -21.6180E+06    -21.5345E+06    -16.4574E+06     29.0321E+06     644.392E+03         73.9489
             434     7.74734E-03     74.7174E-03         1.05891     939.094E-03        -4.64957         1.03263        -4.62329     939.094E-03    -323.866E-03     509.855E-03    -253.650E-03    -256.205E-03    -249.132E-03     505.337E-03    -256.205E-03     116.538E-03     24.4129E+06    -21.2681E+06    -26.6433E+06    -26.4960E+06    -21.4153E+06     24.4129E+06     847.465E+03         72.7279
             435     6.97167E-03     74.6043E-03         1.11711     928.553E-03        -4.68148         1.11215        -4.67652     928.553E-03     305.665E-03     508.272E-03    -252.145E-03    -256.127E-03    -249.320E-03     505.447E-03    -256.127E-03     91.6060E-03     17.3485E+06    -27.7434E+06    -32.7493E+06    -32.5498E+06    -27.9428E+06     17.3485E+06     875.897E+03         71.5392
             436     6.19729E-03     74.5270E-03         1.19498     904.518E-03        -4.73084         1.18304        -4.71890     904.518E-03     458.703E-03     507.890E-03    -251.784E-03    -256.106E-03    -250.174E-03     506.280E-03    -256.106E-03     69.2082E-03     9.87878E+06    -34.1785E+06    -38.2956E+06    -38.1142E+06    -34.3600E+06     9.87878E+06     339.384E+03         70.3792
             437     5.42461E-03     74.4791E-03         1.18458     868.239E-03        -4.69597         1.17321        -4.68460     868.239E-03     260.447E-03     508.181E-03    -252.048E-03    -256.133E-03    -251.175E-03     507.308E-03    -256.133E-03     50.5691E-03     2.03138E+06    -40.7939E+06    -44.8832E+06    -44.2611E+06    -41.4160E+06     2.03138E+06     249.725E+03         69.2661
             438     4.64647E-03     74.4642E-03         1.10048     825.824E-03        -4.59219         1.09494        -4.58665     825.824E-03     139.501E-03     508.918E-03    -252.729E-03    -256.189E-03    -252.331E-03     508.521E-03    -256.189E-03     34.0152E-03    -8.38563E+06    -49.6627E+06    -52.4602E+06    -51.7384E+06    -50.3845E+06    -8.38563E+06     499.496E+03         68.2295
             439     3.87139E-03     74.4616E-03         1.07472     782.289E-03        -4.54302     992.989E-03        -4.46129     782.289E-03    -687.380E-03     510.334E-03    -254.136E-03    -256.197E-03    -253.987E-03     510.184E-03    -256.197E-03     20.2954E-03    -21.9420E+06    -58.3872E+06    -60.7032E+06    -58.7618E+06    -60.3286E+06    -21.9420E+06     268.349E+03         67.3011
             440     3.09798E-03     74.4764E-03     968.705E-03     739.613E-03        -4.41099     878.574E-03        -4.32312     741.874E-03        -1.22029     511.105E-03    -254.976E-03    -256.129E-03    -254.940E-03     511.069E-03    -256.129E-03     9.66221E-03    -37.9260E+06    -66.1840E+06    -71.7796E+06    -66.2244E+06    -71.7392E+06    -37.9260E+06     22.6492E+03         66.5083
             441     2.32324E-03     74.4936E-03     894.163E-03     710.793E-03        -4.31310     758.324E-03        -4.17952     713.054E-03        -1.39994     511.499E-03    -255.452E-03    -256.047E-03    -255.447E-03     511.494E-03    -256.047E-03     2.55219E-03    -52.7953E+06    -72.3617E+06    -82.9575E+06    -72.8055E+06    -82.5137E+06    -52.7953E+06     485.939E+03         65.8716
             442     1.55092E-03     74.5151E-03     851.978E-03     694.754E-03        -4.27443     717.240E-03        -4.13969     694.754E-03        -1.17533     511.638E-03    -255.609E-03    -256.028E-03    -255.633E-03     511.635E-03    -256.003E-03    -1.48601E-03    -66.5209E+06    -77.5482E+06    -93.1354E+06    -78.2711E+06    -92.4125E+06    -66.5209E+06     1.16906E+06         65.4044
             443     773.634E-06     74.5304E-03         1.07724     410.790E-03        -4.23210     958.493E-03        -4.11336     410.790E-03    -416.840E-03     511.881E-03    -255.527E-03    -256.354E-03    -256.093E-03     511.878E-03    -255.785E-03    -2.45737E-03    -79.4070E+06    -83.0764E+06    -102.745E+06    -83.2528E+06    -102.406E+06    -79.5702E+06     1.28006E+06         65.1128
             444     13.1683E-03     74.8875E-03         1.97281         1.12991        -6.06036         1.96826        -6.05582         1.12991    -236.275E-03     533.207E-03    -256.283E-03    -276.923E-03    -260.280E-03     516.563E-03    -256.283E-03     214.826E-03     43.0676E+06     19.6024E+03    -2.99392E+06    -2.93590E+06    -38.4192E+03     43.0676E+06     79.9426E+03         82.8406
             445     12.3949E-03     74.4200E-03         1.88832         1.10351        -5.89811         1.87425        -5.88404         1.10351     494.582E-03     533.642E-03    -256.328E-03    -277.314E-03    -257.936E-03     514.264E-03    -256.328E-03     241.878E-03     37.4708E+06    -2.97647E+06    -5.68767E+06    -5.27195E+06    -3.39220E+06     37.4708E+06     316.067E+03         81.3417
             446     11.6161E-03     74.1581E-03         1.77430         1.07857        -5.70849         1.75902        -5.69321         1.07857     601.413E-03     521.776E-03    -256.363E-03    -265.413E-03    -252.584E-03     508.947E-03    -256.363E-03     198.724E-03     34.2211E+06    -6.70213E+06    -8.39358E+06    -7.92123E+06    -7.17448E+06     34.2211E+06     197.252E+03         79.7277
             447     10.8442E-03     73.8555E-03         1.58277         1.05710        -5.45009         1.57968        -5.44699         1.05710    -13.1633E-03     520.841E-03    -256.318E-03    -264.524E-03    -251.946E-03     508.264E-03    -256.318E-03     196.388E-03     32.2512E+06    -9.23577E+06    -11.2530E+06    -10.9484E+06    -9.54043E+06     32.2512E+06     137.050E+03         78.1273
             448     10.0706E-03     73.6120E-03         1.40906         1.04336        -5.22597         1.40699        -5.22390         1.04336    -137.873E-03     515.399E-03    -256.245E-03    -259.154E-03    -249.395E-03     505.640E-03    -256.245E-03     172.730E-03     31.4025E+06    -11.2646E+06    -13.9569E+06    -13.6553E+06    -11.5662E+06     31.4025E+06     683.883E+03         76.6242
             449     9.29447E-03     73.3941E-03         1.32022         1.03405        -5.09539         1.31730        -5.09247         1.03405    -137.823E-03     512.919E-03    -256.167E-03    -256.751E-03    -248.319E-03     504.525E-03    -256.206E-03     159.659E-03     31.6573E+06    -13.2077E+06    -17.1909E+06    -17.0531E+06    -13.3455E+06     31.6573E+06     683.046E+03         75.2410
             450     8.52340E-03     73.2013E-03         1.29589         1.02432        -5.03396         1.27070        -5.00878         1.02432    -679.325E-03     511.212E-03    -255.051E-03    -256.161E-03    -248.496E-03     504.647E-03    -256.151E-03     140.853E-03     29.7141E+06    -16.6164E+06    -21.7657E+06    -21.5787E+06    -16.8034E+06     29.7141E+06     863.103E+03         73.9559
             451     7.74737E-03     73.0490E-03         1.25965         1.01111        -4.95912         1.23477        -4.93424         1.01111    -368.323E-03     509.271E-03    -253.189E-03    -256.082E-03    -248.531E-03     504.613E-03    -256.082E-03     118.210E-03     24.3025E+06    -21.9108E+06    -26.9451E+06    -26.6187E+06    -22.2372E+06     24.3025E+06     1.13951E+06         72.7319
             452     6.97381E-03     72.9345E-03         1.19086     994.861E-03        -4.85027         1.18373        -4.84313     994.861E-03     397.720E-03     507.976E-03    -251.928E-03    -256.047E-03    -248.992E-03     505.039E-03    -256.047E-03     93.4020E-03     17.9392E+06    -27.6236E+06    -31.7789E+06    -31.5052E+06    -27.8972E+06     17.9392E+06     928.234E+03         71.5427
             453     6.19857E-03     72.8599E-03         1.10552     981.019E-03        -4.74453         1.08203        -4.72104     981.019E-03     696.771E-03     507.142E-03    -251.049E-03    -256.093E-03    -249.361E-03     505.455E-03    -256.093E-03     70.7484E-03     10.9575E+06    -33.4348E+06    -37.2515E+06    -36.7471E+06    -33.9392E+06     10.9575E+06     679.956E+03         70.3846
             454     5.41921E-03     72.8137E-03         1.02551     946.988E-03        -4.63721     970.651E-03        -4.61226     976.892E-03     662.283E-03     507.700E-03    -251.484E-03    -256.216E-03    -250.592E-03     506.809E-03    -256.216E-03     50.9944E-03     2.14590E+06    -40.9161E+06    -44.2498E+06    -43.4391E+06    -41.7267E+06     2.14590E+06     931.988E+03         69.2749
             455     4.64617E-03     72.7948E-03         1.00820     906.624E-03        -4.59304     914.132E-03        -4.57648     984.139E-03     521.702E-03     509.483E-03    -253.192E-03    -256.291E-03    -252.802E-03     509.093E-03    -256.291E-03     33.6564E-03    -8.72938E+06    -49.9094E+06    -52.4038E+06    -51.2400E+06    -51.0732E+06    -8.72938E+06     1.08392E+06         68.2427
             456     3.87269E-03     72.7907E-03         1.04026     894.701E-03        -4.62759     895.288E-03        -4.58842         1.00050    -222.483E-03     510.636E-03    -254.382E-03    -256.254E-03    -254.242E-03     510.496E-03    -256.254E-03     19.6032E-03    -21.8998E+06    -58.1684E+06    -61.4030E+06    -58.5114E+06    -61.0600E+06    -21.8998E+06     527.765E+03         67.3188
             457     3.09781E-03     72.8070E-03         1.04737     940.537E-03        -4.68643     923.451E-03        -4.64405         1.02208    -926.260E-03     511.225E-03    -255.064E-03    -256.162E-03    -255.029E-03     511.191E-03    -256.162E-03     9.64487E-03    -37.2136E+06    -64.7738E+06    -71.5948E+06    -64.8174E+06    -71.5511E+06    -37.2136E+06     130.305E+03         66.5294
             458     2.32403E-03     72.8238E-03         1.07442     991.713E-03        -4.77311     964.794E-03        -4.71721         1.04544        -1.01351     511.509E-03    -255.437E-03    -256.072E-03    -255.430E-03     511.502E-03    -256.072E-03     3.15591E-03    -53.7180E+06    -70.8259E+06    -82.9142E+06    -70.9868E+06    -82.7533E+06    -53.7180E+06    -45.7146E+03         65.8950
             459     1.54756E-03     72.8472E-03         1.16717         1.02936        -4.90934         1.04421        -4.81675         1.05973        -1.36855     511.723E-03    -255.671E-03    -256.051E-03    -255.697E-03     511.723E-03    -256.026E-03    -226.071E-06    -67.5531E+06    -75.6294E+06    -93.5251E+06    -76.2105E+06    -92.9063E+06    -67.5908E+06    -212.895E+03         65.4293
             460     775.936E-06     72.8611E-03         1.83517     481.384E-03        -5.02234         1.64425        -4.83141     481.384E-03     587.809E-03     511.938E-03    -254.867E-03    -257.071E-03    -257.001E-03     511.937E-03    -254.936E-03    -1.68909E-03    -75.7812E+06    -79.0235E+06    -100.566E+06    -79.3652E+06    -100.023E+06    -75.9821E+06     138.503E+03         65.1382
             461     13.1695E-03     73.2196E-03         1.99676         1.24710        -6.13514         1.99193        -6.13031         1.24710    -161.923E-03     533.894E-03    -256.345E-03    -277.549E-03    -260.907E-03     517.252E-03    -256.345E-03     215.265E-03     43.2009E+06    -398.495E+03    -3.16325E+06    -2.99651E+06    -565.232E+03     43.2009E+06     195.704E+03         82.8324
             462     12.3924E-03     72.7494E-03         1.94235         1.23279        -6.04458         1.92357        -6.02580         1.23279     627.672E-03     535.074E-03    -256.303E-03    -278.771E-03    -259.673E-03     515.976E-03    -256.303E-03     240.018E-03     36.2649E+06    -3.73319E+06    -6.29284E+06    -5.67418E+06    -4.35185E+06     36.2649E+06    -169.157E+03         81.3417
             463     11.6196E-03     72.4936E-03         1.80832         1.22307        -5.86984         1.78784        -5.84935         1.22307     713.906E-03     522.500E-03    -256.222E-03    -266.278E-03    -253.768E-03     509.990E-03    -256.222E-03     196.291E-03     33.0916E+06    -6.94271E+06    -8.59876E+06    -7.74920E+06    -7.79227E+06     33.0916E+06     180.182E+03         79.7353
             464     10.8451E-03     72.1750E-03         1.67539         1.21915        -5.69940         1.67019        -5.69420         1.21915    -9.78708E-03     519.700E-03    -256.148E-03    -263.552E-03    -251.244E-03     507.392E-03    -256.148E-03     193.924E-03     32.2489E+06    -9.59065E+06    -10.8456E+06    -10.4745E+06    -9.96172E+06     32.2489E+06     82.2580E+03         78.1365
             465     10.0720E-03     71.9481E-03         1.64821         1.21811        -5.63414         1.64205        -5.62798         1.21811    -375.168E-03     514.430E-03    -256.119E-03    -258.312E-03    -248.529E-03     504.648E-03    -256.119E-03     172.761E-03     31.0891E+06    -12.0663E+06    -13.7363E+06    -13.5608E+06    -12.2419E+06     31.0891E+06     116.012E+03         76.6305
             466     9.29822E-03     71.7216E-03         1.70126         1.21147        -5.64986         1.68869        -5.63729         1.21147    -543.077E-03     512.783E-03    -255.846E-03    -256.937E-03    -247.976E-03     504.102E-03    -256.126E-03     162.227E-03     31.0122E+06    -13.9836E+06    -17.4066E+06    -17.1892E+06    -14.2011E+06     31.0122E+06     749.554E+03         75.2439
             467     8.52085E-03     71.5334E-03         1.76647         1.19374        -5.67130         1.72629        -5.63113         1.19374        -1.03842     510.312E-03    -254.168E-03    -256.144E-03    -247.491E-03     503.634E-03    -256.144E-03     141.892E-03     29.4952E+06    -17.2438E+06    -21.9444E+06    -21.6213E+06    -17.5669E+06     29.4952E+06     1.09942E+06         73.9571
             468     7.74671E-03     71.3794E-03         1.72336         1.16412        -5.57086         1.69157        -5.53907         1.16412    -671.530E-03     508.599E-03    -252.420E-03    -256.179E-03    -247.618E-03     503.797E-03    -256.179E-03     119.987E-03     24.3545E+06    -22.1100E+06    -26.2635E+06    -25.9546E+06    -22.4189E+06     24.3545E+06     992.743E+03         72.7338
             469     6.97090E-03     71.2653E-03         1.57115         1.12838        -5.35802         1.56542        -5.35228         1.12838     258.858E-03     508.189E-03    -251.975E-03    -256.214E-03    -248.937E-03     505.151E-03    -256.214E-03     94.8983E-03     18.3858E+06    -27.6195E+06    -30.9759E+06    -30.7256E+06    -27.8698E+06     18.3858E+06     704.427E+03         71.5483
             470     6.19555E-03     71.1930E-03         1.38925         1.09637        -5.12454         1.36554        -5.10083         1.09637     732.917E-03     508.135E-03    -251.908E-03    -256.227E-03    -250.232E-03     506.459E-03    -256.227E-03     70.4886E-03     11.3994E+06    -33.8065E+06    -37.1921E+06    -36.5038E+06    -34.4948E+06     11.3994E+06     1.14744E+06         70.3957
             471     5.42304E-03     71.1476E-03         1.18914         1.05087        -4.87414         1.12909        -4.84400         1.08078     838.352E-03     508.547E-03    -252.303E-03    -256.245E-03    -251.427E-03     507.671E-03    -256.245E-03     50.7508E-03     2.69661E+06    -41.0917E+06    -44.0178E+06    -42.9406E+06    -42.1689E+06     2.69661E+06     1.34710E+06         69.2913
             472     4.64704E-03     71.1215E-03         1.09627     941.667E-03        -4.67959     924.892E-03        -4.65983         1.09328     601.801E-03     509.313E-03    -253.040E-03    -256.273E-03    -252.645E-03     508.919E-03    -256.273E-03     33.7217E-03    -8.05552E+06    -48.8157E+06    -51.6205E+06    -49.7685E+06    -50.6677E+06    -8.05552E+06     1.06335E+06         68.2626
             473     3.87179E-03     71.1247E-03         1.13740     868.821E-03        -4.65855     838.963E-03        -4.62869         1.13740    -232.698E-03     510.370E-03    -254.092E-03    -256.278E-03    -253.947E-03     510.226E-03    -256.278E-03     20.2584E-03    -21.5182E+06    -56.1421E+06    -60.6114E+06    -56.4380E+06    -60.3154E+06    -21.5182E+06     646.072E+03         67.3406
             474     3.09747E-03     71.1345E-03         1.20555     962.461E-03        -4.82821     891.018E-03        -4.75676         1.20555        -1.19769     511.362E-03    -255.139E-03    -256.223E-03    -255.100E-03     511.323E-03    -256.223E-03     9.56807E-03    -35.7889E+06    -63.2570E+06    -71.0172E+06    -63.3056E+06    -70.9686E+06    -35.7889E+06     367.081E+03         66.5528
             475     2.32257E-03     71.1574E-03         1.28379         1.11625        -5.05980         1.03677        -4.98032         1.28379        -1.29382     511.596E-03    -255.443E-03    -256.153E-03    -255.439E-03     511.592E-03    -256.153E-03     2.11077E-03    -51.5729E+06    -70.1246E+06    -82.4819E+06    -70.1992E+06    -82.4073E+06    -51.5729E+06     450.228E+03         65.9198
             476     1.54946E-03     71.1760E-03         1.46460         1.28294        -5.41169         1.22473        -5.24314         1.35426        -1.94282     511.779E-03    -255.599E-03    -256.179E-03    -255.599E-03     511.778E-03    -256.179E-03    -969.667E-06    -66.9707E+06    -75.3222E+06    -93.7571E+06    -75.6808E+06    -93.3608E+06    -67.0084E+06    -158.055E+03         65.4552
             477     772.382E-06     71.1932E-03         2.57085     639.488E-03        -5.85482         2.12963        -5.41360     639.488E-03     955.699E-03     512.370E-03    -254.676E-03    -257.694E-03    -256.729E-03     512.368E-03    -255.639E-03    -622.940E-06    -76.7697E+06    -81.5038E+06    -103.063E+06    -79.8145E+06    -102.695E+06    -78.8270E+06    -939.264E+03         65.1651
             478     13.1659E-03     71.5489E-03         1.87163         1.37911        -6.08899         1.86358        -6.08094         1.37911    -8.57300E-03     534.541E-03    -256.315E-03    -278.227E-03    -261.780E-03     518.095E-03    -256.315E-03     214.101E-03     44.0675E+06    -923.540E+03    -3.08665E+06    -2.89570E+06    -1.11449E+06     44.0675E+06     61.1452E+03         82.8188
             479     12.3957E-03     71.0749E-03         1.73863         1.38515        -5.96089         1.70508        -5.92734         1.38515     892.134E-03     536.128E-03    -256.191E-03    -279.937E-03    -261.039E-03     517.231E-03    -256.191E-03     239.123E-03     37.4581E+06    -4.04079E+06    -6.25319E+06    -5.59701E+06    -4.69697E+06     37.4581E+06    -382.499E+03         81.3335
             480     11.6244E-03     70.8195E-03         1.61642         1.40126        -5.83299         1.58242        -5.79899         1.40126     917.222E-03     522.140E-03    -256.062E-03    -266.078E-03    -253.417E-03     509.478E-03    -256.062E-03     197.160E-03     32.9426E+06    -7.51944E+06    -8.83216E+06    -7.88795E+06    -8.46364E+06     32.9426E+06     8.80094E+03         79.7324
             481     10.8504E-03     70.5126E-03         1.59241         1.41350        -5.78278         1.57688        -5.77545         1.42170     82.7851E-03     518.557E-03    -256.058E-03    -262.499E-03    -249.714E-03     505.772E-03    -256.058E-03     197.349E-03     31.5109E+06    -9.15671E+06    -10.8709E+06    -9.90945E+06    -10.1181E+06     31.5109E+06     616.756E+03         78.1357
             482     10.0711E-03     70.2791E-03         1.68671         1.43070        -5.85969         1.67166        -5.85285         1.43890    -425.655E-03     514.304E-03    -256.122E-03    -258.182E-03    -248.072E-03     504.194E-03    -256.122E-03     175.497E-03     30.0675E+06    -11.9858E+06    -14.0690E+06    -13.3079E+06    -12.7469E+06     30.0675E+06     628.080E+03         76.6307
             483     9.29468E-03     70.0523E-03         1.82489         1.44421        -5.98252         1.81159        -5.96922         1.44421    -612.495E-03     512.433E-03    -255.331E-03    -257.102E-03    -247.444E-03     503.633E-03    -256.190E-03     163.272E-03     30.3132E+06    -14.8081E+06    -17.5307E+06    -17.2466E+06    -15.0922E+06     30.3132E+06     655.861E+03         75.2461
             484     8.52195E-03     69.8648E-03         1.93384         1.43504        -6.05575         1.89968        -6.02159         1.43504    -994.155E-03     510.137E-03    -253.877E-03    -256.260E-03    -247.132E-03     503.393E-03    -256.260E-03     142.502E-03     29.0069E+06    -17.6782E+06    -21.1373E+06    -20.9409E+06    -17.8747E+06     29.0069E+06     678.017E+03         73.9617
             485     7.74444E-03     69.7138E-03         1.91948         1.41389        -5.99631         1.89300        -5.96983         1.41389    -594.364E-03     508.823E-03    -252.505E-03    -256.317E-03    -247.759E-03     504.076E-03    -256.317E-03     119.228E-03     23.3392E+06    -22.8797E+06    -25.9336E+06    -25.7394E+06    -23.0739E+06     23.3392E+06     602.759E+03         72.7421
             486     6.96923E-03     69.5945E-03         1.83093         1.38548        -5.85057         1.82532        -5.84496         1.38548     289.369E-03     508.264E-03    -251.903E-03    -256.361E-03    -248.949E-03     505.310E-03    -256.361E-03     93.5824E-03     17.7448E+06    -28.0172E+06    -30.9445E+06    -30.4437E+06    -28.5179E+06     17.7448E+06     927.886E+03         71.5607
             487     6.19623E-03     69.5223E-03         1.70961         1.35497        -5.67148         1.69269        -5.65457         1.35497     678.285E-03     508.979E-03    -252.637E-03    -256.342E-03    -250.977E-03     507.319E-03    -256.342E-03     70.3261E-03     10.8830E+06    -34.1409E+06    -36.7829E+06    -35.9387E+06    -34.9851E+06     10.8830E+06     1.16960E+06         70.4124
             488     5.42100E-03     69.4761E-03         1.48767         1.33411        -5.40868         1.46918        -5.39019         1.33411     673.044E-03     509.242E-03    -252.967E-03    -256.275E-03    -252.075E-03     508.350E-03    -256.275E-03     51.2852E-03     2.46699E+06    -41.2479E+06    -43.8146E+06    -42.4593E+06    -42.6032E+06     2.46699E+06     982.210E+03         69.3117
             489     4.64667E-03     69.4569E-03         1.34866         1.22975        -5.16549         1.23239        -5.15791         1.33844     176.693E-03     509.344E-03    -253.087E-03    -256.258E-03    -252.685E-03     508.943E-03    -256.258E-03     34.0190E-03    -6.67882E+06     -47.852E+06    -50.6906E+06    -48.4959E+06    -50.0467E+06    -6.67882E+06     733.895E+03         68.2853
             490     3.87139E-03     69.4530E-03         1.37824         1.12727        -5.10870         1.07855        -5.05998         1.37824    -828.187E-03     510.233E-03    -253.958E-03    -256.276E-03    -253.817E-03     510.093E-03    -256.276E-03     19.6733E-03    -19.5008E+06    -54.8745E+06    -59.5375E+06    -55.1248E+06    -59.2872E+06    -19.5008E+06     987.779E+03         67.3643
             491     3.09760E-03     69.4651E-03         1.45466         1.22525        -5.29715         1.06661        -5.13850         1.45466        -1.96116     510.967E-03    -254.668E-03    -256.299E-03    -254.633E-03     510.932E-03    -256.299E-03     9.36726E-03    -35.3887E+06    -62.3151E+06    -71.0204E+06    -62.5001E+06    -70.8354E+06    -35.3887E+06     847.919E+03         66.5769
             492     2.32418E-03     69.4866E-03         1.55552         1.38098        -5.54875         1.21996        -5.38774         1.55552        -2.03571     511.818E-03    -255.459E-03    -256.359E-03    -255.501E-03     511.812E-03    -256.311E-03     3.30116E-03    -50.9354E+06    -69.3471E+06    -82.3383E+06    -69.3963E+06    -82.2891E+06    -50.9354E+06     299.442E+03         65.9446
             493     1.54822E-03     69.5091E-03         1.78975         1.57326        -5.95398         1.44915        -5.70081         1.66069        -2.61586     512.420E-03    -255.928E-03    -256.493E-03    -256.214E-03     512.419E-03    -256.205E-03    -260.178E-06    -64.5944E+06    -74.8728E+06    -92.6898E+06    -75.0415E+06    -92.5211E+06    -64.5944E+06     778.514E+03         65.4811
             494     775.985E-06     69.5219E-03         3.05409     883.892E-03        -6.52069         2.53597        -6.00257     883.892E-03     746.854E-03     512.112E-03    -255.119E-03    -256.993E-03    -255.352E-03     512.106E-03    -256.753E-03    -1.82396E-03    -74.9658E+06    -81.3847E+06    -102.736E+06    -79.6791E+06    -102.422E+06    -76.9854E+06     1.37758E+06         65.1916
             495     13.1728E-03     69.8801E-03         1.78140         1.52437        -6.14127         1.77062        -6.13049         1.52437     149.046E-03     534.984E-03    -256.179E-03    -278.804E-03    -262.214E-03     518.393E-03    -256.179E-03     214.538E-03     43.9422E+06    -923.247E+03    -2.64966E+06    -2.43867E+06    -1.13424E+06     43.9422E+06     121.274E+03         82.7958
             496     12.3974E-03     69.4011E-03         1.66439         1.55004        -6.02852         1.62134        -5.98547         1.55004         1.08127     534.559E-03    -256.121E-03    -278.438E-03    -259.140E-03     515.261E-03    -256.121E-03     241.507E-03     37.5438E+06    -3.81342E+06    -5.98110E+06    -4.96725E+06    -4.82727E+06     37.5438E+06    -104.352E+03         81.3148
             497     11.6217E-03     69.1487E-03         1.62218         1.58090        -5.98209         1.57847        -5.93906         1.58157         1.07527     520.710E-03    -256.135E-03    -264.574E-03    -251.580E-03     507.716E-03    -256.135E-03     199.468E-03     32.9130E+06    -7.45633E+06    -8.91662E+06    -7.54862E+06    -8.82433E+06     32.9130E+06    -158.075E+03         79.7196
             498     10.8421E-03     68.8495E-03         1.63089         1.60166        -5.97556         1.61338        -5.96692         1.61054     262.106E-03     519.445E-03    -256.193E-03    -263.252E-03    -250.210E-03     506.403E-03    -256.193E-03     199.552E-03     30.5496E+06    -10.3028E+06    -12.0753E+06    -10.8194E+06    -11.5587E+06     30.5496E+06     523.328E+03         78.1318
             499     10.0700E-03     68.6040E-03         1.69303         1.62265        -6.02337         1.67795        -6.02046         1.63481    -279.427E-03     514.889E-03    -256.239E-03    -258.650E-03    -248.508E-03     504.747E-03    -256.239E-03     175.910E-03     29.4058E+06    -12.5403E+06    -14.5518E+06    -13.4657E+06    -13.6265E+06     29.4058E+06     931.809E+03         76.6354
             500     9.29675E-03     68.3891E-03         1.76844         1.62297        -6.07026         1.73164        -6.06348         1.65299    -454.729E-03     512.390E-03    -255.630E-03    -256.760E-03    -247.343E-03     503.646E-03    -256.303E-03     162.801E-03     30.2929E+06    -14.8261E+06    -16.9076E+06    -16.5481E+06    -15.1856E+06     30.2929E+06     562.976E+03         75.2560
             501     8.51676E-03     68.1949E-03         1.83354         1.58404        -6.07296         1.72785        -6.05269         1.66947    -757.007E-03     510.768E-03    -254.416E-03    -256.352E-03    -247.693E-03     504.045E-03    -256.352E-03     142.289E-03     27.9180E+06    -18.8605E+06    -21.1598E+06    -21.0920E+06    -18.9282E+06     27.9180E+06     312.950E+03         73.9746
             502     7.74575E-03     68.0415E-03         1.85026         1.55553        -6.03601         1.70106        -6.01915         1.68788    -413.687E-03     509.322E-03    -252.968E-03    -256.354E-03    -248.334E-03     504.689E-03    -256.354E-03     117.865E-03     22.6882E+06    -23.1331E+06    -25.1689E+06    -24.9014E+06    -23.4006E+06     22.6882E+06     568.839E+03         72.7570
             503     6.97101E-03     67.9294E-03         1.85566         1.55150        -6.01135         1.69150        -6.00388         1.70819     393.428E-03     508.313E-03    -251.949E-03    -256.364E-03    -249.020E-03     505.384E-03    -256.364E-03     93.4012E-03     16.8753E+06    -28.3190E+06    -30.6176E+06    -29.8471E+06    -29.0894E+06     16.8753E+06     1.05271E+06         71.5772
             504     6.19404E-03     67.8493E-03         1.84333         1.59240        -6.01168         1.68734        -5.99165         1.72835     766.754E-03     508.607E-03    -252.233E-03    -256.373E-03    -250.577E-03     506.950E-03    -256.373E-03     70.0045E-03     10.3639E+06    -34.2666E+06    -36.4644E+06    -35.4114E+06    -35.3195E+06     10.3639E+06     1.07089E+06         70.4303
             505     5.42150E-03     67.8068E-03         1.79256         1.68060        -6.03151         1.70951        -6.01289         1.74503     719.563E-03     509.431E-03    -253.099E-03    -256.332E-03    -252.249E-03     508.581E-03    -256.332E-03     50.1201E-03     3.40103E+06    -40.3551E+06    -42.5745E+06    -41.1331E+06    -41.7966E+06     3.40103E+06     797.683E+03         69.3314
             506     4.64690E-03     67.7868E-03         1.79241         1.70810        -6.05662         1.73886        -6.04986         1.75488     126.527E-03     509.886E-03    -253.625E-03    -256.262E-03    -253.230E-03     509.492E-03    -256.262E-03     33.8374E-03    -5.78755E+06    -47.5084E+06     -50.345E+06    -47.9663E+06    -49.8870E+06    -5.78755E+06     680.823E+03         68.3070
             507     3.87359E-03     67.7833E-03         1.85762         1.67273        -6.09984         1.72498        -6.05540         1.76092    -915.522E-03     509.851E-03    -253.577E-03    -256.274E-03    -253.433E-03     509.707E-03    -256.274E-03     19.9574E-03    -18.4452E+06    -55.1079E+06    -59.8381E+06    -55.3446E+06    -59.6015E+06    -18.4452E+06     760.138E+03         67.3871
             508     3.09704E-03     67.7989E-03         1.92720         1.70602        -6.21359         1.69910        -6.05109         1.77162        -2.14708     510.575E-03    -254.163E-03    -256.411E-03    -254.125E-03     510.536E-03    -256.411E-03     10.0204E-03    -33.6600E+06    -61.9825E+06    -70.5979E+06    -62.1513E+06    -70.4290E+06    -33.6600E+06     665.299E+03         66.5999
             509     2.31993E-03     67.8166E-03         1.93420         1.73387        -6.23828         1.70774        -6.07029         1.79233        -2.24244     512.091E-03    -255.530E-03    -256.561E-03    -255.570E-03     512.083E-03    -256.512E-03     3.22754E-03    -50.6405E+06    -68.5745E+06    -82.2476E+06    -68.6176E+06    -82.2046E+06    -50.6405E+06     498.467E+03         65.9678
             510     1.54868E-03     67.8354E-03         2.07579         1.77406        -6.38821         1.75878        -6.11766         1.82053        -2.80350     512.794E-03    -256.043E-03    -256.752E-03    -256.329E-03     512.793E-03    -256.464E-03    -530.723E-06    -65.5244E+06    -74.0695E+06    -92.9643E+06    -74.1179E+06    -92.9159E+06    -65.5244E+06     391.898E+03         65.5045
             511     773.741E-06     67.8544E-03         3.29985     875.664E-03        -6.67780         2.79985        -6.17780     875.664E-03     491.475E-03     512.737E-03    -254.554E-03    -258.183E-03    -257.194E-03     512.732E-03    -255.537E-03    -1.89481E-03    -72.7820E+06    -77.0573E+06    -99.9948E+06    -76.8179E+06    -99.6737E+06    -73.3424E+06     234.253E+03         65.2155
             512     13.1718E-03     68.2097E-03         1.87902         1.70576        -6.40048         1.86780        -6.38927         1.70576     176.220E-03     534.566E-03    -256.154E-03    -278.412E-03    -261.368E-03     517.521E-03    -256.154E-03     217.220E-03     43.3564E+06    -427.353E+03    -2.44750E+06    -1.96856E+06    -906.291E+03     43.3564E+06     622.032E+03         82.7661
             513     12.3960E-03     67.7343E-03         1.89243         1.74093        -6.41196         1.85597        -6.37550         1.74093         1.05224     533.314E-03    -256.199E-03    -277.115E-03    -257.446E-03     513.645E-03    -256.199E-03     243.014E-03     36.9139E+06    -2.85337E+06    -5.59591E+06    -4.05494E+06    -4.39434E+06     36.9139E+06     476.002E+03         81.2932
             514     11.6166E-03     67.4861E-03         1.91893         1.77333        -6.43284         1.88305        -6.39764         1.77400         1.01905     520.908E-03    -256.274E-03    -264.635E-03    -251.765E-03     508.039E-03    -256.274E-03     198.661E-03     30.9965E+06    -7.42048E+06    -9.77854E+06    -7.53741E+06    -9.66161E+06     30.9965E+06     11.6018E+03         79.7104
             515     10.8460E-03     67.1732E-03         1.88210         1.80179        -6.38423         1.87141        -6.37421         1.80246     167.489E-03     519.920E-03    -256.302E-03    -263.617E-03    -250.865E-03     507.167E-03    -256.302E-03     197.437E-03     29.0940E+06    -10.6043E+06    -12.6232E+06    -10.7251E+06    -12.5023E+06     29.0940E+06     249.337E+03         78.1356
             516     10.0697E-03     66.9398E-03         1.85370         1.80301        -6.31958         1.81391        -6.31016         1.83337    -495.180E-03     514.699E-03    -256.328E-03    -258.371E-03    -248.393E-03     504.721E-03    -256.328E-03     174.490E-03     29.0422E+06    -13.0587E+06    -14.7909E+06    -13.4558E+06    -14.3938E+06     29.0422E+06     183.137E+03         76.6475
             517     9.29118E-03     66.7170E-03         1.87130         1.74199        -6.24360         1.72353        -6.22514         1.87130    -719.913E-03     513.146E-03    -256.300E-03    -256.846E-03    -248.080E-03     504.443E-03    -256.363E-03     162.550E-03     29.8898E+06    -15.2354E+06    -17.2338E+06    -16.6276E+06    -15.8416E+06     29.8898E+06     434.263E+03         75.2715
             518     8.52252E-03     66.5257E-03         1.92069         1.66736        -6.19541         1.63335        -6.16141         1.92069    -981.523E-03     510.999E-03    -254.631E-03    -256.368E-03    -247.967E-03     504.334E-03    -256.368E-03     141.759E-03     28.1750E+06    -18.4718E+06    -20.4550E+06    -20.1158E+06    -18.8110E+06     28.1750E+06     644.428E+03         73.9907
             519     7.74430E-03     66.3719E-03         1.97970         1.62652        -6.19862         1.60352        -6.17562         1.97970    -651.875E-03     509.173E-03    -252.803E-03    -256.370E-03    -248.134E-03     504.503E-03    -256.370E-03     118.360E-03     22.4158E+06    -23.5635E+06    -25.1872E+06    -24.7084E+06    -24.0422E+06     22.4158E+06     655.168E+03         72.7721
             520     6.96956E-03     66.2594E-03         2.04017         1.69566        -6.30750         1.68844        -6.30028         2.04017     251.053E-03     508.778E-03    -252.409E-03    -256.369E-03    -249.445E-03     505.814E-03    -256.369E-03     93.9078E-03     16.7801E+06    -28.6448E+06    -30.4375E+06    -29.6426E+06    -29.4398E+06     16.7801E+06     875.880E+03         71.5921
             521     6.19708E-03     66.1805E-03         2.09060         1.89101        -6.53422         1.87038        -6.51197         2.08898     842.209E-03     508.470E-03    -252.105E-03    -256.365E-03    -250.439E-03     506.804E-03    -256.365E-03     70.2973E-03     10.4160E+06    -34.3042E+06    -36.0736E+06    -34.9938E+06     -35.384E+06     10.4160E+06     838.203E+03         70.4460
             522     5.42023E-03     66.1365E-03         2.15568         2.05105        -6.74833         2.06285        -6.71992         2.11548     993.596E-03     509.188E-03    -252.832E-03    -256.357E-03    -251.956E-03     508.313E-03    -256.357E-03     50.8031E-03     3.54639E+06    -40.2884E+06    -42.2951E+06    -40.8699E+06    -41.7135E+06     3.54639E+06     841.493E+03         69.3484
             523     4.64725E-03     66.1145E-03         2.24923         2.10183        -6.89601         2.22384        -6.88280         2.11402     490.854E-03     509.901E-03    -253.582E-03    -256.319E-03    -253.190E-03     509.509E-03    -256.319E-03     33.5522E-03    -5.13511E+06    -46.7926E+06      -49.71E+06    -47.2498E+06    -49.2528E+06    -5.13511E+06     871.560E+03         68.3257
             524     3.87075E-03     66.1185E-03         2.32748         2.08238        -6.96655         2.31229        -6.95136         2.08238    -488.259E-03     510.279E-03    -253.981E-03    -256.298E-03    -253.845E-03     510.143E-03    -256.298E-03     19.4318E-03    -18.2594E+06    -54.5111E+06    -59.5702E+06    -54.7210E+06    -59.3603E+06    -18.2594E+06     763.480E+03         67.4074
             525     3.09607E-03     66.1289E-03         2.36890         2.02868        -6.95879         2.26384        -6.85372         2.02868        -1.78564     511.311E-03    -255.038E-03    -256.273E-03    -255.004E-03     511.277E-03    -256.273E-03     8.93027E-03    -33.4537E+06    -61.6898E+06    -70.5419E+06    -61.8448E+06    -70.3869E+06    -33.4537E+06     807.946E+03         66.6212
             526     2.32492E-03     66.1449E-03         2.25850         1.97039        -6.77569         2.13133        -6.64852         1.97039        -2.07215     511.630E-03    -255.376E-03    -256.254E-03    -255.373E-03     511.627E-03    -256.254E-03     1.31813E-03    -48.4824E+06    -68.2221E+06    -81.1968E+06    -68.2708E+06    -81.1480E+06    -48.4824E+06     510.430E+03         65.9886
             527     1.54744E-03     66.1671E-03         2.27516         1.91982        -6.70962         2.00619        -6.44064         1.91982        -2.80634     511.818E-03    -255.394E-03    -256.424E-03    -255.393E-03     511.817E-03    -256.424E-03    -1.74416E-03    -64.0240E+06    -74.4694E+06    -92.1457E+06    -74.4949E+06    -92.1202E+06    -64.0240E+06     338.298E+03         65.5241
             528     773.344E-06     66.1820E-03         3.36588     981.230E-03        -6.80459         2.81544        -6.25415     981.230E-03     563.514E-03     513.064E-03    -254.795E-03    -258.269E-03    -257.199E-03     513.063E-03    -255.863E-03    -576.603E-06    -75.5245E+06    -79.6934E+06    -101.965E+06    -78.4066E+06    -101.781E+06    -76.9953E+06    -126.861E+03         65.2341
             529     13.1705E-03     66.5411E-03         2.02069         1.91600        -6.68636         2.00572        -6.67572         1.92033     134.373E-03     533.724E-03    -256.251E-03    -277.473E-03    -260.691E-03     516.942E-03    -256.251E-03     215.678E-03     42.5964E+06    -1.17677E+06    -2.99716E+06    -2.48046E+06    -1.69347E+06     42.5964E+06     90.9851E+03         82.7400
             530     12.3919E-03     66.0705E-03         2.09188         1.96253        -6.77026         2.06509        -6.74346         1.96253     946.170E-03     533.749E-03    -256.268E-03    -277.481E-03    -258.168E-03     514.436E-03    -256.268E-03     240.928E-03     34.9334E+06    -3.71499E+06    -6.74450E+06    -4.92426E+06    -5.53524E+06     34.9334E+06     371.143E+03         81.2800
             531     11.6203E-03     65.8130E-03         2.13053         1.97202        -6.77822         2.07523        -6.75476         2.00385     855.437E-03     521.434E-03    -256.292E-03    -265.142E-03    -252.354E-03     508.646E-03    -256.292E-03     198.075E-03     29.6734E+06    -7.23742E+06    -10.1310E+06    -7.36301E+06    -10.0054E+06     29.6734E+06     491.112E+03         79.7116
             532     10.8428E-03     65.5037E-03         2.10880         1.96028        -6.70336         2.01452        -6.69521         2.04641     15.4786E-03     519.415E-03    -256.322E-03    -263.093E-03    -250.366E-03     506.688E-03    -256.322E-03     197.078E-03     28.5475E+06    -9.52094E+06    -12.0755E+06    -9.63934E+06    -11.9571E+06     28.5475E+06     460.253E+03         78.1461
             533     10.0677E-03     65.2723E-03         2.10112         1.92346        -6.61720         1.91077        -6.60143         2.09805    -704.966E-03     514.954E-03    -256.356E-03    -258.598E-03    -248.635E-03     504.991E-03    -256.356E-03     174.418E-03     28.2552E+06    -12.4884E+06    -14.7191E+06    -12.8424E+06    -14.3651E+06     28.2552E+06     330.911E+03         76.6623
             534     9.29683E-03     65.0458E-03         2.15908         1.87661        -6.59941         1.84931        -6.57210         2.15908    -953.323E-03     513.311E-03    -255.961E-03    -257.350E-03    -248.183E-03     504.563E-03    -256.380E-03     163.008E-03     28.8358E+06    -15.5389E+06    -17.2956E+06    -16.3273E+06    -16.5072E+06     28.8358E+06     302.414E+03         75.2868
             535     8.51749E-03     64.8546E-03         2.22610         1.88948        -6.66581         1.84908        -6.62542         2.22610        -1.15026     510.943E-03    -254.549E-03    -256.395E-03    -247.875E-03     504.270E-03    -256.395E-03     141.785E-03     27.7641E+06    -18.6041E+06    -20.2476E+06    -19.6618E+06    -19.1898E+06     27.7641E+06     603.271E+03         74.0044
             536     7.74440E-03     64.7068E-03         2.29079         1.95549        -6.78671         1.92902        -6.76024         2.29079    -807.859E-03     509.503E-03    -253.109E-03    -256.394E-03    -248.443E-03     504.838E-03    -256.394E-03     118.403E-03     22.6538E+06    -23.5847E+06    -25.4922E+06    -24.7520E+06    -24.3249E+06     22.6538E+06     925.203E+03         72.7843
             537     6.97047E-03     64.5835E-03         2.34322         2.10404        -6.97811         2.09882        -6.97289         2.34322     95.1609E-03     508.677E-03    -252.289E-03    -256.388E-03    -249.348E-03     505.736E-03    -256.388E-03     93.3812E-03     17.3435E+06    -28.6376E+06    -30.2079E+06    -29.4876E+06    -29.3578E+06     17.3435E+06     772.068E+03         71.6036
             538     6.19433E-03     64.5156E-03         2.38783         2.29626        -7.19917         2.29524        -7.18491         2.37459     698.728E-03     508.528E-03    -252.143E-03    -256.385E-03    -250.484E-03     506.869E-03    -256.385E-03     70.3719E-03     10.7496E+06    -34.1601E+06    -35.7497E+06    -34.6457E+06    -35.2641E+06     10.7496E+06     708.291E+03         70.4581
             539     5.42110E-03     64.4637E-03         2.47381         2.38166        -7.36168         2.45253        -7.34040         2.38166     876.802E-03     509.097E-03    -252.714E-03    -256.383E-03    -251.823E-03     508.206E-03    -256.383E-03     51.0201E-03     3.03793E+06    -40.1361E+06    -42.3197E+06    -40.4884E+06    -41.9674E+06     3.03793E+06     769.996E+03         69.3621
             540     4.64558E-03     64.4466E-03         2.52919         2.36732        -7.40972         2.51756        -7.39809         2.36732     406.758E-03     510.176E-03    -253.839E-03    -256.337E-03    -253.470E-03     509.807E-03    -256.337E-03     32.5329E-03    -5.93152E+06    -46.3288E+06    -49.7792E+06    -46.6580E+06    -49.4499E+06    -5.93152E+06     992.090E+03         68.3412
             541     3.87279E-03     64.4475E-03         2.50577         2.32975        -7.36471         2.48363        -7.35354         2.34073    -473.828E-03     511.247E-03    -255.066E-03    -256.182E-03    -254.940E-03     511.122E-03    -256.182E-03     18.7696E-03    -17.4357E+06    -53.1671E+06    -58.8061E+06    -53.4831E+06    -58.4901E+06    -17.4357E+06     999.512E+03         67.4250
             542     3.10041E-03     64.4568E-03         2.54191         2.29786        -7.38168         2.43247        -7.28322         2.30883        -1.76169     511.035E-03    -255.029E-03    -256.005E-03    -254.997E-03     511.002E-03    -256.005E-03     8.95556E-03    -32.3624E+06    -60.5053E+06    -69.5734E+06    -60.7131E+06    -69.3656E+06    -32.3624E+06     1.05673E+06         66.6399
             543     2.32306E-03     64.4784E-03         2.47055         2.27475        -7.27045         2.36196        -7.16185         2.27475        -1.92778     510.784E-03    -254.782E-03    -256.002E-03    -254.778E-03     510.780E-03    -256.002E-03     2.73691E-03    -48.7512E+06    -67.3066E+06    -81.0747E+06    -67.4067E+06    -80.9746E+06    -48.7512E+06     757.789E+03         66.0069
             544     1.54980E-03     64.4993E-03         2.55711         2.24390        -7.28611         2.28959        -7.01859         2.24390        -2.80339     511.640E-03    -255.355E-03    -256.285E-03    -255.523E-03     511.639E-03    -256.116E-03    -209.202E-06    -63.1489E+06    -73.4063E+06    -91.4454E+06    -73.4247E+06    -91.4271E+06    -63.1489E+06     217.087E+03         65.5417
             545     774.372E-06     64.5114E-03         3.64826         1.48006        -7.57026         2.97489        -6.89689         1.48006     913.993E-03     512.216E-03    -255.581E-03    -256.635E-03    -255.809E-03     512.215E-03    -256.406E-03    -1.36735E-03    -73.5671E+06    -79.1218E+06    -100.740E+06    -78.2612E+06    -100.690E+06    -74.4775E+06     671.343E+03         65.2510
             546     13.1675E-03     64.8705E-03         2.15298         1.95208        -6.74582         1.95591        -6.73265         2.13598     106.492E-03     533.813E-03    -256.322E-03    -277.492E-03    -260.868E-03     517.190E-03    -256.322E-03     214.834E-03     41.6645E+06    -1.91332E+06    -3.16176E+06    -2.59643E+06    -2.47865E+06     41.6645E+06    -387.627E+03         82.7233
             547     12.3968E-03     64.4020E-03         2.22308         1.99430        -6.81356         1.99645        -6.78514         2.19252     974.135E-03     534.590E-03    -256.306E-03    -278.284E-03    -258.958E-03     515.264E-03    -256.306E-03     241.750E-03     34.3861E+06    -4.81318E+06    -7.20727E+06    -5.47177E+06    -6.54868E+06     34.3861E+06     85.9087E+03         81.2738
             548     11.6186E-03     64.1437E-03         2.26657         1.99087        -6.81451         1.97628        -6.78636         2.25301     952.424E-03     521.510E-03    -256.315E-03    -265.195E-03    -252.245E-03     508.560E-03    -256.315E-03     199.418E-03     30.0121E+06    -7.07334E+06    -10.4153E+06    -7.26393E+06    -10.2247E+06     30.0121E+06     721.026E+03         79.7159
             549     10.8440E-03     63.8387E-03         2.31786         1.95855        -6.79461         1.94853        -6.78458         2.31786     207.722E-03     519.602E-03    -256.353E-03    -263.249E-03    -250.467E-03     506.820E-03    -256.353E-03     197.554E-03     28.3034E+06    -9.49076E+06    -12.4781E+06    -9.67499E+06    -12.2939E+06     28.3034E+06     666.865E+03         78.1573
             550     10.0697E-03     63.5983E-03         2.38681         2.00027        -6.87346         1.99060        -6.86379         2.38681    -511.906E-03     515.407E-03    -256.376E-03    -259.031E-03    -249.028E-03     505.404E-03    -256.376E-03     174.851E-03     28.4739E+06    -11.8227E+06    -14.4396E+06    -12.3005E+06    -13.9618E+06     28.4739E+06     894.402E+03         76.6765
             551     9.29168E-03     63.3781E-03         2.45208         2.11500        -7.03559         2.09928        -7.01987         2.45208    -719.248E-03     513.335E-03    -255.967E-03    -257.368E-03    -248.288E-03     504.667E-03    -256.379E-03     162.229E-03     28.4605E+06    -14.7426E+06    -16.8236E+06    -15.5758E+06    -15.9904E+06     28.4605E+06     842.291E+03         75.3006
             552     8.51968E-03     63.1859E-03         2.50917         2.23406        -7.19930         2.21385        -7.17910         2.50917    -834.551E-03     510.986E-03    -254.602E-03    -256.384E-03    -248.069E-03     504.442E-03    -256.373E-03     140.421E-03     25.9147E+06    -19.4228E+06    -20.9934E+06    -20.3556E+06    -20.0605E+06     25.9147E+06     617.771E+03         74.0159
             553     7.74539E-03     63.0321E-03         2.55606         2.33150        -7.33800         2.31708        -7.32358         2.55606    -668.622E-03     509.295E-03    -252.928E-03    -256.367E-03    -248.329E-03     504.697E-03    -256.367E-03     117.583E-03     22.1870E+06    -23.6426E+06    -25.0311E+06    -24.4876E+06    -24.1861E+06     22.1870E+06     674.106E+03         72.7938
             554     6.96979E-03     62.9195E-03         2.59352         2.41768        -7.45279         2.41350        -7.44860         2.59352     11.8109E-03     508.609E-03    -252.245E-03    -256.364E-03    -249.304E-03     505.668E-03    -256.364E-03     93.4216E-03     16.7055E+06    -28.8121E+06    -29.9267E+06    -29.3994E+06    -29.3394E+06     16.7055E+06     553.999E+03         71.6122
             555     6.19590E-03     62.8417E-03         2.63606         2.46036        -7.52822         2.46547        -7.52169         2.62443     495.485E-03     508.947E-03    -252.620E-03    -256.326E-03    -251.003E-03     507.329E-03    -256.326E-03     69.2839E-03     10.2621E+06    -34.0764E+06    -35.6585E+06    -34.4874E+06    -35.2475E+06     10.2621E+06     619.802E+03         70.4676
             556     5.42079E-03     62.7965E-03         2.70587         2.43881        -7.57138         2.48378        -7.56441         2.65392     503.595E-03     509.091E-03    -252.819E-03    -256.272E-03    -252.000E-03     508.273E-03    -256.272E-03     48.9464E-03     3.26235E+06    -39.6289E+06    -42.1059E+06    -39.9180E+06    -41.8169E+06     3.26235E+06     722.125E+03         69.3733
             557     4.64673E-03     62.7754E-03         2.74193         2.45722        -7.63297         2.50707        -7.62587         2.68497    -62.3072E-03     509.582E-03    -253.341E-03    -256.241E-03    -252.980E-03     509.221E-03    -256.241E-03     32.4674E-03    -5.91585E+06    -45.9285E+06    -49.8056E+06    -46.2162E+06    -49.5179E+06    -5.91585E+06     638.934E+03         68.3543
             558     3.87328E-03     62.7736E-03         2.73578         2.53662        -7.72555         2.52819        -7.70048         2.71914    -922.260E-03     510.481E-03    -254.285E-03    -256.196E-03    -254.140E-03     510.336E-03    -256.196E-03     20.3244E-03    -17.8854E+06    -52.4385E+06    -58.6476E+06    -52.7061E+06    -58.3799E+06    -17.8854E+06     664.569E+03         67.4397
             559     3.09758E-03     62.7911E-03         2.80798         2.64630        -7.92147         2.55885        -7.78558         2.75954        -2.20634     510.863E-03    -254.704E-03    -256.159E-03    -254.662E-03     510.821E-03    -256.159E-03     10.3918E-03    -32.0342E+06    -59.4072E+06    -69.0136E+06    -59.5771E+06    -68.8437E+06    -32.0342E+06     850.406E+03         66.6563
             560     2.32347E-03     62.8116E-03         2.85741         2.71302        -8.02948         2.62870        -7.89562         2.80786        -2.19088     511.527E-03    -255.325E-03    -256.202E-03    -255.385E-03     511.521E-03    -256.135E-03     3.71994E-03    -47.5404E+06    -65.4313E+06    -80.1473E+06    -65.6701E+06    -79.9085E+06    -47.5404E+06     1.19546E+06         66.0253
             561     1.54765E-03     62.8277E-03         3.14274         2.78654        -8.35659         2.77604        -8.05166         2.84832        -3.20475     512.160E-03    -255.804E-03    -256.356E-03    -256.203E-03     512.159E-03    -255.956E-03    -98.3236E-06    -62.5954E+06    -71.1575E+06    -90.6647E+06    -71.3621E+06    -90.4601E+06    -62.5954E+06     578.894E+03         65.5614
             562     775.334E-06     62.8431E-03         4.18460         2.38150        -8.96330         3.33661        -8.11531         2.38150         1.24445     511.505E-03    -255.401E-03    -256.105E-03    -255.793E-03     511.504E-03    -255.710E-03    -1.61201E-03    -70.5294E+06    -76.3651E+06    -98.3948E+06    -74.2399E+06    -98.3607E+06    -72.6888E+06    -453.129E+03         65.2711
             563     13.1689E-03     63.1998E-03         2.32595         1.79441        -6.58241         1.77644        -6.56444         2.32595     168.877E-03     533.829E-03    -256.384E-03    -277.445E-03    -260.562E-03     516.946E-03    -256.384E-03     216.635E-03     41.2089E+06    -1.67298E+06    -3.16011E+06    -2.06688E+06    -2.76621E+06     41.2089E+06     159.454E+03         82.7095
             564     12.3903E-03     62.7290E-03         2.39900         1.82421        -6.64358         1.78759        -6.60695         2.39900         1.09656     534.870E-03    -256.397E-03    -278.472E-03    -259.048E-03     515.446E-03    -256.397E-03     242.002E-03     34.6963E+06    -4.82714E+06    -7.14228E+06    -5.18085E+06    -6.78857E+06     34.6963E+06    -71.4337E+03         81.2668
             565     11.6178E-03     62.4768E-03         2.47648         1.87771        -6.73474         1.84095        -6.69798         2.47648         1.10897     522.142E-03    -256.391E-03    -265.751E-03    -252.836E-03     509.227E-03    -256.391E-03     199.178E-03     30.1933E+06    -7.33337E+06    -11.0771E+06    -7.61082E+06    -10.7997E+06     30.1933E+06     321.622E+03         79.7179
             566     10.8425E-03     62.1655E-03         2.55209         1.98313        -6.88859         1.96978        -6.87524         2.55209     387.787E-03     520.503E-03    -256.382E-03    -264.121E-03    -251.322E-03     507.704E-03    -256.382E-03     197.821E-03     29.1044E+06    -9.42662E+06    -12.5457E+06    -9.63056E+06    -12.3418E+06     29.1044E+06     741.868E+03         78.1668
             567     10.0672E-03     61.9306E-03         2.62092         2.16130        -7.11714         2.15580        -7.11165         2.62092    -392.495E-03     515.668E-03    -256.350E-03    -259.318E-03    -249.462E-03     505.812E-03    -256.350E-03     173.630E-03     28.3344E+06    -12.3177E+06    -14.7116E+06    -12.5956E+06    -14.4337E+06     28.3344E+06     654.120E+03         76.6890
             568     9.29610E-03     61.7059E-03         2.67706         2.37071        -7.36709         2.35990        -7.35628         2.67706    -638.614E-03     513.244E-03    -255.940E-03    -257.304E-03    -248.395E-03     504.710E-03    -256.315E-03     160.996E-03     27.5734E+06    -15.1105E+06    -17.4471E+06    -16.1440E+06    -16.4135E+06     27.5734E+06     1.01959E+06         75.3122
             569     8.52077E-03     61.5155E-03         2.72179         2.50906        -7.54052         2.49466        -7.52611         2.72179    -749.949E-03     510.621E-03    -254.296E-03    -256.325E-03    -247.735E-03     504.049E-03    -256.314E-03     140.771E-03     26.3168E+06    -18.2423E+06    -20.6026E+06    -19.7282E+06    -19.1166E+06     26.3168E+06     1.13807E+06         74.0251
             570     7.74463E-03     61.3656E-03         2.76123         2.53282        -7.59285         2.52216        -7.58220         2.76123    -617.471E-03     509.266E-03    -252.946E-03    -256.320E-03    -248.306E-03     504.626E-03    -256.320E-03     117.997E-03     22.0825E+06    -22.9813E+06    -24.5554E+06    -23.8748E+06    -23.6619E+06     22.0825E+06     766.625E+03         72.8009
             571     6.97019E-03     61.2480E-03         2.80368         2.49863        -7.59071         2.49401        -7.58609         2.80368     26.9040E-03     509.071E-03    -252.795E-03    -256.276E-03    -249.881E-03     506.157E-03    -256.276E-03     93.0850E-03     15.9061E+06    -28.3131E+06    -29.5064E+06    -28.7024E+06    -29.1171E+06     15.9061E+06     354.930E+03         71.6194
             572     6.19662E-03     61.1701E-03         2.85588         2.45956        -7.59431         2.44884        -7.58359         2.85588     600.116E-03     508.642E-03    -252.436E-03    -256.207E-03    -250.822E-03     507.029E-03    -256.207E-03     69.1829E-03     9.30011E+06    -33.9518E+06    -35.5607E+06    -34.1618E+06    -35.3507E+06     9.30011E+06     254.460E+03         70.4760
             573     5.42371E-03     61.1270E-03         2.92448         2.41760        -7.61932         2.40641        -7.60813         2.92448     603.346E-03     508.431E-03    -252.232E-03    -256.199E-03    -251.375E-03     507.574E-03    -256.199E-03     50.2676E-03     2.68460E+06    -39.8157E+06    -41.9792E+06    -39.9092E+06    -41.8857E+06     2.68460E+06     388.485E+03         69.3835
             574     4.64813E-03     61.1076E-03         3.01220         2.44909        -7.74809         2.44194        -7.74094         3.01220    -18.9605E-03     508.833E-03    -252.555E-03    -256.278E-03    -252.144E-03     508.422E-03    -256.278E-03     34.4668E-03    -5.93144E+06    -45.4890E+06    -49.1680E+06    -45.7129E+06    -48.9442E+06    -5.93144E+06     525.824E+03         68.3667
             575     3.87032E-03     61.1073E-03         3.11602         2.58137        -8.00209         2.55583        -7.97655         3.11602    -921.194E-03     510.050E-03    -253.670E-03    -256.381E-03    -253.519E-03     509.900E-03    -256.381E-03     20.3515E-03    -18.9536E+06    -51.9583E+06    -58.5323E+06    -52.2258E+06    -58.2647E+06    -18.9536E+06     816.808E+03         67.4548
             576     3.09612E-03     61.1198E-03         3.23199         2.88174        -8.43083         2.73120        -8.28029         3.23199        -2.39686     511.845E-03    -255.352E-03    -256.493E-03    -255.456E-03     511.810E-03    -256.354E-03     8.97108E-03    -33.7340E+06    -59.0173E+06    -69.4402E+06    -59.1285E+06    -69.3291E+06    -33.7340E+06     673.330E+03         66.6746
             577     2.32267E-03     61.1406E-03         3.35399         3.12101        -8.78497         2.96967        -8.63363         3.35399        -2.45432     512.473E-03    -256.038E-03    -256.434E-03    -256.362E-03     512.469E-03    -256.107E-03     2.39861E-03    -47.3327E+06    -65.4533E+06    -80.0616E+06    -65.6536E+06    -79.8612E+06    -47.3327E+06     689.205E+03         66.0462
             578     1.55068E-03     61.1578E-03         3.73790         3.32838        -9.35413         3.25899        -9.01108         3.46424        -3.64696     511.735E-03    -255.575E-03    -256.160E-03    -255.927E-03     511.734E-03    -255.807E-03    -964.875E-06    -59.3460E+06    -69.0254E+06    -88.0658E+06    -69.3544E+06    -87.7369E+06    -59.3460E+06     997.722E+03         65.5836
             579     774.699E-06     61.1749E-03         4.58615         3.41589        -10.2647         3.60389        -9.28243         3.41589         1.45785     511.266E-03    -254.908E-03    -256.358E-03    -255.814E-03     511.264E-03    -255.449E-03    -2.40641E-03    -69.0208E+06    -74.9935E+06    -96.9979E+06    -73.0514E+06    -96.7806E+06    -71.1801E+06     820.092E+03         65.2936
             580     13.1656E-03     61.5357E-03         2.48033         1.62134        -6.34116         1.60084        -6.32066         2.48033     230.105E-03     533.641E-03    -256.400E-03    -277.242E-03    -260.483E-03     516.883E-03    -256.400E-03     215.311E-03     40.7045E+06    -1.97781E+06    -3.79860E+06    -2.35751E+06    -3.41890E+06     40.7045E+06     387.870E+03         82.6950
             581     12.3931E-03     61.0555E-03         2.56350         1.71015        -6.47496         1.67014        -6.43494         2.56350         1.13592     534.513E-03    -256.418E-03    -278.095E-03    -258.878E-03     515.296E-03    -256.418E-03     240.274E-03     34.1735E+06    -4.83549E+06    -7.58477E+06    -5.23643E+06    -7.18383E+06     34.1735E+06     48.1091E+03         81.2590
             582     11.6174E-03     60.8082E-03         2.64600         1.85872        -6.67997         1.82256        -6.64380         2.64600         1.08959     522.415E-03    -256.390E-03    -266.025E-03    -253.351E-03     509.741E-03    -256.390E-03     197.340E-03     29.7903E+06    -7.25561E+06    -11.0573E+06    -7.42143E+06    -10.8915E+06     29.7903E+06    -118.921E+03         79.7183
             583     10.8433E-03     60.4939E-03         2.72042         2.05119        -6.92664         2.03811        -6.91356         2.72042     318.375E-03     520.568E-03    -256.336E-03    -264.232E-03    -251.593E-03     507.929E-03    -256.336E-03     196.620E-03     28.0709E+06    -9.60819E+06    -12.9352E+06    -9.74869E+06    -12.7947E+06     28.0709E+06     440.332E+03         78.1731
             584     10.0716E-03     60.2585E-03         2.78551         2.26427        -7.18532         2.25395        -7.17500         2.78551    -555.571E-03     515.377E-03    -256.297E-03    -259.081E-03    -249.188E-03     505.485E-03    -256.297E-03     173.914E-03     27.2742E+06    -12.4510E+06    -15.1498E+06    -12.6694E+06    -14.9315E+06     27.2742E+06     689.871E+03         76.6973
             585     9.29479E-03     60.0364E-03         2.84077         2.45283        -7.41561         2.43523        -7.39800         2.84077    -828.843E-03     513.122E-03    -255.823E-03    -257.299E-03    -248.150E-03     504.439E-03    -256.289E-03     162.321E-03     27.2885E+06    -15.2115E+06    -17.2713E+06    -15.8739E+06    -16.6089E+06     27.2885E+06     842.276E+03         75.3198
             586     8.51917E-03     59.8483E-03         2.88904         2.57296        -7.56972         2.55714        -7.55390         2.88904    -791.353E-03     510.932E-03    -254.644E-03    -256.287E-03    -248.072E-03     504.359E-03    -256.287E-03     140.773E-03     26.6138E+06    -17.9511E+06    -20.0179E+06    -19.1299E+06    -18.8392E+06     26.6138E+06     979.907E+03         74.0317
             587     7.74533E-03     59.6944E-03         2.93376         2.62958        -7.65913         2.62069        -7.65024         2.93376    -554.815E-03     509.698E-03    -253.449E-03    -256.249E-03    -248.839E-03     505.089E-03    -256.249E-03     117.716E-03     23.0069E+06    -21.9419E+06    -23.8939E+06    -23.0707E+06    -22.7652E+06     23.0069E+06     945.203E+03         72.8076
             588     6.97258E-03     59.5758E-03         2.97782         2.66866        -7.72893         2.66209        -7.72236         2.97782     148.130E-03     508.292E-03    -252.079E-03    -256.213E-03    -249.147E-03     505.360E-03    -256.213E-03     93.3487E-03     16.4133E+06    -27.1725E+06    -29.4484E+06    -28.0395E+06    -28.5814E+06     16.4133E+06     886.059E+03         71.6267
             589     6.19742E-03     59.5028E-03         3.02413         2.69584        -7.79134         2.67368        -7.76918         3.02413     919.393E-03     507.454E-03    -251.187E-03    -256.267E-03    -249.505E-03     505.772E-03    -256.267E-03     70.7027E-03     9.23580E+06    -32.8226E+06    -35.2873E+06    -33.2989E+06    -34.8110E+06     9.23580E+06     663.532E+03         70.4844
             590     5.41941E-03     59.4590E-03         3.07747         2.70640        -7.85160         2.68237        -7.82757         3.07747     978.361E-03     508.356E-03    -251.983E-03    -256.373E-03    -251.067E-03     507.440E-03    -256.373E-03     51.8654E-03     1.47641E+06    -38.9993E+06    -41.6739E+06    -39.1499E+06    -41.5233E+06     1.47641E+06     532.205E+03         69.3947
             591     4.64423E-03     59.4397E-03         3.14280         2.71652        -7.93073         2.70921        -7.92341         3.14280     367.442E-03     510.024E-03    -253.620E-03    -256.404E-03    -253.210E-03     509.615E-03    -256.404E-03     34.2612E-03    -8.09792E+06    -45.6104E+06    -49.6913E+06    -45.8243E+06    -49.4773E+06    -8.09792E+06     794.295E+03         68.3822
             592     3.87200E-03     59.4376E-03         3.22343         2.79331        -8.09040         2.78226        -8.07935         3.22343    -488.547E-03     511.256E-03    -254.951E-03    -256.305E-03    -254.817E-03     511.122E-03    -256.305E-03     19.0134E-03    -18.9648E+06    -51.9963E+06    -58.0950E+06    -52.1528E+06    -57.9385E+06    -18.9648E+06     690.438E+03         67.4746
             593     3.09802E-03     59.4479E-03         3.31804         3.03062        -8.42210         2.92485        -8.31633         3.31804        -1.95090     511.738E-03    -255.499E-03    -256.239E-03    -255.612E-03     511.713E-03    -256.101E-03     7.56096E-03    -32.5848E+06    -58.4760E+06    -68.0502E+06    -58.4930E+06    -68.0332E+06    -32.5848E+06     373.683E+03         66.6967
             594     2.32481E-03     59.4687E-03         3.41934         3.23914        -8.71882         3.12501        -8.60469         3.41934        -2.15247     511.500E-03    -255.349E-03    -256.151E-03    -255.608E-03     511.499E-03    -255.890E-03     1.43558E-03     -48.273E+06    -64.8125E+06    -79.2862E+06    -64.8428E+06    -79.2558E+06     -48.273E+06     4.80986E+03         66.0693
             595     1.54881E-03     59.4909E-03         3.77310         3.41960        -9.22648         3.34485        -8.89392         3.51529        -3.54270     511.132E-03    -255.148E-03    -255.984E-03    -255.269E-03     511.132E-03    -255.863E-03    -677.978E-06    -60.8101E+06    -69.3976E+06    -88.2520E+06    -69.6395E+06    -88.0100E+06    -60.8101E+06    -171.616E+03         65.6071
             596     774.150E-06     59.5086E-03         4.37460         3.78952        -10.1789         3.29015        -9.13724         3.83228         1.61239     511.741E-03    -254.912E-03    -256.829E-03    -256.442E-03     511.739E-03    -255.297E-03    -1.04708E-03    -68.2774E+06    -72.7388E+06    -94.8780E+06    -72.5700E+06    -94.5802E+06    -68.7438E+06     554.939E+03         65.3176
             597     13.1708E-03     59.8662E-03         2.58761         1.51582        -6.11032         1.49197        -6.08646         2.58761     312.506E-03     534.214E-03    -256.336E-03    -277.878E-03    -261.338E-03     517.673E-03    -256.336E-03     214.167E-03     39.8505E+06    -2.62365E+06    -4.59329E+06    -2.98006E+06    -4.23689E+06     39.8505E+06     31.1640E+03         82.6811
             598     12.3921E-03     59.3910E-03         2.66715         1.68890        -6.34189         1.64437        -6.29736         2.66715         1.18982     534.031E-03    -256.324E-03    -277.707E-03    -258.586E-03     514.910E-03    -256.324E-03     240.022E-03     34.5467E+06    -4.23705E+06    -7.03527E+06    -4.61873E+06    -6.65359E+06     34.5467E+06     321.166E+03         81.2518
             599     11.6184E-03     59.1324E-03         2.74129         1.87451        -6.57568         1.83702        -6.53819         2.74129         1.10512     521.940E-03    -256.314E-03    -265.626E-03    -252.869E-03     509.183E-03    -256.314E-03     197.987E-03     29.3871E+06    -6.66254E+06    -10.7539E+06    -6.79028E+06    -10.6262E+06     29.3871E+06     471.246E+03         79.7170
             600     10.8461E-03     58.8249E-03         2.80758         2.02819        -6.77314         2.01437        -6.75933         2.80758     352.996E-03     520.041E-03    -256.297E-03    -263.744E-03    -251.003E-03     507.300E-03    -256.297E-03     197.418E-03     26.3977E+06    -9.43995E+06    -13.4274E+06    -9.54619E+06    -13.3212E+06     26.3977E+06     361.259E+03         78.1760
             601     10.0674E-03     58.5896E-03         2.86824         2.17987        -6.96412         2.17178        -6.95603         2.86824    -463.417E-03     515.083E-03    -256.304E-03    -258.779E-03    -248.768E-03     505.072E-03    -256.304E-03     174.866E-03     25.9091E+06    -12.0865E+06    -15.5288E+06    -12.2878E+06    -15.3275E+06     25.9091E+06     671.498E+03         76.7023
             602     9.29389E-03     58.3662E-03         2.92440         2.32297        -7.14391         2.31029        -7.13123         2.92440    -656.988E-03     513.539E-03    -256.210E-03    -257.329E-03    -248.625E-03     504.926E-03    -256.301E-03     161.729E-03     26.9663E+06    -14.8885E+06    -16.8752E+06    -15.2170E+06    -16.5468E+06     26.9663E+06     652.182E+03         75.3259
             603     8.52117E-03     58.1771E-03         2.97847         2.42914        -7.28736         2.42110        -7.27932         2.97847    -510.563E-03     511.378E-03    -255.051E-03    -256.327E-03    -248.587E-03     504.838E-03    -256.251E-03     140.586E-03     26.1905E+06    -18.3989E+06    -19.4079E+06    -18.8573E+06    -18.9496E+06     26.1905E+06     474.060E+03         74.0384
             604     7.74759E-03     58.0232E-03         3.03218         2.52952        -7.42349         2.52646        -7.42043         3.03218    -295.622E-03     508.889E-03    -252.663E-03    -256.226E-03    -247.984E-03     504.210E-03    -256.226E-03     118.513E-03     21.7428E+06    -22.5174E+06    -24.0710E+06    -23.2723E+06    -23.3161E+06     21.7428E+06     743.344E+03         72.8145
             605     6.97055E-03     57.9094E-03         3.08192         2.70342        -7.62961         2.69859        -7.62478         3.08192     192.936E-03     507.300E-03    -250.993E-03    -256.308E-03    -247.994E-03     504.302E-03    -256.308E-03     94.2534E-03     15.9551E+06    -26.9284E+06    -29.4657E+06    -27.9172E+06    -28.4770E+06     15.9551E+06     1.20734E+06         71.6342
             606     6.19323E-03     57.8365E-03         3.11830         2.94182        -7.88639         2.92152        -7.86610         3.11830     876.784E-03     507.995E-03    -251.576E-03    -256.419E-03    -249.886E-03     506.305E-03    -256.419E-03     70.7907E-03     9.60816E+06    -31.7070E+06    -34.8673E+06    -32.5969E+06    -33.9774E+06     9.60816E+06     1.36818E+06         70.4949
             607     5.42003E-03     57.7895E-03         3.20696         3.05424        -8.07360         3.10648        -8.05328         3.13439     812.648E-03     509.744E-03    -253.331E-03    -256.413E-03    -252.473E-03     508.885E-03    -256.413E-03     50.0288E-03     1.88846E+06    -37.8685E+06    -41.2803E+06    -38.4460E+06    -40.7028E+06     1.88846E+06     1.13504E+06         69.4099
             608     4.64704E-03     57.7671E-03         3.33712         3.03658        -8.17677         3.24178        -8.17235         3.12750     243.337E-03     510.708E-03    -254.442E-03    -256.266E-03    -254.086E-03     510.352E-03    -256.266E-03     32.1066E-03    -7.62347E+06    -45.1545E+06    -49.1710E+06    -45.4173E+06    -48.9082E+06    -7.62347E+06     806.266E+03         68.4018
             609     3.87319E-03     57.7644E-03         3.37345         3.03221        -8.20215         3.29047        -8.18618         3.09921    -554.630E-03     510.712E-03    -254.620E-03    -256.091E-03    -254.492E-03     510.583E-03    -256.091E-03     19.0129E-03    -19.4536E+06    -51.7657E+06    -57.9285E+06    -51.8524E+06    -57.8418E+06    -19.4536E+06     558.937E+03         67.4967
             610     3.09995E-03     57.7793E-03         3.35962         3.02173        -8.16360         3.22665        -8.07006         3.06116        -1.89734     510.583E-03    -254.564E-03    -256.019E-03    -254.527E-03     510.546E-03    -256.019E-03     9.68242E-03    -32.6742E+06    -57.9161E+06    -67.3117E+06    -57.9598E+06    -67.2680E+06    -32.6742E+06     591.488E+03         66.7204
             611     2.32368E-03     57.8012E-03         3.29960         2.98317        -8.05001         3.14352        -7.93600         3.02522        -2.17686     511.073E-03    -255.014E-03    -256.060E-03    -255.013E-03     511.066E-03    -256.053E-03     3.17901E-03    -46.9733E+06    -63.6731E+06    -77.2083E+06    -63.7093E+06    -77.1721E+06    -46.9733E+06     504.874E+03         66.0945
             612     1.54898E-03     57.8246E-03         3.37459         2.97852        -8.09186         3.04838        -7.78726         3.00013        -3.30507     511.844E-03    -255.572E-03    -256.272E-03    -255.788E-03     511.843E-03    -256.055E-03    -521.684E-06    -61.8409E+06    -69.0936E+06    -87.5131E+06    -69.2572E+06    -87.3495E+06    -61.8409E+06    -106.209E+03         65.6342
             613     774.186E-06     57.8368E-03         3.83061         3.02499        -8.56934         2.41963        -7.70262         3.56924         1.13602     511.973E-03    -255.089E-03    -256.884E-03    -256.083E-03     511.971E-03    -255.887E-03    -1.13483E-03    -70.8741E+06    -73.2147E+06    -95.6823E+06    -72.9832E+06    -95.4473E+06    -71.3405E+06     -980.57E+03         65.3464
             614     13.1678E-03     58.1906E-03         2.62501         1.48058        -5.91861         1.45598        -5.89401         2.62501     401.187E-03     534.518E-03    -256.320E-03    -278.199E-03    -261.516E-03     517.836E-03    -256.320E-03     215.275E-03     39.4432E+06    -2.23547E+06    -4.41507E+06    -2.55390E+06    -4.09663E+06     39.4432E+06    -169.095E+03         82.6660
             615     12.3972E-03     57.7276E-03         2.68843         1.72132        -6.19540         1.66886        -6.14294         2.68843         1.27986     534.746E-03    -256.298E-03    -278.448E-03    -258.963E-03     515.261E-03    -256.298E-03     242.934E-03     33.8064E+06    -3.76650E+06    -7.31677E+06    -4.29355E+06    -6.78972E+06     33.8064E+06     517.041E+03         81.2427
             616     11.6197E-03     57.4619E-03         2.74339         1.91165        -6.40624         1.86221        -6.35680         2.74339         1.26218     521.903E-03    -256.304E-03    -265.598E-03    -252.543E-03     508.847E-03    -256.304E-03     200.394E-03     27.9169E+06    -6.53119E+06    -11.6560E+06    -6.82718E+06    -11.3600E+06     27.9169E+06     1.05559E+06         79.7147
             617     10.8416E-03     57.1563E-03         2.79072         2.02867        -6.54044         2.00762        -6.51940         2.79072     661.142E-03     520.012E-03    -256.314E-03    -263.699E-03    -250.970E-03     507.283E-03    -256.314E-03     197.220E-03     25.5770E+06    -9.26414E+06    -13.6864E+06    -9.40192E+06    -13.5487E+06     25.5770E+06     612.128E+03         78.1791
             618     10.0701E-03     56.9194E-03         2.83539         2.07976        -6.61249         2.07625        -6.60898         2.83539    -66.0702E-03     515.719E-03    -256.286E-03    -259.434E-03    -249.578E-03     505.864E-03    -256.286E-03     173.661E-03     25.1654E+06    -11.9774E+06    -15.5231E+06    -12.1222E+06    -15.3783E+06     25.1654E+06     495.786E+03         76.7089
             619     9.29551E-03     56.6952E-03         2.88367         2.10962        -6.67188         2.10688        -6.66914         2.88367    -270.314E-03     513.283E-03    -255.830E-03    -257.454E-03    -248.503E-03     504.748E-03    -256.245E-03     161.043E-03     25.9842E+06    -14.7908E+06    -16.7479E+06    -14.9947E+06    -16.5440E+06     25.9842E+06     371.759E+03         75.3332
             620     8.52072E-03     56.5050E-03         2.94077         2.13223        -6.72895         2.13087        -6.72759         2.94077    -142.193E-03     510.228E-03    -253.901E-03    -256.327E-03    -247.408E-03     503.658E-03    -256.250E-03     140.669E-03     25.0388E+06    -18.1207E+06    -19.3620E+06    -18.6616E+06    -18.8211E+06     25.0388E+06     591.857E+03         74.0448
             621     7.74440E-03     56.3568E-03         3.00924         2.20030        -6.83834         2.19889        -6.83692         3.00924    -149.572E-03     508.155E-03    -251.829E-03    -256.326E-03    -247.142E-03     503.468E-03    -256.326E-03     118.490E-03     20.3713E+06    -22.1616E+06    -23.8649E+06    -22.8184E+06    -23.2081E+06     20.3713E+06     794.994E+03         72.8209
             622     6.96867E-03     56.2431E-03         3.08221         2.40641        -7.08767         2.40427        -7.08552         3.08221    -46.3887E-03     508.288E-03    -251.881E-03    -256.407E-03    -248.901E-03     505.308E-03    -256.407E-03     93.9707E-03     14.4793E+06    -27.1828E+06    -29.2131E+06    -27.6458E+06    -28.7501E+06     14.4793E+06     831.228E+03         71.6433
             623     6.19551E-03     56.1656E-03         3.14396         2.73385        -7.45083         2.72395        -7.44093         3.14396     498.016E-03     509.242E-03    -252.851E-03    -256.390E-03    -251.207E-03     507.598E-03    -256.390E-03     69.9367E-03     8.28398E+06    -32.7707E+06    -35.4130E+06    -33.3496E+06    -34.8340E+06     8.28398E+06     1.06446E+06         70.5083
             624     5.42203E-03     56.1155E-03         3.24963         3.01817        -7.81925         3.07944        -7.80796         3.17706     274.516E-03     509.627E-03    -253.327E-03    -256.300E-03    -252.453E-03     508.753E-03    -256.300E-03     50.8339E-03     2.16335E+06    -37.5170E+06    -41.4039E+06    -38.4224E+06    -40.4986E+06     2.16335E+06     1.62784E+06         69.4268
             625     4.64868E-03     56.0964E-03         3.39639         3.13519        -8.06425         3.35708        -8.05863         3.16887    -359.845E-03     509.693E-03    -253.462E-03    -256.231E-03    -253.048E-03     509.279E-03    -256.231E-03     34.6305E-03    -6.28266E+06    -43.1514E+06    -48.0922E+06    -43.9241E+06    -47.3195E+06    -6.28266E+06     1.72553E+06         68.4209
             626     3.87332E-03     56.0974E-03         3.52941         3.11628        -8.16255         3.48293        -8.11606         3.11628        -1.18905     509.823E-03    -253.567E-03    -256.256E-03    -253.409E-03     509.666E-03    -256.256E-03     20.9792E-03    -18.6864E+06    -49.9814E+06    -56.9093E+06    -50.4602E+06    -56.4305E+06    -18.6864E+06     1.48875E+06         67.5182
             627     3.09557E-03     56.1123E-03         3.55416         3.02756        -8.08040         3.43116        -7.95740         3.02756        -2.32575     510.697E-03    -254.321E-03    -256.376E-03    -254.278E-03     510.654E-03    -256.376E-03     10.4674E-03    -32.8718E+06    -56.7700E+06    -66.7886E+06    -57.0165E+06    -66.5420E+06    -32.8718E+06     872.286E+03         66.7452
             628     2.32154E-03     56.1319E-03         3.42313         2.91919        -7.81798         3.25023        -7.64508         2.91919        -2.73503     511.969E-03    -255.484E-03    -256.485E-03    -255.483E-03     511.962E-03    -256.478E-03     3.32607E-03    -46.8075E+06    -63.1765E+06    -76.6491E+06    -63.2230E+06    -76.6026E+06    -46.8075E+06     401.063E+03         66.1234
             629     1.54844E-03     56.1521E-03         3.25120         2.82473        -7.52702         2.96897        -7.24478         2.82473        -3.33340     512.652E-03    -255.939E-03    -256.714E-03    -256.154E-03     512.652E-03    -256.497E-03     364.154E-06    -59.0613E+06    -68.2540E+06    -85.8553E+06    -68.3243E+06    -85.7850E+06    -59.0613E+06     870.733E+03         65.6669
             630     775.626E-06     56.1692E-03         3.74194         2.28572        -7.45503         2.02056        -6.99891         3.55098     100.514E-03     512.855E-03    -255.606E-03    -257.249E-03    -256.301E-03     512.852E-03    -256.552E-03    -428.255E-06    -68.6685E+06    -73.1542E+06    -95.0190E+06    -72.4389E+06    -94.6952E+06    -69.7075E+06     1.13479E+06         65.3817
             631     13.1692E-03     56.5265E-03         2.57617         1.44271        -5.66035         1.41728        -5.63492         2.57617     427.897E-03     533.758E-03    -256.381E-03    -277.377E-03    -260.478E-03     516.859E-03    -256.381E-03     216.420E-03     38.3510E+06    -1.66153E+06    -4.41770E+06    -1.89613E+06    -4.18310E+06     38.3510E+06     307.167E+03         82.6509
             632     12.3892E-03     56.0496E-03         2.61764         1.72962        -5.94524         1.66816        -5.88377         2.61764         1.35920     535.776E-03    -256.381E-03    -279.394E-03    -259.795E-03     516.176E-03    -256.381E-03     243.496E-03     31.7051E+06    -3.97501E+06    -8.13504E+06    -4.39381E+06    -7.71623E+06     31.7051E+06     637.965E+03         81.2335
             633     11.6173E-03     55.7965E-03         2.64875         1.93479        -6.13667         1.86942        -6.07131         2.64875         1.43807     522.867E-03    -256.324E-03    -266.543E-03    -253.712E-03     510.036E-03    -256.324E-03     198.914E-03     26.3358E+06    -6.81039E+06    -12.0235E+06    -7.05881E+06    -11.7751E+06     26.3358E+06     656.874E+03         79.7138
             634     10.8449E-03     55.4843E-03         2.67534         1.99630        -6.18929         1.96548        -6.15846         2.67534     901.352E-03     520.299E-03    -256.267E-03    -264.032E-03    -251.436E-03     507.703E-03    -256.267E-03     196.371E-03     24.4626E+06    -9.24823E+06    -13.8484E+06    -9.39715E+06    -13.6995E+06     24.4626E+06     641.881E+03         78.1838
             635     10.0699E-03     55.2464E-03         2.70496         1.97090        -6.17093         1.96723        -6.16726         2.70496     177.865E-03     515.433E-03    -256.229E-03    -259.204E-03    -249.298E-03     505.527E-03    -256.229E-03     174.050E-03     24.7865E+06    -11.4801E+06    -15.1015E+06    -11.6128E+06    -14.9688E+06     24.7865E+06     453.815E+03         76.7152
             636     9.29625E-03     55.0267E-03         2.74680         1.90928        -6.13223         1.90878        -6.13173         2.74680    -105.045E-03     512.290E-03    -255.083E-03    -257.207E-03    -247.412E-03     503.656E-03    -256.244E-03     161.756E-03     24.8402E+06    -14.6979E+06    -16.7584E+06    -14.8792E+06    -16.5771E+06     24.8402E+06     389.145E+03         75.3391
             637     8.52008E-03     54.8378E-03         2.80624         1.86171        -6.11960         1.86135        -6.11924         2.80624    -61.9215E-03     509.464E-03    -253.120E-03    -256.344E-03    -246.472E-03     502.816E-03    -256.344E-03     141.335E-03     22.9522E+06    -18.0164E+06    -20.1365E+06    -18.7265E+06    -19.4265E+06     22.9522E+06     953.010E+03         74.0506
             638     7.74404E-03     54.6908E-03         2.88227         1.92365        -6.22343         1.92003        -6.21981         2.88227    -247.642E-03     509.231E-03    -252.796E-03    -256.434E-03    -248.082E-03     504.517E-03    -256.434E-03     118.941E-03     19.5416E+06    -21.6612E+06    -24.2754E+06    -22.7266E+06    -23.2101E+06     19.5416E+06     1.24895E+06         72.8288
             639     6.96985E-03     54.5706E-03         2.96697         2.09770        -6.44418         2.09412        -6.44059         2.96697    -279.834E-03     509.533E-03    -253.123E-03    -256.410E-03    -250.128E-03     506.538E-03    -256.410E-03     94.4419E-03     14.3944E+06    -26.6067E+06    -29.5939E+06    -27.6704E+06    -28.5302E+06     14.3944E+06     1.35324E+06         71.6550
             640     6.19658E-03     54.4926E-03         3.05271         2.32882        -6.72909         2.32322        -6.72348         3.05271     273.731E-03     508.934E-03    -252.596E-03    -256.339E-03    -250.914E-03     507.253E-03    -256.339E-03     70.7429E-03     7.68645E+06    -32.0203E+06    -35.3665E+06    -32.8424E+06    -34.5444E+06     7.68645E+06     1.35507E+06         70.5229
             641     5.42103E-03     54.4493E-03         3.13250         2.59870        -7.05684         2.58931        -7.04745         3.13250     41.3656E-03     508.493E-03    -252.138E-03    -256.355E-03    -251.239E-03     507.595E-03    -256.355E-03     51.4645E-03     863.290E+03    -37.1117E+06    -41.1681E+06    -37.7779E+06    -40.5019E+06     863.290E+03     1.45381E+06         69.4431
             642     4.64377E-03     54.4264E-03         3.21423         2.86470        -7.38647         2.87487        -7.37875         3.19634    -386.855E-03     508.995E-03    -252.512E-03    -256.483E-03    -252.101E-03     508.584E-03    -256.483E-03     34.2669E-03    -7.05672E+06    -42.5701E+06    -47.6860E+06    -43.1675E+06    -47.0887E+06    -7.05672E+06     1.42036E+06         68.4393
             643     3.86920E-03     54.4298E-03         3.37256         3.03144        -7.68977         3.12252        -7.64197         3.23367        -1.08067     510.283E-03    -253.634E-03    -256.649E-03    -253.485E-03     510.134E-03    -256.649E-03     20.4663E-03    -17.9354E+06    -49.0247E+06    -55.6776E+06    -49.4458E+06    -55.2565E+06    -17.9354E+06     1.33796E+06         67.5400
             644     3.09710E-03     54.4415E-03         3.47097         3.10983        -7.83979         3.24863        -7.75044         3.24282        -1.92817     511.625E-03    -254.833E-03    -256.792E-03    -254.786E-03     511.579E-03    -256.792E-03     11.0668E-03    -31.1420E+06    -55.0920E+06    -65.2005E+06    -55.6294E+06    -64.6631E+06    -31.1420E+06     1.60579E+06         66.7712
             645     2.32284E-03     54.4610E-03         3.47437         3.18201        -7.88743         3.27419        -7.73721         3.23197        -2.47678     512.788E-03    -255.888E-03    -256.900E-03    -255.903E-03     512.777E-03    -256.874E-03     4.13226E-03    -45.7290E+06    -61.4821E+06    -75.5594E+06    -61.8392E+06    -75.2023E+06    -45.7290E+06     1.39559E+06         66.1535
             646     1.54699E-03     54.4827E-03         3.42842         3.20892        -7.83747         3.23278        -7.64879         3.21588        -2.77903     513.423E-03    -256.339E-03    -257.084E-03    -256.522E-03     513.420E-03    -256.898E-03    -516.349E-06    -58.5112E+06    -66.9896E+06    -85.2428E+06    -66.9608E+06    -85.1887E+06    -58.5942E+06     913.340E+03         65.7003
             647     770.944E-06     54.4967E-03         4.10712         2.43670        -7.73541         2.38248        -7.60390         4.02983    -607.751E-03     513.710E-03    -256.336E-03    -257.374E-03    -257.068E-03     513.705E-03    -256.637E-03    -1.52796E-03    -65.9284E+06    -69.6437E+06    -92.0581E+06    -68.8195E+06    -91.7603E+06    -67.0504E+06     777.079E+03         65.4173
             648     13.1643E-03     54.8568E-03         2.43716         1.32057        -5.22284         1.29309        -5.19536         2.43716     429.792E-03     534.738E-03    -256.411E-03    -278.327E-03    -261.638E-03     518.049E-03    -256.411E-03     215.656E-03     39.0115E+06    -841.780E+03    -4.35007E+06    -1.34506E+06    -3.84678E+06     39.0115E+06     1.00936E+06         82.6383
             649     12.3939E-03     54.3804E-03         2.46042         1.56234        -5.43441         1.50075        -5.37281         2.46042         1.30307     535.860E-03    -256.337E-03    -279.523E-03    -260.431E-03     516.768E-03    -256.337E-03     240.043E-03     31.1156E+06    -3.89721E+06    -8.33223E+06    -4.39027E+06    -7.83917E+06     31.1156E+06     730.817E+03         81.2269
             650     11.6198E-03     54.1201E-03         2.47973         1.71746        -5.56101         1.65399        -5.49753         2.47973         1.34903     522.386E-03    -256.234E-03    -266.152E-03    -253.662E-03     509.896E-03    -256.234E-03     196.025E-03     25.4128E+06    -7.09658E+06    -12.1305E+06    -7.15813E+06    -12.0690E+06     25.4128E+06     118.536E+03         79.7126
             651     10.8455E-03     53.8165E-03         2.50308         1.75428        -5.58879         1.72352        -5.55803         2.50308     854.867E-03     519.481E-03    -256.189E-03    -263.292E-03    -250.697E-03     506.886E-03    -256.189E-03     196.259E-03     23.5329E+06    -9.22029E+06    -13.9386E+06    -9.26715E+06    -13.8917E+06     23.5329E+06     282.215E+03         78.1860
             652     10.0701E-03     53.5770E-03         2.53408         1.74009        -5.58085         1.73389        -5.57466         2.53408     75.3044E-03     513.776E-03    -255.810E-03    -257.966E-03    -247.487E-03     503.737E-03    -256.250E-03     174.824E-03     23.1626E+06    -11.7602E+06    -15.8047E+06    -11.8756E+06    -15.6894E+06     23.1626E+06     522.045E+03         76.7188
             653     9.29401E-03     53.3569E-03         2.57493         1.78501        -5.64778         1.78174        -5.64452         2.57493    -228.521E-03     511.629E-03    -254.875E-03    -256.754E-03    -246.486E-03     502.875E-03    -256.389E-03     162.675E-03     23.2086E+06    -14.8352E+06    -17.6745E+06    -15.1311E+06    -17.3785E+06     23.2086E+06     822.270E+03         75.3441
             654     8.51716E-03     53.1746E-03         2.62064         1.87512        -5.75893         1.87441        -5.75822         2.62064    -81.1609E-03     510.757E-03    -254.259E-03    -256.498E-03    -247.517E-03     504.015E-03    -256.498E-03     142.564E-03     21.3220E+06    -18.3784E+06    -20.9792E+06    -19.0375E+06    -20.3201E+06     21.3220E+06     1.10553E+06         74.0587
             655     7.74260E-03     53.0156E-03         2.66828         1.97954        -5.87713         1.97627        -5.87386         2.66828    -207.626E-03     510.430E-03    -253.927E-03    -256.502E-03    -249.147E-03     505.650E-03    -256.502E-03     119.931E-03     18.1023E+06    -22.0744E+06    -25.2336E+06    -23.2878E+06    -24.0203E+06     18.1023E+06     1.51832E+06         72.8406
             656     6.97052E-03     52.8994E-03         2.71873         2.08508        -5.99625         2.08139        -5.99256         2.71873    -152.884E-03     509.422E-03    -252.974E-03    -256.449E-03    -249.959E-03     506.408E-03    -256.449E-03     94.7494E-03     14.4520E+06    -25.7370E+06    -29.4537E+06    -27.2480E+06    -27.9426E+06     14.4520E+06     1.81165E+06         71.6692
             657     6.19442E-03     52.8245E-03         2.77551         2.19784        -6.13299         2.17779        -6.11294         2.77551     573.454E-03     508.612E-03    -252.188E-03    -256.424E-03    -250.508E-03     506.932E-03    -256.424E-03     70.5911E-03     8.46995E+06    -30.2604E+06    -34.2877E+06    -31.4339E+06    -33.1142E+06     8.46995E+06     1.77754E+06         70.5387
             658     5.42015E-03     52.7789E-03         2.84271         2.29088        -6.27207         2.26927        -6.25047         2.84271     479.536E-03     508.695E-03    -252.224E-03    -256.470E-03    -251.358E-03     507.828E-03    -256.470E-03     50.4421E-03     1.14668E+06    -36.2128E+06    -40.2789E+06    -36.9028E+06    -39.5888E+06     1.14668E+06     1.47774E+06         69.4610
             659     4.64659E-03     52.7606E-03         2.92273         2.39244        -6.44124         2.38512        -6.43392         2.92273     231.754E-03     509.213E-03    -252.616E-03    -256.596E-03    -252.236E-03     508.833E-03    -256.596E-03     33.0117E-03    -7.00140E+06    -41.8709E+06    -46.5639E+06    -42.2586E+06    -46.1762E+06    -7.00140E+06     1.10799E+06         68.4595
             660     3.87044E-03     52.7583E-03         3.01538         2.55247        -6.67580         2.52965        -6.65297         3.01538    -295.134E-03     510.462E-03    -253.695E-03    -256.767E-03    -253.559E-03     510.326E-03    -256.767E-03     19.4898E-03    -18.5776E+06    -48.2722E+06    -54.8118E+06    -48.4154E+06    -54.6687E+06    -18.5776E+06     812.594E+03         67.5623
             661     3.09344E-03     52.7721E-03         3.11800         2.73524        -6.92922         2.70681        -6.90078         3.11800    -999.266E-03     512.100E-03    -255.213E-03    -256.887E-03    -255.172E-03     512.059E-03    -256.887E-03     9.61652E-03    -31.8046E+06    -54.8938E+06    -64.9187E+06    -55.2559E+06    -64.5565E+06    -31.8046E+06     1.17488E+06         66.7953
             662     2.31871E-03     52.7886E-03         3.23199         3.02876        -7.30094         2.94499        -7.20433         3.21916        -1.78155     513.218E-03    -256.313E-03    -256.905E-03    -256.328E-03     513.207E-03    -256.879E-03     2.18680E-03    -44.5205E+06    -59.9703E+06    -74.1232E+06    -60.3289E+06    -73.7647E+06    -44.5205E+06     1.31378E+06         66.1788
             663     1.54809E-03     52.8079E-03         3.31558         3.26165        -7.57988         3.16737        -7.47277         3.30275        -2.01678     513.629E-03    -256.635E-03    -256.994E-03    -256.932E-03     513.624E-03    -256.692E-03    -1.98758E-03    -56.7701E+06    -64.7853E+06    -83.0218E+06    -64.7547E+06    -82.9694E+06    -56.8531E+06     640.806E+03         65.7262
             664     777.372E-06     52.8265E-03         4.10190         2.59962        -7.67714         2.57834        -7.65586         4.10190    -681.383E-03     513.012E-03    -256.191E-03    -256.822E-03    -256.817E-03     513.007E-03    -256.191E-03    -2.14481E-03    -64.7654E+06    -67.2276E+06    -89.9048E+06    -67.3497E+06    -89.6997E+06    -64.8483E+06     178.374E+03         65.4431
             665     13.1706E-03     53.1886E-03         2.21998         1.05391        -4.56264         1.02721        -4.53595         2.21998     365.859E-03     536.133E-03    -256.327E-03    -279.805E-03    -263.292E-03     519.619E-03    -256.327E-03     213.778E-03     37.6510E+06    -1.95395E+06    -5.52008E+06    -2.50024E+06    -4.97379E+06     37.6510E+06     222.009E+03         82.6228
             666     12.3954E-03     52.7048E-03         2.23785         1.15756        -4.62542         1.09967        -4.56753         2.23785         1.14473     535.239E-03    -256.226E-03    -279.013E-03    -259.715E-03     515.940E-03    -256.226E-03     241.672E-03     30.6747E+06    -4.14529E+06    -8.42792E+06    -4.54103E+06    -8.03219E+06     30.6747E+06     929.369E+03         81.2154
             667     11.6214E-03     52.4545E-03         2.26191         1.23140        -4.67305         1.17654        -4.61819         2.26191         1.12198     521.531E-03    -256.210E-03    -265.321E-03    -252.363E-03     508.573E-03    -256.210E-03     199.400E-03     26.1756E+06    -6.65672E+06    -11.9777E+06    -6.73970E+06    -11.8947E+06     26.1756E+06     498.787E+03         79.7057
             668     10.8455E-03     52.1450E-03         2.29531         1.31748        -4.75317         1.29409        -4.72979         2.29531     653.314E-03     518.980E-03    -256.259E-03    -262.722E-03    -249.830E-03     506.089E-03    -256.259E-03     198.246E-03     23.6400E+06    -9.20114E+06    -14.1846E+06    -9.27432E+06    -14.1114E+06     23.6400E+06     448.808E+03         78.1851
             669     10.0694E-03     51.9135E-03         2.32881         1.50077        -4.94688         1.49394        -4.94005         2.32881    -101.200E-03     513.439E-03    -255.945E-03    -257.494E-03    -246.925E-03     503.309E-03    -256.385E-03     175.506E-03     22.1994E+06    -11.7538E+06    -16.3939E+06    -11.9947E+06    -16.1530E+06     22.1994E+06     925.292E+03         76.7242
             670     9.29012E-03     51.6921E-03         2.35329         1.77123        -5.22531         1.76621        -5.22029         2.35329    -297.501E-03     512.511E-03    -255.759E-03    -256.752E-03    -247.221E-03     503.757E-03    -256.536E-03     162.770E-03     23.1209E+06    -14.2855E+06    -17.9896E+06    -14.9365E+06    -17.3386E+06     23.1209E+06     1.31003E+06         75.3550
             671     8.51700E-03     51.4991E-03         2.36219         1.99879        -5.44125         1.99716        -5.43961         2.36219     82.5430E-03     512.003E-03    -255.436E-03    -256.567E-03    -248.803E-03     505.370E-03    -256.567E-03     141.650E-03     21.5472E+06    -17.8864E+06    -21.0803E+06    -18.7706E+06    -20.1961E+06     21.5472E+06     1.40652E+06         74.0737
             672     7.74463E-03     51.3461E-03         2.37611         2.12361        -5.55038         2.13757        -5.54782         2.35959    -7.58595E-03     510.364E-03    -253.858E-03    -256.506E-03    -249.178E-03     505.684E-03    -256.506E-03     118.662E-03     17.4906E+06    -21.8560E+06    -24.9942E+06    -22.6656E+06    -24.1846E+06     17.4906E+06     1.29431E+06         72.8574
             673     6.96766E-03     51.2282E-03         2.40483         2.16219        -5.58113         2.21091        -5.57749         2.35247     53.6132E-03     508.917E-03    -252.445E-03    -256.472E-03    -249.524E-03     505.996E-03    -256.472E-03     93.1397E-03     13.8117E+06    -25.6460E+06    -28.5285E+06    -26.3425E+06    -27.8320E+06     13.8117E+06     1.11755E+06         71.6861
             674     6.19515E-03     51.1542E-03         2.39383         2.18257        -5.55946         2.20038        -5.53315         2.34971     785.044E-03     508.536E-03    -252.054E-03    -256.481E-03    -250.435E-03     506.917E-03    -256.481E-03     69.3370E-03     8.12686E+06    -30.4118E+06    -33.4704E+06    -31.0300E+06    -32.8522E+06     8.12686E+06     1.16572E+06         70.5559
             675     5.42002E-03     51.1099E-03         2.37142         2.13851        -5.47231         2.12095        -5.44648         2.36315     582.259E-03     508.849E-03    -252.317E-03    -256.532E-03    -251.461E-03     507.993E-03    -256.532E-03     50.2244E-03     1.46947E+06    -35.3019E+06    -39.0866E+06    -35.9058E+06    -38.4827E+06     1.46947E+06     1.34039E+06         69.4790
             676     4.64410E-03     51.0903E-03         2.40364         2.05216        -5.40567         2.04558        -5.39910         2.40364     144.658E-03     509.943E-03    -253.350E-03    -256.594E-03    -252.961E-03     509.555E-03    -256.594E-03     33.4551E-03    -6.77084E+06    -40.9322E+06    -45.9357E+06    -41.5496E+06    -45.3183E+06    -6.77084E+06     1.59702E+06         68.4786
             677     3.86987E-03     51.0911E-03         2.47401         2.09398        -5.50334         2.05889        -5.46825         2.47401    -461.844E-03     511.359E-03    -254.730E-03    -256.628E-03    -254.643E-03     511.223E-03    -256.579E-03     19.4170E-03    -18.0149E+06    -47.6994E+06    -54.6517E+06    -48.1799E+06    -54.1712E+06    -18.0149E+06     1.63496E+06         67.5821
             678     3.09778E-03     51.0983E-03         2.56857         2.22886        -5.70604         2.17151        -5.64869         2.56857        -1.16719     512.236E-03    -255.740E-03    -256.496E-03    -255.758E-03     512.205E-03    -256.447E-03     8.13952E-03    -30.7871E+06    -53.7892E+06    -63.4729E+06    -53.9928E+06    -63.2692E+06    -30.7871E+06     866.082E+03         66.8147
             679     2.32568E-03     51.1170E-03         2.70484         2.49513        -6.07208         2.36574        -5.91459         2.67673        -2.03263     512.053E-03    -255.727E-03    -256.326E-03    -255.723E-03     512.049E-03    -256.326E-03     934.450E-06    -43.8937E+06    -59.1175E+06    -72.6498E+06    -59.1693E+06    -72.5980E+06    -43.8937E+06     255.503E+03         66.1965
             680     1.54828E-03     51.1372E-03         2.80761         2.74334        -6.38702         2.61468        -6.22823         2.77748        -2.16272     512.036E-03    -255.510E-03    -256.526E-03    -255.623E-03     512.034E-03    -256.411E-03    -1.42574E-03    -55.5098E+06     -63.605E+06    -81.1855E+06    -63.6211E+06    -81.1694E+06    -55.5098E+06     34.9384E+03         65.7418
             681     771.568E-06     51.1547E-03         3.43669         2.24581        -6.49318         2.21685        -6.46219         3.43466    -842.117E-03     512.943E-03    -255.934E-03    -257.009E-03    -256.564E-03     512.941E-03    -256.377E-03    -1.24685E-03    -64.0736E+06    -67.1802E+06    -88.8651E+06    -66.7716E+06    -88.5993E+06    -64.7480E+06    -294.666E+03         65.4574
             682     13.1694E-03     51.5103E-03         1.95428     754.548E-03        -3.79731     724.734E-03        -3.76750         1.95428     342.692E-03     535.337E-03    -256.289E-03    -279.048E-03    -262.212E-03     518.501E-03    -256.289E-03     215.932E-03     34.9490E+06    -2.86742E+06    -6.78445E+06    -3.15139E+06    -6.50049E+06     34.9490E+06    -165.420E+03         82.5980
             683     12.3950E-03     51.0425E-03         1.97083     758.080E-03        -3.75675     699.889E-03        -3.69856         1.97083         1.01324     534.421E-03    -256.269E-03    -278.152E-03    -258.552E-03     514.821E-03    -256.269E-03     243.251E-03     28.5555E+06    -4.79620E+06    -9.55936E+06    -4.89821E+06    -9.45735E+06     28.5555E+06     248.047E+03         81.1965
             684     11.6164E-03     50.7822E-03         1.99405     851.508E-03        -3.81781     801.014E-03        -3.76731         1.99405     957.189E-03     520.616E-03    -256.353E-03    -264.264E-03    -251.114E-03     507.466E-03    -256.353E-03     200.608E-03      25.086E+06    -6.74541E+06    -12.7399E+06    -6.82573E+06    -12.6596E+06      25.086E+06     399.823E+03         79.6966
             685     10.8417E-03     50.4763E-03         2.01722         1.06662        -4.01589         1.04475        -3.99402         2.01722     571.937E-03     518.906E-03    -256.487E-03    -262.419E-03    -249.387E-03     505.874E-03    -256.487E-03     199.201E-03     23.7018E+06    -9.08518E+06    -14.3615E+06    -9.15615E+06    -14.2905E+06     23.7018E+06     516.431E+03         78.1868
             686     10.0647E-03     50.2476E-03         2.02596         1.36125        -4.29588         1.35496        -4.28959         2.02596    -84.2981E-03     515.697E-03    -256.567E-03    -259.130E-03    -249.013E-03     505.580E-03    -256.567E-03     175.887E-03     23.0786E+06    -11.0431E+06    -16.0329E+06    -11.3963E+06    -15.6797E+06     23.0786E+06     1.08918E+06         76.7360
             687     9.29297E-03     50.0204E-03         2.01802         1.61576        -4.53082         1.61141        -4.52646         2.01802    -191.201E-03     514.500E-03    -256.537E-03    -257.963E-03    -249.286E-03     505.839E-03    -256.553E-03     162.352E-03      23.505E+06    -13.6894E+06    -17.9365E+06    -14.5576E+06    -17.0684E+06      23.505E+06     1.63722E+06         75.3736
             688     8.51842E-03     49.8276E-03         1.99853         1.76999        -4.65062         1.76686        -4.64750         1.99853     224.574E-03     511.806E-03    -255.310E-03    -256.496E-03    -248.748E-03     505.243E-03    -256.496E-03     140.891E-03     22.2136E+06    -17.0348E+06    -20.5530E+06    -17.9316E+06    -19.6562E+06     22.2136E+06     1.49533E+06         74.0934
             689     7.74311E-03     49.6738E-03         1.99328         1.84425        -4.69350         1.85484        -4.68757         1.97677     11.7953E-03     509.988E-03    -253.547E-03    -256.442E-03    -248.922E-03     505.363E-03    -256.442E-03     117.875E-03     18.4386E+06    -20.8372E+06    -24.0173E+06    -21.4678E+06    -23.3867E+06     18.4386E+06     1.20683E+06         72.8750
             690     6.97141E-03     49.5596E-03         2.01195         1.83434        -4.66832         1.88119        -4.66280         1.95959    -126.214E-03     508.693E-03    -252.278E-03    -256.414E-03    -249.407E-03     505.821E-03    -256.414E-03     92.3477E-03     13.7363E+06    -25.0606E+06    -28.0014E+06    -25.6334E+06    -27.4286E+06     13.7363E+06     1.09027E+06         71.7020
             691     6.19437E-03     49.4839E-03         1.99704         1.82440        -4.61081         1.85709        -4.59938         1.95292     384.775E-03     508.306E-03    -251.878E-03    -256.428E-03    -250.288E-03     506.716E-03    -256.428E-03     68.6748E-03     7.34005E+06    -29.9766E+06    -33.0900E+06    -30.3899E+06    -32.6767E+06     7.34005E+06     984.173E+03         70.5712
             692     5.41953E-03     49.4419E-03         1.96728         1.84446        -4.57858         1.83107        -4.55692         1.95901    -25.0599E-03     509.163E-03    -252.716E-03    -256.447E-03    -251.900E-03     508.347E-03    -256.447E-03     48.9104E-03     461.380E+03    -35.2848E+06    -38.7781E+06    -35.4991E+06    -38.5637E+06     461.380E+03     717.828E+03         69.4945
             693     4.64548E-03     49.4197E-03         2.00218         1.84610        -4.60153         1.85447        -4.58180         1.97408    -593.724E-03     510.364E-03    -253.958E-03    -256.406E-03    -253.606E-03     510.012E-03    -256.406E-03     31.9273E-03    -7.27591E+06    -41.0344E+06    -45.7297E+06    -41.4050E+06    -45.3590E+06    -7.27591E+06     1.10355E+06         68.4948
             694     3.87270E-03     49.4170E-03         2.07595         1.87490        -4.69387         1.88616        -4.62343         1.99425        -1.15186     511.167E-03    -254.827E-03    -256.339E-03    -254.747E-03     511.037E-03    -256.290E-03     19.2064E-03    -17.1077E+06    -46.5447E+06    -53.5881E+06    -47.0044E+06    -53.1284E+06    -17.1077E+06     1.61472E+06         67.5980
             695     3.09869E-03     49.4270E-03         2.13943         1.93001        -4.79956         1.92035        -4.67044         2.01996        -1.84655     511.036E-03    -254.775E-03    -256.261E-03    -254.786E-03     510.997E-03    -256.212E-03     10.1932E-03    -28.9556E+06    -52.3414E+06    -61.7803E+06    -52.5834E+06    -61.5384E+06    -28.9556E+06     1.38445E+06         66.8291
             696     2.32221E-03     49.4495E-03         2.28726         2.00741        -4.99642         1.98343        -4.73376         2.04858        -2.60354     511.286E-03    -255.005E-03    -256.282E-03    -254.997E-03     511.279E-03    -256.282E-03     4.16208E-03    -42.3659E+06    -58.2583E+06    -71.1997E+06    -58.4352E+06    -71.0228E+06    -42.3659E+06     1.17423E+06         66.2091
             697     1.54881E-03     49.4706E-03         2.29567         2.07749        -5.04265         2.03313        -4.78011         2.07749        -2.59637     512.208E-03    -255.533E-03    -256.675E-03    -255.784E-03     512.207E-03    -256.422E-03     95.0460E-06    -54.7842E+06    -62.4385E+06    -79.8284E+06    -62.5679E+06    -79.6990E+06    -54.7842E+06     934.422E+03         65.7530
             698     775.007E-06     49.4835E-03         2.54072         1.71981        -4.90390         1.69543        -4.83415         2.49536    -982.950E-03     512.886E-03    -255.604E-03    -257.282E-03    -256.837E-03     512.883E-03    -256.047E-03    -2.25703E-03    -64.6051E+06    -67.5810E+06    -89.0311E+06    -67.3090E+06    -88.6288E+06    -65.2794E+06     504.667E+03         65.4679
             699     13.1676E-03     49.8425E-03         1.66766     608.313E-03        -3.12780     578.792E-03        -3.09828         1.66766     329.130E-03     533.678E-03    -256.377E-03    -277.302E-03    -260.415E-03     516.792E-03    -256.377E-03     216.373E-03     34.1138E+06    -2.27874E+06    -7.22184E+06    -2.34906E+06    -7.15151E+06     34.1138E+06    -39.8776E+03         82.5729
             700     12.3914E-03     49.3690E-03         1.66766     711.952E-03        -3.16808     656.065E-03        -3.11219         1.66766     923.684E-03     533.878E-03    -256.439E-03    -277.440E-03    -257.812E-03     514.251E-03    -256.439E-03     243.336E-03     27.4222E+06    -4.79903E+06    -10.4147E+06    -4.83916E+06    -10.3745E+06     27.4222E+06     65.9346E+03         81.1813
             701     11.6186E-03     49.1195E-03         1.65990     917.309E-03        -3.31136     871.011E-03        -3.26506         1.65990     869.885E-03     521.059E-03    -256.550E-03    -264.510E-03    -251.336E-03     507.886E-03    -256.550E-03     200.945E-03     24.3301E+06    -6.67571E+06    -13.3814E+06    -6.80330E+06    -13.2538E+06     24.3301E+06     557.115E+03         79.6945
             702     10.8375E-03     48.8111E-03         1.63953         1.12034        -3.45726         1.09926        -3.43617         1.63953     568.934E-03     520.476E-03    -256.628E-03    -263.848E-03    -251.022E-03     507.649E-03    -256.628E-03     197.866E-03     23.6703E+06    -8.94466E+06    -14.6822E+06    -9.09555E+06    -14.5313E+06     23.6703E+06     752.441E+03         78.1967
             703     10.0652E-03     48.5700E-03         1.60775         1.21413        -3.49574         1.20425        -3.48585         1.60775    -71.6869E-03     516.883E-03    -256.582E-03    -260.301E-03    -250.531E-03     507.114E-03    -256.582E-03     173.127E-03     22.8361E+06    -11.5011E+06    -16.5005E+06    -11.7582E+06    -16.2434E+06     22.8361E+06     798.135E+03         76.7532
             704     9.29271E-03     48.3464E-03         1.57728         1.21215        -3.44857         1.20520        -3.44162         1.57728    -200.579E-03     514.429E-03    -256.437E-03    -257.992E-03    -249.408E-03     505.890E-03    -256.483E-03     161.316E-03     22.7506E+06    -13.9851E+06    -17.8873E+06    -14.4233E+06    -17.4492E+06     22.7506E+06     941.340E+03         75.3915
             705     8.51929E-03     48.1589E-03         1.55753         1.15527        -3.35578         1.15095        -3.35146         1.55753     228.442E-03     511.641E-03    -255.228E-03    -256.413E-03    -248.615E-03     505.028E-03    -256.413E-03     141.365E-03     21.7172E+06    -16.9851E+06    -19.8520E+06    -17.3858E+06    -19.4513E+06     21.7172E+06     905.539E+03         74.1083
             706     7.74540E-03     48.0030E-03         1.55775         1.10150        -3.27696         1.08829        -3.26375         1.55775    -74.1773E-03     509.487E-03    -253.104E-03    -256.383E-03    -248.478E-03     504.861E-03    -256.383E-03     117.823E-03     18.4227E+06    -20.3778E+06    -23.2612E+06    -20.9066E+06    -22.7324E+06     18.4227E+06     1.08886E+06         72.8870
             707     6.96894E-03     47.8883E-03         1.57733         1.13813        -3.30303         1.12815        -3.29305         1.57733    -296.733E-03     508.454E-03    -252.069E-03    -256.386E-03    -249.165E-03     505.551E-03    -256.386E-03     92.9041E-03     13.1167E+06    -24.5993E+06    -27.9393E+06    -25.2510E+06    -27.2876E+06     13.1167E+06     1.24778E+06         71.7126
             708     6.19585E-03     47.8175E-03         1.60339         1.30988        -3.47330         1.29639        -3.45981         1.60339     284.688E-03     508.922E-03    -252.550E-03    -256.371E-03    -250.915E-03     507.287E-03    -256.371E-03     69.6873E-03     7.26579E+06    -29.1171E+06    -33.0591E+06    -29.7565E+06    -32.4197E+06     7.26579E+06     1.34387E+06         70.5825
             709     5.42194E-03     47.7678E-03         1.65276         1.51736        -3.70948         1.52577        -3.68380         1.61867    -27.9020E-03     509.569E-03    -253.266E-03    -256.303E-03    -252.424E-03     508.726E-03    -256.303E-03     49.6939E-03     395.719E+03    -34.6848E+06    -39.1781E+06    -35.2628E+06    -38.6000E+06     395.719E+03     1.28680E+06         69.5078
             710     4.64863E-03     47.7510E-03         1.76578         1.60071        -3.89752         1.73705        -3.87762         1.60954    -547.880E-03     509.757E-03    -253.519E-03    -256.238E-03    -253.127E-03     509.365E-03    -256.238E-03     33.9458E-03    -7.34741E+06    -39.9266E+06    -45.2746E+06    -40.3694E+06    -44.8319E+06    -7.34741E+06     1.30584E+06         68.5092
             711     3.87283E-03     47.7458E-03         1.89827         1.57046        -3.98959         1.84810        -3.93942         1.57046    -863.338E-03     510.040E-03    -253.787E-03    -256.253E-03    -253.626E-03     509.879E-03    -256.253E-03     21.0844E-03    -17.0026E+06    -45.1769E+06    -52.4797E+06    -45.5165E+06    -52.1402E+06    -17.0026E+06     1.47179E+06         67.6126
             712     3.09646E-03     47.7626E-03         1.91362         1.50830        -3.92871         1.81064        -3.82572         1.50830        -1.47763     510.762E-03    -254.413E-03    -256.348E-03    -254.375E-03     510.723E-03    -256.348E-03     9.76606E-03    -30.0890E+06    -51.6762E+06    -61.5886E+06    -51.8571E+06    -61.4076E+06    -30.0890E+06     1.24954E+06         66.8434
             713     2.32155E-03     47.7792E-03         1.89220         1.44000        -3.82162         1.66155        -3.59098         1.44000        -2.16510     511.850E-03    -255.383E-03    -256.466E-03    -255.378E-03     511.844E-03    -256.466E-03     2.76776E-03    -42.1823E+06    -56.6584E+06    -69.8776E+06    -56.8264E+06    -69.7095E+06    -42.1823E+06     1.07531E+06         66.2232
             714     1.54735E-03     47.7972E-03         1.77688         1.37990        -3.61659         1.50204        -3.34176         1.37990        -2.34142     512.780E-03    -256.053E-03    -256.727E-03    -256.305E-03     512.780E-03    -256.475E-03    -358.815E-06    -52.9220E+06    -61.5947E+06    -78.6020E+06    -61.7625E+06    -78.4342E+06    -52.9220E+06     1.26053E+06         65.7669
             715     774.440E-06     47.8134E-03         1.65354         1.17298        -3.26228         1.20345        -3.14834         1.50912    -743.696E-03     512.750E-03    -255.696E-03    -257.054E-03    -256.919E-03     512.749E-03    -255.830E-03    -946.428E-06    -61.4815E+06    -64.9877E+06    -86.5782E+06    -65.2222E+06    -86.2521E+06    -61.5732E+06     1.32897E+06         65.4812
             716     13.1664E-03     48.1723E-03         1.35658     632.353E-03        -2.56744     602.506E-03        -2.53759         1.35658     308.104E-03     533.033E-03    -256.484E-03    -276.549E-03    -259.676E-03     516.160E-03    -256.484E-03     216.477E-03     32.9923E+06    -1.74222E+06    -7.93876E+06    -1.93626E+06    -7.74472E+06     32.9923E+06     322.167E+03         82.5603
             717     12.3899E-03     47.7039E-03         1.32647     893.732E-03        -2.74901     849.964E-03        -2.69863         1.31986     842.929E-03     533.761E-03    -256.576E-03    -277.184E-03    -257.797E-03     514.373E-03    -256.576E-03     241.421E-03     27.4863E+06    -4.34183E+06    -10.5078E+06    -4.39267E+06    -10.4569E+06     27.4863E+06    -30.0130E+03         81.1778
             718     11.6090E-03     47.4489E-03         1.29142         1.06765        -2.83632         1.05664        -2.80002         1.26613     738.963E-03     522.835E-03    -256.600E-03    -266.235E-03    -253.524E-03     510.125E-03    -256.600E-03     197.879E-03     24.4419E+06    -6.31719E+06    -13.4479E+06    -6.48622E+06    -13.2789E+06     24.4419E+06     630.471E+03         79.7015
             719     10.8420E-03     47.1355E-03         1.22462         1.08223        -2.74384         1.08436        -2.72729         1.20594     477.709E-03     521.669E-03    -256.518E-03    -265.151E-03    -252.719E-03     509.236E-03    -256.518E-03     195.273E-03     23.8604E+06    -8.82233E+06    -14.8798E+06    -9.04188E+06    -14.6603E+06     23.8604E+06     1.10280E+06         78.2107
             720     10.0698E-03     46.8971E-03         1.15049     976.478E-03        -2.53610     958.471E-03        -2.51810         1.15049    -144.431E-03     515.693E-03    -256.422E-03    -259.271E-03    -249.611E-03     506.033E-03    -256.422E-03     171.935E-03     22.7484E+06    -11.4923E+06    -16.5834E+06    -11.5904E+06    -16.4853E+06     22.7484E+06     483.094E+03         76.7671
             721     9.29359E-03     46.6793E-03         1.11312     785.998E-03        -2.28874     771.167E-03        -2.27391         1.11312    -299.839E-03     513.218E-03    -256.127E-03    -257.091E-03    -248.300E-03     504.689E-03    -256.388E-03     160.980E-03     21.9215E+06    -14.2639E+06    -17.8226E+06    -14.2788E+06    -17.8077E+06     21.9215E+06     100.918E+03         75.4011
             722     8.51871E-03     46.4836E-03         1.09807     615.558E-03        -2.08370     608.768E-03        -2.07691         1.09807     176.438E-03     511.089E-03    -254.707E-03    -256.382E-03    -248.087E-03     504.469E-03    -256.382E-03     141.345E-03     20.2723E+06    -17.4320E+06    -20.2226E+06    -17.5346E+06    -20.1200E+06     20.2723E+06     413.717E+03         74.1147
             723     7.74481E-03     46.3352E-03         1.10376     605.445E-03        -2.05715     585.449E-03        -2.03715         1.10376    -89.9206E-03     509.181E-03    -252.789E-03    -256.393E-03    -248.137E-03     504.530E-03    -256.393E-03     118.129E-03     16.2473E+06    -21.1375E+06    -24.1983E+06    -21.3842E+06    -23.9517E+06     16.2473E+06     732.810E+03         72.8924
             724     6.96981E-03     46.2212E-03         1.11702     746.410E-03        -2.18521     732.424E-03        -2.17123         1.11702    -207.622E-03     508.511E-03    -252.086E-03    -256.425E-03    -249.138E-03     505.563E-03    -256.425E-03     93.6465E-03     12.0891E+06    -24.7242E+06    -28.1661E+06    -25.0914E+06    -27.7989E+06     12.0891E+06     1.01425E+06         71.7192
             725     6.19468E-03     46.1425E-03         1.18838     946.654E-03        -2.42985     985.130E-03        -2.40107         1.12112     507.127E-03     508.702E-03    -252.254E-03    -256.448E-03    -250.558E-03     507.006E-03    -256.448E-03     71.0620E-03     6.78653E+06    -28.9741E+06    -33.1541E+06    -29.5317E+06    -32.5964E+06     6.78653E+06     1.32538E+06         70.5917
             726     5.42114E-03     46.0997E-03         1.30952         1.06704        -2.65587         1.24439        -2.62607         1.10237     337.419E-03     509.231E-03    -252.767E-03    -256.463E-03    -251.837E-03     508.300E-03    -256.463E-03     52.4810E-03     589.924E+03    -33.8088E+06    -38.7301E+06    -34.4752E+06    -38.0637E+06     589.924E+03     1.60431E+06         69.5197
             727     4.64506E-03     46.0805E-03         1.42576         1.05284        -2.75132         1.42122        -2.74678         1.05284    -3.46657E-03     510.197E-03    -253.744E-03    -256.453E-03    -253.302E-03     509.756E-03    -256.453E-03     35.7508E-03    -7.31489E+06    -39.2604E+06    -45.1937E+06    -39.8336E+06    -44.6204E+06    -7.31489E+06     1.72420E+06         68.5240
             728     3.87042E-03     46.0801E-03         1.47163     971.771E-03        -2.71527         1.46246        -2.70610     971.771E-03    -106.624E-03     511.039E-03    -254.644E-03    -256.396E-03    -254.487E-03     510.883E-03    -256.396E-03     20.5794E-03    -17.6059E+06    -45.0325E+06    -52.7870E+06    -45.4590E+06    -52.3605E+06    -17.6059E+06     1.73689E+06         67.6299
             729     3.09731E-03     46.0894E-03         1.37819     866.634E-03        -2.50469         1.34963        -2.47614     866.634E-03    -601.824E-03     511.742E-03    -255.451E-03    -256.291E-03    -255.419E-03     511.710E-03    -256.291E-03     8.78832E-03    -28.4288E+06    -49.6638E+06    -59.6800E+06    -49.9034E+06    -59.4404E+06    -28.4288E+06     1.43769E+06         66.8622
             730     2.32439E-03     46.1105E-03         1.27100     754.384E-03        -2.26468         1.10971        -2.10340     754.384E-03        -1.29517     511.983E-03    -255.757E-03    -256.226E-03    -255.833E-03     511.980E-03    -256.146E-03     2.12397E-03    -41.4581E+06    -55.3979E+06    -68.5764E+06    -55.5032E+06    -68.4711E+06    -41.4581E+06     822.802E+03         66.2418
             731     1.54917E-03     46.1274E-03         1.09552     660.425E-03        -1.97243     830.567E-03        -1.70748     660.425E-03        -1.65490     511.803E-03    -255.650E-03    -256.154E-03    -255.727E-03     511.802E-03    -256.074E-03    -1.42494E-03    -53.2173E+06    -59.9921E+06    -77.5473E+06    -60.1352E+06    -77.4042E+06    -53.2173E+06     64.0435E+03         65.7844
             732     773.347E-06     46.1426E-03     873.631E-03     536.600E-03        -1.60843     636.750E-03        -1.44806     613.110E-03    -419.778E-03     512.085E-03    -255.710E-03    -256.375E-03    -256.189E-03     512.080E-03    -255.891E-03    -2.71645E-03    -60.7113E+06    -63.0519E+06    -84.6496E+06    -63.1226E+06    -84.4872E+06    -60.8030E+06    -513.878E+03         65.4976
             733     13.1647E-03     46.5049E-03     985.526E-03     566.078E-03        -1.87036     526.779E-03        -1.83106     985.526E-03     294.736E-03     534.343E-03    -256.573E-03    -277.770E-03    -261.043E-03     517.617E-03    -256.573E-03     216.069E-03     33.5972E+06    -1.72499E+06    -7.97549E+06    -1.90310E+06    -7.79739E+06     33.5972E+06     534.379E+03         82.5567
             734     12.3881E-03     46.0358E-03     922.799E-03     772.890E-03        -1.96589     720.953E-03        -1.90734     916.184E-03     760.338E-03     536.158E-03    -256.521E-03    -279.636E-03    -260.669E-03     517.190E-03    -256.521E-03     239.009E-03     28.3115E+06    -4.16017E+06    -10.4063E+06    -4.24020E+06    -10.3263E+06     28.3115E+06     125.500E+03         81.1809
             735     11.6213E-03     45.7755E-03     865.324E-03     793.895E-03        -1.87707     778.911E-03        -1.83679     840.028E-03     611.763E-03     523.313E-03    -256.384E-03    -266.929E-03    -254.599E-03     510.983E-03    -256.384E-03     194.899E-03     23.7030E+06    -6.53603E+06    -14.1383E+06    -6.64855E+06    -14.0258E+06     23.7030E+06     498.643E+03         79.7099
             736     10.8451E-03     45.4615E-03     790.638E-03     729.043E-03        -1.69217     717.797E-03        -1.66224     771.957E-03     478.283E-03     519.488E-03    -256.311E-03    -263.177E-03    -250.727E-03     507.038E-03    -256.311E-03     195.071E-03     22.7373E+06    -8.27254E+06    -15.1544E+06    -8.35757E+06    -15.0693E+06     22.7373E+06     580.447E+03         78.2185
             737     10.0680E-03     45.2315E-03     714.846E-03     635.300E-03        -1.48933     583.276E-03        -1.43731     714.846E-03    -147.623E-03     514.613E-03    -256.339E-03    -258.274E-03    -248.313E-03     504.652E-03    -256.339E-03     174.340E-03     21.9042E+06    -10.7984E+06    -16.7681E+06    -10.9179E+06    -16.6486E+06     21.9042E+06     505.415E+03         76.7715
             738     9.29452E-03     45.0055E-03     675.824E-03     518.144E-03        -1.31114     480.224E-03        -1.26987     672.475E-03    -307.557E-03     513.137E-03    -255.865E-03    -257.272E-03    -247.997E-03     504.383E-03    -256.386E-03     162.993E-03     21.5755E+06    -14.0175E+06    -18.3549E+06    -14.1529E+06    -18.2194E+06     21.5755E+06     581.858E+03         75.4042
             739     8.52001E-03     44.8184E-03     685.788E-03     423.061E-03        -1.20864     460.139E-03        -1.19831     638.387E-03     204.968E-03     510.498E-03    -254.059E-03    -256.439E-03    -247.355E-03     503.794E-03    -256.439E-03     142.112E-03     19.7030E+06    -17.1329E+06    -20.9380E+06    -17.2960E+06    -20.7750E+06     19.7030E+06     700.028E+03         74.1180
             740     7.74277E-03     44.6642E-03     723.716E-03     445.873E-03        -1.25101     516.553E-03        -1.20468     606.710E-03    -170.546E-03     509.283E-03    -252.782E-03    -256.501E-03    -248.037E-03     504.537E-03    -256.501E-03     119.327E-03     15.2540E+06    -20.9116E+06    -24.7877E+06    -21.0617E+06    -24.6376E+06     15.2540E+06     668.939E+03         72.8971
             741     6.96921E-03     44.5504E-03     741.187E-03     515.153E-03        -1.31663     621.794E-03        -1.25390     571.815E-03    -479.629E-03     508.964E-03    -252.425E-03    -256.538E-03    -249.419E-03     505.957E-03    -256.538E-03     94.5586E-03     10.8647E+06    -25.0181E+06    -28.9193E+06    -25.2851E+06    -28.6522E+06     10.8647E+06     878.912E+03         71.7268
             742     6.19424E-03     44.4751E-03     761.559E-03     521.818E-03        -1.32576     708.127E-03        -1.28181     531.301E-03     131.683E-03     508.608E-03    -252.033E-03    -256.575E-03    -250.359E-03     506.935E-03    -256.575E-03     70.4345E-03     6.06386E+06    -28.9963E+06    -33.2388E+06    -29.2948E+06    -32.9403E+06     6.06386E+06     1.01127E+06         70.6024
             743     5.41660E-03     44.4308E-03     860.729E-03     485.193E-03        -1.37264     742.231E-03        -1.25414     485.193E-03    -76.4578E-03     509.639E-03    -253.041E-03    -256.598E-03    -252.181E-03     508.779E-03    -256.598E-03     50.1545E-03     517.233E+03     -33.583E+06    -38.1979E+06    -33.7996E+06    -37.9813E+06     517.233E+03     949.067E+03         69.5337
             744     4.64414E-03     44.4072E-03     866.222E-03     433.749E-03        -1.32049     734.218E-03        -1.18848     433.749E-03    -398.348E-03     511.122E-03    -254.621E-03    -256.502E-03    -254.252E-03     510.754E-03    -256.502E-03     32.3780E-03    -7.41367E+06    -39.2634E+06    -45.0157E+06    -39.5127E+06    -44.7664E+06    -7.41367E+06      1.0407E+06         68.5411
             745     3.87262E-03     44.4070E-03     802.909E-03     376.844E-03        -1.19677     682.270E-03        -1.07613     376.844E-03    -355.308E-03     511.525E-03    -255.215E-03    -256.309E-03    -255.094E-03     511.403E-03    -256.309E-03     18.4451E-03    -16.7234E+06    -44.2484E+06    -51.8851E+06    -44.4485E+06    -51.6851E+06    -16.7234E+06     933.229E+03         67.6492
             746     3.09827E-03     44.4199E-03     728.141E-03     316.942E-03        -1.06366     571.715E-03    -907.235E-03     316.942E-03    -579.717E-03     511.492E-03    -255.361E-03    -256.131E-03    -255.330E-03     511.461E-03    -256.131E-03     8.88730E-03    -27.2480E+06    -49.2291E+06    -59.2036E+06    -49.3849E+06    -59.0477E+06    -27.2480E+06     1.02524E+06         66.8823
             747     2.32315E-03     44.4394E-03     817.608E-03     256.662E-03        -1.07936     448.744E-03    -710.498E-03     256.662E-03        -1.17509     511.697E-03    -255.656E-03    -256.041E-03    -255.731E-03     511.693E-03    -255.962E-03     2.93313E-03    -39.3103E+06    -54.1322E+06    -67.3623E+06    -54.2341E+06    -67.2603E+06    -39.3103E+06     1.01847E+06         66.2618
             748     1.55011E-03     44.4597E-03     761.442E-03     199.176E-03    -937.426E-03     312.749E-03    -488.733E-03     199.176E-03        -1.41371     511.566E-03    -255.709E-03    -255.857E-03    -255.792E-03     511.565E-03    -255.773E-03    -334.683E-06    -51.6065E+06    -58.6640E+06    -76.2501E+06    -58.9073E+06    -76.0069E+06    -51.6065E+06     658.504E+03         65.8037
             749     776.173E-06     44.4751E-03     551.958E-03     108.688E-03    -611.819E-03     328.862E-03    -297.605E-03     17.5693E-03    -489.236E-03     511.272E-03    -255.061E-03    -256.211E-03    -256.159E-03     511.267E-03    -255.108E-03    -1.55062E-03    -60.2226E+06    -62.9895E+06    -84.3981E+06    -62.7234E+06    -84.1535E+06    -60.7332E+06     847.239E+03         65.5163
             750     13.1631E-03     44.8395E-03     546.679E-03     330.856E-03    -977.659E-03     194.228E-03    -841.032E-03     546.679E-03     219.182E-03     535.654E-03    -256.519E-03    -279.136E-03    -262.681E-03     519.200E-03    -256.519E-03     213.371E-03     33.4973E+06    -2.44161E+06    -8.72185E+06    -2.48435E+06    -8.67911E+06     33.4973E+06    -53.5393E+03         82.5502
             751     12.3947E-03     44.3533E-03     482.635E-03     400.936E-03    -905.708E-03     177.600E-03    -667.619E-03     467.882E-03     672.043E-03     536.819E-03    -256.399E-03    -280.419E-03    -261.217E-03     517.616E-03    -256.399E-03     241.399E-03     28.3011E+06    -4.54575E+06    -11.2249E+06    -4.62970E+06    -11.1409E+06     28.3011E+06     376.731E+03         81.1760
             752     11.6203E-03     44.1023E-03     447.643E-03     349.889E-03    -756.656E-03     145.811E-03    -500.957E-03     396.022E-03     503.077E-03     522.488E-03    -256.309E-03    -266.179E-03    -253.220E-03     509.529E-03    -256.309E-03     199.522E-03     24.0488E+06    -6.02991E+06    -14.2428E+06    -6.12183E+06    -14.1509E+06     24.0488E+06     133.847E+03         79.7060
             753     10.8444E-03     43.8007E-03     446.607E-03     297.864E-03    -660.624E-03     140.985E-03    -394.726E-03     337.587E-03     465.028E-03     519.411E-03    -256.330E-03    -263.081E-03    -250.095E-03     506.425E-03    -256.330E-03     199.062E-03     22.1253E+06    -7.67513E+06    -15.4713E+06    -7.83685E+06    -15.3095E+06     22.1253E+06     435.412E+03         78.2165
             754     10.0682E-03     43.5604E-03     439.569E-03     246.712E-03    -573.194E-03     172.226E-03    -341.189E-03     282.050E-03    -78.6824E-03     514.874E-03    -256.406E-03    -258.469E-03    -248.317E-03     504.722E-03    -256.406E-03     176.016E-03     20.4710E+06    -10.4955E+06    -17.7146E+06    -10.7488E+06    -17.4613E+06     20.4710E+06     1.07928E+06         76.7730
             755     9.29215E-03     43.3364E-03     372.084E-03     253.823E-03    -495.869E-03     245.075E-03    -341.097E-03     226.061E-03    -252.917E-03     512.989E-03    -255.838E-03    -257.151E-03    -247.742E-03     504.224E-03    -256.482E-03     163.025E-03     20.8673E+06    -13.5168E+06    -19.0710E+06    -13.7307E+06    -18.8571E+06     20.8673E+06     1.05310E+06         75.4088
             756     8.51625E-03     43.1482E-03     381.579E-03     237.707E-03    -476.543E-03     293.455E-03    -316.865E-03     166.154E-03     195.094E-03     510.969E-03    -254.429E-03    -256.540E-03    -247.783E-03     504.323E-03    -256.540E-03     141.545E-03     20.0443E+06    -16.6298E+06    -21.1121E+06    -16.8429E+06    -20.8990E+06     20.0443E+06     926.454E+03         74.1248
             757     7.74269E-03     42.9966E-03     593.872E-03     141.084E-03    -578.521E-03     255.458E-03    -207.960E-03     108.937E-03    -383.024E-03     509.500E-03    -252.923E-03    -256.577E-03    -248.260E-03     504.837E-03    -256.577E-03     118.304E-03     16.3278E+06    -19.7485E+06    -24.3610E+06    -19.9719E+06    -24.1376E+06     16.3278E+06     927.646E+03         72.9057
             758     6.96689E-03     42.8771E-03     779.758E-03     63.8956E-03    -674.746E-03     151.382E-03    -46.3706E-03     63.8956E-03    -925.045E-03     509.009E-03    -252.411E-03    -256.598E-03    -249.490E-03     506.088E-03    -256.598E-03     93.1277E-03     11.0607E+06    -24.1973E+06    -28.9682E+06    -24.3521E+06    -28.8134E+06     11.0607E+06     724.726E+03         71.7367
             759     6.19314E-03     42.8066E-03     785.108E-03     38.8581E-03    -640.833E-03     26.5196E-03     117.756E-03     38.8581E-03    -483.000E-03     509.893E-03    -253.354E-03    -256.539E-03    -251.742E-03     508.280E-03    -256.539E-03     69.2974E-03     5.47986E+06    -28.8793E+06    -33.8186E+06    -28.9857E+06    -33.7123E+06     5.47986E+06     647.509E+03         70.6146
             760     5.42262E-03     42.7568E-03     908.787E-03     36.4501E-03    -753.389E-03    -74.6277E-03     230.026E-03     36.4501E-03    -883.186E-03     510.430E-03    -254.048E-03    -256.382E-03    -253.225E-03     509.607E-03    -256.382E-03     49.0988E-03     390.511E+03    -32.9897E+06    -38.5159E+06    -33.1692E+06    -38.3364E+06     390.511E+03     960.535E+03         69.5485
             761     4.64856E-03     42.7360E-03     875.968E-03     53.9006E-03    -733.393E-03    -113.642E-03     256.217E-03     53.9006E-03        -1.24998     510.092E-03    -253.847E-03    -256.246E-03    -253.494E-03     509.740E-03    -256.246E-03     31.9026E-03    -5.93437E+06    -37.5862E+06    -43.9827E+06    -37.7278E+06    -43.8411E+06    -5.93437E+06     832.042E+03         68.5575
             762     3.87237E-03     42.7360E-03     762.242E-03     83.7678E-03    -653.479E-03    -83.0287E-03     191.792E-03     83.7678E-03        -1.13818     510.407E-03    -254.225E-03    -256.181E-03    -254.095E-03     510.276E-03    -256.181E-03     19.1597E-03    -16.0370E+06    -43.5766E+06    -51.6010E+06    -43.6004E+06    -51.5772E+06    -16.0370E+06     349.594E+03         67.6664
             763     3.09807E-03     42.7515E-03     661.359E-03     118.228E-03    -586.221E-03    -22.6853E-03     97.8229E-03     118.228E-03        -1.13305     511.201E-03    -255.087E-03    -256.114E-03    -255.052E-03     511.166E-03    -256.114E-03     9.54134E-03    -28.3559E+06    -49.2925E+06    -60.2207E+06    -49.3172E+06    -60.1959E+06    -28.3559E+06     419.578E+03         66.9007
             764     2.32401E-03     42.7698E-03     836.087E-03     154.660E-03    -797.560E-03     39.2254E-03    -697.738E-06     154.660E-03        -1.60359     511.470E-03    -255.423E-03    -256.047E-03    -255.418E-03     511.465E-03    -256.047E-03     2.84624E-03    -38.9402E+06    -53.0567E+06    -67.2339E+06    -53.0949E+06    -67.1957E+06    -38.9402E+06     655.574E+03         66.2817
             765     1.54845E-03     42.7905E-03     811.450E-03     175.536E-03    -774.655E-03     120.656E-03    -98.1872E-03     189.862E-03        -1.53740     511.664E-03    -255.617E-03    -256.047E-03    -255.621E-03     511.664E-03    -256.043E-03    -343.368E-06    -48.9770E+06    -57.2627E+06    -74.7940E+06    -57.4299E+06    -74.6268E+06    -48.9770E+06     930.450E+03         65.8250
             766     773.317E-06     42.8075E-03     677.194E-03     73.0781E-03    -520.546E-03     414.478E-03    -181.038E-03    -3.71442E-03    -891.776E-03     512.011E-03    -255.491E-03    -256.519E-03    -256.348E-03     512.009E-03    -255.661E-03    -447.255E-06    -57.6339E+06    -60.8937E+06    -82.6526E+06    -60.5651E+06    -82.4706E+06    -58.1445E+06     1.18939E+06         65.5385
             767     13.1706E-03     43.1632E-03     591.745E-03     29.6601E-03    -463.980E-03    -200.311E-03     270.364E-03     87.3711E-03     128.945E-03     535.157E-03    -256.391E-03    -278.766E-03    -262.094E-03     518.485E-03    -256.391E-03     214.901E-03     32.1472E+06    -2.41760E+06    -9.41375E+06    -2.47166E+06    -9.35969E+06     32.1472E+06     79.5095E+03         82.5332
             768     12.3922E-03     42.6866E-03     694.063E-03     8.96483E-03    -460.111E-03    -321.381E-03     553.127E-03     11.1712E-03     463.574E-03     533.850E-03    -256.406E-03    -277.444E-03    -257.890E-03     514.295E-03    -256.406E-03     243.174E-03     26.5524E+06    -4.01792E+06    -12.0810E+06    -4.05920E+06    -12.0397E+06     26.5524E+06     199.027E+03         81.1602
             769     11.6142E-03     42.4324E-03     739.908E-03    -56.8819E-03    -386.780E-03    -338.998E-03     692.126E-03    -56.8819E-03     277.481E-03     521.383E-03    -256.493E-03    -264.890E-03    -251.772E-03     508.265E-03    -256.493E-03     200.748E-03     22.3520E+06    -5.92783E+06    -15.2364E+06    -5.95818E+06    -15.2060E+06     22.3520E+06    -196.701E+03         79.6943
             770     10.8400E-03     42.1276E-03     772.753E-03    -115.709E-03    -331.610E-03    -278.249E-03     721.657E-03    -117.974E-03     351.603E-03     521.206E-03    -256.520E-03    -264.686E-03    -251.794E-03     508.314E-03    -256.520E-03     198.802E-03     20.7223E+06    -8.63494E+06    -17.0769E+06    -8.80808E+06    -16.9038E+06     20.7223E+06     206.542E+03         78.2138
             771     10.0671E-03     41.8908E-03     847.022E-03    -180.678E-03    -328.167E-03    -203.611E-03     724.731E-03    -182.943E-03    -139.030E-03     516.131E-03    -256.485E-03    -259.645E-03    -249.663E-03     506.149E-03    -256.485E-03     174.802E-03     20.8499E+06    -10.4817E+06    -18.1122E+06    -10.6801E+06    -17.9138E+06     20.8499E+06     578.399E+03         76.7790
             772     9.29205E-03     41.6690E-03     868.682E-03    -208.800E-03    -314.851E-03    -182.569E-03     775.889E-03    -248.289E-03    -337.528E-03     513.079E-03    -255.808E-03    -257.270E-03    -248.101E-03     504.583E-03    -256.483E-03     160.554E-03     21.5391E+06    -12.7024E+06    -18.7523E+06    -12.8194E+06    -18.6354E+06     21.5391E+06     704.266E+03         75.4189
             773     8.51811E-03     41.4765E-03     922.770E-03    -236.482E-03    -335.757E-03    -248.163E-03     906.811E-03    -308.117E-03     117.648E-03     510.934E-03    -254.434E-03    -256.500E-03    -247.959E-03     504.459E-03    -256.500E-03     139.761E-03     19.8763E+06    -15.7483E+06    -21.0496E+06    -15.8759E+06    -20.9220E+06     19.8763E+06     808.034E+03         74.1355
             774     7.74386E-03     41.3251E-03         1.21291    -319.357E-03    -538.906E-03    -384.308E-03         1.09046    -351.504E-03    -389.477E-03     509.760E-03    -253.265E-03    -256.495E-03    -248.715E-03     505.210E-03    -256.495E-03     116.902E-03     16.0934E+06    -19.5174E+06    -24.9743E+06    -19.7013E+06    -24.7904E+06     16.0934E+06     945.758E+03         72.9158
             775     6.96945E-03     41.2109E-03         1.44572    -369.862E-03    -712.953E-03    -552.649E-03         1.28541    -369.862E-03    -899.248E-03     509.116E-03    -252.649E-03    -256.467E-03    -249.795E-03     506.262E-03    -256.467E-03     92.1440E-03     11.9918E+06    -23.2059E+06    -29.0129E+06    -23.4325E+06    -28.7863E+06     11.9918E+06     1.00879E+06         71.7466
             776     6.19545E-03     41.1295E-03         1.49231    -358.361E-03    -761.975E-03    -694.020E-03         1.42436    -358.361E-03    -337.737E-03     509.355E-03    -252.950E-03    -256.405E-03    -251.316E-03     507.721E-03    -256.405E-03     69.8836E-03     6.80996E+06    -27.4823E+06    -33.5628E+06    -27.6174E+06    -33.4277E+06     6.80996E+06     766.914E+03         70.6244
             777     5.42130E-03     41.0849E-03         1.61019    -317.280E-03    -914.375E-03    -758.168E-03         1.45398    -317.280E-03    -657.468E-03     509.657E-03    -253.340E-03    -256.317E-03    -252.452E-03     508.769E-03    -256.317E-03     51.1550E-03     782.924E+03    -32.4691E+06    -38.9290E+06    -32.5856E+06    -38.8124E+06     782.924E+03     707.176E+03         69.5589
             778     4.64667E-03     41.0683E-03         1.54606    -251.037E-03    -923.273E-03    -727.559E-03         1.35034    -251.037E-03    -991.671E-03     509.601E-03    -253.327E-03    -256.274E-03    -252.927E-03     509.201E-03    -256.274E-03     34.0802E-03    -6.21946E+06    -36.8939E+06    -44.4271E+06     -37.013E+06    -44.3080E+06    -6.21946E+06     783.937E+03         68.5696
             779     3.87201E-03     41.0688E-03         1.34721    -167.224E-03    -815.380E-03    -613.030E-03         1.14486    -167.224E-03    -897.847E-03     510.412E-03    -254.138E-03    -256.274E-03    -253.988E-03     510.262E-03    -256.274E-03     20.5788E-03    -16.2871E+06    -42.2496E+06    -51.8278E+06    -42.3491E+06    -51.7283E+06    -16.2871E+06     902.605E+03         67.6814
             780     3.09739E-03     41.0794E-03         1.10470    -74.7439E-03    -668.901E-03    -438.701E-03     874.505E-03    -74.7439E-03    -840.857E-03     511.487E-03    -255.264E-03    -256.223E-03    -255.225E-03     511.449E-03    -256.223E-03     9.61282E-03    -27.3711E+06    -47.9533E+06    -59.8769E+06    -48.0164E+06    -59.8138E+06    -27.3711E+06     517.681E+03         66.9193
             781     2.32327E-03     41.1017E-03         1.16758     19.1544E-03    -820.192E-03    -246.079E-03     593.462E-03     19.1544E-03        -1.41501     511.662E-03    -255.511E-03    -256.152E-03    -255.507E-03     511.659E-03    -256.152E-03     2.39892E-03    -38.3538E+06    -52.3779E+06    -67.3153E+06    -52.3992E+06    -67.2940E+06    -38.3538E+06     194.007E+03         66.3037
             782     1.54874E-03     41.1223E-03     942.380E-03     94.1567E-03    -663.271E-03    -55.0335E-03     319.817E-03     108.483E-03        -1.42081     511.844E-03    -255.675E-03    -256.169E-03    -255.674E-03     511.843E-03    -256.169E-03    -669.196E-06    -48.8539E+06    -55.8350E+06    -74.5346E+06    -55.8658E+06    -74.5037E+06    -48.8539E+06     59.7175E+03         65.8498
             783     774.868E-06     41.1359E-03     852.735E-03     29.5504E-03    -503.859E-03     411.793E-03     71.3883E-03    -104.755E-03    -956.234E-03     512.331E-03    -255.275E-03    -257.056E-03    -256.884E-03     512.330E-03    -255.446E-03    -2.07466E-03    -56.8450E+06    -59.0095E+06    -81.6766E+06    -59.0610E+06    -81.6252E+06    -56.8450E+06    -397.638E+03         65.5653
             784     13.1667E-03     41.4872E-03         1.28434    -340.867E-03    -486.615E-03    -444.660E-03         1.24763    -346.109E-03     62.0913E-03     533.832E-03    -256.427E-03    -277.405E-03    -260.436E-03     516.863E-03    -256.427E-03     217.290E-03     31.0667E+06    -1.80725E+06    -9.90946E+06    -1.92881E+06    -9.78789E+06     31.0667E+06     90.2462E+03         82.5117
             785     12.3916E-03     41.0285E-03         1.48104    -389.601E-03    -584.974E-03    -525.388E-03         1.46034    -428.485E-03     288.335E-03     533.971E-03    -256.494E-03    -277.477E-03    -257.888E-03     514.382E-03    -256.494E-03     242.966E-03     25.0716E+06    -3.67324E+06    -12.5861E+06    -3.82822E+06    -12.4311E+06     25.0716E+06     254.437E+03         81.1461
             786     11.6139E-03     40.7625E-03         1.57407    -424.375E-03    -617.994E-03    -529.432E-03         1.57147    -510.338E-03     74.7442E-03     522.216E-03    -256.542E-03    -265.675E-03    -252.927E-03     509.468E-03    -256.542E-03     198.211E-03     20.9845E+06    -6.32678E+06    -16.2452E+06    -6.40844E+06    -16.1635E+06     20.9845E+06     688.771E+03         79.6908
             787     10.8403E-03     40.4530E-03         1.65796    -496.613E-03    -623.990E-03    -524.550E-03         1.65101    -589.112E-03     154.208E-03     520.671E-03    -256.513E-03    -264.158E-03    -251.781E-03     508.294E-03    -256.513E-03     194.706E-03     20.0210E+06    -8.36311E+06    -17.6173E+06    -8.39543E+06    -17.5850E+06     20.0210E+06    -58.4221E+03         78.2184
             788     10.0672E-03     40.2176E-03         1.83006    -612.366E-03    -680.751E-03    -592.338E-03         1.79485    -665.563E-03    -272.755E-03     515.830E-03    -256.454E-03    -259.376E-03    -249.677E-03     506.131E-03    -256.454E-03     172.309E-03     20.7129E+06    -10.3508E+06    -18.4206E+06    -10.3751E+06    -18.3962E+06     20.7129E+06    -366.668E+03         76.7874
             789     9.29506E-03     39.9980E-03         2.02231    -721.848E-03    -769.353E-03    -729.383E-03         1.99135    -730.865E-03    -358.846E-03     513.412E-03    -256.094E-03    -257.318E-03    -248.434E-03     504.856E-03    -256.422E-03     161.283E-03     21.5960E+06    -12.6690E+06    -19.2083E+06    -12.7195E+06    -19.1577E+06     21.5960E+06    -62.6384E+03         75.4280
             790     8.51940E-03     39.8092E-03         2.17983    -781.530E-03    -871.154E-03    -863.314E-03         2.17207    -781.612E-03     228.174E-03     511.114E-03    -254.700E-03    -256.415E-03    -248.090E-03     504.500E-03    -256.410E-03     141.217E-03     18.9453E+06    -15.6302E+06    -22.0888E+06    -15.7351E+06    -21.9838E+06     18.9453E+06     456.582E+03         74.1438
             791     7.74372E-03     39.6540E-03         2.31649    -815.829E-03    -971.504E-03    -946.838E-03         2.29183    -815.829E-03    -85.5282E-03     509.752E-03    -253.353E-03    -256.398E-03    -248.711E-03     505.109E-03    -256.398E-03     118.157E-03     15.1895E+06    -19.3734E+06    -25.8088E+06    -19.4726E+06    -25.7096E+06     15.1895E+06     770.169E+03         72.9231
             792     6.97106E-03     39.5377E-03         2.36645    -813.984E-03        -1.02002    -968.916E-03         2.33806    -836.700E-03    -371.599E-03     509.147E-03    -252.778E-03    -256.369E-03    -249.809E-03     506.178E-03    -256.369E-03     94.0152E-03     11.9695E+06    -22.8934E+06    -29.3639E+06    -23.0427E+06    -29.2146E+06     11.9695E+06     864.810E+03         71.7536
             793     6.19589E-03     39.4635E-03         2.39086    -802.908E-03        -1.05301    -966.354E-03         2.34890    -847.599E-03     382.782E-03     508.390E-03    -252.022E-03    -256.368E-03    -250.344E-03     506.712E-03    -256.368E-03     70.6204E-03     7.74905E+06    -26.5357E+06    -33.7370E+06    -26.7647E+06    -33.5079E+06     7.74905E+06     1.13959E+06         70.6319
             794     5.41940E-03     39.4142E-03         2.39017    -754.136E-03        -1.10551    -958.446E-03         2.33842    -849.437E-03     112.925E-03     508.568E-03    -252.132E-03    -256.436E-03    -251.267E-03     507.703E-03    -256.436E-03     50.2276E-03     1.94135E+06    -30.9144E+06    -38.6768E+06    -31.0400E+06    -38.5512E+06     1.94135E+06     736.610E+03         69.5677
             795     4.64523E-03     39.3985E-03         2.32193    -681.654E-03        -1.11193    -921.332E-03         2.29339    -843.709E-03    -157.851E-03     510.128E-03    -253.654E-03    -256.474E-03    -253.276E-03     509.750E-03    -256.474E-03     33.2449E-03    -6.07585E+06    -36.3870E+06    -44.8964E+06    -36.4344E+06    -44.8489E+06    -6.07585E+06     565.860E+03         68.5815
             796     3.87117E-03     39.3981E-03         2.26997    -674.882E-03        -1.07283    -889.817E-03         2.24394    -831.857E-03     71.3659E-03     511.089E-03    -254.660E-03    -256.429E-03    -254.513E-03     510.943E-03    -256.429E-03     20.2509E-03    -15.0828E+06    -41.2070E+06    -51.5463E+06    -41.3095E+06    -51.4438E+06    -15.0828E+06     732.737E+03         67.6979
             797     3.09757E-03     39.4089E-03         2.22603    -690.518E-03        -1.01927    -870.106E-03         2.19794    -811.587E-03     113.958E-03     511.263E-03    -254.848E-03    -256.415E-03    -254.810E-03     511.225E-03    -256.415E-03     9.79212E-03    -26.4189E+06    -46.3440E+06    -59.4616E+06    -46.4199E+06    -59.3857E+06    -26.4189E+06     480.612E+03         66.9400
             798     2.32312E-03     39.4323E-03         2.28769    -691.315E-03        -1.07982    -819.600E-03         2.12152    -785.363E-03    -521.291E-03     512.086E-03    -255.623E-03    -256.464E-03    -255.643E-03     512.080E-03    -256.437E-03     3.57125E-03    -39.4113E+06    -52.5565E+06    -68.7201E+06    -52.5798E+06    -68.6968E+06    -39.4113E+06     250.127E+03         66.3283
             799     1.54894E-03     39.4523E-03         2.22415    -709.916E-03    -988.093E-03    -757.360E-03         2.04994    -766.433E-03    -767.243E-03     512.689E-03    -256.272E-03    -256.417E-03    -256.331E-03     512.688E-03    -256.357E-03     453.581E-06    -49.6492E+06     -56.408E+06    -75.9505E+06    -56.4177E+06    -75.9408E+06    -49.6492E+06     236.399E+03         65.8777
             800     774.110E-06     39.4671E-03         2.26507    -674.896E-03        -1.05229    -473.441E-03         2.04603        -1.03470    -555.284E-03     512.463E-03    -255.399E-03    -257.064E-03    -257.042E-03     512.462E-03    -255.420E-03    -505.318E-06    -55.2708E+06    -58.3157E+06    -81.1366E+06    -57.2757E+06    -81.0996E+06    -56.3479E+06    -264.030E+03         65.5954
             801     13.1650E-03     39.8289E-03         2.05148    -574.773E-03    -755.045E-03    -553.835E-03         2.03054    -755.045E-03     90.2349E-03     534.371E-03    -256.540E-03    -277.830E-03    -261.073E-03     517.613E-03    -256.540E-03     216.019E-03     30.3031E+06    -1.46840E+06    -10.5040E+06    -1.67007E+06    -10.3023E+06     30.3031E+06     168.223E+03         82.4968
             802     12.3874E-03     39.3492E-03         2.18163    -596.710E-03    -856.744E-03    -582.582E-03         2.16750    -856.744E-03     238.356E-03     536.378E-03    -256.497E-03    -279.881E-03    -260.683E-03     517.181E-03    -256.497E-03     240.820E-03     25.4362E+06    -4.09888E+06    -13.1853E+06    -4.32381E+06    -12.9603E+06     25.4362E+06     494.202E+03         81.1399
             803     11.6192E-03     39.0938E-03         2.32831    -635.463E-03    -960.852E-03    -633.819E-03         2.32667    -960.852E-03     23.9048E-03     523.083E-03    -256.394E-03    -266.689E-03    -254.173E-03     510.567E-03    -256.394E-03     196.414E-03     22.0324E+06    -5.96653E+06    -16.2227E+06    -6.05981E+06    -16.1294E+06     22.0324E+06     406.816E+03         79.6930
             804     10.8445E-03     38.7826E-03         2.56184    -776.620E-03        -1.05785    -771.572E-03         2.55679        -1.05785     198.775E-03     519.199E-03    -256.357E-03    -262.842E-03    -250.384E-03     506.741E-03    -256.357E-03     195.022E-03     20.6701E+06    -7.34836E+06    -17.4502E+06    -7.37958E+06    -17.4189E+06     20.6701E+06    -10.9126E+03         78.2236
             805     10.0692E-03     38.5476E-03         2.83889    -975.556E-03        -1.14595    -962.843E-03         2.82617        -1.14595    -77.5706E-03     514.297E-03    -256.416E-03    -257.881E-03    -247.978E-03     504.394E-03    -256.416E-03     173.737E-03     20.3355E+06    -9.63502E+06    -18.9135E+06    -9.64727E+06    -18.9013E+06     20.3355E+06     11.5550E+03         76.7915
             806     9.29139E-03     38.3288E-03         3.07597        -1.12443        -1.24340        -1.13691         3.06516        -1.22010    -100.649E-03     513.440E-03    -256.464E-03    -256.976E-03    -248.199E-03     504.667E-03    -256.469E-03     163.263E-03     19.5622E+06    -12.4385E+06    -20.7309E+06    -12.4990E+06    -20.6704E+06     19.5622E+06     82.3798E+03         75.4313
             807     8.51843E-03     38.1357E-03         3.25633        -1.20805        -1.34462        -1.24972         3.23610        -1.28272     526.911E-03     511.893E-03    -255.431E-03    -256.462E-03    -248.708E-03     505.166E-03    -256.458E-03     142.542E-03     17.7532E+06    -16.0577E+06    -23.5707E+06    -16.1387E+06    -23.4897E+06     17.7532E+06     358.882E+03         74.1478
             808     7.74541E-03     37.9866E-03         3.34920        -1.26502        -1.37785        -1.28275         3.32518        -1.33609     177.733E-03     509.899E-03    -253.467E-03    -256.432E-03    -248.748E-03     505.180E-03    -256.432E-03     119.165E-03     15.5324E+06    -19.3773E+06    -26.4136E+06    -19.4332E+06    -26.3577E+06     15.5324E+06     567.659E+03         72.9283
             809     6.96822E-03     37.8663E-03         3.35579        -1.25349        -1.38871        -1.24562         3.34477        -1.38556    -267.468E-03     508.705E-03    -252.267E-03    -256.438E-03    -249.255E-03     505.692E-03    -256.438E-03     94.6147E-03     11.7577E+06    -22.3791E+06    -29.8484E+06    -22.4318E+06    -29.7957E+06     11.7577E+06     613.059E+03         71.7599
             810     6.19515E-03     37.7927E-03         3.34838        -1.19433        -1.43791        -1.16670         3.32075        -1.43791     338.066E-03     508.700E-03    -252.240E-03    -256.461E-03    -250.539E-03     507.000E-03    -256.461E-03     71.1394E-03     6.73757E+06    -25.8670E+06    -34.3573E+06    -26.0144E+06    -34.2099E+06     6.73757E+06     576.423E+03         70.6403
             811     5.42115E-03     37.7483E-03         3.35105        -1.13303        -1.50171        -1.08671         3.30473        -1.50171    -61.7390E-03     509.236E-03    -252.750E-03    -256.486E-03    -251.873E-03     508.358E-03    -256.486E-03     50.5648E-03     1.68793E+06    -30.1485E+06    -39.2794E+06    -30.2973E+06    -39.1306E+06     1.68793E+06     591.259E+03         69.5794
             812     4.64488E-03     37.7269E-03         3.39072        -1.09898        -1.58303        -1.06371         3.35545        -1.58303    -415.908E-03     509.969E-03    -253.455E-03    -256.514E-03    -253.085E-03     509.599E-03    -256.514E-03     32.8148E-03    -4.30197E+06    -35.0927E+06    -44.6349E+06    -35.1406E+06    -44.5869E+06    -4.30197E+06     637.404E+03         68.5968
             813     3.87192E-03     37.7252E-03         3.53976        -1.15321        -1.68211        -1.13101         3.51756        -1.68211    -121.782E-03     510.627E-03    -254.065E-03    -256.562E-03    -253.926E-03     510.488E-03    -256.562E-03     19.7562E-03    -13.9892E+06    -40.4997E+06    -51.8459E+06    -40.5874E+06    -51.7582E+06    -13.9892E+06     680.524E+03         67.7163
             814     3.09601E-03     37.7433E-03         3.79234        -1.29430        -1.79689        -1.27330         3.77135        -1.79689    -19.6745E-03     511.409E-03    -254.750E-03    -256.660E-03    -254.712E-03     511.371E-03    -256.660E-03     9.96093E-03    -26.0935E+06    -45.8096E+06    -60.1877E+06    -45.9418E+06    -60.0555E+06    -26.0935E+06     1.05606E+06         66.9616
             815     2.32026E-03     37.7599E-03         4.17908        -1.55589        -1.91780        -1.52327         4.14646        -1.91780    -396.105E-03     512.562E-03    -255.786E-03    -256.776E-03    -255.805E-03     512.555E-03    -256.750E-03     3.31872E-03    -38.9220E+06    -51.2495E+06    -68.9855E+06    -51.3263E+06    -68.9088E+06    -38.9220E+06     764.242E+03         66.3531
             816     1.54735E-03     37.7803E-03         4.58700        -1.85587        -2.02007        -1.82552         4.55665        -2.02007    -677.715E-03     513.306E-03    -256.501E-03    -256.805E-03    -256.570E-03     513.305E-03    -256.735E-03    -186.154E-06    -49.1735E+06    -55.0273E+06    -75.9471E+06    -55.0406E+06    -75.9338E+06    -49.1735E+06    -62.8104E+03         65.9052
             817     774.358E-06     37.7970E-03         4.83909        -1.82485        -2.30554        -1.80943         4.82367        -2.30554    -259.290E-03     513.305E-03    -256.225E-03    -257.081E-03    -256.265E-03     513.303E-03    -257.038E-03    -1.09624E-03    -54.0609E+06    -58.5321E+06    -81.5497E+06    -57.4749E+06    -81.5299E+06    -55.1379E+06     184.276E+03         65.6246
             818     13.1629E-03     38.1545E-03         2.74759    -665.454E-03        -1.16287    -648.672E-03         2.73081        -1.16287     128.120E-03     536.067E-03    -256.507E-03    -279.560E-03    -263.234E-03     519.741E-03    -256.507E-03     213.177E-03     30.5998E+06    -2.19906E+06    -11.3125E+06    -2.30586E+06    -11.2057E+06     30.5998E+06     30.7701E+03         82.4862
             819     12.3957E-03     37.6763E-03         2.91459    -710.505E-03        -1.28487    -696.877E-03         2.90096        -1.28487     304.813E-03     535.925E-03    -256.387E-03    -279.538E-03    -260.569E-03     516.956E-03    -256.387E-03     239.821E-03     26.1902E+06    -3.90386E+06    -13.4098E+06    -4.03211E+06    -13.2815E+06     26.1902E+06     61.8865E+03         81.1328
             820     11.6190E-03     37.4197E-03         3.15828    -829.259E-03        -1.40717    -823.331E-03         3.15235        -1.40717     210.645E-03     521.549E-03    -256.346E-03    -265.203E-03    -252.239E-03     508.586E-03    -256.346E-03     199.242E-03     21.8728E+06    -5.28165E+06    -16.5825E+06    -5.35586E+06    -16.5083E+06     21.8728E+06    -282.068E+03         79.6875
             821     10.8443E-03     37.1166E-03         3.46261        -1.02438        -1.51944        -1.01151         3.44974        -1.51944     473.794E-03     519.330E-03    -256.420E-03    -262.910E-03    -249.856E-03     506.275E-03    -256.420E-03     199.514E-03     20.3376E+06    -7.48567E+06    -18.3800E+06    -7.52322E+06    -18.3424E+06     20.3376E+06     135.181E+03         78.2198
             822     10.0655E-03     36.8828E-03         3.76764        -1.23276        -1.62270        -1.22422         3.75909        -1.62270     208.892E-03     515.186E-03    -256.508E-03    -258.678E-03    -248.523E-03     505.031E-03    -256.508E-03     176.095E-03     20.0957E+06    -9.41591E+06    -19.6529E+06    -9.43774E+06    -19.6310E+06     20.0957E+06     348.628E+03         76.7911
             823     9.29237E-03     36.6556E-03         4.04093        -1.42045        -1.71320        -1.41748         4.03796        -1.71320     88.9716E-03     513.661E-03    -256.192E-03    -257.469E-03    -248.396E-03     504.943E-03    -256.547E-03     162.724E-03     18.5162E+06    -12.2261E+06    -21.8619E+06    -12.3119E+06    -21.7761E+06     18.5162E+06     802.760E+03         75.4341
             824     8.51718E-03     36.4658E-03         4.28012        -1.57516        -1.79201        -1.55897         4.26392        -1.79201     509.570E-03     511.576E-03    -255.016E-03    -256.560E-03    -248.342E-03     504.902E-03    -256.560E-03     142.045E-03     17.8529E+06    -15.2106E+06    -24.0483E+06    -15.3313E+06    -23.9275E+06     17.8529E+06     948.066E+03         74.1522
             825     7.74222E-03     36.3125E-03         4.46728        -1.68266        -1.85829        -1.65168         4.43630        -1.85829    -89.8743E-03     510.121E-03    -253.565E-03    -256.556E-03    -248.828E-03     505.384E-03    -256.556E-03     119.303E-03     15.9179E+06    -18.2688E+06    -26.6159E+06    -18.3410E+06    -26.5437E+06     15.9179E+06     590.294E+03         72.9338
             826     6.97027E-03     36.2001E-03         4.56215        -1.70887        -1.91535        -1.68463         4.53790        -1.91535    -743.490E-03     509.063E-03    -252.509E-03    -256.553E-03    -249.516E-03     506.070E-03    -256.553E-03     94.4417E-03     11.6556E+06    -21.7633E+06    -30.4179E+06    -21.7960E+06    -30.3852E+06     11.6556E+06     288.234E+03         71.7671
             827     6.19263E-03     36.1218E-03         4.59611        -1.68053        -1.96965        -1.67156         4.58714        -1.96965    -237.267E-03     508.975E-03    -252.408E-03    -256.566E-03    -250.724E-03     507.290E-03    -256.566E-03     70.6320E-03     6.68427E+06    -25.8629E+06    -35.2266E+06    -25.9292E+06    -35.1602E+06     6.68427E+06     203.556E+03         70.6498
             828     5.41890E-03     36.0756E-03         4.69029        -1.71680        -2.03034        -1.66879         4.63886        -2.02692    -738.235E-03     509.564E-03    -252.990E-03    -256.573E-03    -252.112E-03     508.686E-03    -256.573E-03     50.9264E-03     1.15000E+06    -30.1251E+06    -40.3522E+06    -30.2095E+06    -40.2677E+06     1.15000E+06     509.269E+03         69.5915
             829     4.64722E-03     36.0573E-03         4.76823        -1.73397        -2.09632        -1.67472         4.70556        -2.09290        -1.20727     510.070E-03    -253.478E-03    -256.592E-03    -253.073E-03     509.665E-03    -256.592E-03     34.1604E-03    -5.79723E+06    -34.4143E+06    -45.8739E+06    -34.4505E+06    -45.8377E+06    -5.79723E+06     463.863E+03         68.6115
             830     3.86921E-03     36.0588E-03         4.85920        -1.74791        -2.17428        -1.71839         4.82969        -2.17428    -873.310E-03     510.931E-03    -254.294E-03    -256.637E-03    -254.156E-03     510.793E-03    -256.637E-03     19.3874E-03    -14.2626E+06    -39.4491E+06    -52.5756E+06    -39.5149E+06    -52.5098E+06    -14.2626E+06     508.643E+03         67.7334
             831     3.09543E-03     36.0701E-03         5.09648        -1.87238        -2.27882        -1.85407         5.07077        -2.27142    -802.122E-03     511.997E-03    -255.338E-03    -256.660E-03    -255.307E-03     511.967E-03    -256.660E-03     8.61335E-03    -24.0635E+06    -44.6180E+06    -59.9780E+06    -44.7336E+06    -59.8625E+06    -24.0635E+06     792.383E+03         66.9809
             832     2.32349E-03     36.0893E-03         5.43243        -2.10438        -2.38355        -2.08152         5.39826        -2.37224    -960.324E-03     512.530E-03    -255.869E-03    -256.661E-03    -255.865E-03     512.527E-03    -256.661E-03     2.16227E-03    -35.1248E+06    -49.1525E+06    -67.5723E+06    -49.2642E+06    -67.4606E+06    -35.1248E+06     777.427E+03         66.3740
             833     1.54772E-03     36.1090E-03         5.74172        -2.34347        -2.46989        -2.29126         5.68560        -2.46598        -1.30416     512.893E-03    -256.167E-03    -256.726E-03    -256.175E-03     512.892E-03    -256.717E-03    -1.11944E-03    -46.2402E+06    -53.4463E+06    -75.2645E+06    -53.5674E+06    -75.1434E+06    -46.2402E+06     819.610E+03         65.9268
             834     773.358E-06     36.1234E-03         5.99773        -2.37471        -2.70099        -2.32307         5.94609        -2.70099    -195.427E-03     513.453E-03    -255.795E-03    -257.658E-03    -256.678E-03     513.451E-03    -256.772E-03    -2.48918E-03    -53.0640E+06    -58.6385E+06    -82.6483E+06    -56.9412E+06    -82.5525E+06    -54.8570E+06     322.537E+03         65.6467
             835     13.1706E-03     36.4780E-03         3.48750    -821.691E-03        -1.57347    -807.418E-03         3.47323        -1.57347     167.447E-03     535.839E-03    -256.434E-03    -279.405E-03    -262.586E-03     519.020E-03    -256.434E-03     215.687E-03     30.9932E+06    -1.95044E+06    -11.3833E+06    -1.98562E+06    -11.3481E+06     30.9932E+06    -121.246E+03         82.4681
             836     12.3928E-03     36.0060E-03         3.75975    -938.105E-03        -1.70684    -926.224E-03         3.74787        -1.70684     373.583E-03     534.426E-03    -256.422E-03    -278.004E-03    -258.400E-03     514.822E-03    -256.422E-03     243.207E-03     25.4520E+06    -3.48254E+06    -13.9230E+06    -3.53272E+06    -13.8729E+06     25.4520E+06    -465.830E+03         81.1156
             837     11.6160E-03     35.7570E-03         4.05811        -1.09129        -1.83643        -1.08485         4.05167        -1.83643     302.752E-03     520.869E-03    -256.516E-03    -264.353E-03    -251.154E-03     507.670E-03    -256.516E-03     200.981E-03     20.6443E+06    -5.66828E+06    -17.8984E+06    -5.72847E+06    -17.8382E+06     20.6443E+06    -33.5809E+03         79.6742
             838     10.8363E-03     35.4448E-03         4.37754        -1.28779        -1.95433        -1.27463         4.36438        -1.95433     537.992E-03     520.491E-03    -256.611E-03    -263.880E-03    -250.874E-03     507.485E-03    -256.611E-03     199.242E-03     19.6055E+06    -7.44670E+06    -19.1639E+06    -7.47387E+06    -19.1367E+06     19.6055E+06     435.984E+03         78.2139
             839     10.0666E-03     35.2098E-03         4.69434        -1.49631        -2.06258        -1.48840         4.68643        -2.06258     212.296E-03     516.633E-03    -256.611E-03    -260.022E-03    -250.032E-03     506.642E-03    -256.611E-03     175.009E-03     19.1076E+06    -9.68314E+06    -20.8035E+06    -9.72504E+06    -20.7616E+06     19.1076E+06     571.751E+03         76.7927
             840     9.29189E-03     34.9850E-03         4.99888        -1.70082        -2.15650        -1.69929         4.99734        -2.15650    -70.2536E-03     513.890E-03    -256.067E-03    -257.823E-03    -248.647E-03     505.233E-03    -256.586E-03     162.222E-03     18.7955E+06    -12.3791E+06    -22.5275E+06    -12.4431E+06    -22.4635E+06     18.7955E+06     676.255E+03         75.4396
             841     8.51705E-03     34.7974E-03         5.26173        -1.86322        -2.23810        -1.85846         5.25697        -2.23810     245.293E-03     511.149E-03    -254.540E-03    -256.609E-03    -247.908E-03     504.517E-03    -256.609E-03     141.510E-03     18.4295E+06    -14.5033E+06    -24.0557E+06    -14.5960E+06    -23.9630E+06     18.4295E+06     435.934E+03         74.1581
             842     7.74251E-03     34.6407E-03         5.47837        -1.98493        -2.30991        -1.96152         5.45495        -2.30991    -290.068E-03     509.941E-03    -253.307E-03    -256.634E-03    -248.638E-03     505.273E-03    -256.634E-03     118.366E-03     15.6524E+06    -17.3687E+06    -27.0028E+06    -17.4512E+06    -26.9203E+06     15.6524E+06     417.907E+03         72.9392
             843     6.96611E-03     34.5288E-03         5.68292        -2.10925        -2.37231        -2.08450         5.65817        -2.37231    -797.957E-03     509.632E-03    -253.016E-03    -256.616E-03    -250.090E-03     506.706E-03    -256.616E-03     93.4383E-03     11.4009E+06    -21.3563E+06    -31.4186E+06    -21.4185E+06    -31.3564E+06     11.4009E+06     512.923E+03         71.7728
             844     6.19559E-03     34.4503E-03         5.88847        -2.26595        -2.41861        -2.25919         5.88171        -2.41861    -189.345E-03     509.007E-03    -252.406E-03    -256.601E-03    -250.756E-03     507.357E-03    -256.601E-03     69.9217E-03     6.79491E+06    -25.4030E+06    -36.1146E+06    -25.4844E+06    -36.0331E+06     6.79491E+06     533.557E+03         70.6562
             845     5.41979E-03     34.4078E-03         6.09052        -2.40214        -2.48847        -2.41293         6.05579        -2.44295    -593.392E-03     509.085E-03    -252.431E-03    -256.654E-03    -251.571E-03     508.225E-03    -256.654E-03     50.3613E-03     1.40563E+06    -29.1551E+06    -40.7090E+06    -29.2058E+06    -40.6583E+06     1.40563E+06     448.286E+03         69.5988
             846     4.64163E-03     34.3858E-03         6.19761        -2.40839        -2.59011        -2.51067         6.15511        -2.44532    -979.208E-03     510.600E-03    -253.911E-03    -256.688E-03    -253.522E-03     510.210E-03    -256.688E-03     33.3919E-03    -6.05783E+06    -34.1174E+06    -46.9426E+06    -34.1461E+06    -46.9139E+06    -6.05783E+06     378.352E+03         68.6199
             847     3.87204E-03     34.3866E-03         6.21619        -2.37266        -2.63568        -2.56453         6.19948        -2.42711    -516.722E-03     511.771E-03    -255.153E-03    -256.617E-03    -255.021E-03     511.638E-03    -256.617E-03     19.1850E-03    -14.4974E+06    -38.8956E+06    -53.5332E+06    -38.9143E+06    -53.5145E+06    -14.4974E+06     179.195E+03         67.7435
             848     3.09823E-03     34.3990E-03         6.16320        -2.37568        -2.57787        -2.54440         6.14724        -2.39319    -428.183E-03     512.033E-03    -255.521E-03    -256.513E-03    -255.487E-03     511.999E-03    -256.513E-03     9.12298E-03    -23.4948E+06    -42.9697E+06    -59.8851E+06    -42.9746E+06    -59.8801E+06    -23.4948E+06    -9.10000E+03         66.9920
             849     2.32156E-03     34.4197E-03         6.04594        -2.35487        -2.48715        -2.46372         6.02251        -2.35487    -464.624E-03     512.291E-03    -255.851E-03    -256.440E-03    -255.848E-03     512.287E-03    -256.440E-03     2.81816E-03    -34.3640E+06    -47.7352E+06    -67.6834E+06    -47.7939E+06    -67.6247E+06    -34.3640E+06     594.304E+03         66.3852
             850     1.54885E-03     34.4375E-03         5.94715        -2.30559        -2.45915        -2.38491         5.88774        -2.32042        -1.10488     512.581E-03    -256.055E-03    -256.526E-03    -256.208E-03     512.579E-03    -256.371E-03    -1.15218E-03    -44.0483E+06    -51.9463E+06    -75.0681E+06    -52.0611E+06    -74.9533E+06    -44.0483E+06     1.12767E+06         65.9380
             851     774.223E-06     34.4549E-03         5.90813        -2.29376        -2.45611        -2.26028         5.76906        -2.35053     313.011E-03     512.572E-03    -255.475E-03    -257.098E-03    -256.505E-03     512.571E-03    -256.066E-03    -2.04921E-03    -50.0995E+06    -55.1179E+06    -81.1931E+06    -53.4286E+06    -81.0895E+06    -51.8925E+06     621.483E+03         65.6576
             852     13.1645E-03     34.8113E-03         4.31214        -1.05675        -1.96542        -1.04652         4.30191        -1.96542     196.343E-03     533.510E-03    -256.528E-03    -276.982E-03    -259.834E-03     516.362E-03    -256.528E-03     217.724E-03     30.1004E+06    -1.35638E+06    -11.7756E+06    -1.40449E+06    -11.7274E+06     30.1004E+06    -51.2347E+03         82.4436
             853     12.3880E-03     34.3358E-03         4.68181        -1.25274        -2.09653        -1.24382         4.67289        -2.09653     305.573E-03     534.411E-03    -256.634E-03    -277.777E-03    -257.981E-03     514.615E-03    -256.634E-03     244.011E-03     24.2138E+06    -3.64759E+06    -15.0891E+06    -3.66009E+06    -15.0766E+06     24.2138E+06     35.5871E+03         81.0963
             854     11.6127E-03     34.0895E-03         5.00974        -1.42967        -2.21947        -1.42692         5.00699        -2.21947     174.129E-03     523.291E-03    -256.669E-03    -266.622E-03    -253.787E-03     510.456E-03    -256.669E-03     199.050E-03     21.2446E+06    -5.63723E+06    -18.2035E+06    -5.63981E+06    -18.2009E+06     21.2446E+06     159.699E+03         79.6657
             855     10.8419E-03     33.7741E-03         5.31749        -1.61594        -2.32907        -1.60923         5.31078        -2.32907     404.779E-03     521.067E-03    -256.625E-03    -264.442E-03    -251.877E-03     508.502E-03    -256.625E-03     196.235E-03     19.8204E+06    -7.45613E+06    -19.8589E+06    -7.48492E+06    -19.8301E+06     19.8204E+06     518.552E+03         78.2154
             856     10.0650E-03     33.5348E-03         5.60486        -1.79386        -2.42996        -1.78886         5.59986        -2.42996     103.321E-03     515.470E-03    -256.614E-03    -258.856E-03    -248.998E-03     505.612E-03    -256.614E-03     173.597E-03     18.6468E+06    -9.70742E+06    -21.7650E+06    -9.75209E+06    -21.7203E+06     18.6468E+06     659.931E+03         76.7978
             857     9.29135E-03     33.3166E-03         5.82873        -1.91082        -2.52355        -1.90912         5.82703        -2.52355    -120.020E-03     513.872E-03    -256.464E-03    -257.408E-03    -248.562E-03     505.195E-03    -256.633E-03     162.460E-03     18.8800E+06    -11.7955E+06    -22.6888E+06    -11.8133E+06    -22.6709E+06     18.8800E+06     247.618E+03         75.4442
             858     8.51726E-03     33.1241E-03         6.02361        -1.99280        -2.61704        -1.98562         6.01643        -2.61704     325.506E-03     511.967E-03    -255.299E-03    -256.668E-03    -248.708E-03     505.330E-03    -256.622E-03     141.583E-03     17.8457E+06    -14.6095E+06    -24.9302E+06    -14.6267E+06    -24.9130E+06     17.8457E+06    -44.7236E+03         74.1617
             859     7.74201E-03     32.9744E-03         6.27390        -2.12752        -2.70965        -2.11317         6.25955        -2.70965    -33.6861E-03     510.302E-03    -253.713E-03    -256.589E-03    -249.119E-03     505.708E-03    -256.589E-03     117.536E-03     15.5148E+06    -17.7458E+06    -28.1210E+06    -17.8000E+06    -28.0667E+06     15.5148E+06     398.071E+03         72.9414
             860     6.97002E-03     32.8529E-03         6.57471        -2.33166        -2.79301        -2.32223         6.56527        -2.79301    -395.006E-03     509.105E-03    -252.539E-03    -256.566E-03    -249.686E-03     506.251E-03    -256.566E-03     92.0489E-03     11.6094E+06    -20.8615E+06    -32.0409E+06    -20.9401E+06    -31.9623E+06     11.6094E+06     687.453E+03         71.7729
             861     6.19280E-03     32.7829E-03         6.88945        -2.58126        -2.85666        -2.57137         6.87957        -2.85666     341.977E-03     508.829E-03    -252.256E-03    -256.573E-03    -250.666E-03     507.238E-03    -256.573E-03     68.8383E-03     6.88233E+06    -23.9036E+06    -36.1065E+06    -23.9612E+06    -36.0489E+06     6.88233E+06     420.680E+03         70.6547
             862     5.41808E-03     32.7372E-03         7.18875        -2.80746        -2.93347        -2.83399         7.17319        -2.89137    -2.76346E-03     509.693E-03    -253.120E-03    -256.573E-03    -252.280E-03     508.853E-03    -256.573E-03     49.5938E-03     1.10644E+06    -28.6549E+06    -41.6523E+06    -28.6984E+06    -41.6088E+06     1.10644E+06     498.233E+03         69.5968
             863     4.64759E-03     32.7147E-03         7.38011        -2.88724        -3.04332        -3.03288         7.37262        -2.89019    -396.736E-03     510.342E-03    -253.784E-03    -256.558E-03    -253.428E-03     509.986E-03    -256.558E-03     32.0563E-03    -5.13913E+06    -33.4707E+06    -47.4523E+06    -33.5185E+06    -47.4045E+06    -5.13913E+06     468.334E+03         68.6179
             864     3.86964E-03     32.7137E-03         7.38678        -2.85606        -3.07744        -3.07575         7.38615        -2.85711     72.2814E-03     511.070E-03    -254.528E-03    -256.542E-03    -254.401E-03     510.943E-03    -256.542E-03     18.7794E-03    -13.5761E+06    -37.6791E+06    -53.5848E+06    -37.7012E+06    -53.5627E+06    -13.5761E+06     224.632E+03         67.7410
             865     3.09562E-03     32.7294E-03         7.25955        -2.80621        -2.99862        -2.99681         7.25880        -2.80726     168.261E-03     512.151E-03    -255.572E-03    -256.579E-03    -255.655E-03     512.118E-03    -256.462E-03     9.02826E-03    -23.9993E+06    -42.4790E+06    -60.9689E+06    -42.4939E+06    -60.9540E+06    -23.9993E+06    -46.9420E+03         66.9892
             866     2.32385E-03     32.7483E-03         7.09700        -2.75243        -2.89493        -2.89376         7.09583        -2.75243     159.199E-03     512.421E-03    -256.004E-03    -256.417E-03    -256.118E-03     512.417E-03    -256.299E-03     2.29397E-03    -34.0417E+06    -46.1125E+06    -67.8823E+06    -46.1288E+06    -67.8660E+06    -34.0417E+06     55.4286E+03         66.3824
             867     1.54857E-03     32.7675E-03         6.94669        -2.67144        -2.84116        -2.78359         6.91656        -2.69888    -651.545E-03     512.178E-03    -255.860E-03    -256.318E-03    -256.014E-03     512.177E-03    -256.163E-03    -1.04159E-03    -44.2914E+06    -49.8151E+06    -75.4674E+06    -49.6286E+06    -75.4635E+06    -44.4817E+06     66.1217E+03         65.9349
             868     775.330E-06     32.7841E-03         6.87502        -2.56442        -2.91251        -2.74775         6.73769        -2.59187     652.445E-03     512.175E-03    -255.108E-03    -257.067E-03    -256.441E-03     512.174E-03    -255.733E-03    -1.81557E-03    -50.8903E+06    -53.3905E+06    -82.4198E+06    -53.3336E+06    -82.2864E+06    -51.0806E+06    -573.482E+03         65.6543
             869     13.1643E-03     33.1401E-03         5.11612        -1.29856        -2.30413        -1.29340         5.11096        -2.30413     153.209E-03     533.527E-03    -256.675E-03    -276.852E-03    -260.107E-03     516.782E-03    -256.675E-03     216.068E-03     29.7065E+06    -1.91310E+06    -13.1334E+06    -1.95080E+06    -13.0957E+06     29.7065E+06    -93.3363E+03         82.4271
             870     12.3858E-03     32.6761E-03         5.52364        -1.54229        -2.42380        -1.53694         5.51829        -2.42380     147.562E-03     535.687E-03    -256.703E-03    -278.984E-03    -259.749E-03     516.452E-03    -256.703E-03     241.114E-03     25.0069E+06    -3.60805E+06    -15.4913E+06    -3.65227E+06    -15.4471E+06     25.0069E+06     342.287E+03         81.0887
             871     11.6139E-03     32.4020E-03         5.85292        -1.73238        -2.53390        -1.73093         5.85147        -2.53390    -22.3005E-03     523.449E-03    -256.651E-03    -266.798E-03    -254.214E-03     510.865E-03    -256.651E-03     197.129E-03     22.2833E+06    -5.17729E+06    -18.1459E+06    -5.21853E+06    -18.1047E+06     22.2833E+06     258.244E+03         79.6661
             872     10.8421E-03     32.1066E-03         6.10637        -1.87078        -2.63331        -1.86824         6.10383        -2.63331     247.950E-03     520.540E-03    -256.605E-03    -263.935E-03    -251.307E-03     507.912E-03    -256.605E-03     196.839E-03     20.7893E+06    -7.17208E+06    -19.9368E+06    -7.19842E+06    -19.9105E+06     20.7893E+06     223.141E+03         78.2191
             873     10.0666E-03     31.8686E-03         6.28790        -1.94611        -2.73212        -1.94296         6.28474        -2.73212     37.2219E-03     515.669E-03    -256.615E-03    -259.054E-03    -249.012E-03     505.627E-03    -256.615E-03     175.194E-03     19.0647E+06    -9.61003E+06    -22.1975E+06    -9.62991E+06    -22.1776E+06     19.0647E+06     311.714E+03         76.8015
             874     9.29005E-03     31.6439E-03         6.45836        -2.01032        -2.83361        -2.00814         6.45618        -2.83361    -161.591E-03     514.056E-03    -256.574E-03    -257.482E-03    -248.873E-03     505.493E-03    -256.620E-03     161.389E-03     18.4539E+06    -11.8547E+06    -23.6995E+06    -11.8586E+06    -23.6955E+06     18.4539E+06     102.943E+03         75.4461
             875     8.51615E-03     31.4525E-03         6.69303        -2.13132        -2.93708        -2.12503         6.68674        -2.93708     272.563E-03     512.274E-03    -255.662E-03    -256.613E-03    -249.207E-03     505.774E-03    -256.567E-03     140.191E-03     17.4469E+06    -14.4154E+06    -25.9162E+06    -14.4457E+06    -25.8858E+06     17.4469E+06     478.985E+03         74.1605
             876     7.74489E-03     31.2999E-03         6.98819        -2.31716        -3.03576        -2.30497         6.97601        -3.03576    -63.8774E-03     510.364E-03    -253.872E-03    -256.492E-03    -249.325E-03     505.817E-03    -256.492E-03     117.020E-03     15.2725E+06    -17.2682E+06    -28.9225E+06    -17.3467E+06    -28.8440E+06     15.2725E+06     242.776E+03         72.9362
             877     6.96847E-03     31.1858E-03         7.30034        -2.53506        -3.12349        -2.52492         7.29020        -3.12349    -469.488E-03     508.944E-03    -252.494E-03    -256.450E-03    -249.662E-03     506.112E-03    -256.450E-03     91.6170E-03     11.6566E+06    -20.3607E+06    -32.6082E+06    -20.4303E+06    -32.5386E+06     11.6566E+06     10.4689E+03         71.7637
             878     6.19489E-03     31.1132E-03         7.60209        -2.76509        -3.19577        -2.75491         7.59192        -3.19577     159.706E-03     509.025E-03    -252.604E-03    -256.421E-03    -251.056E-03     507.477E-03    -256.421E-03     67.9297E-03     6.83364E+06    -24.2873E+06    -37.2289E+06    -24.3344E+06    -37.1818E+06     6.83364E+06     578.655E+03         70.6423
             879     5.42224E-03     31.0631E-03         7.86152        -2.97382        -3.25153        -2.95078         7.83848        -3.25153    -289.962E-03     509.543E-03    -253.170E-03    -256.373E-03    -252.353E-03     508.725E-03    -256.373E-03     48.9970E-03     1.71052E+06    -27.8595E+06    -41.8569E+06    -27.9209E+06    -41.7956E+06     1.71052E+06     608.931E+03         69.5819
             880     4.64506E-03     31.0461E-03         8.03986        -3.10398        -3.30454        -3.09489         8.01901        -3.29278    -764.485E-03     509.851E-03    -253.509E-03    -256.341E-03    -253.152E-03     509.494E-03    -256.341E-03     32.1689E-03    -5.31539E+06    -32.0876E+06    -47.5631E+06    -32.1233E+06    -47.5275E+06    -5.31539E+06     106.364E+03         68.6011
             881     3.87243E-03     31.0458E-03         8.15421        -3.18493        -3.33521        -3.18345         8.14098        -3.32346    -454.721E-03     510.742E-03    -254.415E-03    -256.326E-03    -254.292E-03     510.618E-03    -256.326E-03     18.2938E-03    -13.7697E+06    -37.0877E+06    -54.3414E+06    -37.0924E+06    -54.3367E+06    -13.7697E+06     42.2012E+03         67.7227
             882     3.09785E-03     31.0559E-03         8.24749        -3.24514        -3.36097        -3.24984         8.23811        -3.34690    -307.808E-03     511.770E-03    -255.411E-03    -256.359E-03    -255.502E-03     511.744E-03    -256.242E-03     7.81329E-03    -22.4776E+06    -41.4481E+06    -61.0001E+06    -41.4916E+06    -60.9565E+06    -22.4776E+06     277.529E+03         66.9702
             883     2.32300E-03     31.0773E-03         8.28469        -3.26380        -3.39080        -3.27706         8.27641        -3.36926    -365.633E-03     512.062E-03    -255.797E-03    -256.265E-03    -256.004E-03     512.059E-03    -256.055E-03     1.00366E-03    -33.3169E+06    -46.6177E+06    -69.1178E+06    -46.6619E+06    -69.0735E+06    -33.3169E+06     229.600E+03         66.3629
             884     1.54936E-03     31.1001E-03         8.36816        -3.30249        -3.45567        -3.35033         8.34793        -3.38759    -838.378E-03     511.578E-03    -255.541E-03    -256.036E-03    -255.632E-03     511.576E-03    -255.944E-03    -2.03020E-03    -43.0650E+06    -50.4867E+06    -76.3858E+06    -50.2996E+06    -76.3825E+06    -43.2553E+06     36.6437E+03         65.9152
             885     772.751E-06     31.1143E-03         8.43398        -3.17833        -3.65573        -3.57804         8.38374        -3.20578    -144.827E-03     511.802E-03    -255.091E-03    -256.712E-03    -256.268E-03     511.800E-03    -255.532E-03    -1.48419E-03    -50.1933E+06    -54.9548E+06    -84.1684E+06    -53.2617E+06    -83.9486E+06    -52.1062E+06     95.0099E+03         65.6345
             886     13.1601E-03     31.4763E-03         5.73906        -1.45163        -2.56408        -1.44941         5.73685        -2.56408     103.207E-03     535.893E-03    -256.710E-03    -279.183E-03    -262.567E-03     519.277E-03    -256.710E-03     215.152E-03     29.6406E+06    -2.23982E+06    -13.9722E+06    -2.26553E+06    -13.9465E+06     29.6406E+06     10.3475E+03         82.4218
             887     12.3921E-03     30.9929E-03         6.10249        -1.67626        -2.67269        -1.67314         6.09937        -2.67269     30.0088E-03     536.748E-03    -256.636E-03    -280.111E-03    -260.882E-03     517.519E-03    -256.636E-03     241.528E-03     26.1552E+06    -3.21204E+06    -15.4603E+06    -3.28140E+06    -15.3910E+06     26.1552E+06     57.1624E+03         81.0886
             888     11.6178E-03     30.7410E-03         6.38349        -1.83357        -2.77603        -1.83238         6.38230        -2.77603    -130.726E-03     521.743E-03    -256.613E-03    -265.130E-03    -252.386E-03     508.999E-03    -256.613E-03     197.799E-03     22.8755E+06    -4.89856E+06    -18.5182E+06    -4.99175E+06     -18.425E+06     22.8755E+06     220.509E+03         79.6677
             889     10.8370E-03     30.4331E-03         6.59330        -1.94014        -2.87595        -1.93884         6.59199        -2.87595     145.662E-03     520.262E-03    -256.648E-03    -263.614E-03    -250.899E-03     507.547E-03    -256.648E-03     197.196E-03     19.8300E+06    -7.60584E+06    -21.2054E+06    -7.64321E+06     -21.168E+06     19.8300E+06     295.674E+03         78.2195
             890     10.0646E-03     30.1956E-03         6.82191        -2.07519        -2.97639        -2.07163         6.81836        -2.97639    -59.9371E-03     517.200E-03    -256.615E-03    -260.585E-03    -250.655E-03     507.270E-03    -256.615E-03     174.578E-03     19.3960E+06    -9.52236E+06    -22.7681E+06    -9.52785E+06    -22.7626E+06     19.3960E+06     183.164E+03         76.8009
             891     9.29344E-03     29.9729E-03         7.11991        -2.28639        -3.07053        -2.28350         7.11702        -3.07053    -289.629E-03     514.805E-03    -256.465E-03    -258.340E-03    -249.835E-03     506.345E-03    -256.510E-03     160.563E-03     19.6673E+06    -11.4831E+06    -23.9765E+06    -11.4939E+06    -23.9657E+06     19.6673E+06     276.988E+03         75.4427
             892     8.51986E-03     29.7807E-03         7.42690        -2.51296        -3.15231        -2.51106         7.42500        -3.15231     48.6150E-03     511.665E-03    -255.109E-03    -256.557E-03    -248.843E-03     505.260E-03    -256.417E-03     139.152E-03     17.6421E+06    -13.8089E+06    -26.4249E+06    -13.8446E+06    -26.3892E+06     17.6421E+06     324.135E+03         74.1508
             893     7.74318E-03     29.6290E-03         7.69864        -2.71633        -3.21949        -2.70458         7.68689        -3.21949    -335.022E-03     509.773E-03    -253.411E-03    -256.362E-03    -248.938E-03     505.299E-03    -256.362E-03     115.908E-03     14.7243E+06    -16.5487E+06    -29.5833E+06    -16.6710E+06    -29.4610E+06     14.7243E+06     210.665E+03         72.9190
             894     6.97067E-03     29.5162E-03         7.90903        -2.87463        -3.27437        -2.85791         7.89231        -3.27437    -840.400E-03     509.323E-03    -253.031E-03    -256.292E-03    -250.243E-03     506.535E-03    -256.292E-03     91.1015E-03     11.0372E+06    -20.2407E+06    -33.6655E+06    -20.3562E+06    -33.5500E+06     11.0372E+06     196.561E+03         71.7402
             895     6.19687E-03     29.4396E-03         8.02590        -2.95243        -3.32319        -2.94545         8.01892        -3.32319    -271.308E-03     509.142E-03    -252.954E-03    -256.188E-03    -251.403E-03     507.591E-03    -256.188E-03     67.8903E-03     6.75430E+06    -23.8906E+06    -37.9395E+06    -23.9264E+06    -37.9036E+06     6.75430E+06     232.797E+03         70.6140
             896     5.42088E-03     29.3965E-03         8.13200        -3.02029        -3.37495        -2.98777         8.09948        -3.37495    -743.969E-03     509.114E-03    -253.018E-03    -256.097E-03    -252.233E-03     508.330E-03    -256.097E-03     47.8649E-03     1.84069E+06    -27.4226E+06    -42.4436E+06    -27.4628E+06    -42.4033E+06     1.84069E+06     285.144E+03         69.5497
             897     4.64777E-03     29.3759E-03         8.24290        -3.07914        -3.43564        -3.04005         8.20380        -3.43564        -1.24562     509.731E-03    -253.715E-03    -256.017E-03    -253.393E-03     509.410E-03    -256.017E-03     30.2900E-03    -4.21314E+06    -31.5063E+06    -47.7441E+06    -31.5620E+06    -47.6884E+06    -4.21314E+06     534.954E+03         68.5659
             898     3.87267E-03     29.3739E-03         8.37940        -3.14522        -3.50675        -3.12490         8.35908        -3.50675    -950.512E-03     510.216E-03    -254.286E-03    -255.930E-03    -254.180E-03     510.110E-03    -255.930E-03     17.1442E-03    -13.0405E+06    -36.1349E+06    -54.5768E+06    -36.1661E+06    -54.5456E+06    -13.0405E+06     480.968E+03         67.6855
             899     3.09878E-03     29.3882E-03         8.58952        -3.27938        -3.58452        -3.26539         8.57553        -3.58452    -581.500E-03     510.395E-03    -254.492E-03    -255.904E-03    -254.465E-03     510.369E-03    -255.904E-03     7.99560E-03    -23.5015E+06    -41.2677E+06    -62.4346E+06    -41.3009E+06    -62.4014E+06    -23.5015E+06     410.545E+03         66.9314
             900     2.32465E-03     29.4065E-03         8.83268        -3.45543        -3.66158        -3.43386         8.81110        -3.66158    -745.657E-03     510.959E-03    -254.907E-03    -256.052E-03    -254.995E-03     510.955E-03    -255.960E-03     1.85805E-03    -33.4844E+06    -45.9932E+06    -69.8155E+06    -46.0259E+06    -69.7828E+06    -33.4844E+06     285.712E+03         66.3233
             901     1.54999E-03     29.4321E-03         9.08276        -3.60820        -3.77830        -3.64027         9.05422        -3.71769    -680.511E-03     511.749E-03    -255.464E-03    -256.285E-03    -255.783E-03     511.746E-03    -255.964E-03    -492.775E-06    -42.2411E+06    -49.5554E+06    -76.5465E+06    -49.5563E+06    -76.5456E+06    -42.2411E+06     44.2829E+03         65.8757
             902     776.613E-06     29.4474E-03         9.20937        -3.51002        -4.02837        -3.92604         9.14342        -3.54641        -1.06618     511.762E-03    -255.388E-03    -256.374E-03    -256.147E-03     511.759E-03    -255.612E-03    -878.424E-06    -47.0104E+06    -52.3906E+06    -82.3840E+06    -50.7843E+06    -82.2677E+06    -48.7330E+06     944.456E+03         65.5954
             903     13.1655E-03     29.7999E-03         6.12172        -1.49447        -2.74448        -1.49306         6.12032        -2.74448     98.1316E-03     536.090E-03    -256.678E-03    -279.412E-03    -262.575E-03     519.253E-03    -256.678E-03     216.168E-03     30.3616E+06    -1.06307E+06    -13.4190E+06    -1.11477E+06    -13.3673E+06     30.3616E+06     396.947E+03         82.4186
             904     12.3886E-03     29.3194E-03         6.38091        -1.63914        -2.84951        -1.63711         6.37888        -2.84951     30.0939E-03     535.565E-03    -256.661E-03    -278.903E-03    -259.407E-03     516.068E-03    -256.661E-03     242.689E-03     25.0119E+06    -3.42172E+06    -16.6833E+06    -3.49285E+06    -16.6122E+06     25.0119E+06     303.259E+03         81.0849
             905     11.6119E-03     29.0740E-03         6.61386        -1.76677        -2.95570        -1.76600         6.61309        -2.95570    -99.2725E-03     522.698E-03    -256.667E-03    -266.031E-03    -253.165E-03     509.832E-03    -256.667E-03     199.008E-03     20.5172E+06    -6.07916E+06    -20.7384E+06    -6.13686E+06    -20.6807E+06     20.5172E+06     154.902E+03         79.6637
             906     10.8414E-03     28.7623E-03         6.90956        -1.97574        -3.05945        -1.97286         6.90669        -3.05945     215.938E-03     522.070E-03    -256.618E-03    -265.452E-03    -252.790E-03     509.408E-03    -256.618E-03     197.129E-03     19.6612E+06    -7.12707E+06    -21.7363E+06    -7.15642E+06    -21.7069E+06     19.6612E+06     358.937E+03         78.2153
             907     10.0671E-03     28.5219E-03         7.29801        -2.28935        -3.15418        -2.28481         7.29347        -3.15418     137.268E-03     517.131E-03    -256.502E-03    -260.629E-03    -250.922E-03     507.424E-03    -256.502E-03     172.658E-03     20.1433E+06    -8.66264E+06    -22.7621E+06    -8.67226E+06    -22.7525E+06     20.1433E+06     290.878E+03         76.7924
             908     9.29333E-03     28.2973E-03         7.69874        -2.62663        -3.23095        -2.62436         7.69647        -3.23095    -1.58813E-03     514.521E-03    -256.375E-03    -258.145E-03    -249.739E-03     506.115E-03    -256.375E-03     160.076E-03     19.8237E+06    -11.0841E+06    -24.4395E+06    -11.1018E+06    -24.4218E+06     19.8237E+06     243.877E+03         75.4252
             909     8.51971E-03     28.1120E-03         8.00858        -2.88482        -3.28929        -2.87941         8.00316        -3.28929     329.002E-03     511.862E-03    -255.365E-03    -256.497E-03    -249.219E-03     505.475E-03    -256.256E-03     138.924E-03     17.9804E+06    -13.5968E+06    -26.9970E+06    -13.6130E+06    -26.9809E+06     17.9804E+06    -83.3744E+03         74.1227
             910     7.74675E-03     27.9595E-03         8.20308        -3.03879        -3.33462        -3.02736         8.19165        -3.33462     99.7608E-03     509.806E-03    -253.659E-03    -256.147E-03    -249.275E-03     505.422E-03    -256.147E-03     114.766E-03     14.8740E+06    -16.1058E+06    -30.1719E+06    -16.1753E+06    -30.1024E+06     14.8740E+06     248.607E+03         72.8806
             911     6.97149E-03     27.8437E-03         8.29791        -3.10769        -3.37461        -3.09704         8.28726        -3.37461    -268.535E-03     508.974E-03    -252.937E-03    -256.036E-03    -250.199E-03     506.235E-03    -256.036E-03     90.3108E-03     10.5781E+06    -19.3642E+06    -34.1503E+06    -19.4542E+06    -34.0603E+06     10.5781E+06     499.800E+03         71.6926
             912     6.19757E-03     27.7702E-03         8.33099        -3.12334        -3.41642        -3.10805         8.31570        -3.41642     338.626E-03     509.133E-03    -253.250E-03    -255.883E-03    -251.752E-03     507.635E-03    -255.883E-03     66.5520E-03     6.19608E+06    -23.1124E+06    -38.5058E+06    -23.1618E+06    -38.4564E+06     6.19608E+06     376.467E+03         70.5595
             913     5.42512E-03     27.7261E-03         8.35930        -3.12640        -3.46672        -3.09601         8.32892        -3.46672    -97.4721E-03     509.196E-03    -253.509E-03    -255.688E-03    -252.780E-03     508.467E-03    -255.688E-03     46.2554E-03     1.66339E+06    -27.1233E+06    -43.2480E+06    -27.1650E+06    -43.2062E+06     1.66339E+06     477.515E+03         69.4909
             914     4.65071E-03     27.7052E-03         8.40908        -3.12491        -3.53134        -3.09819         8.38236        -3.53134    -475.626E-03     508.903E-03    -253.372E-03    -255.531E-03    -253.065E-03     508.596E-03    -255.531E-03     29.6255E-03    -4.14182E+06    -31.3760E+06    -48.5664E+06    -31.4268E+06    -48.5155E+06    -4.14182E+06     676.893E+03         68.5041
             915     3.87629E-03     27.7084E-03         8.50776        -3.14867        -3.61538        -3.13629         8.49537        -3.61538    -158.561E-03     508.817E-03    -253.328E-03    -255.489E-03    -253.226E-03     508.716E-03    -255.489E-03     16.7418E-03    -12.2641E+06    -35.7844E+06    -54.9336E+06    -35.8847E+06    -54.8333E+06    -12.2641E+06     1.05667E+06         67.6214
             916     3.09961E-03     27.7195E-03         8.76780        -3.31514        -3.71553        -3.28643         8.73908        -3.71553     380.583E-03     509.151E-03    -253.561E-03    -255.590E-03    -253.537E-03     509.128E-03    -255.590E-03     7.37949E-03    -23.3340E+06    -40.4491E+06    -62.7473E+06    -40.5396E+06    -62.6567E+06    -23.3340E+06     909.936E+03         66.8660
             917     2.32261E-03     27.7422E-03         9.08844        -3.54222        -3.82009        -3.50094         9.04716        -3.82009    -38.1331E-03     510.102E-03    -254.279E-03    -255.823E-03    -254.275E-03     510.098E-03    -255.823E-03     1.16337E-03    -33.7915E+06    -43.8852E+06    -69.6626E+06    -43.9116E+06    -69.6362E+06    -33.7915E+06     79.5207E+03         66.2574
             918     1.54666E-03     27.7606E-03         9.43198        -3.75412        -3.95978        -3.74619         9.37639        -3.91211     291.055E-03     511.503E-03    -255.242E-03    -256.261E-03    -255.465E-03     511.497E-03    -256.032E-03    -1.37502E-03    -42.7945E+06    -47.3472E+06    -76.4544E+06    -47.3541E+06    -76.4475E+06    -42.7945E+06    -244.337E+03         65.8101
             919     772.967E-06     27.7763E-03         9.88438        -3.74082        -4.44864        -4.12677         9.59890        -3.77720        -1.63894     512.136E-03    -255.187E-03    -256.948E-03    -256.717E-03     512.131E-03    -255.413E-03    -1.69100E-03    -47.4290E+06    -50.3920E+06    -82.0039E+06    -49.7468E+06    -81.9766E+06    -48.1015E+06    -665.362E+03         65.5304
             920     13.1634E-03     28.1260E-03         6.28693        -1.46002        -2.86305        -1.45867         6.28558        -2.86305     144.878E-03     535.428E-03    -256.713E-03    -278.715E-03    -261.789E-03     518.501E-03    -256.713E-03     217.436E-03     29.6234E+06    -1.82388E+06    -14.5272E+06    -1.86698E+06    -14.4841E+06     29.6234E+06     264.703E+03         82.4106
             921     12.3874E-03     27.6574E-03         6.47971        -1.55868        -2.96796        -1.55686         6.47789        -2.96796     48.6874E-03     535.450E-03    -256.717E-03    -278.734E-03    -259.373E-03     516.090E-03    -256.717E-03     241.594E-03     24.3478E+06    -3.35350E+06    -17.3397E+06    -3.39789E+06    -17.2953E+06     24.3478E+06     450.460E+03         81.0756
             922     11.6136E-03     27.3969E-03         6.74402        -1.73842        -3.07387        -1.73704         6.74264        -3.07387     4.32434E-03     524.182E-03    -256.659E-03    -267.523E-03    -254.913E-03     511.572E-03    -256.659E-03     197.480E-03     20.3247E+06    -4.88625E+06    -20.5675E+06    -4.89655E+06    -20.5572E+06     20.3247E+06     329.206E+03         79.6520
             923     10.8404E-03     27.0863E-03         7.10435        -2.02729        -3.17277        -2.02042         7.09748        -3.17277     434.115E-03     522.811E-03    -256.505E-03    -266.306E-03    -253.785E-03     510.291E-03    -256.505E-03     196.416E-03     19.5966E+06    -6.40539E+06    -21.9051E+06    -6.42530E+06    -21.8852E+06     19.5966E+06     378.729E+03         78.1972
             924     10.0696E-03     26.8485E-03         7.46992        -2.32859        -3.26091        -2.32148         7.46282        -3.26091     478.034E-03     516.954E-03    -256.337E-03    -260.618E-03    -250.933E-03     507.270E-03    -256.337E-03     172.419E-03     19.3848E+06    -8.34461E+06    -23.4642E+06    -8.36885E+06    -23.4400E+06     19.3848E+06     293.209E+03         76.7618
             925     9.29495E-03     26.6302E-03         7.79216        -2.58637        -3.33841        -2.58022         7.78602        -3.33841     435.423E-03     514.212E-03    -256.193E-03    -258.019E-03    -249.745E-03     505.938E-03    -256.193E-03     158.774E-03     18.9663E+06    -10.6108E+06    -25.1643E+06    -10.6310E+06    -25.1441E+06     18.9663E+06     89.3838E+03         75.3780
             926     8.52129E-03     26.4358E-03         8.04630        -2.77531        -3.41037        -2.76074         8.03173        -3.41037     751.200E-03     511.894E-03    -255.435E-03    -256.459E-03    -249.631E-03     505.667E-03    -256.036E-03     137.139E-03     17.6092E+06    -13.2973E+06    -27.6142E+06    -13.3124E+06    -27.5991E+06     17.6092E+06         829.840         74.0583
             927     7.74857E-03     26.2898E-03         8.21095        -2.87901        -3.48287        -2.86856         8.20049        -3.48287     597.715E-03     510.058E-03    -254.212E-03    -255.847E-03    -249.923E-03     505.770E-03    -255.847E-03     113.682E-03     14.3999E+06    -15.9619E+06    -30.9059E+06    -15.9814E+06    -30.8863E+06     14.3999E+06     67.9801E+03         72.8010
             928     6.97469E-03     26.1755E-03         8.36646        -2.97886        -3.55840        -2.97709         8.36468        -3.55840     267.317E-03     509.057E-03    -253.420E-03    -255.637E-03    -250.753E-03     506.390E-03    -255.637E-03     88.9107E-03     10.4820E+06    -19.1043E+06    -34.8309E+06    -19.1471E+06    -34.7881E+06     10.4820E+06     542.402E+03         71.6012
             929     6.20091E-03     26.0979E-03         8.56144        -3.12472        -3.63488        -3.09925         8.53596        -3.63488     887.442E-03     508.413E-03    -252.996E-03    -255.416E-03    -251.590E-03     507.007E-03    -255.416E-03     64.5564E-03     6.11164E+06    -22.6446E+06    -39.0318E+06    -22.6938E+06    -38.9827E+06     6.11164E+06     807.495E+03         70.4597
             930     5.42715E-03     26.0555E-03         8.72295        -3.23271        -3.71198        -3.20573         8.69598        -3.71198     533.215E-03     507.921E-03    -252.691E-03    -255.230E-03    -251.986E-03     507.216E-03    -255.230E-03     45.4166E-03     1.20012E+06    -26.4357E+06    -43.5832E+06    -26.4840E+06    -43.5349E+06     1.20012E+06     701.519E+03         69.3857
             931     4.65211E-03     26.0406E-03         8.88398        -3.33500        -3.79059        -3.32482         8.87380        -3.79059     208.528E-03     507.734E-03    -252.605E-03    -255.129E-03    -252.301E-03     507.429E-03    -255.129E-03     29.6214E-03    -5.69600E+06    -30.9857E+06    -49.5287E+06    -31.0380E+06    -49.4764E+06    -5.69600E+06     740.109E+03         68.3963
             932     3.87577E-03     26.0406E-03         9.07777        -3.45838        -3.87175        -3.45049         9.06988        -3.87175     454.920E-03     508.231E-03    -253.126E-03    -255.105E-03    -253.021E-03     508.127E-03    -255.105E-03     16.8054E-03    -13.1854E+06    -35.2110E+06    -55.5659E+06    -35.3093E+06    -55.4676E+06    -13.1854E+06     862.823E+03         67.5135
             933     3.10099E-03     26.0567E-03         9.33937        -3.64309        -3.95760        -3.59202         9.28830        -3.95760         1.17828     509.024E-03    -253.838E-03    -255.186E-03    -253.908E-03     509.004E-03    -255.096E-03     6.43644E-03    -21.4029E+06    -39.0636E+06    -61.7318E+06    -39.1787E+06    -61.6167E+06    -21.4029E+06     1.16677E+06         66.7592
             934     2.32615E-03     26.0740E-03         9.59616        -3.82527        -4.04917        -3.75752         9.52841        -4.04917     507.141E-03     509.640E-03    -254.384E-03    -255.256E-03    -254.591E-03     509.637E-03    -255.046E-03    -393.318E-06    -32.2268E+06    -43.9514E+06    -69.7910E+06    -44.0677E+06    -69.6747E+06    -32.2268E+06     1.19066E+06         66.1519
             935     1.55203E-03     26.0936E-03         9.95750        -4.01718        -4.23299        -3.99226         9.82950        -4.12991         1.10140     509.821E-03    -254.588E-03    -255.233E-03    -254.838E-03     509.815E-03    -254.978E-03    -3.82156E-03      -41.13E+06    -47.3173E+06    -76.2151E+06    -47.3924E+06    -76.1400E+06      -41.13E+06     311.737E+03         65.7051
             936     775.389E-06     26.1075E-03         10.6195        -4.02935        -4.89410        -4.29768         10.0231        -4.02935        -2.10154     509.833E-03    -254.325E-03    -255.509E-03    -255.275E-03     509.826E-03    -254.551E-03    -3.94369E-03    -48.0667E+06    -50.6570E+06    -82.6125E+06    -50.0279E+06    -82.5641E+06    -48.7441E+06    -161.355E+03         65.4255
             937     13.1615E-03     26.4579E-03         6.34112        -1.44610        -2.93029        -1.44530         6.34032        -2.93029     107.017E-03     535.612E-03    -256.789E-03    -278.823E-03    -262.049E-03     518.838E-03    -256.789E-03     216.931E-03     27.8722E+06    -2.24189E+06    -15.7412E+06    -2.25170E+06    -15.7314E+06     27.8722E+06     4.89808E+03         82.3950
             938     12.3879E-03     25.9833E-03         6.57602        -1.60042        -3.02533        -1.59941         6.57500        -3.02533     31.5832E-03     537.935E-03    -256.705E-03    -281.230E-03    -261.969E-03     518.674E-03    -256.705E-03     242.011E-03     23.9142E+06    -3.41945E+06    -17.7735E+06    -3.43163E+06    -17.7613E+06     23.9142E+06     235.151E+03         81.0554
             939     11.6161E-03     25.7224E-03         6.86533        -1.82315        -3.11571        -1.82195         6.86413        -3.11571     40.4638E-03     525.313E-03    -256.516E-03    -268.797E-03    -256.309E-03     512.825E-03    -256.516E-03     196.958E-03     21.1065E+06    -4.00875E+06    -20.0891E+06    -4.03811E+06    -20.0597E+06     21.1065E+06     601.607E+03         79.6219
             940     10.8442E-03     25.4135E-03         7.13726        -2.03671        -3.19860        -2.02920         7.12975        -3.19860     464.050E-03     521.961E-03    -256.303E-03    -265.658E-03    -253.476E-03     509.779E-03    -256.303E-03     193.576E-03     18.8993E+06    -6.31497E+06    -22.5030E+06    -6.36067E+06    -22.4573E+06     18.8993E+06     520.737E+03         78.1484
             941     10.0689E-03     25.1751E-03         7.35135        -2.18802        -3.27835        -2.18052         7.34385        -3.27835     467.557E-03     516.769E-03    -256.104E-03    -260.665E-03    -251.249E-03     507.353E-03    -256.104E-03     170.022E-03     18.3628E+06    -8.15405E+06    -24.2746E+06    -8.18189E+06    -24.2468E+06     18.3628E+06     130.745E+03         76.6881
             942     9.29803E-03     24.9567E-03         7.52379        -2.28967        -3.36048        -2.28425         7.51837        -3.36048     317.586E-03     514.418E-03    -255.886E-03    -258.532E-03    -250.496E-03     506.382E-03    -255.886E-03     156.553E-03     17.8236E+06    -10.0689E+06    -25.8680E+06    -10.0830E+06    -25.8539E+06     17.8236E+06     205.026E+03         75.2776
             943     8.52541E-03     24.7660E-03         7.69085        -2.37612        -3.45003        -2.36683         7.68156        -3.45003     417.277E-03     511.314E-03    -255.056E-03    -256.258E-03    -249.604E-03     505.271E-03    -255.667E-03     135.088E-03     16.4054E+06    -12.3931E+06    -28.0862E+06    -12.4297E+06    -28.0496E+06     16.4054E+06     399.545E+03         73.9315
             944     7.75038E-03     24.6196E-03         7.90074        -2.50132        -3.54818        -2.49479         7.89420        -3.54818     136.924E-03     509.940E-03    -254.513E-03    -255.427E-03    -250.334E-03     505.761E-03    -255.427E-03     112.208E-03     13.2864E+06    -15.8418E+06    -31.8343E+06    -15.8867E+06    -31.7894E+06     13.2864E+06     553.103E+03         72.6514
             945     6.97891E-03     24.5012E-03         8.17812        -2.69702        -3.65147        -2.69180         8.17290        -3.65147    -232.265E-03     508.805E-03    -253.668E-03    -255.138E-03    -251.086E-03     506.224E-03    -255.138E-03     87.4649E-03     9.91303E+06    -19.3866E+06    -35.8251E+06    -19.4417E+06    -35.7700E+06     9.91303E+06     849.441E+03         71.4349
             946     6.20579E-03     24.4324E-03         8.52864        -2.96397        -3.75378        -2.94577         8.51044        -3.75378     337.532E-03     506.844E-03    -251.933E-03    -254.910E-03    -250.565E-03     505.475E-03    -254.910E-03     63.6753E-03     5.76198E+06    -22.1011E+06    -39.4543E+06    -22.1797E+06    -39.3756E+06     5.76198E+06     1.02534E+06         70.2825
             947     5.42893E-03     24.3893E-03         8.91717        -3.27536        -3.84624        -3.24653         8.88834        -3.84624    -48.5504E-03     506.561E-03    -251.764E-03    -254.797E-03    -251.073E-03     505.870E-03    -254.797E-03     44.8009E-03     90.2074E+03    -25.6665E+06    -44.1522E+06    -25.7604E+06    -44.0582E+06     90.2074E+03     1.22446E+06         69.2029
             948     4.65347E-03     24.3750E-03         9.27286        -3.56491        -3.91950        -3.54776         9.25571        -3.91950    -310.872E-03     507.590E-03    -252.830E-03    -254.759E-03    -252.636E-03     507.314E-03    -254.678E-03     27.8315E-03    -5.92677E+06    -29.7585E+06    -49.4360E+06    -29.8505E+06    -49.3440E+06    -5.92677E+06     1.32054E+06         68.2131
             949     3.87843E-03     24.3764E-03         9.54516        -3.76417        -4.00215        -3.78637         9.53414        -3.96894    -93.9107E-03     508.041E-03    -253.462E-03    -254.579E-03    -253.466E-03     507.963E-03    -254.498E-03     14.0456E-03    -13.1981E+06    -33.6456E+06    -55.1541E+06    -33.7387E+06    -55.0609E+06    -13.1981E+06     1.01377E+06         67.3332
             950     3.10316E-03     24.3883E-03         9.73781        -3.87873        -4.09240        -3.92740         9.69136        -3.99729     682.047E-03     508.156E-03    -253.756E-03    -254.400E-03    -253.835E-03     508.144E-03    -254.309E-03     4.91320E-03    -21.9624E+06    -38.6310E+06    -62.2917E+06    -38.7158E+06    -62.2069E+06    -21.9624E+06     599.499E+03         66.5825
             951     2.32850E-03     24.4099E-03         9.81751        -3.96675        -4.10535        -3.98514         9.74401        -4.01346     34.2641E-03     508.193E-03    -253.865E-03    -254.327E-03    -254.074E-03     508.192E-03    -254.117E-03     186.066E-06    -30.2371E+06    -42.3730E+06    -68.6611E+06    -42.4726E+06    -68.5614E+06    -30.2371E+06     1.01198E+06         65.9785
             952     1.55216E-03     24.4283E-03         9.94023        -4.01774        -4.20283        -4.01484         9.75881        -4.02431         1.06062     507.865E-03    -253.663E-03    -254.201E-03    -253.917E-03     507.863E-03    -253.946E-03    -1.98183E-03    -39.3040E+06    -45.5578E+06    -75.3294E+06    -45.6709E+06    -75.2162E+06    -39.3040E+06     1.34524E+06         65.5342
             953     777.457E-06     24.4474E-03         10.6477        -3.95336        -4.98889        -4.10895         9.76779        -3.95336        -2.69176     507.684E-03    -253.441E-03    -254.242E-03    -254.064E-03     507.677E-03    -253.614E-03    -1.72866E-03    -46.8817E+06    -48.6020E+06    -81.9748E+06    -48.6651E+06    -81.9068E+06    -46.8867E+06     1.11420E+06         65.2561
             954     13.1595E-03     24.7816E-03         6.42257        -1.53496        -2.93784        -1.53443         6.42204        -2.93784     67.6412E-03     537.438E-03    -256.773E-03    -280.665E-03    -264.157E-03     520.930E-03    -256.773E-03     216.462E-03     28.7268E+06    -1.40351E+06    -15.1688E+06    -1.43450E+06    -15.1378E+06     28.7268E+06     545.603E+03         82.3648
             955     12.3885E-03     24.3064E-03         6.71186        -1.76507        -3.00921        -1.76405         6.71085        -3.00921    -4.67562E-03     538.642E-03    -256.555E-03    -282.087E-03    -263.368E-03     519.923E-03    -256.555E-03     238.735E-03     23.5942E+06    -3.22011E+06    -17.9266E+06    -3.23291E+06    -17.9138E+06     23.5942E+06     349.870E+03         81.0119
             956     11.6180E-03     24.0438E-03         6.94993        -1.95746        -3.07227        -1.95677         6.94924        -3.07227    -40.1599E-03     524.908E-03    -256.281E-03    -268.626E-03    -256.384E-03     512.665E-03    -256.281E-03     194.810E-03     19.2667E+06    -5.09240E+06    -21.7569E+06    -5.14780E+06    -21.7015E+06     19.2667E+06     23.9968E+03         79.5548
             957     10.8467E-03     23.7407E-03         7.11709        -2.08453        -3.13036        -2.08099         7.11356        -3.13036     267.287E-03     522.345E-03    -256.012E-03    -266.333E-03    -254.299E-03     510.311E-03    -256.012E-03     192.454E-03     17.9251E+06    -6.30595E+06    -23.2499E+06    -6.37829E+06    -23.1776E+06     17.9251E+06     25.3280E+03         78.0486
             958     10.0755E-03     23.5054E-03         7.22719        -2.15174        -3.18884        -2.14766         7.22311        -3.18884     161.249E-03     517.281E-03    -255.716E-03    -261.565E-03    -252.386E-03     508.102E-03    -255.716E-03     168.052E-03     17.4963E+06    -7.87254E+06    -24.7450E+06    -7.90911E+06    -24.7084E+06     17.4963E+06     464.741E+03         76.5502
             959     9.30218E-03     23.2802E-03         7.32327        -2.19204        -3.25258        -2.19116         7.32240        -3.25258    -103.031E-03     513.977E-03    -255.403E-03    -258.575E-03    -250.906E-03     506.309E-03    -255.403E-03     152.825E-03     16.7376E+06    -9.95649E+06    -26.5743E+06    -9.97259E+06    -26.5582E+06     16.7376E+06     385.324E+03         75.0992
             960     8.52842E-03     23.1009E-03         7.45564        -2.26018        -3.32381        -2.26001         7.45547        -3.32381    -56.2343E-03     510.999E-03    -254.945E-03    -256.054E-03    -250.187E-03     505.282E-03    -255.095E-03     131.487E-03     15.3506E+06     -12.208E+06    -29.0182E+06    -12.2692E+06    -28.9570E+06     15.3506E+06     750.518E+03         73.7142
             961     7.75649E-03     22.9449E-03         7.65816        -2.39474        -3.40202        -2.39104         7.65446        -3.40202    -279.891E-03     508.733E-03    -253.742E-03    -254.990E-03    -249.969E-03     504.765E-03    -254.796E-03     109.117E-03     11.9981E+06    -15.1357E+06    -32.7448E+06    -15.2723E+06    -32.6082E+06     11.9981E+06     1.41486E+06         72.4004
             962     6.98236E-03     22.8343E-03         7.96075        -2.62697        -3.48237        -2.61762         7.95140        -3.48237    -624.072E-03     506.715E-03    -252.167E-03    -254.547E-03    -249.758E-03     504.305E-03    -254.547E-03     84.3686E-03     8.36289E+06    -17.9353E+06    -36.1205E+06    -18.0651E+06    -35.9907E+06     8.36289E+06     1.38558E+06         71.1576
             963     6.20609E-03     22.7658E-03         8.32763        -2.93381        -3.55573        -2.92404         8.31787        -3.55573    -66.6611E-03     506.108E-03    -251.758E-03    -254.349E-03    -250.491E-03     504.841E-03    -254.349E-03     60.9636E-03     4.42946E+06    -21.3996E+06    -40.1942E+06    -21.5458E+06    -40.0480E+06     4.42946E+06     1.62574E+06         69.9888
             964     5.43152E-03     22.7272E-03         8.69855        -3.25384        -3.61332        -3.22543         8.67015        -3.61332    -488.236E-03     506.393E-03    -252.252E-03    -254.142E-03    -251.652E-03     505.793E-03    -254.142E-03     41.4997E-03     218.243E+03    -24.8584E+06    -44.4304E+06    -25.0328E+06    -44.2560E+06     218.243E+03     1.82538E+06         68.9023
             965     4.65670E-03     22.7060E-03         8.99282        -3.50299        -3.65955        -3.48827         8.96836        -3.64980    -771.911E-03     506.716E-03    -252.743E-03    -253.973E-03    -252.599E-03     506.491E-03    -253.892E-03     24.9996E-03    -4.93117E+06    -27.9373E+06    -48.4823E+06    -28.0583E+06    -48.3613E+06    -4.93117E+06     1.51718E+06         67.9121
             966     3.88352E-03     22.7111E-03         9.18904        -3.62779        -3.72953        -3.67947         9.17302        -3.66184    -642.687E-03     506.788E-03    -253.028E-03    -253.760E-03    -253.118E-03     506.728E-03    -253.611E-03     12.4687E-03    -13.1930E+06    -32.6822E+06    -55.0503E+06    -32.7940E+06    -54.9385E+06    -13.1930E+06     1.52325E+06         67.0358
             967     3.10706E-03     22.7280E-03         9.27849        -3.64977        -3.80687        -3.76477         9.23639        -3.64977     181.398E-03     506.301E-03    -252.854E-03    -253.447E-03    -252.913E-03     506.292E-03    -253.379E-03     3.96637E-03    -22.1260E+06    -36.6176E+06    -61.7104E+06    -36.7741E+06    -61.5539E+06    -22.1260E+06     1.44122E+06         66.2911
             968     2.32939E-03     22.7461E-03         9.26039        -3.61941        -3.83468        -3.74987         9.17557        -3.61941    -396.605E-03     505.987E-03    -252.693E-03    -253.294E-03    -252.691E-03     505.985E-03    -253.294E-03    -1.16130E-03    -30.5347E+06    -39.6619E+06    -67.8315E+06    -39.7485E+06    -67.7449E+06    -30.5347E+06     687.399E+03         65.6934
             969     1.55294E-03     22.7698E-03         9.26071        -3.57765        -3.89647        -3.68183         9.04606        -3.57765     781.598E-03     506.260E-03    -252.883E-03    -253.378E-03    -252.916E-03     506.256E-03    -253.339E-03    -3.27729E-03    -38.5329E+06    -43.2068E+06    -74.6151E+06    -43.2583E+06    -74.5635E+06    -38.5329E+06     492.332E+03         65.2547
             970     774.420E-06     22.7833E-03         9.94957        -3.50214        -4.68969        -3.61287         8.87275        -3.50214        -3.10416     506.714E-03    -253.028E-03    -253.687E-03    -253.499E-03     506.704E-03    -253.205E-03    -2.70205E-03    -43.6887E+06    -45.2617E+06    -80.1078E+06    -45.3400E+06    -80.0295E+06    -43.6887E+06     1.00221E+06         64.9806
             971     13.1651E-03     23.1082E-03         6.42081        -1.62424        -2.86852        -1.62381         6.42038        -2.86852     67.6227E-03     539.978E-03    -256.646E-03    -283.332E-03    -266.954E-03     523.600E-03    -256.646E-03     216.185E-03     28.3282E+06    -2.83246E+06    -16.4318E+06    -2.91913E+06    -16.3452E+06     28.3282E+06    -244.897E+03         82.3110
             972     12.3959E-03     22.6265E-03         6.69441        -1.85642        -2.91099        -1.85396         6.69195        -2.91099    -96.5420E-03     538.708E-03    -256.323E-03    -282.385E-03    -263.763E-03     520.086E-03    -256.323E-03     238.373E-03     24.6192E+06    -2.53856E+06    -17.5093E+06    -2.57714E+06    -17.4707E+06     24.6192E+06     191.380E+03         80.9368
             973     11.6227E-03     22.3755E-03         6.87089        -2.00879        -2.94605        -2.00629         6.86839        -2.94605    -208.730E-03     525.457E-03    -255.995E-03    -269.462E-03    -257.342E-03     513.337E-03    -255.995E-03     194.121E-03     19.9103E+06    -4.02775E+06    -21.4422E+06    -4.13804E+06    -21.3319E+06     19.9103E+06     425.090E+03         79.4442
             974     10.8487E-03     22.0637E-03         6.97706        -2.09999        -2.97933        -2.09908         6.97615        -2.97933     58.6043E-03     523.532E-03    -255.602E-03    -267.929E-03    -256.310E-03     511.912E-03    -255.602E-03     189.279E-03     17.2736E+06    -5.76621E+06    -23.8149E+06    -5.87497E+06    -23.7061E+06     17.2736E+06     543.322E+03         77.8923
             975     10.0793E-03     21.8276E-03         7.06898        -2.17418        -3.01375        -2.17298         7.06778        -3.01375     43.6244E-03     517.686E-03    -255.143E-03    -262.542E-03    -253.876E-03     509.019E-03    -255.143E-03     163.434E-03     16.4409E+06    -7.56404E+06    -25.5141E+06    -7.59788E+06    -25.4803E+06     16.4409E+06     731.727E+03         76.3405
             976     9.30847E-03     21.6136E-03         7.19768        -2.27423        -3.05073        -2.27332         7.19677        -3.05073    -71.4779E-03     514.046E-03    -254.678E-03    -259.369E-03    -252.182E-03     506.859E-03    -254.678E-03     148.006E-03     16.5337E+06    -9.58794E+06    -27.1158E+06    -9.71252E+06    -26.9912E+06     16.5337E+06     1.04552E+06         74.8322
             977     8.53722E-03     21.4266E-03         7.34667        -2.38446        -3.08866        -2.38359         7.34581        -3.08866     61.4025E-03     510.695E-03    -254.207E-03    -256.487E-03    -251.228E-03     505.435E-03    -254.207E-03     126.136E-03     14.1173E+06    -12.3868E+06    -30.2736E+06    -12.5964E+06    -30.0640E+06     14.1173E+06     1.65805E+06         73.3913
             978     7.76366E-03     21.2806E-03         7.53667        -2.53171        -3.12637        -2.52769         7.53265        -3.12637     49.2403E-03     507.398E-03    -252.994E-03    -254.404E-03    -250.141E-03     503.913E-03    -253.772E-03     101.786E-03     10.7540E+06    -14.2186E+06    -33.1327E+06    -14.4199E+06    -32.9314E+06     10.7540E+06     1.90405E+06         72.0279
             979     6.98697E-03     21.1710E-03         7.76784        -2.73389        -3.15974        -2.72785         7.76180        -3.15974    -131.633E-03     505.081E-03    -251.655E-03    -253.426E-03    -249.717E-03     503.140E-03    -253.423E-03     75.0544E-03     7.81657E+06    -16.2744E+06    -35.9445E+06    -16.4640E+06    -35.7549E+06     7.81657E+06     1.85544E+06         70.7452
             980     6.21272E-03     21.1007E-03         7.97727        -2.92649        -3.18574        -2.90795         7.95873        -3.18574     469.027E-03     504.766E-03    -251.672E-03    -253.093E-03    -250.746E-03     503.840E-03    -253.093E-03     51.4801E-03     3.79810E+06    -20.0201E+06    -40.2146E+06    -20.1867E+06    -40.0480E+06     3.79810E+06     1.76779E+06         69.5480
             981     5.43915E-03     21.0594E-03         8.13921        -3.07878        -3.20445        -3.05058         8.11101        -3.20445     115.768E-03     504.434E-03    -251.688E-03    -252.746E-03    -251.298E-03     504.044E-03    -252.746E-03     32.9946E-03    -338.571E+03    -23.6028E+06    -44.2793E+06    -23.8008E+06    -44.0813E+06    -338.571E+03     1.98381E+06         68.4445
             982     4.66378E-03     21.0465E-03         8.23920        -3.15457        -3.22700        -3.14478         8.21965        -3.21726    -205.360E-03     503.480E-03    -250.994E-03    -252.486E-03    -250.860E-03     503.346E-03    -252.486E-03     18.6176E-03    -5.23529E+06    -26.8453E+06    -48.4457E+06    -27.0903E+06    -48.2007E+06    -5.23529E+06     2.23623E+06         67.4464
             983     3.88432E-03     21.0489E-03         8.28308        -3.15156        -3.26395        -3.16992         8.26696        -3.22947    -175.660E-03     503.596E-03    -251.199E-03    -252.396E-03    -251.232E-03     503.561E-03    -252.328E-03     7.98287E-03    -12.6472E+06    -30.6401E+06    -54.0432E+06    -30.8149E+06    -53.8684E+06    -12.6472E+06     1.89779E+06         66.5695
             984     3.10938E-03     21.0670E-03         8.35513        -3.16557        -3.30887        -3.17796         8.30553        -3.24687     541.347E-03     504.124E-03    -251.715E-03    -252.409E-03    -251.963E-03     504.116E-03    -252.154E-03     394.908E-06    -21.2564E+06    -34.3453E+06    -60.2598E+06    -34.4788E+06    -60.1264E+06    -21.2564E+06     1.71261E+06         65.8299
             985     2.33286E-03     21.0908E-03         8.45536        -3.18975        -3.38907        -3.22422         8.36643        -3.26568    -78.5457E-03     503.862E-03    -251.632E-03    -252.230E-03    -251.873E-03     503.855E-03    -251.982E-03    -4.02955E-03    -29.5625E+06    -37.9969E+06    -66.9978E+06    -38.1081E+06    -66.8867E+06    -29.5625E+06     1.38306E+06         65.2402
             986     1.55467E-03     21.1091E-03         8.61773        -3.23426        -3.52279        -3.26148         8.40127        -3.27910     971.526E-03     503.733E-03    -251.696E-03    -252.036E-03    -251.853E-03     503.723E-03    -251.870E-03    -5.38702E-03    -36.3186E+06    -41.2264E+06    -73.2115E+06    -41.2807E+06    -73.1573E+06    -36.3186E+06     622.878E+03         64.8092
             987     779.631E-06     21.1263E-03         9.49055        -3.30284        -4.34775        -3.26605         8.40885        -3.30284        -2.95685     503.611E-03    -251.497E-03    -252.114E-03    -252.098E-03     503.600E-03    -251.502E-03    -4.37212E-03    -40.5561E+06    -43.2964E+06    -78.3759E+06    -42.5807E+06    -78.3144E+06    -41.3334E+06     466.195E+03         64.5406
             988     13.1654E-03     21.4181E-03         6.15959        -1.54614        -2.70489        -1.54574         6.15918        -2.70489    -2.27591E-03     540.456E-03    -256.501E-03    -283.955E-03    -267.574E-03     524.075E-03    -256.501E-03     217.831E-03     25.4489E+06    -2.76098E+06    -17.7375E+06    -2.88108E+06    -17.6174E+06     25.4489E+06    -925.152E+03         82.2473
             989     12.3933E-03     20.9573E-03         6.33241        -1.69726        -2.72335        -1.69293         6.32807        -2.72335    -264.274E-03     540.780E-03    -256.063E-03    -284.718E-03    -266.574E-03     522.636E-03    -256.063E-03     235.473E-03     21.6854E+06    -3.82808E+06    -20.1420E+06    -3.92175E+06    -20.0484E+06     21.6854E+06    -542.313E+03         80.8507
             990     11.6228E-03     20.6923E-03         6.44808        -1.80892        -2.74046        -1.80455         6.44371        -2.74046    -309.079E-03     528.169E-03    -255.483E-03    -272.686E-03    -261.443E-03     516.925E-03    -255.483E-03     187.793E-03     19.1555E+06    -3.80030E+06    -21.9426E+06    -3.88613E+06    -21.8568E+06     19.1555E+06     657.242E+03         79.3201
             991     10.8597E-03     20.3868E-03         6.56290        -1.92836        -2.76034        -1.92765         6.56219        -2.76034     14.2299E-03     524.345E-03    -254.793E-03    -269.551E-03    -259.181E-03     513.974E-03    -254.793E-03     178.947E-03     16.9454E+06    -5.27390E+06    -24.0496E+06    -5.34518E+06    -23.9783E+06     16.9454E+06     888.985E+03         77.7131
             992     10.0884E-03     20.1560E-03         6.70814        -2.07732        -2.77920        -2.07686         6.70769        -2.77920     116.439E-03     517.224E-03    -254.079E-03    -263.146E-03    -255.672E-03     509.751E-03    -254.079E-03     151.763E-03     15.6618E+06    -7.35796E+06    -26.3964E+06    -7.40963E+06    -26.3448E+06     15.6618E+06      877.01E+03         76.0913
             993     9.31831E-03     19.9384E-03         6.89003        -2.25572        -2.79400        -2.25556         6.88987        -2.79400     49.1273E-03     513.485E-03    -253.359E-03    -260.126E-03    -254.074E-03     507.433E-03    -253.359E-03     135.527E-03     15.4273E+06    -8.85528E+06    -27.7231E+06    -9.05103E+06    -27.5273E+06     15.4273E+06     1.69707E+06         74.5051
             994     8.54710E-03     19.7600E-03         7.06220        -2.41368        -2.80163        -2.41271         7.06124        -2.80163     133.752E-03     509.694E-03    -252.608E-03    -257.086E-03    -252.842E-03     505.450E-03    -252.608E-03     112.752E-03     13.5141E+06    -10.8456E+06    -29.7863E+06    -11.1049E+06    -29.5271E+06     13.5141E+06     2.14516E+06         72.9859
             995     7.77530E-03     19.6130E-03         7.19365        -2.53003        -2.80463        -2.52789         7.19152        -2.80463     229.919E-03     506.483E-03    -251.842E-03    -254.641E-03    -252.054E-03     503.896E-03    -251.842E-03     86.8337E-03     10.1622E+06    -13.5679E+06    -33.3293E+06    -13.7753E+06    -33.1219E+06     10.1622E+06     1.97710E+06         71.5498
             996     7.00496E-03     19.5099E-03         7.26876        -2.59822        -2.80771        -2.59631         7.26685        -2.80771     110.325E-03     503.371E-03    -250.893E-03    -252.479E-03    -250.990E-03     502.108E-03    -251.119E-03     60.0152E-03     7.41051E+06    -15.7476E+06    -36.5297E+06    -16.0589E+06    -36.2185E+06     7.41051E+06     2.45167E+06         70.2043
             997     6.22993E-03     19.4388E-03         7.31110        -2.64411        -2.81637        -2.61936         7.28635        -2.81637     702.408E-03     500.656E-03    -249.804E-03    -250.852E-03    -249.591E-03     500.124E-03    -250.534E-03     38.2246E-03     3.73924E+06    -18.2082E+06    -39.7964E+06    -18.6044E+06    -39.4002E+06     3.73924E+06     2.76380E+06         68.9552
             998     5.45240E-03     19.4023E-03         7.30159        -2.62465        -2.83714        -2.59845         7.27539        -2.83714     497.590E-03     499.181E-03    -249.053E-03    -250.128E-03    -248.872E-03     498.999E-03    -250.128E-03     20.8342E-03    -859.300E+03    -21.4299E+06    -43.6769E+06    -21.7709E+06    -43.3359E+06    -859.300E+03     2.61072E+06         67.8120
             999     4.67359E-03     19.3912E-03         7.32815        -2.61012        -2.87409        -2.59799         7.31602        -2.87409     245.577E-03     498.628E-03    -248.761E-03    -249.867E-03    -248.717E-03     498.584E-03    -249.867E-03     7.38965E-03    -5.92563E+06    -24.8866E+06    -48.0449E+06    -25.1790E+06    -47.7525E+06    -5.92563E+06     2.55108E+06         66.7881
            1000     3.89663E-03     19.3966E-03         7.43692        -2.64155        -2.92708        -2.63014         7.42551        -2.92708     272.861E-03     498.330E-03    -248.591E-03    -249.739E-03    -248.575E-03     498.314E-03    -249.739E-03    -2.09880E-03    -11.8502E+06    -28.4607E+06    -53.0814E+06    -28.7318E+06    -52.8103E+06    -11.8502E+06     2.48296E+06         65.8974
            1001     3.11539E-03     19.4107E-03         7.63765        -2.74461        -2.99834        -2.68039         7.57344        -2.99834     974.434E-03     498.721E-03    -248.838E-03    -249.883E-03    -248.998E-03     498.694E-03    -249.696E-03    -7.67664E-03    -18.8971E+06    -32.1930E+06    -58.6471E+06    -32.3884E+06    -58.4516E+06    -18.8971E+06     2.07939E+06         65.1528
            1002     2.33745E-03     19.4359E-03         7.87142        -2.87528        -3.09097        -2.78641         7.78255        -3.09097     390.600E-03     499.350E-03    -249.345E-03    -250.005E-03    -249.727E-03     499.318E-03    -249.590E-03    -9.20068E-03    -27.0786E+06    -35.7859E+06    -64.9006E+06    -35.9014E+06    -64.7851E+06    -27.0786E+06     1.72286E+06         64.5646
            1003     1.55945E-03     19.4578E-03         8.27929        -3.07296        -3.32202        -2.99964         8.07526        -3.19131         1.29212     499.051E-03    -249.345E-03    -249.706E-03    -249.616E-03     499.027E-03    -249.411E-03    -8.07922E-03    -34.4778E+06    -38.4828E+06    -71.0421E+06    -38.5539E+06    -70.9710E+06    -34.4778E+06     1.37643E+06         64.1382
            1004     777.810E-06     19.4730E-03         9.36217        -3.29159        -4.20497        -3.18963         8.34683        -3.29159        -2.68679     498.636E-03    -248.871E-03    -249.765E-03    -249.682E-03     498.620E-03    -248.937E-03    -5.41433E-03    -38.4067E+06    -41.1925E+06    -76.2221E+06    -40.4433E+06    -76.1940E+06    -39.1840E+06     321.237E+03         63.8739
            1005     13.1641E-03     19.7373E-03         5.75015        -1.40008        -2.45775        -1.39970         5.74977        -2.45775    -13.4006E-03     543.656E-03    -256.271E-03    -287.385E-03    -271.816E-03     528.087E-03    -256.271E-03     215.761E-03     25.3179E+06    -759.423E+03    -16.7399E+06    -877.603E+03    -16.6218E+06     25.3179E+06     138.955E+03         82.2303
            1006     12.4016E-03     19.2701E-03         5.78782        -1.45332        -2.45909        -1.44919         5.78369        -2.45909    -290.518E-03     544.818E-03    -255.449E-03    -289.369E-03    -272.922E-03     528.370E-03    -255.449E-03     225.015E-03     20.0717E+06    -2.91201E+06    -20.5879E+06    -3.04130E+06    -20.4586E+06     20.0717E+06     82.7076E+03         80.8227
            1007     11.6411E-03     19.0111E-03         5.86384        -1.54809        -2.46311        -1.54406         5.85982        -2.46311    -268.172E-03     531.012E-03    -254.380E-03    -276.632E-03    -267.016E-03     521.396E-03    -254.380E-03     174.721E-03     15.9262E+06    -4.54491E+06    -23.8680E+06    -4.57952E+06    -23.8334E+06     15.9262E+06     372.679E+03         79.2568
            1008     10.8726E-03     18.7071E-03         6.00342        -1.71532        -2.46825        -1.71504         6.00313        -2.46825    -32.6452E-03     524.991E-03    -253.235E-03    -271.757E-03    -263.151E-03     516.385E-03    -253.235E-03     163.169E-03     14.2464E+06    -5.67505E+06    -25.7215E+06    -5.71648E+06    -25.6801E+06     14.2464E+06     815.679E+03         77.5881
            1009     10.1087E-03     18.4835E-03         6.17688        -1.92485        -2.46560        -1.92450         6.17652        -2.46560     52.9819E-03     517.722E-03    -252.058E-03    -265.665E-03    -259.781E-03     511.839E-03    -252.058E-03     134.733E-03     13.9204E+06    -6.86347E+06    -27.1376E+06    -6.94671E+06    -27.0543E+06     13.9204E+06     1.25930E+06         75.8841
            1010     9.34125E-03     18.2691E-03         6.36159        -2.13804        -2.45256        -2.13710         6.36066        -2.45256    -30.7767E-03     512.847E-03    -250.818E-03    -262.029E-03    -257.676E-03     508.494E-03    -250.818E-03     114.426E-03     13.6976E+06    -8.44958E+06    -28.1786E+06    -8.59108E+06    -28.0372E+06     13.6976E+06     1.64753E+06         74.2024
            1011     8.57279E-03     18.0943E-03         6.47565        -2.27206        -2.42963        -2.27038         6.47397        -2.42963    -115.425E-03     507.465E-03    -249.538E-03    -257.927E-03    -255.220E-03     504.758E-03    -249.538E-03     89.3323E-03     12.1846E+06    -10.2450E+06    -30.0899E+06    -10.4375E+06    -29.8974E+06     12.1846E+06     1.92804E+06         72.5805
            1012     7.80369E-03     17.9489E-03         6.48247        -2.28856        -2.40603        -2.28741         6.48132        -2.40603    -78.4770E-03     502.688E-03    -248.292E-03    -254.396E-03    -252.919E-03     501.210E-03    -248.292E-03     64.2367E-03     8.98802E+06    -12.6011E+06    -33.6200E+06    -12.8735E+06    -33.3475E+06     8.98802E+06     2.35635E+06         71.0402
            1013     7.03023E-03     17.8509E-03         6.43376        -2.24944        -2.39231        -2.24539         6.42972        -2.39231    -270.042E-03     498.066E-03    -247.184E-03    -250.882E-03    -250.276E-03     497.460E-03    -247.184E-03     39.2488E-03     5.90424E+06    -15.2276E+06    -36.9742E+06    -15.5773E+06    -36.6245E+06     5.90424E+06     2.69097E+06         69.5957
            1014     6.25439E-03     17.7901E-03         6.37427        -2.19935        -2.39537        -2.18304         6.35795        -2.39537     180.758E-03     494.089E-03    -246.041E-03    -248.048E-03    -247.561E-03     493.888E-03    -246.327E-03     19.2902E-03     3.39750E+06    -16.7113E+06    -39.3424E+06    -17.1405E+06    -38.9133E+06     3.39750E+06     3.00592E+06         68.2581
            1015     5.47491E-03     17.7560E-03         6.33424        -2.15540        -2.41884        -2.13108         6.30991        -2.41884    -4.15976E-03     491.629E-03    -245.274E-03    -246.356E-03    -245.825E-03     491.573E-03    -245.748E-03     3.39536E-03    -249.370E+03    -19.0748E+06    -42.7187E+06    -19.5184E+06    -42.2751E+06    -249.370E+03     3.16628E+06         67.0400
            1016     4.69519E-03     17.7453E-03         6.36927        -2.14178        -2.46387        -2.12699         6.35447        -2.46387    -231.678E-03     490.589E-03    -245.081E-03    -245.508E-03    -245.158E-03     490.536E-03    -245.378E-03    -7.86771E-03    -5.12523E+06    -22.5402E+06     -47.007E+06    -22.9485E+06    -46.5987E+06    -5.12523E+06     3.05418E+06         65.9571
            1017     3.91256E-03     17.7528E-03         6.50792        -2.18282        -2.52973        -2.17022         6.49533        -2.52973    -157.751E-03     489.899E-03    -244.718E-03    -245.180E-03    -244.629E-03     489.807E-03    -245.177E-03    -14.5560E-03    -10.7183E+06    -25.6635E+06    -51.5897E+06    -26.0410E+06    -51.2122E+06    -10.7183E+06     3.01328E+06         65.0236
            1018     3.13107E-03     17.7716E-03         6.78812        -2.34124        -2.61306        -2.27849         6.72538        -2.61306     648.463E-03     489.567E-03    -244.405E-03    -245.162E-03    -244.293E-03     489.452E-03    -245.159E-03    -17.4821E-03    -17.4034E+06    -29.1293E+06    -56.9508E+06    -29.4026E+06    -56.6775E+06    -17.4034E+06     2.70156E+06         64.2504
            1019     2.34644E-03     17.7909E-03         7.08030        -2.53028        -2.70522        -2.44907         6.99909        -2.70522     242.653E-03     490.007E-03    -244.577E-03    -245.430E-03    -244.635E-03     489.898E-03    -245.264E-03    -17.1696E-03    -24.5573E+06    -32.5858E+06    -62.8379E+06    -32.7879E+06    -62.6359E+06    -24.5573E+06     2.41121E+06         63.6450
            1020     1.56410E-03     17.8150E-03         7.47504        -2.71775        -2.93700        -2.63558         7.25243        -2.79655         1.27861     490.552E-03    -245.000E-03    -245.551E-03    -245.097E-03     490.482E-03    -245.385E-03    -13.4721E-03    -31.0335E+06    -34.9080E+06    -67.9548E+06    -35.0971E+06    -67.7657E+06    -31.0335E+06     2.15369E+06         63.2102
            1021     783.617E-06     17.8325E-03         8.50530        -2.90518        -3.82768        -2.78302         7.46064        -2.90518        -2.50437     490.910E-03    -244.489E-03    -246.422E-03    -246.292E-03     490.884E-03    -244.592E-03    -8.23163E-03    -34.6183E+06    -37.6665E+06    -72.7195E+06    -36.6242E+06    -72.6288E+06    -35.7513E+06     957.951E+03         62.9428
            1022     13.1747E-03     18.0451E-03         5.30770        -1.31723        -2.16399        -1.31515         5.30562        -2.16399     18.6604E-03     553.255E-03    -255.874E-03    -297.381E-03    -282.479E-03     538.353E-03    -255.874E-03     215.118E-03     25.0376E+06    -886.050E+03    -17.0446E+06    -995.378E+03    -16.9353E+06     25.0376E+06     127.220E+03         82.3371
            1023     12.4163E-03     17.5773E-03         5.30330        -1.36162        -2.14545        -1.35801         5.29970        -2.14545    -276.153E-03     551.513E-03    -254.417E-03    -297.097E-03    -281.837E-03     536.254E-03    -254.417E-03     218.637E-03     20.0942E+06    -2.22746E+06    -20.0341E+06    -2.31724E+06    -19.9443E+06     20.0942E+06     1.12281E+06         80.9342
            1024     11.6571E-03     17.3158E-03         5.37934        -1.48883        -2.12604        -1.48559         5.37610        -2.12604    -169.608E-03     535.639E-03    -252.711E-03    -282.928E-03    -274.576E-03     527.287E-03    -252.711E-03     164.247E-03     14.5948E+06    -4.45754E+06    -24.5268E+06    -4.50886E+06    -24.4755E+06     14.5948E+06     1.00656E+06         79.3417
            1025     10.9030E-03     17.0332E-03         5.48903        -1.65893        -2.10342        -1.65823         5.48833        -2.10342     17.8224E-03     528.725E-03    -250.866E-03    -277.859E-03    -270.817E-03     521.683E-03    -250.866E-03     148.500E-03     12.2972E+06    -5.30120E+06    -26.4036E+06    -5.36353E+06    -26.3413E+06     12.2972E+06     1.13382E+06         77.6162
            1026     10.1396E-03     16.8035E-03         5.56916        -1.80573        -2.07251        -1.80367         5.56710        -2.07251     148.065E-03     520.010E-03    -248.905E-03    -271.105E-03    -266.717E-03     515.621E-03    -248.905E-03     116.807E-03     10.6924E+06    -6.81314E+06    -27.6705E+06    -6.94383E+06    -27.5398E+06     10.6924E+06     1.55681E+06         75.8306
            1027     9.38049E-03     16.6003E-03         5.61464        -1.90780        -2.03710        -1.90408         5.61092        -2.03710     159.631E-03     512.821E-03    -246.865E-03    -265.956E-03    -263.016E-03     509.881E-03    -246.865E-03     94.3371E-03     10.6695E+06    -8.39117E+06    -28.7937E+06    -8.54025E+06    -28.6446E+06     10.6695E+06     1.66849E+06         74.0447
            1028     8.61695E-03     16.4314E-03         5.60999        -1.93837        -2.00175        -1.93365         5.60527        -2.00175     54.9681E-03     505.041E-03    -244.824E-03    -260.217E-03    -258.603E-03     503.427E-03    -244.824E-03     68.5789E-03     10.4638E+06    -9.81814E+06    -30.9041E+06    -10.0307E+06    -30.6916E+06     10.4638E+06     2.03183E+06         72.3016
            1029     7.84702E-03     16.2981E-03         5.58598        -1.93433        -1.97308        -1.92827         5.57993        -1.97308     150.256E-03     497.036E-03    -242.923E-03    -254.114E-03    -253.450E-03     496.373E-03    -242.923E-03     40.9919E-03     7.84105E+06    -11.5355E+06    -33.5061E+06    -11.8317E+06    -33.2099E+06     7.84105E+06     2.52001E+06         70.6288
            1030     7.07266E-03     16.2062E-03         5.56214        -1.91028        -1.97576        -1.92596         5.55540        -1.95334    -43.4358E-03     490.171E-03    -241.307E-03    -248.864E-03    -248.698E-03     490.005E-03    -241.307E-03     14.8217E-03     5.16467E+06    -13.2743E+06    -36.1541E+06    -13.5344E+06    -35.8940E+06     5.16467E+06     2.41045E+06         69.0472
            1031     6.29400E-03     16.1531E-03         5.56071        -1.85885        -2.04973        -1.94929         5.54104        -1.93961     259.970E-03     485.224E-03    -240.013E-03    -245.212E-03    -245.129E-03     485.142E-03    -240.013E-03    -5.01058E-03     2.40003E+06    -15.4329E+06    -39.3056E+06    -15.7227E+06    -39.0158E+06     2.40003E+06     2.60454E+06         67.5766
            1032     5.51264E-03     16.1246E-03         5.54208        -1.83672        -2.07688        -1.95773         5.51519        -1.92899     58.2625E-03     481.034E-03    -239.063E-03    -241.972E-03    -241.787E-03     480.850E-03    -239.063E-03    -18.7778E-03    -494.697E+03    -17.4871E+06    -42.4491E+06    -17.8918E+06    -42.0445E+06    -494.697E+03     3.14263E+06         66.2363
            1033     4.72637E-03     16.1187E-03         5.51430        -1.81332        -2.07483        -1.95358         5.50180        -1.92207    -230.422E-03     478.031E-03    -238.430E-03    -239.601E-03    -239.231E-03     477.726E-03    -238.495E-03    -27.2058E-03    -4.18772E+06    -19.9113E+06    -45.8255E+06    -20.4355E+06    -45.3013E+06    -4.18772E+06     3.63655E+06         65.0457
            1034     3.93977E-03     16.1278E-03         5.52469        -1.78231        -2.08258        -1.93147         5.51286        -1.92159    -229.315E-03     476.746E-03    -238.174E-03    -238.572E-03    -238.146E-03     476.385E-03    -238.239E-03    -30.6421E-03    -9.37179E+06    -22.5299E+06    -49.7568E+06    -23.0595E+06    -49.2273E+06    -9.37179E+06     3.70361E+06         64.0230
            1035     3.15118E-03     16.1468E-03         5.60455        -1.83199        -2.06960        -1.90656         5.54091        -1.93138     517.328E-03     476.306E-03    -238.022E-03    -238.283E-03    -237.790E-03     475.972E-03    -238.182E-03    -29.8858E-03    -15.7425E+06    -25.2426E+06    -54.7442E+06    -25.6956E+06    -54.2913E+06    -15.7425E+06     3.49790E+06         63.1810
            1036     2.36434E-03     16.1691E-03         5.66527        -1.91586        -2.03209        -1.91536         5.58372        -1.95104     216.924E-03     476.084E-03    -237.738E-03    -238.346E-03    -237.507E-03     475.828E-03    -238.321E-03    -26.4113E-03    -21.8454E+06    -28.2773E+06    -60.0516E+06    -28.5757E+06    -59.7532E+06    -21.8454E+06     2.79182E+06         62.5258
            1037     1.57469E-03     16.1901E-03         5.83467        -1.97211        -2.18138        -1.94096         5.59954        -1.97741         1.15659     476.634E-03    -237.966E-03    -238.668E-03    -237.814E-03     476.483E-03    -238.668E-03    -19.9913E-03    -26.6029E+06    -30.6087E+06    -63.8099E+06    -30.7878E+06    -63.6307E+06    -26.6029E+06     2.10590E+06         62.0578
            1038     785.538E-06     16.2053E-03         6.70393        -2.06547        -3.01044        -1.92618         5.61967        -2.06547        -2.21274     477.833E-03    -237.841E-03    -239.991E-03    -239.662E-03     477.781E-03    -238.119E-03    -10.4916E-03    -30.1244E+06    -33.4263E+06    -68.5356E+06    -32.4283E+06    -68.4005E+06    -31.2574E+06     1.61744E+06         61.7711
            1039     13.1754E-03     16.3212E-03         4.85193        -1.29555        -1.84361        -1.29301         4.84939        -1.84361     49.8488E-03     562.995E-03    -255.414E-03    -307.581E-03    -293.132E-03     548.546E-03    -255.414E-03     215.526E-03     21.2537E+06    -1.74771E+06    -19.1109E+06    -1.81221E+06    -19.0464E+06     21.2537E+06     48.0866E+03         82.6284
            1040     12.4314E-03     15.8714E-03         4.87938        -1.40154        -1.79992        -1.39948         4.87732        -1.79992    -170.616E-03     559.674E-03    -253.279E-03    -306.395E-03    -291.923E-03     545.202E-03    -253.279E-03     215.356E-03     16.8573E+06    -3.31472E+06    -21.9932E+06    -3.33830E+06    -21.9696E+06     16.8573E+06     560.282E+03         81.2448
            1041     11.6833E-03     15.6144E-03         4.90790        -1.51095        -1.75347        -1.50835         4.90529        -1.75347     51.3947E-03     543.797E-03    -250.802E-03    -292.995E-03    -285.374E-03     536.175E-03    -250.802E-03     158.925E-03     14.3957E+06    -3.32378E+06    -24.2038E+06    -3.35963E+06    -24.1680E+06     14.3957E+06     760.155E+03         79.6439
            1042     10.9316E-03     15.3376E-03         4.87853        -1.56191        -1.70845        -1.55904         4.87566        -1.70845     242.946E-03     535.723E-03    -248.047E-03    -287.676E-03    -281.553E-03     529.600E-03    -248.047E-03     140.031E-03     11.9527E+06    -4.53362E+06    -26.3652E+06    -4.61498E+06    -26.2838E+06     11.9527E+06     1.28424E+06         77.8812
            1043     10.1851E-03     15.1211E-03         4.80715        -1.56390        -1.66584        -1.54731         4.79056        -1.66584     494.160E-03     524.402E-03    -245.116E-03    -279.285E-03    -275.625E-03     520.741E-03    -245.116E-03     107.740E-03     9.74639E+06    -5.56994E+06    -27.9004E+06    -5.74931E+06    -27.7210E+06     9.74639E+06     1.94183E+06         76.0294
            1044     9.42731E-03     14.9313E-03         4.71656        -1.52483        -1.63205        -1.50351         4.69525        -1.63205     636.484E-03     514.290E-03    -242.126E-03    -272.165E-03    -269.900E-03     512.025E-03    -242.126E-03     83.2079E-03     8.95400E+06    -6.54341E+06    -29.2347E+06    -6.82542E+06    -28.9527E+06     8.95400E+06     2.38190E+06         74.1470
            1045     8.66622E-03     14.7712E-03         4.63777        -1.47100        -1.60925        -1.45784         4.62461        -1.60925     534.232E-03     504.189E-03    -239.132E-03    -265.057E-03    -264.010E-03     503.142E-03    -239.132E-03     54.4194E-03     8.91193E+06    -7.92270E+06    -30.9061E+06    -8.23200E+06    -30.5968E+06     8.91193E+06     2.52871E+06         72.2814
            1046     7.90200E-03     14.6546E-03         4.63739        -1.48097        -1.59757        -1.46080         4.61721        -1.59757     660.100E-03     493.881E-03    -236.247E-03    -257.634E-03    -257.354E-03     493.601E-03    -236.247E-03     22.4415E-03     6.98690E+06    -9.80909E+06    -32.9554E+06    -10.0744E+06    -32.6901E+06     6.98690E+06     2.45185E+06         70.4643
            1047     7.12850E-03     14.5778E-03         4.69661        -1.53605        -1.61342        -1.54141         4.67955        -1.59100     545.026E-03     483.664E-03    -233.672E-03    -249.992E-03    -249.879E-03     483.552E-03    -233.672E-03    -7.20551E-03     4.35945E+06    -11.3982E+06    -35.8233E+06    -11.6961E+06    -35.5254E+06     4.35945E+06     2.66353E+06         68.7217
            1048     6.34895E-03     14.5321E-03         4.82947        -1.56587        -1.74380        -1.69160         4.78941        -1.57802     858.542E-03     474.761E-03    -231.572E-03    -243.189E-03    -242.831E-03     474.403E-03    -231.572E-03    -28.5462E-03     1.73143E+06    -13.1585E+06    -38.9887E+06    -13.5379E+06    -38.6093E+06     1.73143E+06     3.10044E+06         67.0804
            1049     5.56313E-03     14.5159E-03         4.88952        -1.54894        -1.84940        -1.81018         4.85030        -1.54894     748.183E-03     467.636E-03    -230.013E-03    -237.623E-03    -236.940E-03     466.953E-03    -230.013E-03    -41.9189E-03    -1.16591E+06    -15.3972E+06    -42.0708E+06    -15.7919E+06    -41.6760E+06    -1.16591E+06     3.20717E+06         65.5697
            1050     4.77301E-03     14.5169E-03         4.87002        -1.50037        -1.88117        -1.86044         4.84930        -1.50037     485.700E-03     462.246E-03    -229.003E-03    -233.243E-03    -232.355E-03     461.359E-03    -229.003E-03    -48.3380E-03    -4.54574E+06    -17.6401E+06    -45.1596E+06    -18.1274E+06    -44.6724E+06    -4.54574E+06     3.59657E+06         64.2187
            1051     3.97806E-03     14.5296E-03         4.79095        -1.43317        -1.84784        -1.82787         4.77098        -1.43317     448.008E-03     458.954E-03    -228.485E-03    -230.469E-03    -229.557E-03     458.042E-03    -228.485E-03    -49.0252E-03    -8.59690E+06    -19.9065E+06    -48.5003E+06    -20.4415E+06    -47.9653E+06    -8.59690E+06     3.81585E+06         63.0529
            1052     3.18300E-03     14.5491E-03         4.66992        -1.35641        -1.77181        -1.68712         4.58524        -1.35641         1.03101     457.289E-03    -228.326E-03    -228.963E-03    -228.159E-03     456.513E-03    -228.354E-03    -45.1004E-03    -12.5105E+06    -21.7399E+06    -51.5409E+06    -22.2150E+06    -51.0658E+06    -12.5105E+06     3.64224E+06         62.0905
            1053     2.38573E-03     14.5720E-03         4.42988        -1.28610        -1.59074        -1.49289         4.33203        -1.28610     625.661E-03     456.892E-03    -228.310E-03    -228.582E-03    -227.883E-03     456.363E-03    -228.480E-03    -37.0741E-03    -17.6939E+06    -23.5608E+06    -55.4716E+06    -23.9036E+06    -55.1289E+06    -17.6939E+06     3.03500E+06         61.3411
            1054     1.59076E-03     14.5934E-03         4.31255        -1.23705        -1.55383        -1.31942         4.07814        -1.23705         1.18256     457.363E-03    -228.286E-03    -229.077E-03    -228.413E-03     457.083E-03    -228.670E-03    -26.8316E-03    -23.5906E+06    -26.1827E+06    -60.0051E+06    -26.3194E+06    -59.8684E+06    -23.5906E+06     1.82664E+06         60.8056
            1055     795.804E-06     14.6056E-03         4.94381        -1.27234        -2.20090        -1.17007         3.91298        -1.27234        -1.69398     457.641E-03    -228.306E-03    -229.335E-03    -228.831E-03     457.540E-03    -228.709E-03    -15.2990E-03    -26.2409E+06    -28.2733E+06    -63.9493E+06    -27.8953E+06    -63.8787E+06    -26.6895E+06     1.14639E+06         60.4774
            1056     13.1868E-03     14.5945E-03         4.31584        -1.23965        -1.49418        -1.23514         4.31133        -1.49418     122.307E-03     572.068E-03    -255.033E-03    -317.035E-03    -302.621E-03     557.654E-03    -255.033E-03     217.656E-03     18.0630E+06    -772.645E+03    -19.7300E+06    -797.977E+03    -19.7047E+06     18.0630E+06     671.358E+03         83.1312
            1057     12.4421E-03     14.1426E-03         4.28695        -1.30424        -1.42849        -1.30328         4.28599        -1.42849    -106.249E-03     568.654E-03    -252.291E-03    -316.363E-03    -302.026E-03     554.317E-03    -252.291E-03     216.421E-03     14.9806E+06    -1.24374E+06    -21.9731E+06    -1.26420E+06    -21.9526E+06     14.9806E+06     578.295E+03         81.7797
            1058     11.7023E-03     13.8923E-03         4.20339        -1.31208        -1.36619        -1.30971         4.20071        -1.36587     116.924E-03     552.481E-03    -249.088E-03    -303.393E-03    -295.772E-03     544.860E-03    -249.088E-03     160.670E-03     12.1128E+06    -2.18389E+06    -24.9456E+06    -2.23257E+06    -24.8969E+06     12.1128E+06     909.311E+03         80.1903
            1059     10.9673E-03     13.6267E-03         4.07049        -1.25817        -1.31384        -1.25486         4.06686        -1.31352     236.365E-03     543.149E-03    -245.540E-03    -297.609E-03    -291.218E-03     536.757E-03    -245.540E-03     144.757E-03     10.0001E+06    -3.35249E+06    -27.0291E+06    -3.49082E+06    -26.8907E+06     10.0001E+06     1.75500E+06         78.4136
            1060     10.2186E-03     13.4297E-03         3.93127        -1.18107        -1.27050        -1.16542         3.91562        -1.27050     414.446E-03     531.971E-03    -241.699E-03    -290.273E-03    -286.399E-03     528.098E-03    -241.699E-03     111.840E-03     9.36424E+06    -3.97386E+06    -28.6496E+06    -4.20322E+06    -28.4203E+06     9.36424E+06     2.34775E+06         76.5215
            1061     9.47272E-03     13.2517E-03         3.81128        -1.09712        -1.24009        -1.07749         3.79166        -1.24009     466.272E-03     520.533E-03    -237.599E-03    -282.934E-03    -280.714E-03     518.314E-03    -237.599E-03     83.0087E-03     9.59512E+06    -4.49060E+06    -29.5017E+06    -4.82607E+06    -29.1662E+06     9.59512E+06     2.81007E+06         74.5697
            1062     8.72042E-03     13.1141E-03         3.70616        -1.01178        -1.22266        -1.00131         3.69570        -1.22266     256.335E-03     507.686E-03    -233.338E-03    -274.348E-03    -273.493E-03     506.832E-03    -233.338E-03     48.1784E-03     7.53320E+06    -5.99505E+06    -30.5741E+06    -6.37650E+06    -30.1927E+06     7.53320E+06     2.98253E+06         72.6028
            1063     7.95920E-03     13.0098E-03         3.68185    -999.473E-03        -1.21946    -983.562E-03         3.66594        -1.21946     409.336E-03     493.861E-03    -229.133E-03    -264.727E-03    -264.575E-03     493.708E-03    -229.133E-03     10.7107E-03     5.67528E+06    -7.05534E+06    -32.2732E+06    -7.45763E+06    -31.8709E+06     5.67528E+06     3.11507E+06         70.6513
            1064     7.19349E-03     12.9562E-03         3.73317        -1.06174        -1.22649        -1.04639         3.71782        -1.22649     378.175E-03     479.659E-03    -225.253E-03    -254.406E-03    -254.173E-03     479.426E-03    -225.253E-03    -21.5605E-03     3.65710E+06    -8.86653E+06    -35.5169E+06    -9.30215E+06    -35.0813E+06     3.65710E+06     3.35059E+06         68.7453
            1065     6.41452E-03     12.9331E-03         3.85806        -1.14499        -1.29046        -1.16561         3.82302        -1.23479     653.723E-03     465.889E-03    -221.946E-03    -243.942E-03    -243.185E-03     465.131E-03    -221.946E-03    -44.8952E-03     558.528E+03    -11.1619E+06    -38.9310E+06    -11.6043E+06    -38.4885E+06     558.528E+03     3.47588E+06         66.9198
            1066     5.62599E-03     12.9297E-03         3.97431        -1.18181        -1.38673        -1.30144         3.94138        -1.23416     673.000E-03     454.123E-03    -219.373E-03    -234.750E-03    -233.445E-03     452.818E-03    -219.373E-03    -59.2604E-03    -1.70552E+06    -12.8083E+06    -41.6868E+06    -13.3187E+06    -41.1764E+06    -1.70552E+06     3.75524E+06         65.2144
            1067     4.82993E-03     12.9443E-03         4.06475        -1.18772        -1.48158        -1.43599         4.04531        -1.21387     503.256E-03     445.292E-03    -217.520E-03    -227.772E-03    -226.164E-03     443.684E-03    -217.520E-03    -65.2415E-03    -3.63191E+06    -14.6638E+06    -43.6776E+06    -15.1792E+06    -43.1622E+06    -3.63191E+06     3.73643E+06         63.6697
            1068     4.02970E-03     12.9634E-03         4.06509        -1.16806        -1.49901        -1.48023         4.04631        -1.16806     445.626E-03     438.663E-03    -216.312E-03    -222.351E-03    -220.737E-03     437.050E-03    -216.312E-03    -64.7674E-03    -6.32775E+06    -16.6196E+06    -45.9079E+06    -17.0385E+06    -45.4891E+06    -6.32775E+06     3.41103E+06         62.3216
            1069     3.22429E-03     12.9880E-03         3.98210        -1.10288        -1.47688        -1.39980         3.90502        -1.10288     949.197E-03     434.370E-03    -215.648E-03    -218.722E-03    -217.318E-03     432.994E-03    -215.676E-03    -59.2956E-03    -10.3425E+06    -18.5646E+06    -48.7750E+06    -18.8296E+06    -48.5100E+06    -10.3425E+06     2.68683E+06         61.1971
            1070     2.41802E-03     13.0120E-03         3.74974        -1.02869        -1.31692        -1.23381         3.67205        -1.03412     745.649E-03     432.235E-03    -215.425E-03    -216.810E-03    -215.822E-03     431.275E-03    -215.452E-03    -48.9368E-03    -14.8422E+06    -20.1312E+06    -52.1444E+06    -20.3546E+06    -51.9210E+06    -14.8422E+06     2.55645E+06         60.3133
            1071     1.61124E-03     13.0287E-03         3.64024    -972.812E-03        -1.27268        -1.06997         3.44296    -978.234E-03         1.21114     431.436E-03    -215.320E-03    -216.116E-03    -215.524E-03     430.936E-03    -215.412E-03    -34.6461E-03    -19.2135E+06    -21.4812E+06    -55.7760E+06    -21.6951E+06    -55.5622E+06    -19.2135E+06     2.61102E+06         59.6769
            1072     806.424E-06     13.0439E-03         4.13204    -989.358E-03        -1.76009    -920.740E-03         3.29268    -989.358E-03        -1.26118     431.027E-03    -214.948E-03    -216.079E-03    -215.658E-03     430.859E-03    -215.201E-03    -19.1401E-03    -21.9701E+06    -22.9850E+06    -59.1526E+06    -22.6206E+06    -59.0684E+06    -22.4187E+06     1.32324E+06         59.2851
            1073     13.1835E-03     12.8549E-03         3.65043        -1.04126        -1.13188        -1.05778         3.64424        -1.10917     82.2036E-03     579.608E-03    -254.816E-03    -324.793E-03    -310.458E-03     565.274E-03    -254.816E-03     218.379E-03     14.5046E+06    -493.535E+03    -20.9258E+06    -512.717E+03    -20.9066E+06     14.5046E+06     174.277E+03         83.8320
            1074     12.4514E-03     12.3910E-03         3.52431    -990.968E-03        -1.07883        -1.03948         3.52174        -1.02775    -210.562E-03     573.085E-03    -251.688E-03    -321.398E-03    -306.647E-03     558.335E-03    -251.688E-03     221.731E-03     11.9749E+06    -25.9502E+03    -22.6688E+06    -49.9045E+03    -22.6449E+06     11.9749E+06     250.485E+03         82.5149
            1075     11.7197E-03     12.1572E-03         3.40476    -932.692E-03        -1.03737        -1.01322         3.40121    -953.288E-03    -87.4396E-03     557.841E-03    -248.141E-03    -309.700E-03    -300.984E-03     549.125E-03    -248.141E-03     172.607E-03     7.33470E+06    -2.09090E+06    -26.8929E+06    -2.19049E+06    -26.7933E+06     7.33470E+06     1.31929E+06         80.9430
            1076     10.9754E-03     11.9066E-03         3.30286    -866.063E-03        -1.00953    -974.607E-03         3.29059    -888.717E-03    -198.363E-03     551.439E-03    -244.077E-03    -307.362E-03    -299.867E-03     543.943E-03    -244.077E-03     158.338E-03     6.15604E+06    -2.68740E+06    -28.2621E+06    -2.87559E+06    -28.0739E+06     6.15604E+06     2.16433E+06         79.1660
            1077     10.2441E-03     11.7102E-03         3.17587    -784.413E-03    -959.580E-03    -902.674E-03         3.16456    -830.009E-03    -194.672E-03     541.306E-03    -239.422E-03    -301.884E-03    -297.252E-03     536.673E-03    -239.422E-03     123.911E-03     7.17337E+06    -2.58472E+06    -28.6668E+06    -2.80497E+06    -28.4465E+06     7.17337E+06     2.34947E+06         77.2544
            1078     9.50596E-03     11.5610E-03         3.04372    -707.794E-03    -897.711E-03    -815.216E-03         3.03489    -781.459E-03    -181.119E-03     530.272E-03    -234.203E-03    -296.069E-03    -293.287E-03     527.491E-03    -234.203E-03     94.0296E-03     7.59020E+06    -3.29798E+06    -30.0342E+06    -3.53192E+06    -29.8002E+06     7.59020E+06     2.45789E+06         75.2568
            1079     8.76435E-03     11.4345E-03         2.94450    -637.627E-03    -871.952E-03    -740.098E-03         2.92026    -745.233E-03    -454.774E-03     514.996E-03    -228.610E-03    -286.386E-03    -285.294E-03     513.904E-03    -228.610E-03     54.9682E-03     6.71227E+06    -3.74154E+06    -30.7533E+06    -4.09518E+06    -30.3997E+06     6.71227E+06     3.01133E+06         73.2138
            1080     8.01642E-03     11.3686E-03         2.84537    -605.910E-03    -820.915E-03    -678.957E-03         2.82273    -725.232E-03    -339.173E-03     496.105E-03    -223.048E-03    -273.058E-03    -272.861E-03     495.909E-03    -223.048E-03     14.8899E-03      4.8045E+06    -4.33848E+06    -32.1385E+06    -4.97139E+06    -31.5056E+06      4.8045E+06     4.11112E+06         71.1536
            1081     7.24999E-03     11.3373E-03         2.77070    -609.382E-03    -759.852E-03    -624.710E-03         2.74946    -723.278E-03    -324.514E-03     477.628E-03    -217.865E-03    -259.763E-03    -259.558E-03     477.423E-03    -217.865E-03    -17.9174E-03     2.51228E+06    -5.74883E+06    -35.1125E+06    -6.48766E+06    -34.3737E+06     2.51228E+06     4.54833E+06         69.1112
            1082     6.47670E-03     11.3435E-03         2.75583    -623.514E-03    -741.977E-03    -600.701E-03         2.72948    -738.442E-03    -97.3393E-03     460.640E-03    -213.230E-03    -247.410E-03    -246.702E-03     459.932E-03    -213.230E-03    -42.7760E-03     711.061E+03    -7.72035E+06    -38.3560E+06    -8.40297E+06    -37.6734E+06     711.061E+03     4.47179E+06         67.1304
            1083     5.68908E-03     11.3683E-03         2.77454    -623.148E-03    -766.965E-03    -605.589E-03         2.75698    -766.965E-03     15.7650E-03     444.847E-03    -209.258E-03    -235.588E-03    -234.257E-03     443.516E-03    -209.258E-03    -59.3546E-03    -588.862E+03    -9.64198E+06    -40.5706E+06    -10.3391E+06    -39.8734E+06    -588.862E+03     4.57093E+06         65.2576
            1084     4.89123E-03     11.3965E-03         2.84529    -628.650E-03    -841.768E-03    -657.249E-03         2.83421    -802.094E-03    -155.231E-03     431.162E-03    -206.035E-03    -225.126E-03    -223.321E-03     429.357E-03    -206.035E-03    -68.5494E-03    -2.35632E+06    -11.1534E+06    -41.8874E+06    -11.7188E+06    -41.3220E+06    -2.35632E+06     4.06393E+06         63.5390
            1085     4.08474E-03     11.4326E-03         2.93392    -666.351E-03    -913.624E-03    -729.010E-03         2.91930    -836.342E-03    -218.200E-03     420.120E-03    -203.557E-03    -216.563E-03    -214.613E-03     418.170E-03    -203.557E-03    -70.3508E-03    -5.29385E+06    -13.3305E+06    -43.3648E+06    -13.7216E+06    -42.9737E+06    -5.29385E+06     3.37996E+06         62.0177
            1086     3.27308E-03     11.4643E-03         3.04400    -751.575E-03    -960.910E-03    -802.234E-03         2.99784    -864.093E-03     305.143E-03     411.692E-03    -201.749E-03    -209.943E-03    -208.207E-03     409.955E-03    -201.749E-03    -65.5248E-03    -8.67408E+06    -15.4397E+06    -45.4985E+06    -15.7148E+06    -45.2234E+06    -8.67408E+06     2.72950E+06         60.7302
            1087     2.45795E-03     11.4926E-03         3.11430    -840.460E-03    -952.967E-03    -863.231E-03         3.06561    -881.506E-03     242.497E-03     405.489E-03    -200.521E-03    -204.968E-03    -203.710E-03     404.230E-03    -200.521E-03    -54.9809E-03    -12.1704E+06    -17.3568E+06    -49.0939E+06    -17.4961E+06    -48.9545E+06    -12.1704E+06     1.96768E+06         59.7039
            1088     1.63952E-03     11.5147E-03         3.21977    -868.081E-03        -1.02794    -880.263E-03         3.09574    -891.733E-03     680.932E-03     401.347E-03    -199.738E-03    -201.609E-03    -200.831E-03     400.661E-03    -199.830E-03    -39.7490E-03    -15.0142E+06    -18.2313E+06    -52.1441E+06    -18.3343E+06    -52.0411E+06    -15.0142E+06     1.48179E+06         58.9555
            1089     817.962E-06     11.5264E-03         3.67295    -920.759E-03        -1.41574    -854.116E-03         3.12955    -938.988E-03        -1.09095     399.532E-03    -198.776E-03    -200.756E-03    -200.406E-03     399.274E-03    -198.868E-03    -23.3836E-03    -17.7133E+06    -18.9700E+06    -54.9046E+06    -18.9046E+06    -54.8371E+06    -17.8462E+06     1.16674E+06         58.4904
            1090     13.1917E-03     11.0865E-03         3.01730    -701.521E-03    -905.462E-03    -900.653E-03         3.01249    -701.521E-03     18.6407E-03     581.210E-03    -255.022E-03    -326.188E-03    -310.455E-03     565.477E-03    -255.022E-03     226.104E-03     10.8405E+06     138.016E+03    -21.8666E+06     126.903E+03    -21.8555E+06     10.8405E+06    -88.2659E+03         84.6651
            1091     12.4543E-03     10.6555E-03         2.88012    -605.314E-03    -871.170E-03    -866.007E-03         2.87496    -605.314E-03    -265.121E-03     576.558E-03    -251.939E-03    -324.619E-03    -307.507E-03     559.446E-03    -251.939E-03     239.633E-03     7.03416E+06    -1.36611E+06    -26.1955E+06    -1.48892E+06    -26.0727E+06     7.03416E+06     816.255E+03         83.3561
            1092     11.7063E-03     10.4142E-03         2.77283    -513.897E-03    -853.899E-03    -849.442E-03         2.76837    -513.897E-03    -213.930E-03     563.254E-03    -248.303E-03    -314.951E-03    -304.728E-03     553.031E-03    -248.303E-03     188.252E-03     5.29377E+06    -1.90124E+06    -28.4019E+06    -2.07915E+06    -28.2240E+06     5.29377E+06     1.67424E+06         81.7795
            1093     10.9844E-03     10.1544E-03         2.66314    -431.085E-03    -815.655E-03    -803.470E-03         2.65096    -431.085E-03    -325.867E-03     557.779E-03    -243.929E-03    -313.850E-03    -304.764E-03     548.693E-03    -243.929E-03     175.757E-03     5.16855E+06    -1.39789E+06    -28.4413E+06    -1.50496E+06    -28.3342E+06     5.16855E+06     1.42220E+06         79.9788
            1094     10.2503E-03     9.98765E-03         2.53656    -354.408E-03    -746.284E-03    -733.958E-03         2.52423    -354.408E-03    -259.147E-03     550.576E-03    -238.704E-03    -311.872E-03    -305.700E-03     544.404E-03    -238.704E-03     144.202E-03     4.26023E+06    -1.00941E+06    -28.6665E+06    -1.11474E+06    -28.5612E+06     4.26023E+06     1.59443E+06         78.0246
            1095     9.52072E-03     9.83306E-03         2.41936    -287.720E-03    -682.360E-03    -673.716E-03         2.41072    -287.720E-03    -138.423E-03     538.330E-03    -232.696E-03    -305.634E-03    -301.855E-03     534.551E-03    -232.696E-03     111.025E-03     3.37369E+06    -1.67089E+06    -30.6421E+06    -1.91677E+06    -30.3962E+06     3.37369E+06     2.53494E+06         75.9685
            1096     8.78916E-03     9.74786E-03         2.32013    -230.978E-03    -641.928E-03    -617.684E-03         2.29589    -230.978E-03    -392.460E-03     518.799E-03    -226.335E-03    -292.465E-03    -290.681E-03     517.015E-03    -226.335E-03     73.1983E-03     3.41705E+06    -2.35138E+06    -32.3573E+06    -2.87270E+06    -31.8359E+06     3.41705E+06     3.82547E+06         73.8545
            1097     8.04072E-03     9.71271E-03         2.17581    -186.677E-03    -556.334E-03    -532.113E-03         2.15159    -186.677E-03    -315.472E-03     497.449E-03    -220.062E-03    -277.387E-03    -276.730E-03     496.792E-03    -220.062E-03     39.2780E-03     2.59619E+06    -3.17849E+06    -33.3329E+06    -3.95490E+06    -32.5565E+06     2.59619E+06     4.74463E+06         71.7207
            1098     7.28560E-03     9.72366E-03         2.01709    -157.261E-03    -444.208E-03    -420.336E-03         1.99322    -157.261E-03    -311.246E-03     477.219E-03    -214.099E-03    -263.121E-03    -262.877E-03     476.976E-03    -214.099E-03     10.6519E-03     1.66375E+06    -3.95174E+06    -35.2484E+06    -4.99278E+06    -34.2074E+06     1.66375E+06     5.58347E+06         69.6104
            1099     6.51125E-03     9.75796E-03         1.83597    -110.169E-03    -317.179E-03    -261.843E-03         1.81790    -147.438E-03    -286.980E-03     459.104E-03    -208.484E-03    -250.620E-03    -250.336E-03     458.820E-03    -208.484E-03    -13.1150E-03     1.35192E+06    -4.55694E+06    -36.6628E+06    -5.68181E+06    -35.5379E+06     1.35192E+06     5.86859E+06         67.5663
            1100     5.73035E-03     9.81136E-03         1.66957    -50.5321E-03    -210.448E-03    -82.5097E-03         1.65587    -164.773E-03    -224.417E-03     442.137E-03    -203.207E-03    -238.930E-03    -238.360E-03     441.567E-03    -203.207E-03    -31.6836E-03    -263.670E+03    -6.63582E+06    -37.7932E+06    -7.51131E+06    -36.9178E+06    -263.670E+03     5.10615E+06         65.6286
            1101     4.93645E-03     9.86996E-03         1.63635    -24.1234E-03    -211.826E-03     15.8798E-03         1.59635    -211.826E-03    -431.799E-03     425.197E-03    -198.385E-03    -226.811E-03    -225.854E-03     424.240E-03    -198.385E-03    -45.0884E-03    -2.03612E+06    -8.60926E+06    -39.9053E+06    -9.28029E+06    -39.2343E+06    -2.03612E+06     4.51890E+06         63.8366
            1102     4.13106E-03     9.92472E-03         1.75667    -92.9224E-03    -291.494E-03    -17.7099E-03         1.67051    -280.546E-03    -641.691E-03     409.521E-03    -194.180E-03    -215.341E-03    -214.108E-03     408.288E-03    -194.180E-03    -52.7175E-03    -3.80780E+06    -10.0318E+06    -40.7807E+06    -10.4865E+06    -40.3260E+06    -3.80780E+06     3.63565E+06         62.2302
            1103     3.31645E-03     9.97415E-03         1.90493    -204.017E-03    -366.088E-03    -151.326E-03         1.84129    -355.140E-03    -277.901E-03     395.854E-03    -190.667E-03    -205.187E-03    -203.936E-03     394.602E-03    -190.667E-03    -53.4716E-03    -6.03136E+06    -11.9964E+06    -42.2942E+06    -12.2273E+06    -42.0632E+06    -6.03136E+06     2.57220E+06         60.8496
            1104     2.49308E-03     10.0148E-03         2.06935    -319.820E-03    -432.279E-03    -302.429E-03         2.03971    -420.027E-03    -217.836E-03     384.665E-03    -187.842E-03    -196.823E-03    -195.809E-03     383.651E-03    -187.842E-03    -47.8657E-03    -8.48158E+06    -13.9722E+06    -45.9318E+06    -14.0813E+06    -45.8227E+06    -8.48158E+06     1.64371E+06         59.7314
            1105     1.66518E-03     10.0446E-03         2.29204    -420.997E-03    -543.631E-03    -422.524E-03         2.21514    -465.204E-03     196.482E-03     375.933E-03    -185.650E-03    -190.283E-03    -189.667E-03     375.317E-03    -185.650E-03    -36.6504E-03    -12.3082E+06    -15.9209E+06    -49.8085E+06    -15.9389E+06    -49.7906E+06    -12.3082E+06     550.449E+03         58.9041
            1106     835.757E-06     10.0612E-03         2.77475    -511.895E-03    -900.559E-03    -441.574E-03         2.33399    -530.125E-03        -1.08004     369.731E-03    -183.557E-03    -186.174E-03    -185.552E-03     369.489E-03    -183.937E-03    -21.3059E-03    -14.7750E+06    -16.0980E+06    -52.3391E+06    -15.9550E+06    -52.3238E+06    -14.9333E+06     120.958E+03         58.3837
            1107     13.1724E-03     9.35873E-03         2.54108    -299.400E-03    -859.860E-03    -856.825E-03         2.53804    -299.400E-03     409.689E-06     579.278E-03    -255.855E-03    -323.424E-03    -306.888E-03     562.743E-03    -255.855E-03     232.750E-03     8.14106E+06    -689.283E+03    -23.4577E+06    -697.997E+03    -23.4490E+06     8.14106E+06     299.352E+03         85.4947
            1108     12.4204E-03     8.88333E-03         2.36200    -188.120E-03    -765.485E-03    -759.597E-03         2.35612    -188.120E-03    -256.287E-03     575.722E-03    -253.018E-03    -322.704E-03    -304.577E-03     557.594E-03    -253.018E-03     247.561E-03     4.82347E+06    -2.54437E+06    -28.2152E+06    -2.70738E+06    -28.0522E+06     4.82347E+06     497.685E+03         84.1282
            1109     11.7078E-03     8.65234E-03         2.13345    -85.7255E-03    -621.975E-03    -617.042E-03         2.12851    -85.7255E-03    -136.438E-03     565.828E-03    -249.540E-03    -316.289E-03    -303.928E-03     553.467E-03    -249.540E-03     206.621E-03     4.35291E+06    -1.04720E+06    -28.3102E+06    -1.00723E+06    -28.1407E+06     4.14343E+06     189.846E+03         82.4577
            1110     10.9621E-03     8.41730E-03         1.94699     1.33560E-03    -505.085E-03    -503.372E-03         1.94527     1.33560E-03    -46.8393E-03     566.016E-03    -245.050E-03    -320.966E-03    -309.823E-03     554.873E-03    -245.050E-03     195.822E-03     2.62920E+06    -958.076E+03    -29.0399E+06    -549.151E+03    -28.9984E+06     2.17878E+06     512.659E+03         80.5351
            1111     10.2380E-03     8.21787E-03         1.83528     78.4173E-03    -454.067E-03    -446.217E-03         1.82743     78.4173E-03     69.4219E-03     555.491E-03    -239.542E-03    -315.949E-03    -308.945E-03     548.487E-03    -239.542E-03     154.713E-03     661.799E+03    -1.50701E+06    -30.8861E+06    -1.44594E+06    -30.7062E+06     420.858E+03     2.00732E+06         78.4530
            1112     9.51694E-03     8.10547E-03         1.73848     144.305E-03    -411.105E-03    -400.715E-03         1.72809     144.305E-03     239.542E-03     535.240E-03    -233.578E-03    -301.662E-03    -297.040E-03     530.618E-03    -233.578E-03     123.335E-03     354.622E+03    -1.81971E+06    -32.3496E+06    -2.26444E+06    -31.9049E+06     354.622E+03     3.51500E+06         76.2813
            1113     8.77633E-03     8.05335E-03         1.66229     202.666E-03    -389.888E-03    -384.342E-03         1.65674     202.666E-03     20.0514E-03     513.002E-03    -227.715E-03    -285.287E-03    -282.109E-03     509.824E-03    -227.715E-03     98.7175E-03     389.342E+03    -2.24090E+06    -33.7144E+06    -2.90997E+06    -33.0453E+06     389.342E+03     4.52134E+06         74.0911
            1114     8.03000E-03     8.06007E-03         1.55958     256.550E-03    -350.168E-03    -346.284E-03         1.55569     256.550E-03    -16.4600E-03     493.512E-03    -222.074E-03    -271.438E-03    -269.249E-03     491.323E-03    -222.074E-03     77.8511E-03     744.336E+03    -2.57309E+06    -34.5811E+06    -3.46951E+06    -33.6847E+06     744.336E+03     5.24498E+06         71.9462
            1115     7.26673E-03     8.10332E-03         1.39962     305.814E-03    -252.550E-03    -247.981E-03         1.39505     305.814E-03     24.7786E-03     476.685E-03    -216.545E-03    -260.141E-03    -258.596E-03     475.141E-03    -216.545E-03     60.2280E-03     1.62044E+06    -2.85117E+06    -35.1066E+06    -4.03017E+06    -33.9276E+06     1.62044E+06     6.02637E+06         69.8900
            1116     6.50115E-03     8.17168E-03         1.21189     347.546E-03    -113.810E-03    -110.877E-03         1.20896     347.546E-03    -1.08409E-03     461.223E-03    -210.999E-03    -250.224E-03    -249.151E-03     460.149E-03    -210.999E-03     43.0111E-03     828.747E+03    -3.59050E+06    -34.1750E+06    -4.83597E+06    -32.9296E+06     828.747E+03     6.04270E+06         67.9451
            1117     5.72168E-03     8.25144E-03     992.237E-03     397.039E-03     55.1584E-03     84.4977E-03     985.674E-03     374.263E-03    -17.5138E-03     446.003E-03    -205.402E-03    -240.601E-03    -239.845E-03     445.247E-03    -205.402E-03     26.4120E-03     378.052E+03    -4.40477E+06    -34.6363E+06    -5.34971E+06    -33.6913E+06     378.052E+03     5.19938E+06         66.1247
            1118     4.93556E-03     8.34018E-03     895.129E-03     381.547E-03     161.495E-03     264.523E-03     796.376E-03     377.271E-03    -259.693E-03     430.362E-03    -199.784E-03    -230.578E-03    -230.013E-03     429.797E-03    -199.784E-03     11.5188E-03     65.0381E+03    -5.79107E+06    -36.6477E+06    -6.48012E+06    -35.9586E+06     65.0381E+03     4.55349E+06         64.4436
            1119     4.13839E-03     8.42367E-03     970.028E-03     323.115E-03     124.759E-03     357.706E-03     703.647E-03     356.549E-03    -470.896E-03     413.674E-03    -194.297E-03    -219.377E-03    -218.892E-03     413.189E-03    -194.297E-03    -1.49404E-03    -1.40018E+06    -7.36757E+06    -37.5074E+06    -7.91335E+06    -36.9616E+06    -1.40018E+06     3.94814E+06         62.9252
            1120     3.32874E-03     8.49849E-03         1.01065     343.418E-03     31.1236E-03     370.881E-03     694.567E-03     319.746E-03    -132.353E-03     397.044E-03    -189.201E-03    -207.842E-03    -207.408E-03     396.609E-03    -189.201E-03    -11.5628E-03    -4.13791E+06    -8.89410E+06    -39.9660E+06    -9.25403E+06    -39.6061E+06    -4.13791E+06     3.15279E+06         61.6017
            1121     2.50942E-03     8.55909E-03         1.03282     338.017E-03    -136.939E-06     326.491E-03     767.600E-03     276.613E-03    -83.3427E-03     381.556E-03    -184.756E-03    -196.800E-03    -196.425E-03     381.182E-03    -184.756E-03    -16.4104E-03    -7.59260E+06    -10.7674E+06    -44.0719E+06    -10.9095E+06    -43.9081E+06    -7.61418E+06     1.92978E+06         60.5110
            1122     1.68078E-03     8.60397E-03         1.25403     254.548E-03    -117.003E-03     279.924E-03     879.902E-03     231.749E-03     225.589E-03     368.479E-03    -181.244E-03    -187.235E-03    -186.983E-03     368.227E-03    -181.244E-03    -15.1118E-03    -10.7786E+06    -12.5668E+06    -47.7037E+06    -12.4515E+06    -47.6863E+06    -10.9113E+06     695.955E+03         59.6902
            1123     841.038E-06     8.63698E-03         1.66260     152.693E-03    -386.455E-03     251.770E-03         1.02438     152.693E-03    -669.300E-03     359.563E-03    -178.722E-03    -180.842E-03    -180.369E-03     359.471E-03    -179.102E-03    -9.40337E-03    -13.6852E+06    -14.2716E+06    -51.7144E+06    -14.1721E+06    -51.6773E+06    -13.8217E+06     530.201E+03         59.1669
            1124     13.1556E-03     7.57290E-03         2.15177     71.3024E-03    -791.175E-03    -788.687E-03         2.14929     71.3024E-03    -33.6934E-03     575.250E-03    -257.441E-03    -317.809E-03    -298.446E-03     555.887E-03    -257.441E-03     247.166E-03     8.94941E+06    -1.27252E+06    -23.3496E+06    -1.28587E+06    -23.3362E+06     8.94941E+06     280.385E+03         86.0748
            1125     12.4333E-03     7.16082E-03         1.83037     187.615E-03    -577.760E-03    -571.831E-03         1.82444     187.615E-03    -222.528E-03     580.631E-03    -255.094E-03    -325.537E-03    -302.437E-03     557.531E-03    -255.094E-03     279.628E-03     6.70107E+06    -909.074E+03    -26.2193E+06    -981.650E+03    -26.1467E+06     6.70107E+06    -1.01598E+06         84.5155
            1126     11.6556E-03     6.90308E-03         1.54219     292.032E-03    -392.582E-03    -386.647E-03         1.53625     292.032E-03    -54.2714E-03     580.229E-03    -251.509E-03    -328.720E-03    -314.566E-03     566.075E-03    -251.509E-03     222.430E-03     2.34958E+06    -784.210E+03    -30.5799E+06    -700.447E+03    -30.4542E+06     2.14010E+06    -556.915E+03         82.6050
            1127     10.9437E-03     6.61739E-03         1.32704     379.778E-03    -264.289E-03    -261.706E-03         1.32445     379.778E-03     86.0205E-03     570.009E-03    -246.646E-03    -323.363E-03    -313.708E-03     560.354E-03    -246.646E-03     181.513E-03    -366.541E+03    -1.28321E+06    -31.8190E+06    -965.702E+03    -31.6861E+06    -816.963E+03     1.49007E+06         80.4378
            1128     10.2277E-03     6.46404E-03         1.16421     455.038E-03    -170.823E-03    -164.235E-03         1.15763     455.038E-03     101.489E-03     542.328E-03    -241.641E-03    -300.687E-03    -294.325E-03     535.966E-03    -241.641E-03     145.509E-03    -758.300E+03    -1.70039E+06    -33.7122E+06    -1.75577E+06    -33.4159E+06    -999.241E+03     2.96916E+06         78.1258
            1129     9.48124E-03     6.39419E-03         1.05144     481.655E-03    -73.7602E-03    -63.3361E-03         1.00601     516.661E-03     145.161E-03     517.099E-03    -237.297E-03    -279.803E-03    -274.196E-03     511.493E-03    -237.297E-03     132.803E-03     319.320E+03    -1.50073E+06    -34.5450E+06    -2.05430E+06    -33.9915E+06     319.320E+03     4.20480E+06         75.7910
            1130     8.72826E-03     6.38023E-03         1.03045     450.507E-03    -13.6154E-03     9.33207E-03     890.110E-03     567.900E-03    -39.4592E-03     498.016E-03    -233.609E-03    -264.407E-03    -259.117E-03     492.726E-03    -233.609E-03     125.402E-03     1.52506E+06    -1.54081E+06    -34.4838E+06    -2.27877E+06    -33.7458E+06     1.52506E+06     4.85953E+06         73.5595
            1131     7.96040E-03     6.41881E-03         1.01988     424.100E-03     27.0327E-03     50.7938E-03     806.371E-03     613.846E-03    -115.513E-03     484.581E-03    -230.276E-03    -254.304E-03    -249.100E-03     479.376E-03    -230.276E-03     121.159E-03     2.61466E+06    -1.41410E+06    -34.7639E+06    -2.30853E+06    -33.8695E+06     2.61466E+06     5.33925E+06         71.5131
            1132     7.19445E-03     6.48543E-03     954.639E-03     431.573E-03     82.3798E-03     89.6831E-03     719.246E-03     659.663E-03    -9.67087E-03     475.185E-03    -226.937E-03    -248.247E-03    -243.076E-03     470.013E-03    -226.937E-03     117.859E-03     3.00093E+06    -1.40771E+06    -33.3450E+06    -2.35504E+06    -32.3977E+06     3.00093E+06     5.35931E+06         69.6770
            1133     6.41970E-03     6.57607E-03     912.215E-03     474.816E-03     79.9355E-03     147.082E-03     611.741E-03     708.143E-03    -21.7576E-03     466.965E-03    -223.322E-03    -243.643E-03    -238.714E-03     462.037E-03    -223.322E-03     112.177E-03     3.02997E+06    -1.51867E+06    -31.0067E+06    -2.45503E+06    -30.0704E+06     3.02997E+06     5.12852E+06         68.0370
            1134     5.64512E-03     6.68217E-03     855.979E-03     553.456E-03     58.1971E-03     256.085E-03     453.290E-03     758.257E-03     71.1390E-03     458.563E-03    -219.305E-03    -239.258E-03    -234.828E-03     454.133E-03    -219.305E-03     103.320E-03     3.33652E+06    -2.08916E+06    -32.1589E+06    -2.94030E+06    -31.3077E+06     3.33652E+06     4.94505E+06         66.5625
            1135     4.86291E-03     6.79093E-03     818.376E-03     554.445E-03     91.3740E-03     391.983E-03     265.650E-03     806.562E-03     55.6311E-03     449.062E-03    -214.832E-03    -234.230E-03    -230.560E-03     445.392E-03    -214.832E-03     90.7588E-03     2.42494E+06    -3.46459E+06    -34.2030E+06    -4.18801E+06    -33.4796E+06     2.42494E+06     4.64796E+06         65.2277
            1136     4.07598E-03     6.90184E-03     849.411E-03     556.894E-03     46.5087E-03     529.339E-03     74.0629E-03     849.411E-03    -60.9786E-03     437.697E-03    -209.976E-03    -227.721E-03    -224.920E-03     434.896E-03    -209.976E-03     75.6906E-03    -303.745E+03    -5.20697E+06    -35.1481E+06    -5.87889E+06    -34.4762E+06    -303.745E+03     4.42906E+06         64.0238
            1137     3.28116E-03     7.00206E-03     900.737E-03     696.544E-03    -154.421E-03     679.700E-03    -117.382E-03     880.541E-03     219.088E-03     424.251E-03    -205.028E-03    -219.222E-03    -217.270E-03     422.299E-03    -205.028E-03     58.9501E-03    -3.43503E+06    -6.96037E+06    -37.3947E+06    -7.44593E+06    -36.9092E+06    -3.43503E+06     3.70299E+06         62.9615
            1138     2.47476E-03     7.08931E-03     915.880E-03     833.565E-03    -306.687E-03     796.911E-03    -249.837E-03     895.684E-03     258.763E-03     410.249E-03    -200.458E-03    -209.791E-03    -208.636E-03     409.095E-03    -200.458E-03     41.9024E-03    -6.24134E+06    -7.77692E+06    -41.0539E+06    -7.99730E+06    -40.8120E+06    -6.26293E+06     2.61424E+06         62.0684
            1139     1.65493E-03     7.15950E-03         1.00718     849.039E-03    -400.231E-03     864.944E-03    -305.356E-03     896.403E-03     462.571E-03     398.139E-03    -196.729E-03    -201.410E-03    -200.897E-03     397.626E-03    -196.729E-03     25.9777E-03    -8.79088E+06    -9.37139E+06    -45.3069E+06    -9.35429E+06    -45.1913E+06    -8.92361E+06     1.72969E+06         61.3822
            1140     831.063E-06     7.19956E-03         1.30164     854.140E-03    -677.555E-03     875.756E-03    -288.309E-03     890.778E-03    -485.262E-03     389.646E-03    -194.086E-03    -195.561E-03    -195.305E-03     389.483E-03    -194.177E-03     12.7217E-03    -10.5926E+06    -11.0884E+06    -48.3714E+06    -11.0543E+06    -48.2944E+06    -10.7037E+06     896.264E+03         60.9373
            1141     13.1307E-03     5.87250E-03         1.85468     366.091E-03    -770.601E-03    -765.733E-03         1.84981     366.091E-03     101.228E-03     584.572E-03    -260.159E-03    -324.413E-03    -298.480E-03     558.639E-03    -260.159E-03     293.385E-03     10.1217E+06     637.691E+03    -22.1547E+06     378.896E+03    -21.8959E+06     10.1217E+06     15.4530E+03         86.0495
            1142     12.3258E-03     5.38899E-03         1.55508     481.238E-03    -625.803E-03    -618.046E-03         1.54732     481.238E-03     22.1259E-03     613.614E-03    -257.192E-03    -356.422E-03    -333.998E-03     591.190E-03    -257.192E-03     268.416E-03     5.01358E+06    -1.31947E+06    -29.0079E+06    -1.46148E+06    -28.8659E+06     5.01358E+06    -1.54488E+06         84.1914
            1143     11.6580E-03     5.05430E-03         1.33942     590.234E-03    -541.758E-03    -535.507E-03         1.33317     590.234E-03     87.3066E-03     586.905E-03    -252.396E-03    -334.508E-03    -325.734E-03     578.131E-03    -252.396E-03     165.268E-03     2.42071E+06    -1.98244E+06    -34.4528E+06    -2.07279E+06    -34.3624E+06     2.42071E+06    -273.366E+03         81.9933
            1144     10.9487E-03     4.85089E-03         1.08017     683.205E-03    -380.173E-03    -377.223E-03         1.07041     690.012E-03     67.7896E-03     544.748E-03    -248.041E-03    -296.708E-03    -290.642E-03     538.683E-03    -248.041E-03     141.541E-03    -87.5088E+03    -3.09616E+06    -35.2207E+06    -3.24376E+06    -35.0731E+06    -87.5088E+03     1.40514E+06         79.5339
            1145     10.1867E-03     4.76416E-03     898.375E-03     628.125E-03    -136.464E-03    -134.002E-03     745.486E-03     778.553E-03    -30.5492E-03     511.341E-03    -242.310E-03    -269.031E-03    -259.964E-03     505.368E-03    -245.403E-03     135.611E-03    -368.070E+03    -2.76489E+06    -36.4092E+06    -3.02650E+06    -36.1476E+06    -368.070E+03     2.91323E+06         76.9642
            1146     9.41714E-03     4.72486E-03     872.960E-03     513.931E-03     13.6676E-03     138.674E-03     412.172E-03     849.713E-03    -78.6245E-03     490.725E-03    -233.923E-03    -256.802E-03    -239.830E-03     484.108E-03    -244.278E-03     138.738E-03     666.254E+03    -2.08317E+06    -35.8524E+06    -2.55275E+06    -35.3829E+06     666.254E+03     3.90465E+06         74.5029
            1147     8.63114E-03     4.74735E-03     902.265E-03     516.966E-03    -5.21478E-03     364.395E-03     147.356E-03     902.265E-03    -205.740E-03     479.026E-03    -228.268E-03    -250.759E-03    -227.240E-03     471.441E-03    -244.200E-03     145.618E-03     2.60494E+06    -1.47009E+06    -33.3491E+06    -2.07546E+06    -32.7437E+06     2.60494E+06     4.27198E+06         72.3215
            1148     7.84561E-03     4.79711E-03     940.149E-03     573.774E-03    -86.6926E-03     505.582E-03    -18.5010E-03     940.149E-03    -304.899E-03     475.169E-03    -226.829E-03    -248.341E-03    -221.671E-03     466.378E-03    -244.706E-03     155.484E-03     4.58532E+06    -1.25883E+06    -33.0246E+06    -1.81349E+06    -32.4699E+06     4.58532E+06     4.03948E+06         70.5034
            1149     7.05523E-03     4.87593E-03     969.511E-03     643.862E-03    -172.535E-03     595.841E-03    -124.515E-03     969.511E-03    -159.521E-03     475.891E-03    -227.679E-03    -248.211E-03    -220.801E-03     466.124E-03    -245.323E-03     163.811E-03     5.55704E+06    -774.959E+03    -30.8718E+06    -1.30669E+06    -30.3401E+06     5.55704E+06     3.91623E+06         69.0474
            1150     6.27212E-03     4.97480E-03     998.474E-03     651.626E-03    -200.361E-03     617.201E-03    -165.936E-03     998.474E-03    -95.2230E-03     478.920E-03    -230.013E-03    -248.907E-03    -222.918E-03     468.599E-03    -245.680E-03     168.909E-03     5.01277E+06    -750.925E+03    -29.8308E+06    -1.39364E+06    -29.1881E+06     5.01277E+06     4.26513E+06         67.8955
            1151     5.48993E-03     5.08526E-03         1.03387     672.565E-03    -251.498E-03     645.933E-03    -224.865E-03         1.03387    -33.7391E-03     482.391E-03    -232.666E-03    -249.725E-03    -226.637E-03     472.147E-03    -245.510E-03     168.937E-03     4.35823E+06    -1.27829E+06    -31.1414E+06    -2.04063E+06    -30.3791E+06     4.35823E+06     4.70299E+06         66.9680
            1152     4.71339E-03     5.20679E-03         1.07720     718.046E-03    -335.888E-03     700.198E-03    -318.040E-03         1.07720     12.8411E-03     484.496E-03    -234.908E-03    -249.588E-03    -230.440E-03     475.102E-03    -244.661E-03     162.137E-03     4.13616E+06    -2.15157E+06    -32.3447E+06    -2.87390E+06    -31.6224E+06     4.13616E+06     4.58336E+06         66.1911
            1153     3.93572E-03     5.32637E-03         1.13279     754.638E-03    -423.922E-03     744.877E-03    -414.162E-03         1.13279     87.8882E-03     484.399E-03    -236.052E-03    -248.347E-03    -233.399E-03     476.539E-03    -243.140E-03     148.244E-03     2.16133E+06    -3.44123E+06    -32.6903E+06    -4.06790E+06    -32.0637E+06     2.16133E+06     4.21483E+06         65.5136
            1154     3.15659E-03     5.44473E-03         1.20116     885.014E-03    -618.953E-03     860.691E-03    -594.629E-03         1.20116     360.689E-03     482.199E-03    -236.681E-03    -245.518E-03    -235.251E-03     476.355E-03    -241.105E-03     127.501E-03    -933.115E+03    -4.97238E+06    -34.0355E+06    -5.47094E+06    -33.5369E+06    -933.115E+03     3.65660E+06         64.9131
            1155     2.37319E-03     5.54962E-03         1.27107         1.05444    -852.463E-03         1.03216    -830.176E-03         1.27107     349.314E-03     478.492E-03    -236.577E-03    -241.915E-03    -235.970E-03     474.782E-03    -238.812E-03     100.684E-03    -3.70865E+06    -7.10344E+06    -38.3056E+06    -7.42096E+06    -37.9880E+06    -3.70865E+06     3.03839E+06         64.3946
            1156     1.58934E-03     5.62961E-03         1.38021         1.20633        -1.10562         1.20505        -1.05346         1.32933     577.226E-03     473.959E-03    -235.524E-03    -238.435E-03    -235.505E-03     472.098E-03    -236.593E-03     69.5994E-03    -6.21233E+06    -8.59229E+06    -42.0219E+06    -8.80740E+06    -41.8068E+06    -6.21233E+06     2.64222E+06         63.9824
            1157     795.662E-06     5.68815E-03         1.54745         1.32815        -1.38522         1.33643        -1.21083         1.36479    -349.777E-03     469.788E-03    -234.191E-03    -235.597E-03    -234.576E-03     469.169E-03    -234.593E-03     38.0002E-03    -7.99815E+06    -9.42837E+06    -44.0646E+06    -8.84124E+06    -43.9711E+06    -8.67877E+06     650.291E+03         63.7063
            1158     13.0112E-03     4.07058E-03         1.63991     554.750E-03    -868.617E-03    -861.284E-03         1.63257     554.750E-03     266.998E-03     631.449E-03    -261.033E-03    -370.416E-03    -349.307E-03     610.339E-03    -261.033E-03     256.657E-03     12.1980E+06     965.297E+03    -25.6021E+06     13.1922E+03    -24.6500E+06     12.1980E+06    -3.02185E+06         85.3864
            1159     12.4122E-03     3.45847E-03         1.42254     666.314E-03    -797.066E-03    -788.230E-03         1.41371     666.314E-03     278.350E-03     613.085E-03    -255.836E-03    -357.249E-03    -348.874E-03     604.710E-03    -255.836E-03     139.886E-03     8.97872E+06     263.920E+03    -30.4539E+06    -162.279E+03    -30.0277E+06     8.97872E+06    -1.50428E+06         83.3727
            1160     11.7002E-03     3.28873E-03         1.17540     765.084E-03    -655.192E-03    -627.340E-03         1.14110     771.535E-03     329.271E-03     542.548E-03    -250.148E-03    -292.400E-03    -287.925E-03     539.474E-03    -251.549E-03     98.5516E-03     4.18327E+06    -3.11199E+06    -36.1508E+06    -3.30729E+06    -35.9555E+06     4.18327E+06     1.19272E+06         80.9796
            1161     10.9157E-03     3.17839E-03     979.684E-03     812.811E-03    -494.976E-03    -373.837E-03     801.246E-03     870.109E-03     452.740E-03     502.162E-03    -239.701E-03    -262.461E-03    -247.606E-03     497.758E-03    -250.153E-03     114.552E-03     1.74883E+06    -4.63991E+06    -38.0947E+06    -4.82542E+06    -37.9092E+06     1.74883E+06     1.67302E+06         78.2823
            1162     10.1283E-03     3.11652E-03     960.433E-03     701.394E-03    -348.714E-03    -85.5340E-03     438.214E-03     960.433E-03     568.184E-03     476.671E-03    -223.512E-03    -253.159E-03    -220.535E-03     471.631E-03    -251.095E-03     118.046E-03     1.27267E+06    -4.76415E+06    -37.4299E+06    -4.93784E+06    -37.2562E+06     1.27267E+06     2.25737E+06         75.5404
            1163     9.31867E-03     3.12056E-03         1.03883     582.337E-03    -292.805E-03     219.352E-03     70.1803E-03         1.03883     575.798E-03     464.205E-03    -210.324E-03    -253.881E-03    -204.036E-03     457.917E-03    -253.881E-03     129.260E-03     1.29415E+06    -4.30500E+06    -35.0755E+06    -4.52130E+06    -34.8591E+06     1.29415E+06     2.19810E+06         73.0444
            1164     8.50454E-03     3.14716E-03         1.10198     694.789E-03    -455.882E-03     509.080E-03    -270.172E-03         1.10198     492.025E-03     463.536E-03    -205.541E-03    -257.994E-03    -197.730E-03     455.724E-03    -257.994E-03     143.451E-03     1.62932E+06    -3.58856E+06    -31.6792E+06    -3.81192E+06    -31.4558E+06     1.62932E+06     2.23067E+06         71.0015
            1165     7.68791E-03     3.20021E-03         1.14889     870.062E-03    -662.996E-03     738.964E-03    -531.898E-03         1.14889     334.236E-03     470.754E-03    -207.831E-03    -262.924E-03    -198.656E-03     461.579E-03    -262.924E-03     156.324E-03     2.68372E+06    -3.15229E+06    -30.8557E+06    -3.33986E+06    -30.6681E+06     2.68372E+06     2.21462E+06         69.4962
            1166     6.88098E-03     3.26862E-03         1.18056     987.202E-03    -794.457E-03     919.447E-03    -726.701E-03         1.18056     315.104E-03     482.954E-03    -214.715E-03    -268.239E-03    -204.480E-03     472.719E-03    -268.239E-03     167.164E-03     3.64315E+06    -3.24999E+06    -29.9353E+06    -3.48708E+06    -29.6982E+06     3.64315E+06     2.33492E+06         68.4995
            1167     6.08001E-03     3.35270E-03         1.20174         1.02630    -836.327E-03         1.00359    -813.621E-03         1.20174     228.814E-03     498.455E-03    -224.885E-03    -273.570E-03    -213.992E-03     487.562E-03    -273.570E-03     175.337E-03     4.03429E+06    -3.27848E+06    -29.4787E+06    -3.60424E+06    -29.1530E+06     4.03429E+06     2.70214E+06         67.9133
            1168     5.29234E-03     3.44877E-03         1.22222         1.02073    -838.268E-03         1.01048    -828.016E-03         1.22222     109.449E-03     515.376E-03    -236.782E-03    -278.594E-03    -225.785E-03     504.379E-03    -278.594E-03     179.462E-03     4.26496E+06    -2.80155E+06    -30.4527E+06    -3.22492E+06    -30.0293E+06     4.26496E+06     3.19986E+06         67.6148
            1169     4.51409E-03     3.55201E-03         1.24946         1.02646    -860.123E-03         1.01722    -850.883E-03         1.24946     60.3966E-03     532.331E-03    -249.297E-03    -283.034E-03    -238.926E-03     521.959E-03    -283.034E-03     177.563E-03     3.64942E+06    -2.82282E+06    -29.7253E+06    -3.28725E+06    -29.2608E+06     3.64942E+06     3.41598E+06         67.4883
            1170     3.74794E-03     3.66303E-03         1.28759         1.04694    -905.868E-03         1.03617    -895.096E-03         1.28759     45.6229E-03     548.045E-03    -261.346E-03    -286.699E-03    -252.404E-03     539.103E-03    -286.699E-03     167.677E-03     2.73523E+06    -3.39441E+06    -29.8451E+06    -3.81288E+06    -29.4267E+06     2.73523E+06     3.24597E+06         67.4424
            1171     2.98941E-03     3.76885E-03         1.33856         1.11636        -1.01252         1.09659    -992.752E-03         1.33856     147.113E-03     561.675E-03    -272.181E-03    -289.494E-03    -265.308E-03     554.802E-03    -289.494E-03     149.184E-03     918.469E+03    -4.57890E+06    -32.2659E+06    -5.00966E+06    -31.8352E+06     918.469E+03     3.36622E+06         67.4178
            1172     2.23989E-03     3.86474E-03         1.40003         1.21103        -1.15757         1.19901        -1.14555         1.40003     145.111E-03     572.446E-03    -281.011E-03    -291.436E-03    -276.460E-03     567.896E-03    -291.436E-03     122.444E-03    -1.82841E+06    -6.09182E+06    -35.2948E+06    -6.48340E+06    -34.9032E+06    -1.82841E+06     3.32615E+06         67.3867
            1173     1.48911E-03     3.94641E-03         1.50208         1.34584        -1.38367         1.37797        -1.36492         1.45120     363.923E-03     580.096E-03    -287.425E-03    -292.671E-03    -285.039E-03     577.710E-03    -292.671E-03     88.1460E-03    -4.53471E+06    -7.18700E+06    -37.8222E+06    -7.38995E+06    -37.6192E+06    -4.53471E+06     2.15820E+06         67.3457
            1174     745.120E-06     3.99931E-03         1.59241         1.43114        -1.55886         1.48807        -1.47596         1.45257    -334.727E-03     584.911E-03    -291.172E-03    -293.739E-03    -291.377E-03     584.081E-03    -292.704E-03     49.8275E-03    -6.82905E+06    -9.27357E+06    -41.0271E+06    -8.74596E+06    -40.8741E+06    -7.50967E+06     1.30801E+06         67.3069
            1175     13.1964E-03     1.96182E-03         1.25648     674.709E-03    -724.190E-03    -718.550E-03         1.25084     674.709E-03     194.698E-03     722.115E-03    -260.725E-03    -461.389E-03    -446.152E-03     706.877E-03    -260.725E-03     242.022E-03     20.2037E+06    -143.757E+03    -31.0206E+06    -1.89799E+06    -29.2663E+06     20.2037E+06    -1.89298E+06         84.7982
            1176     12.4912E-03     1.76584E-03         1.04714     688.926E-03    -523.500E-03    -510.387E-03     960.165E-03     762.784E-03     213.701E-03     584.282E-03    -253.775E-03    -330.507E-03    -326.920E-03     580.695E-03    -253.775E-03     102.157E-03     18.6364E+06    -18.7329E+03    -31.3379E+06    -1.71320E+06    -29.6434E+06     18.6364E+06     3.93272E+06         82.9384
            1177     11.6707E-03     1.63269E-03     926.818E-03     607.716E-03    -311.568E-03    -277.549E-03     658.329E-03     842.185E-03     314.733E-03     502.688E-03    -240.299E-03    -262.389E-03    -248.967E-03     500.456E-03    -251.489E-03     77.0877E-03     12.3031E+06    -2.81688E+06    -33.7712E+06    -3.62871E+06    -32.9593E+06     12.3031E+06     4.28813E+06         80.5192
            1178     10.8837E-03     1.55244E-03     916.640E-03     531.179E-03    -214.454E-03    -61.1529E-03     377.878E-03     916.640E-03     427.397E-03     466.866E-03    -213.874E-03    -252.992E-03    -211.668E-03     464.660E-03    -252.992E-03     70.9404E-03     7.62015E+06    -3.74756E+06    -35.9753E+06    -3.95114E+06    -35.7717E+06     7.62015E+06     1.90538E+06         77.7192
            1179     10.0568E-03     1.54575E-03     987.420E-03     531.610E-03    -267.806E-03     136.037E-03     127.767E-03     987.420E-03     540.896E-03     448.606E-03    -191.559E-03    -257.047E-03    -189.028E-03     446.075E-03    -257.047E-03     75.8537E-03     3.73081E+06    -4.50596E+06    -35.2936E+06    -4.57427E+06    -35.2253E+06     3.73081E+06     462.179E+03         74.9034
            1180     9.21863E-03     1.55224E-03         1.05591     578.938E-03    -363.946E-03     310.592E-03    -95.5995E-03         1.05591     602.610E-03     446.909E-03    -183.836E-03    -263.072E-03    -180.497E-03     443.569E-03    -263.072E-03     85.3453E-03     1.92665E+06    -4.49440E+06    -33.3192E+06    -4.51039E+06    -33.3032E+06     1.92665E+06     149.170E+03         72.4326
            1181     8.38000E-03     1.57343E-03         1.12118     669.464E-03    -506.171E-03     497.310E-03    -334.016E-03         1.12118     611.997E-03     456.128E-03    -185.648E-03    -270.480E-03    -181.626E-03     452.105E-03    -270.480E-03     93.1969E-03     884.033E+03    -4.66512E+06    -31.9134E+06    -4.69766E+06    -31.8809E+06     884.033E+03     517.243E+03         70.5503
            1182     7.55069E-03     1.60405E-03         1.18128     778.280E-03    -667.037E-03     671.838E-03    -560.595E-03         1.18128     572.737E-03     472.230E-03    -193.378E-03    -278.852E-03    -188.859E-03     467.711E-03    -278.852E-03     100.077E-03     297.365E+03    -4.73282E+06    -30.6994E+06    -4.78459E+06    -30.6476E+06     297.365E+03     970.803E+03         69.3353
            1183     6.72796E-03     1.64519E-03         1.23466     891.764E-03    -823.469E-03     833.119E-03    -764.824E-03         1.23466     552.700E-03     493.548E-03    -205.672E-03    -287.875E-03    -200.767E-03     488.642E-03    -287.875E-03     106.353E-03     335.306E+03    -4.91562E+06    -28.9438E+06    -4.95623E+06    -28.9032E+06     335.306E+03     818.057E+03         68.7354
            1184     5.92079E-03     1.69342E-03         1.27704         1.04174        -1.00018         1.01251    -970.947E-03         1.27704     430.437E-03     518.672E-03    -221.410E-03    -297.262E-03    -216.303E-03     513.565E-03    -297.262E-03     111.324E-03     1.93780E+06    -4.92371E+06    -29.2614E+06    -4.96697E+06    -29.2182E+06     1.93780E+06     716.751E+03         68.6246
            1185     5.12667E-03     1.74899E-03         1.30618         1.16188        -1.12692         1.14991        -1.11494         1.30618     266.732E-03     546.441E-03    -239.743E-03    -306.698E-03    -234.655E-03     541.353E-03    -306.698E-03     114.160E-03     2.71695E+06    -4.93501E+06    -30.4475E+06    -5.01065E+06    -30.3719E+06     2.71695E+06     1.07304E+06         68.8528
            1186     4.35037E-03     1.81077E-03         1.32764         1.21785        -1.18960         1.21096        -1.18271         1.32764     146.849E-03     575.679E-03    -259.837E-03    -315.842E-03    -255.039E-03     570.881E-03    -315.842E-03     113.968E-03     1.16482E+06    -4.95201E+06    -27.9504E+06    -5.11766E+06    -27.7848E+06     1.16482E+06     1.64494E+06         69.2778
            1187     3.59066E-03     1.87457E-03         1.36152         1.24251        -1.23613         1.25087        -1.22961         1.34663     102.404E-03     605.143E-03    -280.790E-03    -324.353E-03    -276.594E-03     600.947E-03    -324.353E-03     109.880E-03    -175.426E+03    -5.11810E+06    -28.5552E+06    -5.32832E+06    -28.3450E+06    -175.426E+03     2.07588E+06         69.7807
            1188     2.84967E-03     1.94063E-03         1.38348         1.28743        -1.28467         1.30013        -1.27644         1.36256     61.6537E-03     632.794E-03    -300.905E-03    -331.890E-03    -297.570E-03     629.460E-03    -331.890E-03     100.363E-03    -1.43827E+06    -5.51713E+06    -30.8332E+06    -5.70673E+06    -30.6436E+06    -1.43827E+06     2.06378E+06         70.2720
            1189     2.11966E-03     2.00220E-03         1.38203         1.33976        -1.30952         1.34092        -1.30464         1.37599    -15.2549E-03     657.017E-03    -318.834E-03    -338.183E-03    -316.565E-03     654.748E-03    -338.183E-03     83.9823E-03    -3.18608E+06    -5.40778E+06    -31.8647E+06    -5.61254E+06    -31.6599E+06    -3.18608E+06     1.47149E+06         70.6918
            1190     1.40748E-03     2.05186E-03         1.40324         1.35931        -1.33074         1.36652        -1.32549         1.39079     105.558E-03     676.422E-03    -333.406E-03    -343.016E-03    -332.213E-03     675.229E-03    -343.016E-03     61.1489E-03    -4.70199E+06    -5.98529E+06    -34.8468E+06    -6.12620E+06    -34.7059E+06    -4.70199E+06     1.01884E+06         71.0063
            1191     699.715E-06     2.08662E-03         1.46761         1.37308        -1.38274         1.40166        -1.33823         1.39451    -202.226E-03     689.449E-03    -342.763E-03    -346.687E-03    -342.909E-03     689.025E-03    -346.115E-03     35.0057E-03    -5.38848E+06    -7.26052E+06    -37.5259E+06    -7.15897E+06    -37.3464E+06    -5.66950E+06     865.399E+03         71.2025
            1192     774.477E-06     92.8849E-03         2.74267         2.13758        -7.11100         2.22703        -6.59563         2.13785         3.87451     512.331E-03    -255.240E-03    -257.090E-03    -256.592E-03     512.328E-03    -255.735E-03    -1.90511E-03    -93.0807E+06    -99.7972E+06    -109.870E+06    -98.2099E+06    -109.605E+06    -94.9329E+06     91.8746E+03         64.8319
            1193     1.54977E-03     92.8712E-03         2.62333         2.19781        -7.00311         2.24851        -6.62855         2.19808         3.36401     511.195E-03    -255.098E-03    -256.097E-03    -255.115E-03     511.193E-03    -256.078E-03    -1.73225E-03    -81.4440E+06    -92.8561E+06    -99.5297E+06    -93.2664E+06    -99.1193E+06    -81.4440E+06     875.665E+03         65.1262
            1194     2.32265E-03     92.8531E-03         2.70679         2.22442        -7.04828         2.28948        -6.63097         2.22442         3.74316     510.856E-03    -254.913E-03    -255.943E-03    -254.927E-03     510.851E-03    -255.924E-03     1.97084E-03    -63.1093E+06    -84.1095E+06    -88.4128E+06    -86.1088E+06    -86.4136E+06    -63.1093E+06     1.57568E+06         65.6000
            1195     3.09794E-03     92.8319E-03         2.45122         2.24583        -6.73830         2.31448        -6.60157         2.24583         2.15592     510.176E-03    -254.272E-03    -255.905E-03    -254.234E-03     510.139E-03    -255.905E-03     9.56874E-03    -43.2629E+06    -72.5626E+06    -78.0776E+06    -77.6735E+06    -72.9667E+06    -43.2629E+06     1.00285E+06         66.2492
            1196     3.87523E-03     92.8205E-03         2.38136         2.23683        -6.57926         2.29722        -6.51732         2.25902     846.647E-03     509.405E-03    -253.511E-03    -255.894E-03    -253.365E-03     509.260E-03    -255.894E-03     20.1637E-03    -25.5408E+06    -60.6095E+06    -69.3407E+06    -69.2589E+06    -60.6912E+06    -25.5408E+06     814.130E+03         67.0616
            1197     4.64765E-03     92.8242E-03         2.31835         2.23832        -6.44466         2.23258        -6.38109         2.26052        -1.04391     508.977E-03    -253.061E-03    -255.917E-03    -252.655E-03     508.572E-03    -255.917E-03     34.2121E-03    -10.1858E+06    -49.4324E+06    -60.8917E+06    -60.7237E+06    -49.6003E+06    -10.1858E+06     1.36859E+06         68.0160
            1198     5.42232E-03     92.8401E-03         2.29694         2.24610        -6.36330         2.14307        -6.21337         2.25004        -2.15608     508.221E-03    -252.272E-03    -255.950E-03    -251.371E-03     507.321E-03    -255.950E-03     51.4439E-03     1.85174E+06    -39.2355E+06    -52.1587E+06    -52.0219E+06    -39.3724E+06     1.85174E+06     1.26791E+06         69.0827
            1199     6.19791E-03     92.8870E-03         2.25940         2.13541        -6.15510         2.04777        -6.03761         2.22955        -1.81056     507.460E-03    -251.508E-03    -255.952E-03    -249.852E-03     505.804E-03    -255.952E-03     70.1738E-03     11.3861E+06    -30.7128E+06    -44.2969E+06    -44.2171E+06    -30.7925E+06     11.3861E+06     1.01132E+06         70.2263
            1200     6.97430E-03     92.9625E-03         2.19974         1.96111        -5.87564         1.92983        -5.84436         2.19974    -278.493E-03     507.504E-03    -251.559E-03    -255.946E-03    -248.638E-03     504.584E-03    -255.946E-03     92.9926E-03     20.7131E+06    -23.0086E+06    -37.1881E+06    -37.0952E+06    -23.1015E+06     20.7131E+06     1.09008E+06         71.4114
            1201     7.75011E-03     93.0773E-03         2.16209         1.84375        -5.68556         1.82863        -5.67045         2.16209     655.954E-03     508.593E-03    -252.631E-03    -255.962E-03    -248.067E-03     504.029E-03    -255.962E-03     117.031E-03     29.1810E+06    -15.3857E+06    -31.0903E+06    -30.9755E+06    -15.5005E+06     29.1810E+06     1.21196E+06         72.6130
            1202     8.52125E-03     93.2275E-03         2.12066         1.82956        -5.61030         1.74990        -5.53064         2.12066         1.35719     510.625E-03    -254.612E-03    -256.013E-03    -248.065E-03     504.078E-03    -256.013E-03     140.400E-03     35.4575E+06    -9.78140E+06    -25.6799E+06    -25.5557E+06    -9.90564E+06     35.4575E+06     1.18160E+06         73.8306
            1203     9.29713E-03     93.4200E-03         2.07908         1.83201        -5.56096         1.69756        -5.42651         2.07908         1.97494     512.530E-03    -255.869E-03    -256.661E-03    -247.817E-03     503.852E-03    -256.036E-03     162.195E-03     36.9206E+06    -6.92114E+06    -20.7830E+06    -20.7069E+06    -6.99733E+06     36.9206E+06     847.598E+03         75.0975
            1204     10.0744E-03     93.6455E-03         2.03922         1.72561        -5.41347         1.66199        -5.34986         2.03922     874.073E-03     514.237E-03    -255.946E-03    -258.291E-03    -248.176E-03     504.176E-03    -256.001E-03     175.116E-03     35.3050E+06    -5.26259E+06    -16.3384E+06    -16.2976E+06    -5.30338E+06     35.3050E+06     585.806E+03         76.4748
            1205     10.8464E-03     93.8791E-03         1.99963         1.65332        -5.30725         1.61989        -5.27382         1.99963    -748.277E-03     519.126E-03    -255.977E-03    -263.149E-03    -250.363E-03     506.341E-03    -255.977E-03     197.616E-03     35.5287E+06    -3.44425E+06    -12.8802E+06    -12.8563E+06    -3.46812E+06     35.5287E+06     229.019E+03         78.0168
            1206     11.6225E-03     94.1810E-03         1.95772         1.61122        -5.23020         1.55000        -5.16898         1.95772        -1.27579     521.014E-03    -255.977E-03    -265.036E-03    -252.265E-03     508.242E-03    -255.977E-03     197.941E-03     37.0234E+06    -491.402E+03    -9.80153E+06    -9.58422E+06    -708.717E+03     37.0234E+06     381.113E+03         79.7196
            1207     12.3986E-03     94.4417E-03         1.90719         1.51927        -5.09985         1.43070        -5.01128         1.90719        -1.47680     533.851E-03    -255.993E-03    -277.857E-03    -258.733E-03     514.727E-03    -255.993E-03     240.167E-03     41.3488E+06     4.08667E+06    -6.38266E+06    -6.08574E+06     3.78974E+06     41.3488E+06     1.10749E+06         81.4819
            1208     13.1750E-03     94.9207E-03         1.84799         1.36998        -4.89668         1.28671        -4.81340         1.84799        -1.39328     534.104E-03    -256.048E-03    -278.056E-03    -261.551E-03     517.599E-03    -256.048E-03     214.027E-03     49.1395E+06     7.76843E+06    -3.35066E+06    -3.25654E+06     7.67431E+06     49.1395E+06     876.066E+03         83.1169
            1209     772.243E-06     94.5570E-03         2.37614         1.78317        -6.42624         1.97506        -6.02516         1.78317         3.45368     512.955E-03    -255.946E-03    -257.010E-03    -256.580E-03     512.951E-03    -256.371E-03    -871.421E-06    -94.5217E+06    -100.299E+06    -110.605E+06    -99.0477E+06    -110.383E+06    -95.9942E+06    -218.810E+03         64.8195
            1210     1.54627E-03     94.5392E-03         2.32937         1.89200        -6.44115         1.93315        -6.04493         1.89200         3.46148     511.579E-03    -255.220E-03    -256.359E-03    -255.217E-03     511.576E-03    -256.359E-03    -338.176E-06    -83.0457E+06    -94.1745E+06    -100.586E+06    -94.5266E+06    -100.234E+06    -83.0457E+06    -66.2115E+03         65.1122
            1211     2.32429E-03     94.5195E-03         2.36837         1.92034        -6.44267         2.00306        -6.07737         1.92034         3.33630     510.673E-03    -254.587E-03    -256.086E-03    -254.582E-03     510.668E-03    -256.086E-03     2.78924E-03    -64.1636E+06    -85.2745E+06    -88.6642E+06    -86.6701E+06    -87.2686E+06    -64.1636E+06     316.530E+03         65.5840
            1212     3.09915E-03     94.5005E-03         2.19866         1.95702        -6.23668         2.10507        -6.14308         1.95702         1.66268     510.152E-03    -254.185E-03    -255.967E-03    -254.149E-03     510.116E-03    -255.967E-03     9.41442E-03    -44.0718E+06    -73.1836E+06    -78.3739E+06    -78.1411E+06    -73.4164E+06    -44.0718E+06     876.979E+03         66.2319
            1213     3.87139E-03     94.4886E-03         2.17833         1.99320        -6.17639         2.14325        -6.14131         1.99320     36.8329E-03     509.215E-03    -253.296E-03    -255.919E-03    -253.155E-03     509.074E-03    -255.919E-03     19.7730E-03    -25.2066E+06    -60.5326E+06    -69.8140E+06    -69.5917E+06    -60.7549E+06    -25.2066E+06     1.19833E+06         67.0442
            1214     4.65024E-03     94.4890E-03         2.30912         2.01944        -6.25655         2.16490        -6.11233         2.01944        -1.96949     508.413E-03    -252.536E-03    -255.877E-03    -252.154E-03     508.031E-03    -255.877E-03     33.1949E-03    -9.94597E+06    -49.5023E+06    -60.9821E+06    -60.8775E+06    -49.6070E+06    -9.94597E+06     1.06960E+06         68.0005
            1215     5.42540E-03     94.5111E-03         2.44986         2.03568        -6.34526         2.16837        -6.06377         2.03568        -3.07333     508.258E-03    -252.374E-03    -255.885E-03    -251.515E-03     507.400E-03    -255.885E-03     50.1188E-03     1.72001E+06    -39.5688E+06    -52.8892E+06    -52.8138E+06    -39.6442E+06     1.72001E+06     947.082E+03         69.0708
            1216     6.19822E-03     94.5557E-03         2.39620         1.99184        -6.19297         2.14663        -5.99380         2.04225        -2.47431     508.036E-03    -252.090E-03    -255.946E-03    -250.456E-03     506.403E-03    -255.946E-03     69.6444E-03     11.9862E+06    -30.9892E+06    -45.4083E+06    -45.3501E+06    -31.0474E+06     11.9862E+06     893.434E+03         70.2180
            1217     6.97219E-03     94.6293E-03         2.29970         1.89873        -5.96195         2.10936        -5.91326         2.04039    -638.776E-03     507.955E-03    -251.953E-03    -256.002E-03    -249.068E-03     505.069E-03    -256.002E-03     92.5528E-03     20.9220E+06    -24.0077E+06    -38.8977E+06    -38.8227E+06    -24.0827E+06     20.9220E+06     1.02800E+06         71.4054
            1218     7.74618E-03     94.7465E-03         2.20037         1.87418        -5.81428         2.02908        -5.79959         2.03078     630.151E-03     508.731E-03    -252.699E-03    -256.032E-03    -248.108E-03     504.140E-03    -256.032E-03     117.282E-03     28.1952E+06    -15.8219E+06    -32.6831E+06    -32.5746E+06    -15.9303E+06     28.1952E+06     1.23357E+06         72.6073
            1219     8.52355E-03     94.8982E-03         2.08190         1.90762        -5.71704         1.89279        -5.63204         2.01174         1.46448     510.581E-03    -254.517E-03    -256.064E-03    -247.873E-03     503.936E-03    -256.064E-03     141.457E-03     34.5102E+06    -9.20843E+06    -26.6474E+06    -26.4981E+06    -9.35775E+06     34.5102E+06     1.48960E+06         73.8231
            1220     9.29661E-03     95.0895E-03         2.00197         1.84854        -5.57841         1.73066        -5.44013         1.98157         2.01012     512.093E-03    -255.799E-03    -256.294E-03    -247.417E-03     503.477E-03    -256.059E-03     161.597E-03     36.5776E+06    -6.20843E+06    -21.3999E+06    -21.2273E+06    -6.38101E+06     36.5776E+06     1.53606E+06         75.0882
            1221     10.0718E-03     95.3073E-03         1.94012         1.62664        -5.30406         1.55979        -5.23721         1.94012     795.015E-03     513.381E-03    -255.931E-03    -257.450E-03    -247.435E-03     503.421E-03    -255.986E-03     174.047E-03     35.0217E+06    -5.31937E+06    -17.5787E+06    -17.4356E+06    -5.46244E+06     35.0217E+06     1.16923E+06         76.4658
            1222     10.8516E-03     95.5512E-03         1.88715         1.45623        -5.10423         1.40005        -5.04806         1.88715    -981.997E-03     519.140E-03    -255.945E-03    -263.195E-03    -250.522E-03     506.466E-03    -255.945E-03     196.848E-03     36.2710E+06    -3.35623E+06    -13.3246E+06    -13.2469E+06    -3.43393E+06     36.2710E+06     669.524E+03         78.0114
            1223     11.6232E-03     95.8536E-03         1.82545         1.38134        -5.00574         1.27812        -4.90252         1.82545        -1.59084     522.427E-03    -256.004E-03    -266.422E-03    -253.716E-03     509.721E-03    -256.004E-03     197.887E-03     38.7774E+06    -72.1538E+03    -9.69463E+06    -9.64233E+06    -124.451E+03     38.7774E+06     189.310E+03         79.7203
            1224     12.3944E-03     96.1117E-03         1.75601         1.33612        -4.93627         1.20985        -4.81000         1.75601        -1.74055     534.916E-03    -256.095E-03    -278.821E-03    -259.561E-03     515.656E-03    -256.095E-03     241.270E-03     42.5790E+06     3.93991E+06    -7.09232E+06    -7.03169E+06     3.87928E+06     42.5790E+06     279.039E+03         81.4902
            1225     13.1700E-03     96.5792E-03         1.68706         1.33135        -4.90724         1.22729        -4.80318         1.68706        -1.54817     533.689E-03    -256.147E-03    -277.542E-03    -260.932E-03     517.079E-03    -256.147E-03     214.619E-03     49.7583E+06     8.34253E+06    -3.47686E+06    -3.42339E+06     8.28907E+06     49.7583E+06     429.351E+03         83.1334
            1226     775.953E-06     96.2255E-03         2.20145         1.64712        -6.18002         1.83950        -5.81807         1.64712         2.95860     511.365E-03    -255.135E-03    -256.230E-03    -256.095E-03     511.359E-03    -255.264E-03    -1.42293E-03    -93.7625E+06    -99.7064E+06    -111.720E+06    -98.5081E+06    -111.446E+06    -95.2350E+06     603.522E+03         64.8081
            1227     1.55080E-03     96.2092E-03         2.21856         1.71971        -6.22962         1.62501        -5.63606         1.71971         4.26972     511.514E-03    -255.464E-03    -256.050E-03    -255.691E-03     511.512E-03    -255.820E-03     152.287E-06    -81.3402E+06    -93.6139E+06    -100.180E+06    -93.9583E+06    -99.8360E+06    -81.3402E+06     555.965E+03         65.1022
            1228     2.32220E-03     96.1869E-03         1.99318         1.66690        -5.88804         1.48585        -5.38070         1.66690         3.75040     511.154E-03    -255.131E-03    -256.023E-03    -255.213E-03     511.147E-03    -255.935E-03     3.50679E-03    -63.8511E+06    -85.8216E+06    -89.1680E+06    -87.1751E+06    -87.8145E+06    -63.8511E+06     194.056E+03         65.5748
            1229     3.09734E-03     96.1688E-03         1.73963         1.55737        -5.46143         1.46285        -5.24632         1.61905         2.15164     510.436E-03    -254.459E-03    -255.977E-03    -254.422E-03     510.398E-03    -255.977E-03     9.78710E-03    -45.2230E+06    -74.6143E+06    -79.3423E+06    -79.1208E+06    -74.8358E+06    -45.2230E+06     773.125E+03         66.2226
            1230     3.87526E-03     96.1555E-03         1.67406         1.53636        -5.30197         1.56776        -5.25734         1.59804     229.589E-03     509.833E-03    -253.827E-03    -256.006E-03    -253.694E-03     509.700E-03    -256.006E-03     19.2713E-03    -26.3898E+06    -61.4481E+06    -70.6602E+06    -70.3414E+06    -61.7669E+06    -26.3898E+06     1.43870E+06         67.0342
            1231     4.64668E-03     96.1571E-03         1.98860         1.61098        -5.62189         1.81367        -5.44696         1.61098        -1.97800     508.995E-03    -252.958E-03    -256.037E-03    -252.592E-03     508.629E-03    -256.037E-03     32.4606E-03    -10.1211E+06    -49.9042E+06    -61.9491E+06    -61.7755E+06    -50.0778E+06    -10.1211E+06     1.18800E+06         67.9896
            1232     5.42145E-03     96.1787E-03         2.42696         1.65450        -6.03808         2.09920        -5.71032         1.65450        -3.26528     508.043E-03    -252.008E-03    -256.035E-03    -251.185E-03     507.220E-03    -256.035E-03     49.0991E-03     2.09260E+06    -39.8924E+06    -53.4320E+06    -53.3231E+06    -40.0013E+06     2.09260E+06     1.01900E+06         69.0599
            1233     6.19841E-03     96.2244E-03         2.53894         1.71406        -6.16047         2.31615        -5.93767         1.71406        -2.65714     507.719E-03    -251.690E-03    -256.030E-03    -250.081E-03     506.110E-03    -256.030E-03     68.9924E-03     12.0485E+06    -31.2012E+06    -46.2228E+06    -46.0800E+06    -31.3439E+06     12.0485E+06     1.33194E+06         70.2086
            1234     6.97272E-03     96.3008E-03         2.44408         1.77129        -6.09165         2.38472        -6.03229         1.77129    -802.409E-03     507.875E-03    -251.835E-03    -256.040E-03    -248.911E-03     504.952E-03    -256.040E-03     93.1066E-03     20.3811E+06    -24.1308E+06    -39.5722E+06    -39.4665E+06    -24.2364E+06     20.3811E+06     1.27235E+06         71.3978
            1235     7.74830E-03     96.4132E-03         2.28813         1.80952        -5.95840         2.27760        -5.94786         1.80952     551.599E-03     508.681E-03    -252.632E-03    -256.049E-03    -247.928E-03     503.976E-03    -256.049E-03     118.695E-03     27.9163E+06    -15.9189E+06    -33.0101E+06    -32.9140E+06    -16.0150E+06     27.9163E+06     1.22571E+06         72.6011
            1236     8.52133E-03     96.5676E-03         2.12261         1.81963        -5.80306         2.04943        -5.72988         1.81963         1.36046     510.252E-03    -254.200E-03    -256.052E-03    -247.512E-03     503.564E-03    -256.052E-03     141.954E-03     34.2064E+06    -9.71235E+06    -27.2358E+06    -27.1567E+06    -9.79143E+06     34.2064E+06     1.12783E+06         73.8181
            1237     9.29786E-03     96.7579E-03         1.94194         1.75672        -5.56969         1.77293        -5.44526         1.80130         1.90848     512.467E-03    -255.561E-03    -256.906E-03    -247.840E-03     503.887E-03    -256.048E-03     161.337E-03     35.6798E+06    -6.94844E+06    -22.1811E+06    -22.0622E+06    -7.06727E+06     35.6798E+06     1.19591E+06         75.0828
            1238     10.0732E-03     96.9757E-03         1.78238         1.53335        -5.21313         1.49159        -5.14798         1.75899     651.325E-03     514.686E-03    -256.057E-03    -258.629E-03    -248.846E-03     504.903E-03    -256.057E-03     172.821E-03     35.1291E+06    -4.71231E+06    -17.1281E+06    -16.9856E+06    -4.85475E+06     35.1291E+06     1.18457E+06         76.4572
            1239     10.8456E-03     97.2139E-03         1.69829         1.35605        -4.99559         1.27729        -4.91684         1.69829        -1.21346     519.143E-03    -256.076E-03    -263.067E-03    -250.570E-03     506.646E-03    -256.076E-03     195.303E-03     35.9175E+06    -3.07458E+06    -13.2213E+06    -13.1191E+06    -3.17686E+06     35.9175E+06     975.033E+03         77.9998
            1240     11.6220E-03     97.5296E-03         1.63004         1.31479        -4.93945         1.17721        -4.80186         1.63004        -1.83339     521.030E-03    -256.094E-03    -264.937E-03    -252.353E-03     508.447E-03    -256.094E-03     196.471E-03     39.6375E+06     240.988E+03    -9.53814E+06    -9.46483E+06     167.677E+03     39.6375E+06     823.432E+03         79.7116
            1241     12.3989E-03     97.7792E-03         1.59564         1.33952        -4.99041         1.22081        -4.83947         1.56341        -1.93247     534.738E-03    -256.128E-03    -278.610E-03    -259.269E-03     515.397E-03    -256.128E-03     241.322E-03     45.5340E+06     5.12639E+06    -5.99378E+06    -5.95142E+06     5.08403E+06     45.5340E+06     577.777E+03         81.4901
            1242     13.1708E-03     98.2588E-03         1.60311         1.38312        -5.09916         1.36038        -4.98157         1.50826        -1.68692     533.746E-03    -256.146E-03    -277.600E-03    -260.699E-03     516.845E-03    -256.146E-03     216.859E-03     51.6304E+06     8.89584E+06    -3.26809E+06    -3.23511E+06     8.86286E+06     51.6304E+06     324.635E+03         83.1418
            1243     774.635E-06     97.8927E-03         2.42817         1.71861        -6.54971         1.87777        -5.99932         1.71861         2.66536     511.217E-03    -254.939E-03    -256.278E-03    -255.297E-03     511.211E-03    -255.914E-03    -3.06555E-03    -95.4185E+06    -100.423E+06    -113.839E+06    -99.9353E+06    -113.386E+06    -96.3593E+06     808.210E+03         64.8037
            1244     1.54882E-03     97.8769E-03         2.46658         1.74777        -6.58553         1.54943        -5.66838         1.74777         5.42859     511.636E-03    -255.621E-03    -256.015E-03    -255.858E-03     511.633E-03    -255.775E-03    -2.13046E-03    -82.8057E+06    -94.3299E+06    -101.589E+06    -94.7657E+06    -101.153E+06    -82.8057E+06     1.04951E+06         65.0977
            1245     2.32562E-03     97.8572E-03         1.99163         1.63429        -5.94166         1.25545        -5.20547         1.63429         4.59570     511.507E-03    -255.443E-03    -256.065E-03    -255.525E-03     511.500E-03    -255.976E-03     1.59521E-03    -64.3966E+06    -86.3407E+06    -90.2983E+06    -88.0508E+06    -88.5883E+06    -64.3966E+06     1.23302E+06         65.5697
            1246     3.09932E-03     97.8364E-03         1.66076         1.38138        -5.29835         1.09535        -4.86941         1.51786         3.12917     510.972E-03    -254.873E-03    -256.099E-03    -254.840E-03     510.938E-03    -256.099E-03     8.65885E-03    -44.8807E+06    -75.4281E+06    -80.6276E+06    -80.4099E+06    -75.6457E+06    -44.8807E+06     815.124E+03         66.2164
            1247     3.87050E-03     97.8257E-03         1.43256         1.17669        -4.80664         1.09970        -4.72869         1.43161     850.775E-03     510.146E-03    -253.983E-03    -256.163E-03    -253.847E-03     510.010E-03    -256.163E-03     19.3385E-03    -26.3153E+06    -62.3700E+06    -71.5642E+06    -71.3368E+06    -62.5974E+06    -26.3153E+06     634.574E+03         67.0265
            1248     4.64747E-03     97.8268E-03         1.60549         1.27214        -5.01502         1.30184        -4.82981         1.39058        -1.65477     509.222E-03    -253.035E-03    -256.186E-03    -252.650E-03     508.836E-03    -256.186E-03     33.3462E-03    -9.80398E+06    -50.0024E+06    -62.0575E+06    -61.6596E+06    -50.4003E+06    -9.80398E+06     1.22847E+06         67.9806
            1249     5.42266E-03     97.8459E-03         1.98891         1.39687        -5.46945         1.61674        -5.09728         1.39687        -3.22540     508.276E-03    -252.102E-03    -256.173E-03    -251.242E-03     507.416E-03    -256.173E-03     50.2572E-03     2.03194E+06    -40.9476E+06    -54.0370E+06    -53.7250E+06    -41.2596E+06     2.03194E+06     1.63868E+06         69.0501
            1250     6.19614E-03     97.8929E-03         2.17141         1.43617        -5.64906         1.90694        -5.38459         1.43617        -2.72948     507.279E-03    -251.158E-03    -256.121E-03    -249.531E-03     505.652E-03    -256.121E-03     69.4404E-03     11.9147E+06    -31.8514E+06    -46.0639E+06    -45.8901E+06    -32.0253E+06     11.9147E+06     1.47435E+06         70.1991
            1251     6.97265E-03     97.9671E-03         2.13957         1.48532        -5.64504         2.06131        -5.56678         1.48532    -915.271E-03     507.366E-03    -251.308E-03    -256.059E-03    -248.389E-03     504.448E-03    -256.059E-03     92.9519E-03     20.5121E+06    -23.3008E+06    -38.7008E+06    -38.5714E+06    -23.4301E+06     20.5121E+06     1.38095E+06         71.3899
            1252     7.74739E-03     98.0828E-03         2.07908         1.52402        -5.62047         2.06499        -5.60638         1.52402     578.471E-03     508.621E-03    -252.583E-03    -256.037E-03    -247.926E-03     503.963E-03    -256.037E-03     118.136E-03     27.5284E+06    -16.4856E+06    -32.9011E+06    -32.7955E+06    -16.5911E+06     27.5284E+06     1.30733E+06         72.5950
            1253     8.52365E-03     98.2369E-03         2.01347         1.54012        -5.58012         1.91976        -5.48642         1.54012         1.49976     510.212E-03    -254.164E-03    -256.048E-03    -247.551E-03     503.599E-03    -256.048E-03     141.127E-03     34.7994E+06    -10.0639E+06    -27.0430E+06    -26.8900E+06    -10.2169E+06     34.7994E+06     1.51671E+06         73.8122
            1254     9.29783E-03     98.4249E-03         1.85107         1.52951        -5.43086         1.69619        -5.27598         1.52951         2.07353     512.919E-03    -255.592E-03    -257.326E-03    -248.243E-03     504.307E-03    -256.064E-03     161.685E-03     37.2817E+06    -5.97342E+06    -21.6950E+06    -21.5761E+06    -6.09232E+06     37.2817E+06     1.21329E+06         75.0743
            1255     10.0701E-03     98.6502E-03         1.63026         1.42728        -5.14501         1.48334        -5.06811         1.49729     827.002E-03     515.876E-03    -256.117E-03    -259.760E-03    -249.802E-03     505.919E-03    -256.117E-03     174.585E-03     35.8393E+06    -4.19408E+06    -17.2133E+06    -17.1761E+06    -4.23128E+06     35.8393E+06     675.171E+03         76.4433
            1256     10.8441E-03     98.8841E-03         1.52682         1.34030        -5.00710         1.34326        -4.93531         1.45207        -1.09631     520.153E-03    -256.183E-03    -263.970E-03    -251.212E-03     507.395E-03    -256.183E-03     197.542E-03     36.5053E+06    -2.20011E+06    -13.2304E+06    -13.1751E+06    -2.25544E+06     36.5053E+06     751.818E+03         77.9812
            1257     11.6199E-03     99.1913E-03         1.54365         1.33654        -5.08079         1.34223        -4.94885         1.40601        -1.83648     520.748E-03    -256.185E-03    -264.564E-03    -251.768E-03     507.953E-03    -256.185E-03     197.992E-03     38.7846E+06     70.0566E+03    -10.0016E+06    -9.85102E+06    -80.4847E+03     38.7846E+06     1.13183E+06         79.6953
            1258     12.3943E-03     99.4508E-03         1.63529         1.33972        -5.24096         1.45329        -5.08668         1.36743        -2.02559     532.816E-03    -256.118E-03    -276.698E-03    -257.216E-03     513.334E-03    -256.118E-03     241.622E-03     43.2422E+06     4.27770E+06    -6.78792E+06    -6.66498E+06     4.15476E+06     43.2422E+06     896.513E+03         81.4868
            1259     13.1734E-03     99.9221E-03         1.69785         1.34091        -5.36859         1.57910        -5.24985         1.34091        -1.74140     532.397E-03    -256.042E-03    -276.355E-03    -259.434E-03     515.476E-03    -256.042E-03     216.096E-03     51.3003E+06     9.49198E+06    -3.26127E+06    -3.21962E+06     9.45033E+06     51.3003E+06     245.597E+03         83.1566
            1260     774.185E-06     99.5623E-03         2.57533         1.52725        -6.57746         1.66327        -5.66540         1.52725         2.25151     513.132E-03    -254.734E-03    -258.398E-03    -257.136E-03     513.130E-03    -255.994E-03    -1.64431E-03    -96.4210E+06    -101.450E+06    -117.634E+06    -100.252E+06    -117.116E+06    -98.1363E+06     1.42704E+06         64.8011
            1261     1.54840E-03     99.5465E-03         2.54457         1.56102        -6.54289         1.40289        -5.40121         1.56102         5.96568     512.426E-03    -255.870E-03    -256.556E-03    -255.878E-03     512.424E-03    -256.546E-03    -2.26445E-03    -83.9532E+06    -95.8291E+06    -102.781E+06    -96.2717E+06    -102.338E+06    -83.9532E+06     941.040E+03         65.0926
            1262     2.32069E-03     99.5258E-03         2.00808         1.48061        -5.88258         1.20716        -5.08167         1.48061         4.76190     511.816E-03    -255.365E-03    -256.451E-03    -255.360E-03     511.811E-03    -256.451E-03     1.15702E-03    -65.4864E+06    -87.6361E+06    -91.4246E+06    -89.1346E+06    -89.9262E+06    -65.4864E+06     1.03778E+06         65.5622
            1263     3.09560E-03     99.5072E-03         1.66004         1.26873        -5.27673         1.05241        -4.79599         1.39563         3.17804     510.970E-03    -254.575E-03    -256.396E-03    -254.542E-03     510.937E-03    -256.396E-03     8.41707E-03    -44.5045E+06    -75.4472E+06    -80.6501E+06    -80.3224E+06    -75.7749E+06    -44.5045E+06     978.366E+03         66.2072
            1264     3.87346E-03     99.4937E-03         1.31915         1.03577        -4.65391     965.885E-03        -4.58402         1.31915     531.997E-03     509.899E-03    -253.567E-03    -256.332E-03    -253.434E-03     509.766E-03    -256.332E-03     19.1577E-03    -25.1684E+06    -62.5384E+06    -71.6685E+06    -71.3516E+06    -62.8552E+06    -25.1684E+06     847.146E+03         67.0165
            1265     4.64686E-03     99.4947E-03         1.47199         1.10482        -4.83213     993.909E-03        -4.51053         1.26130        -2.16776     508.900E-03    -252.642E-03    -256.258E-03    -252.262E-03     508.520E-03    -256.258E-03     33.0519E-03    -9.53304E+06    -51.2394E+06    -63.0678E+06    -62.5655E+06    -51.7417E+06    -9.53304E+06     1.02430E+06         67.9711
            1266     5.42109E-03     99.5158E-03         1.73453         1.22869        -5.17941         1.12101        -4.56588         1.22869        -3.87606     508.210E-03    -252.017E-03    -256.193E-03    -251.151E-03     507.344E-03    -256.193E-03     50.3848E-03     1.62388E+06    -41.3695E+06    -54.3287E+06    -54.0692E+06    -41.6290E+06     1.62388E+06     961.760E+03         69.0420
            1267     6.19748E-03     99.5601E-03         1.75745         1.22128        -5.17074         1.32067        -4.73397         1.22128        -3.25182     507.764E-03    -251.608E-03    -256.156E-03    -249.991E-03     506.148E-03    -256.156E-03     69.3415E-03     10.6147E+06    -32.6488E+06    -46.4912E+06    -46.4062E+06    -32.7338E+06     10.6147E+06     1.00316E+06         70.1922
            1268     6.97254E-03     99.6335E-03         1.66657         1.23327        -5.07985         1.52899        -4.94228         1.23327        -1.14915     507.659E-03    -251.523E-03    -256.137E-03    -248.630E-03     504.767E-03    -256.137E-03     92.5069E-03     20.0476E+06    -24.1641E+06    -39.4613E+06    -39.3523E+06    -24.2731E+06     20.0476E+06     1.22381E+06         71.3834
            1269     7.74744E-03     99.7539E-03         1.65038         1.25135        -5.08245         1.61884        -5.05091         1.25135     764.043E-03     508.417E-03    -252.302E-03    -256.115E-03    -247.695E-03     503.810E-03    -256.115E-03     117.503E-03     28.4781E+06    -16.4404E+06    -32.8939E+06    -32.7400E+06    -16.5943E+06     28.4781E+06     1.50525E+06         72.5874
            1270     8.52150E-03     99.9018E-03         1.74264         1.26098        -5.20016         1.57222        -5.02974         1.26098         1.98005     510.248E-03    -254.140E-03    -256.108E-03    -247.577E-03     503.686E-03    -256.108E-03     140.563E-03     35.2056E+06    -10.1771E+06    -27.0288E+06    -26.8270E+06    -10.3789E+06     35.2056E+06     1.70751E+06         73.8007
            1271     9.29668E-03     100.098E-03         1.74571         1.25624        -5.22862         1.47374        -4.95665         1.25624         2.66979     512.625E-03    -255.684E-03    -256.941E-03    -247.844E-03     503.947E-03    -256.104E-03     162.191E-03     37.9086E+06    -5.84470E+06    -21.5684E+06    -21.3845E+06    -6.02855E+06     37.9086E+06     1.56401E+06         75.0565
            1272     10.0730E-03     100.319E-03         1.53469         1.24106        -5.04680         1.40204        -4.91414         1.24106         1.38168     514.976E-03    -256.092E-03    -258.884E-03    -248.797E-03     504.889E-03    -256.092E-03     175.512E-03     36.8853E+06    -3.75042E+06    -17.3379E+06    -17.1113E+06    -3.97703E+06     36.8853E+06     1.50795E+06         76.4207
            1273     10.8477E-03     100.558E-03         1.46623         1.22263        -5.01505         1.41394        -4.96277         1.22263    -723.517E-03     519.818E-03    -256.098E-03    -263.720E-03    -250.827E-03     506.924E-03    -256.098E-03     198.516E-03     37.6402E+06    -1.67067E+06    -13.7326E+06    -13.5294E+06    -1.87383E+06     37.6402E+06     1.36794E+06         77.9598
            1274     11.6199E-03     100.861E-03         1.60746         1.20888        -5.20343         1.50047        -5.09643         1.20888        -1.68975     521.128E-03    -256.083E-03    -265.045E-03    -251.916E-03     507.999E-03    -256.083E-03     200.798E-03     39.0285E+06     46.3785E+03    -10.6100E+06    -10.4202E+06    -143.421E+03     39.0285E+06     710.869E+03         79.6844
            1275     12.3980E-03     101.115E-03         1.75514         1.20205        -5.40732         1.61494        -5.26712         1.20205        -1.97601     533.257E-03    -256.029E-03    -277.228E-03    -257.538E-03     513.567E-03    -256.029E-03     243.669E-03     43.2828E+06     4.94184E+06    -7.09562E+06    -6.96393E+06     4.81015E+06     43.2828E+06     32.2644E+03         81.4960
            1276     13.1754E-03     101.585E-03         1.81969         1.20241        -5.53878         1.71160        -5.43068         1.20241        -1.69522     533.221E-03    -256.002E-03    -277.220E-03    -260.385E-03     516.386E-03    -256.002E-03     215.552E-03     52.0025E+06     10.0459E+06    -3.45586E+06    -3.40821E+06     9.99826E+06     52.0025E+06     12.1084E+03         83.1869
            1277     772.123E-06     101.234E-03         2.11350     722.655E-03        -5.37826     885.985E-03        -4.15074     722.655E-03         2.03347     512.982E-03    -254.921E-03    -258.061E-03    -257.416E-03     512.978E-03    -255.561E-03    -1.65795E-03    -97.7887E+06    -102.704E+06    -120.750E+06    -102.202E+06    -120.477E+06    -98.5632E+06     577.698E+03         64.7820
            1278     1.54658E-03     101.217E-03         2.26224     826.025E-03        -5.59262     869.519E-03        -4.19990     826.025E-03         5.84605     512.474E-03    -255.855E-03    -256.618E-03    -255.958E-03     512.471E-03    -256.513E-03     599.754E-06    -84.2346E+06    -96.0681E+06    -103.781E+06    -96.6736E+06    -103.175E+06    -84.2346E+06     1.40647E+06         65.0747
            1279     2.32272E-03     101.196E-03         1.70113     854.220E-03        -5.02209     890.363E-03        -4.21132     854.220E-03         4.35765     511.867E-03    -255.395E-03    -256.472E-03    -255.388E-03     511.860E-03    -256.472E-03     3.75914E-03    -65.3064E+06    -88.7557E+06    -92.0918E+06    -90.2279E+06    -90.6195E+06    -65.3064E+06     994.605E+03         65.5458
            1280     3.09748E-03     101.175E-03         1.40833     825.309E-03        -4.66200     941.403E-03        -4.24718     877.413E-03         2.55000     511.049E-03    -254.625E-03    -256.424E-03    -254.586E-03     511.010E-03    -256.424E-03     10.0490E-03    -46.1941E+06    -76.6839E+06    -81.5783E+06    -81.1851E+06    -77.0771E+06    -46.1941E+06     1.10974E+06         66.1926
            1281     3.86974E-03     101.163E-03         1.15841     811.246E-03        -4.36479         1.01278        -4.30930     901.386E-03    -277.615E-03     510.157E-03    -253.774E-03    -256.384E-03    -253.633E-03     510.017E-03    -256.384E-03     19.7623E-03    -26.4924E+06    -63.5507E+06    -72.7457E+06    -72.3141E+06    -63.9824E+06    -26.4924E+06     1.42911E+06         67.0039
            1282     4.64626E-03     101.163E-03         1.62518     887.895E-03        -4.88178         1.08936        -4.38399     925.931E-03        -3.08042     509.032E-03    -252.703E-03    -256.330E-03    -252.328E-03     508.657E-03    -256.330E-03     32.9046E-03    -10.0351E+06    -51.9856E+06    -64.0246E+06    -63.6945E+06    -52.3157E+06    -10.0351E+06     1.00931E+06         67.9606
            1283     5.42289E-03     101.183E-03         2.04017     952.399E-03        -5.34728         1.19850        -4.50560     952.399E-03        -4.68817     508.041E-03    -251.793E-03    -256.248E-03    -250.946E-03     507.193E-03    -256.248E-03     49.7890E-03     1.85181E+06    -41.5735E+06    -54.8772E+06    -54.7078E+06    -41.7428E+06     1.85181E+06     901.759E+03         69.0340
            1284     6.19660E-03     101.230E-03         1.87881     982.247E-03        -5.20530         1.30711        -4.63360     982.247E-03        -3.80134     507.905E-03    -251.707E-03    -256.197E-03    -250.067E-03     506.265E-03    -256.197E-03     69.7103E-03     11.4324E+06    -32.8713E+06    -47.3348E+06    -47.2458E+06    -32.9603E+06     11.4324E+06     1.05612E+06         70.1867
            1285     6.96972E-03     101.304E-03         1.54913         1.01126        -4.89747         1.36072        -4.70905         1.01126        -1.36556     508.181E-03    -251.982E-03    -256.198E-03    -249.046E-03     505.244E-03    -256.198E-03     93.3387E-03     20.1134E+06    -24.9641E+06    -40.6675E+06    -40.6039E+06    -25.0277E+06     20.1134E+06     983.036E+03         71.3784
            1286     7.74616E-03     101.417E-03         1.40549         1.03307        -4.77875         1.35708        -4.73035         1.03307     926.204E-03     508.700E-03    -252.501E-03    -256.199E-03    -247.842E-03     504.041E-03    -256.199E-03     118.161E-03     28.0356E+06    -17.5801E+06    -33.9150E+06    -33.7911E+06    -17.7040E+06     28.0356E+06     1.03718E+06         72.5796
            1287     8.52180E-03     101.576E-03         1.56811         1.04487        -4.97027         1.32567        -4.72784         1.04487         2.33549     510.085E-03    -253.906E-03    -256.179E-03    -247.283E-03     503.462E-03    -256.179E-03     141.205E-03     35.2921E+06    -10.9266E+06    -27.7263E+06    -27.5755E+06    -11.0774E+06     35.2921E+06     1.19478E+06         73.7873
            1288     9.29656E-03     101.761E-03         1.67081         1.04844        -5.10990         1.31314        -4.75223         1.04844         3.02365     512.433E-03    -255.502E-03    -256.930E-03    -247.599E-03     503.745E-03    -256.146E-03     162.257E-03     38.3097E+06    -6.58731E+06    -22.4348E+06    -22.2222E+06    -6.79992E+06     38.3097E+06     1.73532E+06         75.0360
            1289     10.0715E-03     101.989E-03         1.52089         1.04959        -5.00885         1.35734        -4.84530         1.04959         1.61817     513.902E-03    -256.089E-03    -257.813E-03    -247.875E-03     503.964E-03    -256.089E-03     174.000E-03     37.1609E+06    -4.38321E+06    -17.8646E+06    -17.5488E+06    -4.69902E+06     37.1609E+06     1.98527E+06         76.3959
            1290     10.8471E-03     102.224E-03         1.50784         1.05381        -5.05365         1.45686        -5.00268         1.05381    -622.473E-03     517.605E-03    -255.993E-03    -261.612E-03    -248.857E-03     504.850E-03    -255.993E-03     196.796E-03     37.4149E+06    -2.29741E+06    -14.1585E+06    -13.9411E+06    -2.51481E+06     37.4149E+06     1.45623E+06         77.9402
            1291     11.6266E-03     102.532E-03         1.68429         1.06428        -5.29138         1.58022        -5.18731         1.06428        -1.68931     520.162E-03    -255.903E-03    -264.259E-03    -251.273E-03     507.176E-03    -255.903E-03     199.337E-03     40.3083E+06     896.565E+03    -10.2564E+06    -10.1220E+06     762.143E+03     40.3083E+06     535.127E+03         79.6818
            1292     12.4004E-03     102.781E-03         1.83486         1.07968        -5.50552         1.69387        -5.36453         1.07968        -2.00558     534.816E-03    -255.909E-03    -278.907E-03    -259.428E-03     515.337E-03    -255.909E-03     242.686E-03     46.3946E+06     6.95647E+06    -6.22207E+06    -6.11939E+06     6.85378E+06     46.3946E+06     136.745E+03         81.5145
            1293     13.1715E-03     103.259E-03         1.90218         1.09943        -5.63738         1.79295        -5.52814         1.09943        -1.72017     534.726E-03    -255.991E-03    -278.735E-03    -261.946E-03     517.937E-03    -255.991E-03     215.999E-03     54.0340E+06     10.8820E+06    -3.42949E+06    -3.35960E+06     10.8121E+06     54.0340E+06     123.740E+03         83.2207
            1294     777.250E-06     102.903E-03         1.66277    -58.8975E-03        -4.20620     220.988E-03        -2.76442    -58.8975E-03         2.38564     510.905E-03    -254.805E-03    -256.101E-03    -255.111E-03     510.900E-03    -255.789E-03    -732.048E-06    -95.8454E+06    -102.488E+06    -123.001E+06    -100.813E+06    -122.910E+06    -97.6117E+06     915.803E+03         64.7421
            1295     1.55076E-03     102.887E-03         2.10114     113.954E-03        -4.80966     227.088E-03        -2.93561     113.954E-03         6.04617     511.813E-03    -255.565E-03    -256.248E-03    -256.109E-03     511.809E-03    -255.701E-03     380.936E-06    -86.0086E+06    -96.5626E+06    -106.446E+06    -97.0096E+06    -105.999E+06    -86.0086E+06     1.37552E+06         65.0401
            1296     2.32337E-03     102.865E-03         1.63619     196.538E-03        -4.39721     490.969E-03        -3.25198     196.538E-03         4.66150     511.847E-03    -255.576E-03    -256.271E-03    -255.806E-03     511.842E-03    -256.036E-03     3.19043E-03    -66.3034E+06    -87.9590E+06    -93.5196E+06    -90.1286E+06    -91.3500E+06    -66.3034E+06     1.84014E+06         65.5172
            1297     3.09705E-03     102.846E-03         1.30022     307.205E-03        -4.13771     763.668E-03        -3.60116     307.205E-03         2.77473     511.134E-03    -254.931E-03    -256.203E-03    -254.893E-03     511.096E-03    -256.203E-03     9.70509E-03    -45.8953E+06    -77.1160E+06    -83.6186E+06     -82.802E+06    -77.9326E+06    -45.8953E+06     1.56273E+06         66.1697
            1298     3.87352E-03     102.832E-03         1.08751     425.267E-03        -4.02252         1.00985        -3.94485     425.267E-03    -55.3050E-03     510.216E-03    -253.963E-03    -256.254E-03    -253.810E-03     510.064E-03    -256.254E-03     20.5736E-03    -27.5822E+06     -64.547E+06    -73.8878E+06    -73.5027E+06    -64.9321E+06    -27.5822E+06     1.21147E+06         66.9864
            1299     4.64633E-03     102.832E-03         1.71167     541.729E-03        -4.75614         1.23969        -4.28416     541.729E-03        -3.00299     509.497E-03    -253.218E-03    -256.279E-03    -252.821E-03     509.101E-03    -256.279E-03     33.9865E-03    -10.5805E+06    -52.4095E+06    -64.2291E+06    -63.9547E+06    -52.6839E+06    -10.5805E+06     1.31380E+06         67.9478
            1300     5.41971E-03     102.850E-03         2.19346     649.251E-03        -5.34242         1.38489        -4.53384     649.251E-03        -4.65702     508.471E-03    -252.190E-03    -256.281E-03    -251.321E-03     507.602E-03    -256.281E-03     50.4551E-03     2.41301E+06    -42.5576E+06    -56.1613E+06    -55.9948E+06    -42.7242E+06     2.41301E+06     1.39987E+06         69.0249
            1301     6.19663E-03     102.898E-03         1.96548     736.663E-03        -5.20172         1.39824        -4.63447     736.663E-03        -3.82548     507.468E-03    -251.238E-03    -256.229E-03    -249.584E-03     505.813E-03    -256.229E-03     70.0022E-03     12.8948E+06    -33.1738E+06    -48.3183E+06    -48.1596E+06    -33.3325E+06     12.8948E+06     1.48671E+06         70.1804
            1302     6.97391E-03     102.973E-03         1.54284     798.370E-03        -4.84104         1.34827        -4.64647     798.370E-03        -1.39196     508.031E-03    -251.847E-03    -256.185E-03    -248.855E-03     505.040E-03    -256.185E-03     94.1341E-03     21.8528E+06    -24.5719E+06    -40.8249E+06    -40.6894E+06    -24.7074E+06     21.8528E+06     1.41170E+06         71.3740
            1303     7.74555E-03     103.090E-03         1.33419     837.365E-03        -4.67546         1.28791        -4.62919     837.365E-03     894.327E-03     509.140E-03    -252.948E-03    -256.192E-03    -248.236E-03     504.428E-03    -256.192E-03     118.974E-03     28.6052E+06    -18.3493E+06    -34.5151E+06    -34.4095E+06    -18.4549E+06     28.6052E+06     981.859E+03         72.5746
            1304     8.52088E-03     103.239E-03         1.49908     861.009E-03        -4.88152         1.27076        -4.65321     861.009E-03         2.24204     510.272E-03    -254.074E-03    -256.199E-03    -247.407E-03     503.606E-03    -256.199E-03     141.661E-03     35.3667E+06    -12.1354E+06    -28.7961E+06    -28.6876E+06    -12.2438E+06     35.3667E+06     842.294E+03         73.7786
            1305     9.29684E-03     103.434E-03         1.65241     878.779E-03        -5.08593         1.33219        -4.76571     878.779E-03         2.84663     512.220E-03    -255.478E-03    -256.742E-03    -247.312E-03     503.469E-03    -256.157E-03     162.792E-03     38.4676E+06    -7.70159E+06    -23.5221E+06    -23.3911E+06    -7.83256E+06     38.4676E+06     1.10799E+06         75.0230
            1306     10.0707E-03     103.656E-03         1.59054     899.166E-03        -5.08684         1.45443        -4.95073     899.166E-03         1.38455     513.498E-03    -255.990E-03    -257.509E-03    -247.396E-03     503.465E-03    -256.069E-03     174.730E-03     37.6716E+06    -5.38768E+06    -18.4518E+06    -18.3061E+06    -5.53336E+06     37.6716E+06     1.25182E+06         76.3809
            1307     10.8487E-03     103.887E-03         1.64096     924.756E-03        -5.20869         1.58089        -5.14862     924.756E-03    -847.790E-03     517.559E-03    -255.969E-03    -261.591E-03    -248.945E-03     504.914E-03    -255.969E-03     196.129E-03     39.4286E+06    -1.31314E+06    -13.0020E+06    -12.9248E+06    -1.39039E+06     39.4286E+06     838.525E+03         77.9284
            1308     11.6244E-03     104.194E-03         1.81848     954.812E-03        -5.45772         1.69332        -5.33256     954.812E-03        -1.89084     520.494E-03    -255.920E-03    -264.574E-03    -251.904E-03     507.824E-03    -255.920E-03     197.032E-03     42.9063E+06     2.39071E+06    -8.66533E+06    -8.55420E+06     2.27958E+06     42.9063E+06     933.023E+03         79.6786
            1309     12.3997E-03     104.457E-03         1.96490     988.061E-03        -5.67162         1.80934        -5.51606     988.061E-03        -2.15229     534.137E-03    -255.947E-03    -278.190E-03    -259.134E-03     515.081E-03    -255.947E-03     239.775E-03     46.6572E+06     6.21918E+06    -6.59235E+06    -6.46897E+06     6.09580E+06     46.6572E+06     1.13115E+06         81.5233
            1310     13.1763E-03     104.929E-03         1.99530         1.02367        -5.76156         1.88297        -5.64923         1.02367        -1.75989     533.337E-03    -256.002E-03    -277.335E-03    -260.866E-03     516.869E-03    -256.002E-03     213.708E-03     54.0574E+06     11.1064E+06    -3.28352E+06    -3.21409E+06     11.0370E+06     54.0574E+06     416.173E+03         83.2405
            1311     773.819E-06     104.569E-03         1.65313    -115.437E-03        -4.27059     372.323E-03        -2.98979    -115.437E-03         2.84403     511.061E-03    -253.944E-03    -257.117E-03    -256.181E-03     511.058E-03    -254.877E-03    -1.43899E-03    -97.6294E+06    -103.205E+06    -130.098E+06    -101.728E+06    -129.809E+06    -99.3957E+06     2.33865E+06         64.6958
            1312     1.54916E-03     104.555E-03         2.20095     144.862E-03        -5.07336     229.688E-03        -3.10209     144.862E-03         6.41318     511.048E-03    -254.990E-03    -256.058E-03    -255.430E-03     511.047E-03    -255.616E-03    -1.08069E-03    -86.8592E+06    -97.0934E+06    -110.455E+06    -98.3204E+06    -109.228E+06    -86.8592E+06     2.91993E+06         64.9964
            1313     2.32393E-03     104.537E-03         1.74771     189.196E-03        -4.64803     357.853E-03        -3.25818     189.196E-03         5.25299     511.167E-03    -255.163E-03    -256.004E-03    -255.392E-03     511.161E-03    -255.769E-03     3.10358E-03    -67.4507E+06    -88.9071E+06    -95.6806E+06    -91.6916E+06    -92.8961E+06    -67.4507E+06     2.62785E+06         65.4785
            1314     3.09848E-03     104.514E-03         1.22383     251.020E-03        -4.16091     551.207E-03        -3.48829     251.020E-03         3.27567     511.017E-03    -255.054E-03    -255.963E-03    -255.016E-03     510.979E-03    -255.963E-03     9.88171E-03    -45.2508E+06    -76.8188E+06    -84.2868E+06    -83.0757E+06    -78.0300E+06    -45.2508E+06     2.19797E+06         66.1373
            1315     3.87167E-03     104.500E-03     862.196E-03     329.325E-03        -3.86537     754.634E-03        -3.75781     329.325E-03     402.575E-03     510.227E-03    -254.124E-03    -256.103E-03    -253.984E-03     510.087E-03    -256.103E-03     19.8305E-03    -25.4565E+06    -64.5222E+06    -75.0933E+06    -74.4597E+06    -65.1558E+06    -25.4565E+06     1.87285E+06         66.9608
            1316     4.64805E-03     104.502E-03         1.37019     411.463E-03        -4.45084     892.710E-03        -3.97335     411.463E-03        -2.75232     509.159E-03    -253.009E-03    -256.150E-03    -252.611E-03     508.760E-03    -256.150E-03     33.8268E-03    -9.98385E+06    -53.4318E+06    -66.0644E+06    -65.7359E+06    -53.7603E+06    -9.98385E+06     1.71260E+06         67.9292
            1317     5.42304E-03     104.521E-03         1.83863     485.733E-03        -4.99945     980.225E-03        -4.14105     485.733E-03        -4.49718     508.612E-03    -252.447E-03    -256.165E-03    -251.548E-03     507.713E-03    -256.165E-03     51.4245E-03     2.35245E+06    -43.1126E+06    -56.8023E+06    -56.6206E+06    -43.2942E+06     2.35245E+06     1.39194E+06         69.0127
            1318     6.19614E-03     104.564E-03         1.67049     548.728E-03        -4.90036         1.05416        -4.28403     548.728E-03        -3.77261     508.152E-03    -251.963E-03    -256.189E-03    -250.294E-03     506.483E-03    -256.189E-03     70.4665E-03     13.1700E+06    -33.9291E+06    -48.4994E+06    -48.3763E+06    -34.0522E+06     13.1700E+06     1.27513E+06         70.1728
            1319     6.97020E-03     104.640E-03         1.34703     601.574E-03        -4.63528         1.13310        -4.42135     601.574E-03        -1.43289     507.718E-03    -251.538E-03    -256.181E-03    -248.561E-03     504.741E-03    -256.181E-03     93.8660E-03     22.6576E+06    -24.9398E+06    -41.0757E+06    -40.9051E+06    -25.1103E+06     22.6576E+06     1.59849E+06         71.3691
            1320     7.74821E-03     104.760E-03         1.27157     647.662E-03        -4.61470         1.23062        -4.57374     647.662E-03     818.789E-03     508.605E-03    -252.451E-03    -256.154E-03    -247.754E-03     503.908E-03    -256.154E-03     118.703E-03     30.5536E+06    -17.8875E+06    -34.3385E+06    -34.1619E+06    -18.0641E+06     30.5536E+06     1.68099E+06         72.5710
            1321     8.52160E-03     104.909E-03         1.55276     691.666E-03        -4.95435         1.34745        -4.74904     691.666E-03         2.16252     510.429E-03    -254.279E-03    -256.150E-03    -247.546E-03     503.696E-03    -256.150E-03     142.333E-03     37.6570E+06    -11.8644E+06    -28.3067E+06    -28.1232E+06    -12.0479E+06     37.6570E+06     1.45193E+06         73.7743
            1322     9.29568E-03     105.101E-03         1.75608     736.905E-03        -5.22956         1.46578        -4.93925     736.905E-03         2.77797     511.829E-03    -255.513E-03    -256.316E-03    -246.939E-03     503.045E-03    -256.106E-03     163.072E-03     40.8879E+06    -7.53253E+06    -22.7075E+06    -22.5722E+06    -7.66784E+06     40.8879E+06     1.07296E+06         75.0167
            1323     10.0751E-03     105.321E-03         1.68685     784.099E-03        -5.24552         1.56273        -5.12140     784.099E-03         1.34688     513.336E-03    -255.928E-03    -257.408E-03    -247.382E-03     503.389E-03    -256.007E-03     173.949E-03     39.6466E+06    -4.96626E+06    -18.0392E+06    -17.9535E+06    -5.05197E+06     39.6466E+06     549.214E+03         76.3732
            1324     10.8484E-03     105.558E-03         1.70338     832.051E-03        -5.35052         1.64787        -5.29500     832.051E-03    -835.593E-03     519.386E-03    -255.974E-03    -263.413E-03    -250.729E-03     506.703E-03    -255.974E-03     196.810E-03     40.4582E+06    -1.22504E+06    -13.6938E+06    -13.6349E+06    -1.28392E+06     40.4582E+06     346.420E+03         77.9191
            1325     11.6216E-03     105.862E-03         1.85070     880.066E-03        -5.58474         1.73060        -5.46464     880.066E-03        -1.86889     522.202E-03    -256.030E-03    -266.172E-03    -253.385E-03     509.415E-03    -256.030E-03     198.339E-03     42.1804E+06     910.970E+03    -10.2651E+06    -10.1950E+06     840.855E+03     42.1804E+06      699.13E+03         79.6695
            1326     12.3958E-03     106.126E-03         1.95682     926.917E-03        -5.78347         1.79859        -5.62524     926.917E-03        -2.18195     533.291E-03    -256.059E-03    -277.232E-03    -257.997E-03     514.056E-03    -256.059E-03     240.423E-03     46.1433E+06     5.37974E+06    -6.78485E+06    -6.69887E+06     5.29376E+06     46.1433E+06     899.746E+03         81.5223
            1327     13.1700E-03     106.591E-03         2.01868     973.451E-03        -5.94051         1.90258        -5.82442     973.451E-03        -1.80362     531.689E-03    -256.007E-03    -275.683E-03    -258.924E-03     514.930E-03    -256.007E-03     215.623E-03     53.8865E+06     12.0657E+06    -2.80880E+06    -2.74048E+06     11.9974E+06     53.8865E+06     990.746E+03         83.2547
            1328     774.030E-06     106.237E-03         1.79747     313.267E-03        -5.05022     895.710E-03        -4.14846     313.267E-03         3.15954     511.902E-03    -254.473E-03    -257.430E-03    -256.504E-03     511.901E-03    -255.396E-03    -2.01827E-03    -101.611E+06    -106.717E+06    -138.026E+06    -105.506E+06    -137.810E+06    -103.039E+06     1.74072E+06         64.6546
            1329     1.54908E-03     106.223E-03         2.10420     574.989E-03        -5.58988     472.322E-03        -3.95800     574.989E-03         6.27598     510.678E-03    -254.840E-03    -255.839E-03    -254.839E-03     510.678E-03    -255.839E-03    -431.547E-06    -89.3564E+06    -99.1687E+06    -115.181E+06    -100.403E+06    -113.947E+06    -89.3564E+06     2.94697E+06         64.9540
            1330     2.32498E-03     106.202E-03         1.57348     520.508E-03        -4.98957     367.470E-03        -3.78357     520.508E-03         5.05659     510.309E-03    -254.633E-03    -255.676E-03    -254.628E-03     510.304E-03    -255.676E-03     2.89360E-03    -69.1062E+06    -89.8394E+06    -98.2342E+06    -93.2254E+06    -94.8481E+06    -69.1062E+06     3.25104E+06         65.4369
            1331     3.09951E-03     106.185E-03     932.071E-03     364.800E-03        -4.18104     288.954E-03        -3.64311     469.993E-03         2.86900     510.500E-03    -254.753E-03    -255.747E-03    -254.714E-03     510.461E-03    -255.747E-03     9.90677E-03    -46.9028E+06    -78.0316E+06    -86.9227E+06    -85.2054E+06    -79.7489E+06    -46.9028E+06     3.30276E+06         66.0994
            1332     3.87361E-03     106.171E-03     557.315E-03     281.652E-03        -3.71219     263.070E-03        -3.56596     429.662E-03    -16.9913E-03     509.961E-03    -254.065E-03    -255.896E-03    -253.917E-03     509.813E-03    -255.896E-03     20.3804E-03    -25.5321E+06    -64.6190E+06    -76.6445E+06    -75.6070E+06    -65.6564E+06    -25.5321E+06     3.01584E+06         66.9286
            1333     4.64698E-03     106.168E-03         1.05012     363.526E-03        -4.28639     331.199E-03        -3.61029     406.344E-03        -3.24905     508.944E-03    -252.968E-03    -255.976E-03    -252.560E-03     508.536E-03    -255.976E-03     34.3073E-03    -8.59232E+06    -52.7575E+06    -66.7257E+06    -66.1821E+06    -53.3012E+06    -8.59232E+06     2.14556E+06         67.9039
            1334     5.42290E-03     106.189E-03         1.61098     405.624E-03        -4.89718     498.268E-03        -3.78447     405.624E-03        -4.88434     508.558E-03    -252.538E-03    -256.020E-03    -251.645E-03     507.665E-03    -256.020E-03     51.3030E-03     4.01761E+06    -42.9599E+06    -57.1442E+06    -56.8909E+06    -43.2132E+06     4.01761E+06     1.67137E+06         68.9946
            1335     6.19802E-03     106.236E-03         1.48605     428.239E-03        -4.80612     724.701E-03        -4.04477     428.239E-03        -4.03091     508.518E-03    -252.423E-03    -256.095E-03    -250.739E-03     506.835E-03    -256.095E-03     70.7292E-03     14.5252E+06    -34.4688E+06    -48.5536E+06    -48.3949E+06    -34.6275E+06     14.5252E+06     1.37410E+06         70.1608
            1336     6.97219E-03     106.310E-03         1.24795     472.221E-03        -4.61896     998.704E-03        -4.36972     472.221E-03        -1.51295     508.065E-03    -251.919E-03    -256.146E-03    -248.925E-03     505.071E-03    -256.146E-03     94.2677E-03     23.1711E+06    -25.9704E+06    -41.4316E+06    -41.3234E+06    -26.0786E+06     23.1711E+06     1.23107E+06         71.3608
            1337     7.74618E-03     106.424E-03         1.31802     534.153E-03        -4.75857         1.26538        -4.70593     534.153E-03     936.611E-03     508.205E-03    -252.082E-03    -256.124E-03    -247.336E-03     503.460E-03    -256.124E-03     119.183E-03     31.1392E+06    -18.1977E+06    -34.8332E+06    -34.6597E+06    -18.3712E+06     31.1392E+06     1.61692E+06         72.5641
            1338     8.52291E-03     106.582E-03         1.70342     606.687E-03        -5.23068         1.45223        -4.97949     606.687E-03         2.47346     509.832E-03    -253.751E-03    -256.081E-03    -247.089E-03     503.170E-03    -256.081E-03     141.618E-03     38.3197E+06    -12.0375E+06    -28.4939E+06    -28.2627E+06    -12.2686E+06     38.3197E+06     1.87537E+06         73.7672
            1339     9.29948E-03     106.766E-03         1.89579     680.640E-03        -5.51880         1.53976        -5.16277     680.640E-03         3.15794     512.044E-03    -255.475E-03    -256.569E-03    -247.388E-03     503.438E-03    -256.050E-03     161.434E-03     42.5714E+06    -7.18945E+06    -22.2734E+06    -22.0555E+06    -7.40728E+06     42.5714E+06     1.75445E+06         75.0069
            1340     10.0711E-03     106.991E-03         1.73418     749.938E-03        -5.45632         1.57301        -5.29515     749.938E-03         1.73946     513.839E-03    -256.008E-03    -257.831E-03    -247.982E-03     503.990E-03    -256.008E-03     173.221E-03     42.8187E+06    -3.43355E+06    -17.0652E+06    -16.8560E+06    -3.64272E+06     42.8187E+06     1.16134E+06         76.3581
            1341     10.8490E-03     107.222E-03         1.62246     812.529E-03        -5.44478         1.57652        -5.39885     812.529E-03    -490.095E-03     519.633E-03    -255.981E-03    -263.652E-03    -250.705E-03     506.686E-03    -255.981E-03     198.631E-03     41.4070E+06    -1.24598E+06    -14.1305E+06    -13.9586E+06    -1.41787E+06     41.4070E+06     920.994E+03         77.9010
            1342     11.6222E-03     107.544E-03         1.67985     868.168E-03        -5.60332         1.58545        -5.50892     868.168E-03        -1.64139     521.648E-03    -255.980E-03    -265.668E-03    -252.492E-03     508.472E-03    -255.980E-03     201.049E-03     41.6002E+06     265.107E+03    -11.4256E+06    -11.3600E+06     199.516E+03     41.6002E+06     778.888E+03         79.6583
            1343     12.3968E-03     107.785E-03         1.83032     921.881E-03        -5.86793         1.68588        -5.72349     921.881E-03        -2.07546     533.281E-03    -255.942E-03    -277.339E-03    -257.421E-03     513.362E-03    -255.942E-03     244.334E-03     46.8746E+06     5.73305E+06    -6.98993E+06    -6.96157E+06     5.70469E+06     46.8746E+06     535.768E+03         81.5311
            1344     13.1781E-03     108.263E-03         2.04458     982.197E-03        -6.22602         1.93373        -6.11518     982.197E-03        -1.78030     532.771E-03    -255.867E-03    -276.904E-03    -259.563E-03     515.430E-03    -255.867E-03     218.831E-03     55.0039E+06     12.0678E+06    -3.33474E+06    -3.29688E+06     12.0300E+06     55.0039E+06     489.837E+03         83.2871
            1345     774.877E-06     107.908E-03         1.71295     202.732E-03        -5.01508     953.889E-03        -4.25602     202.732E-03         3.17021     511.448E-03    -255.221E-03    -256.227E-03    -255.595E-03     511.447E-03    -255.851E-03    -1.41603E-03    -100.002E+06    -105.376E+06       -143.E+06    -103.983E+06    -142.965E+06    -101.430E+06     1.03657E+06         64.6223
            1346     1.54904E-03     107.889E-03         1.90755     555.489E-03        -5.55694     445.239E-03        -4.09463     555.489E-03         5.92478     511.050E-03    -255.307E-03    -255.743E-03    -255.307E-03     511.050E-03    -255.743E-03    -815.468E-06    -90.2678E+06    -99.9505E+06    -120.311E+06    -100.365E+06    -119.896E+06    -90.2678E+06     2.01774E+06         64.9202
            1347     2.32376E-03     107.870E-03         1.39487     502.964E-03        -4.97896     330.358E-03        -3.91445     502.964E-03         4.71973     510.350E-03    -254.646E-03    -255.705E-03    -254.641E-03     510.345E-03    -255.705E-03     2.89311E-03    -71.9564E+06    -91.5340E+06    -102.772E+06    -94.7995E+06    -99.5069E+06    -71.9564E+06     3.80591E+06         65.4012
            1348     3.09898E-03     107.852E-03     746.903E-03     345.709E-03        -4.16736     243.940E-03        -3.76959     450.901E-03         2.43026     509.560E-03    -253.890E-03    -255.670E-03    -253.856E-03     509.526E-03    -255.670E-03     9.41446E-03    -48.7161E+06    -78.7141E+06    -88.5548E+06    -86.1103E+06    -81.1585E+06    -48.7161E+06     3.91753E+06         66.0632
            1349     3.87487E-03     107.838E-03     532.176E-03     261.709E-03        -3.87208     244.064E-03        -3.73198     409.719E-03    -308.746E-03     509.304E-03    -253.609E-03    -255.695E-03    -253.469E-03     509.164E-03    -255.695E-03     19.6339E-03    -26.3865E+06    -65.0043E+06    -76.9991E+06    -75.9562E+06    -66.0472E+06    -26.3865E+06     2.96449E+06         66.8944
            1350     4.65067E-03     107.838E-03         1.08680     347.416E-03        -4.51740     349.882E-03        -3.82330     390.234E-03        -3.44869     509.409E-03    -253.588E-03    -255.821E-03    -253.192E-03     509.013E-03    -255.821E-03     33.7698E-03    -7.68799E+06    -52.3542E+06    -66.6940E+06    -65.9625E+06    -53.0856E+06    -7.68799E+06     2.52753E+06         67.8729
            1351     5.42342E-03     107.858E-03         1.64267     398.953E-03        -5.13704     555.580E-03        -4.04995     398.953E-03        -4.93703     508.655E-03    -252.698E-03    -255.956E-03    -251.818E-03     507.774E-03    -255.956E-03     50.8542E-03     5.95917E+06    -42.9303E+06    -57.6724E+06    -57.1778E+06    -43.4250E+06     5.95917E+06     2.30919E+06         68.9675
            1352     6.19757E-03     107.905E-03         1.53011     437.242E-03        -5.07189     825.389E-03        -4.36717     437.242E-03        -3.95747     507.658E-03    -251.650E-03    -256.007E-03    -249.974E-03     505.981E-03    -256.007E-03     70.4964E-03     16.1278E+06    -34.4701E+06    -49.7370E+06    -49.4259E+06    -34.7812E+06     16.1278E+06     2.10990E+06         70.1387
            1353     6.97253E-03     107.979E-03         1.30877     500.195E-03        -4.92015         1.08922        -4.70060     500.195E-03        -1.31470     507.956E-03    -251.933E-03    -256.023E-03    -248.924E-03     504.947E-03    -256.023E-03     94.4738E-03     25.0502E+06    -26.0170E+06    -42.2679E+06    -42.0524E+06    -26.2325E+06     25.0502E+06     1.74319E+06         71.3438
            1354     7.74779E-03     108.094E-03         1.36066     577.633E-03        -5.05281         1.28655        -4.97870     577.633E-03         1.21122     508.989E-03    -252.936E-03    -256.053E-03    -248.166E-03     504.219E-03    -256.053E-03     119.632E-03     32.8104E+06    -19.0259E+06    -35.1697E+06    -35.0126E+06    -19.1831E+06     32.8104E+06     1.45809E+06         72.5501
            1355     8.52296E-03     108.246E-03         1.70771     658.499E-03        -5.48609         1.40425        -5.18263     658.499E-03         2.78512     509.898E-03    -253.841E-03    -256.058E-03    -247.219E-03     503.277E-03    -256.058E-03     141.245E-03     38.6679E+06    -13.1032E+06    -28.7388E+06    -28.5676E+06    -13.2744E+06     38.6679E+06     1.53708E+06         73.7526
            1356     9.29606E-03     108.439E-03         1.88170     735.439E-03        -5.75049         1.46869        -5.33748     735.439E-03         3.44334     511.558E-03    -255.136E-03    -256.422E-03    -246.907E-03     502.913E-03    -256.006E-03     161.635E-03     41.4292E+06    -8.08197E+06    -23.0824E+06    -22.8853E+06    -8.27915E+06     41.4292E+06     1.68790E+06         74.9886
            1357     10.0745E-03     108.655E-03         1.68248     805.060E-03        -5.64081         1.49486        -5.45319     805.060E-03         1.97329     514.251E-03    -255.946E-03    -258.306E-03    -248.177E-03     504.122E-03    -255.946E-03     175.721E-03     41.6235E+06    -3.32664E+06    -18.0324E+06    -17.7500E+06    -3.60900E+06     41.6235E+06     1.99088E+06         76.3356
            1358     10.8471E-03     108.894E-03         1.55966     867.985E-03        -5.61262         1.51901        -5.57197     867.985E-03    -301.427E-03     518.923E-03    -255.892E-03    -263.031E-03    -249.854E-03     505.746E-03    -255.892E-03     200.309E-03     41.5186E+06    -539.723E+03    -14.2575E+06    -13.9193E+06    -877.860E+03     41.5186E+06     2.08658E+06         77.8809
            1359     11.6258E-03     109.205E-03         1.70050     929.482E-03        -5.85923         1.62504        -5.78378     929.482E-03        -1.49229     519.468E-03    -255.801E-03    -263.666E-03    -250.457E-03     506.258E-03    -255.801E-03     200.725E-03     43.8221E+06     1.62680E+06    -10.5288E+06    -10.3346E+06     1.43259E+06     43.8221E+06     1.36801E+06         79.6555
            1360     12.4052E-03     109.456E-03         1.97482         1.00261        -6.25956         1.85871        -6.14345         1.00261        -1.92260     533.144E-03    -255.737E-03    -277.407E-03    -257.968E-03     513.705E-03    -255.737E-03     241.950E-03     48.9653E+06     6.38283E+06    -7.51205E+06    -7.46864E+06     6.33942E+06     48.9653E+06     218.562E+03         81.5567
            1361     13.1775E-03     109.926E-03         2.23178         1.09129        -6.66556         2.14272        -6.57650         1.09129        -1.66088     534.264E-03    -255.791E-03    -278.473E-03    -261.827E-03     517.618E-03    -255.791E-03     214.174E-03     57.2789E+06     11.6664E+06    -4.09511E+06    -4.07507E+06     11.6463E+06     57.2789E+06    -383.096E+03         83.3372
            1362     774.602E-06     109.573E-03         1.48929    -268.965E-03        -4.42449     676.847E-03        -3.61204    -268.965E-03         3.44624     510.818E-03    -254.657E-03    -256.161E-03    -256.150E-03     510.817E-03    -254.668E-03    -1.19260E-03    -100.114E+06    -105.564E+06    -149.072E+06    -104.208E+06    -148.863E+06    -101.679E+06     1.56954E+06         64.5985
            1363     1.54979E-03     109.558E-03         1.93235     240.664E-03        -5.38811     380.368E-03        -3.83613     240.664E-03         5.97760     511.399E-03    -255.539E-03    -255.860E-03    -255.797E-03     511.399E-03    -255.601E-03    -435.110E-06    -89.0365E+06    -100.258E+06    -128.328E+06    -101.021E+06    -127.565E+06    -89.0365E+06     3.85044E+06         64.8961
            1364     2.32397E-03     109.537E-03         1.66887     315.425E-03        -5.19977     545.811E-03        -4.07671     315.425E-03         5.00195     510.886E-03    -254.967E-03    -255.919E-03    -255.099E-03     510.882E-03    -255.783E-03     2.33657E-03    -70.4923E+06    -92.1845E+06    -106.156E+06    -94.8604E+06    -103.480E+06    -70.4923E+06     4.05905E+06         65.3750
            1365     3.09952E-03     109.518E-03         1.12016     392.383E-03        -4.72867     701.987E-03        -4.31050     392.383E-03         2.80676     509.690E-03    -253.909E-03    -255.782E-03    -253.879E-03     509.661E-03    -255.782E-03     8.43150E-03    -49.3537E+06    -79.7525E+06    -87.5617E+06    -85.6177E+06    -81.6965E+06    -49.3537E+06     3.09769E+06         66.0335
            1366     3.87466E-03     109.505E-03     949.476E-03     467.427E-03        -4.64727     836.009E-03        -4.53381     467.427E-03     167.737E-03     509.395E-03    -253.609E-03    -255.786E-03    -253.479E-03     509.265E-03    -255.786E-03     18.8784E-03    -26.7841E+06    -65.9207E+06    -77.8196E+06    -76.4855E+06    -67.2547E+06    -26.7841E+06     3.24691E+06         66.8612
            1367     4.64777E-03     109.508E-03         1.38896     537.746E-03        -5.17716     927.094E-03        -4.71530     537.746E-03        -2.96605     509.100E-03    -253.228E-03    -255.872E-03    -252.856E-03     508.728E-03    -255.872E-03     32.7790E-03    -7.70753E+06    -53.0181E+06    -68.6074E+06    -67.3656E+06    -54.2599E+06    -7.70753E+06     3.66910E+06         67.8375
            1368     5.42285E-03     109.528E-03         1.74754     601.813E-03        -5.61432     981.328E-03        -4.84810     601.813E-03        -4.43629     507.827E-03    -251.909E-03    -255.918E-03    -251.053E-03     506.971E-03    -255.918E-03     50.0196E-03     5.36469E+06    -43.4376E+06    -59.4674E+06    -58.5858E+06    -44.3192E+06     5.36469E+06     3.51326E+06         68.9323
            1369     6.19888E-03     109.571E-03         1.50498     659.774E-03        -5.43822         1.00193        -4.93516     659.774E-03        -3.52263     506.919E-03    -251.034E-03    -255.886E-03    -249.331E-03     505.217E-03    -255.886E-03     70.8711E-03     16.6035E+06    -34.0278E+06    -51.0920E+06    -50.4417E+06    -34.6781E+06     16.6035E+06     3.11884E+06         70.1069
            1370     6.97496E-03     109.647E-03         1.18370     712.834E-03        -5.17190         1.02309        -5.01129     712.834E-03        -1.05114     507.787E-03    -251.913E-03    -255.874E-03    -248.866E-03     504.740E-03    -255.874E-03     95.1539E-03     26.4572E+06    -25.5204E+06    -43.2526E+06    -42.8685E+06    -25.9045E+06     26.4572E+06     2.56551E+06         71.3176
            1371     7.74902E-03     109.764E-03         1.15483     762.943E-03        -5.19416         1.06611        -5.10545     762.943E-03         1.33799     509.186E-03    -253.256E-03    -255.930E-03    -248.476E-03     504.405E-03    -255.930E-03     119.801E-03     34.0778E+06    -19.4879E+06    -36.1463E+06    -35.8789E+06    -19.7552E+06     34.0778E+06     1.97913E+06         72.5288
            1372     8.52138E-03     109.918E-03         1.44922     811.647E-03        -5.53503         1.13950        -5.22531     811.647E-03         2.79601     509.740E-03    -253.787E-03    -255.953E-03    -247.072E-03     503.024E-03    -255.953E-03     142.159E-03     40.0241E+06    -13.6425E+06    -29.7749E+06    -29.5647E+06    -13.8527E+06     40.0241E+06     1.70319E+06         73.7340
            1373     9.30063E-03     110.100E-03         1.66585     861.989E-03        -5.79959         1.27138        -5.40512     861.989E-03         3.32450     511.350E-03    -254.851E-03    -256.499E-03    -246.654E-03     502.540E-03    -255.886E-03     163.149E-03     41.9964E+06    -8.55161E+06    -24.3508E+06    -24.1533E+06    -8.74911E+06     41.9964E+06     1.73981E+06         74.9711
            1374     10.0749E-03     110.326E-03         1.63476     918.482E-03        -5.83109         1.46095        -5.65728     918.482E-03         1.90936     514.121E-03    -255.809E-03    -258.312E-03    -248.096E-03     503.905E-03    -255.809E-03     176.461E-03     40.5240E+06    -4.48370E+06    -19.6877E+06    -19.4532E+06    -4.71821E+06     40.5240E+06     1.86978E+06         76.3202
            1375     10.8516E-03     110.563E-03         1.74378     987.492E-03        -6.02339         1.71005        -5.98966     987.492E-03    -254.943E-03     518.125E-03    -255.762E-03    -262.363E-03    -249.539E-03     505.302E-03    -255.762E-03     197.661E-03     41.2214E+06    -425.450E+03    -14.8190E+06    -14.5610E+06    -683.447E+03     41.2214E+06     1.75804E+06         77.8736
            1376     11.6276E-03     110.866E-03         2.06554         1.07348        -6.45188         2.00952        -6.39586         1.07348        -1.36573     519.661E-03    -255.717E-03    -263.944E-03    -251.153E-03     506.871E-03    -255.717E-03     197.751E-03     44.2651E+06     2.30843E+06    -11.0718E+06    -10.9027E+06     2.13932E+06     44.2651E+06     1.29104E+06         79.6649
            1377     12.4019E-03     111.124E-03         2.33726         1.17952        -6.85025         2.25088        -6.76387         1.17952        -1.75045     534.198E-03    -255.746E-03    -278.452E-03    -259.309E-03     515.055E-03    -255.746E-03     240.527E-03     51.0013E+06     7.75300E+06    -7.33342E+06    -7.25776E+06     7.67734E+06     51.0013E+06     580.966E+03         81.5871
            1378     13.1743E-03     111.602E-03         2.41274         1.29268        -7.05421         2.34454        -6.98602         1.29268        -1.51052     534.617E-03    -255.864E-03    -278.753E-03    -262.265E-03     518.129E-03    -255.864E-03     214.043E-03     59.4374E+06     12.8477E+06    -3.62662E+06    -3.58936E+06     12.8104E+06     59.4374E+06    -46.8423E+03         83.3851
            1379     775.924E-06     111.239E-03         1.63486     1.29169E-03        -4.87956     892.530E-03        -4.13723     1.29169E-03         3.74734     511.385E-03    -254.947E-03    -256.438E-03    -256.061E-03     511.381E-03    -255.320E-03    -2.98739E-03    -102.778E+06    -109.472E+06    -157.001E+06    -108.228E+06    -156.680E+06    -104.344E+06     2.18159E+06         64.5807
            1380     1.54971E-03     111.227E-03         2.12668     493.268E-03        -5.86058     708.416E-03        -4.44232     493.268E-03         6.03018     511.058E-03    -255.071E-03    -255.987E-03    -255.328E-03     511.056E-03    -255.728E-03    -936.029E-06    -91.2759E+06    -102.178E+06    -135.659E+06    -102.686E+06     -135.15E+06    -91.2759E+06     3.03374E+06         64.8762
            1381     2.32336E-03     111.207E-03         2.10140     609.462E-03        -5.95483         1.03163        -4.88506     609.462E-03         5.29964     510.971E-03    -255.045E-03    -255.927E-03    -255.194E-03     510.967E-03    -255.772E-03     2.70597E-03    -71.7540E+06    -91.3699E+06    -110.811E+06    -94.6787E+06    -107.502E+06    -71.7540E+06     4.50733E+06         65.3529
            1382     3.09758E-03     111.183E-03         1.64942     738.835E-03        -5.65689         1.26666        -5.27412     738.835E-03         3.07951     510.754E-03    -254.838E-03    -255.917E-03    -254.821E-03     510.719E-03    -255.898E-03     9.19792E-03    -50.1355E+06    -79.8942E+06    -91.5463E+06    -87.9342E+06    -83.5064E+06    -50.1355E+06     5.04091E+06         66.0079
            1383     3.87240E-03     111.174E-03         1.46725     852.734E-03        -5.61702         1.36859        -5.51836     852.734E-03     578.901E-03     509.565E-03    -253.579E-03    -255.985E-03    -253.441E-03     509.427E-03    -255.985E-03     19.5896E-03    -28.3837E+06    -67.5573E+06    -81.3658E+06    -79.2673E+06    -69.6558E+06    -28.3837E+06     4.53464E+06         66.8311
            1384     4.64853E-03     111.176E-03         1.63588     937.757E-03        -5.89848         1.32900        -5.59160     937.757E-03        -2.56277     507.990E-03    -252.045E-03    -255.945E-03    -251.655E-03     507.600E-03    -255.945E-03     33.4627E-03    -8.61196E+06    -54.2842E+06    -70.5799E+06    -69.0055E+06    -55.8586E+06    -8.61196E+06     4.43321E+06         67.8045
            1385     5.42424E-03     111.194E-03         1.73773     988.858E-03        -6.07597         1.16923        -5.50748     988.858E-03        -4.05560     507.083E-03    -251.237E-03    -255.846E-03    -250.391E-03     506.237E-03    -255.846E-03     49.9183E-03     5.17823E+06    -43.6854E+06    -61.0433E+06    -59.7703E+06    -44.9584E+06     5.17823E+06     4.36159E+06         68.8996
            1386     6.20013E-03     111.237E-03         1.40220     988.572E-03        -5.74956     968.201E-03        -5.33667         1.00968        -3.28798     507.062E-03    -251.271E-03    -255.791E-03    -249.604E-03     505.396E-03    -255.791E-03     70.0544E-03     16.4372E+06    -33.6730E+06    -51.8090E+06    -50.9789E+06    -34.5031E+06     16.4372E+06     3.70006E+06         70.0763
            1387     6.97475E-03     111.316E-03         1.10491     897.501E-03        -5.36173     845.438E-03        -5.21800         1.01324    -974.454E-03     507.529E-03    -251.734E-03    -255.795E-03    -248.711E-03     504.505E-03    -255.795E-03     94.7355E-03     25.8531E+06    -25.4944E+06    -43.8959E+06    -43.1987E+06    -26.1915E+06     25.8531E+06     3.40268E+06         71.2905
            1388     7.74896E-03     111.435E-03         1.06098     884.190E-03        -5.29841     840.968E-03        -5.20897         1.01477         1.33612     507.695E-03    -251.907E-03    -255.789E-03    -247.182E-03     502.970E-03    -255.789E-03     118.904E-03     33.8937E+06    -19.5355E+06    -37.4242E+06    -36.7354E+06    -20.2242E+06     33.8937E+06     3.33163E+06         72.5072
            1389     8.52769E-03     111.582E-03         1.31489     991.179E-03        -5.64917     983.477E-03        -5.35370         1.02712         2.73792     509.040E-03    -253.292E-03    -255.747E-03    -246.599E-03     502.347E-03    -255.747E-03     141.765E-03     41.4391E+06    -12.9313E+06    -31.1206E+06    -30.6462E+06    -13.4057E+06     41.4391E+06     2.80286E+06         73.7195
            1390     9.30009E-03     111.769E-03         1.64698         1.06168        -6.03934         1.26602        -5.65837         1.06168         3.32402     512.393E-03    -255.250E-03    -257.143E-03    -247.859E-03     503.593E-03    -255.735E-03     163.324E-03     44.6836E+06    -8.10933E+06    -25.1172E+06    -24.8599E+06    -8.36672E+06     44.6836E+06     1.95286E+06         74.9626
            1391     10.0760E-03     111.993E-03         1.82013         1.12469        -6.26205         1.64044        -6.08237         1.12469         2.06711     514.235E-03    -255.743E-03    -258.492E-03    -248.444E-03     504.188E-03    -255.743E-03     175.066E-03     43.7129E+06    -4.71608E+06    -19.6847E+06    -19.5496E+06    -4.85121E+06     43.7129E+06     1.28274E+06         76.3170
            1392     10.8504E-03     112.231E-03         2.04152         1.21710        -6.56310         2.01437        -6.53595         1.21710     31.4823E-03     518.508E-03    -255.746E-03    -262.762E-03    -250.197E-03     505.943E-03    -255.746E-03     195.806E-03     43.6681E+06    -687.465E+03    -15.0629E+06    -14.9817E+06    -768.692E+03     43.6681E+06     915.042E+03         77.8768
            1393     11.6256E-03     112.532E-03         2.27047         1.32772        -6.89117         2.23904        -6.85974         1.32772        -1.02648     521.556E-03    -255.797E-03    -265.759E-03    -253.100E-03     508.897E-03    -255.797E-03     197.306E-03     46.0118E+06     2.92913E+06    -10.8292E+06    -10.7818E+06     2.88176E+06     46.0118E+06     795.136E+03         79.6748
            1394     12.3996E-03     112.797E-03         2.34005         1.44451        -7.06783         2.27992        -7.00770         1.44451        -1.45976     534.203E-03    -255.873E-03    -278.329E-03    -259.077E-03     514.950E-03    -255.873E-03     240.932E-03     51.0750E+06     8.25558E+06    -6.66409E+06    -6.57395E+06     8.16544E+06     51.0750E+06     1.13448E+06         81.6058
            1395     13.1767E-03     113.268E-03         2.30376         1.55356        -7.13780         2.25195        -7.08599         1.55356        -1.31970     533.386E-03    -255.932E-03    -277.454E-03    -260.822E-03     516.753E-03    -255.932E-03     214.587E-03     60.0533E+06     13.3727E+06    -3.27333E+06    -3.20905E+06     13.3085E+06     60.0533E+06     821.707E+03         83.4146
            1396     771.959E-06     112.910E-03         1.98473     751.507E-03        -5.91588         1.49614        -5.42729     751.507E-03         3.65915     512.586E-03    -255.097E-03    -257.489E-03    -257.021E-03     512.582E-03    -255.560E-03    -1.39102E-03    -103.605E+06    -110.123E+06    -164.157E+06    -107.473E+06    -163.814E+06    -106.598E+06     1.29894E+06         64.5634
            1397     1.54815E-03     112.892E-03         2.14839         1.14886        -6.47051         1.27459        -5.59671         1.14886         5.07087     511.165E-03    -255.023E-03    -256.142E-03    -255.020E-03     511.162E-03    -256.142E-03    -1.66092E-03    -94.0453E+06    -104.528E+06    -142.045E+06    -104.887E+06    -141.686E+06    -94.0453E+06     2.85146E+06         64.8550
            1398     2.32576E-03     112.874E-03         2.12332         1.21092        -6.52232         1.43174        -5.83073         1.21092         4.38727     510.487E-03    -254.584E-03    -255.903E-03    -254.597E-03     510.481E-03    -255.884E-03     2.22851E-03    -75.6229E+06    -96.3313E+06    -118.511E+06    -99.2198E+06    -115.622E+06    -75.6229E+06     4.95871E+06         65.3282
            1399     3.09938E-03     112.856E-03         1.73946         1.27579        -6.23846         1.54288        -6.04187         1.27579         2.18820     510.395E-03    -254.518E-03    -255.877E-03    -254.497E-03     510.355E-03    -255.858E-03     9.90587E-03    -52.2214E+06    -81.2950E+06    -96.8445E+06    -90.6151E+06    -87.5244E+06    -52.2214E+06     6.67187E+06         65.9818
            1400     3.87250E-03     112.842E-03         1.64211         1.32941        -6.23791         1.56120        -6.15700         1.32941     1.87439E-03     509.164E-03    -253.268E-03    -255.896E-03    -253.117E-03     509.013E-03    -255.896E-03     20.5178E-03    -28.4724E+06    -66.9672E+06    -83.7028E+06    -80.9647E+06    -69.7054E+06    -28.4724E+06     5.82111E+06         66.8056
            1401     4.64845E-03     112.840E-03         1.76527         1.35919        -6.43030         1.43441        -6.09944         1.35919        -2.88695     507.732E-03    -251.902E-03    -255.829E-03    -251.502E-03     507.331E-03    -255.829E-03     34.0283E-03    -9.93410E+06    -55.3472E+06    -72.6038E+06    -70.9688E+06    -56.9823E+06    -9.93410E+06     4.56072E+06         67.7814
            1402     5.42476E-03     112.862E-03         1.77221         1.36094        -6.46966         1.24027        -5.93772         1.36094        -4.04557     507.644E-03    -251.867E-03    -255.777E-03    -251.013E-03     506.790E-03    -255.777E-03     50.1759E-03     4.19496E+06    -44.3396E+06    -61.9028E+06    -60.7569E+06    -45.4855E+06     4.19496E+06     4.09494E+06         68.8793
            1403     6.19894E-03     112.905E-03         1.47356         1.28995        -6.11742         1.07044        -5.76831         1.34395        -3.11048     507.706E-03    -251.892E-03    -255.814E-03    -250.250E-03     506.065E-03    -255.814E-03     69.6872E-03     15.4022E+06    -34.4002E+06    -53.2335E+06    -52.1819E+06    -35.4519E+06     15.4022E+06     4.26897E+06         70.0581
            1404     6.97391E-03     112.984E-03         1.32446         1.13677        -5.81569         1.01284        -5.69176         1.32446    -803.878E-03     506.698E-03    -250.880E-03    -255.818E-03    -247.930E-03     503.748E-03    -255.818E-03     93.4270E-03     24.8889E+06    -26.0990E+06    -45.8704E+06    -44.7874E+06    -27.1820E+06     24.8889E+06     4.41706E+06         71.2749
            1405     7.75152E-03     113.098E-03         1.38445         1.15007        -5.87797         1.10813        -5.77128         1.31970         1.58139     506.564E-03    -250.833E-03    -255.731E-03    -246.259E-03     501.990E-03    -255.731E-03     116.894E-03     34.4609E+06    -19.0843E+06    -38.0784E+06    -37.2731E+06    -19.8895E+06     34.4609E+06     3.76091E+06         72.4965
            1406     8.52607E-03     113.247E-03         1.68406         1.30693        -6.31373         1.33575        -6.00136         1.34287         3.03821     509.118E-03    -253.449E-03    -255.669E-03    -246.875E-03     502.544E-03    -255.669E-03     140.441E-03     42.7660E+06    -12.4463E+06    -30.9007E+06    -30.3656E+06    -12.9814E+06     42.7660E+06     3.06858E+06         73.7138
            1407     9.30331E-03     113.441E-03         2.06380         1.40053        -6.76123         1.66511        -6.36254         1.40053         3.65277     512.427E-03    -255.563E-03    -256.865E-03    -248.066E-03     503.756E-03    -255.689E-03     162.196E-03     46.5535E+06    -7.22508E+06    -24.5347E+06    -24.1233E+06    -7.63650E+06     46.5535E+06     2.51172E+06         74.9599
            1408     10.0749E-03     113.663E-03         2.17580         1.48775        -6.92969         1.96948        -6.72337         1.48775         2.46285     514.600E-03    -255.739E-03    -258.861E-03    -248.974E-03     504.713E-03    -255.739E-03     173.753E-03     46.4915E+06    -3.27746E+06    -19.4355E+06    -19.1081E+06    -3.60478E+06     46.4915E+06     1.96631E+06         76.3144
            1409     10.8520E-03     113.893E-03         2.11576         1.59099        -6.93628         2.08645        -6.90697         1.59099     511.333E-03     519.738E-03    -255.807E-03    -263.931E-03    -251.316E-03     507.123E-03    -255.807E-03     196.401E-03     46.5236E+06      37.816E+03    -15.0290E+06    -14.8662E+06    -125.026E+03     46.5236E+06     1.23827E+06         77.8714
            1410     11.6240E-03     114.211E-03         2.08708         1.65859        -6.94137         2.04320        -6.93015         1.69125    -569.405E-03     521.984E-03    -255.895E-03    -266.089E-03    -253.308E-03     509.203E-03    -255.895E-03     198.311E-03     48.5629E+06     3.34579E+06    -10.4308E+06    -10.3856E+06     3.30056E+06     48.5629E+06     786.529E+03         79.6687
            1411     12.3978E-03     114.459E-03         2.07671         1.72431        -6.96750         1.97898        -6.92982         1.78436        -1.10730     534.272E-03    -255.966E-03    -278.306E-03    -259.044E-03     515.010E-03    -255.966E-03     241.100E-03     52.3801E+06     8.01425E+06    -7.37031E+06    -7.29888E+06     7.94282E+06     52.3801E+06     978.785E+03         81.6066
            1412     13.1730E-03     114.936E-03         2.09989         1.82410        -7.07242         2.01533        -7.03424         1.87048        -1.12951     532.868E-03    -256.002E-03    -276.866E-03    -260.240E-03     516.242E-03    -256.002E-03     214.570E-03     60.8966E+06     13.3213E+06    -4.19981E+06    -4.13890E+06     13.2604E+06     60.8966E+06     904.788E+03         83.4269
            1413     776.027E-06     114.579E-03         2.10943         1.20409        -6.33354         1.73344        -5.95755         1.20409         3.42742     511.763E-03    -254.028E-03    -257.736E-03    -256.062E-03     511.752E-03    -255.690E-03    -2.08850E-03    -106.746E+06    -116.003E+06    -172.735E+06    -113.527E+06    -172.218E+06    -109.739E+06     2.70570E+06         64.5393
            1414     1.54832E-03     114.563E-03         2.09318         1.48862        -6.62869         1.57381        -6.10933         1.48862         4.02130     511.953E-03    -255.548E-03    -256.405E-03    -255.941E-03     511.952E-03    -256.011E-03    -198.234E-06    -95.6768E+06    -108.479E+06    -149.501E+06    -109.055E+06    -148.926E+06    -95.6768E+06     4.45497E+06         64.8313
            1415     2.32101E-03     114.538E-03         2.12729         1.53636        -6.73057         1.70269        -6.30598         1.53636         3.42538     510.798E-03    -254.486E-03    -256.313E-03    -254.756E-03     510.792E-03    -256.036E-03     2.56435E-03    -76.2015E+06    -100.519E+06    -124.314E+06    -102.197E+06    -122.635E+06    -76.2015E+06     5.27473E+06         65.3036
            1416     3.09841E-03     114.524E-03         1.81950         1.58507        -6.50977         1.76382        -6.45409         1.58507         1.22208     508.887E-03    -253.068E-03    -255.819E-03    -253.034E-03     508.853E-03    -255.819E-03     9.17166E-03    -55.0646E+06    -85.3135E+06    -99.8450E+06    -92.6890E+06    -92.4695E+06    -55.0646E+06     5.66618E+06         65.9578
            1417     3.87587E-03     114.507E-03         1.83265         1.62184        -6.61582         1.77541        -6.55858         1.62184    -565.013E-03     508.695E-03    -253.030E-03    -255.665E-03    -252.887E-03     508.551E-03    -255.665E-03     19.8358E-03    -31.1612E+06    -67.6124E+06    -84.5330E+06    -81.8128E+06    -70.3326E+06    -31.1612E+06     6.10189E+06         66.7859
            1418     4.65032E-03     114.508E-03         2.04429         1.64544        -6.90672         1.73752        -6.59995         1.64544        -3.02557     508.854E-03    -253.136E-03    -255.718E-03    -252.760E-03     508.478E-03    -255.718E-03     33.0888E-03    -10.7183E+06    -55.3608E+06    -74.1085E+06    -72.1272E+06    -57.3421E+06    -10.7183E+06     5.42202E+06         67.7668
            1419     5.42452E-03     114.527E-03         2.10773         1.65785        -7.02382         1.66979        -6.58588         1.65785        -3.84948     508.087E-03    -252.279E-03    -255.808E-03    -251.417E-03     507.225E-03    -255.808E-03     50.1114E-03     2.87302E+06    -45.5716E+06    -64.7599E+06    -63.2385E+06    -47.0930E+06     2.87302E+06     4.94606E+06         68.8691
            1420     6.19864E-03     114.578E-03         1.91354         1.63309        -6.82575         1.63179        -6.57690         1.66599        -2.77188     507.134E-03    -251.297E-03    -255.837E-03    -249.639E-03     505.476E-03    -255.837E-03     70.1320E-03     14.2957E+06    -35.6513E+06    -56.1946E+06    -54.8550E+06    -36.9908E+06     14.2957E+06     4.94623E+06         70.0531
            1421     6.97368E-03     114.647E-03         1.84867         1.61039        -6.74177         1.68837        -6.65342         1.68234    -444.578E-03     506.641E-03    -250.833E-03    -255.807E-03    -247.877E-03     503.684E-03    -255.807E-03     93.4623E-03     25.8194E+06    -26.1773E+06    -47.2346E+06    -46.3371E+06    -27.0748E+06     25.8194E+06     4.13877E+06         71.2760
            1422     7.74969E-03     114.763E-03         1.99320         1.68002        -6.94207         1.84079        -6.82872         1.71907         1.87585     507.614E-03    -251.845E-03    -255.769E-03    -247.262E-03     503.031E-03    -255.769E-03     117.201E-03     35.3728E+06    -18.5307E+06    -38.9872E+06    -38.4336E+06    -19.0843E+06     35.3728E+06     3.28660E+06         72.5012
            1423     8.52646E-03     114.915E-03         2.33606         1.78176        -7.35873         2.05423        -7.07690         1.78176         3.19097     509.805E-03    -254.021E-03    -255.784E-03    -247.483E-03     503.266E-03    -255.784E-03     140.177E-03     43.2811E+06    -12.5698E+06    -31.7396E+06    -31.3714E+06    -12.9380E+06     43.2811E+06     2.61229E+06         73.7168
            1424     9.29860E-03     115.110E-03         2.56384         1.86549        -7.63044         2.20863        -7.27522         1.86549         3.71791     512.154E-03    -255.535E-03    -256.619E-03    -247.870E-03     503.686E-03    -255.816E-03     160.287E-03     46.6842E+06    -6.58006E+06    -25.1066E+06    -24.7573E+06    -6.92933E+06     46.6842E+06     2.40728E+06         74.9557
            1425     10.0779E-03     115.329E-03         2.40186         1.95126        -7.50708         2.20401        -7.31176         1.95379         2.55036     514.388E-03    -255.852E-03    -258.535E-03    -248.903E-03     504.755E-03    -255.852E-03     171.457E-03     46.4519E+06    -2.26206E+06    -19.6233E+06    -19.2758E+06    -2.60953E+06     46.4519E+06     2.17855E+06         76.2990
            1426     10.8475E-03     115.572E-03         2.16923         1.98867        -7.26062         2.09374        -7.23112         2.03466     673.618E-03     519.173E-03    -255.897E-03    -263.275E-03    -250.692E-03     506.590E-03    -255.897E-03     195.884E-03     47.0722E+06     266.578E+03    -15.0617E+06    -14.6969E+06    -98.2513E+03     47.0722E+06     1.98690E+06         77.8464
            1427     11.6241E-03     115.872E-03         2.12370         1.96576        -7.14117         1.98083        -7.13648         2.10393    -345.316E-03     521.307E-03    -255.930E-03    -265.376E-03    -252.488E-03     508.418E-03    -255.930E-03     198.974E-03     49.2891E+06     3.32305E+06    -12.0325E+06    -11.5256E+06     2.81614E+06     49.2891E+06     2.33016E+06         79.6454
            1428     12.4003E-03     116.136E-03         2.17203         1.97132        -7.14005         1.94777        -7.11650         2.17203    -866.386E-03     534.220E-03    -255.963E-03    -278.257E-03    -258.809E-03     514.771E-03    -255.963E-03     242.278E-03     54.6031E+06     8.47471E+06    -8.85950E+06    -8.56316E+06     8.17837E+06     54.6031E+06     1.35059E+06         81.5985
            1429     13.1730E-03     116.603E-03         2.24012         2.00123        -7.18300         1.97351        -7.15528         2.24012    -985.004E-03     532.706E-03    -255.971E-03    -276.735E-03    -259.882E-03     515.853E-03    -255.971E-03     216.469E-03     63.1127E+06     14.4298E+06    -4.58091E+06    -4.56162E+06     14.4105E+06     63.1127E+06     250.927E+03         83.4388
            1430     774.329E-06     116.246E-03         2.33821         1.66658        -6.88491         1.95643        -6.50313         1.66658         3.57335     510.897E-03    -254.524E-03    -256.373E-03    -254.739E-03     510.882E-03    -256.142E-03    -1.66090E-03    -109.694E+06    -120.878E+06    -179.219E+06    -117.169E+06    -178.513E+06    -114.109E+06     119.250E+03         64.5111
            1431     1.55090E-03     116.231E-03         2.42336         1.83301        -7.15015         1.94345        -6.67023         1.83301         4.01497     511.145E-03    -255.170E-03    -255.975E-03    -255.562E-03     511.143E-03    -255.581E-03    -306.547E-06    -100.194E+06    -110.755E+06    -159.031E+06    -111.072E+06    -158.714E+06    -100.194E+06     2.98794E+06         64.8069
            1432     2.32469E-03     116.212E-03         2.48089         1.88157        -7.28668         2.05086        -6.85666         1.88157         3.65185     510.666E-03    -254.670E-03    -255.996E-03    -254.966E-03     510.660E-03    -255.694E-03     3.29986E-03    -81.1445E+06    -101.938E+06    -130.326E+06    -103.439E+06    -128.825E+06    -81.1445E+06     5.10113E+06         65.2841
            1433     3.09882E-03     116.183E-03         2.20714         1.92858        -7.10925         2.13053        -7.03264         1.92858         1.58648     509.795E-03    -254.056E-03    -255.739E-03    -254.046E-03     509.761E-03    -255.715E-03     9.40120E-03    -57.8929E+06    -87.5996E+06    -102.984E+06    -94.8972E+06    -95.6867E+06    -57.8929E+06     5.65370E+06         65.9418
            1434     3.87478E-03     116.175E-03         2.21395         1.97016        -7.21912         2.16596        -7.17113         1.97016    -42.2605E-03     509.205E-03    -253.472E-03    -255.733E-03    -253.345E-03     509.078E-03    -255.733E-03     18.8501E-03    -34.8010E+06    -70.8335E+06    -87.5136E+06    -85.1247E+06    -73.2224E+06    -34.8010E+06     5.72852E+06         66.7716
            1435     4.64850E-03     116.179E-03         2.37195         2.00504        -7.47639         2.17737        -7.28181         2.00504        -2.45908     508.575E-03    -252.784E-03    -255.791E-03    -252.418E-03     508.209E-03    -255.791E-03     32.3486E-03    -13.3866E+06    -57.1716E+06    -77.0157E+06    -74.7944E+06    -59.3929E+06    -13.3866E+06     6.20994E+06         67.7550
            1436     5.42247E-03     116.196E-03         2.47071         2.03682        -7.66157         2.19207        -7.38293         2.03682        -3.25757     507.479E-03    -251.665E-03    -255.814E-03    -250.774E-03     506.588E-03    -255.814E-03     50.8353E-03     3.26993E+06    -46.1684E+06    -66.8132E+06    -64.9869E+06    -47.9947E+06     3.26993E+06     5.73371E+06         68.8629
            1437     6.19966E-03     116.242E-03         2.38732         2.07160        -7.64192         2.23613        -7.49073         2.07160        -2.36153     506.796E-03    -251.008E-03    -255.788E-03    -249.350E-03     505.139E-03    -255.788E-03     70.2362E-03     16.1206E+06    -36.0519E+06    -56.5443E+06    -55.4390E+06    -37.1572E+06     16.1206E+06     4.49374E+06         70.0552
            1438     6.97658E-03     116.315E-03         2.38762         2.11583        -7.68872         2.33077        -7.63187         2.11583    -384.440E-03     507.546E-03    -251.751E-03    -255.795E-03    -248.858E-03     504.653E-03    -255.795E-03     92.5546E-03     26.8962E+06    -26.2753E+06    -47.6133E+06    -46.7125E+06    -27.1761E+06     26.8962E+06     4.22736E+06         71.2849
            1439     7.75030E-03     116.432E-03         2.53410         2.17397        -7.87642         2.46319        -7.80551         2.17397         1.59091     508.951E-03    -253.079E-03    -255.872E-03    -248.505E-03     504.378E-03    -255.872E-03     117.171E-03     36.2096E+06    -17.6299E+06    -39.9480E+06    -39.2215E+06    -18.3564E+06     36.2096E+06     3.85775E+06         72.5111
            1440     8.52227E-03     116.584E-03         2.73684         2.24330        -8.11307         2.55589        -7.93212         2.24330         2.68718     510.609E-03    -254.635E-03    -255.974E-03    -248.122E-03     504.095E-03    -255.974E-03     140.107E-03     44.8810E+06    -11.0614E+06    -32.6880E+06    -32.2655E+06    -11.4840E+06     44.8810E+06     2.97235E+06         73.7203
            1441     9.30014E-03     116.776E-03         2.79692         2.31429        -8.19553         2.55433        -7.95293         2.31429         3.19149     512.412E-03    -255.805E-03    -256.607E-03    -247.881E-03     503.901E-03    -256.019E-03     160.635E-03     47.4282E+06    -6.22721E+06    -26.6088E+06    -26.3642E+06    -6.47175E+06     47.4282E+06     2.17079E+06         74.9464
            1442     10.0686E-03     117.001E-03         2.64015         2.37627        -8.04401         2.50220        -7.90858         2.37880         2.16421     513.728E-03    -255.989E-03    -257.739E-03    -247.858E-03     503.847E-03    -255.989E-03     173.417E-03     45.5693E+06    -2.95001E+06    -21.3500E+06    -21.0593E+06    -3.24067E+06     45.5693E+06     1.98525E+06         76.2754
            1443     10.8498E-03     117.232E-03         2.51506         2.39336        -7.87237         2.45134        -7.85464         2.43935     564.139E-03     518.834E-03    -255.949E-03    -262.885E-03    -250.093E-03     506.042E-03    -255.949E-03     197.494E-03     45.4842E+06    -918.796E+03    -17.4991E+06    -16.9775E+06    -1.44039E+06     45.4842E+06     2.65176E+06         77.8154
            1444     11.6248E-03     117.546E-03         2.52211         2.37739        -7.79533         2.39922        -7.79311         2.49807    -230.423E-03     520.836E-03    -255.943E-03    -264.893E-03    -252.035E-03     507.978E-03    -255.943E-03     198.535E-03     49.4607E+06     3.13716E+06    -13.1141E+06    -12.5296E+06     2.55266E+06     49.4607E+06     2.42868E+06         79.6192
            1445     12.3981E-03     117.801E-03         2.55875         2.31261        -7.68961         2.29737        -7.67437         2.55875    -704.018E-03     532.478E-03    -255.910E-03    -276.568E-03    -257.075E-03     512.985E-03    -255.910E-03     241.678E-03     56.0946E+06     9.82463E+06    -8.06767E+06    -7.71932E+06     9.47627E+06     56.0946E+06     1.40496E+06         81.5921
            1446     13.1786E-03     118.271E-03         2.61181         2.12454        -7.47117         2.10449        -7.45112         2.61181    -862.264E-03     532.616E-03    -255.869E-03    -276.747E-03    -259.872E-03     515.741E-03    -255.869E-03     215.589E-03     65.3804E+06     16.0889E+06    -3.83145E+06    -3.76249E+06     16.0200E+06     65.3804E+06     401.262E+03         83.4577
            1447     775.108E-06     117.912E-03         2.83204         2.45747        -8.03872         2.50142        -7.76157         2.51094         3.28366     510.978E-03    -254.798E-03    -256.179E-03    -256.122E-03     510.967E-03    -254.845E-03    -812.857E-06    -108.217E+06    -120.190E+06    -183.282E+06    -116.742E+06    -182.315E+06    -112.632E+06     817.176E+03         64.4890
            1448     1.54812E-03     117.898E-03         2.96112         2.51366        -8.23277         2.57543        -7.84707         2.51366         3.86443     510.449E-03    -254.944E-03    -255.504E-03    -254.960E-03     510.448E-03    -255.488E-03    -1.21892E-03    -102.802E+06    -112.992E+06    -167.124E+06    -113.105E+06    -167.011E+06    -102.802E+06     2.12850E+06         64.7879
            1449     2.32597E-03     117.874E-03         2.97078         2.53477        -8.30082         2.62364        -7.95369         2.53477         3.49753     510.537E-03    -255.001E-03    -255.536E-03    -255.036E-03     510.534E-03    -255.498E-03     1.41776E-03    -84.7672E+06    -105.297E+06    -135.988E+06    -106.128E+06    -135.157E+06    -84.7672E+06     3.67561E+06         65.2696
            1450     3.10021E-03     117.857E-03         2.72071         2.55305        -8.12800         2.64721        -8.05449         2.55305         1.64729     511.070E-03    -255.317E-03    -255.753E-03    -255.324E-03     511.039E-03    -255.715E-03     8.59649E-03    -60.6350E+06    -89.5134E+06    -108.419E+06    -97.0501E+06    -100.882E+06    -60.6350E+06     5.56943E+06         65.9305
            1451     3.87115E-03     117.843E-03         2.66019         2.56608        -8.14690         2.62529        -8.11201         2.56608     194.906E-03     509.491E-03    -253.598E-03    -255.893E-03    -253.461E-03     509.353E-03    -255.893E-03     19.4504E-03    -36.7590E+06    -73.0064E+06    -90.9363E+06    -88.3793E+06    -75.5634E+06    -36.7590E+06     5.98825E+06         66.7612
            1452     4.64880E-03     117.844E-03         2.69926         2.56671        -8.25568         2.56450        -8.12654         2.57232        -2.08020     507.685E-03    -251.823E-03    -255.862E-03    -251.439E-03     507.301E-03    -255.862E-03     33.2571E-03    -15.5608E+06    -59.8876E+06    -79.3646E+06    -77.7671E+06    -61.4850E+06    -15.5608E+06     5.14892E+06         67.7465
            1453     5.42649E-03     117.863E-03         2.74826         2.51776        -8.31676         2.49151        -8.11607         2.57383        -2.93086     507.460E-03    -251.661E-03    -255.799E-03    -250.816E-03     506.614E-03    -255.799E-03     49.7513E-03     1.53297E+06    -46.9167E+06    -67.7272E+06    -66.4477E+06    -48.1961E+06     1.53297E+06     4.90686E+06         68.8585
            1454     6.20030E-03     117.908E-03         2.70327         2.44068        -8.23400         2.44878        -8.11450         2.57568        -2.21857     507.693E-03    -251.858E-03    -255.834E-03    -250.265E-03     506.100E-03    -255.834E-03     68.7218E-03     15.1471E+06    -36.3611E+06    -58.6299E+06    -57.5407E+06    -37.4504E+06     15.1471E+06     4.72842E+06         70.0552
            1455     6.97257E-03     117.985E-03         2.68982         2.40346        -8.19064         2.46605        -8.14778         2.58436    -554.383E-03     508.028E-03    -252.111E-03    -255.916E-03    -249.246E-03     505.162E-03    -255.916E-03     92.1560E-03     26.1223E+06    -27.0417E+06    -50.3857E+06    -49.5102E+06    -27.9173E+06     26.1223E+06     4.26770E+06         71.2872
            1456     7.74712E-03     118.101E-03         2.75468         2.41871        -8.24958         2.53297        -8.21308         2.60392         1.15501     509.011E-03    -253.013E-03    -255.998E-03    -248.378E-03     504.376E-03    -255.998E-03     117.854E-03     36.0742E+06    -17.6415E+06    -41.8767E+06    -41.1002E+06    -18.4180E+06     36.0742E+06     4.12839E+06         72.5121
            1457     8.52369E-03     118.255E-03         2.81917         2.54487        -8.39975         2.61651        -8.28594         2.63372         2.17655     510.649E-03    -254.584E-03    -256.065E-03    -247.890E-03     503.955E-03    -256.065E-03     142.003E-03     44.8743E+06    -10.2107E+06    -34.4875E+06    -33.8828E+06    -10.8155E+06     44.8743E+06     3.75609E+06         73.7162
            1458     9.29366E-03     118.446E-03         2.92014         2.67395        -8.57624         2.74850        -8.40461         2.67395         2.78654     511.856E-03    -255.736E-03    -256.120E-03    -247.046E-03     503.102E-03    -256.056E-03     162.749E-03     48.4965E+06    -5.47670E+06    -28.4902E+06    -28.0646E+06    -5.90223E+06     48.4965E+06     3.03877E+06         74.9343
            1459     10.0776E-03     118.665E-03         3.00073         2.72611        -8.64516         2.89548        -8.53990         2.72611         2.04362     513.845E-03    -255.984E-03    -257.862E-03    -247.781E-03     503.765E-03    -255.984E-03     175.205E-03     47.3575E+06    -3.50390E+06    -23.7103E+06    -23.1691E+06    -4.04515E+06     47.3575E+06     3.12946E+06         76.2554
            1460     10.8490E-03     118.903E-03         2.95792         2.78806        -8.59187         2.94093        -8.57488         2.78806     697.233E-03     519.464E-03    -255.954E-03    -263.510E-03    -250.636E-03     506.590E-03    -255.954E-03     198.307E-03     47.5227E+06    -775.851E+03    -18.2558E+06    -17.8123E+06    -1.21934E+06     47.5227E+06     2.38925E+06         77.7905
            1461     11.6217E-03     119.216E-03         2.89927         2.76431        -8.43208         2.81531        -8.43096         2.84715     10.1086E-03     520.180E-03    -255.945E-03    -264.235E-03    -251.418E-03     507.363E-03    -255.945E-03     198.004E-03     50.9648E+06     3.81906E+06    -12.5409E+06    -12.4386E+06     3.71672E+06     50.9648E+06     607.899E+03         79.5991
            1462     12.4020E-03     119.461E-03         2.89388         2.53461        -8.11902         2.52619        -8.11060         2.89388    -467.490E-03     532.141E-03    -255.900E-03    -276.241E-03    -257.014E-03     512.914E-03    -255.900E-03     240.051E-03     56.3793E+06     10.3422E+06    -8.31344E+06    -8.21697E+06     10.2457E+06     56.3793E+06     185.561E+03         81.5898
            1463     13.1769E-03     119.938E-03         2.91843         2.15890        -7.70122         2.14612        -7.68844         2.91843    -699.083E-03     532.690E-03    -255.881E-03    -276.808E-03    -260.144E-03     516.025E-03    -255.881E-03     214.517E-03     65.6699E+06     16.7733E+06    -4.00044E+06    -3.88387E+06     16.6567E+06     65.6699E+06     562.238E+03         83.4762
            1464     774.816E-06     119.582E-03         3.07038         2.68847        -8.36659         2.70323        -8.25387         2.94289         2.04487     511.048E-03    -254.784E-03    -256.264E-03    -256.107E-03     511.038E-03    -254.931E-03    -1.95611E-03    -108.167E+06    -122.463E+06    -193.833E+06    -117.777E+06    -193.086E+06    -113.599E+06     5.42518E+06         64.4728
            1465     1.55117E-03     119.563E-03         3.23318         2.86916        -8.74816         3.05270        -8.56767         2.86916         2.74535     511.219E-03    -255.362E-03    -255.857E-03    -255.575E-03     511.217E-03    -255.642E-03    -1.61450E-03    -100.774E+06    -113.867E+06    -170.099E+06    -114.186E+06    -169.780E+06    -100.774E+06     3.89299E+06         64.7729
            1466     2.32317E-03     119.543E-03         3.38980         2.96235        -9.04162         3.25130        -8.90312         2.96235         2.06238     511.140E-03    -255.141E-03    -255.999E-03    -255.349E-03     511.135E-03    -255.786E-03     2.08600E-03    -83.4147E+06    -106.949E+06    -143.183E+06    -107.754E+06    -142.379E+06    -83.4147E+06     4.43888E+06         65.2551
            1467     3.09691E-03     119.527E-03         3.40802         3.05099        -9.21308         3.39143        -9.19649         3.05099     549.304E-03     510.128E-03    -254.267E-03    -255.862E-03    -254.246E-03     510.094E-03    -255.848E-03     9.24786E-03    -62.1658E+06    -92.6605E+06    -113.963E+06    -99.6498E+06    -106.974E+06    -62.1658E+06     5.56759E+06         65.9177
            1468     3.87510E-03     119.510E-03         3.38239         3.11590        -9.33163         3.36064        -9.30987         3.11590    -507.495E-03     509.372E-03    -253.511E-03    -255.861E-03    -253.379E-03     509.240E-03    -255.861E-03     19.1692E-03    -38.2134E+06    -74.4883E+06    -91.8087E+06    -89.5272E+06    -76.7698E+06    -38.2134E+06     5.52721E+06         66.7520
            1469     4.64895E-03     119.508E-03         3.29804         3.13778        -9.34414         3.16840        -9.22012         3.14339        -2.26847     508.777E-03    -252.865E-03    -255.913E-03    -252.497E-03     508.410E-03    -255.913E-03     32.5239E-03    -16.0616E+06    -60.6745E+06    -80.5522E+06    -79.0845E+06    -62.1422E+06    -16.0616E+06     5.01983E+06         67.7401
            1470     5.42202E-03     119.531E-03         3.18859         2.99406        -9.15289         2.87719        -8.98175         3.13433        -2.83336     508.219E-03    -252.258E-03    -255.962E-03    -251.428E-03     507.390E-03    -255.962E-03     49.3001E-03    -714.708E+03    -49.0801E+06    -70.7385E+06    -69.5652E+06    -50.2534E+06    -714.708E+03     4.83761E+06         68.8525
            1471     6.19679E-03     119.578E-03         3.10007         2.70009        -8.80992         2.60823        -8.71806         3.10007        -1.98662     507.562E-03    -251.565E-03    -255.997E-03    -249.958E-03     505.955E-03    -255.997E-03     68.9208E-03     13.0148E+06    -37.0663E+06    -60.7389E+06    -59.6380E+06    -38.1671E+06     13.0148E+06     4.90640E+06         70.0483
            1472     6.97353E-03     119.654E-03         3.05839         2.48060        -8.56108         2.44572        -8.52621         3.05839    -410.716E-03     507.540E-03    -251.532E-03    -256.008E-03    -248.549E-03     504.557E-03    -256.008E-03     93.8722E-03     25.6244E+06    -27.0270E+06    -51.3841E+06    -50.5732E+06    -27.8380E+06     25.6244E+06     4.24990E+06         71.2798
            1473     7.74897E-03     119.769E-03         3.02672         2.48566        -8.51616         2.44202        -8.47252         3.02672         1.26487     508.795E-03    -252.774E-03    -256.021E-03    -248.007E-03     504.028E-03    -256.021E-03     119.607E-03     35.0168E+06    -19.0144E+06    -43.8437E+06    -43.1756E+06    -19.6824E+06     35.0168E+06     3.91578E+06         72.5041
            1474     8.52184E-03     119.925E-03         3.03111         2.72039        -8.71054         2.60876        -8.58608         3.01829         2.31750     509.632E-03    -253.607E-03    -256.025E-03    -246.924E-03     502.948E-03    -256.025E-03     141.761E-03     44.1270E+06    -10.5079E+06    -36.4235E+06    -35.8269E+06    -11.1045E+06     44.1270E+06     3.85767E+06         73.7061
            1475     9.30320E-03     120.112E-03         3.12901         2.93885        -8.96721         2.84507        -8.78246         3.03805         2.95157     511.772E-03    -254.841E-03    -256.931E-03    -247.156E-03     503.147E-03    -255.991E-03     161.574E-03     49.5540E+06    -4.56994E+06    -29.6500E+06    -29.0801E+06    -5.13981E+06     49.5540E+06     3.72707E+06         74.9203
            1476     10.0717E-03     120.331E-03         3.22160         2.96412        -9.01726         2.98758        -8.89649         3.07737         2.27847     514.797E-03    -255.984E-03    -258.813E-03    -248.876E-03     504.859E-03    -255.984E-03     174.191E-03     49.8118E+06    -2.26468E+06    -23.3188E+06    -22.8611E+06    -2.72242E+06     49.8118E+06     2.88639E+06         76.2341
            1477     10.8477E-03     120.577E-03         3.21443         2.87265        -8.84330         2.93910        -8.81558         3.12027         1.02994     518.357E-03    -255.973E-03    -262.384E-03    -249.621E-03     505.594E-03    -255.973E-03     197.131E-03     50.3128E+06     469.645E+03    -17.4129E+06    -17.2386E+06     295.364E+03     50.3128E+06     1.35697E+06         77.7642
            1478     11.6268E-03     120.877E-03         3.17697         2.67168        -8.52459         2.69441        -8.51925         3.14890     400.326E-03     519.605E-03    -255.912E-03    -263.693E-03    -250.860E-03     506.772E-03    -255.912E-03     198.022E-03     52.8970E+06     4.16564E+06    -13.2629E+06    -13.2111E+06     4.11389E+06     52.8970E+06     779.710E+03         79.5799
            1479     12.3988E-03     121.132E-03         3.15507         2.34019        -8.09839         2.33565        -8.09385         3.15507    -127.370E-03     533.648E-03    -255.879E-03    -277.769E-03    -258.297E-03     514.176E-03    -255.879E-03     242.002E-03     58.3066E+06     10.7282E+06    -8.65309E+06    -8.57263E+06     10.6478E+06     58.3066E+06     467.743E+03         81.5890
            1480     13.1725E-03     121.603E-03         3.13777         1.99774        -7.68851         1.99162        -7.68239         3.13777    -470.448E-03     532.497E-03    -255.866E-03    -276.631E-03    -259.633E-03     515.499E-03    -255.866E-03     217.445E-03     66.7378E+06     17.2897E+06    -3.83127E+06    -3.74773E+06     17.2061E+06     66.7378E+06     326.562E+03         83.4969
            1481     774.257E-06     121.245E-03         3.18348         2.46884        -8.14706         2.59323        -8.06962         2.98167     657.424E-03     511.586E-03    -255.299E-03    -256.286E-03    -256.130E-03     511.577E-03    -255.447E-03    -1.61938E-03    -111.586E+06    -124.038E+06    -203.736E+06    -118.436E+06    -203.480E+06    -117.445E+06     597.261E+03         64.4533
            1482     1.54806E-03     121.232E-03         3.37276         2.88820        -8.79475         3.29513        -8.71712         2.88820         1.88176     511.283E-03    -255.210E-03    -256.073E-03    -255.451E-03     511.280E-03    -255.829E-03    -644.173E-06    -101.565E+06    -112.691E+06    -177.702E+06    -112.703E+06    -177.264E+06    -101.992E+06     4.03879E+06         64.7526
            1483     2.32330E-03     121.214E-03         3.75829         3.09401        -9.44925         3.72718        -9.41814         3.09401     816.428E-03     510.678E-03    -254.663E-03    -256.016E-03    -254.856E-03     510.672E-03    -255.816E-03     3.32317E-03    -83.5326E+06    -106.377E+06    -149.918E+06    -107.326E+06    -148.969E+06    -83.5326E+06     5.57709E+06         65.2358
            1484     3.10030E-03     121.189E-03         4.06460         3.29341        -10.0318         4.05930        -10.0265         3.29341    -363.035E-03     510.122E-03    -254.316E-03    -255.807E-03    -254.281E-03     510.087E-03    -255.807E-03     9.62275E-03    -61.1567E+06    -93.5806E+06    -117.254E+06    -99.0376E+06    -111.796E+06    -61.1567E+06     6.46053E+06         65.9015
            1485     3.87326E-03     121.179E-03         4.15402         3.45525        -10.3650         4.12995        -10.3409         3.45525        -1.08655     509.930E-03    -254.049E-03    -255.881E-03    -253.922E-03     509.803E-03    -255.881E-03     18.8263E-03    -37.2224E+06    -74.6689E+06    -95.2401E+06    -89.8709E+06    -80.0382E+06    -37.2224E+06     7.39611E+06         66.7391
            1486     4.64704E-03     121.179E-03         4.04823         3.55574        -10.4410         3.94291        -10.3357         3.55574        -2.29322     509.206E-03    -253.206E-03    -256.000E-03    -252.824E-03     508.824E-03    -256.000E-03     32.9388E-03    -15.8383E+06    -59.6543E+06    -82.9513E+06    -80.7635E+06    -61.8421E+06    -15.8383E+06     6.70695E+06         67.7290
            1487     5.42281E-03     121.199E-03         3.77392         3.48731        -10.1659         3.55041        -10.0456         3.59055        -2.47563     508.115E-03    -252.065E-03    -256.050E-03    -251.151E-03     507.201E-03    -256.050E-03     51.6959E-03     96.7221E+03    -49.0599E+06    -72.0802E+06     -70.955E+06    -50.1851E+06     96.7221E+03     4.85751E+06         68.8420
            1488     6.19802E-03     121.247E-03         3.57034         3.14669        -9.66373         3.09927        -9.61632         3.57034        -1.46898     507.478E-03    -251.434E-03    -256.043E-03    -249.783E-03     505.826E-03    -256.043E-03     70.2143E-03     12.6650E+06    -38.1016E+06    -61.6672E+06    -60.8548E+06    -38.9141E+06     12.6650E+06     4.26623E+06         70.0379
            1489     6.97340E-03     121.317E-03         3.52116         2.81113        -9.28715         2.78588        -9.26190         3.52116    -2.55649E-03     507.575E-03    -251.536E-03    -256.038E-03    -248.579E-03     504.617E-03    -256.038E-03     93.4137E-03     24.4399E+06    -27.9823E+06    -52.5585E+06    -51.6883E+06    -28.8525E+06     24.4399E+06     4.49233E+06         71.2686
            1490     7.74798E-03     121.442E-03         3.47338         2.74988        -9.15539         2.69946        -9.10498         3.47338         1.47915     508.065E-03    -252.039E-03    -256.026E-03    -247.346E-03     503.372E-03    -256.026E-03     118.615E-03     35.4403E+06    -19.2650E+06    -44.3256E+06    -43.6813E+06    -19.9093E+06     35.4403E+06     3.90158E+06         72.4919
            1491     8.52451E-03     121.590E-03         3.44316         2.85540        -9.18384         2.74223        -9.07067         3.44316         2.26341     509.598E-03    -253.281E-03    -256.317E-03    -247.039E-03     503.052E-03    -256.012E-03     140.322E-03     45.5056E+06    -11.4081E+06    -36.3622E+06    -35.8234E+06    -11.9470E+06     45.5056E+06     3.60044E+06         73.6915
            1492     9.29601E-03     121.777E-03         3.43021         2.95470        -9.20543         2.79869        -9.04943         3.43021         2.70611     512.423E-03    -255.160E-03    -257.263E-03    -247.778E-03     503.789E-03    -256.011E-03     161.717E-03     50.7463E+06    -4.77773E+06    -28.6614E+06    -28.0867E+06    -5.35237E+06     50.7463E+06     3.63875E+06         74.8986
            1493     10.0737E-03     122.010E-03         3.42406         2.87873        -9.04905         2.77655        -8.94687         3.42406         2.08017     513.927E-03    -255.980E-03    -257.947E-03    -247.838E-03     503.818E-03    -255.980E-03     175.460E-03     50.6496E+06    -830.886E+03    -22.1990E+06    -21.7137E+06    -1.31622E+06     50.6496E+06     2.96931E+06         76.2043
            1494     10.8486E-03     122.235E-03         3.41224         2.63769        -8.71408         2.61113        -8.68752         3.41224         1.03679     517.785E-03    -255.898E-03    -261.887E-03    -248.942E-03     504.840E-03    -255.898E-03     198.430E-03     51.1425E+06     2.16504E+06    -17.5575E+06    -17.2638E+06     1.87132E+06     51.1425E+06     2.09718E+06         77.7335
            1495     11.6244E-03     122.545E-03         3.38557         2.35918        -8.32453         2.35053        -8.31589         3.38557     597.203E-03     519.977E-03    -255.819E-03    -264.158E-03    -251.128E-03     506.947E-03    -255.819E-03     199.666E-03     54.4949E+06     5.58152E+06    -12.7965E+06     -12.688E+06     5.47307E+06     54.4949E+06     1.35890E+06         79.5598
            1496     12.4028E-03     122.801E-03         3.34395         2.07287        -7.90999         2.06870        -7.90582         3.34395     216.827E-03     532.921E-03    -255.759E-03    -277.162E-03    -257.383E-03     513.142E-03    -255.759E-03     243.706E-03     59.6021E+06     11.3429E+06    -8.37160E+06    -8.28622E+06     11.2575E+06     59.6021E+06     552.759E+03         81.5955
            1497     13.1812E-03     123.274E-03         3.28957         1.80919        -7.51340         1.80716        -7.51137         3.28957    -176.577E-03     532.168E-03    -255.713E-03    -276.455E-03    -259.356E-03     515.069E-03    -255.713E-03     217.132E-03     68.6171E+06     17.5022E+06    -4.20528E+06    -4.14752E+06     17.4445E+06     68.6171E+06    -160.153E+03         83.5390
            1498     774.895E-06     122.916E-03         3.84552         3.06869        -9.30011         3.02548        -9.07778         3.66639    -588.344E-03     511.431E-03    -255.028E-03    -256.403E-03    -255.751E-03     511.425E-03    -255.674E-03    -1.73970E-03    -113.496E+06    -125.438E+06    -208.463E+06    -121.337E+06    -208.237E+06    -117.823E+06     1.16300E+06         64.4272
            1499     1.54956E-03     122.899E-03         3.77957         3.41046        -9.62271         3.71011        -9.55326         3.41046         1.51683     510.718E-03    -254.988E-03    -255.731E-03    -255.031E-03     510.717E-03    -255.686E-03    -187.851E-06    -105.656E+06    -117.320E+06    -186.829E+06    -117.128E+06    -186.595E+06    -106.082E+06     2.39831E+06         64.7270
            1500     2.32585E-03     122.877E-03         4.04065         3.55538        -10.0970         4.03271        -10.0891         3.55538     138.695E-03     510.585E-03    -254.939E-03    -255.647E-03    -254.934E-03     510.580E-03    -255.647E-03     3.01081E-03    -86.1304E+06    -107.776E+06    -158.560E+06    -108.732E+06    -157.605E+06    -86.1304E+06     5.35346E+06         65.2114
            1501     3.09815E-03     122.861E-03         4.30322         3.70197        -10.5909         4.29620        -10.5838         3.70197    -549.440E-03     510.474E-03    -254.731E-03    -255.743E-03    -254.695E-03     510.438E-03    -255.743E-03     9.56621E-03    -62.8093E+06    -96.1540E+06    -125.914E+06    -101.453E+06    -120.615E+06    -62.8093E+06     8.66328E+06         65.8786
            1502     3.87285E-03     122.848E-03         4.38650         3.82664        -10.8803         4.36890        -10.8627         3.82664        -1.01020     509.624E-03    -253.772E-03    -255.853E-03    -253.620E-03     509.472E-03    -255.853E-03     20.4712E-03    -37.5890E+06    -75.8230E+06    -99.3834E+06    -92.1593E+06    -83.0471E+06    -37.5890E+06     9.21279E+06         66.7179
            1503     4.64874E-03     122.847E-03         4.29515         3.90762        -10.9526         4.22675        -10.8842         3.90762        -1.87588     509.070E-03    -253.131E-03    -255.939E-03    -252.737E-03     508.676E-03    -255.939E-03     33.9480E-03    -16.1477E+06    -57.7344E+06    -83.8768E+06    -81.4146E+06    -60.1966E+06    -16.1477E+06     7.58279E+06         67.7103
            1504     5.42343E-03     122.866E-03         4.06933         3.84015        -10.7317         3.89980        -10.6577         3.93568        -1.98931     508.255E-03    -252.245E-03    -256.010E-03    -251.382E-03     507.393E-03    -256.010E-03     50.2684E-03     519.993E+03    -46.9779E+06    -73.0860E+06    -71.5033E+06    -48.5606E+06     519.993E+03     6.11305E+06         68.8258
            1505     6.19869E-03     122.915E-03         3.91618         3.54509        -10.3294         3.52123        -10.3056         3.91618        -1.12077     507.644E-03    -251.602E-03    -256.042E-03    -249.959E-03     506.001E-03    -256.042E-03     69.8039E-03     13.7282E+06    -37.9405E+06    -63.3579E+06    -62.4595E+06    -38.8389E+06     13.7282E+06     4.52331E+06         70.0234
            1506     6.97137E-03     122.989E-03         3.86645         3.21825        -9.96109         3.20392        -9.94676         3.86645    -161.004E-03     507.736E-03    -251.679E-03    -256.058E-03    -248.672E-03     504.729E-03    -256.058E-03     94.2682E-03     25.4310E+06    -29.2795E+06    -53.8246E+06    -53.3124E+06    -29.7917E+06     25.4310E+06     3.47186E+06         71.2543
            1507     7.74742E-03     123.105E-03         3.80476         3.02224        -9.67679         3.00036        -9.65491         3.80476     773.066E-03     507.772E-03    -251.738E-03    -256.034E-03    -247.017E-03     503.051E-03    -256.034E-03     118.935E-03     36.8510E+06    -19.3225E+06    -44.6545E+06    -44.1673E+06    -19.8097E+06     36.8510E+06     3.46351E+06         72.4758
            1508     8.52368E-03     123.257E-03         3.74305         2.94072        -9.48156         2.89835        -9.43918         3.74305         1.21565     509.684E-03    -253.393E-03    -256.292E-03    -246.930E-03     502.916E-03    -255.987E-03     142.535E-03     46.0235E+06    -11.7247E+06    -36.5728E+06    -36.1274E+06    -12.1701E+06     46.0235E+06     3.10377E+06         73.6713
            1509     9.29898E-03     123.453E-03         3.68655         2.91656        -9.33292         2.85256        -9.26892         3.68655         1.59719     512.038E-03    -255.453E-03    -256.584E-03    -247.198E-03     503.142E-03    -255.944E-03     164.146E-03     50.3558E+06    -5.96924E+06    -29.1233E+06    -28.7653E+06    -6.32722E+06     50.3558E+06     2.62868E+06         74.8728
            1510     10.0742E-03     123.665E-03         3.63368         2.81747        -9.10043         2.77244        -9.05540         3.63368         1.28101     512.880E-03    -255.858E-03    -257.022E-03    -246.916E-03     502.773E-03    -255.858E-03     175.232E-03     50.9468E+06    -764.453E+03    -22.6348E+06    -22.2378E+06    -1.16147E+06     50.9468E+06     2.72602E+06         76.1747
            1511     10.8536E-03     123.908E-03         3.57957         2.62578        -8.76427         2.61289        -8.75138         3.57957     710.459E-03     517.537E-03    -255.749E-03    -261.788E-03    -248.875E-03     504.624E-03    -255.749E-03     198.094E-03     52.4510E+06     3.46413E+06    -16.6856E+06    -16.3036E+06     3.08216E+06     52.4510E+06     2.57633E+06         77.7065
            1512     11.6280E-03     124.211E-03         3.51952         2.38301        -8.36341         2.37178        -8.35218         3.51952     678.483E-03     519.621E-03    -255.665E-03    -263.956E-03    -250.839E-03     506.504E-03    -255.665E-03     200.305E-03     55.3313E+06     7.09159E+06    -11.6437E+06    -11.4580E+06     6.90591E+06     55.3313E+06     1.73419E+06         79.5498
            1513     12.4030E-03     124.466E-03         3.45046         2.08256        -7.89137         2.07507        -7.88388         3.45046     468.907E-03     532.593E-03    -255.607E-03    -276.986E-03    -257.312E-03     512.919E-03    -255.607E-03     243.340E-03     60.6342E+06     13.1337E+06    -8.22763E+06    -8.03380E+06     12.9399E+06     60.6342E+06     1.12384E+06         81.6222
            1514     13.1796E-03     124.935E-03         3.37051         1.76792        -7.39126         1.76705        -7.39040         3.37051     20.2006E-03     533.640E-03    -255.639E-03    -278.001E-03    -261.224E-03     516.863E-03    -255.639E-03     214.723E-03     71.0646E+06     18.5853E+06    -4.57415E+06    -4.41927E+06     18.4304E+06     71.0646E+06     461.669E+03         83.6056
            1515     774.236E-06     124.583E-03         4.81745         4.12182        -11.2411         3.84758        -10.8909         4.74148        -1.74579     510.789E-03    -254.669E-03    -256.120E-03    -255.470E-03     510.785E-03    -255.315E-03    -1.59656E-03    -115.851E+06    -127.301E+06    -216.217E+06    -122.409E+06    -216.015E+06    -120.945E+06     2.41880E+06         64.4014
            1516     1.55030E-03     124.564E-03         4.40620         4.28113        -11.0331         4.33443        -10.9758         4.29563     859.674E-03     511.009E-03    -255.294E-03    -255.715E-03    -255.487E-03     511.008E-03    -255.521E-03    -754.570E-06    -106.276E+06    -119.844E+06    -193.084E+06    -119.076E+06     -192.66E+06    -107.469E+06     4.22777E+06         64.7016
            1517     2.32323E-03     124.547E-03         4.41137         4.22899        -11.0427         4.32639        -11.0299         4.30117    -720.360E-03     511.085E-03    -255.203E-03    -255.883E-03    -255.372E-03     511.081E-03    -255.709E-03     2.79023E-03    -88.5109E+06    -112.298E+06    -171.164E+06    -113.407E+06    -170.055E+06    -88.5109E+06     6.37791E+06         65.1845
            1518     3.09932E-03     124.528E-03         4.45100         4.13704        -11.0674         4.26928        -11.0441         4.29545        -1.01298     509.943E-03    -254.163E-03    -255.780E-03    -254.131E-03     509.910E-03    -255.780E-03     9.01294E-03    -66.5546E+06    -100.070E+06    -135.043E+06    -104.548E+06    -130.564E+06    -66.5546E+06     8.46984E+06         65.8489
            1519     3.87555E-03     124.513E-03         4.39674         4.01428        -10.9794         4.11114        -10.9520         4.27252        -1.21207     509.140E-03    -253.374E-03    -255.767E-03    -253.232E-03     508.999E-03    -255.767E-03     19.6286E-03    -40.6310E+06    -76.7440E+06    -101.193E+06    -92.9828E+06    -84.9545E+06    -40.6310E+06     9.14035E+06         66.6874
            1520     4.64916E-03     124.518E-03         4.27437         3.86719        -10.7959         3.85674        -10.7366         4.22554        -1.73329     508.963E-03    -253.131E-03    -255.832E-03    -252.730E-03     508.562E-03    -255.832E-03     33.9949E-03    -17.3628E+06    -56.4478E+06    -84.9735E+06    -82.3551E+06    -59.0662E+06    -17.3628E+06     8.15610E+06         67.6817
            1521     5.42183E-03     124.536E-03         4.15807         3.61071        -10.4961         3.55023        -10.4311         4.15352        -1.84501     508.563E-03    -252.613E-03    -255.950E-03    -251.721E-03     507.671E-03    -255.950E-03     51.1580E-03     1.11726E+06    -45.7282E+06    -73.3571E+06    -71.7611E+06    -47.3242E+06     1.11726E+06     6.28035E+06         68.8005
            1522     6.19667E-03     124.580E-03         4.06314         3.31684        -10.1548         3.28433        -10.1223         4.06314        -1.28755     507.481E-03    -251.466E-03    -256.015E-03    -249.772E-03     505.787E-03    -256.015E-03     70.8271E-03     16.3723E+06    -37.0901E+06    -62.2025E+06    -61.2070E+06    -38.0856E+06     16.3723E+06     4.68813E+06         70.0012
            1523     6.97485E-03     124.658E-03         3.96546         3.12253        -9.87672         3.10556        -9.85976         3.96546    -754.506E-03     506.988E-03    -250.998E-03    -255.989E-03    -247.990E-03     503.979E-03    -255.989E-03     94.3843E-03     28.4882E+06    -28.6934E+06    -53.0561E+06    -52.3200E+06    -29.4295E+06     28.4882E+06     4.01388E+06         71.2349
            1524     7.74921E-03     124.772E-03         3.87127         3.03860        -9.67427         3.03679        -9.67246         3.87127    -123.129E-03     507.917E-03    -251.981E-03    -255.937E-03    -247.208E-03     503.144E-03    -255.937E-03     119.482E-03     38.3520E+06    -19.0395E+06    -44.8853E+06    -44.3603E+06    -19.5645E+06     38.3520E+06     3.53131E+06         72.4578
            1525     8.52412E-03     124.925E-03         3.78891         3.05797        -9.55752         3.05411        -9.55366         3.78891     276.831E-03     509.186E-03    -253.305E-03    -255.882E-03    -246.476E-03     502.357E-03    -255.882E-03     143.183E-03     46.8476E+06    -10.9177E+06    -36.8049E+06    -36.5165E+06    -11.2061E+06     46.8476E+06     2.59134E+06         73.6529
            1526     9.30169E-03     125.117E-03         3.72082         3.09670        -9.45717         3.07912        -9.43959         3.72082     870.841E-03     511.208E-03    -254.832E-03    -256.376E-03    -246.630E-03     502.437E-03    -255.807E-03     162.882E-03     50.9445E+06    -5.96362E+06    -30.0580E+06    -29.9166E+06    -6.10506E+06     50.9445E+06     1.73192E+06         74.8538
            1527     10.0770E-03     125.338E-03         3.66298         3.05402        -9.27666         3.03138        -9.25402         3.66298         1.00684     513.018E-03    -255.732E-03    -257.285E-03    -247.374E-03     503.106E-03    -255.732E-03     173.602E-03     50.9401E+06    -1.52194E+06    -23.4724E+06    -23.3865E+06    -1.60785E+06     50.9401E+06     1.04386E+06         76.1555
            1528     10.8499E-03     125.568E-03         3.60588         2.85674        -8.93122         2.83860        -8.91308         3.60588     866.187E-03     516.841E-03    -255.641E-03    -261.200E-03    -248.325E-03     503.966E-03    -255.641E-03     197.489E-03     52.5059E+06     2.67342E+06    -17.1110E+06    -16.9841E+06     2.54659E+06     52.5059E+06     1.02983E+06         77.6934
            1529     11.6295E-03     125.879E-03         3.53888         2.53957        -8.44751         2.51391        -8.42185         3.53888         1.02393     519.465E-03    -255.550E-03    -263.915E-03    -250.870E-03     506.420E-03    -255.550E-03     199.543E-03     55.6271E+06     7.02382E+06    -12.5924E+06    -12.3898E+06     6.82122E+06     55.6271E+06     1.74836E+06         79.5577
            1530     12.4075E-03     126.130E-03         3.45411         2.14331        -7.86946         2.12440        -7.85054         3.45411     782.129E-03     534.175E-03    -255.581E-03    -278.594E-03    -259.461E-03     515.042E-03    -255.581E-03     240.586E-03     61.5802E+06     14.2021E+06    -8.75084E+06    -8.49993E+06     13.9511E+06     61.5802E+06     2.20103E+06         81.6583
            1531     13.1805E-03     126.611E-03         3.35255         1.75720        -7.30387         1.75386        -7.30053         3.35255     197.783E-03     534.430E-03    -255.732E-03    -278.698E-03    -262.297E-03     518.028E-03    -255.732E-03     213.304E-03     72.4257E+06     20.4072E+06    -4.29188E+06    -4.10425E+06     20.2196E+06     72.4257E+06     1.74067E+06         83.6624
            1532     775.805E-06     126.245E-03         5.01545         4.40493        -11.6566         4.07063        -11.3072         5.00030        -2.49187     511.135E-03    -254.754E-03    -256.381E-03    -255.833E-03     511.132E-03    -255.300E-03    -2.61861E-03    -116.940E+06    -125.790E+06    -227.277E+06    -122.945E+06    -227.098E+06    -119.964E+06     2.42785E+06         64.3794
            1533     1.54944E-03     126.233E-03         4.60086         4.51795        -11.3705         4.52382        -11.3113         4.53572    -320.776E-03     511.490E-03    -255.304E-03    -256.186E-03    -255.774E-03     511.489E-03    -255.715E-03    -455.320E-06    -106.070E+06    -119.043E+06    -203.970E+06    -118.347E+06    -203.474E+06    -107.262E+06     5.55652E+06         64.6758
            1534     2.32406E-03     126.216E-03         4.58735         4.45034        -11.3454         4.44084        -11.2711         4.52252        -2.01749     510.754E-03    -254.751E-03    -256.003E-03    -254.922E-03     510.750E-03    -255.829E-03     2.89372E-03    -87.6864E+06    -111.410E+06    -178.055E+06    -112.198E+06    -177.267E+06    -87.6864E+06     6.66977E+06         65.1545
            1535     3.09854E-03     126.192E-03         4.49493         4.29565        -11.1729         4.22934        -11.0917         4.48009        -2.14539     510.159E-03    -254.346E-03    -255.813E-03    -254.310E-03     510.123E-03    -255.813E-03     9.29060E-03    -66.9382E+06    -100.636E+06    -139.342E+06    -102.769E+06    -137.209E+06    -66.9382E+06     7.00428E+06         65.8151
            1536     3.87226E-03     126.183E-03         4.40275         4.00159        -10.8769         3.93108        -10.8064         4.40275        -1.97907     509.312E-03    -253.499E-03    -255.814E-03    -253.360E-03     509.174E-03    -255.814E-03     19.6207E-03    -43.0957E+06    -79.2952E+06    -103.481E+06    -92.9064E+06    -89.8696E+06    -43.0957E+06     8.04958E+06         66.6499
            1537     4.64858E-03     126.183E-03         4.29454         3.64498        -10.5063         3.56442        -10.4258         4.29454        -2.05786     508.101E-03    -252.282E-03    -255.819E-03    -251.885E-03     507.704E-03    -255.819E-03     33.6928E-03    -17.4376E+06    -56.4344E+06    -84.7711E+06    -82.3494E+06    -58.8561E+06    -17.4376E+06     7.81418E+06         67.6426
            1538     5.42617E-03     126.206E-03         4.16322         3.27230        -10.0805         3.20000        -10.0082         4.16322        -1.86266     507.459E-03    -251.648E-03    -255.811E-03    -250.751E-03     506.562E-03    -255.811E-03     51.2696E-03     1.97074E+06    -44.6012E+06    -73.4597E+06    -71.8681E+06    -46.1929E+06     1.97074E+06     6.44263E+06         68.7645
            1539     6.19966E-03     126.250E-03         4.02360         2.97192        -9.69121         2.94133        -9.66062         4.02360        -1.20630     507.142E-03    -251.328E-03    -255.814E-03    -249.602E-03     505.417E-03    -255.814E-03     71.3999E-03     15.7206E+06    -36.5361E+06    -64.1846E+06    -62.9178E+06    -37.8028E+06     15.7206E+06     5.62886E+06         69.9721
            1540     6.97275E-03     126.322E-03         3.89453         2.89135        -9.49562         2.87507        -9.47934         3.89453    -672.501E-03     507.098E-03    -251.283E-03    -255.815E-03    -248.227E-03     504.042E-03    -255.815E-03     95.1988E-03     28.1294E+06    -27.5818E+06    -54.7680E+06    -53.8769E+06    -28.4730E+06     28.1294E+06     4.64524E+06         71.2138
            1541     7.75031E-03     126.440E-03         3.79008         2.96167        -9.44092         2.95953        -9.43878         3.79008    -53.8938E-03     507.856E-03    -252.051E-03    -255.805E-03    -247.282E-03     503.087E-03    -255.805E-03     119.473E-03     39.1364E+06    -18.7085E+06    -45.5854E+06    -45.1018E+06    -19.1921E+06     39.1364E+06     3.41466E+06         72.4432
            1542     8.52590E-03     126.592E-03         3.71247         3.08613        -9.44153         3.07885        -9.43425         3.71247     389.621E-03     509.270E-03    -253.482E-03    -255.789E-03    -246.769E-03     502.558E-03    -255.789E-03     142.050E-03     48.5010E+06    -10.4146E+06    -37.2358E+06    -36.8903E+06    -10.7601E+06     48.5010E+06     3.00361E+06         73.6424
            1543     9.30037E-03     126.781E-03         3.65387         3.16269        -9.39585         3.13547        -9.36864         3.65387         1.08086     510.682E-03    -254.715E-03    -255.968E-03    -246.183E-03     501.905E-03    -255.722E-03     162.731E-03     53.6077E+06    -4.13720E+06    -29.6094E+06    -29.3604E+06    -4.38621E+06     53.6077E+06     2.38739E+06         74.8459
            1544     10.0762E-03     127.007E-03         3.60074         3.07847        -9.18342         3.04094        -9.14589         3.60074         1.34576     512.346E-03    -255.334E-03    -257.012E-03    -246.652E-03     502.253E-03    -255.601E-03     175.020E-03     52.8724E+06    -1.24173E+06    -23.8425E+06    -23.6983E+06    -1.38594E+06     52.8724E+06     1.37805E+06         76.1526
            1545     10.8551E-03     127.232E-03         3.53771         2.81777        -8.77892         2.78047        -8.74162         3.53771         1.29970     518.200E-03    -255.540E-03    -262.660E-03    -249.851E-03     505.391E-03    -255.540E-03     197.508E-03     53.2428E+06     2.90406E+06    -19.3956E+06    -19.2970E+06     2.80548E+06     53.2428E+06     1.05983E+06         77.6980
            1546     11.6310E-03     127.541E-03         3.45615         2.47092        -8.26883         2.41900        -8.21690         3.45615         1.45970     521.674E-03    -255.600E-03    -266.074E-03    -253.286E-03     508.886E-03    -255.600E-03     198.138E-03     56.5448E+06     7.07585E+06    -14.7978E+06    -14.6814E+06      6.9595E+06     56.5448E+06     1.27098E+06         79.5679
            1547     12.4009E-03     127.806E-03         3.35270         2.08778        -7.71279         2.04822        -7.67324         3.35270         1.17779     534.549E-03    -255.725E-03    -278.824E-03    -259.799E-03     515.524E-03    -255.725E-03     239.664E-03     61.9657E+06     12.9753E+06    -9.42001E+06    -9.31107E+06     12.8664E+06     61.9657E+06     1.30187E+06         81.6736
            1548     13.1724E-03     128.275E-03         3.23489         1.74845        -7.21791         1.73990        -7.20936         3.23489     423.845E-03     532.422E-03    -255.809E-03    -276.614E-03    -260.045E-03     515.853E-03    -255.809E-03     214.846E-03     71.9391E+06     21.3644E+06    -4.41554E+06    -4.33728E+06     21.2861E+06     71.9391E+06     1.16343E+06         83.6884
            1549     774.371E-06     127.917E-03         4.19178         3.59517        -9.94352         3.34646        -9.65369         4.15066        -2.77549     512.141E-03    -254.951E-03    -257.190E-03    -256.354E-03     512.140E-03    -255.786E-03    -898.503E-06    -119.390E+06    -125.909E+06    -236.972E+06    -124.209E+06    -236.840E+06    -121.222E+06     2.42145E+06         64.3542
            1550     1.54794E-03     127.901E-03         4.08068         3.80087        -10.0697         3.98065        -9.97293         3.80415        -1.65364     511.402E-03    -255.082E-03    -256.320E-03    -255.358E-03     511.401E-03    -256.044E-03    -969.261E-06    -108.250E+06    -119.355E+06    -215.769E+06    -119.617E+06    -215.507E+06    -108.250E+06     4.15245E+06         64.6457
            1551     2.32438E-03     127.880E-03         4.37928         3.90968        -10.5422         4.20743        -10.3704         3.90968        -3.13641     510.329E-03    -254.467E-03    -255.863E-03    -254.461E-03     510.324E-03    -255.863E-03     2.50297E-03    -89.9414E+06    -111.166E+06    -183.050E+06    -111.727E+06    -182.489E+06    -89.9414E+06     5.86589E+06         65.1194
            1552     3.09933E-03     127.863E-03         4.44670         3.97489        -10.7554         4.26127        -10.5960         4.00093        -3.06054     509.837E-03    -254.092E-03    -255.746E-03    -254.049E-03     509.795E-03    -255.746E-03     10.2528E-03    -68.5893E+06    -102.568E+06    -144.259E+06    -103.917E+06    -142.910E+06    -68.5893E+06     6.48676E+06         65.7764
            1553     3.87447E-03     127.850E-03         4.38753         3.90440        -10.7171         4.14041        -10.6129         4.04732        -2.41682     509.080E-03    -253.354E-03    -255.726E-03    -253.198E-03     508.924E-03    -255.726E-03     20.9731E-03    -43.5776E+06    -82.5241E+06    -107.665E+06    -94.4558E+06    -95.7329E+06    -43.5776E+06     7.75401E+06         66.6092
            1554     4.64895E-03     127.850E-03         4.21068         3.74930        -10.4805         3.84771        -10.4088         4.04051        -1.97130     507.928E-03    -252.204E-03    -255.724E-03    -251.790E-03     507.513E-03    -255.724E-03     34.6059E-03    -17.9903E+06    -57.7561E+06    -86.8501E+06    -83.8488E+06    -60.7574E+06    -17.9903E+06     8.66197E+06         67.6019
            1555     5.42280E-03     127.871E-03         4.02677         3.48974        -10.1191         3.48256        -10.0704         3.98524        -1.38903     506.621E-03    -250.947E-03    -255.674E-03    -250.064E-03     505.739E-03    -255.674E-03     50.9102E-03     1.04641E+06    -43.8233E+06    -76.3026E+06    -74.0480E+06    -46.0779E+06     1.04641E+06     8.23354E+06         68.7269
            1556     6.20135E-03     127.916E-03         3.89817         3.16291        -9.71722         3.15337        -9.70768         3.89817    -639.157E-03     506.286E-03    -250.676E-03    -255.610E-03    -248.989E-03     504.599E-03    -255.610E-03     70.5035E-03     15.4936E+06    -34.5640E+06    -65.7453E+06    -64.1875E+06    -36.1218E+06     15.4936E+06     6.68002E+06         69.9421
            1557     6.97814E-03     127.992E-03         3.79837         2.93527        -9.40625         2.93088        -9.40187         3.79837    -286.700E-03     507.222E-03    -251.607E-03    -255.614E-03    -248.555E-03     504.170E-03    -255.614E-03     95.0753E-03     28.2687E+06    -25.9686E+06    -55.7342E+06    -54.9027E+06    -26.8001E+06     28.2687E+06     4.76891E+06         71.1942
            1558     7.75046E-03     128.106E-03         3.70083         2.84442        -9.20189         2.84266        -9.20012         3.70083     19.7525E-03     508.085E-03    -252.422E-03    -255.663E-03    -247.637E-03     503.300E-03    -255.663E-03     119.752E-03     39.7142E+06    -18.0710E+06    -46.9469E+06    -46.4017E+06    -18.6162E+06     39.7142E+06     3.78305E+06         72.4340
            1559     8.52585E-03     128.260E-03         3.61221         2.84491        -9.07768         2.83742        -9.07019         3.61221     174.773E-03     508.945E-03    -253.280E-03    -255.665E-03    -246.499E-03     502.164E-03    -255.665E-03     142.649E-03     48.7849E+06    -10.0781E+06    -39.0314E+06    -38.6985E+06    -10.4110E+06     48.7849E+06     2.99877E+06         73.6420
            1560     9.30197E-03     128.449E-03         3.52967         2.84338        -8.94394         2.82414        -8.92470         3.52967     663.711E-03     510.477E-03    -254.463E-03    -256.013E-03    -246.112E-03     501.710E-03    -255.597E-03     162.663E-03     54.2748E+06    -3.86418E+06    -31.4882E+06    -31.2541E+06    -4.09824E+06     54.2748E+06     2.44642E+06         74.8520
            1561     10.0821E-03     128.664E-03         3.44676         2.78072        -8.73843         2.75615        -8.71387         3.44676     948.946E-03     513.012E-03    -255.268E-03    -257.744E-03    -247.607E-03     503.142E-03    -255.535E-03     173.228E-03     55.6546E+06    -266.843E+03    -24.7523E+06     -24.528E+06    -491.131E+03     55.6546E+06     2.29556E+06         76.1598
            1562     10.8556E-03     128.906E-03         3.35663         2.64233        -8.44429         2.61159        -8.41354         3.35663         1.10952     519.960E-03    -255.603E-03    -264.358E-03    -251.939E-03     507.541E-03    -255.603E-03     195.016E-03     56.3739E+06     4.76283E+06    -19.7947E+06    -19.6031E+06     4.57122E+06     56.3739E+06     2.14202E+06         77.6961
            1563     11.6233E-03     129.213E-03         3.25779         2.45583        -8.09430         2.39968        -8.03816         3.25779         1.50192     522.243E-03    -255.760E-03    -266.483E-03    -253.857E-03     509.617E-03    -255.760E-03     197.316E-03     58.8747E+06     9.08791E+06    -14.3696E+06    -14.2858E+06     9.00403E+06     58.8747E+06     1.24043E+06         79.5540
            1564     12.4005E-03     129.475E-03         3.14693         2.19489        -7.67244         2.14395        -7.62150         3.14693         1.37912     532.780E-03    -255.815E-03    -276.964E-03    -257.401E-03     513.216E-03    -255.815E-03     242.175E-03     64.0802E+06     12.8489E+06    -9.68088E+06    -9.60882E+06     12.7768E+06     64.0802E+06     98.5720E+03         81.6682
            1565     13.1815E-03     129.944E-03         3.02745         1.87561        -7.19732         1.86049        -7.18221         3.02745     619.207E-03     532.218E-03    -255.782E-03    -276.437E-03    -259.482E-03     515.264E-03    -255.782E-03     216.103E-03     74.0348E+06     20.3687E+06    -5.78278E+06    -5.71892E+06     20.3049E+06     74.0348E+06    -156.949E+03         83.7126
            1566     773.217E-06     129.583E-03         3.22763         2.63087        -7.99999         2.57736        -7.80511         3.08627        -2.55598     511.807E-03    -254.911E-03    -256.896E-03    -256.520E-03     511.807E-03    -255.286E-03    -224.806E-06    -120.463E+06    -125.009E+06    -242.543E+06    -124.219E+06    -242.529E+06    -121.267E+06     562.357E+03         64.3154
            1567     1.54960E-03     129.570E-03         3.47889         2.93209        -8.59810         3.30517        -8.42437         2.93209        -2.70873     511.141E-03    -255.250E-03    -255.891E-03    -255.254E-03     511.141E-03    -255.887E-03     843.043E-09    -110.162E+06    -119.720E+06    -223.432E+06    -119.855E+06    -223.297E+06    -110.162E+06     2.00428E+06         64.6085
            1568     2.32317E-03     129.546E-03         4.08426         3.14531        -9.49022         3.82277        -9.22873         3.14531        -3.70922     510.510E-03    -254.728E-03    -255.783E-03    -254.726E-03     510.505E-03    -255.778E-03     3.02908E-03    -93.0352E+06    -113.687E+06    -191.565E+06    -114.156E+06    -191.096E+06    -93.0352E+06     4.89131E+06         65.0827
            1569     3.09929E-03     129.529E-03         4.40518         3.36674        -10.1146         4.18832        -9.89773         3.36674        -3.44440     509.248E-03    -253.575E-03    -255.673E-03    -253.539E-03     509.213E-03    -255.673E-03     9.66917E-03    -69.6576E+06    -104.301E+06    -151.702E+06    -105.768E+06    -150.236E+06    -69.6576E+06     7.21291E+06         65.7392
            1570     3.87513E-03     129.516E-03         4.40627         3.54895        -10.3918         4.31190        -10.2974         3.54895        -2.25146     508.303E-03    -252.747E-03    -255.556E-03    -252.599E-03     508.155E-03    -255.556E-03     20.2080E-03    -44.1854E+06    -85.4862E+06    -113.430E+06    -96.2058E+06    -102.710E+06    -44.1854E+06     9.06502E+06         66.5729
            1571     4.65041E-03     129.518E-03         4.18220         3.66471        -10.3764         4.14204        -10.3362         3.66471        -1.52175     507.528E-03    -252.024E-03    -255.504E-03    -251.612E-03     507.116E-03    -255.504E-03     34.4553E-03    -19.2837E+06    -59.9693E+06    -90.0579E+06    -85.8445E+06    -64.1827E+06    -19.2837E+06     9.96526E+06         67.5694
            1572     5.42739E-03     129.536E-03         3.86850         3.60273        -10.0832         3.74862        -10.0640         3.70341    -814.788E-03     506.865E-03    -251.368E-03    -255.497E-03    -250.467E-03     505.964E-03    -255.497E-03     51.3975E-03     625.947E+03    -42.5827E+06    -77.3902E+06    -75.0080E+06    -44.9648E+06     625.947E+03     8.69801E+06         68.7001
            1573     6.20089E-03     129.581E-03         3.67155         3.25750        -9.59734         3.25367        -9.59350         3.67155    -365.653E-03     506.523E-03    -251.017E-03    -255.507E-03    -249.341E-03     504.848E-03    -255.507E-03     70.4802E-03     15.8786E+06    -32.8639E+06    -66.0732E+06    -64.4406E+06    -34.4966E+06     15.8786E+06     7.11210E+06         69.9219
            1574     6.97565E-03     129.657E-03         3.58729         2.82940        -9.10974         2.82053        -9.10086         3.58729    -524.536E-03     506.556E-03    -251.035E-03    -255.521E-03    -248.041E-03     503.562E-03    -255.521E-03     94.0458E-03     29.0734E+06    -24.5119E+06    -56.7921E+06    -55.5560E+06    -25.7480E+06     29.0734E+06     6.09512E+06         71.1822
            1575     7.75295E-03     129.777E-03         3.47324         2.56426        -8.72583         2.53645        -8.69803         3.47324    -820.173E-03     507.337E-03    -251.812E-03    -255.525E-03    -247.073E-03     502.597E-03    -255.525E-03     119.058E-03     40.9975E+06    -16.1295E+06    -47.8690E+06    -47.1284E+06    -16.8701E+06     40.9975E+06     4.70812E+06         72.4326
            1576     8.52810E-03     129.924E-03         3.34934         2.47376        -8.48484         2.43563        -8.44672         3.34934        -1.04804     509.134E-03    -253.357E-03    -255.777E-03    -246.931E-03     502.468E-03    -255.537E-03     141.533E-03     50.8210E+06    -8.56230E+06    -39.6872E+06    -39.2749E+06    -8.97457E+06     50.8210E+06     3.43859E+06         73.6501
            1577     9.30582E-03     130.113E-03         3.23009         2.50694        -8.35870         2.48636        -8.33812         3.23009    -596.516E-03     512.180E-03    -254.987E-03    -257.194E-03    -248.160E-03     503.757E-03    -255.597E-03     159.900E-03     56.0142E+06    -3.38436E+06    -32.4043E+06    -32.1379E+06    -3.65078E+06     56.0142E+06     2.66056E+06         74.8601
            1578     10.0751E-03     130.336E-03         3.12391         2.60079        -8.29948         2.59423        -8.29293         3.12391    -13.0190E-03     515.026E-03    -255.717E-03    -259.309E-03    -249.758E-03     505.475E-03    -255.717E-03     170.881E-03     56.7548E+06     199.709E+03    -25.8283E+06    -25.6191E+06     -9.4245E+03     56.7548E+06     2.28311E+06         76.1515
            1579     10.8484E-03     130.574E-03         3.02816         2.65921        -8.21078         2.64444        -8.19601         3.02816     640.359E-03     519.132E-03    -255.813E-03    -263.318E-03    -250.683E-03     506.496E-03    -255.813E-03     196.154E-03     57.9328E+06     5.45340E+06    -19.7021E+06    -19.5567E+06     5.30801E+06     57.9328E+06     1.84244E+06         77.6655
            1580     11.6265E-03     130.890E-03         2.93733         2.61407        -8.02333         2.55768        -7.96694         2.93733         1.46995     519.571E-03    -255.798E-03    -263.773E-03    -250.764E-03     506.562E-03    -255.798E-03     199.443E-03     60.8391E+06     10.7030E+06    -14.2036E+06    -14.1432E+06     10.6426E+06     60.8391E+06     1.12893E+06         79.5215
            1581     12.4020E-03     131.131E-03         2.83746         2.38136        -7.64582         2.31574        -7.58021         2.83746         1.58860     532.808E-03    -255.751E-03    -277.057E-03    -257.521E-03     513.271E-03    -255.751E-03     242.531E-03     67.4564E+06     15.0481E+06    -9.51846E+06    -9.39733E+06     14.9270E+06     67.4564E+06     501.537E+03         81.6627
            1582     13.1787E-03     131.607E-03         2.72403         1.98991        -7.10896         1.96590        -7.08495         2.72403     821.205E-03     534.008E-03    -255.789E-03    -278.219E-03    -261.462E-03     517.251E-03    -255.789E-03     215.145E-03     77.8817E+06     20.8730E+06    -4.87630E+06    -4.76064E+06     20.7574E+06     77.8817E+06     331.141E+03         83.7393
            1583     776.365E-06     131.252E-03         3.01086         2.57150        -7.80114         2.59301        -7.58812         2.77633        -2.07731     510.527E-03    -254.517E-03    -256.010E-03    -255.058E-03     510.526E-03    -255.468E-03    -1.54828E-03    -119.920E+06    -125.027E+06    -249.200E+06    -124.381E+06    -249.043E+06    -120.723E+06     3.57977E+06         64.2683
            1584     1.54997E-03     131.234E-03         3.34945         2.75280        -8.35965         3.03530        -8.04550         2.75280        -3.71678     510.441E-03    -255.039E-03    -255.402E-03    -255.101E-03     510.440E-03    -255.339E-03    -86.0492E-06    -111.109E+06    -122.779E+06    -227.923E+06    -122.967E+06    -227.735E+06    -111.109E+06     3.36970E+06         64.5668
            1585     2.32531E-03     131.216E-03         3.80244         2.91092        -9.04232         3.44670        -8.68658         2.91092        -4.16910     510.248E-03    -254.820E-03    -255.427E-03    -254.818E-03     510.241E-03    -255.423E-03     3.89229E-03    -93.3919E+06    -116.309E+06    -200.773E+06    -116.716E+06    -200.366E+06    -93.3919E+06     4.63426E+06         65.0483
            1586     3.09907E-03     131.192E-03         4.03831         3.08179        -9.52472         3.73633        -9.22275         3.08179        -3.82787     509.667E-03    -254.176E-03    -255.491E-03    -254.134E-03     509.625E-03    -255.491E-03     10.4553E-03    -71.0705E+06    -106.246E+06    -160.938E+06    -107.858E+06    -159.326E+06    -71.0705E+06     8.06595E+06         65.7121
            1587     3.87490E-03     131.182E-03         3.91411         3.22372        -9.63274         3.81974        -9.53836         3.22372        -2.11195     508.421E-03    -252.930E-03    -255.490E-03    -252.791E-03     508.281E-03    -255.490E-03     19.8707E-03    -46.8337E+06    -89.3736E+06    -118.728E+06    -98.2287E+06    -109.873E+06    -46.8337E+06     9.39335E+06         66.5513
            1588     4.65146E-03     131.182E-03         3.69380         3.24342        -9.52376         3.60360        -9.49710         3.30696        -1.14452     507.252E-03    -251.804E-03    -255.448E-03    -251.441E-03     506.889E-03    -255.448E-03     32.3902E-03    -21.1070E+06    -62.7471E+06    -91.2434E+06    -87.0117E+06    -66.9788E+06    -21.1070E+06     9.41990E+06         67.5525
            1589     5.42597E-03     131.203E-03         3.43904         3.06231        -9.16571         3.17509        -9.15492         3.31548    -327.490E-03     506.678E-03    -251.247E-03    -255.431E-03    -250.396E-03     505.827E-03    -255.431E-03     49.7271E-03     623.399E+03    -42.3328E+06    -78.6004E+06    -76.1640E+06    -44.7692E+06     623.399E+03     9.00435E+06         68.6890
            1590     6.20190E-03     131.250E-03         3.25419         2.67508        -8.65290         2.67053        -8.64836         3.25419    -100.496E-03     506.663E-03    -251.207E-03    -255.456E-03    -249.526E-03     504.982E-03    -255.456E-03     70.5144E-03     16.0321E+06    -32.2856E+06    -68.5164E+06    -66.5561E+06    -34.2459E+06     16.0321E+06     8.12269E+06         69.9177
            1591     6.97735E-03     131.324E-03         3.14345         2.29425        -8.19407         2.28176        -8.18158         3.14345    -673.549E-03     506.950E-03    -251.437E-03    -255.512E-03    -248.469E-03     503.981E-03    -255.512E-03     93.8384E-03     29.8397E+06    -22.9922E+06    -57.7986E+06    -56.4076E+06    -24.3832E+06     29.8397E+06     6.72772E+06         71.1841
            1592     7.75283E-03     131.440E-03         3.01226         2.17327        -7.94581         2.12593        -7.89846         3.01226        -1.31007     507.608E-03    -252.031E-03    -255.577E-03    -247.531E-03     503.108E-03    -255.577E-03     116.150E-03     42.9984E+06    -14.3153E+06    -48.0725E+06    -47.1720E+06    -15.2158E+06     42.9984E+06      5.4148E+06         72.4367
            1593     8.52946E-03     131.592E-03         2.88638         2.24903        -7.87627         2.18224        -7.80947         2.88638        -1.63453     509.868E-03    -253.964E-03    -255.904E-03    -247.851E-03     503.516E-03    -255.664E-03     138.214E-03     53.4591E+06    -6.79809E+06    -39.9411E+06    -39.2207E+06    -7.51856E+06     53.4591E+06     4.81177E+06         73.6483
            1594     9.29844E-03     131.786E-03         2.78065         2.40157        -7.88918         2.36722        -7.85483         2.78065        -1.08270     512.815E-03    -255.618E-03    -257.197E-03    -248.567E-03     504.340E-03    -255.772E-03     160.348E-03     58.1417E+06    -2.00730E+06    -32.8120E+06    -32.2394E+06    -2.57990E+06     58.1417E+06     4.12396E+06         74.8429
            1595     10.0744E-03     132.007E-03         2.71267         2.53295        -7.90981         2.53899        -7.90142         2.69825    -163.806E-03     514.561E-03    -255.833E-03    -258.728E-03    -248.645E-03     504.478E-03    -255.833E-03     175.333E-03     58.3877E+06     1.97937E+06    -26.3346E+06    -25.9933E+06     1.63799E+06     58.3877E+06     2.98381E+06         76.1167
            1596     10.8492E-03     132.243E-03         2.64155         2.56789        -7.83182         2.55087        -7.80036         2.62713     876.102E-03     518.123E-03    -255.801E-03    -262.322E-03    -249.231E-03     505.032E-03    -255.801E-03     199.623E-03     58.8508E+06     6.67154E+06    -20.3141E+06    -20.2109E+06     6.56833E+06     58.8508E+06     1.42573E+06         77.6242
            1597     11.6280E-03     132.543E-03         2.55239         2.47098        -7.60548         2.36734        -7.50184         2.55239         1.91508     519.726E-03    -255.747E-03    -263.979E-03    -251.099E-03     506.845E-03    -255.747E-03     198.199E-03     62.6609E+06     11.0205E+06    -15.0825E+06    -15.0109E+06     10.9490E+06     62.6609E+06     1.06424E+06         79.4897
            1598     12.4074E-03     132.806E-03         2.45600         2.18177        -7.19474         2.06849        -7.08146         2.45600         1.99419     533.922E-03    -255.778E-03    -278.145E-03    -259.068E-03     514.845E-03    -255.778E-03     239.684E-03     69.6443E+06     16.5406E+06    -9.80503E+06    -9.66880E+06     16.4043E+06     69.6443E+06     1.09984E+06         81.6463
            1599     13.1746E-03     133.284E-03         2.34310         1.87291        -6.76572         1.83014        -6.72295         2.34310         1.07920     532.191E-03    -255.819E-03    -276.371E-03    -259.708E-03     515.528E-03    -255.819E-03     215.400E-03     78.4292E+06     22.3178E+06    -4.37781E+06    -4.25986E+06     22.1999E+06     78.4292E+06     80.5451E+03         83.7380
            1600     774.318E-06     132.915E-03         3.42747         2.82481        -8.57950         2.92124        -8.11664         2.86818        -1.90901     510.528E-03    -254.197E-03    -256.331E-03    -255.252E-03     510.527E-03    -255.274E-03    -1.71281E-03    -121.947E+06    -126.426E+06    -260.785E+06    -125.199E+06    -260.633E+06    -123.325E+06     2.94809E+06         64.2312
            1601     1.55058E-03     132.901E-03         3.54060         2.90990        -8.81103         2.97367        -8.24410         2.90990        -5.01545     510.028E-03    -254.699E-03    -255.330E-03    -254.755E-03     510.027E-03    -255.271E-03    -1.57149E-03    -109.268E+06    -120.363E+06    -237.275E+06    -120.807E+06    -236.831E+06    -109.268E+06     6.24482E+06         64.5320
            1602     2.32621E-03     132.878E-03         3.59315         2.94108        -8.95562         3.03168        -8.39415         2.94108        -5.03597     509.486E-03    -254.262E-03    -255.224E-03    -254.256E-03     509.480E-03    -255.224E-03     2.29132E-03    -89.7116E+06    -114.625E+06    -208.336E+06    -115.308E+06    -207.653E+06    -89.7116E+06     7.64383E+06         65.0197
            1603     3.10191E-03     132.862E-03         3.51713         2.93792        -8.94742         2.99140        -8.44482         2.96104        -4.64792     509.376E-03    -254.134E-03    -255.243E-03    -254.089E-03     509.332E-03    -255.243E-03     10.4052E-03    -69.3024E+06    -105.267E+06    -167.800E+06    -106.421E+06    -166.646E+06    -69.3024E+06     7.28762E+06         65.6937
            1604     3.87488E-03     132.847E-03         3.12784         2.80197        -8.50364         2.84017        -8.36856         2.95455        -2.31000     509.218E-03    -253.854E-03    -255.364E-03    -253.703E-03     509.067E-03    -255.364E-03     20.7907E-03    -46.2368E+06    -89.2921E+06    -124.712E+06    -96.1946E+06    -117.810E+06    -46.2368E+06     9.15802E+06         66.5439
            1605     4.64907E-03     132.848E-03         2.95148         2.53806        -8.14656         2.55182        -8.12081         2.91197    -890.433E-03     508.124E-03    -252.633E-03    -255.491E-03    -252.252E-03     507.743E-03    -255.491E-03     33.2306E-03    -20.6286E+06    -63.3325E+06    -95.2926E+06    -87.6776E+06    -70.9475E+06    -20.6286E+06     11.2327E+06         67.5526
            1606     5.42570E-03     132.868E-03         2.83128         2.23699        -7.80385         2.22003        -7.78688         2.83128     303.044E-03     507.051E-03    -251.497E-03    -255.554E-03    -250.660E-03     506.214E-03    -255.554E-03     49.5030E-03     2.24117E+06    -41.3458E+06    -80.4897E+06    -77.5482E+06    -44.2872E+06     2.24117E+06     10.1248E+06         68.6930
            1607     6.20210E-03     132.914E-03         2.72412         1.97850        -7.50039         1.95792        -7.47980         2.72412     625.950E-03     507.030E-03    -251.426E-03    -255.603E-03    -249.838E-03     505.442E-03    -255.603E-03     68.5808E-03     18.1009E+06    -31.2620E+06    -68.6761E+06    -66.8927E+06    -33.0454E+06     18.1009E+06     7.87426E+06         69.9232
            1608     6.97677E-03     132.993E-03         2.60966         1.86797        -7.30987         1.85824        -7.30015         2.60966    -9.26104E-03     507.728E-03    -252.025E-03    -255.703E-03    -249.235E-03     504.938E-03    -255.703E-03     91.0538E-03     31.1184E+06    -21.9811E+06    -58.4712E+06    -57.0507E+06    -23.4016E+06     31.1184E+06     7.04729E+06         71.1872
            1609     7.74927E-03     133.109E-03         2.50649         1.95739        -7.29937         1.93122        -7.27320         2.50649    -774.130E-03     508.553E-03    -252.723E-03    -255.830E-03    -248.258E-03     504.088E-03    -255.830E-03     115.572E-03     44.3321E+06    -13.4425E+06    -49.1194E+06    -47.8029E+06    -14.7590E+06     44.3321E+06     6.68929E+06         72.4305
            1610     8.52105E-03     133.260E-03         2.42486         2.14523        -7.38597         2.10615        -7.34689         2.42486        -1.16949     509.560E-03    -253.668E-03    -255.892E-03    -247.088E-03     502.981E-03    -255.892E-03     140.474E-03     54.7462E+06    -6.02147E+06    -40.5422E+06    -39.3379E+06    -7.22578E+06     54.7462E+06     6.25954E+06         73.6264
            1611     9.30147E-03     133.454E-03         2.36299         2.26309        -7.40781         2.24464        -7.38936         2.36299    -634.971E-03     510.724E-03    -254.644E-03    -256.080E-03    -246.123E-03     501.958E-03    -255.836E-03     162.624E-03     59.9491E+06    -50.0892E+03    -33.0257E+06    -32.1012E+06    -974.588E+03     59.9491E+06     5.31672E+06         74.8057
            1612     10.0773E-03     133.673E-03         2.32369         2.23317        -7.30041         2.23398        -7.28679         2.30927     377.275E-03     512.728E-03    -255.344E-03    -257.384E-03    -246.822E-03     502.536E-03    -255.714E-03     175.922E-03     61.2380E+06     4.81044E+06    -25.7021E+06    -25.2564E+06     4.36476E+06     61.2380E+06     3.58805E+06         76.0727
            1613     10.8563E-03     133.909E-03         2.25981         2.09973        -7.06548         2.04040        -6.99172         2.24539         1.48126     519.012E-03    -255.672E-03    -263.340E-03    -250.549E-03     506.221E-03    -255.672E-03     197.756E-03     62.4369E+06     9.16457E+06    -19.2729E+06    -18.9338E+06     8.82554E+06     62.4369E+06     2.61241E+06         77.5799
            1614     11.6273E-03     134.217E-03         2.16283         1.96680        -6.80276         1.77015        -6.60612         2.16283         2.49454     522.017E-03    -255.755E-03    -266.262E-03    -253.512E-03     509.267E-03    -255.755E-03     198.054E-03     64.7621E+06     12.7066E+06    -14.6932E+06    -14.4360E+06     12.4494E+06     64.7621E+06     1.87070E+06         79.4446
            1615     12.3938E-03     134.473E-03         2.06056         1.79813        -6.50944         1.59378        -6.30510         2.06056         2.50338     533.108E-03    -255.803E-03    -277.305E-03    -257.601E-03     513.404E-03    -255.803E-03     242.873E-03     69.5939E+06     17.9191E+06    -10.0131E+06    -9.88847E+06     17.7945E+06     69.5939E+06     1.00975E+06         81.6118
            1616     13.1790E-03     134.943E-03         1.95726         1.69732        -6.30525         1.61987        -6.22780         1.95726         1.39415     529.896E-03    -255.710E-03    -274.185E-03    -257.058E-03     512.768E-03    -255.710E-03     216.874E-03     79.8052E+06     23.3960E+06    -4.36856E+06    -4.25920E+06     23.2866E+06     79.8052E+06     80.6768E+03         83.7348
            1617     774.867E-06     134.581E-03         3.55654         2.33124        -8.28780         2.79817        -7.52942         2.33124        -2.13852     510.422E-03    -254.217E-03    -256.205E-03    -255.990E-03     510.421E-03    -254.431E-03    -1.45782E-03    -120.722E+06    -125.888E+06    -271.014E+06    -124.545E+06    -270.979E+06    -122.101E+06     1.43827E+06         64.2102
            1618     1.54951E-03     134.565E-03         3.45880         2.57073        -8.45815         2.56520        -7.56455         2.57073        -6.09763     510.142E-03    -254.846E-03    -255.296E-03    -254.883E-03     510.140E-03    -255.257E-03    -383.823E-06    -109.356E+06    -119.423E+06    -249.913E+06    -119.708E+06    -249.628E+06    -109.356E+06     4.08958E+06         64.5134
            1619     2.32430E-03     134.545E-03         3.33591         2.56637        -8.38732         2.49803        -7.54944         2.56637        -5.89640     509.894E-03    -254.577E-03    -255.318E-03    -254.611E-03     509.890E-03    -255.279E-03     2.28984E-03    -89.8132E+06    -110.078E+06    -216.587E+06    -110.734E+06    -215.931E+06    -89.8132E+06     6.85429E+06         65.0039
            1620     3.10074E-03     134.523E-03         3.10492         2.51381        -8.17176         2.33668        -7.42665         2.53694        -5.36487     509.217E-03    -253.866E-03    -255.350E-03    -253.872E-03     509.183E-03    -255.312E-03     8.85127E-03    -67.5077E+06    -101.834E+06    -175.499E+06    -103.638E+06    -173.696E+06    -67.5077E+06     9.42920E+06         65.6817
            1621     3.87764E-03     134.518E-03         2.53122         2.26826        -7.42586         2.12417        -7.23045         2.47990        -2.52391     508.904E-03    -253.533E-03    -255.371E-03    -253.396E-03     508.767E-03    -255.371E-03     19.4074E-03    -43.9782E+06    -91.1087E+06    -134.056E+06    -97.0617E+06    -128.103E+06    -43.9782E+06     12.1052E+06         66.5380
            1622     4.65147E-03     134.515E-03         2.40276         1.94598        -7.05391         1.91621        -7.02413         2.40276    -698.952E-03     509.017E-03    -253.493E-03    -255.524E-03    -253.122E-03     508.646E-03    -255.524E-03     32.7207E-03    -18.3665E+06    -63.5997E+06    -99.6418E+06    -86.8912E+06    -76.3503E+06    -18.3665E+06     13.5853E+06         67.5528
            1623     5.42493E-03     134.535E-03         2.31596         1.80438        -6.89948         1.76507        -6.86017         2.31596     829.871E-03     508.770E-03    -253.029E-03    -255.741E-03    -252.201E-03     507.942E-03    -255.741E-03     49.3267E-03     4.28293E+06    -37.8326E+06    -80.0238E+06    -75.9356E+06    -41.9208E+06     4.28293E+06     12.2405E+06         68.6942
            1624     6.19755E-03     134.583E-03         2.23027         1.75358        -6.81908         1.70458        -6.77008         2.23027         1.22489     507.912E-03    -252.001E-03    -255.911E-03    -250.398E-03     506.310E-03    -255.911E-03     68.8920E-03     20.5300E+06    -28.4027E+06    -68.8140E+06    -66.1246E+06    -31.0920E+06     20.5300E+06     9.79498E+06         69.9192
            1625     6.97147E-03     134.662E-03         2.15500         1.76194        -6.78131         1.75103        -6.77040         2.15500     442.624E-03     507.154E-03    -251.193E-03    -255.961E-03    -248.265E-03     504.226E-03    -255.961E-03     92.9610E-03     33.6431E+06    -20.9035E+06     -58.745E+06    -56.9420E+06    -22.7065E+06     33.6431E+06     7.96684E+06         71.1758
            1626     7.74834E-03     134.777E-03         2.09356         1.86952        -6.83040         1.84677        -6.80764         2.09356    -582.919E-03     507.743E-03    -251.801E-03    -255.942E-03    -247.075E-03     503.016E-03    -255.942E-03     118.807E-03     45.8339E+06    -14.1209E+06    -49.3526E+06    -47.7746E+06    -15.6989E+06     45.8339E+06     7.25469E+06         72.4126
            1627     8.52694E-03     134.929E-03         2.04168         1.97114        -6.85959         1.92040        -6.80885         2.04168        -1.23420     508.807E-03    -252.918E-03    -255.889E-03    -246.198E-03     502.087E-03    -255.889E-03     142.003E-03     56.6309E+06    -5.68067E+06    -40.1577E+06    -38.6928E+06    -7.14554E+06     56.6309E+06     6.86097E+06         73.6028
            1628     9.30010E-03     135.116E-03         1.98983         1.94826        -6.75192         1.91411        -6.71776         1.98983    -825.738E-03     510.409E-03    -254.154E-03    -256.254E-03    -245.954E-03     501.745E-03    -255.791E-03     161.683E-03     63.4626E+06     3.01137E+06    -30.5988E+06    -29.6857E+06     2.09833E+06     63.4626E+06     5.32050E+06         74.7748
            1629     10.0794E-03     135.337E-03         1.92832         1.81154        -6.51749         1.79398        -6.49993         1.92832     222.869E-03     513.269E-03    -255.343E-03    -257.925E-03    -247.684E-03     503.396E-03    -255.713E-03     173.330E-03     64.9124E+06     7.70128E+06    -23.7110E+06    -22.7992E+06     6.78947E+06     64.9124E+06     4.92892E+06         76.0279
            1630     10.8507E-03     135.579E-03         1.89790         1.68424        -6.32148         1.64339        -6.23443         1.85172         1.50283     518.436E-03    -255.690E-03    -262.746E-03    -250.010E-03     505.700E-03    -255.690E-03     196.861E-03     65.3191E+06     11.0849E+06    -18.6756E+06    -17.7063E+06     10.1156E+06     65.3191E+06     4.99606E+06         77.5172
            1631     11.6252E-03     135.889E-03         1.95021         1.62687        -6.27754         1.56252        -6.03134         1.76835         2.72329     519.770E-03    -255.644E-03    -264.126E-03    -250.848E-03     506.492E-03    -255.644E-03     201.706E-03     66.8983E+06     14.3191E+06    -13.3445E+06    -12.8033E+06     13.7779E+06     66.8983E+06     3.32594E+06         79.3826
            1632     12.4093E-03     136.141E-03         1.96487         1.58202        -6.20583         1.60548        -5.95074         1.68631         2.78055     531.814E-03    -255.546E-03    -276.267E-03    -256.173E-03     511.719E-03    -255.546E-03     245.844E-03     72.0374E+06     20.2318E+06    -8.87407E+06    -8.60777E+06     19.9655E+06     72.0374E+06     1.85305E+06         81.5903
            1633     13.1839E-03     136.604E-03         1.87262         1.55564        -6.04677         1.71610        -5.95082         1.61620         1.56789     531.288E-03    -255.469E-03    -275.819E-03    -258.700E-03     514.169E-03    -255.469E-03     216.882E-03     81.9051E+06     26.3416E+06    -4.56428E+06    -4.48565E+06     26.2630E+06     81.9051E+06     1.21598E+06         83.7725
            1634     776.016E-06     136.246E-03         2.98261         1.25794        -6.64946         2.03194        -5.69879         1.25794        -2.66820     510.096E-03    -254.607E-03    -255.489E-03    -255.487E-03     510.094E-03    -254.607E-03    -2.32108E-03    -120.598E+06    -126.301E+06    -279.525E+06    -125.817E+06    -279.471E+06    -121.135E+06     2.63373E+06         64.2000
            1635     1.55148E-03     136.230E-03         3.06572         1.68362        -7.19550         1.79783        -5.92762         1.68362        -6.58792     510.484E-03    -255.152E-03    -255.332E-03    -255.277E-03     510.481E-03    -255.203E-03    -1.07610E-03    -108.875E+06    -120.718E+06    -255.907E+06    -120.837E+06    -255.788E+06    -108.875E+06     3.08105E+06         64.5044
            1636     2.32669E-03     136.211E-03         3.01040         1.74593        -7.25187         1.88253        -6.12401         1.74593        -6.32014     510.641E-03    -255.165E-03    -255.477E-03    -255.226E-03     510.636E-03    -255.410E-03     2.43652E-03    -93.5376E+06    -114.149E+06    -227.825E+06    -114.531E+06    -227.444E+06    -93.5376E+06     5.48197E+06         64.9942
            1637     3.09872E-03     136.192E-03         2.83458         1.79334        -7.18618         1.91917        -6.27076         1.79334        -5.55506     510.170E-03    -254.552E-03    -255.618E-03    -254.557E-03     510.137E-03    -255.580E-03     9.05333E-03    -70.8716E+06    -104.383E+06    -188.540E+06    -106.314E+06    -186.609E+06    -70.8716E+06     10.5012E+06         65.6685
            1638     3.87334E-03     136.179E-03         2.18255         1.76164        -6.57707         1.89502        -6.34860         1.82070        -2.50400     509.239E-03    -253.566E-03    -255.673E-03    -253.435E-03     509.108E-03    -255.673E-03     19.0248E-03    -43.4404E+06    -91.3151E+06    -141.818E+06    -96.2034E+06    -136.930E+06    -43.4404E+06     13.2686E+06         66.5200
            1639     4.64976E-03     136.187E-03         1.97146         1.67818        -6.35453         1.79907        -6.32855         1.82459    -422.219E-03     508.944E-03    -253.193E-03    -255.751E-03    -252.831E-03     508.582E-03    -255.751E-03     32.3183E-03    -17.4483E+06    -65.7800E+06    -103.397E+06    -85.3362E+06    -83.8404E+06    -17.4483E+06     14.2335E+06         67.5308
            1640     5.42266E-03     136.206E-03         1.84548         1.66176        -6.27420         1.64953        -6.22071         1.80422         1.09067     508.584E-03    -252.706E-03    -255.878E-03    -251.823E-03     507.701E-03    -255.878E-03     50.6265E-03     5.36370E+06    -37.0545E+06    -81.3580E+06    -74.7857E+06    -43.6268E+06     5.36370E+06     15.3896E+06         68.6697
            1641     6.19743E-03     136.253E-03         1.76430         1.58345        -6.15843         1.52469        -6.09966         1.76430         1.23161     507.204E-03    -251.248E-03    -255.956E-03    -249.532E-03     505.487E-03    -255.956E-03     71.3634E-03     23.7229E+06    -22.6823E+06    -68.8752E+06    -64.3091E+06    -27.2484E+06     23.7229E+06     13.6897E+06         69.8938
            1642     6.97492E-03     136.325E-03         1.71146         1.46497        -6.01159         1.44474        -5.99137         1.71146     34.6302E-03     506.539E-03    -250.627E-03    -255.912E-03    -247.541E-03     503.453E-03    -255.912E-03     95.4211E-03     37.1123E+06    -17.0681E+06    -58.0721E+06    -55.2047E+06    -19.9354E+06     37.1123E+06     10.3235E+06         71.1518
            1643     7.75124E-03     136.444E-03         1.65022         1.52725        -6.01488         1.42671        -5.91434         1.65022        -1.36855     507.280E-03    -251.437E-03    -255.843E-03    -246.664E-03     502.507E-03    -255.843E-03     119.563E-03     49.0822E+06    -13.5941E+06    -48.6343E+06    -46.6675E+06    -15.5609E+06     49.0822E+06     7.95155E+06         72.3922
            1644     8.52412E-03     136.595E-03         1.64707         1.58138        -6.05025         1.45031        -5.85614         1.58403        -2.25553     508.729E-03    -252.943E-03    -255.785E-03    -246.326E-03     502.111E-03    -255.785E-03     140.922E-03     59.3500E+06    -4.92266E+06    -39.4348E+06    -38.1223E+06    -6.23515E+06     59.3500E+06     6.49017E+06         73.5843
            1645     9.30311E-03     136.781E-03         1.67223         1.49179        -5.95831         1.51154        -5.82076         1.51493        -1.83240     511.923E-03    -254.856E-03    -257.067E-03    -247.431E-03     503.190E-03    -255.759E-03     162.579E-03     65.0485E+06     4.93949E+06    -31.8323E+06    -30.4272E+06     3.53441E+06     65.0485E+06     6.74257E+06         74.7491
            1646     10.0733E-03     137.008E-03         1.72479         1.39850        -5.87933         1.63921        -5.84522         1.44996    -477.057E-03     513.785E-03    -255.742E-03    -258.043E-03    -247.889E-03     503.631E-03    -255.742E-03     175.828E-03     66.0144E+06     9.56728E+06    -25.7386E+06    -24.2027E+06     8.03132E+06     66.0144E+06     6.62210E+06         75.9833
            1647     10.8513E-03     137.245E-03         1.89861         1.36638        -5.97977         1.80164        -5.91156         1.39513         1.18490     516.194E-03    -255.621E-03    -260.573E-03    -247.421E-03     503.042E-03    -255.621E-03     199.424E-03     66.2414E+06     12.4991E+06    -19.4393E+06    -18.4482E+06     11.5080E+06     66.2414E+06     5.14976E+06         77.4588
            1648     11.6349E-03     137.547E-03         2.18124         1.35432        -6.20615         1.95342        -5.97834         1.35432         2.66631     517.606E-03    -255.419E-03    -262.187E-03    -248.873E-03     504.292E-03    -255.419E-03     201.143E-03     68.3401E+06     15.3836E+06    -14.3207E+06    -13.5488E+06     14.6117E+06     68.3401E+06     4.69389E+06         79.3403
            1649     12.4082E-03     137.805E-03         2.27478         1.32106        -6.21857         2.02886        -5.97264         1.32106         2.81293     530.972E-03    -255.293E-03    -275.679E-03    -256.281E-03     511.575E-03    -255.293E-03     241.435E-03     74.7324E+06     22.6104E+06    -9.60898E+06    -8.94403E+06     21.9455E+06     74.7324E+06     3.91843E+06         81.5960
            1650     13.1847E-03     138.272E-03         2.04348         1.28951        -5.90105         1.94328        -5.80085         1.28951         1.66257     531.835E-03    -255.289E-03    -276.546E-03    -259.869E-03     515.158E-03    -255.289E-03     215.004E-03     84.2135E+06     31.2696E+06    -4.54902E+06    -4.23492E+06     30.9555E+06     84.2135E+06     2.46119E+06         83.8310
            1651     774.586E-06     137.910E-03         2.23170     341.459E-03        -4.96133         1.12450        -3.85413     341.459E-03        -3.35841     511.102E-03    -254.863E-03    -256.239E-03    -256.124E-03     511.100E-03    -254.977E-03    -1.99648E-03    -123.628E+06    -128.023E+06    -287.142E+06    -127.038E+06    -287.076E+06    -124.679E+06     1.35785E+06         64.1845
            1652     1.54886E-03     137.897E-03         2.78140     795.547E-03        -5.99389         1.01972        -4.23221     795.547E-03        -6.91513     510.968E-03    -255.253E-03    -255.714E-03    -255.341E-03     510.965E-03    -255.624E-03    -1.31594E-03    -110.136E+06    -122.323E+06    -264.908E+06    -122.542E+06    -264.689E+06    -110.136E+06     4.95711E+06         64.4852
            1653     2.32286E-03     137.877E-03         2.87510     927.188E-03        -6.25886         1.33329        -4.71705     927.188E-03        -6.78665     510.552E-03    -254.861E-03    -255.691E-03    -254.883E-03     510.545E-03    -255.663E-03     2.67779E-03    -92.6043E+06    -117.146E+06    -237.963E+06    -117.636E+06    -237.473E+06    -92.6043E+06     7.55638E+06         64.9697
            1654     3.10035E-03     137.860E-03         2.68839         1.06581        -6.27477         1.58059        -5.16697         1.06581        -5.66593     510.267E-03    -254.555E-03    -255.712E-03    -254.513E-03     510.225E-03    -255.712E-03     10.2851E-03    -71.4596E+06    -107.532E+06    -198.413E+06    -108.399E+06    -197.546E+06    -71.4596E+06     8.49159E+06         65.6370
            1655     3.87396E-03     137.849E-03         1.92566         1.18034        -5.68886         1.65014        -5.41334         1.18034        -2.48482     509.587E-03    -253.807E-03    -255.780E-03    -253.639E-03     509.419E-03    -255.780E-03     21.5889E-03    -47.2897E+06    -94.0282E+06    -151.041E+06    -97.2096E+06    -147.860E+06    -47.2897E+06     11.3938E+06         66.4798
            1656     4.64716E-03     137.852E-03         1.57448         1.24997        -5.46998         1.54267        -5.43817         1.24997    -200.727E-03     508.142E-03    -252.341E-03    -255.802E-03    -251.898E-03     507.699E-03    -255.802E-03     35.8431E-03    -19.7583E+06    -70.9065E+06    -110.518E+06    -87.1283E+06    -94.2961E+06    -19.7583E+06     15.2459E+06         67.4835
            1657     5.42481E-03     137.874E-03         1.37563         1.26633        -5.33831         1.29356        -5.25802         1.26811         1.27763     507.003E-03    -251.251E-03    -255.752E-03    -250.316E-03     506.068E-03    -255.752E-03     52.3879E-03     4.88715E+06    -39.4969E+06    -84.1445E+06    -76.2060E+06    -47.4355E+06     4.88715E+06     16.3763E+06         68.6216
            1658     6.20103E-03     137.919E-03         1.25359         1.08532        -5.07510         1.02018        -4.99647         1.24009         1.22927     506.665E-03    -250.950E-03    -255.715E-03    -249.254E-03     504.969E-03    -255.715E-03     70.9621E-03     22.7072E+06    -20.0132E+06    -70.0121E+06    -64.7654E+06    -25.2600E+06     22.7072E+06     15.2656E+06         69.8516
            1659     6.97560E-03     137.991E-03         1.18000     864.252E-03        -4.80396     832.974E-03        -4.77268         1.18000    -194.366E-03     506.703E-03    -250.989E-03    -255.714E-03    -247.969E-03     503.682E-03    -255.714E-03     94.4542E-03     37.6039E+06    -13.0729E+06    -59.5905E+06    -55.1446E+06    -17.5188E+06     37.6039E+06     13.6375E+06         71.1175
            1660     7.74989E-03     138.112E-03         1.12134     940.436E-03        -4.82734     790.645E-03        -4.66111         1.10490        -1.77622     506.848E-03    -251.167E-03    -255.681E-03    -246.381E-03     502.062E-03    -255.681E-03     119.552E-03     51.2913E+06    -8.08558E+06    -50.4633E+06    -47.2939E+06    -11.2549E+06     51.2913E+06     11.0388E+06         72.3645
            1661     8.52881E-03     138.259E-03         1.22847         1.03099        -5.01585     930.271E-03        -4.71936         1.03270        -2.65130     508.977E-03    -253.175E-03    -255.802E-03    -246.506E-03     502.137E-03    -255.631E-03     143.258E-03     61.4882E+06    -2.56042E+06    -42.4181E+06    -40.1583E+06    -4.82016E+06     61.4882E+06     9.04324E+06         73.5600
            1662     9.30077E-03     138.451E-03         1.43350     978.738E-03        -5.14502         1.24039        -4.95191     978.738E-03        -2.09805     511.864E-03    -255.248E-03    -256.616E-03    -247.187E-03     502.787E-03    -255.600E-03     165.720E-03     66.0096E+06     4.54509E+06    -35.6936E+06    -33.4686E+06     2.32011E+06     66.0096E+06     8.95856E+06         74.7230
            1663     10.0793E-03     138.677E-03         1.65790     952.505E-03        -5.31244         1.61345        -5.26799     952.505E-03    -534.284E-03     512.247E-03    -255.464E-03    -256.783E-03    -246.362E-03     501.874E-03    -255.513E-03     177.386E-03     67.2237E+06     11.5604E+06    -27.9096E+06    -26.2439E+06     9.89467E+06     67.2237E+06     7.49980E+06         75.9562
            1664     10.8576E-03     138.901E-03         2.00915     949.534E-03        -5.62673         1.92662        -5.54420     949.534E-03         1.29413     516.478E-03    -255.372E-03    -261.106E-03    -247.985E-03     503.357E-03    -255.372E-03     199.443E-03     67.7442E+06     15.1768E+06    -21.2831E+06    -20.2640E+06     14.1578E+06     67.7442E+06     5.76621E+06         77.4382
            1665     11.6310E-03     139.212E-03         2.34430     958.140E-03        -5.94005         2.07796        -5.67371     958.140E-03         2.84108     519.084E-03    -255.279E-03    -263.805E-03    -250.689E-03     505.968E-03    -255.279E-03     200.032E-03     69.7431E+06     17.5639E+06    -16.0788E+06    -15.1474E+06     16.6325E+06     69.7431E+06     5.49641E+06         79.3325
            1666     12.4096E-03     139.471E-03         2.30862     958.252E-03        -5.88769         2.01969        -5.59876     958.252E-03         2.97703     531.319E-03    -255.242E-03    -276.077E-03    -256.793E-03     512.035E-03    -255.242E-03     240.543E-03     75.3696E+06     24.7238E+06    -10.4514E+06    -9.72017E+06     23.9926E+06     75.3696E+06     4.41699E+06         81.6088
            1667     13.1876E-03     139.936E-03         1.99357     944.150E-03        -5.55892         1.87183        -5.43719     944.150E-03         1.78107     531.523E-03    -255.252E-03    -276.271E-03    -259.625E-03     514.877E-03    -255.252E-03     214.478E-03     85.6572E+06     35.3423E+06    -5.04287E+06    -4.72611E+06     35.0255E+06     85.6572E+06     2.67978E+06         83.8713
            1668     774.248E-06     139.578E-03         1.82649    -139.117E-03        -4.04145     501.837E-03        -2.71679    -139.117E-03        -4.16301     510.992E-03    -254.676E-03    -256.315E-03    -255.833E-03     510.991E-03    -255.158E-03    -1.00034E-03    -123.789E+06    -129.896E+06    -295.398E+06    -129.532E+06    -295.248E+06    -124.304E+06     2.93641E+06         64.1371
            1669     1.54952E-03     139.563E-03         2.84436     247.857E-03        -5.45908     501.868E-03        -3.11659     247.857E-03        -7.43022     510.532E-03    -255.006E-03    -255.526E-03    -255.005E-03     510.531E-03    -255.526E-03     1.06538E-03    -112.682E+06    -124.806E+06    -276.913E+06    -124.981E+06    -276.738E+06    -112.682E+06     4.74658E+06         64.4368
            1670     2.32574E-03     139.543E-03         2.98712     387.438E-03        -5.77185     819.777E-03        -3.60450     387.438E-03        -7.50375     510.371E-03    -254.845E-03    -255.527E-03    -254.835E-03     510.361E-03    -255.527E-03     4.86476E-03    -93.8951E+06    -116.110E+06    -246.133E+06    -116.497E+06    -245.746E+06    -93.8951E+06     6.69055E+06         64.9194
            1671     3.09858E-03     139.525E-03         2.52814     527.973E-03        -5.50176         1.04454        -4.01817     527.973E-03        -6.03645     509.884E-03    -254.297E-03    -255.586E-03    -254.249E-03     509.835E-03    -255.586E-03     11.4491E-03    -72.3859E+06    -108.008E+06    -208.126E+06    -109.123E+06    -207.011E+06    -72.3859E+06     9.71198E+06         65.5824
            1672     3.87483E-03     139.517E-03         1.52528     641.678E-03        -4.66854         1.10986        -4.25313     641.678E-03        -2.60332     508.670E-03    -253.079E-03    -255.591E-03    -252.914E-03     508.505E-03    -255.591E-03     21.5278E-03    -50.0228E+06    -98.3974E+06    -163.942E+06    -101.545E+06    -160.795E+06    -50.0228E+06     12.7728E+06         66.4191
            1673     4.65210E-03     139.517E-03         1.05901     710.986E-03        -4.32196     998.526E-03        -4.26148     710.986E-03     172.349E-03     507.365E-03    -251.843E-03    -255.522E-03    -251.402E-03     506.924E-03    -255.522E-03     35.6142E-03    -24.7257E+06    -76.7494E+06    -117.727E+06    -90.3799E+06    -104.096E+06    -24.7257E+06     14.8739E+06         67.4186
            1674     5.42608E-03     139.540E-03     992.339E-03     730.662E-03        -4.32136     772.477E-03        -4.10150     730.662E-03         1.87762     506.375E-03    -250.931E-03    -255.444E-03    -250.003E-03     505.447E-03    -255.444E-03     52.2521E-03     441.906E+03    -43.1500E+06    -87.5192E+06    -79.1509E+06    -51.5183E+06     441.906E+03     16.2128E+06         68.5584
            1675     6.20133E-03     139.585E-03     887.517E-03     622.070E-03        -4.14200     552.211E-03        -3.89421     709.584E-03         1.94878     506.154E-03    -250.744E-03    -255.409E-03    -248.975E-03     504.385E-03    -255.409E-03     72.1603E-03     19.1252E+06    -21.4820E+06    -74.8886E+06    -69.4956E+06    -26.8750E+06     19.1252E+06     16.0568E+06         69.7970
            1676     6.97578E-03     139.662E-03     702.265E-03     469.398E-03        -3.82769     426.151E-03        -3.74690     664.720E-03     480.568E-03     506.132E-03    -250.729E-03    -255.403E-03    -247.600E-03     503.003E-03    -255.403E-03     96.2378E-03     34.5710E+06    -12.4376E+06    -64.1382E+06    -58.9701E+06    -17.6056E+06     34.5710E+06     15.4819E+06         71.0758
            1677     7.75410E-03     139.771E-03     715.354E-03     508.661E-03        -3.89336     490.062E-03        -3.77588     616.469E-03        -1.18905     506.746E-03    -251.361E-03    -255.385E-03    -246.453E-03     501.838E-03    -255.385E-03     121.007E-03     50.5221E+06    -3.04971E+06    -54.4238E+06    -49.3577E+06    -8.11582E+06     50.5221E+06     15.2083E+06         72.3356
            1678     8.52922E-03     139.927E-03     971.857E-03     583.425E-03        -4.22312     730.256E-03        -3.98152     583.425E-03        -2.17556     508.768E-03    -253.232E-03    -255.536E-03    -246.417E-03     501.781E-03    -255.365E-03     144.812E-03     62.9069E+06     1.83025E+06    -45.6667E+06    -41.4131E+06    -2.42343E+06     62.9069E+06     13.4360E+06         73.5403
            1679     9.30672E-03     140.121E-03         1.22609     574.638E-03        -4.45781         1.06199        -4.29371     574.638E-03        -1.77567     510.212E-03    -254.723E-03    -255.489E-03    -245.891E-03     501.199E-03    -255.307E-03     164.882E-03     68.9984E+06     6.36313E+06    -36.6208E+06    -33.9614E+06     3.70372E+06     68.9984E+06     10.1973E+06         74.7113
            1680     10.0832E-03     140.335E-03         1.40974     588.269E-03        -4.64136         1.37224        -4.60386     588.269E-03    -275.781E-03     512.095E-03    -255.162E-03    -256.933E-03    -246.723E-03     501.934E-03    -255.211E-03     175.603E-03     69.5643E+06     13.2908E+06    -29.0155E+06    -27.1605E+06     11.4358E+06     69.5643E+06     8.64167E+06         75.9518
            1681     10.8589E-03     140.571E-03         1.65992     610.391E-03        -4.90475         1.53864        -4.78346     610.391E-03         1.52460     518.185E-03    -255.190E-03    -262.995E-03    -250.153E-03     505.343E-03    -255.190E-03     197.820E-03     69.3502E+06     18.6330E+06    -23.2548E+06    -21.4574E+06     16.8356E+06     69.3502E+06     8.40189E+06         77.4326
            1682     11.6344E-03     140.881E-03         1.90957     626.950E-03        -5.17280         1.54500        -4.80823     626.950E-03         3.04842     519.595E-03    -255.230E-03    -264.365E-03    -251.514E-03     506.744E-03    -255.230E-03     198.213E-03     71.9946E+06     22.5190E+06    -17.6914E+06    -16.4638E+06     21.2913E+06     71.9946E+06     6.57313E+06         79.3192
            1683     12.4096E-03     141.130E-03         1.90667     627.339E-03        -5.19293         1.51652        -4.80277     627.339E-03         3.18015     531.769E-03    -255.243E-03    -276.526E-03    -257.178E-03     512.421E-03    -255.243E-03     240.778E-03     77.2153E+06     27.8365E+06    -12.4628E+06    -11.9668E+06     27.3406E+06     77.2153E+06     3.86890E+06         81.5975
            1684     13.1828E-03     141.606E-03         1.79020     622.029E-03        -5.11661         1.62727        -4.95368     622.029E-03         1.91730     531.343E-03    -255.242E-03    -276.101E-03    -259.251E-03     514.493E-03    -255.242E-03     215.975E-03     87.1073E+06     38.7124E+06    -6.67852E+06    -6.55058E+06     38.5845E+06     87.1073E+06     1.53474E+06         83.8775
            1685     776.137E-06     141.243E-03         1.79160    -254.443E-03        -3.84786     148.558E-03        -2.20482    -254.443E-03        -4.95088     509.235E-03    -253.982E-03    -255.253E-03    -254.145E-03     509.235E-03    -255.090E-03    -462.772E-06    -124.914E+06    -133.071E+06    -308.371E+06    -130.755E+06    -308.195E+06    -127.406E+06     4.40721E+06         64.0546
            1686     1.55155E-03     141.226E-03         3.04350    -10.3523E-03        -5.35346     153.462E-03        -2.46342    -10.3523E-03        -7.96058     509.815E-03    -254.668E-03    -255.147E-03    -254.997E-03     509.814E-03    -254.817E-03     967.588E-06    -114.164E+06    -125.763E+06    -285.433E+06    -126.046E+06    -285.150E+06    -114.164E+06     6.13804E+06         64.3572
            1687     2.32551E-03     141.210E-03         3.17004     71.5503E-03        -5.57639     303.575E-03        -2.70993     71.5503E-03        -8.17999     510.023E-03    -254.777E-03    -255.246E-03    -254.933E-03     510.013E-03    -255.080E-03     5.01010E-03    -97.0476E+06    -119.192E+06    -255.920E+06    -119.744E+06    -255.368E+06    -97.0476E+06     8.10664E+06         64.8417
            1688     3.10141E-03     141.193E-03         2.36760     147.481E-03        -4.88296     424.297E-03        -2.93965     147.481E-03        -6.31492     509.469E-03    -254.202E-03    -255.267E-03    -254.152E-03     509.419E-03    -255.267E-03     11.6693E-03    -75.4862E+06    -111.341E+06    -222.271E+06    -112.676E+06    -220.936E+06    -75.4862E+06     11.4403E+06         65.5059
            1689     3.87572E-03     141.180E-03         1.05063     209.914E-03        -3.66869     470.613E-03        -3.08867     209.914E-03        -2.60820     508.247E-03    -252.935E-03    -255.312E-03    -252.773E-03     508.085E-03    -255.312E-03     21.4329E-03    -52.1698E+06    -99.5578E+06    -175.113E+06    -103.187E+06    -171.483E+06    -52.1698E+06     14.6438E+06         66.3438
            1690     4.65019E-03     141.183E-03     599.090E-03     253.068E-03        -3.30644     470.353E-03        -3.17770     253.068E-03     537.128E-03     506.522E-03    -251.292E-03    -255.231E-03    -250.863E-03     506.094E-03    -255.231E-03     35.0463E-03    -27.9964E+06    -81.0324E+06    -125.780E+06    -94.3834E+06    -112.429E+06    -27.9964E+06     16.5995E+06         67.3456
            1691     5.42781E-03     141.204E-03     826.987E-03     275.708E-03        -3.59669     416.487E-03        -3.18619     275.708E-03         2.46518     505.105E-03    -250.019E-03    -255.087E-03    -249.052E-03     504.139E-03    -255.087E-03     53.0548E-03    -3.08574E+06    -47.9470E+06    -95.0961E+06    -84.9799E+06    -58.0632E+06    -3.08574E+06     17.6230E+06         68.4921
            1692     6.20449E-03     141.250E-03     810.930E-03     281.052E-03        -3.61604     376.852E-03        -3.18196     281.052E-03         2.58390     504.760E-03    -249.793E-03    -254.967E-03    -247.949E-03     502.916E-03    -254.967E-03     73.6985E-03     16.8313E+06    -22.2467E+06    -79.8171E+06    -74.0982E+06    -27.9655E+06     16.8313E+06     17.2001E+06         69.7454
            1693     6.98297E-03     141.325E-03     572.441E-03     263.772E-03        -3.38433     421.756E-03        -3.24922     279.347E-03     950.801E-03     505.698E-03    -250.751E-03    -254.947E-03    -247.617E-03     502.564E-03    -254.947E-03     96.4355E-03     32.1382E+06    -14.4551E+06    -69.1425E+06    -64.0077E+06    -19.5899E+06     32.1382E+06     15.9284E+06         71.0451
            1694     7.75680E-03     141.438E-03     686.493E-03     265.888E-03        -3.51724     560.295E-03        -3.40662     281.464E-03        -1.02238     507.454E-03    -252.425E-03    -255.029E-03    -247.547E-03     502.577E-03    -255.029E-03     120.748E-03      47.732E+06    -5.30628E+06    -59.3068E+06    -54.0985E+06    -10.5146E+06      47.732E+06     15.8490E+06         72.3235
            1695     8.53189E-03     141.594E-03         1.03909     293.115E-03        -3.90866     750.642E-03        -3.62022     293.115E-03        -2.27502     508.548E-03    -253.436E-03    -255.112E-03    -246.581E-03     501.693E-03    -255.112E-03     143.498E-03     62.0172E+06     5.61842E+06    -49.0968E+06    -44.4887E+06     1.01036E+06     62.0172E+06     15.0128E+06         73.5396
            1696     9.30811E-03     141.781E-03         1.16916     313.202E-03        -4.06649     926.393E-03        -3.82372     313.202E-03        -2.07869     510.246E-03    -254.359E-03    -255.887E-03    -246.482E-03     501.614E-03    -255.132E-03     161.476E-03     69.9116E+06     11.6492E+06    -39.5058E+06    -36.3794E+06     8.52283E+06     69.9116E+06     12.2022E+06         74.7120
            1697     10.0853E-03     142.002E-03         1.09382     335.390E-03        -4.02187         1.02626        -3.95430     335.390E-03    -590.891E-03     512.940E-03    -255.149E-03    -257.791E-03    -247.993E-03     503.142E-03    -255.149E-03     172.648E-03     70.1381E+06     14.8713E+06    -32.1526E+06    -29.7940E+06     12.5127E+06     70.1381E+06     10.2536E+06         75.9380
            1698     10.8577E-03     142.242E-03         1.17175     350.495E-03        -4.13047         1.03962        -3.99834     350.495E-03         1.33767     517.509E-03    -255.183E-03    -262.326E-03    -249.686E-03     504.869E-03    -255.183E-03     196.051E-03     70.5070E+06     20.5699E+06    -25.6028E+06    -23.6187E+06     18.5857E+06     70.5070E+06     9.24925E+06         77.3921
            1699     11.6324E-03     142.543E-03         1.50875     358.991E-03        -4.50355         1.08554        -4.08034     358.991E-03         3.02713     518.904E-03    -255.193E-03    -263.711E-03    -250.894E-03     506.087E-03    -255.193E-03     197.866E-03     74.4074E+06     28.2180E+06    -18.6986E+06    -17.3445E+06     26.8639E+06     74.4074E+06     7.51091E+06         79.2598
            1700     12.4089E-03     142.799E-03         1.73866     368.924E-03        -4.77669         1.27731        -4.31534     368.924E-03         3.30163     531.474E-03    -255.164E-03    -276.310E-03    -256.530E-03     511.694E-03    -255.164E-03     243.079E-03     81.5952E+06     35.6712E+06    -11.4371E+06    -10.8664E+06     35.1006E+06     81.5952E+06     4.50238E+06         81.5467
            1701     13.1886E-03     143.269E-03         1.75997     391.843E-03        -4.85382         1.56911        -4.66296     391.843E-03         2.00914     530.346E-03    -255.093E-03    -275.254E-03    -257.913E-03     513.006E-03    -255.093E-03     219.076E-03     91.4020E+06     42.7274E+06    -5.78744E+06    -5.65840E+06     42.5984E+06     91.4020E+06     1.59545E+06         83.8603
            1702     776.302E-06     142.904E-03         1.71816     40.4879E-03        -4.03054    -80.6073E-03        -2.23177     40.4879E-03        -5.26780     508.845E-03    -253.709E-03    -255.137E-03    -254.384E-03     508.845E-03    -254.461E-03    -704.418E-06    -130.745E+06    -136.870E+06    -320.657E+06    -134.452E+06    -320.584E+06    -133.237E+06     2.13791E+06         63.9514
            1703     1.55148E-03     142.891E-03         2.91216    -33.8598E-03        -5.16070    -85.1956E-03        -2.16334    -33.8598E-03        -7.79669     509.265E-03    -254.354E-03    -254.911E-03    -254.682E-03     509.263E-03    -254.581E-03     471.264E-06    -121.561E+06    -130.748E+06    -297.602E+06    -131.083E+06    -297.266E+06    -121.561E+06     6.51338E+06         64.2526
            1704     2.32681E-03     142.875E-03         3.08212    -55.1404E-03        -5.31060    -103.465E-03        -2.12501    -55.1404E-03        -8.13811     508.880E-03    -253.960E-03    -254.920E-03    -254.117E-03     508.870E-03    -254.753E-03     4.76089E-03    -101.647E+06    -124.306E+06    -268.866E+06    -125.106E+06    -268.066E+06    -101.647E+06     10.4415E+06         64.7374
            1705     3.10156E-03     142.856E-03         2.10881    -68.9720E-03        -4.33987    -119.256E-03        -2.11180    -68.9720E-03        -6.08329     507.831E-03    -253.048E-03    -254.783E-03    -252.992E-03     507.775E-03    -254.783E-03     12.0720E-03    -78.6384E+06    -114.948E+06    -235.956E+06    -116.506E+06    -234.398E+06    -78.6384E+06     13.2528E+06         65.4072
            1706     3.87739E-03     142.847E-03     627.673E-03    -109.105E-03        -2.84407    -114.797E-03        -2.13248    -78.2236E-03        -2.41072     506.672E-03    -251.964E-03    -254.708E-03    -251.762E-03     506.470E-03    -254.708E-03     23.6965E-03    -55.0352E+06    -103.146E+06    -187.794E+06    -107.274E+06    -183.666E+06    -55.0352E+06     16.5113E+06         66.2591
            1707     4.65399E-03     142.845E-03     202.384E-03    -111.140E-03        -2.44729    -51.9444E-03        -2.22384    -80.2587E-03     743.490E-03     505.796E-03    -251.162E-03    -254.634E-03    -250.665E-03     505.299E-03    -254.634E-03     38.0216E-03    -29.1246E+06    -83.7253E+06    -137.211E+06    -97.5188E+06    -123.418E+06    -29.1246E+06     20.2399E+06         67.2814
            1708     5.43083E-03     142.865E-03     640.015E-03    -71.8158E-03        -2.95568     71.2445E-03        -2.38691    -71.8158E-03         2.56927     505.264E-03    -250.660E-03    -254.603E-03    -249.673E-03     504.276E-03    -254.603E-03     53.9258E-03    -3.49580E+06    -47.9852E+06    -102.788E+06    -87.4346E+06    -63.3390E+06    -3.49580E+06     21.2735E+06         68.4486
            1709     6.20870E-03     142.912E-03     738.524E-03    -51.7365E-03        -3.10281     246.899E-03        -2.61118    -51.7365E-03         2.48025     505.031E-03    -250.406E-03    -254.626E-03    -248.702E-03     503.328E-03    -254.626E-03     71.0838E-03     15.9092E+06    -20.9415E+06    -84.7467E+06    -77.7516E+06    -27.9366E+06     15.9092E+06     19.8980E+06         69.7188
            1710     6.98279E-03     142.989E-03     579.214E-03    -21.6160E-03        -2.99782     436.092E-03        -2.85470    -21.6160E-03     648.114E-03     505.876E-03    -251.154E-03    -254.723E-03    -248.167E-03     502.890E-03    -254.723E-03     93.8748E-03     30.8155E+06    -14.4021E+06    -75.3018E+06    -69.2422E+06    -20.4616E+06     30.8155E+06     18.2049E+06         71.0319
            1711     7.75808E-03     143.108E-03     800.359E-03     14.4571E-03        -3.27796     607.658E-03        -3.08525     14.4571E-03        -1.50081     507.532E-03    -252.650E-03    -254.882E-03    -247.962E-03     502.844E-03    -254.882E-03     118.541E-03     45.1782E+06    -7.04312E+06    -65.4742E+06    -60.9325E+06    -11.5849E+06     45.1782E+06     15.4892E+06         72.3194
            1712     8.53309E-03     143.257E-03         1.17386     51.9003E-03        -3.71202     732.325E-03        -3.27049     51.9003E-03        -2.78291     509.058E-03    -253.991E-03    -255.067E-03    -247.494E-03     502.545E-03    -255.051E-03     139.965E-03     59.3052E+06     5.22678E+06    -54.5741E+06    -51.1128E+06     1.76552E+06     59.3052E+06     13.8986E+06         73.5349
            1713     9.30819E-03     143.448E-03         1.14179     85.1788E-03        -3.73981     781.703E-03        -3.37973     85.1788E-03        -2.48133     511.132E-03    -254.934E-03    -256.198E-03    -247.447E-03     502.619E-03    -255.172E-03     160.419E-03     69.1099E+06     15.7805E+06    -43.9452E+06    -40.9505E+06     12.7858E+06     69.1099E+06     12.9821E+06         74.6904
            1714     10.0785E-03     143.672E-03     888.498E-03     111.289E-03        -3.54214     789.210E-03        -3.44285     111.289E-03    -799.308E-03     512.574E-03    -255.213E-03    -257.361E-03    -247.444E-03     502.656E-03    -255.213E-03     173.568E-03     70.7370E+06     17.9254E+06    -35.0213E+06    -32.5795E+06     15.4836E+06     70.7370E+06     11.0706E+06         75.8858
            1715     10.8576E-03     143.902E-03         1.02969     134.349E-03        -3.73854     881.905E-03        -3.59076     134.349E-03         1.32177     516.048E-03    -255.159E-03    -260.888E-03    -248.010E-03     503.170E-03    -255.159E-03     197.428E-03     72.3036E+06     23.3031E+06    -26.0743E+06    -24.4381E+06     21.6669E+06     72.3036E+06     8.63479E+06         77.3092
            1716     11.6364E-03     144.212E-03         1.55852     165.270E-03        -4.32962         1.10510        -3.87621     165.270E-03         3.10676     517.511E-03    -255.042E-03    -262.470E-03    -249.266E-03     504.307E-03    -255.042E-03     200.527E-03     76.7519E+06     31.8675E+06    -17.1360E+06    -16.2406E+06     30.9721E+06     76.7519E+06     6.21871E+06         79.1659
            1717     12.4129E-03     144.460E-03         1.84869     210.142E-03        -4.69484         1.37951        -4.22566     210.142E-03         3.32543     530.399E-03    -254.913E-03    -275.486E-03    -255.423E-03     510.336E-03    -254.913E-03     244.953E-03     82.9253E+06     40.7119E+06    -11.1301E+06    -10.5657E+06     40.1475E+06     82.9253E+06     4.59268E+06         81.4771
            1718     13.1913E-03     144.929E-03         1.82359     268.307E-03        -4.75115         1.63932        -4.56688     268.307E-03         1.96800     529.506E-03    -254.807E-03    -274.698E-03    -257.317E-03     512.124E-03    -254.807E-03     218.908E-03     94.2467E+06     48.5188E+06    -5.61936E+06    -5.42176E+06     48.3212E+06     94.2467E+06     2.43294E+06         83.8388
            1719     774.844E-06     144.566E-03         1.57301     415.893E-03        -4.24665    -127.574E-03        -2.54606     415.893E-03        -5.27202     508.596E-03    -253.800E-03    -254.796E-03    -254.567E-03     508.595E-03    -254.028E-03    -6.70616E-06    -136.087E+06    -143.079E+06    -330.476E+06    -141.092E+06    -330.400E+06    -138.150E+06     3.14851E+06         63.8235
            1720     1.55066E-03     144.555E-03         2.61765     101.927E-03        -4.96394    -62.3661E-03        -2.28393     101.927E-03        -7.21893     507.804E-03    -253.532E-03    -254.272E-03    -253.528E-03     507.801E-03    -254.272E-03     2.20031E-03    -125.730E+06    -136.437E+06    -310.283E+06    -136.637E+06    -310.084E+06    -125.730E+06     5.25985E+06         64.1264
            1721     2.32720E-03     144.536E-03         2.76317     5.78974E-03        -5.00768    -316.144E-03        -1.92836     5.78974E-03        -7.59951     506.816E-03    -252.708E-03    -254.108E-03    -252.691E-03     506.800E-03    -254.108E-03     6.21984E-03    -107.618E+06    -129.346E+06    -284.370E+06    -129.950E+06    -283.766E+06    -107.618E+06     9.01687E+06         64.6204
            1722     3.10457E-03     144.519E-03         1.72006    -97.8716E-03        -3.86201    -490.286E-03        -1.65166    -97.8716E-03        -5.45411     505.838E-03    -251.878E-03    -253.960E-03    -251.815E-03     505.775E-03    -253.960E-03     13.1405E-03    -85.4120E+06    -120.045E+06    -248.496E+06    -121.506E+06    -247.035E+06    -85.4120E+06     12.9900E+06         65.3085
            1723     3.88309E-03     144.504E-03     329.426E-03    -339.140E-03        -2.23953    -550.128E-03        -1.51525    -183.869E-03        -1.93839     505.442E-03    -251.554E-03    -253.888E-03    -251.365E-03     505.253E-03    -253.888E-03     23.0131E-03    -60.5253E+06    -107.767E+06    -201.259E+06    -111.069E+06    -197.957E+06    -60.5253E+06     16.2625E+06         66.1846
            1724     4.66052E-03     144.508E-03     44.2846E-03    -395.619E-03        -1.91210    -475.938E-03        -1.54715    -240.348E-03         1.08086     506.056E-03    -252.075E-03    -253.981E-03    -251.626E-03     505.607E-03    -253.981E-03     36.0308E-03    -34.4336E+06    -88.0453E+06    -150.232E+06    -99.2555E+06    -139.021E+06    -34.4336E+06     20.7226E+06         67.2321
            1725     5.43398E-03     144.530E-03     557.491E-03    -262.792E-03        -2.57407    -286.429E-03        -1.73015    -262.792E-03         2.74811     506.657E-03    -252.423E-03    -254.234E-03    -251.489E-03     505.723E-03    -254.234E-03     52.3592E-03    -6.25249E+06    -49.7261E+06    -109.943E+06    -88.1158E+06    -71.5530E+06    -6.25249E+06     25.0475E+06         68.4189
            1726     6.20536E-03     144.579E-03     651.330E-03    -252.470E-03        -2.69712    -14.5610E-03        -2.03123    -252.470E-03         2.55391     506.328E-03    -251.811E-03    -254.517E-03    -250.124E-03     504.641E-03    -254.517E-03     70.8083E-03     15.9815E+06    -18.6612E+06    -90.5871E+06    -79.2132E+06    -30.0351E+06     15.9815E+06     25.9316E+06         69.6983
            1727     6.98203E-03     144.652E-03     446.504E-03    -216.638E-03        -2.55152     252.365E-03        -2.35738    -216.638E-03     744.465E-03     506.464E-03    -251.725E-03    -254.739E-03    -248.706E-03     503.445E-03    -254.739E-03     94.4004E-03     31.6985E+06    -8.23602E+06    -79.2994E+06    -70.4354E+06    -17.1000E+06     31.6985E+06     23.2437E+06         71.0107
            1728     7.75746E-03     144.775E-03     617.856E-03    -167.454E-03        -2.80047     440.473E-03        -2.62309    -167.454E-03        -1.30069     507.590E-03    -252.662E-03    -254.928E-03    -247.982E-03     502.910E-03    -254.928E-03     118.530E-03     48.0422E+06     385.037E+03    -66.1912E+06    -60.6257E+06    -5.18043E+06     48.0422E+06     18.2066E+06         72.2909
            1729     8.53063E-03     144.926E-03     920.823E-03    -116.839E-03        -3.18936     524.626E-03        -2.79316    -116.839E-03        -2.41626     508.928E-03    -253.827E-03    -255.101E-03    -247.236E-03     502.321E-03    -255.085E-03     140.772E-03     62.0901E+06     6.97732E+06    -54.1067E+06    -50.7308E+06     3.60143E+06     62.0901E+06     13.8840E+06         73.4925
            1730     9.30396E-03     145.115E-03     858.513E-03    -71.1263E-03        -3.21222     563.872E-03        -2.91758    -71.1263E-03        -1.99482     510.148E-03    -254.741E-03    -255.406E-03    -246.135E-03     501.260E-03    -255.125E-03     163.598E-03     71.0881E+06     15.2063E+06    -44.2152E+06    -41.1024E+06     12.0935E+06     71.0881E+06     13.1049E+06         74.6297
            1731     10.0859E-03     145.335E-03     765.609E-03    -26.4005E-03        -3.20495     682.153E-03        -3.12150    -26.4005E-03    -292.405E-03     511.565E-03    -255.002E-03    -256.563E-03    -246.118E-03     501.158E-03    -255.040E-03     177.558E-03     74.8817E+06     23.2244E+06    -34.2622E+06    -31.6743E+06     20.6364E+06     74.8817E+06     11.6240E+06         75.8088
            1732     10.8600E-03     145.568E-03         1.08701     25.2223E-03        -3.61518     880.917E-03        -3.40908     25.2223E-03         1.71549     515.726E-03    -254.908E-03    -260.818E-03    -247.624E-03     502.532E-03    -254.908E-03     199.927E-03     75.1582E+06     29.0856E+06    -25.2854E+06    -24.0945E+06     27.8947E+06     75.1582E+06     7.53676E+06         77.2217
            1733     11.6379E-03     145.868E-03         1.61343     86.8480E-03        -4.23773         1.11550        -3.73980     86.8480E-03         3.24866     516.841E-03    -254.770E-03    -262.070E-03    -248.811E-03     503.581E-03    -254.770E-03     200.757E-03     77.0314E+06     34.2080E+06    -18.8922E+06    -18.3263E+06     33.6421E+06     77.0314E+06     5.18107E+06         79.0773
            1734     12.4190E-03     146.125E-03         1.84133     158.612E-03        -4.56897         1.36806        -4.09570     158.612E-03         3.29955     529.377E-03    -254.640E-03    -274.737E-03    -254.891E-03     509.531E-03    -254.640E-03     243.519E-03     84.0947E+06     42.9337E+06    -12.8505E+06    -12.4124E+06     42.4956E+06     84.0947E+06     3.94662E+06         81.4059
            1735     13.1957E-03     146.593E-03         1.78538     238.649E-03        -4.63232         1.60376        -4.45070     238.649E-03         1.91411     528.170E-03    -254.521E-03    -273.650E-03    -256.463E-03     510.984E-03    -254.521E-03     217.653E-03     95.9111E+06     52.9573E+06    -5.32579E+06    -5.12160E+06     52.7531E+06     95.9111E+06     2.23311E+06         83.8009
            1736     776.833E-06     146.226E-03         1.61684     453.546E-03        -4.29081    -330.056E-03        -2.34391     453.546E-03        -5.50500     506.045E-03    -252.539E-03    -253.505E-03    -253.251E-03     506.043E-03    -252.792E-03     838.735E-06    -143.703E+06    -151.080E+06    -338.385E+06    -148.906E+06    -338.299E+06    -145.963E+06     1.48900E+06         63.6788
            1737     1.55416E-03     146.214E-03         2.47477     34.4875E-03        -4.71038    -86.1706E-03        -2.14943     34.4875E-03        -6.84882     505.353E-03    -252.328E-03    -253.025E-03    -252.324E-03     505.349E-03    -253.025E-03     3.09354E-03    -131.286E+06    -142.338E+06    -320.574E+06    -142.289E+06    -320.426E+06    -131.483E+06     4.20600E+06         63.9951
            1738     2.33135E-03     146.194E-03         2.71031    -35.3531E-03        -4.85649    -287.790E-03        -1.85839    -35.3531E-03        -7.40035     505.165E-03    -251.997E-03    -253.168E-03    -252.171E-03     505.149E-03    -252.978E-03     6.51704E-03    -113.134E+06    -134.543E+06    -296.359E+06    -134.850E+06    -296.053E+06    -113.134E+06     6.73241E+06         64.5110
            1739     3.10890E-03     146.175E-03         1.64145    -117.112E-03        -3.69568    -444.918E-03        -1.60931    -117.112E-03        -5.20223     505.990E-03    -252.241E-03    -253.749E-03    -252.799E-03     505.937E-03    -253.138E-03     12.2291E-03    -92.4708E+06    -124.318E+06    -260.712E+06    -125.157E+06    -259.873E+06    -92.4708E+06     10.0172E+06         65.2245
            1740     3.88344E-03     146.166E-03     320.960E-03    -317.309E-03        -2.16688    -497.992E-03        -1.47661    -188.632E-03        -1.81166     507.013E-03    -252.906E-03    -254.107E-03    -253.348E-03     506.859E-03    -253.511E-03     20.9157E-03    -68.5607E+06    -112.680E+06    -214.654E+06    -115.098E+06    -212.236E+06    -68.5607E+06     14.4923E+06         66.1202
            1741     4.65686E-03     146.171E-03     108.917E-03    -362.168E-03        -1.90485    -406.775E-03        -1.51783    -233.491E-03         1.22084     506.620E-03    -252.546E-03    -254.074E-03    -252.326E-03     506.224E-03    -253.899E-03     33.8012E-03    -42.6248E+06    -97.3156E+06    -163.144E+06    -104.906E+06    -155.554E+06    -42.6248E+06     18.5902E+06         67.1755
            1742     5.43253E-03     146.197E-03     683.291E-03    -245.512E-03        -2.59631    -238.006E-03        -1.67501    -245.512E-03         2.92920     505.630E-03    -251.480E-03    -254.150E-03    -250.563E-03     504.713E-03    -254.150E-03     51.6214E-03    -14.2083E+06    -62.5922E+06    -120.171E+06    -93.2642E+06    -89.4990E+06    -14.2083E+06     24.3166E+06         68.3635
            1743     6.20992E-03     146.245E-03     749.460E-03    -228.651E-03        -2.68283    -37.0084E-03        -1.89637    -228.651E-03         2.83460     506.065E-03    -251.707E-03    -254.359E-03    -249.935E-03     504.293E-03    -254.359E-03     72.4523E-03     11.3547E+06    -23.5285E+06    -96.0539E+06    -81.4086E+06    -38.1737E+06     11.3547E+06     28.8100E+06         69.6428
            1744     6.98241E-03     146.320E-03     391.887E-03    -191.150E-03        -2.37654     133.070E-03        -2.11772    -191.150E-03         1.25843     506.899E-03    -252.295E-03    -254.604E-03    -249.127E-03     503.731E-03    -254.604E-03     96.8746E-03     32.3215E+06    -358.943E+03    -80.3316E+06    -69.6243E+06    -11.0663E+06     32.3215E+06     26.9673E+06         70.9511
            1745     7.75609E-03     146.442E-03     315.842E-03    -144.584E-03        -2.37518     216.956E-03        -2.27629    -144.584E-03    -586.785E-03     506.716E-03    -251.941E-03    -254.775E-03    -246.954E-03     501.730E-03    -254.775E-03     122.022E-03     51.1089E+06     11.2394E+06    -66.3063E+06    -59.5446E+06     4.47768E+06     51.1089E+06     21.7568E+06         72.2231
            1746     8.53317E-03     146.593E-03     492.249E-03    -97.5731E-03        -2.63762     261.817E-03        -2.40719    -97.5731E-03        -1.62297     507.305E-03    -252.495E-03    -254.810E-03    -245.456E-03     500.265E-03    -254.810E-03     145.088E-03     65.5078E+06     12.8927E+06    -55.6393E+06    -51.0652E+06     8.31858E+06     65.5078E+06     17.0396E+06         73.4191
            1747     9.31305E-03     146.778E-03     524.925E-03    -49.6556E-03        -2.76371     362.156E-03        -2.60094    -49.6556E-03        -1.30738     509.281E-03    -254.019E-03    -255.262E-03    -245.388E-03     500.145E-03    -254.757E-03     165.842E-03     74.9972E+06     16.6319E+06    -45.6820E+06    -42.3783E+06     13.3282E+06     74.9972E+06     13.3280E+06         74.5562
            1748     10.0868E-03     146.997E-03     578.188E-03     2.98134E-03        -2.91336     517.073E-03        -2.85224     2.98134E-03     131.936E-03     510.804E-03    -254.606E-03    -256.197E-03    -245.676E-03     500.321E-03    -254.645E-03     178.074E-03     79.0866E+06     27.6140E+06    -35.5921E+06    -33.5514E+06     25.5734E+06     79.0866E+06     10.4854E+06         75.7358
            1749     10.8670E-03     147.234E-03     941.433E-03     62.2913E-03        -3.37657     708.960E-03        -3.14410     62.2913E-03         1.84892     515.845E-03    -254.538E-03    -261.307E-03    -248.099E-03     502.636E-03    -254.538E-03     200.181E-03     78.8602E+06     34.4719E+06    -27.7071E+06    -26.4876E+06     33.2524E+06     78.8602E+06     8.35184E+06         77.1444
            1750     11.6431E-03     147.531E-03         1.45770     129.774E-03        -3.99607     967.018E-03        -3.50539     129.774E-03         3.11558     517.859E-03    -254.497E-03    -263.363E-03    -250.261E-03     504.758E-03    -254.497E-03     199.771E-03     81.0108E+06     40.3903E+06    -20.5929E+06    -19.8549E+06     39.6524E+06     81.0108E+06     5.11531E+06         78.9899
            1751     12.4170E-03     147.785E-03         1.70991     209.468E-03        -4.35540         1.25813        -3.90362     209.468E-03         3.13586     528.099E-03    -254.409E-03    -273.691E-03    -253.806E-03     508.215E-03    -254.409E-03     242.736E-03     87.3768E+06     47.9616E+06    -12.5249E+06    -12.1927E+06     47.6293E+06     87.3768E+06     2.61290E+06         81.3173
            1752     13.1984E-03     148.249E-03         1.68382     299.178E-03        -4.43436         1.51008        -4.26062     299.178E-03         1.80783     525.168E-03    -254.177E-03    -270.991E-03    -253.489E-03     507.666E-03    -254.177E-03     219.267E-03     96.0900E+06     54.2947E+06    -6.39420E+06    -6.26069E+06     54.1612E+06     96.0900E+06     1.49111E+06         83.7372
            1753     778.134E-06     147.883E-03         1.77557     290.257E-03        -4.23388    -820.628E-03        -1.63768     290.257E-03        -5.87325     503.962E-03    -251.346E-03    -252.615E-03    -252.576E-03     503.961E-03    -251.385E-03    -833.505E-06    -145.514E+06    -153.966E+06    -344.808E+06    -151.327E+06    -344.695E+06    -148.266E+06     2.02866E+06         63.5525
            1754     1.55584E-03     147.867E-03         2.32825    -260.111E-03        -4.21898    -253.664E-03        -1.63707    -260.111E-03        -6.38088     504.321E-03    -251.953E-03    -252.367E-03    -252.182E-03     504.319E-03    -252.137E-03     200.688E-06    -136.858E+06    -147.854E+06    -327.067E+06    -147.727E+06    -326.997E+06    -137.054E+06     2.22713E+06         63.8789
            1755     2.33386E-03     147.850E-03         2.75123    -252.619E-03        -4.61618    -232.963E-03        -1.63199    -252.619E-03        -7.22587     505.232E-03    -252.299E-03    -252.932E-03    -252.780E-03     505.224E-03    -252.444E-03     3.69552E-03    -119.098E+06    -139.830E+06    -304.227E+06    -140.007E+06    -304.050E+06    -119.098E+06     4.59342E+06         64.4047
            1756     3.10835E-03     147.836E-03         1.73123    -239.317E-03        -3.57799    -172.758E-03        -1.67401    -239.317E-03        -5.07275     506.142E-03    -252.580E-03    -253.561E-03    -253.212E-03     506.084E-03    -252.872E-03     11.7314E-03    -98.9694E+06    -131.410E+06    -272.260E+06    -131.901E+06    -271.769E+06    -98.9694E+06     7.77684E+06         65.1249
            1757     3.88243E-03     147.831E-03     609.866E-03    -219.343E-03        -2.44515    -62.1405E-03        -1.77743    -215.056E-03        -2.05957     506.410E-03    -252.510E-03    -253.899E-03    -252.893E-03     506.196E-03    -253.303E-03     24.2942E-03    -75.6876E+06    -120.153E+06    -226.728E+06    -121.624E+06    -225.257E+06    -75.6876E+06     11.2359E+06         66.0255
            1758     4.65683E-03     147.836E-03     293.363E-03    -182.634E-03        -2.14154     74.2234E-03        -1.92669    -178.347E-03     880.476E-03     505.998E-03    -252.172E-03    -253.826E-03    -251.826E-03     505.477E-03    -253.651E-03     38.7988E-03    -50.4633E+06    -105.542E+06    -176.847E+06    -110.473E+06    -171.915E+06    -50.4633E+06     16.1731E+06         67.0863
            1759     5.43357E-03     147.855E-03     798.303E-03    -131.039E-03        -2.67419     213.884E-03        -2.08977    -131.039E-03         2.50420     505.448E-03    -251.550E-03    -253.899E-03    -250.517E-03     504.416E-03    -253.899E-03     55.1178E-03    -23.5441E+06    -77.6890E+06    -133.213E+06    -99.4183E+06    -111.483E+06    -23.5441E+06     22.6298E+06         68.2774
            1760     6.20951E-03     147.909E-03     868.637E-03    -77.5959E-03        -2.78572     311.866E-03        -2.22895    -77.5959E-03         2.53369     505.209E-03    -251.130E-03    -254.079E-03    -249.284E-03     503.363E-03    -254.079E-03     73.9171E-03     2.42264E+06    -33.8458E+06    -103.192E+06    -87.8775E+06    -49.1599E+06     2.42264E+06     27.1394E+06         69.5556
            1761     6.98526E-03     147.990E-03     506.399E-03    -26.0484E-03        -2.47637     314.429E-03        -2.28440    -26.0484E-03         1.10435     504.838E-03    -250.634E-03    -254.205E-03    -247.404E-03     501.609E-03    -254.205E-03     97.6074E-03     24.7585E+06     914.207E+03    -85.3930E+06    -76.2184E+06    -8.26037E+06     24.7585E+06     26.2150E+06         70.8635
            1762     7.76239E-03     148.103E-03     386.204E-03     19.0460E-03        -2.41868     291.539E-03        -2.32401     19.0460E-03    -606.485E-03     504.948E-03    -250.682E-03    -254.267E-03    -245.596E-03     499.863E-03    -254.267E-03     122.977E-03     47.2036E+06     15.8348E+06    -71.7228E+06    -64.7576E+06     8.86962E+06     47.2036E+06     23.5732E+06         72.1409
            1763     8.54092E-03     148.254E-03     528.331E-03     60.1612E-03        -2.63572     296.908E-03        -2.40430     60.1612E-03        -1.63229     506.509E-03    -252.225E-03    -254.284E-03    -245.194E-03     499.479E-03    -254.284E-03     145.040E-03     66.5500E+06     20.7283E+06    -60.1294E+06    -54.6325E+06     15.2314E+06     66.5500E+06     20.1790E+06         73.3468
            1764     9.31492E-03     148.442E-03     521.636E-03     100.413E-03        -2.71176     329.216E-03        -2.51934     100.413E-03        -1.44686     509.002E-03    -253.825E-03    -255.178E-03    -245.701E-03     499.994E-03    -254.293E-03     164.660E-03     79.1897E+06     25.5542E+06    -48.0910E+06    -44.9368E+06     22.4000E+06     79.1897E+06     14.3765E+06         74.4893
            1765     10.0935E-03     148.661E-03     493.579E-03     142.333E-03        -2.77387     425.102E-03        -2.70539     142.333E-03    -180.542E-03     511.111E-03    -254.287E-03    -256.824E-03    -246.562E-03     500.848E-03    -254.287E-03     176.330E-03     83.3781E+06     31.2822E+06    -37.5536E+06    -36.0847E+06     29.8133E+06     83.3781E+06     9.65512E+06         75.6587
            1766     10.8695E-03     148.890E-03     798.305E-03     192.578E-03        -3.16998     634.788E-03        -3.00646     192.578E-03         1.41875     515.296E-03    -254.247E-03    -261.048E-03    -247.964E-03     502.211E-03    -254.247E-03     198.928E-03     84.0282E+06     38.1245E+06    -27.5509E+06    -26.5737E+06     37.1473E+06     84.0282E+06     7.33035E+06         77.0385
            1767     11.6441E-03     149.206E-03         1.30178     256.524E-03        -3.76895     935.105E-03        -3.40227     256.524E-03         2.60099     515.752E-03    -254.148E-03    -261.604E-03    -248.250E-03     502.398E-03    -254.148E-03     201.249E-03     86.0960E+06     45.9741E+06    -18.2652E+06    -17.4398E+06     45.1487E+06     86.0960E+06     5.27370E+06         78.8585
            1768     12.4228E-03     149.439E-03         1.59146     337.029E-03        -4.14757         1.24174        -3.79785     337.029E-03         2.69771     526.545E-03    -253.936E-03    -272.609E-03    -252.029E-03     505.965E-03    -253.936E-03     246.510E-03     90.0395E+06     51.9908E+06    -11.2082E+06    -10.7389E+06     51.5216E+06     90.0395E+06     3.43684E+06         81.1982
            1769     13.2072E-03     149.902E-03         1.56870     426.452E-03        -4.18928         1.42862        -4.04920     426.452E-03         1.58601     524.025E-03    -253.622E-03    -270.404E-03    -252.338E-03     505.960E-03    -253.622E-03     222.362E-03     98.2872E+06     58.5992E+06    -5.20662E+06    -5.03209E+06     58.4247E+06     98.2872E+06     2.21384E+06         83.6689
            1770     777.467E-06     149.536E-03         1.83733     476.027E-03        -4.44481    -832.278E-03        -1.77521     476.027E-03        -5.96935     504.061E-03    -251.455E-03    -252.606E-03    -252.605E-03     504.060E-03    -251.455E-03    -1.35609E-03    -153.861E+06    -161.814E+06    -350.192E+06    -158.862E+06    -350.047E+06    -156.959E+06     1.12396E+06         63.4254
            1771     1.55486E-03     149.521E-03         1.91586    -182.824E-03        -3.83339    -189.118E-03        -1.72841    -182.824E-03        -5.38815     504.583E-03    -252.044E-03    -252.539E-03    -252.367E-03     504.581E-03    -252.214E-03     529.323E-06    -142.582E+06    -153.827E+06    -330.178E+06    -153.347E+06    -330.115E+06    -143.126E+06     1.71084E+06         63.7513
            1772     2.32971E-03     149.509E-03         2.40393    -190.732E-03        -4.26311    -208.590E-03        -1.65059    -190.732E-03        -6.49137     504.674E-03    -251.916E-03    -252.759E-03    -252.194E-03     504.654E-03    -252.461E-03     5.80929E-03    -125.120E+06    -147.147E+06    -309.391E+06    -147.252E+06    -309.286E+06    -125.120E+06     2.57198E+06         64.2732
            1773     3.10754E-03     149.494E-03         1.45131    -188.398E-03        -3.25273    -128.179E-03        -1.67324    -188.398E-03        -4.42967     504.147E-03    -251.452E-03    -252.695E-03    -251.447E-03     504.064E-03    -252.617E-03     14.6318E-03    -103.955E+06    -137.372E+06    -277.943E+06    -137.530E+06    -277.786E+06    -103.955E+06     2.71785E+06         64.9890
            1774     3.88664E-03     149.490E-03     627.881E-03    -164.205E-03        -2.39451     9.81919E-03        -1.77645    -164.205E-03        -1.96145     503.594E-03    -250.896E-03    -252.698E-03    -250.656E-03     503.354E-03    -252.698E-03     26.1394E-03    -83.0176E+06    -125.704E+06    -238.286E+06    -126.181E+06    -237.809E+06    -83.0176E+06     5.40888E+06         65.8921
            1775     4.66554E-03     149.495E-03     314.381E-03    -118.272E-03        -2.07132     220.362E-03        -1.97730    -118.272E-03     594.168E-03     504.393E-03    -251.523E-03    -252.870E-03    -250.954E-03     503.824E-03    -252.870E-03     40.6160E-03    -58.3602E+06    -111.350E+06    -191.407E+06    -113.990E+06    -188.767E+06    -58.3602E+06     11.6539E+06         66.9652
            1776     5.43836E-03     149.523E-03     721.233E-03    -55.4605E-03        -2.49614     419.436E-03        -2.19434    -55.4605E-03         1.85173     505.623E-03    -252.414E-03    -253.209E-03    -251.255E-03     504.464E-03    -253.209E-03     58.4423E-03    -31.2509E+06    -88.2867E+06    -144.736E+06    -100.370E+06    -132.653E+06    -31.2509E+06     18.8383E+06         68.1724
            1777     6.21108E-03     149.572E-03     850.376E-03     14.2962E-03        -2.66353     573.688E-03        -2.38684     14.2962E-03         1.77403     504.868E-03    -251.352E-03    -253.516E-03    -249.345E-03     502.862E-03    -253.516E-03     77.1973E-03    -3.96325E+06    -41.6156E+06    -107.664E+06    -87.0208E+06    -62.2592E+06    -3.96325E+06     25.0494E+06         69.4639
            1778     6.98900E-03     149.649E-03     752.544E-03     84.3649E-03        -2.62259     680.166E-03        -2.55021     84.3649E-03     422.178E-03     503.706E-03    -250.032E-03    -253.674E-03    -246.801E-03     500.474E-03    -253.674E-03     97.8062E-03     21.8471E+06     1.02714E+06    -85.7682E+06    -76.4335E+06    -8.30748E+06     21.8471E+06     26.5113E+06         70.7843
            1779     7.76736E-03     149.763E-03     843.180E-03     150.438E-03        -2.78493     711.296E-03        -2.65305     150.438E-03        -1.14536     504.473E-03    -250.703E-03    -253.770E-03    -245.802E-03     499.572E-03    -253.770E-03     120.740E-03     44.4263E+06     17.4041E+06    -73.4796E+06    -66.4220E+06     10.3464E+06     44.4263E+06     24.0728E+06         72.0744
            1780     8.54162E-03     149.919E-03     954.959E-03     208.689E-03        -2.97880     665.611E-03        -2.68945     208.689E-03        -2.04330     506.409E-03    -252.539E-03    -253.871E-03    -245.670E-03     499.541E-03    -253.871E-03     143.334E-03     66.0669E+06     27.3088E+06    -59.7718E+06    -54.8200E+06     22.3569E+06     66.0669E+06     19.9244E+06         73.2858
            1781     9.32005E-03     150.104E-03     848.644E-03     259.275E-03        -2.96437     617.222E-03        -2.73295     259.275E-03        -1.77082     508.847E-03    -253.772E-03    -255.076E-03    -246.030E-03     500.004E-03    -253.974E-03     163.185E-03     83.1162E+06     34.6118E+06    -46.9821E+06    -43.9977E+06     31.6274E+06     83.1162E+06     15.1744E+06         74.4157
            1782     10.0950E-03     150.324E-03     734.922E-03     308.453E-03        -2.94637     664.436E-03        -2.87589     308.453E-03    -540.622E-03     510.361E-03    -254.008E-03    -256.353E-03    -246.152E-03     500.167E-03    -254.015E-03     175.559E-03     90.1463E+06     38.5181E+06    -35.1855E+06    -33.5005E+06     36.8331E+06     90.1463E+06     10.7678E+06         75.5493
            1783     10.8685E-03     150.560E-03     893.589E-03     364.725E-03        -3.20769     804.075E-03        -3.11817     364.725E-03         1.00382     512.741E-03    -253.883E-03    -258.857E-03    -245.440E-03     499.331E-03    -253.890E-03     200.544E-03     89.8938E+06     42.5532E+06    -25.0497E+06    -24.2356E+06     41.7391E+06     89.8938E+06     6.92369E+06         76.8834
            1784     11.6531E-03     150.851E-03         1.22920     430.153E-03        -3.64476     993.000E-03        -3.40856     430.153E-03         2.07635     512.242E-03    -253.594E-03    -258.649E-03    -244.882E-03     498.475E-03    -253.594E-03     203.395E-03     88.5967E+06     47.0069E+06    -18.4301E+06    -17.7731E+06     46.3499E+06     88.5967E+06     5.36325E+06         78.6791
            1785     12.4377E-03     151.103E-03         1.40868     504.270E-03        -3.91591         1.17051        -3.67774     504.270E-03         2.17415     524.028E-03    -253.244E-03    -270.784E-03    -250.359E-03     503.604E-03    -253.244E-03     245.566E-03     90.7989E+06     53.9726E+06    -12.8866E+06    -12.2862E+06     53.3722E+06     90.7989E+06     4.83919E+06         81.0356
            1786     13.2167E-03     151.554E-03         1.37847     580.132E-03        -3.95921         1.28100        -3.86173     580.132E-03         1.25559     522.889E-03    -252.933E-03    -269.956E-03    -252.225E-03     505.158E-03    -252.933E-03     220.140E-03     100.074E+06     65.1447E+06    -6.46802E+06    -6.15349E+06     64.8301E+06     100.074E+06     2.73470E+06         83.5474
            1787     777.677E-06     151.188E-03         1.91449         1.23221        -5.26825    -281.355E-03        -3.13978         1.29958        -5.74083     502.079E-03    -250.747E-03    -251.333E-03    -251.155E-03     502.074E-03    -250.919E-03     2.06753E-03    -165.761E+06    -170.950E+06    -344.163E+06    -168.728E+06    -344.083E+06    -168.062E+06    -3.33624E+06         63.2240
            1788     1.55431E-03     151.180E-03         1.66501     372.438E-03        -4.10207     187.073E-03        -2.69151     439.811E-03        -4.28703     502.405E-03    -251.031E-03    -251.374E-03    -251.190E-03     502.390E-03    -251.201E-03     5.57702E-03    -156.311E+06    -164.654E+06    -330.113E+06    -164.421E+06    -329.803E+06    -156.855E+06    -3.36306E+06         63.5592
            1789     2.33441E-03     151.161E-03         1.84703     301.233E-03        -4.13395    -116.962E-03        -2.16996     301.233E-03        -5.58936     502.440E-03    -250.866E-03    -251.574E-03    -250.985E-03     502.397E-03    -251.411E-03     10.7181E-03    -136.122E+06    -155.140E+06    -308.135E+06    -155.517E+06    -307.759E+06    -136.122E+06    -3.90280E+06         64.0964
            1790     3.11217E-03     151.151E-03     940.471E-03     166.313E-03        -3.00305    -326.853E-03        -1.73573     166.313E-03        -3.67192     502.712E-03    -250.757E-03    -251.956E-03    -250.975E-03     502.604E-03    -251.630E-03     17.6967E-03    -112.867E+06    -143.646E+06    -278.165E+06    -143.802E+06    -278.009E+06    -112.867E+06    -3.60074E+06         64.8314
            1791     3.88873E-03     151.142E-03     443.699E-03    -90.2769E-03        -2.15521    -325.207E-03        -1.54137     64.7872E-03        -1.73763     503.194E-03    -250.903E-03    -252.292E-03    -251.033E-03     502.943E-03    -251.911E-03     26.8422E-03    -90.6812E+06    -132.249E+06    -245.338E+06    -132.507E+06    -245.081E+06    -90.6812E+06    -1.87561E+06         65.7512
            1792     4.66448E-03     151.154E-03     141.496E-03    -181.480E-03        -1.67848    -118.816E-03        -1.61543     15.7818E-03     453.119E-03     503.366E-03    -250.973E-03    -252.394E-03    -250.594E-03     502.812E-03    -252.219E-03     40.1115E-03    -67.1194E+06    -117.203E+06    -203.071E+06    -117.940E+06    -202.333E+06    -67.1194E+06     1.28602E+06         66.8347
            1793     5.44295E-03     151.185E-03     497.084E-03    -20.0854E-03        -2.12588     235.445E-03        -1.90644     22.1121E-03         1.43020     503.254E-03    -250.754E-03    -252.500E-03    -249.636E-03     502.136E-03    -252.500E-03     57.2003E-03    -41.6316E+06    -99.4766E+06    -154.444E+06    -102.386E+06    -151.535E+06    -41.6316E+06     6.82423E+06         68.0536
            1794     6.22027E-03     151.236E-03     840.269E-03     77.1094E-03        -2.51736     662.339E-03        -2.33943     77.1094E-03         1.33321     503.455E-03    -250.705E-03    -252.750E-03    -248.729E-03     501.478E-03    -252.750E-03     76.4551E-03    -12.7225E+06    -61.9373E+06    -110.690E+06    -87.0229E+06    -85.6047E+06    -12.7225E+06     16.3822E+06         69.3663
            1795     6.99369E-03     151.311E-03         1.03087     165.550E-03        -2.76806         1.00356        -2.74076     165.550E-03     198.893E-03     504.451E-03    -251.349E-03    -253.102E-03    -248.100E-03     501.102E-03    -253.002E-03     99.4754E-03     16.6423E+06    -8.40600E+06    -84.2757E+06    -73.4642E+06    -18.3031E+06     15.7278E+06     25.9193E+06         70.7112
            1796     7.76681E-03     151.428E-03         1.25312     266.295E-03        -3.08588         1.15916        -2.99191     266.295E-03        -1.01350     505.573E-03    -252.090E-03    -253.483E-03    -247.235E-03     500.526E-03    -253.291E-03     122.820E-03     42.9626E+06     22.4409E+06    -71.0438E+06    -62.8653E+06     15.1770E+06     42.0481E+06     26.3124E+06         72.0145
            1797     8.54568E-03     151.577E-03         1.32056     362.868E-03        -3.26991         1.14774        -3.09709     362.868E-03        -1.60935     506.698E-03    -252.872E-03    -253.826E-03    -246.208E-03     499.750E-03    -253.543E-03     144.209E-03     67.4181E+06     34.6642E+06    -58.1372E+06    -53.0231E+06     29.5501E+06     67.4181E+06     20.8946E+06         73.2193
            1798     9.32013E-03     151.770E-03         1.17064     448.391E-03        -3.24339         1.05319        -3.12595     448.391E-03        -1.23945     508.031E-03    -253.444E-03    -254.587E-03    -245.340E-03     499.014E-03    -253.673E-03     164.566E-03     86.0077E+06     42.3702E+06    -47.2457E+06    -43.9128E+06     39.0372E+06     86.0077E+06     16.8127E+06         74.3233
            1799     10.0957E-03     151.988E-03     979.475E-03     521.021E-03        -3.18025     936.595E-03        -3.13737     521.021E-03    -199.801E-03     507.677E-03    -253.334E-03    -254.343E-03    -243.626E-03     497.247E-03    -253.621E-03     176.975E-03     95.0806E+06     47.8356E+06    -37.7679E+06    -35.7156E+06     45.7833E+06     95.0806E+06     12.6984E+06         75.4181
            1800     10.8821E-03     152.209E-03     942.363E-03     583.296E-03        -3.26799     855.909E-03        -3.18154     583.296E-03         1.05735     509.946E-03    -253.224E-03    -256.722E-03    -243.281E-03     496.651E-03    -253.369E-03     199.301E-03     94.5770E+06     48.3505E+06    -29.2675E+06    -28.1494E+06     47.2324E+06     94.5770E+06     9.20431E+06         76.7070
            1801     11.6614E-03     152.509E-03         1.04203     638.308E-03        -3.48319     854.426E-03        -3.29559     638.308E-03         1.79699     510.813E-03    -253.042E-03    -257.771E-03    -244.451E-03     497.492E-03    -253.042E-03     199.764E-03     91.6964E+06     49.4888E+06    -22.6428E+06    -21.8275E+06     48.6735E+06     91.6964E+06     6.91739E+06         78.4534
            1802     12.4393E-03     152.749E-03         1.11517     692.542E-03        -3.66552     945.760E-03        -3.49611     692.542E-03         1.73677     520.765E-03    -252.676E-03    -268.089E-03    -248.052E-03     500.728E-03    -252.676E-03     241.889E-03     93.9279E+06     59.1604E+06    -16.0986E+06    -15.3448E+06     58.4066E+06     93.9279E+06     3.06355E+06         80.7630
            1803     13.2254E-03     153.209E-03         1.18592     749.724E-03        -3.84625         1.12496        -3.78528     749.724E-03     910.193E-03     516.968E-03    -250.302E-03    -266.665E-03    -246.937E-03     499.134E-03    -252.197E-03     220.670E-03     102.218E+06     68.7053E+06    -7.27315E+06    -6.76376E+06     68.1959E+06     102.218E+06     835.328E+03         83.2545
            1804     780.917E-06     152.838E-03         2.04095         1.76024        -5.88528     214.130E-03        -4.23779         1.93956        -5.11323     497.553E-03    -248.365E-03    -249.188E-03    -248.945E-03     497.548E-03    -248.602E-03     2.84990E-03    -165.547E+06    -171.491E+06    -330.582E+06    -169.814E+06    -330.501E+06    -167.306E+06    -2.99169E+06         62.9357
            1805     1.56204E-03     152.826E-03         1.61946     849.654E-03        -4.49426     552.063E-03        -3.54783     970.616E-03        -3.33226     498.321E-03    -248.950E-03    -249.371E-03    -249.289E-03     498.304E-03    -249.016E-03     6.19889E-03    -158.178E+06    -167.061E+06    -318.829E+06    -167.424E+06    -318.466E+06    -158.178E+06    -6.72242E+06         63.2934
            1806     2.33881E-03     152.813E-03         1.44265     686.484E-03        -4.05939     40.6766E-03        -2.71741     746.479E-03        -4.65034     499.817E-03    -249.485E-03    -250.332E-03    -250.279E-03     499.764E-03    -249.485E-03     12.0274E-03    -142.019E+06    -159.227E+06    -299.946E+06    -160.011E+06    -299.162E+06    -142.019E+06    -9.72009E+06         63.8649
            1807     3.11620E-03     152.802E-03     672.451E-03     452.201E-03        -2.94143    -309.841E-03        -2.03059     523.650E-03        -3.04330     501.551E-03    -250.125E-03    -251.427E-03    -251.281E-03     501.405E-03    -250.125E-03     20.3280E-03    -122.315E+06    -149.867E+06    -274.650E+06    -151.042E+06    -273.474E+06    -122.315E+06    -10.8656E+06         64.6382
            1808     3.89251E-03     152.801E-03     448.422E-03     26.1304E-03        -2.17276    -382.330E-03        -1.66283     346.952E-03        -1.57388     503.035E-03    -250.831E-03    -252.204E-03    -251.868E-03     502.699E-03    -250.831E-03     31.1407E-03    -100.001E+06    -138.255E+06    -243.801E+06    -139.739E+06    -242.318E+06    -100.001E+06    -11.1035E+06         65.5912
            1809     4.66796E-03     152.812E-03     251.147E-03    -106.462E-03        -1.73534    -131.316E-03        -1.70444     245.102E-03     250.433E-03     503.070E-03    -250.895E-03    -252.175E-03    -250.975E-03     502.411E-03    -251.436E-03     43.9799E-03    -78.9427E+06    -126.067E+06    -209.212E+06    -127.906E+06    -207.373E+06    -78.9427E+06    -10.6222E+06         66.6984
            1810     5.44358E-03     152.839E-03     549.722E-03     187.500E-03        -2.23670     373.654E-03        -2.10283     229.697E-03         1.07952     502.173E-03    -250.203E-03    -251.970E-03    -249.165E-03     500.995E-03    -251.829E-03     58.8572E-03    -56.0138E+06    -112.426E+06    -165.263E+06    -114.362E+06    -163.326E+06    -56.0138E+06    -7.35001E+06         67.9349
            1811     6.22103E-03     152.894E-03         1.04120     289.943E-03        -2.76113     921.253E-03        -2.64117     289.943E-03         1.14911     502.141E-03    -250.053E-03    -252.089E-03    -248.089E-03     500.178E-03    -252.089E-03     76.1838E-03    -30.4310E+06    -90.2229E+06    -120.751E+06    -98.5172E+06    -112.457E+06    -30.4310E+06     241.316E+03         69.2648
            1812     6.99960E-03     152.973E-03         1.34712     398.373E-03        -3.13472         1.32842        -3.11602     398.373E-03     430.110E-03     503.811E-03    -251.363E-03    -252.448E-03    -248.117E-03     500.466E-03    -252.348E-03     99.3212E-03    -3.16450E+06    -39.4659E+06    -89.6884E+06    -81.4121E+06    -46.8278E+06    -4.07898E+06     12.6338E+06         70.6253
            1813     7.77615E-03     153.094E-03         1.53104     524.679E-03        -3.43276         1.50901        -3.41073     524.679E-03    -314.294E-03     505.455E-03    -252.577E-03    -252.878E-03    -247.736E-03     500.422E-03    -252.686E-03     122.743E-03     29.2190E+06     11.9070E+06    -72.1623E+06    -65.7684E+06     9.60828E+06     25.1237E+06     22.4861E+06         71.9338
            1814     8.54706E-03     153.241E-03         1.48519     644.035E-03        -3.52257         1.45327        -3.49066     644.035E-03    -662.606E-03     505.931E-03    -252.654E-03    -253.278E-03    -245.821E-03     498.816E-03    -252.995E-03     145.610E-03     58.1452E+06     38.2706E+06    -60.6774E+06    -54.6568E+06     35.4308E+06     54.9645E+06     23.8200E+06         73.1269
            1815     9.32481E-03     153.431E-03         1.21398     739.498E-03        -3.39370         1.19799        -3.37771     739.498E-03    -345.503E-03     506.040E-03    -252.709E-03    -253.331E-03    -243.635E-03     496.749E-03    -253.114E-03     166.705E-03     81.3154E+06     50.3861E+06    -50.3667E+06    -45.9671E+06     45.9864E+06     81.3154E+06     20.4376E+06         74.2061
            1816     10.1082E-03     153.641E-03     993.317E-03     713.638E-03        -3.21694     879.902E-03        -3.19285     802.960E-03     330.854E-03     506.737E-03    -252.791E-03    -253.945E-03    -243.320E-03     496.391E-03    -253.071E-03     176.161E-03     99.4741E+06     56.2545E+06    -40.3200E+06    -37.2869E+06     53.2214E+06     99.4741E+06     16.4202E+06         75.2620
            1817     10.8819E-03     153.866E-03     937.943E-03     653.428E-03        -3.18261     666.897E-03        -3.09879     840.660E-03         1.08859     509.685E-03    -252.782E-03    -256.903E-03    -243.958E-03     496.879E-03    -252.921E-03     195.732E-03     102.939E+06     57.1144E+06    -30.7343E+06    -28.8366E+06     55.2167E+06     102.939E+06     12.3288E+06         76.4745
            1818     11.6629E-03     154.158E-03     930.387E-03     729.069E-03        -3.33654     662.868E-03        -3.20676     866.805E-03         1.41497     507.721E-03    -251.253E-03    -256.468E-03    -241.955E-03     494.564E-03    -252.609E-03     198.128E-03     101.748E+06     57.7742E+06    -20.1953E+06    -19.2012E+06     56.7801E+06     101.748E+06     7.85666E+06         78.0985
            1819     12.4468E-03     154.405E-03         1.01213     860.864E-03        -3.63413     877.175E-03        -3.53899     900.690E-03         1.22156     514.780E-03    -250.631E-03    -264.149E-03    -241.606E-03     493.593E-03    -251.986E-03     246.080E-03     104.323E+06     67.3951E+06    -10.9991E+06    -9.76455E+06     66.1605E+06     104.323E+06     4.72461E+06         80.2837
            1820     13.2358E-03     154.836E-03         1.16965     948.749E-03        -3.95548         1.14010        -3.92593     948.749E-03     540.142E-03     508.610E-03    -246.124E-03    -262.486E-03    -238.230E-03     489.278E-03    -251.049E-03     228.500E-03     108.372E+06     72.9786E+06    -5.58743E+06    -4.60746E+06     71.9986E+06     108.372E+06     2.85618E+06         82.7104
            1821     780.738E-06     154.475E-03         2.00405         1.57630        -5.60394     344.553E-03        -4.37220         2.00405        -3.91532     493.782E-03    -246.008E-03    -247.774E-03    -247.704E-03     493.778E-03    -246.073E-03     2.64226E-03    -162.061E+06    -168.278E+06    -317.411E+06    -166.525E+06    -317.288E+06    -163.936E+06    -3.86289E+06         62.5941
            1822     1.56153E-03     154.468E-03         1.40175     985.739E-03        -4.35256     757.164E-03        -3.81443         1.09218        -2.12559     494.966E-03    -247.131E-03    -247.834E-03    -247.749E-03     494.946E-03    -247.197E-03     6.46632E-03    -152.850E+06    -161.828E+06    -302.853E+06    -162.287E+06    -302.393E+06    -152.850E+06    -7.07991E+06         62.9705
            1823     2.34344E-03     154.459E-03         1.22801     768.876E-03        -3.87693     377.070E-03        -3.17556     918.451E-03        -3.25057     496.854E-03    -247.797E-03    -249.057E-03    -248.998E-03     496.794E-03    -247.797E-03     12.7589E-03    -137.523E+06    -155.058E+06    -283.829E+06    -156.287E+06    -282.601E+06    -137.523E+06    -11.6689E+06         63.5671
            1824     3.12209E-03     154.453E-03     750.564E-03     549.473E-03        -3.05583     126.646E-03        -2.63300     750.564E-03        -2.10094     498.624E-03    -248.526E-03    -250.098E-03    -249.919E-03     498.445E-03    -248.526E-03     22.3514E-03    -120.158E+06    -145.924E+06    -263.405E+06    -148.047E+06    -261.282E+06    -120.158E+06    -15.5249E+06         64.3711
            1825     3.89878E-03     154.457E-03     628.004E-03     420.411E-03        -2.67400     168.132E-03        -2.42172     628.004E-03        -1.18780     500.138E-03    -249.261E-03    -250.877E-03    -250.451E-03     499.712E-03    -249.261E-03     35.1022E-03    -102.340E+06    -135.778E+06    -238.419E+06    -138.830E+06    -235.367E+06    -102.340E+06    -17.1918E+06         65.3631
            1826     4.67495E-03     154.469E-03     654.720E-03     422.875E-03        -2.57909     493.834E-03        -2.57428     578.951E-03     17.0215E-03     501.789E-03    -249.995E-03    -251.794E-03    -250.980E-03     500.976E-03    -249.995E-03     48.9161E-03    -83.2271E+06    -125.438E+06    -206.682E+06    -129.750E+06    -202.370E+06    -83.2271E+06    -17.8678E+06         66.5175
            1827     5.45080E-03     154.498E-03         1.00711     606.275E-03        -3.00580     966.904E-03        -2.96559     606.275E-03     566.058E-03     502.898E-03    -250.429E-03    -252.469E-03    -250.821E-03     501.519E-03    -250.698E-03     63.9627E-03    -64.4149E+06    -113.751E+06    -172.280E+06    -119.417E+06    -166.614E+06    -64.4149E+06    -16.9121E+06         67.7978
            1828     6.22614E-03     154.550E-03         1.44707     691.998E-03        -3.45053         1.40431        -3.40777     691.998E-03     717.751E-03     503.382E-03    -250.571E-03    -252.812E-03    -249.901E-03     501.206E-03    -251.305E-03     80.4943E-03    -44.6126E+06    -100.074E+06    -134.574E+06    -107.814E+06    -126.834E+06    -44.6126E+06    -13.2739E+06         69.1531
            1829     7.00066E-03     154.633E-03         1.67288     808.034E-03        -3.74090         1.66406        -3.73207     808.034E-03     323.313E-03     503.854E-03    -251.285E-03    -252.570E-03    -248.605E-03     500.388E-03    -251.783E-03     101.345E-03    -22.3393E+06    -68.4035E+06    -102.157E+06    -94.3747E+06    -76.1857E+06    -22.3393E+06    -5.45247E+06         70.5167
            1830     7.77456E-03     154.757E-03         1.65961     923.548E-03        -3.82533         1.65322        -3.81894     923.548E-03    -104.945E-03     503.831E-03    -251.644E-03    -252.187E-03    -246.676E-03     498.782E-03    -252.105E-03     122.720E-03     3.91615E+06    -16.1702E+06    -81.6113E+06    -78.8759E+06    -15.7248E+06     735.358E+03     6.58293E+06         71.8126
            1831     8.55491E-03     154.902E-03         1.43346     968.329E-03        -3.66337         1.38389        -3.65776         1.01228    -319.019E-03     504.002E-03    -251.620E-03    -252.382E-03    -244.745E-03     497.057E-03    -252.313E-03     143.656E-03     32.6346E+06     25.3457E+06    -67.2456E+06    -63.7711E+06     27.2607E+06     27.2451E+06     16.2352E+06         72.9795
            1832     9.33446E-03     155.085E-03         1.18269     888.379E-03        -3.38488         1.00584        -3.38237         1.06272    -104.368E-03     504.917E-03    -252.195E-03    -252.722E-03    -243.580E-03     496.040E-03    -252.460E-03     162.796E-03     62.9757E+06     48.8205E+06    -53.5486E+06    -49.9956E+06     47.4763E+06     60.7669E+06     18.4217E+06         74.0082
            1833     10.1084E-03     155.300E-03         1.07969     720.277E-03        -3.18942     707.458E-03        -3.17659         1.07969     252.209E-03     505.156E-03    -251.618E-03    -253.537E-03    -242.464E-03     494.960E-03    -252.496E-03     174.531E-03     90.8537E+06     59.2393E+06    -41.6079E+06    -38.7571E+06     56.3884E+06     90.8537E+06     16.4795E+06         74.9734
            1834     10.8886E-03     155.527E-03         1.08235     684.148E-03        -3.24628     647.224E-03        -3.20936         1.08235     635.976E-03     506.442E-03    -251.412E-03    -255.030E-03    -240.584E-03     492.874E-03    -252.290E-03     200.125E-03     108.637E+06     65.4574E+06    -30.3609E+06    -28.3685E+06     63.4650E+06     108.637E+06     13.1359E+06         76.0471
            1835     11.6688E-03     155.805E-03         1.09144     877.867E-03        -3.54431     832.030E-03        -3.49848         1.09144     774.641E-03     501.960E-03    -248.363E-03    -253.597E-03    -235.948E-03     487.654E-03    -251.706E-03     204.888E-03     112.502E+06     68.7995E+06    -20.5548E+06    -19.4762E+06     67.7210E+06     112.502E+06     8.81587E+06         77.5027
            1836     12.4630E-03     156.031E-03         1.15686         1.07658        -3.89437         1.08587        -3.86777         1.12097     578.758E-03     505.813E-03    -247.270E-03    -258.543E-03    -232.241E-03     482.855E-03    -250.613E-03     252.962E-03     110.554E+06     71.6757E+06    -15.3509E+06    -14.1238E+06     70.4486E+06     110.554E+06     5.49762E+06         79.5373
            1837     13.2678E-03     156.467E-03         1.25307         1.15613        -4.14796         1.23707        -4.14033         1.16449     79.0906E-03     496.946E-03    -239.942E-03    -257.004E-03    -226.546E-03     475.620E-03    -249.074E-03     237.598E-03     113.951E+06     77.4124E+06    -8.22995E+06    -7.24103E+06     76.4235E+06     113.951E+06     3.74556E+06         81.8890
            1838     784.108E-06     156.112E-03         2.10568         1.19739        -5.25491     579.820E-03        -4.63734         2.10568        -2.18045     489.567E-03    -244.099E-03    -245.468E-03    -245.374E-03     489.559E-03    -244.185E-03     4.12477E-03    -157.822E+06    -163.525E+06    -300.837E+06    -161.908E+06    -300.578E+06    -159.697E+06    -4.72639E+06         62.1682
            1839     1.56616E-03     156.104E-03         1.38739         1.15416        -4.43854         1.06676        -4.25127         1.28752    -798.776E-03     491.197E-03    -245.154E-03    -246.043E-03    -246.001E-03     491.155E-03    -245.154E-03     10.3094E-03    -150.183E+06    -156.874E+06    -283.115E+06    -157.781E+06    -282.208E+06    -150.183E+06    -9.97127E+06         62.5595
            1840     2.34564E-03     156.100E-03         1.28145     978.910E-03        -4.07112     880.890E-03        -3.87323         1.18159        -1.53667     493.007E-03    -245.831E-03    -247.176E-03    -247.065E-03     492.896E-03    -245.831E-03     17.3443E-03    -137.313E+06    -151.230E+06    -266.656E+06    -152.947E+06    -264.938E+06    -137.313E+06    -13.8221E+06         63.1766
            1841     3.12562E-03     156.098E-03         1.09427     877.670E-03        -3.66645     793.931E-03        -3.58271         1.09427    -955.592E-03     494.675E-03    -246.558E-03    -248.116E-03    -247.865E-03     494.424E-03    -246.558E-03     26.3894E-03    -120.835E+06    -144.145E+06    -248.936E+06    -147.116E+06    -245.965E+06    -120.835E+06    -16.8085E+06         64.0077
            1842     3.90679E-03     156.102E-03         1.04615     971.422E-03        -3.57933     911.304E-03        -3.51921         1.04615    -626.450E-03     496.690E-03    -247.320E-03    -249.370E-03    -248.866E-03     496.186E-03    -247.320E-03     38.1901E-03    -102.793E+06    -134.344E+06    -227.739E+06    -139.253E+06    -222.830E+06    -102.793E+06    -20.1877E+06         65.0348
            1843     4.68557E-03     156.123E-03         1.17856         1.03493        -3.64459         1.16351        -3.64375         1.04914    -116.370E-03     499.431E-03    -248.171E-03    -251.260E-03    -250.359E-03     498.530E-03    -248.171E-03     51.5200E-03    -85.0884E+06    -123.033E+06    -200.869E+06    -129.875E+06    -194.027E+06    -85.0884E+06    -21.5220E+06         66.2307
            1844     5.46005E-03     156.157E-03         1.47105         1.09672        -3.88608         1.46523        -3.88026         1.09672     104.002E-03     502.169E-03    -249.121E-03    -253.047E-03    -251.528E-03     500.649E-03    -249.121E-03     67.1438E-03    -67.4027E+06    -111.639E+06    -172.348E+06    -121.214E+06    -162.773E+06    -67.4027E+06    -21.4540E+06         67.5508
            1845     6.23298E-03     156.212E-03         1.67654         1.17131        -4.07713         1.67076        -4.07135         1.17131     191.525E-03     504.114E-03    -250.062E-03    -254.052E-03    -251.566E-03     501.627E-03    -250.062E-03     86.0026E-03    -49.2520E+06    -97.1611E+06    -143.457E+06    -111.933E+06    -128.685E+06    -49.2520E+06    -20.6029E+06         68.9303
            1846     7.00578E-03     156.297E-03         1.68528         1.23671        -4.09701         1.67269        -4.09592         1.24821    -44.5142E-03     504.197E-03    -250.817E-03    -253.380E-03    -249.520E-03     500.337E-03    -250.817E-03     107.251E-03    -30.0270E+06    -74.9225E+06    -114.981E+06    -100.323E+06    -89.5807E+06    -30.0270E+06    -17.4742E+06         70.2916
            1847     7.78353E-03     156.413E-03         1.55707         1.20595        -3.91842         1.45493        -3.91489         1.30456    -208.087E-03     503.459E-03    -250.921E-03    -252.538E-03    -246.715E-03     497.988E-03    -251.273E-03     127.728E-03    -9.88658E+06    -36.8473E+06    -91.9454E+06    -86.9970E+06    -41.7957E+06    -9.88658E+06    -10.4991E+06         71.5577
            1848     8.55804E-03     156.561E-03         1.40412         1.04226        -3.61885         1.11388        -3.61470         1.32834    -229.174E-03     504.017E-03    -251.171E-03    -252.847E-03    -245.168E-03     496.690E-03    -251.523E-03     147.672E-03     14.6902E+06     5.41571E+06    -73.9282E+06    -72.5396E+06     6.23597E+06     12.4814E+06    -520.108E+03         72.6646
            1849     9.33178E-03     156.743E-03         1.32409     834.883E-03        -3.37774     832.042E-03        -3.37490         1.32409    -42.2554E-03     503.187E-03    -250.709E-03    -252.477E-03    -242.095E-03     493.691E-03    -251.596E-03     167.646E-03     40.3709E+06     33.8840E+06    -60.0620E+06    -58.8625E+06     37.1949E+06     35.8604E+06     7.64974E+06         73.5909
            1850     10.1141E-03     156.954E-03         1.30904     761.278E-03        -3.35804     756.679E-03        -3.35344         1.30904     172.993E-03     499.652E-03    -248.131E-03    -251.521E-03    -236.795E-03     488.149E-03    -251.354E-03     183.600E-03     67.6007E+06     54.4127E+06    -47.4991E+06    -46.1651E+06     55.3804E+06     65.2989E+06     10.7679E+06         74.4122
            1851     10.9013E-03     157.166E-03         1.30311     885.344E-03        -3.55790     879.223E-03        -3.55178         1.30311     322.898E-03     498.319E-03    -247.228E-03    -251.090E-03    -232.128E-03     482.829E-03    -250.701E-03     211.394E-03     96.2959E+06     67.5590E+06    -36.1902E+06    -35.1718E+06     66.5406E+06     96.2959E+06     10.1068E+06         75.3221
            1852     11.6976E-03     157.448E-03         1.31328         1.07845        -3.84160         1.07268        -3.83583         1.31328     262.511E-03     493.247E-03    -243.234E-03    -250.012E-03    -227.283E-03     476.906E-03    -249.622E-03     216.363E-03     111.698E+06     72.2703E+06    -26.4933E+06    -25.6104E+06     71.3874E+06     111.698E+06     8.83801E+06         76.6231
            1853     12.4891E-03     157.647E-03         1.34461         1.21431        -4.07725         1.21733        -4.07384         1.33818     33.2931E-03     495.641E-03    -242.748E-03    -252.893E-03    -221.247E-03     469.247E-03    -248.000E-03     266.824E-03     117.593E+06     80.3814E+06    -16.4745E+06    -15.0428E+06     78.9497E+06     117.593E+06     7.12454E+06         78.5446
            1854     13.2997E-03     158.061E-03         1.37337         1.22283        -4.16563         1.22384        -4.16021         1.36694    -268.885E-03     481.233E-03    -230.600E-03    -250.633E-03    -210.162E-03     455.901E-03    -245.740E-03     255.269E-03     120.304E+06     82.3139E+06    -8.59065E+06    -7.42729E+06     81.1506E+06     120.304E+06     4.03372E+06         80.8747
            1855     784.718E-06     157.736E-03         2.57228         1.41141        -5.81139         1.29829        -5.69826         2.57228    -417.724E-03     482.934E-03    -240.763E-03    -242.171E-03    -242.056E-03     482.905E-03    -240.849E-03     7.70186E-03    -144.396E+06    -150.632E+06    -279.133E+06    -147.500E+06    -278.682E+06    -147.978E+06    -6.59992E+06         61.5663
            1856     1.56987E-03     157.734E-03         1.88236         1.69224        -5.35741         1.67223        -5.33740         1.88236     89.8363E-03     484.769E-03    -241.855E-03    -242.914E-03    -242.829E-03     484.684E-03    -241.855E-03     14.8142E-03    -138.371E+06    -143.195E+06    -261.903E+06    -144.150E+06    -260.949E+06    -138.371E+06    -10.3528E+06         61.9765
            1857     2.35445E-03     157.734E-03         1.78480         1.52898        -5.02040         1.51355        -5.00497         1.78480    -174.229E-03     487.280E-03    -242.657E-03    -244.623E-03    -244.422E-03     487.079E-03    -242.657E-03     23.6207E-03    -126.621E+06    -139.625E+06    -250.553E+06    -141.391E+06    -248.787E+06    -126.621E+06    -13.7128E+06         62.6225
            1858     3.13691E-03     157.734E-03         1.70474         1.41232        -4.71400         1.40619        -4.70787         1.70474    -118.535E-03     490.888E-03    -243.689E-03    -247.199E-03    -246.816E-03     490.505E-03    -243.689E-03     33.1646E-03    -112.126E+06    -133.272E+06    -233.099E+06    -136.483E+06    -229.888E+06    -112.126E+06    -17.1517E+06         63.4843
            1859     3.91496E-03     157.746E-03         1.64963         1.41768        -4.53926         1.41266        -4.53424         1.64963    -139.070E-03     494.232E-03    -244.885E-03    -249.347E-03    -248.683E-03     493.567E-03    -244.885E-03     43.8353E-03    -95.3595E+06    -125.028E+06    -210.876E+06    -130.585E+06    -205.320E+06    -95.3595E+06    -20.7281E+06         64.5315
            1860     4.69167E-03     157.771E-03         1.68397         1.42546        -4.45915         1.48422        -4.45822         1.62427    -136.310E-03     496.637E-03    -246.056E-03    -250.581E-03    -249.459E-03     495.515E-03    -246.056E-03     57.1381E-03    -78.2749E+06    -116.039E+06    -192.321E+06    -124.034E+06    -184.326E+06    -78.2749E+06    -23.1781E+06         65.7309
            1861     5.46930E-03     157.812E-03         1.75287         1.43610        -4.42988         1.56537        -4.42876         1.62249    -102.361E-03     498.965E-03    -247.110E-03    -251.854E-03    -249.997E-03     497.108E-03    -247.110E-03     73.7940E-03    -62.0915E+06    -104.161E+06    -166.999E+06    -115.497E+06    -155.663E+06    -62.0915E+06    -23.5615E+06         67.0414
            1862     6.24469E-03     157.873E-03         1.75916         1.44278        -4.36114         1.56878        -4.35990         1.63191     10.2087E-03     500.985E-03    -248.063E-03    -252.922E-03    -249.926E-03     497.988E-03    -248.063E-03     94.0974E-03    -46.0197E+06    -89.9175E+06    -140.733E+06    -107.006E+06    -123.645E+06    -46.0197E+06    -23.5092E+06         68.4022
            1863     7.01956E-03     157.958E-03         1.69521         1.40918        -4.21104         1.45974        -4.20504         1.63865     128.282E-03     501.741E-03    -248.840E-03    -252.901E-03    -248.327E-03     497.168E-03    -248.840E-03     116.339E-03    -29.0682E+06    -70.9782E+06    -119.019E+06    -98.6554E+06    -91.3418E+06    -29.0682E+06    -22.6409E+06         69.7319
            1864     7.79273E-03     158.070E-03         1.63381         1.27672        -3.99592         1.25407        -3.97327         1.63381     373.693E-03     501.705E-03    -249.329E-03    -252.376E-03    -245.620E-03     494.949E-03    -249.329E-03     140.948E-03    -12.3684E+06    -45.4861E+06    -99.2029E+06    -89.9781E+06    -54.7110E+06    -12.3684E+06    -18.9454E+06         70.9416
            1865     8.57039E-03     158.222E-03         1.61725         1.09125        -3.79910         1.04530        -3.75315         1.61725     640.485E-03     500.633E-03    -249.177E-03    -251.456E-03    -241.642E-03     491.093E-03    -249.451E-03     167.075E-03     4.01977E+06    -10.6954E+06    -83.0823E+06    -80.1035E+06    -13.6742E+06     4.01977E+06    -12.0429E+06         71.9610
            1866     9.35202E-03     158.399E-03         1.59627     974.002E-03        -3.69099     916.517E-03        -3.63350         1.59627     822.209E-03     497.710E-03    -247.915E-03    -249.794E-03    -236.126E-03     485.275E-03    -249.149E-03     190.055E-03     25.6021E+06     20.0960E+06    -69.3888E+06    -68.6614E+06     23.6098E+06     21.3608E+06    -5.06047E+06         72.7804
            1867     10.1403E-03     158.587E-03         1.57773     906.618E-03        -3.65348     859.394E-03        -3.60626         1.57773     806.276E-03     493.484E-03    -245.070E-03    -248.414E-03    -230.252E-03     478.666E-03    -248.414E-03     206.410E-03     52.2550E+06     40.0422E+06    -56.0347E+06    -55.4818E+06     51.2288E+06     40.5156E+06    -533.921E+03         73.4917
            1868     10.9343E-03     158.801E-03         1.56486     866.915E-03        -3.65476     846.300E-03        -3.63414         1.56486     514.553E-03     489.870E-03    -242.610E-03    -247.259E-03    -223.352E-03     470.612E-03    -247.259E-03     232.731E-03     75.8623E+06     57.9553E+06    -41.9279E+06    -41.3046E+06     64.8301E+06     68.3642E+06     1.22097E+06         74.3037
            1869     11.7334E-03     159.055E-03         1.55574     889.416E-03        -3.72141     886.642E-03        -3.71863         1.55574     100.677E-03     481.885E-03    -236.230E-03    -245.655E-03    -215.567E-03     461.222E-03    -245.655E-03     238.980E-03     97.2406E+06     68.4565E+06    -27.5379E+06    -27.1685E+06     68.0871E+06     97.2406E+06     1.56689E+06         75.5522
            1870     12.5465E-03     159.260E-03         1.54980     938.281E-03        -3.80591     930.971E-03        -3.79860         1.54980    -279.290E-03     481.594E-03    -236.127E-03    -245.467E-03    -206.562E-03     449.948E-03    -243.386E-03     287.924E-03     113.193E+06     78.4703E+06    -14.9488E+06    -13.8985E+06     77.4201E+06     113.193E+06     3.81849E+06         77.5352
            1871     13.3799E-03     159.628E-03         1.54317     947.629E-03        -3.82853     932.293E-03        -3.81319         1.54317    -505.005E-03     464.742E-03    -222.206E-03    -242.536E-03    -194.552E-03     435.007E-03    -240.455E-03     271.792E-03     119.850E+06     84.7210E+06    -5.02723E+06    -3.21934E+06     82.9131E+06     119.850E+06     5.99338E+06         80.0620
            1872     790.873E-06     159.349E-03         3.17253         2.21958        -7.02447         2.16027        -6.96517         3.17253     932.169E-03     473.277E-03    -235.978E-03    -237.299E-03    -237.253E-03     473.231E-03    -235.978E-03     9.93124E-03    -120.262E+06    -129.253E+06    -257.418E+06    -125.992E+06    -257.097E+06    -123.844E+06    -5.82596E+06         60.6798
            1873     1.57845E-03     159.353E-03         2.61166         2.40668        -6.61791         2.38632        -6.59755         2.61166     580.224E-03     475.609E-03    -237.089E-03    -238.520E-03    -238.376E-03     475.465E-03    -237.089E-03     19.6672E-03    -118.673E+06    -123.961E+06    -245.097E+06    -124.702E+06    -244.356E+06    -118.673E+06    -8.91184E+06         61.0986
            1874     2.36530E-03     159.352E-03         2.49355         2.12945        -6.16386         2.10779        -6.14221         2.49355     691.459E-03     479.769E-03    -238.171E-03    -241.598E-03    -241.271E-03     479.442E-03    -238.171E-03     29.9055E-03    -107.108E+06    -119.468E+06    -232.263E+06    -120.969E+06    -230.762E+06    -107.108E+06    -12.7852E+06         61.7532
            1875     3.14798E-03     159.368E-03         2.36577         1.82387        -5.63131         1.82040        -5.62785         2.36577     311.111E-03     484.283E-03    -239.571E-03    -244.712E-03    -244.083E-03     483.655E-03    -239.571E-03     41.8682E-03    -93.7567E+06    -114.020E+06    -216.161E+06    -116.474E+06    -213.708E+06    -93.7567E+06    -15.3787E+06         62.6143
            1876     3.92799E-03     159.385E-03         2.24617         1.66725        -5.24759         1.66295        -5.24330         2.24617    -7.31270E-03     487.958E-03    -241.004E-03    -246.954E-03    -245.819E-03     486.823E-03    -241.004E-03     56.3972E-03    -79.8920E+06    -107.612E+06    -193.288E+06    -111.682E+06    -189.217E+06    -79.8920E+06    -17.8539E+06         63.6451
            1877     4.70760E-03     159.414E-03         2.15131         1.60594        -4.98688         1.60108        -4.98202         2.15131    -317.635E-03     490.811E-03    -242.320E-03    -248.491E-03    -246.601E-03     488.921E-03    -242.320E-03     73.3218E-03    -64.6778E+06    -100.078E+06    -178.356E+06    -106.137E+06    -172.298E+06    -64.6778E+06    -20.6643E+06         64.8084
            1878     5.48533E-03     159.458E-03         2.08297         1.60171        -4.82398         1.59803        -4.82029         2.08297    -284.936E-03     492.739E-03    -243.407E-03    -249.332E-03    -246.382E-03     489.789E-03    -243.407E-03     91.8597E-03    -52.1770E+06    -92.2642E+06    -157.420E+06    -101.434E+06    -148.250E+06    -52.1770E+06    -21.8565E+06         66.0613
            1879     6.26409E-03     159.524E-03         2.03758         1.62011        -4.72632         1.61683        -4.72304         2.03758     25.2791E-03     493.525E-03    -244.221E-03    -249.304E-03    -244.861E-03     489.083E-03    -244.221E-03     112.942E-03    -38.4308E+06    -82.5476E+06    -130.633E+06    -96.1226E+06    -117.058E+06    -38.4308E+06    -21.1920E+06         67.3506
            1880     7.04300E-03     159.610E-03         2.00848         1.61329        -4.64452         1.59561        -4.62684         2.00848     587.099E-03     493.857E-03    -244.731E-03    -249.126E-03    -242.406E-03     487.137E-03    -244.731E-03     138.746E-03    -23.5573E+06    -68.0412E+06    -110.746E+06    -90.9677E+06    -87.8193E+06    -23.5573E+06    -19.9176E+06         68.6053
            1881     7.82511E-03     159.724E-03         1.98797         1.57215        -4.55465         1.50739        -4.48989         1.98797         1.19717     493.318E-03    -244.874E-03    -248.444E-03    -238.601E-03     483.475E-03    -244.874E-03     168.011E-03    -8.82789E+06    -46.3217E+06    -94.4144E+06    -85.0915E+06    -55.6446E+06    -8.82789E+06    -18.2923E+06         69.7396
            1882     8.60979E-03     159.866E-03         1.96908         1.46030        -4.41526         1.34487        -4.29983         1.96908         1.62036     490.697E-03    -244.268E-03    -246.428E-03    -232.723E-03     477.266E-03    -244.542E-03     195.739E-03     4.96734E+06    -17.7355E+06    -81.7298E+06    -76.8917E+06    -22.5736E+06     4.96734E+06    -15.9302E+06         70.6919
            1883     9.40351E-03     160.031E-03         1.94433         1.22436        -4.16100         1.09979        -4.03644         1.94433         1.61853     488.150E-03    -243.379E-03    -244.771E-03    -227.192E-03     470.918E-03    -243.726E-03     220.754E-03     25.2890E+06     13.7578E+06    -68.7171E+06    -66.5627E+06     17.0326E+06     19.8597E+06    -12.3554E+06         71.4720
            1884     10.1966E-03     160.222E-03         1.90755     917.331E-03        -3.83403     831.352E-03        -3.74805         1.90755         1.25179     484.642E-03    -241.538E-03    -243.104E-03    -221.600E-03     464.137E-03    -242.537E-03     239.370E-03     50.5211E+06     34.2076E+06    -57.4937E+06    -56.3927E+06     49.4201E+06     34.2076E+06    -10.4424E+06         72.1970
            1885     10.9964E-03     160.408E-03         1.86036     648.984E-03        -3.53915     619.611E-03        -3.50977         1.86036     592.102E-03     480.213E-03    -238.837E-03    -241.377E-03    -213.165E-03     454.056E-03    -240.891E-03     267.189E-03     67.5683E+06     43.6329E+06    -47.2831E+06    -45.9193E+06     64.6494E+06     45.1880E+06    -11.5305E+06         73.1125
            1886     11.8149E-03     160.653E-03         1.80747     513.642E-03        -3.36781     507.673E-03        -3.36184         1.80747    -48.9574E-03     471.551E-03    -232.227E-03    -239.324E-03    -204.899E-03     443.741E-03    -238.841E-03     273.253E-03     77.4007E+06     52.0880E+06    -36.2419E+06    -34.5592E+06     61.9014E+06     65.9046E+06    -10.7535E+06         74.6069
            1887     12.6325E-03     160.829E-03         1.75579     500.874E-03        -3.30491     483.335E-03        -3.28737         1.75579    -460.636E-03     471.210E-03    -230.774E-03    -240.435E-03    -197.497E-03     433.856E-03    -236.359E-03     311.434E-03     89.7952E+06     62.4687E+06    -24.5079E+06    -23.4203E+06     61.3811E+06     89.7952E+06    -4.88797E+06         77.0457
            1888     13.4729E-03     161.173E-03         1.70919     570.225E-03        -3.32302     548.784E-03        -3.30158         1.70919    -570.018E-03     458.753E-03    -221.051E-03    -237.702E-03    -193.257E-03     426.883E-03    -233.626E-03     276.917E-03     112.015E+06     78.6802E+06    -13.6911E+06    -12.4871E+06     77.4761E+06     112.015E+06     961.827E+03         80.1425
            1889     792.928E-06     160.945E-03         3.50129         3.00998        -7.89584         2.86214        -7.74800         3.50129         1.79449     460.377E-03    -229.542E-03    -230.835E-03    -230.750E-03     460.292E-03    -229.542E-03     13.4146E-03    -102.912E+06    -113.195E+06    -240.015E+06    -109.093E+06    -239.830E+06    -107.199E+06    -3.20215E+06         59.3369
            1890     1.58875E-03     160.948E-03         3.11291         2.89596        -7.35116         2.83236        -7.28756         3.11291         1.09342     463.137E-03    -230.661E-03    -232.477E-03    -232.205E-03     462.866E-03    -230.661E-03     25.9710E-03    -102.252E+06    -107.446E+06    -227.689E+06    -108.053E+06    -227.082E+06    -102.252E+06    -8.12173E+06         59.7275
            1891     2.37811E-03     160.965E-03         2.95586         2.49144        -6.73931         2.42094        -6.66881         2.95586         1.41903     466.844E-03    -231.718E-03    -235.126E-03    -234.474E-03     466.192E-03    -231.718E-03     41.2066E-03    -92.1301E+06    -102.884E+06    -217.466E+06    -103.971E+06    -216.380E+06    -92.1301E+06    -10.9416E+06         60.3341
            1892     3.16612E-03     160.982E-03         2.78046         2.07951        -6.08570         2.06398        -6.07017         2.78046     666.907E-03     470.116E-03    -232.851E-03    -237.266E-03    -235.989E-03     468.839E-03    -232.851E-03     58.2161E-03    -81.1731E+06    -98.3248E+06    -201.984E+06    -100.218E+06    -200.091E+06    -81.1731E+06    -13.5121E+06         61.1348
            1893     3.95498E-03     161.007E-03         2.61764         1.85593        -5.62083         1.84115        -5.60605         2.61764     39.7166E-03     473.771E-03    -233.952E-03    -239.819E-03    -237.619E-03     471.571E-03    -233.952E-03     77.2866E-03    -69.5692E+06    -92.8067E+06     -180.31E+06    -95.6524E+06    -177.464E+06    -69.5692E+06    -15.3483E+06         62.1010
            1894     4.73993E-03     161.043E-03         2.48787         1.80435        -5.36227         1.79245        -5.35038         2.48787    -579.425E-03     477.361E-03    -235.062E-03    -242.299E-03    -238.812E-03     473.875E-03    -235.062E-03     98.0517E-03    -55.2150E+06    -87.5641E+06    -165.054E+06    -91.3133E+06    -161.305E+06    -55.2150E+06    -16.4385E+06         63.1955
            1895     5.52428E-03     161.091E-03         2.40063         1.89572        -5.29732         1.88115        -5.28275         2.40063    -616.589E-03     479.356E-03    -236.006E-03    -243.350E-03    -238.040E-03     474.046E-03    -236.006E-03     121.264E-03    -39.5327E+06    -80.5331E+06    -144.902E+06    -86.0110E+06    -139.424E+06    -39.5327E+06    -17.1946E+06         64.3737
            1896     6.30857E-03     161.157E-03         2.35143         1.99968        -5.29681         1.98950        -5.28663         2.35143    -265.139E-03     479.671E-03    -236.583E-03    -243.088E-03    -235.392E-03     471.975E-03    -236.583E-03     146.138E-03    -25.3890E+06    -72.6590E+06    -119.979E+06    -80.1421E+06    -112.496E+06    -25.3890E+06    -16.2107E+06         65.5887
            1897     7.09784E-03     161.238E-03         2.32669         2.04634        -5.27601         2.03097        -5.26064         2.32669     495.358E-03     479.361E-03    -236.724E-03    -242.637E-03    -231.593E-03     468.317E-03    -236.724E-03     174.800E-03    -11.0479E+06    -61.1725E+06    -95.8340E+06    -73.9075E+06    -83.0991E+06    -11.0479E+06    -14.7024E+06         66.7835
            1898     7.88899E-03     161.353E-03         2.30910         1.97952        -5.16042         1.91975        -5.10065         2.30910         1.20170     478.395E-03    -236.423E-03    -241.972E-03    -226.900E-03     463.324E-03    -236.423E-03     204.247E-03     4.65784E+06    -40.4380E+06    -76.4124E+06    -67.1831E+06    -49.6672E+06     4.65784E+06    -14.4250E+06         67.8930
            1899     8.68614E-03     161.483E-03         2.28147         1.74476        -4.87660         1.64404        -4.77588         2.28147         1.58095     477.036E-03    -235.699E-03    -241.337E-03    -221.638E-03     457.337E-03    -235.699E-03     232.618E-03     20.9026E+06    -13.1392E+06    -65.3443E+06    -60.5354E+06    -17.9481E+06     20.9026E+06    -14.6523E+06         68.8769
            1900     9.48489E-03     161.645E-03         2.23438         1.37971        -4.44873         1.28114        -4.35016         2.23438         1.46788     475.029E-03    -234.522E-03    -240.507E-03    -215.714E-03     450.236E-03    -234.522E-03     259.915E-03     36.2449E+06     15.2207E+06    -56.0770E+06    -53.2437E+06     15.8771E+06     32.7553E+06    -13.5869E+06         69.7686
            1901     10.2954E-03     161.823E-03         2.16863         1.00170        -3.99030     944.358E-03        -3.93296         2.16863     983.755E-03     471.342E-03    -232.990E-03    -238.352E-03    -209.741E-03     442.731E-03    -232.990E-03     277.972E-03     58.4818E+06     44.2181E+06    -47.0344E+06    -45.5194E+06     53.4273E+06     47.7576E+06    -11.5201E+06         70.7356
            1902     11.1115E-03     162.000E-03         2.09235     702.780E-03        -3.59641     686.744E-03        -3.58038         2.09235     254.468E-03     470.287E-03    -231.167E-03    -239.120E-03    -205.101E-03     436.268E-03    -231.167E-03     302.048E-03     73.8505E+06     53.0946E+06    -41.0506E+06    -39.5851E+06     70.3597E+06     55.1199E+06    -12.1158E+06         72.0993
            1903     11.9323E-03     162.220E-03         2.01387     540.358E-03        -3.32862     528.856E-03        -3.31712         2.01387    -328.062E-03     467.188E-03    -227.762E-03    -239.426E-03    -204.177E-03     433.529E-03    -229.352E-03     299.915E-03     76.7631E+06     49.7072E+06    -36.8146E+06    -34.7348E+06     59.1235E+06     65.2670E+06    -13.6353E+06         74.2881
            1904     12.7562E-03     162.395E-03         1.94337     494.257E-03        -3.16057     474.779E-03        -3.14109         1.94337    -526.547E-03     474.397E-03    -226.164E-03    -248.233E-03    -207.844E-03     435.598E-03    -227.754E-03     322.964E-03     84.4687E+06     55.3677E+06    -29.8049E+06    -25.4317E+06     50.9946E+06     84.4687E+06    -13.1433E+06         77.6363
            1905     13.5846E-03     162.726E-03         1.88286     468.435E-03        -2.99524     453.642E-03        -2.98045         1.88286    -437.743E-03     476.947E-03    -223.425E-03    -253.523E-03    -220.702E-03     447.490E-03    -226.787E-03     268.195E-03     120.560E+06     67.5022E+06    -15.3389E+06    -11.8898E+06     64.0531E+06     120.560E+06    -8.10175E+06         81.5844
            1906     803.439E-06     162.516E-03         3.48479         3.30431        -7.84076         3.12774        -7.66419         3.48479         2.24993     440.389E-03    -218.838E-03    -221.551E-03    -221.354E-03     440.191E-03    -218.838E-03     20.3891E-03    -88.3367E+06    -96.0440E+06    -224.145E+06    -90.8106E+06    -223.899E+06    -93.8166E+06    -4.38163E+06         57.2861
            1907     1.60058E-03     162.526E-03         3.25532         3.08981        -7.37683         2.98140        -7.25421         3.24111         1.81129     442.418E-03    -220.428E-03    -221.991E-03    -221.340E-03     441.768E-03    -220.428E-03     39.1055E-03    -86.3253E+06    -91.7489E+06    -210.811E+06    -91.0757E+06    -210.291E+06    -87.5187E+06    -7.69436E+06         57.6153
            1908     2.40194E-03     162.545E-03         3.11468         2.77921        -6.89303         2.64498        -6.74460         3.10047         2.24202     444.238E-03    -220.999E-03    -223.239E-03    -221.867E-03     442.866E-03    -220.999E-03     58.5625E-03    -78.1952E+06    -87.4240E+06    -205.482E+06    -88.4751E+06    -204.431E+06    -78.1952E+06    -10.8446E+06         58.1353
            1909     3.20331E-03     162.565E-03         2.94958         2.39692        -6.31575         2.33726        -6.25609         2.94958         1.37452     447.016E-03    -221.568E-03    -225.448E-03    -222.971E-03     444.539E-03    -221.568E-03     79.5350E-03    -67.7764E+06    -81.3559E+06    -190.060E+06    -83.1460E+06    -188.270E+06    -67.7764E+06    -13.6505E+06         58.8378
            1910     4.00002E-03     162.598E-03         2.81227         2.19928        -5.94389         2.16905        -5.91366         2.81227     513.250E-03     450.397E-03    -222.238E-03    -228.159E-03    -224.077E-03     446.314E-03    -222.238E-03     102.946E-03    -55.4711E+06    -75.8807E+06    -171.740E+06    -78.1206E+06    -169.501E+06    -55.4711E+06    -14.4223E+06         59.7036
            1911     4.79673E-03     162.639E-03         2.70457         2.12291        -5.71981         2.11525        -5.71216         2.70457    -326.252E-03     453.147E-03    -222.902E-03    -230.246E-03    -223.922E-03     446.823E-03    -222.902E-03     128.451E-03    -39.0615E+06    -69.7505E+06    -154.730E+06    -72.2797E+06    -152.201E+06    -39.0615E+06    -14.2658E+06         60.7112
            1912     5.59304E-03     162.691E-03         2.62729         2.13952        -5.61705         2.12600        -5.60353         2.62729    -558.838E-03     455.402E-03    -223.384E-03    -232.017E-03    -222.709E-03     446.093E-03    -223.384E-03     156.435E-03    -22.7938E+06    -63.2213E+06    -134.931E+06    -66.2667E+06    -131.886E+06    -22.7938E+06    -14.2069E+06         61.8378
            1913     6.39235E-03     162.754E-03         2.57330         2.15236        -5.53489         2.14200        -5.52454         2.57330    -322.149E-03     457.224E-03    -223.613E-03    -233.610E-03    -220.602E-03     444.216E-03    -223.613E-03     185.361E-03    -7.79872E+06    -56.0592E+06    -111.784E+06    -59.9744E+06    -107.869E+06    -7.79872E+06    -13.9793E+06         63.0518
            1914     7.19061E-03     162.837E-03         2.52942         2.07497        -5.37832         2.06694        -5.37030         2.52942     369.632E-03     458.531E-03    -223.517E-03    -235.014E-03    -217.196E-03     440.713E-03    -223.517E-03     216.918E-03     8.14598E+06    -45.8912E+06    -84.8165E+06    -52.2608E+06    -78.4470E+06     8.14598E+06    -13.1815E+06         64.3066
            1915     7.99562E-03     162.943E-03         2.48154         1.93048        -5.15661         1.88878        -5.11491         2.48154         1.00412     459.560E-03    -223.051E-03    -236.509E-03    -213.288E-03     436.339E-03    -223.051E-03     247.792E-03     25.4465E+06    -31.2067E+06    -58.1443E+06    -44.6523E+06    -44.6987E+06     25.4465E+06    -10.7697E+06         65.5552
            1916     8.80268E-03     163.072E-03         2.42294         1.73742        -4.87539         1.66456        -4.80253         2.42294         1.37329     460.661E-03    -222.277E-03    -238.384E-03    -209.596E-03     431.873E-03    -222.277E-03     276.000E-03     45.2205E+06    -7.51041E+06    -41.5796E+06    -38.4822E+06    -10.6078E+06     45.2205E+06    -7.81049E+06         66.7844
            1917     9.61854E-03     163.224E-03         2.35530         1.51458        -4.54759         1.45325        -4.48627         2.35530         1.20249     461.245E-03    -221.243E-03    -240.001E-03    -206.311E-03     427.554E-03    -221.243E-03     299.019E-03     62.8551E+06     23.4545E+06    -35.6606E+06    -34.3359E+06     22.1297E+06     62.8551E+06    -6.51042E+06         68.0647
            1918     10.4366E-03     163.390E-03         2.28391         1.30418        -4.21872         1.27796        -4.19249         2.28391     697.860E-03     461.604E-03    -220.119E-03    -241.485E-03    -205.765E-03     425.884E-03    -220.119E-03     308.536E-03     82.0205E+06     54.1083E+06    -31.6317E+06    -30.8679E+06     57.1929E+06     78.1722E+06    -3.94398E+06         69.6093
            1919     11.2560E-03     163.564E-03         2.21418         1.12724        -3.91252         1.12144        -3.90673         2.21418     50.6340E-03     468.177E-03    -219.205E-03    -248.972E-03    -211.079E-03     430.285E-03    -219.205E-03     320.715E-03     94.1078E+06     72.8258E+06    -27.2176E+06    -26.8219E+06     76.2784E+06     90.2594E+06    -2.03855E+06         71.7784
            1920     12.0746E-03     163.792E-03         2.14864     986.312E-03        -3.63508     977.527E-03        -3.62630         2.14864    -362.097E-03     475.477E-03    -218.936E-03    -256.541E-03    -223.148E-03     442.083E-03    -218.936E-03     303.260E-03     102.161E+06     71.6293E+06    -22.5706E+06    -21.3572E+06     70.4159E+06     102.161E+06    -7.57348E+06         74.9724
            1921     12.8716E-03     163.969E-03         2.08748     804.381E-03        -3.30104     787.575E-03        -3.28424         2.08748    -501.017E-03     496.122E-03    -219.596E-03    -276.526E-03    -242.956E-03     462.552E-03    -219.596E-03     312.964E-03     106.367E+06     59.1259E+06    -20.0937E+06    -16.0032E+06     55.0354E+06     106.367E+06    -14.2473E+06         79.3815
            1922     13.6567E-03     164.334E-03         2.02381     509.833E-03        -2.83447     497.639E-03        -2.82228         2.02381    -370.373E-03     515.722E-03    -221.617E-03    -294.105E-03    -270.408E-03     492.025E-03    -221.617E-03     250.324E-03     136.325E+06     51.7247E+06    -13.7025E+06    -9.11861E+06     47.1408E+06     136.325E+06    -12.1580E+06         84.1427
            1923     813.009E-06     164.047E-03         3.32344         3.17722        -7.24521         3.08968        -7.08519         3.25096         2.37563     408.837E-03    -203.312E-03    -205.525E-03    -204.566E-03     408.466E-03    -203.901E-03     27.0194E-03    -72.9262E+06    -76.8505E+06    -207.115E+06    -75.2809E+06    -206.793E+06    -74.8175E+06    -5.92526E+06         54.3544
            1924     1.63061E-03     164.062E-03         3.30413         3.12522        -7.16650         3.09681        -6.98888         3.15492         2.47075     409.597E-03    -204.295E-03    -205.303E-03    -204.172E-03     408.467E-03    -204.295E-03     50.9585E-03    -69.8577E+06    -74.1422E+06    -197.102E+06    -73.3170E+06    -196.440E+06    -71.3441E+06    -8.78125E+06         54.6149
            1925     2.44378E-03     164.079E-03         3.26663         3.03837        -7.03477         2.97456        -6.82093         3.11660         2.86224     411.320E-03    -204.439E-03    -206.881E-03    -204.421E-03     408.860E-03    -204.439E-03     75.8943E-03    -62.1455E+06    -69.2308E+06    -190.309E+06    -70.2795E+06    -188.968E+06    -62.4384E+06    -12.4018E+06         55.0447
            1926     3.25552E-03     164.106E-03         3.15614         2.88068        -6.76485         2.86035        -6.65722         3.06884         2.02990     414.090E-03    -204.706E-03    -209.384E-03    -204.942E-03     409.648E-03    -204.706E-03     102.580E-03    -51.0967E+06    -64.1233E+06    -178.452E+06    -66.2250E+06    -176.350E+06    -51.0967E+06    -15.3119E+06         55.6467
            1927     4.06905E-03     164.142E-03         3.05084         2.69253        -6.47717         2.67956        -6.42760         3.01423         1.14414     416.396E-03    -204.982E-03    -211.414E-03    -204.358E-03     409.340E-03    -204.982E-03     130.054E-03    -37.8846E+06    -58.0281E+06    -165.162E+06    -60.4347E+06    -162.756E+06    -37.8846E+06    -15.8486E+06         56.4235
            1928     4.88301E-03     164.184E-03         2.94670         2.45128        -6.13238         2.44507        -6.12617         2.94670     336.741E-03     418.466E-03    -205.104E-03    -213.362E-03    -202.832E-03     407.935E-03    -205.104E-03     159.412E-03    -23.7147E+06    -51.6254E+06    -148.879E+06    -53.9586E+06    -146.546E+06    -23.7147E+06    -14.8620E+06         57.3892
            1929     5.69893E-03     164.237E-03         2.86466         2.16952        -5.75552         2.16286        -5.74886         2.86466     121.578E-03     421.970E-03    -205.091E-03    -216.880E-03    -201.741E-03     406.832E-03    -205.091E-03     191.848E-03    -7.72241E+06    -45.8460E+06    -129.191E+06    -48.0286E+06    -127.008E+06    -7.72241E+06    -13.2215E+06         58.5583
            1930     6.51210E-03     164.305E-03         2.76862         1.88124        -5.34877         1.86121        -5.32874         2.76862     379.047E-03     427.184E-03    -205.063E-03    -222.120E-03    -201.593E-03     406.656E-03    -205.063E-03     224.869E-03     10.1797E+06    -40.6452E+06    -105.063E+06    -43.0528E+06    -102.655E+06     10.1797E+06    -11.2259E+06         59.9260
            1931     7.32950E-03     164.386E-03         2.66468         1.69292        -5.03182         1.63179        -4.97070         2.66468         1.05156     433.049E-03    -205.043E-03    -228.006E-03    -201.571E-03     406.614E-03    -205.043E-03     257.208E-03     27.6153E+06    -37.4918E+06    -77.6345E+06    -39.9908E+06    -75.1355E+06     27.6153E+06    -7.94021E+06         61.4593
            1932     8.14671E-03     164.492E-03         2.56267         1.62311        -4.83094         1.49708        -4.70491         2.56267         1.63232     439.063E-03    -204.983E-03    -234.080E-03    -201.823E-03     406.806E-03    -204.983E-03     286.487E-03     45.5585E+06    -30.2774E+06    -51.9474E+06    -38.4006E+06    -43.8241E+06     45.5585E+06    -2.75097E+06         63.1191
            1933     8.96710E-03     164.621E-03         2.47102         1.61530        -4.69129         1.47076        -4.54675         2.47102         1.83003     445.661E-03    -204.942E-03    -240.718E-03    -203.900E-03     408.843E-03    -204.942E-03     308.870E-03     65.8842E+06    -5.64263E+06    -38.0147E+06    -36.2683E+06    -7.38895E+06     65.8842E+06     1.86349E+06         64.9059
            1934     9.78487E-03     164.771E-03         2.39461         1.60058        -4.54324         1.49608        -4.43874         2.39461         1.53997     453.562E-03    -205.103E-03    -248.459E-03    -209.467E-03     414.570E-03    -205.103E-03     321.513E-03     87.0703E+06     31.8935E+06    -34.0519E+06    -33.5285E+06     31.3701E+06     87.0703E+06     4.54734E+06         66.9052
            1935     10.6001E-03     164.946E-03         2.33319         1.56483        -4.36797         1.50994        -4.31307         2.33319         1.03791     464.103E-03    -205.752E-03    -258.351E-03    -220.945E-03     426.697E-03    -205.752E-03     319.779E-03     102.716E+06     64.0312E+06    -28.4743E+06    -28.1056E+06     63.6626E+06     102.716E+06     3.99307E+06         69.3136
            1936     11.4032E-03     165.130E-03         2.28140         1.44112        -4.09973         1.42429        -4.08290         2.28140     432.055E-03     481.522E-03    -207.182E-03    -274.340E-03    -238.904E-03     446.086E-03    -207.182E-03     318.896E-03     111.632E+06     81.0006E+06    -19.5636E+06    -19.4809E+06     80.9178E+06     111.632E+06     1.81701E+06         72.4371
            1937     12.1907E-03     165.391E-03         2.22838         1.18208        -3.68412         1.17740        -3.67944         2.22838     28.4790E-03     500.014E-03    -209.701E-03    -290.313E-03    -262.125E-03     471.826E-03    -209.701E-03     289.220E-03     118.754E+06     84.0230E+06    -12.5159E+06    -11.6158E+06     83.1230E+06     118.754E+06    -968.144E+03         76.5758
            1938     12.9549E-03     165.598E-03         2.16310     779.471E-03        -3.11717     768.377E-03        -3.10607         2.16310    -128.226E-03     533.032E-03    -213.513E-03    -319.519E-03    -292.401E-03     505.914E-03    -213.513E-03     297.081E-03     121.796E+06     69.2159E+06    -8.73331E+06    -7.56468E+06     68.0473E+06     121.796E+06    -4.21029E+06         81.7538
            1939     13.6929E-03     166.036E-03         2.08160     347.825E-03        -2.53079     337.910E-03        -2.52088         2.08160    -81.8522E-03     557.286E-03    -218.620E-03    -338.665E-03    -319.317E-03     537.937E-03    -218.620E-03     238.864E-03     145.182E+06     46.9336E+06    -10.3667E+06    -2.99638E+06     39.5633E+06     145.182E+06    -4.14524E+06         86.9738
            1940     833.388E-06     165.525E-03         3.11461         2.94525        -6.59525         3.00379        -6.48443         2.94525         1.99111     366.841E-03    -182.824E-03    -184.017E-03    -182.878E-03     366.291E-03    -183.412E-03     32.4766E-03    -62.4568E+06    -64.5453E+06    -187.505E+06    -63.6956E+06    -187.106E+06    -63.7052E+06    -6.39226E+06         50.5911
            1941     1.66304E-03     165.536E-03         3.36741         3.02114        -6.90459         3.21273        -6.74991         3.02114         2.37655     366.863E-03    -183.032E-03    -183.832E-03    -182.143E-03     365.174E-03    -183.032E-03     58.5972E-03    -59.0345E+06    -61.5426E+06    -181.380E+06    -62.1410E+06    -179.938E+06    -59.8780E+06    -12.1043E+06         50.7893
            1942     2.49765E-03     165.557E-03         3.56468         3.11383        -7.20741         3.38646        -7.02920         3.11383         2.66477     368.020E-03    -182.766E-03    -185.254E-03    -181.493E-03     364.259E-03    -182.766E-03     88.7833E-03    -51.4922E+06    -55.8590E+06    -176.982E+06    -57.6175E+06    -174.931E+06    -51.7852E+06    -15.1379E+06         51.1400
            1943     3.33151E-03     165.586E-03         3.50126         3.18730        -7.24671         3.40209        -7.14754         3.18730         2.02818     369.675E-03    -182.511E-03    -187.164E-03    -180.309E-03     362.821E-03    -182.511E-03     120.804E-03    -41.4574E+06    -52.1868E+06    -168.494E+06    -54.1135E+06    -166.568E+06    -41.4574E+06    -14.7978E+06         51.6790
            1944     4.16446E-03     165.622E-03         3.32500         3.11516        -7.03570         3.17601        -6.98528         3.21372         1.34601     372.136E-03    -182.220E-03    -189.917E-03    -178.898E-03     361.117E-03    -182.220E-03     153.594E-03    -30.9125E+06    -51.1575E+06    -159.628E+06    -53.0386E+06    -157.747E+06    -30.9125E+06    -13.7713E+06         52.4578
            1945     4.99895E-03     165.664E-03         3.17811         2.74979        -6.55599         2.72928        -6.53549         3.17811     850.470E-03     376.694E-03    -181.975E-03    -194.719E-03    -178.540E-03     360.515E-03    -181.975E-03     187.245E-03    -20.0336E+06    -52.0097E+06    -145.997E+06    -53.5026E+06    -144.504E+06    -20.0336E+06    -10.6680E+06         53.5298
            1946     5.83383E-03     165.718E-03         3.08443         2.21498        -5.94175         2.18520        -5.91197         3.08443     904.073E-03     383.892E-03    -181.920E-03    -201.972E-03    -179.838E-03     361.758E-03    -181.920E-03     221.550E-03    -5.19940E+06    -54.1540E+06    -127.367E+06    -55.4138E+06    -126.107E+06    -5.19940E+06    -5.63849E+06         54.9316
            1947     6.67181E-03     165.792E-03         2.95156         1.76694        -5.35844         1.68441        -5.27591         2.95156         1.36516     394.187E-03    -182.187E-03    -212.000E-03    -183.745E-03     365.932E-03    -182.187E-03     254.452E-03     12.7833E+06    -55.3405E+06    -105.847E+06    -58.1478E+06    -103.039E+06     12.7833E+06     342.720E+03         56.6785
            1948     7.50089E-03     165.884E-03         2.80467         1.51990        -4.94434         1.34680        -4.77124         2.80467         2.02087     407.604E-03    -182.918E-03    -224.686E-03    -190.702E-03     373.621E-03    -182.918E-03     284.564E-03     31.4789E+06    -51.0412E+06    -84.2007E+06    -60.6396E+06    -74.6023E+06     31.4789E+06     5.45811E+06         58.7556
            1949     8.32721E-03     165.999E-03         2.66768         1.48328        -4.73356         1.23407        -4.48435         2.66768         2.42131     422.715E-03    -184.194E-03    -238.521E-03    -200.340E-03     384.535E-03    -184.194E-03     308.304E-03     50.9535E+06    -33.7762E+06    -67.4519E+06    -59.9860E+06    -41.2422E+06     50.9535E+06     8.07530E+06         61.1195
            1950     9.14648E-03     166.141E-03         2.55560         1.53052        -4.61346         1.27933        -4.36226         2.55560         2.41746     439.230E-03    -186.078E-03    -253.152E-03    -213.466E-03     399.544E-03    -186.078E-03     321.815E-03     70.6141E+06    -51.0577E+03    -56.6280E+06    -54.9300E+06    -1.74907E+06     70.6141E+06     9.17581E+06         63.7423
            1951     9.95627E-03     166.312E-03         2.47083         1.55483        -4.47511         1.37241        -4.29269         2.47083         2.04100     458.449E-03    -188.734E-03    -269.715E-03    -231.578E-03     420.312E-03    -188.734E-03     323.889E-03     90.0793E+06     42.5576E+06    -46.8564E+06    -45.8684E+06     41.5695E+06     90.0793E+06     8.04202E+06         66.6590
            1952     10.7499E-03     166.510E-03         2.40448         1.48478        -4.24101         1.37420        -4.13043         2.40448         1.54369     481.088E-03    -192.385E-03    -288.704E-03    -255.146E-03     447.531E-03    -192.385E-03     313.085E-03     104.363E+06     76.0809E+06    -35.0118E+06    -34.6769E+06     75.7460E+06     104.363E+06     2.90111E+06         69.9810
            1953     11.5205E-03     166.743E-03         2.34063         1.23327        -3.80765         1.17007        -3.74445         2.34063         1.03624     508.529E-03    -197.114E-03    -311.415E-03    -281.895E-03     479.009E-03    -197.114E-03     304.361E-03     107.656E+06     86.1009E+06    -25.6104E+06    -25.5875E+06      86.078E+06     107.656E+06    -1.20449E+06         73.9031
            1954     12.2733E-03     167.036E-03         2.26505     855.389E-03        -3.23063     797.408E-03        -3.17265         2.26505     756.521E-03     535.574E-03    -202.955E-03    -332.619E-03    -309.770E-03     512.725E-03    -202.955E-03     274.509E-03     111.189E+06     84.7548E+06    -18.9548E+06    -18.4874E+06     84.2875E+06     111.189E+06    -1.31145E+06         78.6065
            1955     12.9964E-03     167.308E-03         2.17072     429.060E-03        -2.58880     370.943E-03        -2.53068         2.17072     642.105E-03     570.469E-03    -209.807E-03    -360.662E-03    -337.883E-03     547.690E-03    -209.807E-03     285.798E-03     121.526E+06     74.8222E+06    -13.1330E+06    -11.9440E+06     73.6333E+06     121.526E+06     300.495E+03         84.0272
            1956     13.7044E-03     167.790E-03         2.06202     61.7800E-03        -1.99709     33.8441E-03        -1.96915         2.06202     383.827E-03     585.410E-03    -217.181E-03    -368.229E-03    -351.522E-03     568.703E-03    -217.181E-03     232.277E-03     140.871E+06     46.6518E+06    -15.2430E+06    -8.27307E+06     39.6819E+06     140.871E+06     963.143E+03         89.2469
            1957     851.294E-06     166.933E-03         2.93334         2.72527        -6.04250         2.88179        -5.99094         2.72527         1.32311     317.419E-03    -158.030E-03    -159.389E-03    -158.607E-03     316.711E-03    -158.104E-03     33.7847E-03    -54.3192E+06    -55.8212E+06    -167.386E+06    -55.3593E+06    -166.839E+06    -55.3282E+06    -7.10263E+06         46.2137
            1958     1.70833E-03     166.944E-03         3.31750         2.89016        -6.61069         3.23954        -6.53274         2.89016         1.70366     316.649E-03    -157.967E-03    -158.682E-03    -156.274E-03     314.314E-03    -158.041E-03     63.9825E-03    -54.0434E+06    -56.8627E+06    -163.741E+06    -56.4640E+06    -162.367E+06    -55.8156E+06    -10.7469E+06         46.3811
            1959     2.56151E-03     166.963E-03         3.67505         3.06422        -7.16568         3.58995        -7.08058         3.06422         1.85001     316.469E-03    -157.229E-03    -159.240E-03    -153.972E-03     311.201E-03    -157.229E-03     97.3011E-03    -58.0779E+06    -62.6416E+06    -169.335E+06    -63.3762E+06    -167.838E+06    -58.8410E+06    -11.2802E+06         46.7172
            1960     3.41907E-03     166.990E-03         3.73024         3.20916        -7.42021         3.67522        -7.36519         3.20916         1.52043     317.368E-03    -156.317E-03    -161.051E-03    -151.523E-03     307.841E-03    -156.317E-03     131.532E-03    -59.1541E+06    -68.9943E+06    -167.722E+06    -70.1496E+06    -166.566E+06    -59.1541E+06    -6.70106E+06         47.3107
            1961     4.28063E-03     167.024E-03         3.48941         3.27487        -7.30209         3.44618        -7.26691         3.28293         1.21214     322.012E-03    -155.598E-03    -166.413E-03    -151.323E-03     306.921E-03    -155.598E-03     167.251E-03    -50.5550E+06    -76.4530E+06    -161.503E+06    -78.3177E+06    -159.639E+06    -50.5550E+06     606.745E+03         48.2620
            1962     5.14019E-03     167.072E-03         3.27300         2.99804        -6.85798         2.96021        -6.82015         3.27300         1.19579     332.369E-03    -155.474E-03    -176.895E-03    -155.307E-03     310.781E-03    -155.474E-03     203.992E-03    -34.6672E+06    -82.5647E+06    -152.572E+06    -87.1793E+06    -147.957E+06    -34.6672E+06     6.99931E+06         49.6492
            1963     5.99481E-03     167.135E-03         3.18892         2.42141        -6.23036         2.35008        -6.15903         3.18892         1.51857     347.407E-03    -156.168E-03    -191.238E-03    -163.231E-03     319.400E-03    -156.168E-03     238.479E-03    -16.3768E+06    -85.2629E+06    -135.442E+06    -92.3863E+06    -128.319E+06    -16.3768E+06     11.2726E+06         51.5124
            1964     6.84016E-03     167.222E-03         3.05621         1.95141        -5.63307         1.80564        -5.48731         3.05621         2.02745     365.556E-03    -157.718E-03    -207.839E-03    -174.317E-03     332.035E-03    -157.718E-03     268.745E-03     4.24964E+06    -80.4557E+06    -115.072E+06    -91.1480E+06    -104.379E+06     4.24964E+06     13.1806E+06         53.8657
            1965     7.68251E-03     167.336E-03         2.90656         1.66808        -5.17672         1.45086        -4.95950         2.90656         2.38741     388.303E-03    -160.171E-03    -228.132E-03    -190.413E-03     350.584E-03    -160.171E-03     295.428E-03     27.5097E+06    -60.0035E+06    -93.2831E+06    -82.6870E+06    -70.5996E+06     27.5097E+06     13.8904E+06         56.6953
            1966     8.50796E-03     167.482E-03         2.76639         1.56400        -4.88315         1.31002        -4.62917         2.76639         2.49359     415.621E-03    -163.729E-03    -251.892E-03    -212.576E-03     376.305E-03    -163.729E-03     314.169E-03     49.5856E+06    -29.4983E+06    -75.1274E+06    -70.7183E+06    -33.9075E+06     49.5856E+06     12.7414E+06         59.9393
            1967     9.31490E-03     167.656E-03         2.64782         1.51170        -4.63626         1.28075        -4.40531         2.64782         2.29916     445.431E-03    -168.530E-03    -276.902E-03    -239.096E-03     407.625E-03    -168.530E-03     321.188E-03     69.0516E+06     9.65084E+06    -60.6919E+06    -58.7311E+06     7.69001E+06     69.0516E+06     10.6151E+06         63.5018
            1968     10.1015E-03     167.869E-03         2.54673         1.37948        -4.30449         1.21466        -4.13967         2.54673         1.87659     476.781E-03    -174.564E-03    -302.217E-03    -268.353E-03     442.917E-03    -174.564E-03     316.644E-03     89.1249E+06     59.2410E+06    -48.3296E+06    -47.7052E+06     59.5414E+06     88.2001E+06     6.23304E+06         67.3086
            1969     10.8628E-03     168.121E-03         2.45089         1.16810        -3.87397         1.03510        -3.74097         2.45089         1.60818     508.833E-03    -181.747E-03    -327.086E-03    -298.609E-03     480.356E-03    -181.747E-03     301.962E-03     100.125E+06     87.6375E+06    -38.7193E+06    -38.6715E+06     88.5145E+06     99.1998E+06     653.734E+03         71.3565
            1970     11.6030E-03     168.401E-03         2.34776     848.363E-03        -3.30815     717.343E-03        -3.17713         2.34776         1.42214     542.921E-03    -189.895E-03    -353.025E-03    -328.663E-03     518.559E-03    -189.895E-03     290.514E-03     98.8057E+06     88.3753E+06    -31.2792E+06    -31.2549E+06     88.3509E+06     98.8057E+06    -1.33760E+06         75.7264
            1971     12.3195E-03     168.750E-03         2.23098     500.809E-03        -2.68532     350.346E-03        -2.53486         2.23098         1.31155     571.105E-03    -198.784E-03    -372.321E-03    -353.284E-03     552.069E-03    -198.784E-03     262.981E-03     104.088E+06     87.2845E+06    -24.3040E+06    -24.0029E+06     86.9834E+06     104.088E+06    -2.18035E+06         80.5191
            1972     13.0171E-03     169.080E-03         2.09958     202.227E-03        -2.07448     35.9304E-03        -1.90818         2.09958         1.13783     596.379E-03    -207.912E-03    -388.467E-03    -368.296E-03     576.208E-03    -207.912E-03     276.778E-03     112.814E+06     69.7913E+06    -19.4160E+06    -17.8838E+06     68.2592E+06     112.814E+06    -2.06302E+06         85.7226
            1973     13.7086E-03     169.575E-03         1.96092    -103.238E-03        -1.42637    -218.510E-03        -1.31110         1.96092     651.990E-03     598.459E-03    -216.576E-03    -381.884E-03    -366.644E-03     583.219E-03    -216.576E-03     227.565E-03     130.581E+06     42.5736E+06    -16.5410E+06    -9.80357E+06     35.8363E+06     130.581E+06     17.2425E+03         90.6783
            1974     877.582E-06     168.270E-03         2.85631         2.69033        -5.91925         2.82300        -5.90246         2.70685     680.021E-03     261.842E-03    -130.331E-03    -131.511E-03    -130.354E-03     260.903E-03    -130.549E-03     34.5759E-03    -75.5452E+06    -79.1880E+06    -151.584E+06    -76.8583E+06    -150.933E+06    -78.5259E+06    -5.87052E+06         41.5225
            1975     1.75319E-03     168.277E-03         3.18096         2.84276        -6.42462         3.15321        -6.39687         2.84276     945.091E-03     260.690E-03    -129.934E-03    -130.756E-03    -127.563E-03     257.571E-03    -130.008E-03     66.8245E-03    -84.5769E+06    -89.5028E+06    -160.432E+06    -85.2007E+06    -159.808E+06    -89.5028E+06    -1.98340E+06         41.7605
            1976     2.63657E-03     168.293E-03         3.49865         2.99831        -6.94490         3.46673        -6.91297         2.99831         1.11784     260.812E-03    -128.978E-03    -131.834E-03    -124.941E-03     253.919E-03    -128.978E-03     100.932E-03    -91.8483E+06    -96.6798E+06    -178.959E+06    -98.8683E+06    -174.825E+06    -93.7936E+06     7.65795E+06         42.2445
            1977     3.52080E-03     168.314E-03         3.63833         3.13401        -7.27327         3.60769        -7.24263         3.13401         1.14970     265.056E-03    -128.166E-03    -136.890E-03    -124.747E-03     252.913E-03    -128.166E-03     136.050E-03    -91.1710E+06    -106.364E+06    -186.659E+06    -115.792E+06    -177.230E+06    -91.1710E+06     16.5571E+06         43.0948
            1978     4.40326E-03     168.352E-03         3.46471         3.21092        -7.23442         3.42704        -7.19679         3.21096         1.25228     275.631E-03    -128.093E-03    -147.539E-03    -129.213E-03     257.306E-03    -128.093E-03     171.311E-03    -75.9264E+06    -113.728E+06    -180.035E+06    -125.664E+06    -168.099E+06    -75.9264E+06     21.3523E+06         44.4198
            1979     5.28242E-03     168.409E-03         3.24121         3.02524        -6.87716         2.99361        -6.81284         3.20852         1.54992     292.806E-03    -129.095E-03    -163.711E-03    -138.910E-03     268.005E-03    -129.095E-03     206.473E-03    -49.3434E+06    -110.718E+06    -163.786E+06    -124.185E+06    -150.319E+06    -49.3434E+06     21.6387E+06         46.2961
            1980     6.15105E-03     168.498E-03         3.13414         2.55655        -6.33175         2.45121        -6.22641         3.13414         1.89623     316.077E-03    -131.304E-03    -184.773E-03    -153.997E-03     285.301E-03    -131.304E-03     240.410E-03    -21.8420E+06    -100.060E+06    -138.651E+06    -112.918E+06    -125.792E+06    -21.8420E+06     18.0161E+06         48.7699
            1981     7.00764E-03     168.610E-03         3.01268         2.12858        -5.78494         1.97773        -5.63408         3.01268         2.14808     345.114E-03    -134.841E-03    -210.273E-03    -175.103E-03     309.944E-03    -134.841E-03     270.497E-03     2.67746E+06    -83.0421E+06    -112.786E+06    -96.8659E+06    -98.9620E+06     2.67746E+06     14.3025E+06         51.8524
            1982     7.84390E-03     168.759E-03         2.87449         1.84887        -5.33399         1.68623        -5.17134         2.87449         2.11670     379.438E-03    -139.789E-03    -239.649E-03    -202.150E-03     341.939E-03    -139.789E-03     295.235E-03     25.8521E+06    -55.4041E+06    -88.2039E+06    -81.1969E+06    -62.4111E+06     25.8521E+06     11.8832E+06         55.5008
            1983     8.66226E-03     168.955E-03         2.73989         1.67726        -4.95874         1.52922        -4.81071         2.73989         1.90620     418.260E-03    -146.229E-03    -272.031E-03    -234.951E-03     381.180E-03    -146.229E-03     310.771E-03     45.7351E+06    -23.6826E+06    -69.8651E+06    -67.3171E+06    -26.2306E+06     45.7351E+06     9.11627E+06         59.6072
            1984     9.45213E-03     169.189E-03         2.61332         1.50485        -4.56276         1.38756        -4.44547         2.61332         1.62252     460.757E-03    -154.234E-03    -306.523E-03    -272.254E-03     426.489E-03    -154.234E-03     316.244E-03     65.9718E+06     18.9891E+06    -55.4472E+06    -54.4579E+06     17.9998E+06     65.9718E+06     6.43871E+06         64.0030
            1985     10.2106E-03     169.466E-03         2.48914         1.27028        -4.07770         1.17169        -3.97911         2.48914         1.42967     502.573E-03    -163.661E-03    -338.912E-03    -309.016E-03     472.677E-03    -163.661E-03     310.463E-03     91.1054E+06     71.9784E+06    -42.2816E+06    -42.0630E+06     75.4468E+06     87.4183E+06     4.59067E+06         68.5042
            1986     10.9456E-03     169.775E-03         2.35918         1.00966        -3.53388     876.745E-03        -3.40097         2.35918         1.51457     541.313E-03    -174.159E-03    -367.154E-03    -342.419E-03     516.579E-03    -174.159E-03     294.537E-03     100.992E+06     95.4153E+06    -30.8926E+06    -30.7870E+06     99.4453E+06     96.8561E+06     2.68731E+06         72.9827
            1987     11.6535E-03     170.121E-03         2.21749     736.645E-03        -2.93988     535.053E-03        -2.73829         2.21749         1.63635     576.828E-03    -185.282E-03    -391.546E-03    -370.301E-03     555.583E-03    -185.282E-03     283.215E-03     94.8468E+06     86.1951E+06    -21.7109E+06     -21.622E+06     86.5546E+06     94.3984E+06     1.76467E+06         77.4171
            1988     12.3400E-03     170.527E-03         2.06520     481.283E-03        -2.32626     196.630E-03        -2.04160         2.06520         1.63837     597.934E-03    -196.456E-03    -401.478E-03    -384.175E-03     580.631E-03    -196.456E-03     259.589E-03     100.573E+06     87.0679E+06    -15.9126E+06    -15.5193E+06     86.6745E+06     100.573E+06     4.81729E+06         81.9245
            1989     13.0198E-03     170.875E-03         1.90168     233.706E-03        -1.68183    -119.973E-03        -1.32815         1.90168         1.40428     610.612E-03    -206.958E-03    -403.654E-03    -384.465E-03     591.423E-03    -206.958E-03     274.220E-03     111.038E+06     75.2603E+06    -12.7834E+06    -10.3453E+06     72.8222E+06     111.038E+06     5.19314E+06         86.6926
            1990     13.7093E-03     171.368E-03         1.73406     8.21922E-03        -1.03793    -406.701E-03    -623.011E-03         1.73406     817.400E-03     604.897E-03    -216.275E-03    -388.622E-03    -373.994E-03     590.269E-03    -216.275E-03     225.782E-03     129.137E+06     47.2817E+06    -13.5050E+06    -5.93837E+06     39.7151E+06     129.137E+06     1.46478E+06         91.3604
            1991     903.065E-06     169.531E-03         2.88621         2.79396        -6.16968         2.86632        -6.16630         2.81047     158.389E-03     201.088E-03    -99.9474E-03    -101.141E-03    -99.6567E-03     199.748E-03    -100.091E-03     36.3545E-03    -109.147E+06    -117.582E+06    -174.085E+06    -121.721E+06    -161.904E+06    -117.190E+06     15.8318E+06         36.9244
            1992     1.81025E-03     169.536E-03         3.06597         2.88297        -6.46521         3.06071        -6.45996         2.88297     413.610E-03     203.083E-03    -99.9283E-03    -103.155E-03    -99.0707E-03     198.999E-03    -99.9283E-03     67.8933E-03    -127.666E+06    -137.836E+06    -198.004E+06    -148.713E+06    -176.957E+06    -137.836E+06     24.3435E+06         37.3894
            1993     2.71573E-03     169.544E-03         3.25851         2.97284        -6.80131         3.24544        -6.78823         2.97284     681.312E-03     208.673E-03    -100.062E-03    -108.611E-03    -100.162E-03     200.225E-03    -100.062E-03     100.580E-03    -133.759E+06    -144.336E+06    -216.183E+06    -162.465E+06    -194.572E+06    -137.241E+06     29.3609E+06         38.2256
            1994     3.62139E-03     169.571E-03         3.30412         3.04498        -6.96389         3.27394        -6.93370         3.04498         1.08458     220.494E-03    -100.915E-03    -119.579E-03    -105.623E-03     206.538E-03    -100.915E-03     134.087E-03    -114.616E+06    -138.071E+06    -209.323E+06    -158.775E+06    -188.619E+06    -114.616E+06     31.5833E+06         39.5266
            1995     4.52090E-03     169.619E-03         3.19905         3.00169        -6.85486         3.07404        -6.79600         3.06784         1.49248     239.174E-03    -102.842E-03    -136.331E-03    -116.267E-03     219.110E-03    -102.842E-03     168.515E-03    -82.9187E+06    -126.585E+06    -188.700E+06    -144.975E+06    -170.310E+06    -82.9187E+06     27.8639E+06         41.3714
            1996     5.40746E-03     169.701E-03         3.05973         2.75684        -6.50339         2.68904        -6.40289         3.02704         1.88537     263.629E-03    -105.949E-03    -157.680E-03    -131.735E-03     237.684E-03    -105.949E-03     202.456E-03    -51.2638E+06    -113.104E+06    -159.942E+06    -128.177E+06    -144.868E+06    -51.2638E+06     21.1019E+06         43.8257
            1997     6.28457E-03     169.812E-03         2.93125         2.41023        -6.04591         2.27749        -5.91317         2.93125         2.09261     294.385E-03    -110.317E-03    -184.069E-03    -153.341E-03     263.658E-03    -110.317E-03     234.570E-03    -24.2536E+06    -99.5803E+06    -127.841E+06    -112.483E+06    -114.938E+06    -24.2536E+06     13.1844E+06         46.9425
            1998     7.14239E-03     169.972E-03         2.80443         2.11612        -5.60863         1.98292        -5.47543         2.80443         2.00530     333.177E-03    -116.199E-03    -216.978E-03    -183.212E-03     299.411E-03    -116.199E-03     263.970E-03    -3.58385E+06    -83.5464E+06    -104.258E+06    -97.3964E+06    -90.4084E+06    -3.58385E+06     5.79969E+06         50.7267
            1999     7.97475E-03     170.174E-03         2.66674         1.88378        -5.18513         1.78369        -5.08504         2.66674         1.64847     378.794E-03    -123.812E-03    -254.982E-03    -220.141E-03     343.953E-03    -123.812E-03     288.568E-03     17.4151E+06    -53.1882E+06    -83.5561E+06    -80.9433E+06    -55.8010E+06     17.4151E+06     2.02301E+06         55.0947
            2000     8.77651E-03     170.431E-03         2.52728         1.70899        -4.78242         1.63808        -4.71152         2.52728         1.34117     427.806E-03    -133.139E-03    -294.668E-03    -260.949E-03     394.087E-03    -133.139E-03     304.141E-03     37.7034E+06    -18.7879E+06    -65.7389E+06    -64.7400E+06    -19.7869E+06     37.7034E+06    -203.245E+03         59.8757
            2001     9.54877E-03     170.740E-03         2.38596         1.52722        -4.33489         1.45746        -4.26512         2.38596         1.26959     478.310E-03    -144.010E-03    -334.300E-03    -303.330E-03     447.340E-03    -144.010E-03     310.456E-03     58.2844E+06     20.7208E+06    -50.4744E+06    -50.2641E+06     20.5105E+06     58.2844E+06     432.278E+03         64.8403
            2002     10.2898E-03     171.100E-03         2.23660         1.27838        -3.78120         1.17717        -3.67999         2.23660         1.38320     527.645E-03    -156.187E-03    -371.459E-03    -344.434E-03     500.621E-03    -156.187E-03     306.063E-03      93.324E+06     68.7024E+06    -39.1832E+06    -39.1131E+06     80.7479E+06     81.2084E+06     2.56354E+06         69.7301
            2003     10.9958E-03     171.479E-03         2.07512         1.03578        -3.19522     840.882E-03        -3.00032         2.07512         1.69786     570.904E-03    -169.260E-03    -401.644E-03    -378.902E-03     548.162E-03    -169.260E-03     293.329E-03     106.672E+06     89.9087E+06    -33.0817E+06    -32.9590E+06     106.549E+06     89.9087E+06     1.44767E+06         74.3150
            2004     11.6779E-03     171.897E-03         1.90044     821.682E-03        -2.59929     482.005E-03        -2.25962         1.90044         1.96448     601.976E-03    -182.504E-03    -419.472E-03    -399.228E-03     581.732E-03    -182.504E-03     284.638E-03     89.7857E+06     80.6948E+06    -30.7980E+06    -30.6111E+06     85.4941E+06     84.7995E+06    -562.625E+03         78.5235
            2005     12.3548E-03     172.326E-03         1.71658     595.260E-03        -1.95972     118.307E-03        -1.48277         1.71658         1.92476     613.513E-03    -195.083E-03    -418.430E-03    -401.567E-03     596.650E-03    -195.083E-03     260.778E-03     92.8736E+06     80.0933E+06    -26.6643E+06    -25.3922E+06     79.1598E+06     92.5351E+06    -2.37014E+06         82.5869
            2006     13.0329E-03     172.700E-03         1.52248     370.888E-03        -1.29266    -201.255E-03    -720.519E-03         1.52248         1.49500     618.167E-03    -206.368E-03    -411.799E-03    -393.747E-03     600.115E-03    -206.368E-03     268.482E-03     106.406E+06     68.2070E+06    -18.6519E+06    -15.2798E+06     64.8349E+06     106.406E+06    -609.503E+03         86.9197
            2007     13.7161E-03     173.164E-03         1.32968     352.423E-03    -814.364E-03    -478.995E-03     17.0545E-03         1.32968     819.709E-03     607.814E-03    -216.086E-03    -391.728E-03    -378.233E-03     594.319E-03    -216.086E-03     218.297E-03     128.641E+06     51.2514E+06    -11.6151E+06    -4.68533E+06     44.3216E+06     128.641E+06     2.90454E+06         91.3491
            2008     935.744E-06     170.715E-03         2.96336         2.88904        -6.56612         2.92143        -6.55983         2.92468     1.51502E-03     141.681E-03    -69.5696E-03    -72.1113E-03    -70.4649E-03     140.034E-03    -69.5696E-03     34.7579E-03    -170.506E+06    -197.921E+06    -252.052E+06    -206.097E+06    -216.462E+06    -197.921E+06     36.8827E+06         32.9606
            2009     1.86611E-03     170.719E-03         2.99587         2.91888        -6.65840         2.97760        -6.65506         2.93381     44.6969E-03     150.990E-03    -71.2574E-03    -79.7322E-03    -74.9214E-03     146.179E-03    -71.2574E-03     64.3043E-03    -153.935E+06    -172.413E+06    -249.116E+06    -196.627E+06    -206.424E+06    -172.413E+06     46.9959E+06         33.7361
            2010     2.79286E-03     170.737E-03         3.02430         2.86771        -6.66471         2.94242        -6.65829         2.94317     435.440E-03     166.523E-03    -73.8977E-03    -92.6254E-03    -83.0661E-03     156.964E-03    -73.8977E-03     96.8100E-03    -144.607E+06    -160.381E+06    -238.708E+06    -187.868E+06    -205.235E+06    -150.593E+06     40.7488E+06         35.0204
            2011     3.70928E-03     170.775E-03         2.96915         2.76356        -6.52662         2.78131        -6.49514         2.91992         1.01238     187.709E-03    -77.5305E-03    -110.179E-03    -95.0305E-03     172.561E-03    -77.5305E-03     130.489E-03    -124.994E+06    -152.281E+06    -212.350E+06    -176.575E+06    -188.056E+06    -124.994E+06     27.8913E+06         36.8486
            2012     4.61441E-03     170.848E-03         2.86110         2.55607        -6.22593         2.48795        -6.14853         2.85182         1.60794     213.670E-03    -82.1187E-03    -131.551E-03    -110.770E-03     192.889E-03    -82.1187E-03     164.078E-03    -95.2706E+06    -140.024E+06    -181.375E+06    -158.761E+06    -162.639E+06    -95.2706E+06     15.8177E+06         39.2613
            2013     5.51002E-03     170.954E-03         2.74178         2.30350        -5.86024         2.17529        -5.73203         2.74178         2.01078     245.651E-03    -87.7483E-03    -157.903E-03    -132.093E-03     219.841E-03    -87.7483E-03     197.472E-03    -63.8641E+06    -119.650E+06    -151.922E+06    -135.196E+06    -136.377E+06    -63.8641E+06     6.78652E+06         42.3119
            2014     6.38353E-03     171.108E-03         2.60568         2.08232        -5.48907         1.94228        -5.34903         2.60568         2.03468     285.059E-03    -94.6710E-03    -190.388E-03    -160.848E-03     255.519E-03    -94.6710E-03     229.473E-03    -33.9557E+06    -95.4698E+06    -118.369E+06    -110.451E+06    -103.388E+06    -33.9557E+06     666.934E+03         46.0336
            2015     7.23488E-03     171.313E-03         2.45825         1.90186        -5.11998         1.79373        -5.01186         2.45825         1.72208     331.601E-03    -103.148E-03    -228.453E-03    -196.942E-03     300.090E-03    -103.148E-03     257.862E-03    -10.6206E+06    -76.9402E+06    -95.8870E+06    -89.3138E+06    -83.5134E+06    -10.6206E+06    -3.90949E+06         50.3938
            2016     8.05848E-03     171.585E-03         2.30767         1.77879        -4.76953         1.71026        -4.70100         2.30767         1.32016     384.055E-03    -113.286E-03    -270.769E-03    -239.148E-03     352.434E-03    -113.286E-03     280.270E-03     10.6747E+06    -46.4899E+06    -79.8875E+06    -74.9614E+06    -51.4160E+06     10.6747E+06    -4.91508E+06         55.2654
            2017     8.84895E-03     171.916E-03         2.15287         1.63941        -4.36136         1.58846        -4.31041         2.15287         1.09814     439.558E-03    -125.051E-03    -314.507E-03    -284.473E-03     409.524E-03    -125.051E-03     294.211E-03     30.4856E+06    -10.7707E+06    -66.7347E+06    -65.7152E+06    -11.7902E+06     30.4856E+06    -6.84705E+06         60.4281
            2018     9.60473E-03     172.307E-03         1.98528         1.44993        -3.85711         1.37609        -3.78327         1.98528         1.21504     494.530E-03    -138.214E-03    -356.317E-03    -329.035E-03     467.249E-03    -138.214E-03     298.894E-03     44.8897E+06     16.7637E+06    -60.4426E+06    -59.3599E+06     15.6811E+06     44.8897E+06    -7.57490E+06         65.5984
            2019     10.3289E-03     172.748E-03         1.79758         1.20908        -3.25441         1.06415        -3.10948         1.79758         1.51956     545.058E-03    -152.368E-03    -392.690E-03    -368.667E-03     521.035E-03    -152.368E-03     295.517E-03     83.4493E+06     53.5108E+06    -54.5007E+06    -54.0748E+06     72.3258E+06     64.2084E+06    -3.26255E+06         70.4733
            2020     11.0227E-03     173.229E-03         1.58905     968.841E-03        -2.61021     698.986E-03        -2.34035         1.58905         1.83306     585.285E-03    -166.949E-03    -418.337E-03    -397.284E-03     564.233E-03    -166.949E-03     287.208E-03     109.157E+06     78.3518E+06    -48.8722E+06    -48.7487E+06     109.034E+06     78.3518E+06    -117.595E+03         74.8261
            2021     11.6982E-03     173.690E-03         1.36423     776.266E-03        -1.98297     348.252E-03        -1.55496         1.36423         1.94923     611.462E-03    -181.203E-03    -430.260E-03    -410.843E-03     592.046E-03    -181.203E-03     281.658E-03     100.983E+06     85.9372E+06    -40.5714E+06    -39.9956E+06     100.408E+06     85.9372E+06    -5.03623E+06         78.6540
            2022     12.3643E-03     174.153E-03         1.13767     632.056E-03        -1.38615     55.9708E-03    -810.060E-03         1.13767         1.77260     620.184E-03    -194.434E-03    -425.751E-03    -409.497E-03     603.931E-03    -194.434E-03     257.780E-03     101.600E+06     79.8930E+06    -31.2753E+06    -29.4504E+06     81.5499E+06     98.1181E+06    -13.1168E+06         82.2900
            2023     13.0320E-03     174.515E-03         1.00650     480.725E-03    -861.311E-03    -196.729E-03    -91.7834E-03     914.429E-03         1.30758     621.875E-03    -206.134E-03    -415.741E-03    -399.067E-03     605.201E-03    -206.134E-03     259.650E-03     102.837E+06     46.3956E+06    -22.3377E+06    -19.8434E+06     43.9013E+06     102.837E+06    -12.6066E+06         86.2457
            2024     13.7072E-03     174.985E-03         1.08186     437.406E-03    -639.403E-03    -471.108E-03     643.171E-03     707.802E-03     724.124E-03     607.460E-03    -216.033E-03    -391.427E-03    -379.170E-03     595.203E-03    -216.033E-03     208.635E-03     118.331E+06     39.2136E+06    -18.4318E+06    -11.5804E+06     32.3622E+06     118.331E+06    -5.87709E+06         90.5081
            2025     957.861E-06     171.830E-03         2.99178         2.75683        -6.77458         2.91005        -6.76212         2.82609    -332.033E-03     97.8151E-03    -47.3441E-03    -50.4710E-03    -49.0071E-03     96.3790E-03    -47.3718E-03     27.1347E-03    -246.953E+06    -356.318E+06    -377.560E+06    -357.085E+06    -264.161E+06    -359.584E+06     9.79285E+06         30.2341
            2026     1.91067E-03     171.848E-03         2.83311         2.71479        -6.59419         2.71054        -6.58873         2.83190    -326.822E-03     112.075E-03    -50.1497E-03    -61.9255E-03    -57.3742E-03     107.524E-03    -50.1497E-03     54.4737E-03    -197.984E+06    -287.503E+06    -330.260E+06    -300.747E+06    -227.498E+06    -287.503E+06     12.3829E+06         31.2204
            2027     2.85011E-03     171.883E-03         2.74730         2.50143        -6.29111         2.49670        -6.28638         2.74730     39.9515E-03     134.844E-03    -54.6380E-03    -80.2061E-03    -70.6693E-03     125.307E-03    -54.6380E-03     88.0525E-03    -168.485E+06    -216.349E+06    -271.742E+06    -238.588E+06    -204.644E+06    -213.345E+06     9.35881E+06         32.8284
            2028     3.77573E-03     171.950E-03         2.62855         2.22397        -5.89055         2.20170        -5.86828         2.62855     701.135E-03     163.876E-03    -60.3947E-03    -103.481E-03    -88.0018E-03     148.396E-03    -60.3947E-03     124.700E-03    -140.897E+06    -166.411E+06    -211.098E+06    -187.235E+06    -179.723E+06    -151.447E+06     2.69633E+06         35.0783
            2029     4.68701E-03     172.047E-03         2.47994         1.98104        -5.48368         1.91600        -5.41864         2.47994         1.34984     198.321E-03    -67.2424E-03    -131.079E-03    -110.053E-03     177.295E-03    -67.2424E-03     161.031E-03    -107.788E+06    -136.220E+06    -167.534E+06    -151.000E+06    -152.754E+06    -107.788E+06    -3.89730E+06         37.9937
            2030     5.57717E-03     172.191E-03         2.31549         1.82473        -5.13293         1.72389        -5.03209         2.31549         1.63905     239.003E-03    -75.3157E-03    -163.687E-03    -138.337E-03     213.652E-03    -75.3157E-03     195.572E-03    -74.3061E+06    -111.298E+06    -141.215E+06    -125.942E+06    -126.571E+06    -74.3061E+06    -10.1850E+06         41.5894
            2031     6.44803E-03     172.390E-03         2.14809         1.74017        -4.83499         1.64222        -4.73704         2.14809         1.57051     286.165E-03    -84.8179E-03    -201.347E-03    -173.323E-03     258.141E-03    -84.8179E-03     226.732E-03    -43.9248E+06    -86.2949E+06    -118.772E+06    -108.241E+06    -96.8250E+06    -43.9248E+06    -14.3108E+06         45.8329
            2032     7.28855E-03     172.657E-03         1.98278         1.69650        -4.55592         1.63186        -4.49128         1.98278         1.21326     339.162E-03    -95.8593E-03    -243.303E-03    -214.404E-03     310.263E-03    -95.8593E-03     252.508E-03    -21.7432E+06    -69.3995E+06    -108.458E+06    -96.5004E+06    -81.3574E+06    -21.7432E+06    -15.8131E+06         50.6176
            2033     8.09703E-03     172.992E-03         1.82433         1.61344        -4.21457         1.58886        -4.17856         1.81290     847.316E-03     395.670E-03    -108.417E-03    -287.253E-03    -259.239E-03     367.656E-03    -108.417E-03     270.118E-03     151.825E+03    -44.2849E+06    -97.5766E+06    -88.0256E+06    -53.8360E+06     151.825E+03    -14.6403E+06         55.7501
            2034     8.87339E-03     173.404E-03         1.64816         1.44542        -3.74020         1.44134        -3.71245         1.62450     725.201E-03     452.755E-03    -122.340E-03    -330.414E-03    -304.908E-03     427.249E-03    -122.340E-03     276.874E-03     23.4682E+06    -4.63432E+06    -82.3549E+06    -78.9896E+06    -7.99962E+06     23.4682E+06    -13.9513E+06         60.9570
            2035     9.61523E-03     173.878E-03         1.42067         1.21259        -3.12723         1.17269        -3.07130         1.40464     923.194E-03     507.203E-03    -137.343E-03    -369.860E-03    -347.412E-03     484.754E-03    -137.343E-03     275.881E-03     39.3681E+06     16.3969E+06    -69.4972E+06    -66.5800E+06     13.4797E+06     39.3681E+06    -14.8588E+06         65.9132
            2036     10.3226E-03     174.407E-03         1.15403     945.355E-03        -2.42634     833.973E-03        -2.30877         1.14784         1.19319     551.573E-03    -152.806E-03    -398.767E-03    -378.990E-03     531.796E-03    -152.806E-03     270.468E-03       68.33E+06     42.8537E+06    -51.9069E+06    -50.1058E+06     50.9401E+06     58.4424E+06    -9.86113E+06         70.3372
            2037     11.0131E-03     174.950E-03     940.568E-03     654.434E-03        -1.74694     507.805E-03        -1.52271     862.964E-03         1.36162     582.528E-03    -167.976E-03    -414.552E-03    -396.932E-03     564.908E-03    -167.976E-03     262.116E-03     100.683E+06     78.1514E+06    -30.1039E+06    -29.9075E+06     95.2078E+06     83.4306E+06    -162.500E+03         74.1360
            2038     11.6903E-03     175.480E-03     827.387E-03     396.371E-03        -1.18727     255.760E-03    -790.979E-03     571.705E-03         1.45545     602.342E-03    -182.262E-03    -420.079E-03    -403.862E-03     586.125E-03    -182.262E-03     254.934E-03     122.784E+06     105.128E+06    -17.0959E+06    -14.9028E+06     117.402E+06     108.318E+06     6.35278E+06         77.4792
            2039     12.3629E-03     175.967E-03     774.638E-03     224.602E-03    -754.675E-03     59.8458E-03    -116.587E-03     301.306E-03         1.34348     611.673E-03    -195.292E-03    -416.382E-03    -402.360E-03     597.652E-03    -195.292E-03     237.598E-03     130.530E+06     106.538E+06    -15.0442E+06    -11.6579E+06     110.253E+06     123.429E+06     6.09444E+06         80.7561
            2040     13.0313E-03     176.364E-03     902.266E-03     117.382E-03    -550.451E-03    -147.861E-03     558.729E-03     58.3288E-03         1.01069     613.195E-03    -206.767E-03    -406.428E-03    -392.254E-03     599.022E-03    -206.767E-03     237.353E-03     121.230E+06     64.7804E+06    -15.7776E+06    -13.4701E+06     62.4729E+06     121.230E+06    -3.23989E+06         84.4378
            2041     13.7147E-03     176.785E-03         1.34688    -15.4560E-03    -606.154E-03    -400.605E-03         1.27098    -145.110E-03     557.110E-03     597.305E-03    -216.405E-03    -380.900E-03    -370.865E-03     587.269E-03    -216.405E-03     187.064E-03     131.727E+06     42.8814E+06    -28.3286E+06    -8.11606E+06     22.6689E+06     131.727E+06    -10.3772E+06         88.6452
            2042     964.112E-06     172.913E-03         2.63906         2.19791        -6.25669         2.36311        -6.23665         2.45382    -680.713E-03     82.4971E-03    -39.9356E-03    -42.5614E-03    -41.7375E-03     81.7008E-03    -39.9633E-03     17.9106E-03    -239.308E+06    -396.016E+06    -410.549E+06    -401.013E+06    -245.578E+06    -399.282E+06    -28.5833E+06         29.3118
            2043     1.92362E-03     172.941E-03         2.36800         2.21007        -5.97306         2.20401        -5.94623         2.34723    -818.774E-03     95.0355E-03    -42.6114E-03    -52.4241E-03    -49.5319E-03     92.1434E-03    -42.6114E-03     39.0225E-03    -199.437E+06    -356.978E+06    -382.534E+06    -368.834E+06    -213.137E+06    -356.978E+06    -44.1750E+06         30.3053
            2044     2.87413E-03     173.002E-03         2.21503         1.90472        -5.50766         1.88846        -5.49141         2.21503    -536.300E-03     116.173E-03    -46.8957E-03    -69.2771E-03    -62.3802E-03     109.276E-03    -46.8957E-03     68.8634E-03    -167.934E+06    -294.739E+06    -341.210E+06    -319.416E+06    -189.728E+06    -294.739E+06    -55.0574E+06         31.9564
            2045     3.81063E-03     173.092E-03         2.04330         1.63078        -5.03344         1.62056        -5.02323         2.04330     40.2191E-03     146.524E-03    -52.7307E-03    -93.7936E-03    -81.4024E-03     134.133E-03    -52.7307E-03     105.554E-03    -136.120E+06    -232.460E+06    -292.573E+06    -260.109E+06    -170.625E+06    -230.418E+06    -59.8997E+06         34.3332
            2046     4.72575E-03     173.230E-03         1.86097         1.51764        -4.68143         1.49177        -4.65556         1.86097     543.506E-03     187.089E-03    -60.2930E-03    -126.796E-03    -108.637E-03     168.930E-03    -60.2930E-03     146.235E-03    -102.485E+06    -179.467E+06    -247.269E+06    -203.788E+06    -151.097E+06    -174.335E+06    -58.6869E+06         37.4853
            2047     5.61599E-03     173.419E-03         1.74201         1.44388        -4.42570         1.46880        -4.39146         1.68285     786.822E-03     236.720E-03    -69.8433E-03    -166.877E-03    -144.229E-03     214.072E-03    -69.8433E-03     185.451E-03    -77.3071E+06    -131.584E+06    -202.548E+06    -159.961E+06    -130.646E+06    -120.832E+06    -51.3494E+06         41.3958
            2048     6.47265E-03     173.675E-03         1.70724         1.36597        -4.24016         1.52986        -4.20622         1.50942     614.389E-03     292.400E-03    -81.3887E-03    -211.011E-03    -186.128E-03     267.517E-03    -81.3887E-03     217.712E-03    -54.6604E+06    -88.4218E+06    -159.378E+06    -128.428E+06    -107.654E+06    -66.3783E+06    -39.2022E+06         45.9500
            2049     7.29955E-03     174.001E-03         1.65556         1.28706        -4.01975         1.58906        -3.99739         1.33120     271.314E-03     351.879E-03    -94.6909E-03    -257.189E-03    -232.417E-03     327.108E-03    -94.6909E-03     239.652E-03    -26.9450E+06    -63.7863E+06    -128.295E+06    -105.157E+06    -86.9245E+06    -26.9450E+06    -29.1484E+06         50.9354
            2050     8.09161E-03     174.412E-03         1.51384         1.12688        -3.61004         1.50299        -3.60126         1.12896     48.7440E-03     411.851E-03    -109.530E-03    -302.321E-03    -279.748E-03     389.278E-03    -109.530E-03     248.198E-03     301.744E+03    -45.2404E+06    -100.959E+06    -83.4771E+06    -62.7221E+06     301.744E+03    -22.0561E+06         56.0515
            2051     8.84664E-03     174.895E-03         1.27761     882.146E-03        -3.00917         1.26444        -2.99600     882.146E-03     316.039E-06     467.798E-03    -125.560E-03    -342.238E-03    -323.016E-03     448.576E-03    -125.560E-03     244.495E-03     28.6538E+06    -6.11956E+06    -70.2611E+06    -62.8735E+06    -13.5071E+06     28.6538E+06    -14.8518E+06         60.9412
            2052     9.56810E-03     175.450E-03     961.348E-03     581.099E-03        -2.26636     938.881E-03        -2.24389     581.099E-03     185.610E-03     514.374E-03    -142.153E-03    -372.222E-03    -356.064E-03     498.217E-03    -142.153E-03     235.233E-03     54.0371E+06     23.2358E+06    -48.8196E+06    -46.3738E+06     20.7899E+06     54.0371E+06    -12.2721E+06         65.2757
            2053     10.2688E-03     176.045E-03     639.866E-03     236.281E-03        -1.47688     600.188E-03        -1.43721     236.281E-03     475.484E-03     547.040E-03    -158.393E-03    -388.647E-03    -374.741E-03     533.134E-03    -158.393E-03     224.664E-03     73.1377E+06     42.2091E+06     -37.784E+06    -34.0342E+06     38.4593E+06     73.1377E+06    -14.7219E+06         68.9022
            2054     10.9545E-03     176.640E-03     475.709E-03     66.1865E-03        -1.01294     343.885E-03    -690.791E-03    -124.136E-03     684.905E-03     567.296E-03    -173.442E-03    -393.855E-03    -381.272E-03     554.714E-03    -173.442E-03     217.286E-03     86.1704E+06     61.1515E+06    -31.8565E+06    -29.1994E+06     58.4944E+06     86.1704E+06    -10.6033E+06         71.9354
            2055     11.6356E-03     177.216E-03     575.421E-03     23.8878E-03    -923.962E-03     172.743E-03    -26.8250E-03    -470.571E-03     786.352E-03     578.808E-03    -186.878E-03    -391.930E-03    -379.863E-03     566.741E-03    -186.878E-03     214.620E-03     113.260E+06     90.4881E+06    -31.3441E+06    -28.4762E+06     91.5780E+06     109.302E+06     301.830E+03         74.7159
            2056     12.3175E-03     177.734E-03     855.758E-03    -85.5227E-03    -923.235E-03     47.1165E-03     579.364E-03    -779.480E-03     615.741E-03     585.528E-03    -198.581E-03    -386.947E-03    -375.169E-03     573.750E-03    -198.581E-03     212.581E-03     141.130E+06     120.195E+06    -22.9554E+06    -19.5676E+06     120.765E+06     137.172E+06     5.13302E+06         77.7208
            2057     13.0009E-03     178.177E-03         1.24356    -142.972E-03        -1.04617    -59.1836E-03         1.15365        -1.04005     391.441E-03     589.548E-03    -208.624E-03    -380.925E-03    -368.004E-03     576.628E-03    -208.624E-03     221.734E-03     139.879E+06     94.3610E+06    -8.77745E+06    -4.11951E+06     89.7030E+06     139.879E+06     4.24711E+06         81.3912
            2058     13.6890E-03     178.551E-03         1.78482    -231.254E-03        -1.22786    -214.233E-03         1.76780        -1.22786     218.261E-03     578.380E-03    -217.202E-03    -361.178E-03    -352.233E-03     569.434E-03    -217.202E-03     173.853E-03     156.761E+06     48.9463E+06    -20.0946E+06     1.22078E+06     27.6309E+06     156.761E+06     2.58289E+06         85.8038
            2059     956.698E-06     173.995E-03         1.75382         1.23996        -4.85045         1.46012        -4.80491         1.48811    -907.100E-03     99.4640E-03    -48.7102E-03    -50.7537E-03    -50.3194E-03     99.2535E-03    -48.9341E-03     6.57680E-03    -171.077E+06    -295.118E+06    -314.243E+06    -303.381E+06    -180.866E+06    -296.192E+06    -34.4609E+06         30.7202
            2060     1.90774E-03     174.036E-03         1.42518         1.33139        -4.60409         1.27949        -4.51923         1.39223        -1.30781     108.351E-03    -51.2493E-03    -57.1022E-03    -56.2227E-03     107.472E-03    -51.2493E-03     16.1607E-03    -138.231E+06    -281.243E+06    -320.492E+06    -297.181E+06    -161.543E+06    -281.243E+06    -60.2713E+06         31.6016
            2061     2.85333E-03     174.106E-03         1.35672         1.11716        -4.29783         1.11956        -4.20057         1.25707        -1.24694     122.821E-03    -54.7992E-03    -68.0222E-03    -65.6118E-03     120.411E-03    -54.7992E-03     33.0165E-03    -109.823E+06    -260.057E+06    -325.907E+06    -287.414E+06    -148.316E+06    -260.057E+06    -82.0750E+06         33.0774
            2062     3.78778E-03     174.224E-03         1.27738     941.266E-03        -3.96514         1.05162        -3.90369         1.10557    -873.164E-03     146.325E-03    -59.8452E-03    -86.4794E-03    -81.3396E-03     141.185E-03    -59.8452E-03     58.5365E-03    -86.4440E+06    -234.445E+06    -325.857E+06    -271.503E+06    -140.797E+06    -234.445E+06    -99.3732E+06         35.2435
            2063     4.70549E-03     174.394E-03         1.22967     876.941E-03        -3.78348         1.11926        -3.74711     950.973E-03    -549.086E-03     181.790E-03    -66.8904E-03    -114.900E-03    -106.005E-03     172.895E-03    -66.8904E-03     92.4898E-03    -70.9661E+06    -206.379E+06    -313.906E+06    -245.908E+06    -138.964E+06    -206.379E+06    -108.239E+06         38.1817
            2064     5.59369E-03     174.639E-03         1.37909     782.970E-03        -3.75680         1.32248        -3.71485     797.629E-03    -461.937E-03     229.751E-03    -76.3519E-03    -153.399E-03    -140.900E-03     217.251E-03    -76.3519E-03     129.258E-03    -63.6742E+06    -171.551E+06    -290.073E+06    -213.822E+06    -139.925E+06    -171.551E+06    -106.414E+06         41.8928
            2065     6.44866E-03     174.955E-03         1.55189     637.214E-03        -3.69857         1.50909        -3.65576     637.214E-03    -630.511E-03     288.144E-03    -88.4172E-03    -199.727E-03    -185.125E-03     273.542E-03    -88.4172E-03     159.837E-03    -54.0724E+06    -134.718E+06    -255.922E+06    -179.194E+06    -136.623E+06    -128.894E+06    -95.5484E+06         46.2325
            2066     7.26038E-03     175.357E-03         1.56834     445.009E-03        -3.44383         1.51894        -3.39443     445.009E-03    -822.836E-03     351.784E-03    -102.928E-03    -248.856E-03    -234.412E-03     337.340E-03    -102.928E-03     176.830E-03    -28.3814E+06    -106.003E+06    -219.279E+06    -146.465E+06    -119.002E+06    -88.1963E+06    -85.0122E+06         50.8923
            2067     8.02928E-03     175.839E-03         1.40832     193.508E-03        -2.95170         1.34115        -2.88453     193.508E-03    -876.641E-03     413.377E-03    -119.407E-03    -293.970E-03    -281.560E-03     400.967E-03    -119.407E-03     177.822E-03    -10.8927E+06    -82.2524E+06    -193.103E+06    -121.641E+06    -108.842E+06    -55.7655E+06    -76.7350E+06         55.4559
            2068     8.75924E-03     176.400E-03         1.10201    -129.645E-03        -2.24431         1.02707        -2.16937    -129.645E-03    -832.865E-03     465.977E-03    -136.920E-03    -329.057E-03    -319.056E-03     455.977E-03    -136.920E-03     169.690E-03     14.1496E+06    -49.3882E+06    -164.366E+06    -103.096E+06    -70.2545E+06    -26.2537E+06    -71.1693E+06         59.5171
            2069     9.46064E-03     177.013E-03     694.139E-03    -296.704E-03        -1.60470     643.344E-03        -1.33709    -513.517E-03    -507.475E-03     503.922E-03    -154.381E-03    -349.541E-03    -341.342E-03     495.723E-03    -154.381E-03     160.367E-03      41.256E+06    -5.72636E+06    -137.710E+06    -89.0183E+06    -29.9350E+06     16.7730E+06    -64.8464E+06         62.8324
            2070     10.1470E-03     177.648E-03     458.078E-03    -311.784E-03        -1.29153     321.672E-03    -537.835E-03    -929.075E-03    -189.171E-03     526.082E-03    -170.561E-03    -355.521E-03    -348.284E-03     518.845E-03    -170.561E-03     155.312E-03     64.8284E+06     30.0057E+06    -115.067E+06    -79.2514E+06    -5.80997E+06     64.8284E+06    -56.0841E+06         65.4406
            2071     10.8346E-03     178.279E-03     576.224E-03    -263.416E-03        -1.38526     125.699E-03     147.810E-03        -1.34596    -194.736E-03     537.696E-03    -184.517E-03    -353.180E-03    -345.981E-03     530.498E-03    -184.517E-03     157.543E-03     89.1219E+06     25.7278E+06    -93.7546E+06    -67.7657E+06    -261.090E+03     89.1219E+06    -41.1374E+06         67.6496
            2072     11.5330E-03     178.878E-03     896.442E-03    -132.042E-03        -1.73689     36.1581E-03     728.241E-03        -1.73689    -284.098E-03     541.249E-03    -196.037E-03    -345.212E-03    -337.460E-03     533.497E-03    -196.037E-03     163.579E-03     115.246E+06     52.1112E+06    -62.8514E+06    -47.5832E+06     36.8430E+06     115.246E+06    -25.1404E+06         69.9334
            2073     12.2460E-03     179.431E-03         1.27989    -39.5470E-03        -2.07202     30.1360E-03         1.21021        -2.07202    -381.931E-03     538.624E-03    -205.213E-03    -333.412E-03    -324.663E-03     529.875E-03    -205.213E-03     172.446E-03     148.568E+06     101.260E+06    -28.7321E+06    -26.2507E+06     98.7788E+06     148.568E+06    -16.9809E+06         72.8452
            2074     12.9719E-03     179.906E-03         1.68183     10.2747E-03        -2.33704     42.8375E-03         1.64927        -2.33704    -357.389E-03     541.686E-03    -212.431E-03    -329.255E-03    -317.811E-03     530.242E-03    -212.431E-03     196.918E-03     143.564E+06     72.9188E+06    -19.5912E+06    -15.1462E+06     68.4739E+06     143.564E+06    -4.11185E+06         76.8516
            2075     13.6963E-03     180.323E-03         2.06976     36.2006E-03        -2.50036     48.0249E-03         2.05794        -2.50036    -186.139E-03     543.438E-03    -218.626E-03    -324.811E-03    -316.365E-03     534.991E-03    -218.626E-03     161.705E-03     165.598E+06     40.9042E+06    -18.4814E+06    -6.72065E+06     29.1434E+06     165.598E+06     8.19847E+06         82.0583
            2076     932.349E-06     175.118E-03     430.636E-03    -46.8354E-03        -2.79218     117.834E-03        -2.60559     79.3743E-03        -1.04903     152.802E-03    -75.8030E-03    -76.9989E-03    -76.4985E-03     152.525E-03    -76.0269E-03    -11.7621E-03    -103.457E+06    -196.788E+06    -211.355E+06    -201.392E+06    -112.346E+06    -197.862E+06    -28.2664E+06         34.8039
            2077     1.86090E-03     175.164E-03     380.723E-03    -10.8684E-03        -2.76660     1.57566E-03        -2.41332     14.9938E-03        -1.53227     160.498E-03    -78.4017E-03    -82.0966E-03    -81.2626E-03     159.664E-03    -78.4017E-03    -20.7215E-03    -76.3847E+06    -181.415E+06    -219.764E+06    -197.967E+06    -98.1815E+06    -181.415E+06    -50.8292E+06         35.6368
            2078     2.78131E-03     175.246E-03     528.845E-03    -83.0454E-03        -2.77500     58.6192E-03        -2.30478    -83.0454E-03        -1.87548     172.453E-03    -82.2951E-03    -90.1583E-03    -88.4323E-03     170.727E-03    -82.2951E-03    -26.7361E-03    -53.9224E+06    -161.855E+06    -228.602E+06    -190.659E+06    -91.8648E+06    -161.855E+06    -71.6918E+06         36.9783
            2079     3.69127E-03     175.375E-03     688.788E-03    -170.099E-03        -2.78849     299.551E-03        -2.39925    -170.099E-03        -1.81963     188.854E-03    -87.7131E-03    -101.140E-03    -98.3690E-03     186.082E-03    -87.7131E-03    -26.6421E-03    -38.3334E+06    -144.821E+06    -237.091E+06    -183.849E+06    -91.5760E+06    -144.821E+06    -87.8553E+06         38.8535
            2080     4.58313E-03     175.570E-03     925.971E-03    -251.534E-03        -2.83859     634.480E-03        -2.54710    -251.534E-03        -1.71295     211.696E-03    -94.9162E-03    -116.780E-03    -112.738E-03     207.654E-03    -94.9162E-03    -19.1019E-03    -31.3450E+06    -137.823E+06    -248.583E+06    -182.278E+06    -97.6503E+06    -137.823E+06    -99.8184E+06         41.2930
            2081     5.45462E-03     175.843E-03         1.19936    -347.105E-03        -2.95059     962.650E-03        -2.71388    -347.105E-03        -1.72266     243.176E-03    -104.348E-03    -138.827E-03    -133.364E-03     237.712E-03    -104.348E-03    -7.18860E-03    -32.0316E+06    -138.999E+06    -261.864E+06    -182.060E+06    -111.836E+06    -138.999E+06    -109.045E+06         44.2865
            2082     6.29225E-03     176.212E-03         1.44824    -485.413E-03        -3.03454         1.18826        -2.77455    -485.413E-03        -1.87374     284.565E-03    -116.498E-03    -168.067E-03    -161.529E-03     278.027E-03    -116.498E-03     1.77301E-03    -33.3386E+06    -136.882E+06    -270.723E+06    -178.013E+06    -126.049E+06    -136.882E+06    -115.742E+06         47.6953
            2083     7.08773E-03     176.677E-03         1.50805    -695.533E-03        -2.85123         1.22536        -2.56854    -695.533E-03        -1.94649     331.594E-03    -131.451E-03    -200.143E-03    -193.014E-03     324.465E-03    -131.451E-03     1.63320E-03    -23.8512E+06    -119.658E+06    -267.428E+06    -168.476E+06    -122.803E+06    -119.658E+06    -119.585E+06         51.2001
            2084     7.83778E-03     177.232E-03         1.27195    -924.248E-03        -2.35578         1.00905        -2.02478    -992.347E-03        -1.74253     375.185E-03    -147.970E-03    -227.215E-03    -219.656E-03     368.041E-03    -148.384E-03    -5.04123E-03    -20.1448E+06    -92.9537E+06    -258.942E+06    -153.631E+06    -125.456E+06    -92.9537E+06    -118.238E+06         54.3944
            2085     8.55158E-03     177.853E-03     922.203E-03    -977.392E-03        -1.94972     606.838E-03        -1.23891        -1.37284        -1.44346     409.135E-03    -160.283E-03    -248.852E-03    -236.923E-03     402.654E-03    -165.731E-03    -9.15350E-03    -5.10028E+06    -63.2748E+06    -239.322E+06    -137.201E+06    -107.221E+06    -63.2748E+06    -115.480E+06         56.9778
            2086     9.24644E-03     178.516E-03     756.299E-03    -823.380E-03        -1.95168     224.907E-03    -425.622E-03        -1.81805        -1.28834     430.797E-03    -165.883E-03    -264.914E-03    -243.466E-03     425.403E-03    -181.937E-03    -5.27715E-03     11.0303E+06    -23.6066E+06    -210.172E+06    -120.882E+06    -82.1229E+06    -19.7425E+06    -106.571E+06         58.8875
            2087     9.94042E-03     179.186E-03     903.609E-03    -616.904E-03        -2.29443     6.98178E-03     279.723E-03        -2.29443        -1.33681     441.788E-03    -169.544E-03    -272.244E-03    -241.811E-03     437.477E-03    -195.666E-03     8.30340E-03     34.5782E+06     12.3683E+06    -174.210E+06    -99.9552E+06    -61.1048E+06     33.7967E+06    -88.7372E+06         60.3015
            2088     10.6483E-03     179.833E-03         1.26169    -456.805E-03        -2.75937    -46.7857E-03     851.672E-03        -2.75937        -1.44311     446.590E-03    -172.627E-03    -273.963E-03    -237.253E-03     443.339E-03    -206.086E-03     35.6739E-03     70.7736E+06     10.6383E+06    -139.528E+06    -76.6514E+06    -52.2386E+06     70.7736E+06    -70.4951E+06         61.6029
            2089     11.3656E-03     180.460E-03         1.61093    -300.358E-03        -3.17028    -15.3584E-03         1.32593        -3.17028        -1.33522     450.686E-03    -180.281E-03    -270.405E-03    -234.395E-03     447.527E-03    -213.132E-03     76.1026E-03     100.415E+06     24.2321E+06    -106.265E+06    -55.8429E+06    -26.1898E+06     100.415E+06    -56.2368E+06         63.3660
            2090     12.1023E-03     181.007E-03         1.91196    -127.839E-03        -3.49696     51.7230E-03         1.73240        -3.49696        -1.14048     458.678E-03    -196.734E-03    -261.944E-03    -236.541E-03     454.086E-03    -217.544E-03     111.593E-03     148.342E+06     66.6091E+06    -62.0288E+06    -40.9535E+06     45.5337E+06     148.342E+06    -35.6543E+06         66.1811
            2091     12.8681E-03     181.491E-03         2.12308     72.4081E-03        -3.72929     176.376E-03         2.01912        -3.72929    -868.054E-03     465.530E-03    -206.876E-03    -258.655E-03    -237.129E-03     457.292E-03    -220.163E-03     149.805E-03     170.206E+06     43.6332E+06    -43.7083E+06    -29.7757E+06     29.7007E+06     170.206E+06    -11.9261E+06         70.2744
            2092     13.6454E-03     181.959E-03         2.15458     381.122E-03        -3.84645     416.690E-03         2.11901        -3.84645    -450.596E-03     479.591E-03    -214.953E-03    -264.637E-03    -248.474E-03     470.396E-03    -221.922E-03     157.393E-03     184.521E+06     37.6609E+06    -32.5403E+06    -11.5176E+06     16.6382E+06     184.521E+06    -758.479E+03         75.5369
            2093     887.872E-06     176.321E-03     555.445E-03        -1.57187        -2.08015        -1.61075     42.7998E-03        -1.52862    -853.876E-03     256.531E-03    -127.637E-03    -128.895E-03    -127.514E-03     255.150E-03    -127.637E-03    -42.0181E-03    -42.1495E+06    -94.6368E+06    -109.993E+06    -100.785E+06    -51.3576E+06    -94.6368E+06    -22.4930E+06         40.3681
            2094     1.77174E-03     176.379E-03     712.875E-03        -1.55553        -2.17342        -1.44470     49.2943E-03        -1.62067        -1.53667     267.291E-03    -131.325E-03    -135.966E-03    -131.651E-03     262.976E-03    -131.325E-03    -79.2695E-03    -25.2536E+06    -81.9155E+06    -118.199E+06    -100.550E+06    -42.9027E+06    -81.9155E+06    -35.9258E+06         41.3011
            2095     2.64351E-03     176.471E-03     805.180E-03        -1.52469        -2.20941        -1.25200    -31.4010E-03        -1.64551        -1.99782     284.532E-03    -137.157E-03    -147.375E-03    -137.810E-03     274.966E-03    -137.157E-03    -122.227E-03    -15.3304E+06    -68.4500E+06    -128.313E+06    -102.062E+06    -41.5811E+06    -68.4500E+06    -47.6652E+06         42.7351
            2096     3.49925E-03     176.612E-03     987.416E-03        -1.52818        -2.31588    -903.856E-03    -284.347E-03        -1.66845        -2.41640     304.959E-03    -145.190E-03    -159.769E-03    -142.270E-03     287.460E-03    -145.190E-03    -168.617E-03    -10.9581E+06    -60.6504E+06    -138.735E+06    -105.622E+06    -44.0713E+06    -60.6504E+06    -55.9196E+06         44.5656
            2097     4.33730E-03     176.814E-03         1.08860        -1.53073        -2.42415    -445.447E-03    -726.516E-03        -1.69431        -2.65283     325.387E-03    -155.211E-03    -170.176E-03    -141.965E-03     297.176E-03    -155.211E-03    -214.649E-03    -10.3723E+06    -58.0176E+06    -148.111E+06    -109.229E+06    -50.1701E+06    -57.1014E+06    -61.5900E+06         46.6684
            2098     5.14766E-03     177.095E-03         1.24281        -1.62037        -2.50073    -95.0682E-03        -1.02655        -1.75667        -2.88759     344.541E-03    -167.243E-03    -177.298E-03    -136.585E-03     303.828E-03    -167.243E-03    -255.220E-03    -10.9987E+06    -55.4940E+06    -154.587E+06    -108.667E+06    -58.7993E+06    -53.6141E+06    -66.0673E+06         48.9129
            2099     5.92554E-03     177.470E-03         1.53512        -1.77437        -2.66095     161.491E-03        -1.16863        -1.89307        -3.32372     360.792E-03    -172.680E-03    -188.112E-03    -126.551E-03     307.892E-03    -181.341E-03    -284.306E-03    -4.73627E+06    -53.0521E+06    -159.260E+06    -104.508E+06    -67.3646E+06    -45.1754E+06    -70.7806E+06         51.1171
            2100     6.66246E-03     177.947E-03         1.69124        -1.94681        -2.73726     302.190E-03        -1.17754        -2.11748        -3.53148     369.913E-03    -166.409E-03    -203.504E-03    -112.238E-03     309.131E-03    -196.894E-03    -295.409E-03     7.67250E+06    -43.3734E+06    -157.724E+06    -96.0651E+06    -69.0406E+06    -28.3193E+06    -73.9128E+06         53.0381
            2101     7.36567E-03     178.506E-03         1.58097        -2.04101        -2.67253     239.555E-03    -935.448E-03        -2.43667        -3.31919     370.382E-03    -154.867E-03    -215.515E-03    -96.6006E-03     309.179E-03    -212.578E-03    -285.985E-03     19.4328E+06    -31.6568E+06    -150.480E+06    -85.5048E+06    -68.6963E+06    -8.50326E+06    -72.8294E+06         54.4765
            2102     8.05526E-03     179.128E-03         1.46101        -1.82364        -2.85513     50.6433E-03    -413.274E-03        -2.85513        -3.08013     363.066E-03    -136.242E-03    -226.824E-03    -81.6146E-03     308.439E-03    -226.824E-03    -257.702E-03     32.8707E+06    -16.0486E+06    -138.566E+06    -74.6335E+06    -62.2098E+06     15.0995E+06    -69.8455E+06         55.3862
            2103     8.74445E-03     179.794E-03         1.63886        -1.48728        -3.35090    -70.2853E-03     221.861E-03        -3.35090        -3.08087     349.603E-03    -111.477E-03    -238.126E-03    -68.3668E-03     306.493E-03    -238.126E-03    -215.841E-03     46.0576E+06    -2.31244E+06    -123.105E+06    -66.1290E+06    -52.9988E+06     39.7677E+06    -63.1974E+06         55.8700
            2104     9.45987E-03     180.467E-03         1.93126        -1.20048        -3.86314    -60.6174E-03     791.397E-03        -3.86314        -2.99739     332.993E-03    -87.6051E-03    -245.388E-03    -58.4302E-03     303.818E-03    -245.388E-03    -165.565E-03     65.0333E+06     7.30331E+06    -110.116E+06    -56.3883E+06    -45.6424E+06     64.2519E+06    -58.1387E+06         56.1153
            2105     10.2029E-03     181.139E-03         2.10115    -830.457E-03        -4.32161     47.9582E-03         1.22274        -4.32161        -2.66776     316.284E-03    -68.1812E-03    -248.103E-03    -52.2625E-03     300.366E-03    -248.103E-03    -105.879E-03     83.9073E+06     3.94543E+06    -102.267E+06    -52.3538E+06    -45.9681E+06     83.9073E+06    -52.1648E+06         56.4325
            2106     11.0132E-03     181.773E-03         2.22953    -450.996E-03        -4.69004     171.658E-03         1.60688        -4.69004        -2.21417     307.046E-03    -60.2620E-03    -246.784E-03    -52.0782E-03     298.862E-03    -246.784E-03    -42.2728E-03     107.877E+06     7.51103E+06    -97.8175E+06    -51.2961E+06    -39.0104E+06     107.877E+06    -51.8267E+06         57.3607
            2107     11.8692E-03     182.408E-03         2.32420    -59.9761E-03        -4.96155     320.428E-03         1.94379        -4.96155        -1.69310     313.029E-03    -70.0682E-03    -242.961E-03    -65.4478E-03     308.409E-03    -242.961E-03     13.6234E-03     149.439E+06     23.5184E+06    -80.3300E+06    -43.6967E+06    -13.1149E+06     149.439E+06    -38.6662E+06         59.6315
            2108     12.7034E-03     182.966E-03         2.28227     404.597E-03        -5.12454     598.855E-03         2.08801        -5.12454        -1.10112     335.976E-03    -97.5266E-03    -238.449E-03    -90.2260E-03     328.675E-03    -238.449E-03     28.9973E-03     182.967E+06     28.7233E+06    -51.3340E+06    -24.3051E+06     1.69437E+06     182.967E+06    -16.3477E+06         62.8146
            2109     13.5840E-03     183.386E-03         2.07413     886.367E-03        -5.13629     951.083E-03         2.00941        -5.13629    -500.981E-03     321.306E-03    -85.2529E-03    -236.053E-03    -80.0044E-03     312.424E-03    -232.419E-03     55.2956E-03     171.486E+06     31.9795E+06    -37.2797E+06    -18.7310E+06     13.4308E+06     171.486E+06    -11.5587E+06         65.8142


