********************************************************************************
Field Output Report, written Tue May  6 10:10:37 2025

Source 1
---------

   ODB: D:/AISI_1020/Vel_40/aisi_1020_2a_32_rd_1000_cal_75_v_40_fric_025.odb
   Step: Step-1
   Frame: Increment   2842249: Step Time =   0.3645

Loc 1 : Nodal values from source 1

Output sorted by column "Node Label".

Field Output reported at nodes for region: DIE_2A_32_D0_36-1.Region_1
   Computation algorithm: EXTRAPOLATE_COMPUTE_AVERAGE
   Averaged at nodes
   Averaging regions: ODB_REGIONS

      Node Label     COORD.COOR1     COORD.COOR2
                          @Loc 1          @Loc 1
-------------------------------------------------
               1     20.6653E-03     170.618E-03


Field Output reported at nodes for region: DIE_2A_32_D0_36-1.Region_2
   Computation algorithm: EXTRAPOLATE_COMPUTE_AVERAGE
   Averaged at nodes
   Averaging regions: ODB_REGIONS

      Node Label     COORD.COOR1     COORD.COOR2
                          @Loc 1          @Loc 1
-------------------------------------------------
               1     20.6653E-03     170.618E-03


Field Output reported at nodes for part: WIRE_1-1
   Computation algorithm: EXTRAPOLATE_COMPUTE_AVERAGE
   Averaged at nodes
   Averaging regions: ODB_REGIONS

      Node Label     COORD.COOR1     COORD.COOR2    ER.Max. Prin    ER.Mid. Prin    ER.Min. Prin         ER.ER11         ER.ER22         ER.ER33         ER.ER12    PE.Max. Prin    PE.Mid. Prin    PE.Min. Prin         PE.PE11         PE.PE22         PE.PE33         PE.PE12     S.Max. Prin     S.Mid. Prin     S.Min. Prin           S.S11           S.S22           S.S33           S.S12            TEMP
                          @Loc 1          @Loc 1          @Loc 1          @Loc 1          @Loc 1          @Loc 1          @Loc 1          @Loc 1          @Loc 1          @Loc 1          @Loc 1          @Loc 1          @Loc 1          @Loc 1          @Loc 1          @Loc 1          @Loc 1          @Loc 1          @Loc 1          @Loc 1          @Loc 1          @Loc 1          @Loc 1          @Loc 1
-----------------------------------------------------------------------------------------------------------------------------------------------------------------------------------------------------------------------------------------------------------------------------------------------------------------------------------------------------------------------------------------------------------------
               1     16.0090E-03     70.3807E-03     628.266E-03     484.945E-03        -1.79467     484.825E-03        -1.79455     628.266E-03    -32.6247E-03     234.172E-03    -116.389E-03    -117.961E-03    -115.883E-03     233.666E-03    -117.961E-03     26.6156E-03     121.304E+06     105.653E+06    -2.95355E+06    -2.94068E+06     121.291E+06     105.653E+06    -676.995E+03         61.3446
               2     369.591E-09     69.4671E-03         1.91087    -445.879E-03        -2.19767         1.90153        -2.18833    -445.879E-03    -366.280E-03     236.635E-03    -117.771E-03    -118.870E-03    -118.869E-03     236.634E-03    -117.771E-03     109.660E-06    -122.555E+06    -123.412E+06    -318.384E+06    -122.670E+06    -318.269E+06    -123.412E+06     1.42060E+06         39.3869
               3     2.02225E-06     141.561E-09         1.71775         1.43392        -5.80499         1.43205        -5.80312         1.71775    -232.682E-03     462.073E-03    -230.282E-03    -231.765E-03    -231.739E-03     462.047E-03    -230.282E-03     8.57682E-03    -77.4908E+06    -78.6155E+06    -252.605E+06    -78.6753E+06    -252.546E+06    -77.4908E+06    -3.22427E+06         54.3997
               4     15.4424E-03     141.561E-09         2.23192         1.63084        -7.42671         2.20559        -7.40038         1.63084        -1.00716     435.937E-03    -144.021E-03    -291.804E-03    -260.228E-03     404.360E-03    -144.021E-03     296.529E-03     139.373E+06     131.828E+06     16.5093E+06     24.1731E+06     124.164E+06     139.373E+06     28.7236E+06         60.0412
               5     15.8467E-03     141.123E-03     50.7904E-03     11.8338E-03    -103.174E-03     33.6341E-03     28.9901E-03    -103.174E-03     38.6789E-03     65.3332E-03     53.9523E-03    -119.282E-03     64.8987E-03     54.3868E-03    -119.282E-03     4.36182E-03     48.5686E+06    -1.31166E+06    -24.0384E+06     48.3536E+06    -1.09664E+06    -24.0384E+06     3.26794E+06         54.7678
               6     2.11615E-06     136.465E-03     100.442E-03     12.8810E-03    -121.468E-03     94.4431E-03     18.8799E-03    -121.468E-03    -44.2395E-03     112.362E-03    -55.4160E-03    -56.9401E-03    -56.8654E-03     112.288E-03    -55.4160E-03    -7.10835E-03     86.4833E+06     81.0668E+06     1.88868E+06     80.5402E+06     2.41530E+06     86.4833E+06    -6.43582E+06         27.5335
               7     15.1195E-03     70.3533E-03     633.206E-03     504.819E-03        -1.82314     504.746E-03        -1.82307     633.206E-03    -8.46538E-03     245.855E-03    -117.188E-03    -128.761E-03    -116.718E-03     234.597E-03    -117.974E-03     104.165E-03     117.890E+06     103.678E+06    -6.82220E+06    -6.81159E+06     117.879E+06     103.678E+06    -716.975E+03         60.2650
               8     14.2297E-03     70.1297E-03     643.333E-03     529.045E-03        -1.86600     528.739E-03        -1.86570     643.333E-03    -28.2297E-03     248.506E-03    -118.050E-03    -130.522E-03    -115.810E-03     233.793E-03    -118.050E-03     142.064E-03     109.728E+06     102.255E+06    -14.2054E+06    -14.1966E+06     109.545E+06     102.430E+06    -550.722E+03         58.0438
               9     13.3372E-03     70.0061E-03     653.563E-03     537.525E-03        -1.89629     537.232E-03        -1.89599     653.563E-03    -35.2760E-03     242.161E-03    -118.126E-03    -124.113E-03    -114.793E-03     232.841E-03    -118.126E-03     114.801E-03     101.104E+06     99.3632E+06    -22.2533E+06    -22.2327E+06     100.705E+06     99.7419E+06    -720.520E+03         56.1106
              10     12.4498E-03     69.8583E-03     663.457E-03     557.209E-03        -1.93418     557.157E-03        -1.93413     663.457E-03     16.2339E-03     241.823E-03    -118.041E-03    -123.807E-03    -114.843E-03     232.859E-03    -118.041E-03     112.240E-03     97.5150E+06     83.7841E+06    -30.3437E+06    -30.3273E+06     97.2946E+06     83.9881E+06    -701.147E+03         54.5589
              11     11.5605E-03     69.7417E-03     672.484E-03     583.385E-03        -1.97303     583.318E-03        -1.97297     672.484E-03     8.93837E-03     237.239E-03    -117.813E-03    -119.465E-03    -113.791E-03     231.719E-03    -117.968E-03     87.5309E-03     94.0334E+06     56.7478E+06    -37.9299E+06    -37.9239E+06     94.0274E+06     56.7478E+06     94.5853E+03         52.7805
              12     10.6693E-03     69.6580E-03     680.373E-03     605.086E-03        -2.00655     604.396E-03        -2.00586     680.373E-03     53.1319E-03     235.127E-03    -117.114E-03    -118.050E-03    -113.796E-03     231.777E-03    -118.017E-03     67.6031E-03     83.5033E+06     33.6285E+06    -44.5443E+06    -44.5361E+06     83.4951E+06     33.6285E+06     295.623E+03         50.6368
              13     9.77822E-03     69.5934E-03     687.375E-03     624.259E-03        -2.03564     623.524E-03        -2.03491     687.375E-03     75.6777E-03     234.716E-03    -116.589E-03    -118.116E-03    -114.787E-03     232.914E-03    -118.116E-03     49.5470E-03     44.3631E+06     5.39480E+06    -50.2943E+06    -50.2869E+06     31.0534E+06     18.6971E+06    -174.195E+03         48.4721
              14     8.88900E-03     69.5510E-03     693.659E-03     639.159E-03        -2.05989     638.995E-03        -2.05973     693.659E-03    -3.58133E-03     235.253E-03    -117.013E-03    -118.231E-03    -116.005E-03     234.245E-03    -118.231E-03     37.3767E-03     6.73356E+06    -36.8680E+06    -66.7523E+06    -56.2989E+06    -47.3213E+06     6.73356E+06    -231.177E+03         46.5505
              15     8.00103E-03     69.5164E-03     699.482E-03     652.022E-03        -2.08297     651.917E-03        -2.08287     699.482E-03    -23.2387E-03     235.428E-03    -117.161E-03    -118.288E-03    -116.578E-03     234.845E-03    -118.288E-03     28.2429E-03    -3.59091E+06    -62.6625E+06    -105.923E+06    -62.6833E+06    -105.902E+06    -3.59091E+06    -153.461E+03         44.9272
              16     7.11042E-03     69.4930E-03     704.898E-03     665.600E-03        -2.10416     665.520E-03        -2.10408     704.898E-03    -24.3964E-03     235.353E-03    -117.048E-03    -118.339E-03    -116.754E-03     235.059E-03    -118.339E-03     20.0529E-03    -13.8861E+06    -69.9887E+06    -153.349E+06    -69.9962E+06    -153.342E+06    -13.8861E+06    -299.061E+03         43.5801
              17     6.22126E-03     69.4780E-03     709.802E-03     678.733E-03        -2.12116     678.598E-03        -2.12103     709.802E-03    -3.89670E-03     235.723E-03    -117.377E-03    -118.372E-03    -117.238E-03     235.584E-03    -118.372E-03     13.6448E-03    -24.4440E+06    -77.9214E+06    -193.208E+06    -77.9307E+06    -193.198E+06    -24.4440E+06    -525.779E+03         42.4866
              18     5.33287E-03     69.4697E-03     713.894E-03     694.321E-03        -2.14030     693.057E-03        -2.13903     713.894E-03    -63.1894E-03     236.054E-03    -117.698E-03    -118.394E-03    -117.642E-03     235.998E-03    -118.394E-03     8.58456E-03    -35.0014E+06    -85.8969E+06    -232.371E+06    -85.9068E+06    -232.361E+06    -35.0014E+06    -404.286E+03         41.5944
              19     4.44487E-03     69.4641E-03     720.216E-03     710.381E-03        -2.16236     712.288E-03        -2.16012     716.068E-03    -4.32405E-03     236.170E-03    -117.818E-03    -118.378E-03    -117.798E-03     236.150E-03    -118.378E-03     4.92327E-03     -49.926E+06    -94.8678E+06    -263.652E+06    -94.8732E+06    -263.647E+06     -49.926E+06    -25.6786E+03         40.8672
              20     3.55498E-03     69.4635E-03     725.277E-03     715.398E-03        -2.16804     723.908E-03        -2.16667     715.398E-03     119.038E-03     236.219E-03    -117.888E-03    -118.334E-03    -117.908E-03     236.215E-03    -118.310E-03     2.03245E-03    -68.4382E+06    -103.738E+06    -281.202E+06    -103.749E+06    -281.192E+06    -68.4382E+06     282.808E+03         40.2999
              21     2.66680E-03     69.4658E-03     724.377E-03     707.857E-03        -2.15898     718.131E-03        -2.15843     713.557E-03     62.9094E-03     236.178E-03    -117.901E-03    -118.277E-03    -117.925E-03     236.178E-03    -118.253E-03     481.616E-06    -88.8496E+06    -111.317E+06    -295.972E+06    -111.328E+06    -295.961E+06    -88.8496E+06     225.558E+03         39.8798
              22     1.77738E-03     69.4656E-03     721.894E-03     700.770E-03        -2.15475     705.197E-03        -2.15259     715.308E-03     122.116E-03     236.192E-03    -117.946E-03    -118.248E-03    -117.946E-03     236.192E-03    -118.248E-03     60.9454E-06    -106.439E+06    -116.986E+06    -307.834E+06    -117.007E+06    -307.813E+06    -106.439E+06    -19.4501E+03         39.5975
              23     888.185E-06     69.4701E-03         1.31585     127.139E-03        -2.17646         1.30039        -2.16985     135.978E-03    -80.6536E-03     236.463E-03    -117.904E-03    -118.569E-03    -118.453E-03     236.462E-03    -118.020E-03     41.1602E-06    -117.490E+06    -121.105E+06    -315.217E+06    -120.754E+06    -315.140E+06    -117.919E+06     740.857E+03         39.4387
              24    -29.9454E-09     68.2065E-03         1.71473    -245.432E-03        -2.24201         1.70318        -2.23046    -245.432E-03    -421.284E-03     236.391E-03    -117.866E-03    -118.530E-03    -118.527E-03     236.388E-03    -117.866E-03    -1.67699E-03    -122.553E+06    -123.215E+06    -317.308E+06    -123.087E+06    -317.188E+06    -122.800E+06     1.30164E+06         39.3762
              25     860.765E-09     66.9377E-03         1.46895    -21.9613E-03        -2.27788         1.46443        -2.27336    -21.9613E-03    -109.811E-03     235.282E-03    -117.312E-03    -117.976E-03    -117.781E-03     235.280E-03    -117.506E-03    -957.111E-06    -124.196E+06    -125.808E+06    -317.987E+06    -124.641E+06    -317.956E+06    -125.394E+06    -1.22927E+06         39.3590
              26    -1.21803E-06     65.6769E-03         1.24348     204.313E-03        -2.33766         1.24177        -2.33594     204.313E-03     155.156E-03     235.754E-03    -117.653E-03    -118.109E-03    -117.652E-03     235.753E-03    -118.109E-03    -454.389E-06    -121.464E+06    -123.011E+06    -316.047E+06    -121.468E+06    -316.043E+06    -123.011E+06     2.18078E+03         39.3716
              27     741.158E-09     64.4107E-03         1.13420     411.874E-03        -2.50219         1.12777        -2.49575     411.874E-03     287.014E-03     237.172E-03    -117.928E-03    -119.252E-03    -118.989E-03     237.171E-03    -118.191E-03    -1.14690E-03    -121.628E+06    -123.292E+06    -318.147E+06    -122.945E+06    -318.145E+06    -121.977E+06    -225.872E+03         39.4116
              28     1.16520E-06     63.1426E-03         1.01827     487.847E-03        -2.50991         1.00331        -2.49495     487.847E-03     452.051E-03     237.550E-03    -117.914E-03    -119.643E-03    -119.643E-03     237.550E-03    -117.914E-03    -486.332E-06    -123.274E+06    -126.152E+06    -317.685E+06    -124.591E+06    -317.683E+06    -124.837E+06    -204.611E+03         39.4340
              29     6.04441E-09     61.8768E-03     923.578E-03     496.768E-03        -2.46370     893.931E-03        -2.43405     496.768E-03     620.796E-03     237.014E-03    -118.125E-03    -118.892E-03    -118.792E-03     237.013E-03    -118.224E-03    -607.043E-06    -124.554E+06    -126.185E+06    -314.452E+06    -124.628E+06    -314.445E+06    -126.118E+06     245.520E+03         39.4223
              30    -182.235E-09     60.6108E-03     895.141E-03     584.617E-03        -2.58557     864.045E-03        -2.55448     584.617E-03     646.649E-03     236.123E-03    -117.755E-03    -118.370E-03    -118.269E-03     236.122E-03    -117.855E-03    -1.37779E-03    -122.295E+06    -124.625E+06    -315.372E+06    -124.645E+06    -315.352E+06    -122.295E+06    -530.321E+03         39.4008
              31     1.12084E-06     59.3467E-03     935.692E-03     601.058E-03        -2.69230     905.352E-03        -2.66196     601.058E-03     655.200E-03     236.543E-03    -117.624E-03    -118.923E-03    -118.921E-03     236.540E-03    -117.624E-03     390.366E-06    -120.482E+06    -125.496E+06    -316.642E+06    -122.780E+06    -316.607E+06    -123.233E+06     195.443E+03         39.3997
              32     235.325E-09     58.0776E-03     985.601E-03     508.832E-03        -2.69113     948.162E-03        -2.65369     508.832E-03     738.182E-03     237.366E-03    -118.142E-03    -119.228E-03    -119.224E-03     237.361E-03    -118.142E-03    -250.899E-06    -118.689E+06    -124.788E+06    -314.815E+06    -122.063E+06    -314.789E+06    -121.440E+06     634.440E+03         39.4086
              33     329.522E-09     56.8162E-03         1.02930     466.082E-03        -2.75430     992.739E-03        -2.71773     466.082E-03     740.218E-03     236.415E-03    -117.696E-03    -118.720E-03    -118.717E-03     236.412E-03    -117.696E-03    -1.81137E-03    -118.538E+06    -125.454E+06    -315.575E+06    -121.892E+06    -315.568E+06    -122.107E+06    -545.721E+03         39.3988
              34     910.501E-09     55.5471E-03         1.13288     373.290E-03        -2.80780         1.10650        -2.78142     373.290E-03     628.758E-03     235.911E-03    -117.591E-03    -118.323E-03    -118.323E-03     235.911E-03    -117.591E-03    -494.960E-06    -119.015E+06    -124.697E+06    -314.863E+06    -121.146E+06    -314.846E+06    -122.584E+06     1.47870E+06         39.3937
              35    -861.643E-09     54.2854E-03         1.23045     286.467E-03        -2.86401         1.20746        -2.84103     286.467E-03     605.725E-03     236.852E-03    -118.042E-03    -118.820E-03    -118.820E-03     236.852E-03    -118.042E-03    -315.615E-06    -118.891E+06    -121.327E+06    -311.335E+06    -121.037E+06    -311.302E+06    -119.213E+06     29.8924E+03         39.4188
              36     2.21962E-06     53.0153E-03         1.30617     247.240E-03        -2.95445         1.28105        -2.92932     247.240E-03     648.907E-03     237.566E-03    -118.225E-03    -119.352E-03    -119.352E-03     237.566E-03    -118.225E-03    -716.890E-06    -121.650E+06    -123.298E+06    -311.797E+06    -121.666E+06    -311.781E+06    -123.298E+06    -1.31952E+06         39.4347
              37    -1.60517E-06     51.7529E-03         1.36515     178.081E-03        -3.01184         1.35301        -2.99970     178.081E-03     428.098E-03     236.845E-03    -118.099E-03    -118.750E-03    -118.747E-03     236.842E-03    -118.099E-03    -1.81549E-03    -122.540E+06    -125.534E+06    -314.734E+06    -124.209E+06    -314.734E+06    -123.866E+06    -295.380E+03         39.4148
              38     2.13461E-06     50.4835E-03         1.54063     79.4336E-03        -3.14792         1.53702        -3.14431     79.4336E-03     259.349E-03     236.338E-03    -117.263E-03    -119.079E-03    -119.075E-03     236.335E-03    -117.263E-03    -636.501E-06    -122.704E+06    -126.106E+06    -316.747E+06    -124.373E+06    -316.746E+06    -124.437E+06    -310.286E+03         39.3976
              39     563.334E-09     49.2194E-03         1.75108    -28.8274E-03        -3.27988         1.74839        -3.27719    -28.8274E-03     231.206E-03     236.361E-03    -116.803E-03    -119.562E-03    -118.329E-03     236.361E-03    -118.036E-03     352.355E-06    -120.103E+06    -122.827E+06    -314.185E+06    -121.104E+06    -314.175E+06    -121.836E+06     856.280E+03         39.4065
              40    -2.73484E-06     47.9554E-03         1.85445    -101.315E-03        -3.34917         1.85338        -3.34810    -101.315E-03     107.866E-03     236.530E-03    -117.034E-03    -119.503E-03    -118.269E-03     236.529E-03    -118.266E-03    -1.39276E-03    -118.348E+06    -120.219E+06    -311.637E+06    -119.356E+06    -311.621E+06    -119.228E+06     151.094E+03         39.4206
              41     4.91911E-06     46.6875E-03         1.97705    -177.272E-03        -3.42045         1.97683        -3.42023    -177.272E-03    -46.2662E-03     236.986E-03    -117.724E-03    -119.271E-03    -119.268E-03     236.983E-03    -117.724E-03    -108.045E-06    -119.709E+06    -121.282E+06    -312.501E+06    -119.718E+06    -312.493E+06    -121.282E+06    -380.636E+03         39.4199
              42    -4.38576E-06     45.4224E-03         2.07429    -176.101E-03        -3.56321         2.07405        -3.56298    -176.101E-03    -62.9362E-03     236.562E-03    -118.090E-03    -118.479E-03    -118.393E-03     236.556E-03    -118.170E-03    -827.170E-06    -119.439E+06    -121.023E+06    -313.483E+06    -120.333E+06    -313.481E+06    -120.132E+06     744.567E+03         39.4061
              43     4.23884E-06     44.1577E-03         2.16559    -94.0902E-03        -3.79927         2.16530        -3.79898    -94.0902E-03     44.5359E-03     236.047E-03    -117.723E-03    -118.327E-03    -118.242E-03     236.041E-03    -117.803E-03    -828.402E-06    -119.395E+06    -120.565E+06    -311.548E+06    -120.568E+06    -311.545E+06    -119.395E+06     721.659E+03         39.4034
              44    -3.30208E-06     42.8909E-03         2.19609     7.77972E-03        -3.97366         2.19514        -3.97272     7.77972E-03     148.872E-03     236.550E-03    -117.628E-03    -118.927E-03    -118.151E-03     236.549E-03    -118.403E-03     1.05906E-03    -118.038E+06    -120.294E+06    -309.489E+06    -118.319E+06    -309.487E+06    -120.015E+06     305.086E+03         39.4141
              45     1.88702E-06     41.6256E-03         2.11367     170.258E-03        -4.08893         2.11269        -4.08795     170.258E-03     153.866E-03     236.328E-03    -117.207E-03    -119.129E-03    -118.352E-03     236.327E-03    -117.982E-03    -1.01078E-03    -120.868E+06    -124.069E+06    -313.145E+06    -122.092E+06    -313.145E+06    -122.845E+06    -105.993E+03         39.4108
              46     178.021E-09     40.3619E-03         2.01688     384.966E-03        -4.24115         2.01476        -4.23903     384.966E-03     213.364E-03     235.495E-03    -117.096E-03    -118.408E-03    -118.239E-03     235.491E-03    -117.261E-03     137.363E-06    -120.838E+06    -122.669E+06    -312.355E+06    -122.672E+06    -312.352E+06    -120.838E+06     516.260E+03         39.4066
              47    -465.698E-09     39.0968E-03         1.83118     707.521E-03        -4.41780         1.82552        -4.41214     707.521E-03     369.354E-03     236.316E-03    -117.701E-03    -118.621E-03    -118.451E-03     236.309E-03    -117.865E-03    -365.342E-06    -117.012E+06    -119.020E+06    -309.058E+06    -117.649E+06    -309.028E+06    -118.412E+06    -1.06846E+06         39.4350
              48     1.78664E-06     37.8330E-03         1.59887         1.11871        -4.63645         1.59352        -4.63111         1.11871     355.043E-03     237.597E-03    -118.332E-03    -119.271E-03    -119.267E-03     237.593E-03    -118.332E-03    -930.933E-06    -119.858E+06    -123.067E+06    -313.334E+06    -121.716E+06    -313.284E+06    -121.258E+06     -112.62E+03         39.4747
              49    -1.43646E-06     36.5640E-03         1.62651         1.24928        -4.81707         1.33338        -4.81528         1.54063     197.364E-03     237.996E-03    -118.613E-03    -119.395E-03    -119.392E-03     237.993E-03    -118.613E-03    -550.953E-06    -121.177E+06    -123.596E+06    -314.911E+06    -123.047E+06    -314.850E+06    -121.787E+06    -434.294E+03         39.4824
              50     2.50109E-06     35.2937E-03         1.94943         1.00078        -4.92730         1.00003        -4.92656         1.94943     132.155E-03     236.613E-03    -117.799E-03    -118.826E-03    -118.823E-03     236.610E-03    -117.799E-03    -440.565E-06    -119.357E+06    -120.800E+06    -311.335E+06    -119.415E+06    -311.276E+06    -120.800E+06    -511.209E+03         39.4546
              51    -1.76287E-06     34.0347E-03         2.33802     700.490E-03        -5.05608     699.695E-03        -5.05528         2.33802     6.28918E-03     236.140E-03    -117.708E-03    -118.444E-03    -118.441E-03     236.138E-03    -117.708E-03    -123.796E-06    -120.496E+06    -121.585E+06    -311.328E+06    -120.518E+06    -311.307E+06    -121.585E+06     1.07624E+06         39.4280
              52     2.30146E-06     32.7660E-03         2.70380     480.801E-03        -5.22450     480.297E-03        -5.22399         2.70380    -24.5707E-03     236.452E-03    -117.964E-03    -118.497E-03    -118.495E-03     236.450E-03    -117.964E-03    -1.49333E-03    -123.084E+06    -123.922E+06    -311.607E+06    -123.086E+06    -311.605E+06    -123.922E+06    -585.165E+03         39.4279
              53    -1.91095E-06     31.5029E-03         3.03233     310.645E-03        -5.42079     310.363E-03        -5.42050         3.03233     80.5323E-03     236.326E-03    -117.857E-03    -118.475E-03    -118.474E-03     236.325E-03    -117.857E-03    -1.29587E-03    -119.653E+06    -122.358E+06    -307.363E+06    -121.776E+06    -307.362E+06    -120.237E+06     1.18709E+03         39.4340
              54     2.62595E-06     30.2372E-03         3.35308     131.996E-03        -5.62412     131.844E-03        -5.62396         3.35308     30.4044E-03     237.015E-03    -118.061E-03    -118.961E-03    -118.960E-03     237.014E-03    -118.061E-03    -988.679E-06    -120.331E+06    -123.211E+06    -307.411E+06    -122.470E+06    -307.394E+06    -121.089E+06    -991.575E+03         39.4234
              55    -1.73821E-06     28.9670E-03         3.57536    -35.8618E-03        -5.67529    -35.8721E-03        -5.67528         3.57536    -14.0568E-03     236.310E-03    -117.680E-03    -118.639E-03    -118.187E-03     236.310E-03    -118.132E-03    -370.759E-06    -122.651E+06    -126.102E+06    -309.366E+06    -122.684E+06    -309.334E+06    -126.102E+06     -48.621E+03         39.4019
              56     905.527E-09     27.7060E-03         3.73866    -180.852E-03        -5.70851    -180.931E-03        -5.70843         3.73866    -33.0577E-03     235.296E-03    -116.905E-03    -118.398E-03    -117.946E-03     235.295E-03    -117.357E-03    -886.929E-06    -120.670E+06    -125.118E+06    -306.833E+06    -122.445E+06    -306.813E+06    -123.362E+06     1.84590E+06         39.3870
              57     952.815E-09     26.4405E-03         3.89435    -183.714E-03        -5.90025    -183.791E-03        -5.90017         3.89435    -30.4939E-03     235.628E-03    -117.262E-03    -118.370E-03    -118.302E-03     235.626E-03    -117.329E-03    -171.866E-06    -119.703E+06    -122.948E+06    -303.900E+06    -122.957E+06    -303.891E+06    -119.703E+06     62.1836E+03         39.3846
              58    -1.06247E-06     25.1764E-03         3.91604    -103.911E-03        -6.02451    -103.959E-03        -6.02447         3.91604     22.6450E-03     236.074E-03    -117.446E-03    -118.634E-03    -118.560E-03     236.067E-03    -117.513E-03    -1.50671E-03    -120.804E+06    -123.635E+06    -304.866E+06    -122.301E+06    -304.859E+06    -122.145E+06    -1.12086E+06         39.3750
              59     3.03381E-06     23.9119E-03         3.84283    -66.0937E-03        -6.04838    -66.2593E-03        -6.04821         3.84283     61.4971E-03     235.463E-03    -116.906E-03    -118.558E-03    -118.020E-03     235.456E-03    -117.437E-03    -1.36027E-03    -122.606E+06    -124.269E+06    -306.993E+06    -122.935E+06    -306.987E+06    -123.947E+06    -1.46006E+03         39.3337
              60    -3.99140E-06     22.6485E-03         3.73623     95.7672E-03        -6.11646     95.3441E-03        -6.11603         3.73623     100.163E-03     235.007E-03    -116.974E-03    -118.037E-03    -117.505E-03     235.005E-03    -117.505E-03    -161.331E-06    -124.286E+06    -125.109E+06    -308.492E+06    -124.613E+06    -308.487E+06    -124.787E+06     132.409E+03         39.2626
              61     4.93975E-06     21.3799E-03         3.58622     253.672E-03        -6.17454     253.111E-03        -6.17397         3.58622     120.001E-03     233.684E-03    -115.936E-03    -117.764E-03    -117.762E-03     233.682E-03    -115.936E-03    -221.056E-06    -122.765E+06    -125.194E+06    -308.603E+06    -124.700E+06    -308.596E+06    -123.266E+06     319.529E+03         39.1607
              62    -2.62012E-06     20.1253E-03         3.36583     423.266E-03        -6.13422     421.016E-03        -6.13197         3.36583     220.366E-03     231.114E-03    -114.585E-03    -116.539E-03    -115.878E-03     231.111E-03    -115.243E-03    -559.296E-06    -119.185E+06    -122.417E+06    -304.581E+06    -121.122E+06    -304.573E+06    -120.489E+06     273.028E+03         39.0076
              63     1.42289E-06     18.8660E-03         3.18035     664.768E-03        -6.20538     662.040E-03        -6.20265         3.18035     264.840E-03     229.614E-03    -114.087E-03    -115.532E-03    -114.871E-03     229.612E-03    -114.746E-03    -1.67988E-03    -122.452E+06    -127.257E+06    -306.629E+06    -122.455E+06    -306.626E+06    -127.257E+06    -743.404E+03         38.7874
              64    -62.2762E-09     17.6100E-03         2.98040     896.256E-03        -6.26984     893.857E-03        -6.26744         2.98040     257.290E-03     226.570E-03    -112.766E-03    -113.809E-03    -113.806E-03     226.567E-03    -112.766E-03    -1.77867E-03    -123.474E+06    -131.859E+06    -310.247E+06    -128.359E+06    -310.246E+06    -126.976E+06    -457.970E+03         38.4366
              65     587.246E-09     16.3583E-03         2.75082         1.11333        -6.28814         1.11153        -6.28634         2.75082     110.754E-03     219.534E-03    -109.471E-03    -110.062E-03    -110.056E-03     219.528E-03    -109.471E-03    -2.88022E-03    -123.603E+06    -132.034E+06    -310.201E+06    -128.487E+06    -310.201E+06    -127.150E+06     64.7983E+03         37.8624
              66    -38.2599E-09     15.1199E-03         2.51413         1.27786        -6.24965         1.27750        -6.24929         2.51413     14.3644E-03     209.787E-03    -104.527E-03    -105.255E-03    -105.241E-03     209.773E-03    -104.527E-03    -4.07116E-03    -123.730E+06    -131.581E+06    -308.578E+06    -128.047E+06    -308.566E+06    -127.277E+06     1.25504E+06         37.0281
              67     787.361E-09     13.8976E-03         2.24219         1.40493        -6.11907         1.40428        -6.11843         2.24219    -19.8113E-03     196.917E-03    -98.1980E-03    -98.7118E-03    -98.6710E-03     196.877E-03    -98.1980E-03    -6.67791E-03    -119.217E+06    -130.436E+06    -302.982E+06    -123.541E+06    -302.963E+06    -126.132E+06     195.594E+03         35.9339
              68    -719.570E-09     12.6888E-03         2.12565         1.52344        -6.14988         1.52262        -6.14906         2.12565     980.951E-06     180.412E-03    -90.0378E-03    -90.3621E-03    -90.1050E-03     180.359E-03    -90.2425E-03    -7.51330E-03    -121.389E+06    -133.893E+06    -302.919E+06    -126.985E+06    -302.911E+06    -128.304E+06    -799.793E+03         34.6233
              69     362.325E-09     11.5025E-03         2.05915         1.61594        -6.20209         1.61550        -6.20165         2.05915     56.5219E-03     162.540E-03    -80.7740E-03    -81.7570E-03    -81.4860E-03     162.473E-03    -80.9788E-03    -7.88532E-03    -120.622E+06    -132.237E+06    -299.691E+06    -126.267E+06    -299.635E+06    -126.649E+06     2.25324E+06         33.3925
              70     921.044E-09     10.3395E-03         1.97089         1.64946        -6.14844         1.64908        -6.14806         1.97089    -96.5714E-03     145.098E-03    -71.8475E-03    -73.2441E-03    -73.1572E-03     145.011E-03    -71.8475E-03    -8.70413E-03    -113.820E+06    -126.770E+06    -288.134E+06    -120.877E+06    -288.001E+06    -119.846E+06     4.68351E+06         32.7515
              71     225.965E-09     9.19540E-03         1.84746         1.70003        -6.06616         1.70097        -6.06407         1.84444    -237.670E-03     132.546E-03    -65.9143E-03    -66.6199E-03    -66.5558E-03     132.482E-03    -65.9143E-03    -7.06931E-03    -105.710E+06    -116.975E+06    -275.241E+06    -112.713E+06    -275.162E+06    -110.051E+06     2.78690E+06         32.9817
              72    -176.294E-09     8.06083E-03         1.74342         1.69039        -5.99953         1.74162        -5.99774         1.69039    -193.062E-03     133.058E-03    -66.1103E-03    -66.9395E-03    -66.9176E-03     133.036E-03    -66.1103E-03    -3.13590E-03    -93.3709E+06    -103.431E+06    -266.129E+06    -99.0959E+06    -266.123E+06    -97.7123E+06    -296.653E+03         34.0922
              73     1.64895E-06     6.91427E-03         1.74969         1.69929        -6.05109         1.74885        -6.05064         1.69969    -107.642E-03     154.328E-03    -76.5467E-03    -77.7829E-03    -77.7508E-03     154.296E-03    -76.5467E-03     3.80872E-03    -87.3615E+06    -96.8493E+06    -266.289E+06    -93.1186E+06    -266.251E+06    -91.1302E+06    -2.35793E+06         36.1194
              74    -721.988E-09     5.73183E-03         1.73565         1.69171        -6.02211         1.73321        -6.02007         1.69211    -237.240E-03     202.616E-03    -100.954E-03    -101.656E-03    -101.316E-03     202.484E-03    -101.162E-03     12.4386E-03    -93.3868E+06    -98.1030E+06    -271.244E+06    -94.4694E+06    -271.109E+06    -97.1554E+06     1.22937E+06         39.2203
              75     481.722E-09     4.46975E-03         1.66506         1.60435        -5.88436         1.65958        -5.87887         1.60435    -397.902E-03     277.585E-03    -138.676E-03    -138.899E-03    -138.473E-03     277.367E-03    -138.884E-03     19.0427E-03    -93.2719E+06    -95.0616E+06    -270.908E+06    -94.3215E+06    -270.806E+06    -94.1141E+06     2.82023E+06         43.5594
              76    -298.893E-09     3.09493E-03         1.64870         1.56349        -5.86650         1.57662        -5.86246         1.63153    -293.492E-03     362.976E-03    -181.084E-03    -181.881E-03    -180.923E-03     362.799E-03    -181.866E-03     19.0860E-03    -84.4228E+06    -85.8726E+06    -263.906E+06    -84.4763E+06    -263.853E+06    -85.8726E+06     2.03522E+06         48.4853
              77    -864.370E-09     1.59280E-03         1.69878         1.48883        -5.83998         1.48770        -5.83885         1.69878    -170.225E-03     433.520E-03    -215.989E-03    -217.512E-03    -216.658E-03     433.448E-03    -216.770E-03     12.7182E-03    -80.1164E+06    -81.2864E+06    -256.860E+06    -80.7619E+06    -256.777E+06    -80.7241E+06     567.478E+03         52.6586
              78     786.390E-06     141.561E-09         1.65829         1.50859        -5.81878         1.51544        -5.81784         1.65051    -107.081E-03     457.324E-03    -227.091E-03    -230.205E-03    -227.761E-03     457.252E-03    -229.463E-03     13.1847E-03    -76.4872E+06    -78.1795E+06    -252.898E+06    -78.2268E+06    -252.851E+06    -76.4872E+06    -376.350E+03         54.3103
              79     1.58214E-03     141.561E-09         1.59367         1.58540        -5.84078         1.59354        -5.84064         1.58540    -34.5481E-03     444.810E-03    -218.162E-03    -226.552E-03    -217.989E-03     444.636E-03    -226.552E-03     21.0979E-03    -76.5825E+06    -78.7007E+06    -254.895E+06    -78.7239E+06    -254.872E+06    -76.5825E+06     1.95550E+06         54.0369
              80     2.38747E-03     141.561E-09         1.58802         1.58739        -5.84788         1.58761        -5.84762         1.58753     643.939E-06     426.865E-03    -205.007E-03    -221.682E-03    -204.715E-03     426.572E-03    -221.682E-03     26.9900E-03    -77.1500E+06    -79.6366E+06    -256.187E+06    -79.6531E+06    -256.170E+06    -77.1500E+06     1.69160E+06         53.5496
              81     3.20537E-03     141.561E-09         1.58586         1.57414        -5.83151         1.57397        -5.83133         1.58586     70.6230E-03     404.798E-03    -189.054E-03    -215.557E-03    -188.627E-03     404.370E-03    -215.557E-03     31.6949E-03    -75.6804E+06    -78.7887E+06    -254.887E+06    -78.8353E+06    -254.840E+06    -75.6804E+06    -802.793E+03         52.7868
              82     4.03859E-03     141.561E-09         1.58180         1.56039        -5.81330         1.56018        -5.81310         1.58180     74.4975E-03     380.822E-03    -172.130E-03    -208.522E-03    -171.532E-03     380.224E-03    -208.522E-03     36.1489E-03    -73.9272E+06    -78.0087E+06    -256.217E+06    -78.0501E+06    -256.175E+06    -73.9272E+06    -1.06392E+06         51.6516
              83     4.88511E-03     141.561E-09         1.58518         1.56912        -5.82741         1.57518        -5.82725         1.57896     41.9620E-03     356.551E-03    -155.473E-03    -200.932E-03    -154.758E-03     355.835E-03    -200.932E-03     38.2359E-03    -71.4939E+06    -77.6983E+06    -255.224E+06    -74.4167E+06    -254.773E+06    -75.2268E+06    -5.64448E+06         50.1329
              84     5.75077E-03     141.561E-09         1.61553         1.58107        -5.87729         1.61553        -5.87729         1.58107    -12.6591E-03     332.421E-03    -139.309E-03    -192.994E-03    -138.538E-03     331.650E-03    -192.994E-03     38.0916E-03    -64.3530E+06    -83.7446E+06    -228.728E+06    -65.1052E+06    -227.976E+06    -83.7446E+06    -11.0853E+06         48.5403
              85     6.62589E-03     141.561E-09         1.63525         1.58685        -5.91103         1.63524        -5.91103         1.58685    -12.5407E-03     309.965E-03    -124.929E-03    -184.963E-03    -124.073E-03     309.108E-03    -184.963E-03     38.5083E-03    -52.5205E+06    -97.3449E+06    -175.504E+06    -54.1411E+06    -173.883E+06    -97.3449E+06    -12.7024E+06         47.3370
              86     7.51759E-03     141.561E-09         1.61415         1.59142        -5.90788         1.61415        -5.90787         1.59142    -5.94686E-03     290.348E-03    -113.178E-03    -177.180E-03    -112.286E-03     289.456E-03    -177.180E-03     37.8963E-03    -37.6286E+06    -89.0366E+06    -125.793E+06    -42.1902E+06    -104.987E+06    -105.281E+06    -15.8263E+06         46.7376
              87     8.41537E-03     141.561E-09         1.59542         1.59232        -5.91189         1.59484        -5.91184         1.59285     28.3360E-03     273.187E-03    -103.386E-03    -169.882E-03    -102.472E-03     272.273E-03    -169.882E-03     37.0427E-03     621.992E+03    -50.2426E+06    -97.5495E+06    -30.4108E+06    -19.2098E+06    -97.5495E+06    -12.6763E+06         46.7330
              88     9.32270E-03     141.561E-09         1.59964         1.59266        -5.94439         1.59905        -5.94434         1.59319     34.1086E-03     259.020E-03    -95.8534E-03    -163.281E-03    -94.8012E-03     257.967E-03    -163.281E-03     38.5136E-03     48.5399E+06    -25.8740E+06    -62.8144E+06    -24.9997E+06     47.6656E+06    -62.8144E+06    -3.51447E+06         47.2871
              89     10.2332E-03     141.561E-09         1.61835         1.59450        -6.00106         1.61834        -6.00105         1.59450     17.4148E-03     248.261E-03    -90.9363E-03    -157.287E-03    -89.7712E-03     247.096E-03    -157.287E-03     39.6877E-03     79.5515E+06    -8.10017E+06    -28.3412E+06    -22.1976E+06     79.2856E+06    -13.9778E+06    -2.26945E+06         48.3626
              90     11.1508E-03     141.561E-09         1.62896         1.59684        -6.05323         1.62892        -6.05318         1.59684     34.7645E-03     240.125E-03    -88.0344E-03    -151.990E-03    -86.6992E-03     238.790E-03    -151.990E-03     41.6854E-03     102.276E+06     35.0197E+06    -15.0279E+06    -14.7989E+06     102.047E+06     35.0197E+06    -3.75395E+06         49.9144
              91     12.0633E-03     141.561E-09         1.61807         1.59888        -6.10341         1.61792        -6.10326         1.59888     64.6609E-03     237.904E-03    -90.3255E-03    -147.614E-03    -88.8163E-03     236.395E-03    -147.614E-03     44.4113E-03     106.686E+06     79.3260E+06    -7.40048E+06    -7.38795E+06     106.674E+06     79.3260E+06     621.350E+03         51.8824
              92     12.9864E-03     141.561E-09         1.63388         1.60081        -6.21805         1.63376        -6.21794         1.60081     52.2331E-03     246.062E-03    -101.939E-03    -144.214E-03    -99.4809E-03     243.604E-03    -144.214E-03     57.4040E-03     108.744E+06     105.969E+06     973.347E+03     1.05081E+06     107.856E+06     106.780E+06     2.67600E+06         54.1800
              93     13.8539E-03     141.561E-09         1.71049         1.60548        -6.44439         1.71039        -6.44429         1.60548     51.1853E-03     263.468E-03    -121.589E-03    -142.073E-03    -117.341E-03     259.221E-03    -142.073E-03     80.2178E-03     118.381E+06     114.421E+06     5.69603E+06     5.92280E+06     114.194E+06     118.381E+06    -1.09007E+06         56.7076
              94     14.7508E-03     141.561E-09         1.99686         1.61989        -7.00652         1.98360        -6.99326         1.61989    -463.389E-03     354.962E-03    -138.464E-03    -216.576E-03    -194.017E-03     336.623E-03    -142.684E-03     193.535E-03     129.891E+06     122.968E+06     10.5382E+06     14.5314E+06     118.975E+06     129.891E+06     11.3937E+06         59.0288
              95     15.6686E-03     1.69936E-03         2.09815         1.65469        -6.89863         2.05901        -6.85949         1.65469        -1.15958     373.325E-03    -140.243E-03    -233.046E-03    -194.915E-03     335.194E-03    -140.243E-03     288.536E-03     125.014E+06     115.413E+06    -9.14714E+06    -4.89748E+06     116.992E+06     119.186E+06     19.8580E+06         60.0180
              96     15.7764E-03     2.88395E-03         1.89422         1.69766        -6.22866         1.85370        -6.18814         1.69766        -1.13482     293.612E-03    -133.107E-03    -160.503E-03    -124.855E-03     257.964E-03    -133.107E-03     243.003E-03     121.711E+06     110.448E+06    -8.12483E+06    -7.40206E+06     120.989E+06     110.448E+06     9.65865E+06         60.2488
              97     15.8735E-03     4.15938E-03         1.78088         1.71453        -5.99020         1.74588        -5.96791         1.72724    -821.647E-03     283.256E-03    -126.665E-03    -156.668E-03    -138.488E-03     265.076E-03    -126.665E-03     168.739E-03     125.125E+06     109.044E+06     -1.3779E+06    -740.728E+03     124.487E+06     109.044E+06     8.95195E+06         60.7570
              98     15.9346E-03     5.49036E-03         1.74632         1.71203        -5.87893         1.70052        -5.86742         1.74632    -581.589E-03     292.240E-03    -121.834E-03    -170.561E-03    -162.665E-03     284.344E-03    -121.834E-03     118.894E-03     122.864E+06     104.506E+06    -4.02368E+06    -3.62263E+06     122.463E+06     104.506E+06     6.77864E+06         61.1338
              99     15.9732E-03     6.83416E-03         1.76115         1.68306        -5.85274         1.67835        -5.84803         1.76115    -357.725E-03     293.389E-03    -119.151E-03    -174.370E-03    -169.271E-03     288.291E-03    -119.151E-03     96.7228E-03     124.490E+06     105.698E+06    -1.64620E+06    -1.52447E+06     124.368E+06     105.698E+06     3.89284E+06         61.2712
             100     15.9914E-03     8.18042E-03         1.77259         1.66796        -5.85548         1.66660        -5.85412         1.77259    -198.172E-03     288.317E-03    -117.890E-03    -170.571E-03    -166.897E-03     284.644E-03    -117.890E-03     81.6472E-03     123.252E+06     104.150E+06    -5.41500E+06    -5.35970E+06     123.197E+06     104.150E+06     2.28823E+06         61.2493
             101     15.9989E-03     9.50200E-03         1.78196         1.68889        -5.89643         1.68838        -5.89593         1.78196    -116.202E-03     279.586E-03    -117.475E-03    -162.284E-03    -159.228E-03     276.530E-03    -117.475E-03     73.2381E-03     124.947E+06     106.362E+06    -2.35498E+06    -2.35250E+06     124.945E+06     106.362E+06     343.037E+03         61.1562
             102     16.0039E-03     10.8181E-03         1.79046         1.70338        -5.93032         1.70327        -5.93022         1.79046    -51.7190E-03     271.300E-03    -117.394E-03    -154.099E-03    -151.268E-03     268.469E-03    -117.394E-03     69.1741E-03     123.400E+06     104.517E+06    -3.99726E+06    -3.99722E+06     123.400E+06     104.517E+06    -77.0115E+03         61.0286
             103     16.0045E-03     12.1236E-03         1.79880         1.70323        -5.92874         1.70320        -5.92872         1.79880    -27.8706E-03     263.441E-03    -117.461E-03    -146.224E-03    -143.716E-03     260.932E-03    -117.461E-03     63.8735E-03     122.596E+06     103.802E+06    -3.22339E+06    -3.22285E+06     122.596E+06     103.802E+06    -221.391E+03         60.8870
             104     16.0068E-03     13.4088E-03         1.80684         1.68326        -5.92643         1.68324        -5.92641         1.80684    -1.23317E-03     255.095E-03    -117.596E-03    -137.615E-03    -135.709E-03     253.190E-03    -117.596E-03     54.3696E-03     123.837E+06     104.635E+06    -3.46717E+06    -3.45865E+06     123.829E+06     104.635E+06    -887.667E+03         60.7664
             105     16.0068E-03     14.6903E-03         1.81436         1.67848        -5.92267         1.67847        -5.92266         1.81436     17.9539E-03     247.415E-03    -117.753E-03    -129.718E-03    -128.349E-03     246.046E-03    -117.753E-03     45.2993E-03     124.694E+06     104.562E+06    -2.80138E+06    -2.78103E+06     124.673E+06     104.562E+06     200.421E+03         60.6938
             106     16.0075E-03     15.9639E-03         1.81970         1.67503        -5.90120         1.67502        -5.90120         1.81970    -3.22907E-03     240.779E-03    -117.895E-03    -123.037E-03    -121.946E-03     239.688E-03    -117.895E-03     39.7520E-03     123.382E+06     101.930E+06    -4.82612E+06    -4.81364E+06     123.369E+06     101.930E+06     814.059E+03         60.6722
             107     16.0081E-03     17.2273E-03         1.82191         1.64983        -5.86059         1.64982        -5.86058         1.82191    -16.0307E-03     236.520E-03    -117.681E-03    -118.990E-03    -117.805E-03     235.644E-03    -117.990E-03     35.1800E-03     122.535E+06     102.272E+06    -2.82173E+06    -2.81994E+06     122.534E+06     102.272E+06     235.584E+03         60.6812
             108     16.0076E-03     18.4938E-03         1.82089         1.63704        -5.81933         1.63703        -5.81932         1.82089     1.22493E-03     235.483E-03    -117.638E-03    -118.035E-03    -116.906E-03     234.752E-03    -118.035E-03     32.1033E-03     124.226E+06     103.174E+06    -1.96763E+06    -1.96224E+06     124.221E+06     103.174E+06     809.143E+03         60.6975
             109     16.0068E-03     19.7571E-03         1.81766         1.62866        -5.79504         1.62866        -5.79504         1.81766     10.0717E-03     235.202E-03    -117.310E-03    -118.044E-03    -116.679E-03     234.571E-03    -118.044E-03     29.7664E-03     124.133E+06     101.879E+06    -4.65139E+06    -4.64767E+06     124.129E+06     101.879E+06     483.704E+03         60.7123
             110     16.0083E-03     21.0247E-03         1.81144         1.60641        -5.74585         1.60631        -5.74575         1.81144    -37.1475E-03     234.000E-03    -116.063E-03    -118.040E-03    -115.482E-03     233.419E-03    -118.040E-03     28.5016E-03     122.977E+06     101.722E+06    -3.06614E+06    -3.05785E+06     122.969E+06     101.722E+06    -708.979E+03         60.7235
             111     16.0083E-03     22.2878E-03         1.80001         1.59096        -5.69212         1.59084        -5.69200         1.80001    -56.3467E-03     233.808E-03    -115.922E-03    -118.032E-03    -115.362E-03     233.248E-03    -118.032E-03     27.9598E-03     122.485E+06     102.273E+06    -2.34692E+06    -2.33809E+06     122.476E+06     102.273E+06    -893.737E+03         60.7327
             112     16.0080E-03     23.5529E-03         1.78402         1.58104        -5.63495         1.58094        -5.63486         1.78402    -49.7965E-03     234.218E-03    -116.341E-03    -118.007E-03    -115.773E-03     233.649E-03    -118.007E-03     28.1875E-03     121.710E+06     101.463E+06    -3.42504E+06    -3.42292E+06     121.708E+06     101.463E+06     123.082E+03         60.7438
             113     16.0094E-03     24.8217E-03         1.76392         1.55822        -5.55281         1.55814        -5.55274         1.76392    -38.4614E-03     234.314E-03    -116.369E-03    -117.992E-03    -115.734E-03     233.679E-03    -117.992E-03     29.8085E-03     122.322E+06     101.739E+06    -3.47313E+06    -3.47113E+06     122.320E+06     101.739E+06     143.314E+03         60.7584
             114     16.0081E-03     26.0876E-03         1.73932         1.53222        -5.47763         1.53220        -5.47761         1.73932    -20.8500E-03     234.643E-03    -116.732E-03    -117.991E-03    -116.092E-03     234.002E-03    -117.991E-03     29.9714E-03     121.852E+06     103.291E+06    -2.29165E+06    -2.29008E+06     121.850E+06     103.291E+06    -426.250E+03         60.7735
             115     16.0091E-03     27.3510E-03         1.71009         1.50840        -5.40744         1.50837        -5.40740         1.71009    -31.0094E-03     234.751E-03    -116.867E-03    -117.979E-03    -116.265E-03     234.150E-03    -117.979E-03     29.0614E-03     120.932E+06     103.425E+06    -2.42752E+06    -2.41712E+06     120.922E+06     103.425E+06     511.127E+03         60.7860
             116     16.0086E-03     28.6195E-03         1.67713         1.48826        -5.31997         1.48823        -5.31993         1.67713    -29.3477E-03     234.547E-03    -116.653E-03    -117.990E-03    -116.083E-03     233.976E-03    -117.990E-03     28.2782E-03     121.804E+06     103.709E+06    -2.78419E+06    -2.77474E+06     121.795E+06     103.709E+06     660.866E+03         60.7974
             117     16.0082E-03     29.8830E-03         1.64100         1.47555        -5.23349         1.47553        -5.23346         1.64100    -24.9348E-03     234.059E-03    -116.155E-03    -118.015E-03    -115.573E-03     233.477E-03    -118.015E-03     28.5356E-03     122.712E+06     103.904E+06    -2.32615E+06    -2.32207E+06     122.707E+06     103.904E+06     390.878E+03         60.8074
             118     16.0085E-03     31.1492E-03         1.60031         1.45456        -5.14465         1.45455        -5.14464         1.60031    -20.8477E-03     234.077E-03    -116.232E-03    -118.013E-03    -115.597E-03     233.442E-03    -118.013E-03     29.7985E-03     122.809E+06     103.141E+06    -3.44028E+06    -3.43586E+06     122.804E+06     103.141E+06     318.200E+03         60.8160
             119     16.0081E-03     32.4165E-03         1.55561         1.43283        -5.05139         1.43282        -5.05138         1.55561    -15.1321E-03     234.500E-03    -116.692E-03    -118.003E-03    -116.092E-03     233.900E-03    -118.003E-03     28.9671E-03     122.582E+06     103.388E+06    -2.82696E+06    -2.82607E+06     122.582E+06     103.388E+06    -33.5915E+03         60.8270
             120     16.0087E-03     33.6769E-03         1.50833         1.41698        -4.95006         1.41692        -4.95000         1.50833    -30.7682E-03     234.298E-03    -116.451E-03    -117.995E-03    -115.936E-03     233.783E-03    -117.995E-03     26.8528E-03     122.598E+06     101.739E+06    -3.33742E+06    -3.33460E+06     122.595E+06     101.739E+06     540.778E+03         60.8378
             121     16.0086E-03     34.9470E-03         1.45839         1.38595        -4.83056         1.38588        -4.83049         1.45839    -12.2363E-03     233.835E-03    -115.991E-03    -117.999E-03    -115.429E-03     233.272E-03    -117.999E-03     27.9829E-03     122.043E+06     100.000E+06    -3.78387E+06    -3.77386E+06     122.033E+06     100.000E+06    -302.009E+03         60.8472
             122     16.0087E-03     36.2111E-03         1.40667         1.35505        -4.71990         1.35501        -4.71986         1.40667     30.9913E-03     234.200E-03    -116.327E-03    -117.997E-03    -115.706E-03     233.579E-03    -117.997E-03     29.4880E-03     121.766E+06     102.329E+06    -2.95246E+06    -2.94331E+06     121.757E+06     102.329E+06    -380.190E+03         60.8610
             123     16.0091E-03     37.4750E-03         1.35574         1.33734        -4.62432         1.33842        -4.62429         1.35462     21.7966E-03     234.787E-03    -116.928E-03    -117.980E-03    -116.388E-03     234.247E-03    -117.980E-03     27.4944E-03     121.640E+06     103.059E+06    -2.24972E+06    -2.24759E+06     121.638E+06     103.059E+06     132.285E+03         60.8777
             124     16.0083E-03     38.7442E-03         1.31388         1.30261        -4.50981         1.31385        -4.50978         1.30261    -15.6401E-03     234.417E-03    -116.509E-03    -118.010E-03    -115.988E-03     233.895E-03    -118.010E-03     26.9988E-03     121.670E+06     102.426E+06    -3.11177E+06    -3.10996E+06     121.668E+06     102.426E+06     101.406E+03         60.8927
             125     16.0085E-03     40.0069E-03         1.28554         1.25079        -4.39200         1.28549        -4.39196         1.25079    -7.26936E-03     234.092E-03    -116.161E-03    -118.017E-03    -115.630E-03     233.561E-03    -118.017E-03     27.2422E-03     121.636E+06     102.467E+06    -3.11332E+06    -3.10294E+06     121.625E+06     102.467E+06    -473.768E+03         60.9057
             126     16.0090E-03     41.2719E-03         1.25954         1.19977        -4.28684         1.25950        -4.28681         1.19977    -3.00062E-03     234.360E-03    -116.484E-03    -117.984E-03    -115.942E-03     233.818E-03    -117.984E-03     27.5328E-03     120.457E+06     101.764E+06    -2.77660E+06    -2.76640E+06     120.446E+06     101.764E+06    -1.01562E+06         60.9167
             127     16.0093E-03     42.5423E-03         1.22819         1.14901        -4.16891         1.22804        -4.16876         1.14901    -52.4703E-03     234.616E-03    -116.638E-03    -117.990E-03    -116.032E-03     234.011E-03    -117.990E-03     29.1413E-03     120.246E+06     102.487E+06    -1.70710E+06    -1.69412E+06     120.233E+06     102.487E+06     595.746E+03         60.9279
             128     16.0079E-03     43.8062E-03         1.20158         1.09950        -4.04924         1.20145        -4.04911         1.09950    -40.3769E-03     234.272E-03    -116.385E-03    -118.000E-03    -115.777E-03     233.664E-03    -118.000E-03     29.1791E-03     121.098E+06     101.305E+06    -3.71498E+06    -3.70274E+06     121.086E+06     101.305E+06     1.00919E+06         60.9412
             129     16.0089E-03     45.0708E-03         1.16646         1.05310        -3.92589         1.16645        -3.92588         1.05310    -12.9459E-03     234.467E-03    -116.695E-03    -118.005E-03    -116.105E-03     233.878E-03    -118.005E-03     28.7427E-03     121.555E+06     101.659E+06    -3.06777E+06    -3.06532E+06     121.552E+06     101.659E+06     511.606E+03         60.9619
             130     16.0072E-03     46.3388E-03         1.14026         1.00961        -3.81980         1.14024        -3.81977         1.00961    -22.4152E-03     234.794E-03    -116.919E-03    -118.017E-03    -116.337E-03     234.211E-03    -118.017E-03     28.5928E-03     121.888E+06     102.512E+06    -3.00156E+06    -2.98626E+06     121.873E+06     102.512E+06     1.27320E+06         60.9948
             131     16.0087E-03     47.6039E-03         1.11574     970.199E-03        -3.71411         1.11571        -3.71408     970.199E-03    -24.3318E-03     233.895E-03    -115.980E-03    -118.036E-03    -115.422E-03     233.338E-03    -118.036E-03     27.9026E-03     122.057E+06     102.294E+06    -2.78494E+06    -2.76054E+06     122.032E+06     102.294E+06     87.1149E+03         61.0343
             132     16.0078E-03     48.8666E-03         1.07457     934.992E-03        -3.59110         1.07455        -3.59108     934.992E-03    -20.5386E-03     233.527E-03    -115.551E-03    -118.043E-03    -115.035E-03     233.011E-03    -118.043E-03     26.8246E-03     119.983E+06     100.875E+06    -2.93179E+06    -2.92057E+06     119.972E+06     100.875E+06    -881.685E+03         61.0776
             133     16.0090E-03     50.1311E-03         1.05759     901.708E-03        -3.48965         1.05757        -3.48963     901.708E-03    -16.2617E-03     233.860E-03    -115.938E-03    -118.024E-03    -115.404E-03     233.326E-03    -118.024E-03     27.3035E-03     118.345E+06     100.811E+06    -3.46052E+06    -3.45208E+06     118.337E+06     100.811E+06    -765.009E+03         61.1303
             134     16.0088E-03     51.3989E-03         1.01426     870.819E-03        -3.37510         1.01423        -3.37507     870.819E-03    -23.0440E-03     234.497E-03    -116.592E-03    -118.004E-03    -116.045E-03     233.950E-03    -118.004E-03     27.6870E-03     116.592E+06     101.995E+06    -2.41725E+06    -2.40742E+06     116.582E+06     101.995E+06    -421.644E+03         61.1892
             135     16.0085E-03     52.6627E-03     972.803E-03     844.281E-03        -3.26319     972.717E-03        -3.26310     844.281E-03    -37.5856E-03     234.978E-03    -116.959E-03    -118.007E-03    -116.467E-03     234.485E-03    -118.007E-03     26.3042E-03     116.794E+06     102.468E+06    -3.42038E+06    -3.41822E+06     116.791E+06     102.468E+06     78.3228E+03         61.2368
             136     16.0085E-03     53.9295E-03     964.297E-03     821.910E-03        -3.17644     964.155E-03        -3.17630     821.910E-03    -48.1759E-03     234.443E-03    -116.471E-03    -118.018E-03    -115.970E-03     233.941E-03    -118.018E-03     26.4919E-03     117.160E+06     102.692E+06    -2.98380E+06    -2.97452E+06     117.151E+06     102.692E+06     496.114E+03         61.2582
             137     16.0088E-03     55.1970E-03     909.992E-03     803.051E-03        -3.05314     909.861E-03        -3.05301     803.051E-03    -45.3665E-03     233.855E-03    -115.998E-03    -118.001E-03    -115.436E-03     233.292E-03    -118.001E-03     28.0282E-03     116.956E+06     102.467E+06    -3.51744E+06    -3.50466E+06     116.943E+06     102.467E+06     196.188E+03         61.2624
             138     16.0097E-03     56.4596E-03     873.677E-03     786.824E-03        -2.94377     873.507E-03        -2.94360     786.824E-03    -49.7887E-03     233.868E-03    -116.081E-03    -117.960E-03    -115.520E-03     233.306E-03    -117.960E-03     28.0035E-03     117.682E+06     103.563E+06    -2.16974E+06    -2.16215E+06     117.675E+06     103.563E+06    -70.7476E+03         61.2712
             139     16.0097E-03     57.7276E-03     855.145E-03     772.194E-03        -2.85078     854.885E-03        -2.85052     772.194E-03    -62.0247E-03     234.595E-03    -116.806E-03    -117.952E-03    -116.243E-03     234.031E-03    -117.952E-03     28.1190E-03     117.433E+06     104.073E+06    -3.08181E+06    -3.07845E+06     117.429E+06     104.073E+06     466.175E+03         61.2898
             140     16.0083E-03     58.9937E-03     801.965E-03     759.053E-03        -2.73162     801.682E-03        -2.73133     759.053E-03    -63.1987E-03     234.874E-03    -117.010E-03    -117.987E-03    -116.456E-03     234.321E-03    -117.987E-03     27.8739E-03     118.775E+06     105.209E+06    -3.36387E+06    -3.36202E+06     118.773E+06     105.209E+06     356.203E+03         61.3066
             141     16.0090E-03     60.2589E-03     780.023E-03     746.711E-03        -2.64059     779.850E-03        -2.64042     746.711E-03    -45.7197E-03     234.008E-03    -116.189E-03    -118.001E-03    -115.654E-03     233.472E-03    -118.001E-03     27.3569E-03     119.061E+06     104.787E+06    -2.50616E+06    -2.50386E+06     119.059E+06     104.787E+06     499.208E+03         61.3140
             142     16.0092E-03     61.5233E-03     757.330E-03     726.616E-03        -2.55169     749.135E-03        -2.55160     734.719E-03    -34.1351E-03     233.694E-03    -115.913E-03    -117.993E-03    -115.400E-03     233.181E-03    -117.993E-03     26.7323E-03     119.478E+06     104.647E+06    -2.97503E+06    -2.97445E+06     119.478E+06     104.647E+06     82.0657E+03         61.3159
             143     16.0088E-03     62.7882E-03     723.501E-03     692.699E-03        -2.43450     692.449E-03        -2.43425     723.501E-03    -53.7532E-03     234.154E-03    -116.345E-03    -117.988E-03    -115.840E-03     233.650E-03    -117.988E-03     26.5565E-03     119.973E+06     105.107E+06    -3.31248E+06    -3.30731E+06     119.968E+06     105.107E+06    -648.698E+03         61.3176
             144     16.0089E-03     64.0550E-03     711.967E-03     668.393E-03        -2.33590     667.966E-03        -2.33547     711.967E-03    -71.4342E-03     234.257E-03    -116.375E-03    -117.980E-03    -115.844E-03     233.726E-03    -117.980E-03     27.2771E-03     119.337E+06     104.836E+06    -2.73878E+06    -2.72673E+06     119.325E+06     104.836E+06     82.0389E+03         61.3209
             145     16.0091E-03     65.3208E-03     699.156E-03     630.287E-03        -2.23858     630.037E-03        -2.23833     699.156E-03    -45.9219E-03     234.088E-03    -116.172E-03    -117.980E-03    -115.645E-03     233.561E-03    -117.980E-03     27.1532E-03     119.184E+06     104.955E+06    -2.62265E+06    -2.61199E+06     119.174E+06     104.955E+06     166.333E+03         61.3252
             146     16.0089E-03     66.5842E-03     685.482E-03     585.472E-03        -2.12532     585.334E-03        -2.12518     685.482E-03    -34.0743E-03     234.288E-03    -116.438E-03    -117.971E-03    -115.931E-03     233.781E-03    -117.971E-03     26.6449E-03     119.555E+06     105.338E+06    -3.46621E+06    -3.46044E+06     119.550E+06     105.338E+06    -120.924E+03         61.3284
             147     16.0094E-03     67.8518E-03     669.601E-03     556.371E-03        -2.01776     555.858E-03        -2.01725     669.601E-03    -69.7523E-03     234.098E-03    -116.276E-03    -117.958E-03    -115.753E-03     233.575E-03    -117.958E-03     27.0406E-03     120.628E+06     105.950E+06    -2.78720E+06    -2.78458E+06     120.625E+06     105.950E+06     537.376E+03         61.3320
             148     16.0096E-03     69.1184E-03     650.562E-03     517.047E-03        -1.90287     516.580E-03        -1.90240     650.562E-03    -63.4168E-03     233.803E-03    -116.009E-03    -117.958E-03    -115.462E-03     233.255E-03    -117.958E-03     27.6571E-03     121.433E+06     105.168E+06    -3.87759E+06    -3.87647E+06     121.432E+06     105.168E+06     374.274E+03         61.3387
             149     16.0091E-03     71.6480E-03     601.654E-03     450.186E-03        -1.69382     450.013E-03        -1.69365     601.654E-03    -36.7489E-03     234.374E-03    -116.599E-03    -117.954E-03    -116.032E-03     233.807E-03    -117.954E-03     28.0890E-03     119.448E+06     105.199E+06    -2.42473E+06    -2.39991E+06     119.423E+06     105.199E+06    -3.66244E+03         61.3494
             150     16.0095E-03     72.9175E-03     571.498E-03     405.872E-03        -1.57026     405.279E-03        -1.56967     571.498E-03    -65.1278E-03     234.646E-03    -116.791E-03    -117.959E-03    -116.177E-03     234.033E-03    -117.959E-03     29.3156E-03     119.239E+06     105.467E+06    -2.08892E+06    -2.07597E+06     119.226E+06     105.467E+06     707.768E+03         61.3585
             151     16.0087E-03     74.1782E-03     538.791E-03     377.300E-03        -1.44758     376.774E-03        -1.44705     538.791E-03    -56.9737E-03     234.523E-03    -116.601E-03    -118.002E-03    -116.117E-03     234.040E-03    -118.002E-03     25.9483E-03     118.737E+06     104.818E+06    -3.26717E+06    -3.26333E+06     118.733E+06     104.818E+06     296.324E+03         61.3652
             152     16.0085E-03     75.4446E-03     502.639E-03     349.507E-03        -1.34022     349.438E-03        -1.34015     502.639E-03    -12.9201E-03     233.644E-03    -115.699E-03    -118.037E-03    -115.218E-03     233.164E-03    -118.037E-03     25.8072E-03     116.831E+06     103.042E+06    -4.14614E+06    -4.14111E+06     116.826E+06     103.042E+06     145.813E+03         61.3592
             153     16.0087E-03     76.7116E-03     462.758E-03     305.963E-03        -1.22236     305.703E-03        -1.22210     462.758E-03    -24.8053E-03     233.501E-03    -115.545E-03    -118.008E-03    -114.963E-03     232.919E-03    -118.008E-03     28.4798E-03     115.683E+06     103.118E+06    -3.58533E+06    -3.58298E+06     115.681E+06     103.118E+06    -521.622E+03         61.3496
             154     16.0099E-03     77.9733E-03     418.889E-03     284.355E-03        -1.09856     283.508E-03        -1.09771     418.889E-03    -66.7628E-03     234.088E-03    -116.209E-03    -117.950E-03    -115.681E-03     233.560E-03    -117.950E-03     27.1162E-03     115.831E+06     104.828E+06    -1.69662E+06    -1.69545E+06     115.830E+06     104.828E+06    -365.538E+03         61.3496
             155     16.0099E-03     79.2403E-03     370.794E-03     261.827E-03    -979.866E-03     261.236E-03    -979.275E-03     370.794E-03    -37.5176E-03     234.302E-03    -116.485E-03    -117.933E-03    -115.999E-03     233.816E-03    -117.933E-03     26.0687E-03     116.698E+06     105.016E+06    -2.30953E+06    -2.30695E+06     116.695E+06     105.016E+06     208.479E+03         61.3572
             156     16.0093E-03     80.5077E-03     320.721E-03     216.539E-03    -854.271E-03     216.352E-03    -854.083E-03     320.721E-03     21.1412E-03     234.073E-03    -116.257E-03    -117.944E-03    -115.703E-03     233.519E-03    -117.944E-03     27.8385E-03     115.538E+06     103.540E+06    -4.12267E+06    -4.10361E+06     115.519E+06     103.540E+06    -636.638E+03         61.3687
             157     16.0101E-03     81.7724E-03     268.876E-03     194.102E-03    -739.716E-03     193.829E-03    -739.443E-03     268.876E-03     6.69620E-03     233.892E-03    -116.093E-03    -117.950E-03    -115.523E-03     233.322E-03    -117.950E-03     28.2129E-03     114.368E+06     104.992E+06    -2.23162E+06    -2.20034E+06     114.336E+06     104.992E+06    -90.0263E+03         61.3837
             158     16.0095E-03     83.0368E-03     214.181E-03     172.642E-03    -631.108E-03     172.540E-03    -631.007E-03     214.181E-03    -16.9092E-03     234.484E-03    -116.714E-03    -117.937E-03    -116.194E-03     233.964E-03    -117.937E-03     26.9943E-03     114.939E+06     105.258E+06    -2.58972E+06    -2.57441E+06     114.924E+06     105.258E+06     676.321E+03         61.3961
             159     16.0092E-03     84.3023E-03     159.211E-03     142.299E-03    -509.682E-03     142.653E-03    -509.663E-03     158.838E-03    -2.06367E-03     234.754E-03    -116.951E-03    -117.946E-03    -116.487E-03     234.290E-03    -117.946E-03     25.5208E-03     115.146E+06     104.197E+06    -4.19004E+06    -4.18513E+06     115.141E+06     104.197E+06    -719.933E+03         61.3987
             160     16.0094E-03     85.5698E-03     120.870E-03     103.758E-03    -395.880E-03     120.742E-03    -395.752E-03     103.758E-03     12.9708E-03     233.887E-03    -116.081E-03    -117.979E-03    -115.582E-03     233.387E-03    -117.979E-03     26.3669E-03     113.962E+06     104.808E+06    -2.93171E+06    -2.92606E+06     113.956E+06     104.808E+06    -178.935E+03         61.3944
             161     16.0097E-03     86.8348E-03     89.9032E-03     48.2165E-03    -277.138E-03     89.5564E-03    -276.791E-03     48.2165E-03    -655.413E-06     233.538E-03    -115.714E-03    -117.965E-03    -115.155E-03     232.979E-03    -117.965E-03     27.9157E-03     114.270E+06     105.546E+06    -2.83019E+06    -2.82846E+06     114.268E+06     105.546E+06     238.245E+03         61.3949
             162     16.0102E-03     88.0989E-03     59.0357E-03    -6.95339E-03    -158.149E-03     58.7067E-03    -157.820E-03    -6.95339E-03    -16.8833E-03     234.256E-03    -116.406E-03    -117.936E-03    -115.842E-03     233.693E-03    -117.936E-03     28.0796E-03     115.411E+06     106.514E+06    -2.54409E+06    -2.54339E+06     115.410E+06     106.514E+06     121.258E+03         61.4060
             163     16.0093E-03     89.3681E-03     41.1299E-03    -24.2064E-03    -96.3113E-03     40.9633E-03    -59.9456E-03    -60.4056E-03    -3.23733E-03     234.751E-03    -116.947E-03    -117.932E-03    -116.406E-03     234.210E-03    -117.932E-03     27.5584E-03     117.364E+06     106.641E+06    -3.07882E+06    -3.07559E+06     117.361E+06     106.641E+06     592.748E+03         61.4197
             164     16.0098E-03     90.6296E-03     58.1066E-03     738.811E-06    -111.098E-03     26.7635E-03     32.0819E-03    -111.098E-03     17.4159E-03     234.245E-03    -116.464E-03    -117.936E-03    -115.965E-03     233.746E-03    -117.936E-03     26.4273E-03     118.271E+06     106.705E+06    -3.79093E+06    -3.78472E+06     118.265E+06     106.705E+06    -63.9789E+03         61.4253
             165     16.0102E-03     91.8978E-03     126.664E-03     6.36751E-03    -158.075E-03     8.17108E-03     124.860E-03    -158.075E-03     17.0150E-03     233.840E-03    -116.049E-03    -117.949E-03    -115.529E-03     233.320E-03    -117.949E-03     26.9335E-03     116.670E+06     107.010E+06    -2.91750E+06    -2.91231E+06     116.665E+06     107.010E+06    -772.839E+03         61.4241
             166     16.0091E-03     93.1633E-03     213.338E-03    -11.5187E-03    -201.282E-03    -11.3096E-03     213.129E-03    -201.282E-03     12.4524E-03     233.982E-03    -116.170E-03    -117.951E-03    -115.573E-03     233.385E-03    -117.951E-03     28.8788E-03     117.248E+06     108.068E+06    -2.15392E+06    -2.13413E+06     117.228E+06     108.068E+06     737.230E+03         61.4226
             167     16.0104E-03     94.4283E-03     290.533E-03    -27.4010E-03    -241.073E-03    -27.0217E-03     290.154E-03    -241.073E-03     21.8668E-03     234.400E-03    -116.600E-03    -117.939E-03    -115.999E-03     233.799E-03    -117.939E-03     29.0017E-03     120.107E+06     109.966E+06    -3.57174E+06    -3.54991E+06     120.085E+06     109.966E+06     1.52513E+06         61.4224
             168     16.0095E-03     95.6945E-03     363.554E-03    -45.6915E-03    -276.292E-03    -45.1089E-03     362.972E-03    -276.292E-03     30.5889E-03     234.590E-03    -116.774E-03    -117.942E-03    -116.254E-03     234.070E-03    -117.942E-03     26.9743E-03     122.228E+06     111.190E+06    -2.53046E+06    -2.52093E+06     122.219E+06     111.190E+06     1.08090E+06         61.4214
             169     16.0099E-03     96.9591E-03     443.594E-03    -69.1186E-03    -305.810E-03    -68.6568E-03     443.132E-03    -305.810E-03     27.4802E-03     233.294E-03    -115.525E-03    -117.934E-03    -115.015E-03     232.783E-03    -117.934E-03     26.6527E-03     123.679E+06     109.819E+06    -3.37440E+06    -3.36193E+06     123.666E+06     109.819E+06     1.25854E+06         61.4214
             170     16.0121E-03     98.2222E-03     507.597E-03    -88.0897E-03    -329.367E-03    -87.4669E-03     506.974E-03    -329.367E-03     34.7911E-03     233.383E-03    -115.619E-03    -117.909E-03    -115.069E-03     232.833E-03    -117.909E-03     27.6871E-03     127.131E+06     111.528E+06    -4.07762E+06    -4.05685E+06     127.110E+06     111.528E+06    -303.731E+03         61.4276
             171     16.0090E-03     99.4913E-03     546.622E-03    -92.4068E-03    -347.322E-03    -91.8435E-03     546.059E-03    -347.322E-03     24.8880E-03     234.562E-03    -116.713E-03    -117.910E-03    -116.159E-03     234.008E-03    -117.910E-03     27.8773E-03     128.911E+06     114.387E+06    -2.37945E+06    -2.35022E+06     128.882E+06     114.387E+06     34.3676E+03         61.4365
             172     16.0119E-03     100.754E-03     595.152E-03    -109.271E-03    -359.947E-03    -108.879E-03     594.760E-03    -359.947E-03     22.6996E-03     233.801E-03    -115.945E-03    -117.920E-03    -115.406E-03     233.262E-03    -117.920E-03     27.4490E-03     131.557E+06     115.095E+06    -2.45885E+06    -2.43270E+06     131.531E+06     115.095E+06     1.86538E+06         61.4409
             173     16.0106E-03     102.020E-03     625.866E-03    -128.547E-03    -366.057E-03    -128.008E-03     625.327E-03    -366.057E-03     39.2464E-03     233.247E-03    -115.387E-03    -117.915E-03    -114.840E-03     232.701E-03    -117.915E-03     27.5868E-03     135.801E+06     115.248E+06    -3.75284E+06    -3.71263E+06     135.761E+06     115.248E+06     2.31208E+06         61.4421
             174     16.0118E-03     103.285E-03     637.188E-03    -121.937E-03    -365.984E-03    -121.731E-03     636.982E-03    -365.984E-03     24.3338E-03     233.748E-03    -115.918E-03    -117.902E-03    -115.348E-03     233.179E-03    -117.902E-03     28.2007E-03     139.368E+06     116.754E+06    -4.56303E+06    -4.53250E+06     139.337E+06     116.754E+06     1.11945E+06         61.4411
             175     16.0114E-03     104.548E-03     667.967E-03    -134.378E-03    -361.289E-03    -134.318E-03     667.907E-03    -361.289E-03     7.17920E-03     233.756E-03    -115.958E-03    -117.891E-03    -115.431E-03     233.229E-03    -117.891E-03     27.0878E-03     142.543E+06     119.541E+06    -2.42950E+06    -2.40414E+06     142.517E+06     119.541E+06     994.313E+03         61.4303
             176     16.0124E-03     105.815E-03     702.949E-03    -161.630E-03    -351.420E-03    -160.608E-03     701.927E-03    -351.420E-03     40.3380E-03     233.109E-03    -115.265E-03    -117.866E-03    -114.696E-03     232.539E-03    -117.866E-03     28.0561E-03     144.676E+06     119.339E+06    -3.70382E+06    -3.66964E+06     144.642E+06     119.339E+06     2.19985E+06         61.4106
             177     16.0132E-03     107.077E-03     701.658E-03    -159.182E-03    -335.654E-03    -157.884E-03     700.360E-03    -335.654E-03     64.0363E-03     233.587E-03    -115.729E-03    -117.829E-03    -115.159E-03     233.017E-03    -117.829E-03     28.1069E-03     148.354E+06     121.814E+06    -3.95273E+06    -3.94233E+06     148.343E+06     121.814E+06     783.354E+03         61.3894
             178     16.0130E-03     108.342E-03     690.556E-03    -162.893E-03    -316.005E-03    -162.614E-03     690.277E-03    -316.005E-03     20.4795E-03     233.380E-03    -115.603E-03    -117.789E-03    -115.101E-03     232.879E-03    -117.789E-03     26.4343E-03     147.765E+06     122.475E+06    -4.04988E+06    -4.04671E+06     147.762E+06     122.475E+06    -576.762E+03         61.3618
             179     16.0163E-03     109.606E-03     688.354E-03    -171.835E-03    -293.357E-03    -171.511E-03     688.030E-03    -293.357E-03     22.3483E-03     231.878E-03    -114.169E-03    -117.729E-03    -113.598E-03     231.307E-03    -117.729E-03     28.0620E-03     146.141E+06     122.190E+06    -3.56611E+06    -3.56079E+06     146.135E+06     122.190E+06    -66.7256E+03         61.3191
             180     16.0171E-03     110.870E-03     666.850E-03    -161.522E-03    -267.019E-03    -160.652E-03     665.981E-03    -267.019E-03     53.1117E-03     231.076E-03    -113.472E-03    -117.628E-03    -112.853E-03     230.457E-03    -117.628E-03     29.1769E-03     148.136E+06     125.305E+06    -1.97957E+06    -1.96573E+06     148.122E+06     125.305E+06     1.34659E+06         61.2544
             181     16.0212E-03     112.128E-03     660.876E-03    -178.459E-03    -238.550E-03    -177.595E-03     660.012E-03    -238.550E-03     53.2285E-03     229.960E-03    -112.557E-03    -117.458E-03    -111.924E-03     229.328E-03    -117.458E-03     29.4034E-03     149.961E+06     127.040E+06    -4.64510E+06    -4.63102E+06     149.947E+06     127.040E+06     489.906E+03         61.1589
             182     16.0255E-03     113.387E-03     645.254E-03    -187.260E-03    -208.887E-03    -186.941E-03     644.935E-03    -208.887E-03     22.6395E-03     228.281E-03    -111.167E-03    -117.209E-03    -110.549E-03     227.663E-03    -117.209E-03     28.9394E-03     149.287E+06     130.360E+06    -3.00843E+06    -2.99840E+06     149.277E+06     130.360E+06    -1.18780E+06         61.0145
             183     16.0322E-03     114.642E-03     615.379E-03    -168.306E-03    -186.554E-03    -176.693E-03     615.319E-03    -178.107E-03    -10.5761E-03     225.730E-03    -109.013E-03    -116.811E-03    -108.343E-03     225.060E-03    -116.811E-03     29.8686E-03     146.417E+06     131.580E+06    -2.07690E+06    -2.05326E+06     146.393E+06     131.580E+06     358.124E+03         60.7971
             184     16.0431E-03     115.896E-03     594.500E-03    -146.962E-03    -187.016E-03    -186.230E-03     593.714E-03    -146.962E-03     23.8409E-03     222.401E-03    -106.231E-03    -116.195E-03    -105.398E-03     221.568E-03    -116.195E-03     33.0017E-03     144.523E+06     132.207E+06    -4.72505E+06    -4.70849E+06     144.506E+06     132.207E+06     1.28136E+06         60.5002
             185     16.0584E-03     117.140E-03     556.698E-03    -116.872E-03    -178.318E-03    -177.506E-03     555.885E-03    -116.872E-03     44.4513E-03     218.721E-03    -103.467E-03    -115.257E-03    -102.408E-03     217.662E-03    -115.257E-03     36.7913E-03     144.604E+06     137.501E+06    -2.71717E+06    -2.68353E+06     144.570E+06     137.501E+06     1.73984E+06         60.1463
             186     16.0833E-03     118.380E-03     506.978E-03    -89.1129E-03    -163.704E-03    -162.749E-03     506.023E-03    -89.1129E-03     44.3981E-03     213.726E-03    -99.9755E-03    -113.773E-03    -98.6279E-03     212.378E-03    -113.773E-03     40.9527E-03     144.840E+06     140.441E+06    -3.32867E+06    -3.24890E+06     144.760E+06     140.441E+06     3.42630E+06         59.8141
             187     16.1182E-03     119.611E-03     473.391E-03    -63.9682E-03    -169.875E-03    -169.002E-03     472.519E-03    -63.9682E-03     35.6623E-03     209.293E-03    -97.8064E-03    -111.585E-03    -96.0794E-03     207.566E-03    -111.585E-03     45.8141E-03     141.523E+06     137.478E+06    -5.08674E+06    -5.03631E+06     141.473E+06     137.478E+06     2.39399E+06         59.7323
             188     16.1626E-03     120.837E-03     451.139E-03    -40.4802E-03    -175.648E-03    -175.152E-03     450.643E-03    -40.4802E-03     26.7467E-03     213.365E-03    -102.604E-03    -110.932E-03    -102.950E-03     211.694E-03    -108.914E-03     45.7266E-03     140.958E+06     138.097E+06    -2.32126E+06    -2.31040E+06     140.947E+06     138.097E+06     1.23413E+06         60.2431
             189     16.1941E-03     122.086E-03     406.331E-03    -17.2267E-03    -155.136E-03    -154.638E-03     405.833E-03    -17.2267E-03     22.3411E-03     231.566E-03    -106.448E-03    -125.182E-03    -124.227E-03     230.612E-03    -106.448E-03     35.5132E-03     137.240E+06     133.295E+06    -4.13153E+06    -4.09612E+06     137.205E+06     133.295E+06    -700.801E+03         61.5024
             190     16.2040E-03     123.367E-03     369.574E-03     2.59347E-03    -139.952E-03    -139.398E-03     369.019E-03     2.59347E-03    -25.8756E-03     257.637E-03    -104.877E-03    -152.805E-03    -152.363E-03     257.195E-03    -104.877E-03     26.7077E-03     127.850E+06     123.570E+06    -3.28833E+06    -3.24169E+06     126.633E+06     124.739E+06    -2.45491E+06         63.2698
             191     16.2046E-03     124.690E-03     360.170E-03     16.5970E-03    -151.923E-03    -151.373E-03     359.620E-03     16.5970E-03    -23.7945E-03     280.661E-03    -104.124E-03    -176.693E-03    -176.212E-03     280.180E-03    -104.124E-03     29.4696E-03     123.107E+06     117.902E+06    -6.00366E+06    -5.83681E+06     117.735E+06     123.107E+06    -4.12097E+06         65.0488
             192     16.2046E-03     126.039E-03     329.023E-03     27.5689E-03    -144.651E-03    -144.541E-03     328.913E-03     27.5689E-03     9.59914E-03     298.116E-03    -103.682E-03    -194.463E-03    -193.672E-03     297.325E-03    -103.682E-03     39.2279E-03     128.959E+06     107.670E+06    -1.23530E+06    -1.03796E+06     107.473E+06     128.959E+06    -4.55675E+06         66.4852
             193     16.2054E-03     127.401E-03     283.662E-03     35.9874E-03    -129.804E-03    -129.416E-03     283.274E-03     35.9874E-03    -5.06469E-03     313.114E-03    -103.290E-03    -209.924E-03    -208.926E-03     312.115E-03    -103.290E-03     45.6680E-03     125.051E+06     90.3802E+06    -4.93603E+06     -4.5388E+06     89.9829E+06     125.051E+06    -5.64841E+06         67.5657
             194     16.2056E-03     128.782E-03     258.548E-03     39.7893E-03    -112.531E-03    -112.215E-03     258.232E-03     39.7893E-03    -19.9417E-03     325.718E-03    -102.975E-03    -223.021E-03    -221.945E-03     324.641E-03    -102.975E-03     48.5575E-03     126.831E+06     74.0850E+06    -1.96534E+06    -1.60922E+06     73.7289E+06     126.831E+06    -3.72197E+06         68.4367
             195     16.2066E-03     130.182E-03     231.021E-03     37.8441E-03    -97.9953E-03    -97.7737E-03     230.800E-03     37.8441E-03     5.52956E-03     338.792E-03    -102.648E-03    -236.315E-03    -234.851E-03     337.328E-03    -102.648E-03     57.6601E-03     127.781E+06     59.8287E+06    -5.79001E+06    -4.98922E+06     59.0279E+06     127.781E+06    -5.11204E+06         69.0900
             196     16.2065E-03     131.602E-03     194.792E-03     30.4510E-03    -92.7538E-03    -92.4272E-03     194.465E-03     30.4510E-03     1.95986E-03     357.078E-03    -102.195E-03    -254.971E-03    -252.611E-03     354.718E-03    -102.195E-03     75.4576E-03     125.937E+06     43.2269E+06    -3.99571E+06    -3.15235E+06     42.3835E+06     125.937E+06    -6.16772E+06         69.4207
             197     16.2082E-03     133.076E-03     171.408E-03     18.5941E-03    -83.4840E-03    -82.3353E-03     170.259E-03     18.5941E-03    -30.7930E-03     370.477E-03    -101.926E-03    -268.581E-03    -265.034E-03     366.930E-03    -101.926E-03     94.6203E-03     135.349E+06     25.9554E+06    -4.12541E+06    -2.17163E+06     24.0017E+06     135.349E+06    -6.88353E+06         69.2371
             198     16.2084E-03     134.538E-03     160.208E-03     2.78922E-03    -75.7682E-03    -74.6631E-03     159.103E-03     2.78922E-03    -28.8083E-03     372.079E-03    -101.985E-03    -270.083E-03    -265.437E-03     367.433E-03    -101.985E-03     108.687E-03     162.225E+06     22.1080E+06    -11.9926E+06    -3.79216E+06     13.9075E+06     162.225E+06    -528.411E+03         68.4218
             199     16.2112E-03     135.967E-03     145.866E-03    -16.6906E-03    -53.9835E-03    -53.8801E-03     145.763E-03    -16.6906E-03    -7.90223E-03     373.105E-03    -101.949E-03    -271.168E-03    -265.271E-03     367.208E-03    -101.949E-03     122.472E-03     181.272E+06     27.4500E+06    -9.60399E+06    -3.26989E+06     21.1159E+06     181.272E+06     6.71749E+06         66.9721
             200     16.2128E-03     137.453E-03     124.097E-03    -30.6047E-03    -44.4430E-03    -34.6849E-03     123.608E-03    -39.8738E-03     10.6841E-03     370.442E-03    -101.998E-03    -268.470E-03    -257.803E-03     359.776E-03    -101.998E-03     160.358E-03     184.151E+06     36.3624E+06    -1.22592E+06    -1.11937E+06     36.2559E+06     184.151E+06     1.88623E+06         64.5708
             201     16.2174E-03     138.935E-03     97.9016E-03    -21.1168E-03    -65.5676E-03    -17.8945E-03     94.6793E-03    -65.5676E-03     33.6142E-03     310.062E-03    -103.622E-03    -206.553E-03    -184.574E-03     288.083E-03    -103.622E-03     199.712E-03     133.101E+06     33.1012E+06    -25.0110E+06    -23.3793E+06     31.4695E+06     133.101E+06    -7.42460E+06         60.9591
             202     16.2139E-03     140.168E-03     67.1617E-03     1.75514E-03    -90.9304E-03     15.3926E-03     53.5242E-03    -90.9304E-03     41.0859E-03     159.917E-03    -25.5592E-03    -134.464E-03    -27.7281E-03     139.798E-03    -112.176E-03     106.968E-03     59.4782E+06     9.31289E+06    -48.0934E+06    -10.3350E+06     7.85799E+06     23.1747E+06    -6.70253E+06         56.8092
             203     14.8337E-03     140.769E-03     58.6259E-03     6.16815E-03    -102.268E-03     18.3448E-03     46.4492E-03    -102.268E-03     6.61662E-03     96.1518E-03     25.6839E-03    -121.938E-03     32.5863E-03     89.2493E-03    -121.938E-03    -16.8494E-03     86.9650E+06     17.6527E+06    -25.0844E+06     11.8525E+06     17.0192E+06     50.6615E+06    -3.13031E+06         53.2963
             204     13.8989E-03     140.347E-03     59.9100E-03    -1.60961E-03    -98.5314E-03     1.44507E-03     56.8553E-03    -98.5314E-03    -26.5197E-03     140.110E-03    -15.6462E-03    -124.566E-03    -12.5076E-03     136.972E-03    -124.566E-03    -43.7363E-03     122.445E+06     13.3511E+06    -38.3055E+06    -17.2823E+06    -7.67206E+06     122.445E+06    -4.65225E+06         50.0585
             205     13.0427E-03     139.840E-03     47.9536E-03    -5.39863E-03    -92.2997E-03    -1.09964E-03     43.6546E-03    -92.2997E-03    -28.7891E-03     139.823E-03    -15.6229E-03    -124.287E-03    -11.9414E-03     136.141E-03    -124.287E-03    -46.9093E-03     130.947E+06     9.24644E+06    -31.7567E+06    -6.34831E+06    -16.1620E+06     130.947E+06    -8.82881E+06         46.7580
             206     12.1467E-03     139.368E-03     53.6489E-03    -19.1226E-03    -84.8993E-03    -11.4826E-03     46.0089E-03    -84.8993E-03    -44.6103E-03     136.364E-03    -12.6694E-03    -123.780E-03    -6.41390E-03     130.109E-03    -123.780E-03    -59.2916E-03     127.355E+06     8.29918E+06    -15.3026E+06    -7.29563E+06     292.166E+03     127.355E+06    -8.89679E+06         44.1080
             207     11.2622E-03     138.914E-03     55.8330E-03    -29.8165E-03    -76.4139E-03    -21.1638E-03     47.1803E-03    -76.4139E-03    -51.5900E-03     161.113E-03    -39.0799E-03    -122.018E-03    -25.8147E-03     147.848E-03    -122.018E-03    -98.9868E-03     121.881E+06     1.77432E+06    -11.9059E+06    -4.84666E+06    -5.28494E+06     121.881E+06    -5.21548E+06         42.2057
             208     10.4328E-03     138.468E-03     71.1177E-03    -45.1907E-03    -67.5617E-03    -31.0510E-03     56.3398E-03    -66.9236E-03    -77.2804E-03     185.099E-03    -67.2443E-03    -117.870E-03    -46.7525E-03     164.607E-03    -117.870E-03    -137.823E-03     127.147E+06     9.59900E+06    -9.27000E+06     1.46465E+06    -1.13565E+06     127.147E+06    -8.41014E+06         40.6341
             209     9.61521E-03     138.070E-03     79.7228E-03    -56.0724E-03    -59.7129E-03    -43.8653E-03     63.8752E-03    -56.0724E-03    -87.2976E-03     201.720E-03    -89.9131E-03    -111.819E-03    -65.8266E-03     177.634E-03    -111.819E-03    -160.544E-03     120.636E+06     8.53431E+06    -9.41254E+06     3.96814E+06    -4.84637E+06     120.636E+06    -7.71451E+06         39.0857
             210     8.80902E-03     137.714E-03     52.8436E-03    -45.2549E-03    -62.5410E-03    -26.6662E-03     16.9687E-03    -45.2549E-03    -86.7046E-03     212.662E-03    -100.754E-03    -111.928E-03    -83.8186E-03     188.409E-03    -104.611E-03    -169.467E-03     113.944E+06     11.2993E+06    -9.45565E+06     7.31763E+06    -5.47401E+06     113.944E+06    -7.60488E+06         37.6147
             211     7.99937E-03     137.418E-03     49.1103E-03    -35.7553E-03    -70.7642E-03    -21.2845E-03    -369.393E-06    -35.7553E-03    -112.886E-03     215.571E-03    -96.7575E-03    -118.867E-03    -97.9513E-03     194.655E-03    -96.7575E-03    -161.599E-03     110.306E+06     12.0494E+06    -8.02443E+06     10.3080E+06    -6.28304E+06     110.306E+06    -5.64991E+06         36.2075
             212     7.18357E-03     137.168E-03     39.6657E-03    -26.9010E-03    -67.0589E-03    -32.0934E-03     4.70024E-03    -26.9010E-03    -99.3501E-03     207.794E-03    -88.7946E-03    -119.042E-03    -103.740E-03     192.493E-03    -88.7946E-03    -137.491E-03     107.503E+06     17.0361E+06    -4.45881E+06     13.3925E+06    -815.278E+03     107.503E+06    -7.78670E+06         34.8009
             213     6.34979E-03     136.968E-03     25.0548E-03    -19.5775E-03    -57.9749E-03    -27.1252E-03    -5.79489E-03    -19.5775E-03    -80.1061E-03     192.728E-03    -81.3908E-03    -111.368E-03    -101.558E-03     182.918E-03    -81.3908E-03    -106.904E-03     99.9749E+06     21.7268E+06     -7.6211E+06     17.4342E+06    -3.32853E+06     99.9749E+06    -9.94979E+06         33.3674
             214     5.48737E-03     136.815E-03     27.0598E-03    -13.8784E-03    -54.0822E-03    -30.1093E-03     3.08692E-03    -13.8784E-03    -4.32869E-03     176.370E-03    -74.7548E-03    -101.639E-03    -95.6538E-03     170.385E-03    -74.7548E-03    -80.2531E-03     93.9312E+06     28.2578E+06    -7.53282E+06     25.6171E+06    -4.89220E+06     93.9312E+06    -9.32377E+06         31.9230
             215     4.61027E-03     136.696E-03     27.1805E-03    -9.80309E-03    -49.4410E-03    -20.2731E-03    -1.98735E-03    -9.80309E-03     70.9900E-03     158.413E-03    -68.8867E-03    -89.4769E-03    -86.0528E-03     154.989E-03    -68.8867E-03    -57.4174E-03     83.2665E+06     36.0897E+06    -3.07817E+06     34.1822E+06    -1.17065E+06     83.2665E+06    -8.33810E+06         30.5827
             216     3.70953E-03     136.606E-03     26.7681E-03    -9.04357E-03    -30.0194E-03    -5.08198E-03     1.83066E-03    -9.04357E-03     54.6089E-03     141.544E-03    -64.1688E-03    -77.3113E-03    -75.4204E-03     139.653E-03    -64.1688E-03    -40.3021E-03     72.8399E+06     46.1013E+06    -4.05221E+06     44.3840E+06    -2.33485E+06     72.8399E+06    -9.11905E+06         29.4866
             217     2.79284E-03     136.542E-03     26.3833E-03    -11.6710E-03    -16.3201E-03     398.223E-06     9.66499E-03    -11.6710E-03     40.5854E-03     129.025E-03    -60.6690E-03    -68.3365E-03    -67.2593E-03     127.947E-03    -60.6690E-03    -28.8225E-03     73.0928E+06     57.7207E+06    -3.61231E+06     56.0122E+06    -1.90383E+06     73.0928E+06    -10.0449E+06         28.6538
             218     1.86683E-03     136.497E-03     47.8860E-03    -15.2248E-03    -27.4295E-03    -8.61110E-03     29.0676E-03    -15.2248E-03    -15.0632E-03     119.735E-03    -58.1132E-03    -61.5962E-03    -61.0788E-03     119.217E-03    -58.1132E-03    -18.9126E-03     73.3489E+06     66.6429E+06    -3.79685E+06     65.4685E+06    -2.62243E+06     73.3489E+06    -8.89325E+06         28.0475
             219     936.041E-06     136.470E-03     84.6518E-03    -1.94200E-03    -79.2493E-03     36.4567E-03     36.1205E-03    -69.1167E-03    -59.5513E-03     113.981E-03    -56.2412E-03    -57.7324E-03    -57.5516E-03     113.800E-03    -56.2412E-03    -10.6166E-03     78.9712E+06     75.6698E+06    -2.75369E+06     74.9510E+06    -2.03491E+06     78.9712E+06    -7.39889E+06         27.6669
             220    -643.850E-09     135.345E-03     65.1453E-03     16.1025E-03    -83.0245E-03     45.0689E-03     4.22655E-03    -51.0721E-03     14.9688E-03     92.7792E-03    -45.8766E-03    -46.8967E-03    -46.5761E-03     92.7167E-03    -46.1347E-03    -5.90238E-03      48.601E+06     42.5522E+06    -17.0484E+06     44.1544E+06    -15.3100E+06     45.2604E+06    -8.89864E+06         27.0049
             221     139.680E-09     134.268E-03     95.6865E-03    -2.74662E-03    -62.1221E-03     74.3840E-03    -13.3965E-03    -30.1697E-03    -1.68468E-03     58.2244E-03    -28.9568E-03    -29.2646E-03    -28.9784E-03     58.1963E-03    -29.2148E-03    -2.96611E-03    -23.7184E+06    -31.2744E+06    -54.8503E+06    -28.1935E+06    -50.3752E+06    -31.2744E+06    -9.46748E+06         25.8234
             222    -42.4562E-09     133.228E-03     121.368E-03     14.4594E-03    -97.1645E-03     101.964E-03    -64.0749E-03     773.687E-06    -60.6144E-03     33.9330E-03    -16.8482E-03    -17.0840E-03    -16.8920E-03     33.9269E-03    -17.0342E-03    -1.09643E-03    -77.5563E+06    -105.157E+06    -108.899E+06    -103.747E+06    -82.7082E+06    -105.157E+06    -6.72417E+06         24.6222
             223    -324.336E-09     132.202E-03     100.723E-03     60.3049E-03    -115.249E-03     76.2579E-03    -104.521E-03     74.0422E-03     41.7169E-03     19.7641E-03    -9.76709E-03    -9.99650E-03    -9.75849E-03     19.7555E-03    -9.99650E-03     16.5113E-06    -108.104E+06    -171.140E+06    -174.104E+06    -173.104E+06    -109.104E+06    -171.140E+06     -8.0621E+06         23.7289
             224     257.813E-09     131.188E-03     152.806E-03     111.565E-03    -194.904E-03     121.375E-03    -163.473E-03     111.565E-03    -72.0258E-03     13.9814E-03    -6.95847E-03    -7.02295E-03    -6.92828E-03     13.9512E-03    -7.02295E-03     1.47659E-03    -139.040E+06    -235.909E+06    -239.878E+06    -238.598E+06    -140.321E+06    -235.909E+06    -11.2616E+06         23.3440
             225    -341.775E-09     130.176E-03     186.473E-03     106.721E-03    -195.627E-03     131.716E-03    -140.870E-03     106.721E-03    -10.5679E-03     16.6684E-03    -8.23275E-03    -8.43588E-03    -8.33823E-03     16.5918E-03    -8.25381E-03     2.76112E-03    -159.420E+06    -284.968E+06    -292.431E+06    -285.212E+06    -160.360E+06    -291.248E+06    -1.71779E+06         23.6107
             226     517.440E-09     129.157E-03     158.675E-03     63.4133E-03    -93.7542E-03     95.6843E-03    -60.8341E-03     93.4836E-03     115.753E-03     29.7040E-03    -14.7536E-03    -14.9512E-03    -14.8010E-03     29.5693E-03    -14.7691E-03     4.89162E-03    -129.996E+06    -236.151E+06    -247.870E+06    -237.854E+06    -133.732E+06    -242.431E+06     16.1374E+06         24.4550
             227    -656.972E-09     128.118E-03     180.488E-03     94.3406E-03    -147.497E-03     78.7096E-03    -131.866E-03     180.488E-03     88.7008E-03     52.0843E-03    -25.9448E-03    -26.1394E-03    -25.9371E-03     51.8976E-03    -25.9603E-03     7.61485E-03    -87.6231E+06    -127.415E+06    -134.131E+06    -130.659E+06    -93.0622E+06    -125.447E+06     11.8879E+06         25.6288
             228     865.438E-09     127.047E-03     200.721E-03     140.819E-03    -179.962E-03     85.8638E-03    -125.007E-03     200.721E-03    -33.6374E-03     77.6469E-03    -38.5394E-03    -39.1052E-03    -38.8996E-03     77.4413E-03    -38.5394E-03     9.75391E-03    -59.1514E+06    -64.0757E+06    -73.7447E+06    -62.3839E+06    -72.4794E+06    -62.1085E+06     520.432E+03         27.0288
             229    -348.259E-09     125.954E-03     199.602E-03     104.296E-03    -132.111E-03     54.0229E-03    -81.8374E-03     199.602E-03    -74.3952E-03     104.221E-03    -51.6446E-03    -52.5745E-03    -52.4119E-03     104.058E-03    -51.6446E-03     9.90202E-03    -26.3828E+06    -32.0302E+06    -72.5140E+06    -29.1302E+06    -72.4569E+06    -29.3399E+06     1.56786E+06         28.7266
             230     1.33579E-06     124.833E-03     231.194E-03     27.2249E-03    -97.0142E-03    -8.20590E-03    -61.5834E-03     231.194E-03     22.8222E-03     132.683E-03    -66.0707E-03    -66.6155E-03    -66.5093E-03     132.577E-03    -66.0707E-03     9.12749E-03    -5.91127E+06    -8.77223E+06    -82.7908E+06    -9.34011E+06    -82.0523E+06    -6.08188E+06    -4.13670E+06         30.7480
             231    -1.38037E-06     123.671E-03     280.200E-03     9.75197E-03    -107.764E-03    -87.1052E-03    -10.9064E-03     280.200E-03     15.7978E-03     159.962E-03    -79.9531E-03    -80.0159E-03    -79.9319E-03     159.878E-03    -79.9531E-03     8.95276E-03    -1.19205E+06    -3.09790E+06    -97.9612E+06    -1.91920E+06    -97.2341E+06    -3.09790E+06    -6.73456E+06         32.9123
             232     1.41293E-06     122.484E-03     375.355E-03     62.7046E-03    -240.940E-03    -231.708E-03     53.4725E-03     375.355E-03     71.1959E-03     183.792E-03    -91.1328E-03    -92.6667E-03    -92.6138E-03     183.740E-03    -91.1328E-03     7.36574E-03     1.30073E+06    -2.76995E+06    -116.684E+06    -1.20631E+06    -116.512E+06    -434.524E+03    -4.26482E+06         34.8897
             233     1.27732E-06     121.270E-03     480.814E-03     163.478E-03    -421.553E-03    -416.192E-03     158.118E-03     480.814E-03     104.396E-03     202.782E-03    -100.566E-03    -102.222E-03    -102.201E-03     202.762E-03    -100.566E-03     4.84452E-03    -11.3541E+06    -14.6623E+06    -140.290E+06    -14.2628E+06    -139.716E+06    -12.3269E+06    -8.21833E+06         36.4638
             234    -951.551E-09     120.037E-03     694.604E-03     181.077E-03    -648.071E-03    -643.170E-03     176.177E-03     694.604E-03     91.5518E-03     216.449E-03    -107.786E-03    -108.669E-03    -108.662E-03     216.442E-03    -107.786E-03     2.56658E-03    -25.5113E+06    -27.7745E+06    -168.624E+06    -26.0225E+06    -168.113E+06    -27.7745E+06    -7.74024E+06         37.5948
             235     2.19179E-06     118.787E-03     934.263E-03     233.801E-03    -941.837E-03    -925.194E-03     217.158E-03     934.263E-03     222.588E-03     224.939E-03    -112.107E-03    -112.840E-03    -112.838E-03     224.937E-03    -112.107E-03     1.75587E-03    -40.2337E+06    -42.0426E+06    -192.475E+06    -40.3381E+06    -192.371E+06    -42.0426E+06    -3.89345E+06         38.3258
             236    -2.13796E-06     117.534E-03         1.11035     402.371E-03        -1.28634        -1.26610     382.127E-03         1.11035     333.583E-03     229.307E-03    -114.490E-03    -114.824E-03    -114.522E-03     229.305E-03    -114.790E-03     1.02784E-03    -65.3014E+06    -66.1154E+06    -206.783E+06    -65.7106E+06    -206.670E+06    -65.8198E+06    -3.84767E+06         38.7500
             237     1.61151E-06     116.274E-03         1.35054     527.157E-03        -1.64497        -1.63829     520.475E-03         1.35054     239.544E-03     232.164E-03    -115.814E-03    -116.358E-03    -116.057E-03     232.162E-03    -116.114E-03     1.07758E-03    -80.1001E+06    -81.4136E+06    -223.024E+06    -80.6262E+06    -222.793E+06    -81.1179E+06    -5.69847E+06         38.9828
             238    -1.18852E-06     115.010E-03         1.53560     597.031E-03        -1.89256        -1.88840     592.867E-03         1.53560     196.495E-03     233.488E-03    -116.398E-03    -117.096E-03    -117.093E-03     233.485E-03    -116.398E-03     697.472E-06    -103.439E+06    -105.476E+06    -248.547E+06    -104.644E+06    -248.361E+06    -104.457E+06    -4.97457E+06         39.1056
             239     2.01334E-06     113.750E-03         1.69923     644.220E-03        -2.10794        -2.10148     637.755E-03         1.69923     252.201E-03     233.855E-03    -116.120E-03    -117.743E-03    -117.743E-03     233.855E-03    -116.120E-03    -293.600E-06    -120.847E+06    -122.481E+06    -267.628E+06    -121.991E+06    -267.503E+06    -121.462E+06    -4.21305E+06         39.1701
             240     71.1928E-09     112.487E-03         1.87031     702.194E-03        -2.34723        -2.33830     693.267E-03         1.87031     327.001E-03     235.038E-03    -116.557E-03    -118.491E-03    -118.491E-03     235.038E-03    -116.557E-03     149.998E-06    -130.947E+06    -131.771E+06    -289.527E+06    -131.333E+06    -289.351E+06    -131.562E+06    -5.27913E+06         39.2147
             241     1.29219E-06     111.223E-03         1.94721     814.420E-03        -2.52991        -2.52629     810.797E-03         1.94721     168.709E-03     235.342E-03    -116.785E-03    -118.567E-03    -117.549E-03     235.342E-03    -117.803E-03     269.152E-06    -142.802E+06    -143.344E+06    -310.147E+06    -143.137E+06    -310.022E+06    -143.134E+06    -4.41698E+06         39.2482
             242    -3.10609E-06     109.958E-03         1.97608     930.723E-03        -2.69139        -2.69007     929.402E-03         1.97608     115.507E-03     235.028E-03    -116.712E-03    -118.327E-03    -117.309E-03     235.028E-03    -117.730E-03     85.3514E-06    -140.726E+06    -143.099E+06    -320.343E+06    -140.763E+06    -320.305E+06    -143.099E+06    -2.28958E+06         39.2762
             243     4.14458E-06     108.696E-03         1.95544         1.05895        -2.81879        -2.81752         1.05767         1.95544     101.915E-03     236.076E-03    -116.773E-03    -119.310E-03    -119.310E-03     236.076E-03    -116.773E-03    -417.178E-06    -140.935E+06    -145.948E+06    -327.983E+06    -143.911E+06    -327.979E+06    -142.977E+06    -881.282E+03         39.3099
             244    -664.087E-09     107.430E-03         1.89799         1.09117        -2.78418        -2.78407         1.09106         1.89799     33.0761E-03     236.724E-03    -117.302E-03    -119.428E-03    -119.427E-03     236.723E-03    -117.302E-03    -876.785E-06    -140.760E+06    -146.712E+06    -331.120E+06    -143.734E+06    -331.117E+06    -143.741E+06    -743.448E+03         39.3346
             245     962.596E-09     106.164E-03         1.81390         1.03639        -2.67056        -2.67022         1.03605         1.81390    -12.1339E-03     236.140E-03    -117.585E-03    -118.560E-03    -117.771E-03     236.140E-03    -118.374E-03    -864.322E-06    -140.498E+06    -144.931E+06    -331.064E+06    -141.956E+06    -331.058E+06    -143.480E+06     172.980E+03         39.3352
             246    -2.34168E-06     104.898E-03         1.64854         1.10698        -2.59585        -2.59504         1.10617         1.64854    -107.035E-03     235.418E-03    -117.238E-03    -118.188E-03    -117.397E-03     235.416E-03    -118.026E-03    -1.39175E-03    -142.539E+06    -146.498E+06    -333.679E+06    -144.008E+06    -333.662E+06    -145.046E+06    -542.600E+03         39.3316
             247     2.59541E-06     103.638E-03         1.41457         1.17478        -2.45031        -2.44551         1.16998         1.41457    -238.167E-03     235.822E-03    -117.176E-03    -118.652E-03    -118.650E-03     235.820E-03    -117.176E-03    -1.13460E-03    -137.593E+06    -143.570E+06    -334.191E+06    -141.094E+06    -334.159E+06    -140.101E+06     187.223E+03         39.3444
             248    -207.170E-09     102.369E-03         1.20766         1.13175        -2.20769        -2.20340         1.13723         1.19790    -192.844E-03     236.294E-03    -117.375E-03    -118.922E-03    -118.922E-03     236.294E-03    -117.375E-03    -45.9017E-06    -132.310E+06    -137.255E+06    -332.088E+06    -135.813E+06    -332.054E+06    -133.787E+06     113.574E+03         39.3682
             249     610.002E-09     101.106E-03         1.11328     919.385E-03        -1.90077        -1.89951         1.11201     919.385E-03    -103.331E-03     236.292E-03    -117.948E-03    -118.351E-03    -118.351E-03     236.292E-03    -117.948E-03     50.5785E-06    -135.273E+06    -137.192E+06    -334.760E+06    -135.317E+06    -334.716E+06    -137.192E+06     476.469E+03         39.3932
             250    -310.743E-09     99.8395E-03         1.09998     569.198E-03        -1.55708        -1.55481         1.09771     569.198E-03    -155.322E-03     236.550E-03    -117.472E-03    -119.086E-03    -119.084E-03     236.548E-03    -117.472E-03    -1.05156E-03    -131.967E+06    -133.399E+06    -332.609E+06    -132.989E+06    -332.575E+06    -132.410E+06     2.40063E+06         39.4070
             251     2.88605E-06     98.5743E-03         1.05443     190.813E-03        -1.14606        -1.14496         1.05333     190.813E-03    -82.6087E-03     236.270E-03    -117.165E-03    -119.109E-03    -119.106E-03     236.267E-03    -117.165E-03    -716.938E-06    -126.258E+06    -127.987E+06    -327.665E+06    -127.272E+06    -327.640E+06    -126.999E+06    -733.761E+03         39.4046
             252    -1.99940E-06     97.3102E-03     994.368E-03    -165.394E-03    -756.938E-03    -756.736E-03     994.166E-03    -165.394E-03     13.5894E-03     236.580E-03    -117.932E-03    -118.654E-03    -118.430E-03     236.579E-03    -118.155E-03    -187.552E-06    -127.052E+06    -128.071E+06    -327.516E+06    -127.354E+06    -327.493E+06    -127.792E+06    -942.108E+03         39.4035
             253     1.60274E-06     96.0424E-03     919.136E-03    -255.715E-03    -611.673E-03    -396.542E-03     918.793E-03    -470.504E-03     42.3149E-03     237.030E-03    -117.987E-03    -119.054E-03    -118.831E-03     237.030E-03    -118.210E-03    -1.02712E-03    -124.087E+06    -125.360E+06    -325.216E+06    -124.375E+06    -325.208E+06    -125.080E+06     1.23615E+06         39.3988
             254    -112.934E-09     94.7777E-03     762.473E-03     1.59661E-03    -716.694E-03     3.30439E-03     760.765E-03    -716.694E-03     56.2458E-03     235.599E-03    -117.111E-03    -118.499E-03    -118.498E-03     235.598E-03    -117.111E-03    -1.12135E-03    -120.601E+06    -122.352E+06    -321.275E+06    -121.376E+06    -321.259E+06    -121.594E+06     1.79613E+06         39.3808
             255     1.08573E-06     93.5140E-03     608.614E-03     336.749E-03    -924.546E-03     356.134E-03     589.228E-03    -924.546E-03     79.8383E-03     235.521E-03    -116.996E-03    -118.532E-03    -118.530E-03     235.519E-03    -116.996E-03     102.654E-06    -119.071E+06    -120.069E+06    -318.058E+06    -119.848E+06    -318.040E+06    -119.311E+06     183.555E+03         39.3765
             256     684.051E-09     92.2503E-03     689.084E-03     465.371E-03        -1.17852     663.037E-03     491.418E-03        -1.17852     17.5653E-03     236.828E-03    -117.542E-03    -119.292E-03    -119.288E-03     236.824E-03    -117.542E-03    -457.956E-06    -119.334E+06    -120.423E+06    -317.913E+06    -119.351E+06    -317.896E+06    -120.423E+06     78.6972E+03         39.3897
             257     642.586E-09     90.9816E-03     967.293E-03     421.967E-03        -1.44324     966.413E-03     422.847E-03        -1.44324    -19.0718E-03     236.097E-03    -117.491E-03    -118.610E-03    -118.607E-03     236.094E-03    -117.491E-03    -1.19147E-03    -117.471E+06    -119.425E+06    -316.601E+06    -118.587E+06    -316.589E+06    -118.320E+06     420.122E+03         39.3995
             258     23.5745E-09     89.7211E-03         1.30582     264.180E-03        -1.64567         1.30090     269.101E-03        -1.64567     120.513E-03     236.418E-03    -117.916E-03    -118.508E-03    -118.278E-03     236.417E-03    -118.146E-03     31.4438E-06    -116.348E+06    -119.111E+06    -315.385E+06    -117.455E+06    -315.382E+06    -118.007E+06    -426.156E+03         39.4083
             259    -452.458E-09     88.4506E-03         1.63802    -21.6164E-03        -1.73474         1.63096    -14.5516E-03        -1.73474     206.937E-03     237.283E-03    -118.183E-03    -119.108E-03    -118.877E-03     237.282E-03    -118.412E-03    -1.28728E-03    -118.546E+06    -122.042E+06    -317.384E+06    -120.385E+06    -317.382E+06    -120.205E+06     590.515E+03         39.4100
             260     1.70976E-06     87.1874E-03         1.92635    -235.014E-03        -1.83173         1.92171    -230.381E-03        -1.83173     199.918E-03     236.391E-03    -117.705E-03    -118.692E-03    -118.690E-03     236.389E-03    -117.705E-03    -1.32899E-03    -117.346E+06    -120.041E+06    -315.226E+06    -119.193E+06    -315.216E+06    -118.204E+06    -395.223E+03         39.3897
             261    -1.20193E-06     85.9218E-03         2.13091    -347.122E-03        -1.94934         2.12468    -340.885E-03        -1.94934     247.518E-03     235.589E-03    -117.107E-03    -118.486E-03    -118.485E-03     235.587E-03    -117.107E-03    -1.23393E-03    -118.211E+06    -119.443E+06    -314.085E+06    -118.221E+06    -314.075E+06    -119.443E+06    -1.40436E+06         39.3661
             262     3.12655E-06     84.6561E-03         2.27333    -505.819E-03        -1.98067         2.26690    -499.387E-03        -1.98067     265.168E-03     235.670E-03    -117.200E-03    -118.477E-03    -118.474E-03     235.667E-03    -117.200E-03     19.5168E-06    -123.090E+06    -123.547E+06    -318.397E+06    -123.095E+06    -318.392E+06    -123.547E+06    -93.3174E+03         39.3726
             263    -2.79277E-06     83.3946E-03         2.40722    -640.916E-03        -2.01952         2.40157    -635.265E-03        -2.01952     262.219E-03     237.182E-03    -118.417E-03    -118.777E-03    -118.603E-03     237.180E-03    -118.589E-03     301.512E-06    -122.928E+06    -123.265E+06    -319.134E+06    -123.185E+06    -319.132E+06    -123.011E+06     183.135E+03         39.4024
             264     2.48251E-06     82.1222E-03         2.51916    -839.121E-03        -1.96658         2.51522    -835.178E-03        -1.96658     219.399E-03     237.225E-03    -118.333E-03    -118.903E-03    -118.730E-03     237.224E-03    -118.505E-03    -1.04678E-03    -120.984E+06    -122.001E+06    -319.770E+06    -121.239E+06    -319.769E+06    -121.747E+06    -492.691E+03         39.4128
             265    -1.78210E-06     80.8610E-03         2.63141        -1.12145        -1.82152         2.62871        -1.11875        -1.82152     199.710E-03     235.949E-03    -117.161E-03    -118.794E-03    -118.793E-03     235.948E-03    -117.161E-03    -999.893E-06    -121.390E+06    -122.854E+06    -321.709E+06    -122.104E+06    -321.697E+06    -122.153E+06     818.122E+03         39.4020
             266     3.98333E-06     79.5951E-03         2.64371        -1.22469        -1.75852         2.64185        -1.22284        -1.75852     145.888E-03     236.702E-03    -117.299E-03    -119.408E-03    -119.407E-03     236.701E-03    -117.299E-03    -603.334E-06    -121.177E+06    -121.948E+06    -319.835E+06    -121.978E+06    -319.805E+06    -121.177E+06    -282.713E+03         39.4055
             267    -2.42895E-06     78.3298E-03         2.64172        -1.32554        -1.69531         2.64113        -1.32495        -1.69531     91.9499E-03     237.442E-03    -118.248E-03    -119.201E-03    -119.199E-03     237.441E-03    -118.248E-03    -812.574E-06    -123.072E+06    -124.545E+06    -321.729E+06    -123.184E+06    -321.688E+06    -124.475E+06     147.647E+03         39.4150
             268     2.54911E-06     77.0606E-03         2.66037        -1.45219        -1.63974         2.65985        -1.53903        -1.55238     47.3299E-03     236.719E-03    -118.147E-03    -118.578E-03    -118.577E-03     236.718E-03    -118.147E-03    -880.186E-06    -118.644E+06    -123.044E+06    -319.427E+06    -121.671E+06    -319.397E+06    -120.047E+06      665.68E+03         39.4025
             269    -1.88705E-06     75.7971E-03         2.60938        -1.37675        -1.70790         2.60935        -1.70787        -1.37675    -19.6140E-03     235.863E-03    -117.700E-03    -118.167E-03    -118.167E-03     235.863E-03    -117.700E-03    -577.159E-06    -118.403E+06    -125.340E+06    -319.325E+06    -121.416E+06    -319.309E+06    -122.343E+06    -1.78605E+06         39.3848
             270     2.02991E-06     74.5329E-03         2.51848        -1.22536        -1.81998         2.51658        -1.81809        -1.22536    -131.530E-03     236.245E-03    -117.703E-03    -118.546E-03    -118.546E-03     236.245E-03    -117.703E-03    -273.954E-06    -119.958E+06    -126.543E+06    -320.009E+06    -122.650E+06    -319.961E+06    -123.898E+06     974.186E+03         39.3936
             271    -709.530E-09     73.2648E-03         2.37696        -1.11056        -1.85520         2.37418        -1.85243        -1.11056    -213.390E-03     237.031E-03    -118.130E-03    -118.910E-03    -118.859E-03     237.031E-03    -118.181E-03     401.892E-06    -117.457E+06    -121.554E+06    -315.422E+06    -120.144E+06    -315.380E+06    -118.908E+06     1.34273E+06         39.4132
             272     605.312E-09     72.0010E-03         2.27703    -949.026E-03        -1.95636         2.27477        -1.95410    -949.026E-03    -194.869E-03     236.774E-03    -117.850E-03    -118.940E-03    -118.885E-03     236.770E-03    -117.901E-03    -1.65446E-03    -120.965E+06    -123.645E+06    -316.761E+06    -122.200E+06    -316.756E+06    -122.416E+06    -1.04558E+06         39.4082
             273     1.23857E-06     70.7367E-03         2.13647    -679.869E-03        -2.14249         2.13337        -2.13940    -679.869E-03    -229.636E-03     236.263E-03    -117.165E-03    -119.110E-03    -119.105E-03     236.258E-03    -117.165E-03    -1.05572E-03    -124.676E+06    -126.515E+06    -320.252E+06    -125.932E+06    -320.225E+06    -125.286E+06    -2.01908E+06         39.3920
             274     15.1185E-03     69.0847E-03     655.181E-03     531.348E-03        -1.92501     531.084E-03        -1.92474     655.181E-03    -19.7480E-03     245.927E-03    -116.995E-03    -129.045E-03    -116.824E-03     234.680E-03    -117.969E-03     104.698E-03     118.047E+06     104.046E+06    -6.58083E+06    -6.57277E+06     118.039E+06     104.046E+06     147.977E+03         60.2590
             275     14.2294E-03     68.8649E-03     664.483E-03     557.226E-03        -1.96788     557.060E-03        -1.96771     664.483E-03    -14.3234E-03     248.885E-03    -118.023E-03    -130.931E-03    -116.300E-03     234.255E-03    -118.023E-03     141.760E-03     110.385E+06     103.058E+06    -13.4202E+06    -13.4115E+06     110.376E+06     103.058E+06     25.0818E+03         58.0362
             276     13.3395E-03     68.7434E-03     673.263E-03     579.210E-03        -2.00878     579.074E-03        -2.00864     673.263E-03    -27.4943E-03     241.912E-03    -118.091E-03    -123.834E-03    -114.318E-03     232.395E-03    -118.091E-03     115.673E-03     101.224E+06     99.0978E+06    -21.8424E+06    -21.8257E+06     101.003E+06     99.3018E+06    -556.739E+03         56.0974
             277     12.4494E-03     68.5863E-03     681.216E-03     596.544E-03        -2.04348     596.423E-03        -2.04336     681.216E-03     23.8551E-03     241.435E-03    -118.050E-03    -123.339E-03    -114.163E-03     232.259E-03    -118.050E-03     113.161E-03     96.5664E+06     83.2241E+06    -29.7804E+06    -29.7597E+06     96.3417E+06     83.4281E+06    -1.12811E+06         54.5471
             278     11.5589E-03     68.4825E-03     688.677E-03     609.424E-03        -2.06768     609.273E-03        -2.06753     688.677E-03     25.0589E-03     237.360E-03    -117.856E-03    -119.513E-03    -113.894E-03     231.896E-03    -118.011E-03     87.1149E-03     94.3169E+06     57.9087E+06    -37.1913E+06    -37.1811E+06     94.3067E+06     57.9087E+06    -83.6759E+03         52.7810
             279     10.6676E-03     68.3894E-03     695.638E-03     624.850E-03        -2.09502     624.057E-03        -2.09423     695.638E-03     64.5931E-03     235.283E-03    -117.150E-03    -118.176E-03    -113.970E-03     231.979E-03    -118.051E-03     67.1305E-03     84.3304E+06     34.6973E+06    -43.9020E+06    -43.8955E+06     84.3239E+06     34.6973E+06     112.633E+03         50.6430
             280     9.77920E-03     68.3307E-03     701.771E-03     646.790E-03        -2.12885     645.856E-03        -2.12792     701.771E-03     95.0692E-03     234.893E-03    -116.763E-03    -118.136E-03    -114.995E-03     233.125E-03    -118.136E-03     49.1301E-03     44.6144E+06     5.69325E+06    -50.1081E+06    -50.1061E+06     31.5896E+06     18.7161E+06    -254.344E+03         48.4753
             281     8.88883E-03     68.2832E-03     706.981E-03     661.588E-03        -2.15060     661.412E-03        -2.15042     706.981E-03     25.0720E-03     235.235E-03    -117.002E-03    -118.242E-03    -116.012E-03     234.245E-03    -118.242E-03     37.0333E-03     6.15227E+06    -36.8588E+06    -67.2444E+06    -56.7302E+06    -47.3731E+06     6.15227E+06    -81.4138E+03         46.5499
             282     7.99962E-03     68.2507E-03     712.344E-03     661.649E-03        -2.16000     661.639E-03        -2.15999     712.344E-03    -3.66623E-03     235.360E-03    -117.093E-03    -118.307E-03    -116.524E-03     234.790E-03    -118.307E-03     27.9226E-03    -4.20514E+06    -63.3851E+06    -106.255E+06    -63.3952E+06    -106.245E+06    -4.20514E+06    -109.611E+03         44.9247
             283     7.11122E-03     68.2282E-03     718.373E-03     670.081E-03        -2.17565     670.016E-03        -2.17558     718.373E-03    -16.8873E-03     235.430E-03    -117.122E-03    -118.358E-03    -116.834E-03     235.142E-03    -118.358E-03     19.8487E-03    -13.9989E+06    -70.3807E+06    -153.024E+06    -70.3829E+06    -153.022E+06    -13.9989E+06     271.766E+03         43.5791
             284     6.22187E-03     68.2119E-03     723.677E-03     693.689E-03        -2.20226     693.566E-03        -2.20214     723.677E-03    -704.057E-06     235.724E-03    -117.374E-03    -118.380E-03    -117.234E-03     235.583E-03    -118.380E-03     13.8161E-03    -24.7919E+06    -78.0315E+06    -192.752E+06    -78.0396E+06    -192.744E+06    -24.7919E+06    -1.38477E+03         42.4885
             285     5.33315E-03     68.2031E-03     727.108E-03     714.125E-03        -2.22489     712.726E-03        -2.22349     727.108E-03    -69.1609E-03     236.123E-03    -117.768E-03    -118.398E-03    -117.707E-03     236.063E-03    -118.398E-03     8.93274E-03    -35.6071E+06    -86.0541E+06    -232.020E+06    -86.0632E+06    -232.011E+06    -35.6071E+06    -105.615E+03         41.5976
             286     4.44350E-03     68.1995E-03     730.035E-03     718.514E-03        -2.23364     716.729E-03        -2.23147     729.641E-03    -17.1212E-03     236.097E-03    -117.754E-03    -118.383E-03    -117.734E-03     236.077E-03    -118.383E-03     5.05195E-03    -50.7082E+06    -94.5138E+06    -263.741E+06    -94.5185E+06    -263.736E+06    -50.7082E+06     43.3810E+03         40.8684
             287     3.55502E-03     68.1980E-03     733.891E-03     721.864E-03        -2.23979     722.487E-03        -2.23868     732.152E-03     110.172E-03     236.101E-03    -117.746E-03    -118.366E-03    -117.766E-03     236.096E-03    -118.342E-03     2.27538E-03    -69.0624E+06    -103.053E+06    -281.188E+06    -103.057E+06    -281.183E+06    -69.0624E+06    -517.763E+03         40.3002
             288     2.66638E-03     68.1992E-03     739.731E-03     727.435E-03        -2.24680     733.550E-03        -2.24648     733.297E-03     46.6797E-03     236.307E-03    -117.902E-03    -118.415E-03    -118.002E-03     236.306E-03    -118.315E-03     562.238E-06    -87.9212E+06    -111.174E+06    -295.345E+06    -111.177E+06    -295.342E+06    -87.9212E+06    -374.483E+03         39.8831
             289     1.77722E-03     68.2033E-03     740.699E-03     728.796E-03        -2.25168     736.381E-03        -2.25072     732.159E-03     79.8476E-03     236.378E-03    -117.970E-03    -118.416E-03    -118.128E-03     236.378E-03    -118.258E-03    -174.395E-06    -106.638E+06    -118.572E+06    -307.703E+06    -118.587E+06    -307.688E+06    -106.638E+06    -149.802E+03         39.5997
             290     888.683E-06     68.2009E-03         1.22636     242.824E-03        -2.24838         1.21967        -2.24170     242.824E-03    -137.256E-03     236.387E-03    -117.939E-03    -118.457E-03    -118.352E-03     236.386E-03    -118.043E-03    -1.01097E-03    -119.008E+06    -122.602E+06    -315.059E+06    -122.552E+06    -314.985E+06    -119.132E+06     453.618E+03         39.4330
             291     15.1194E-03     67.8215E-03     673.742E-03     561.227E-03        -2.03225     560.944E-03        -2.03196     673.742E-03    -23.8205E-03     245.965E-03    -117.128E-03    -128.949E-03    -116.717E-03     234.574E-03    -117.969E-03     104.943E-03     118.057E+06     104.371E+06    -6.15088E+06    -6.14616E+06     118.052E+06     104.371E+06     632.559E+03         60.2531
             292     14.2289E-03     67.5962E-03     682.053E-03     584.201E-03        -2.07000     583.989E-03        -2.06979     682.053E-03    -20.2088E-03     249.165E-03    -118.018E-03    -131.230E-03    -116.485E-03     234.420E-03    -118.018E-03     142.141E-03     110.877E+06     103.237E+06    -13.1114E+06    -13.1067E+06     110.873E+06     103.237E+06     436.094E+03         58.0311
             293     13.3405E-03     67.4787E-03     689.572E-03     613.344E-03        -2.11376     613.139E-03        -2.11355     689.572E-03    -40.1796E-03     241.819E-03    -118.077E-03    -123.728E-03    -114.308E-03     232.399E-03    -118.077E-03     115.026E-03     102.168E+06     99.5211E+06    -20.9645E+06    -20.9630E+06     102.166E+06     99.5211E+06     105.814E+03         56.0871
             294     12.4467E-03     67.3253E-03     695.962E-03     631.902E-03        -2.14666     631.753E-03        -2.14651     695.962E-03     17.7262E-03     240.714E-03    -118.055E-03    -122.579E-03    -113.405E-03     231.540E-03    -118.055E-03     112.991E-03     96.5208E+06     82.8181E+06    -29.3121E+06    -29.3054E+06     96.5141E+06     82.8181E+06    -593.238E+03         54.5337
             295     11.5583E-03     67.2100E-03     701.706E-03     644.313E-03        -2.16990     644.119E-03        -2.16971     701.706E-03     20.8097E-03     237.445E-03    -118.046E-03    -119.411E-03    -114.028E-03     232.062E-03    -118.046E-03     86.2917E-03     94.3842E+06     58.7237E+06    -36.6235E+06    -36.6137E+06     94.3744E+06     58.7237E+06    -935.096E+03         52.7848
             296     10.6705E-03     67.1301E-03     706.925E-03     654.753E-03        -2.19092     654.084E-03        -2.19026     706.925E-03     50.9998E-03     235.851E-03    -117.575E-03    -118.322E-03    -114.572E-03     232.588E-03    -118.062E-03     67.1520E-03     85.1598E+06     35.6645E+06    -44.0074E+06    -44.0007E+06     85.1530E+06     35.6645E+06    -141.154E+03         50.6636
             297     9.77790E-03     67.0607E-03     711.904E-03     663.018E-03        -2.20973     662.298E-03        -2.20901     711.904E-03     73.0933E-03     235.158E-03    -117.054E-03    -118.106E-03    -115.233E-03     233.337E-03    -118.106E-03     49.5768E-03     44.0951E+06     4.80938E+06    -51.3863E+06    -51.3806E+06     30.9880E+06     17.9108E+06     95.6340E+03         48.4870
             298     8.89043E-03     67.0200E-03     716.762E-03     671.985E-03        -2.22621     671.860E-03        -2.22608     716.762E-03     10.0379E-03     235.005E-03    -116.813E-03    -118.206E-03    -115.867E-03     234.060E-03    -118.206E-03     36.2173E-03     5.85174E+06    -37.3052E+06    -67.0225E+06    -57.3353E+06    -46.9924E+06     5.85174E+06    -36.1133E+03         46.5448
             299     7.99980E-03     66.9841E-03     721.728E-03     677.385E-03        -2.23596     677.373E-03        -2.23595     721.728E-03    -4.82342E-03     234.982E-03    -116.746E-03    -118.291E-03    -116.192E-03     234.428E-03    -118.291E-03     27.4654E-03    -4.43142E+06    -63.2771E+06    -105.921E+06    -63.2792E+06    -105.919E+06    -4.43142E+06    -106.252E+03         44.9145
             300     7.11063E-03     66.9620E-03     726.997E-03     684.985E-03        -2.25044     684.729E-03        -2.25019     726.997E-03    -33.2379E-03     235.398E-03    -117.100E-03    -118.360E-03    -116.819E-03     235.118E-03    -118.360E-03     19.6579E-03    -14.3006E+06    -70.2816E+06    -153.060E+06    -70.2844E+06    -153.058E+06    -14.3006E+06     181.958E+03         43.5733
             301     6.22156E-03     66.9471E-03     731.563E-03     706.129E-03        -2.27680     705.808E-03        -2.27648     731.563E-03    -14.7802E-03     235.649E-03    -117.293E-03    -118.389E-03    -117.148E-03     235.504E-03    -118.389E-03     14.0572E-03    -24.8713E+06    -77.2994E+06    -191.924E+06    -77.3040E+06    -191.920E+06    -24.8713E+06     305.847E+03         42.4847
             302     5.33203E-03     66.9368E-03     734.531E-03     722.298E-03        -2.29216     721.467E-03        -2.29133     734.531E-03    -47.8478E-03     235.879E-03    -117.473E-03    -118.444E-03    -117.412E-03     235.818E-03    -118.444E-03     8.91898E-03    -35.6956E+06    -84.7597E+06    -232.083E+06    -84.7631E+06    -232.080E+06    -35.6956E+06     12.3108E+03         41.5932
             303     4.44443E-03     66.9336E-03     737.854E-03     717.616E-03        -2.29307     715.654E-03        -2.29111     737.854E-03     17.0044E-03     236.171E-03    -117.744E-03    -118.469E-03    -117.724E-03     236.150E-03    -118.469E-03     5.20672E-03    -50.2167E+06    -93.2328E+06    -263.398E+06    -93.2356E+06    -263.395E+06    -50.2167E+06    -250.218E+03         40.8703
             304     3.55516E-03     66.9328E-03     742.744E-03     722.862E-03        -2.30397     721.412E-03        -2.30252     742.744E-03     123.075E-03     236.349E-03    -117.889E-03    -118.482E-03    -117.941E-03     236.342E-03    -118.423E-03     2.65407E-03    -69.1093E+06    -102.519E+06    -281.052E+06    -102.522E+06    -281.050E+06    -69.1093E+06    -340.546E+03         40.3118
             305     2.66535E-03     66.9346E-03     750.468E-03     738.183E-03        -2.32420     741.893E-03        -2.32355     746.113E-03     82.6623E-03     236.704E-03    -118.090E-03    -118.635E-03    -118.406E-03     236.703E-03    -118.318E-03     260.047E-06    -88.9562E+06    -111.566E+06    -296.060E+06    -111.568E+06    -296.058E+06    -88.9562E+06     79.9601E+03         39.8982
             306     1.77803E-03     66.9351E-03     764.800E-03     739.089E-03        -2.33894     759.987E-03        -2.33749     742.451E-03     124.422E-03     236.541E-03    -118.062E-03    -118.500E-03    -118.498E-03     236.540E-03    -118.062E-03    -1.07267E-03    -105.824E+06    -117.978E+06    -306.685E+06    -117.986E+06    -306.676E+06    -105.824E+06     308.518E+03         39.6070
             307     889.440E-06     66.9388E-03         1.12151     358.063E-03        -2.31147         1.11820        -2.30815     358.063E-03     25.2180E-03     235.698E-03    -117.600E-03    -118.111E-03    -118.013E-03     235.696E-03    -117.697E-03    -1.12615E-03    -118.532E+06    -123.103E+06    -314.293E+06    -122.526E+06    -314.270E+06    -119.131E+06    -446.365E+03         39.4244
             308     15.1195E-03     66.5568E-03     688.925E-03     593.146E-03        -2.13869     593.030E-03        -2.13858     688.925E-03    -2.64202E-03     246.201E-03    -117.213E-03    -129.075E-03    -116.782E-03     234.675E-03    -117.980E-03     105.362E-03     118.173E+06     104.614E+06    -6.18942E+06    -6.17383E+06     118.158E+06     104.614E+06     609.943E+03         60.2503
             309     14.2291E-03     66.3310E-03     695.776E-03     613.041E-03        -2.16959     612.865E-03        -2.16941     695.776E-03    -8.85854E-03     249.013E-03    -118.042E-03    -131.039E-03    -116.087E-03     234.062E-03    -118.042E-03     143.107E-03     111.385E+06     103.794E+06    -13.1090E+06    -13.0881E+06     111.364E+06     103.794E+06     1.31267E+06         58.0293
             310     13.3383E-03     66.2111E-03     702.170E-03     629.056E-03        -2.19771     628.884E-03        -2.19754     702.170E-03    -22.5673E-03     242.141E-03    -118.112E-03    -124.048E-03    -114.704E-03     232.798E-03    -118.112E-03     114.859E-03     103.881E+06     100.863E+06    -21.3468E+06    -21.3381E+06     103.873E+06     100.863E+06     733.656E+03         56.0887
             311     12.4518E-03     66.0630E-03     707.960E-03     644.565E-03        -2.22429     644.397E-03        -2.22412     707.960E-03     27.5313E-03     241.067E-03    -118.058E-03    -122.959E-03    -113.831E-03     231.938E-03    -118.058E-03     113.069E-03     98.4725E+06     83.5775E+06    -29.9353E+06    -29.9326E+06     98.4698E+06     83.5775E+06    -2.93019E+03         54.5382
             312     11.5577E-03     65.9452E-03     713.061E-03     664.346E-03        -2.25625     664.158E-03        -2.25606     713.061E-03     8.86088E-03     237.031E-03    -117.989E-03    -119.040E-03    -113.485E-03     231.525E-03    -118.039E-03     87.1097E-03     92.4906E+06     55.3849E+06    -38.6489E+06    -38.6420E+06     92.4837E+06     55.3849E+06    -641.012E+03         52.7921
             313     10.6668E-03     65.8619E-03     717.286E-03     679.072E-03        -2.27858     678.490E-03        -2.27800     717.286E-03     36.5529E-03     236.239E-03    -117.996E-03    -118.286E-03    -114.954E-03     232.974E-03    -118.064E-03     67.1374E-03     84.5149E+06     33.5278E+06    -45.7247E+06    -45.7144E+06     84.5046E+06     33.5278E+06    -537.519E+03         50.6769
             314     9.78069E-03     65.7965E-03     721.289E-03     680.670E-03        -2.28854     680.128E-03        -2.28800     721.289E-03     60.7126E-03     235.408E-03    -117.247E-03    -118.170E-03    -115.526E-03     233.601E-03    -118.083E-03     49.5109E-03     45.1121E+06     5.14858E+06    -51.2494E+06    -51.2305E+06     32.0287E+06     18.2131E+06    -457.265E+03         48.4953
             315     8.88931E-03     65.7529E-03     725.524E-03     684.814E-03        -2.30108     684.785E-03        -2.30105     725.524E-03     2.61731E-03     234.817E-03    -116.644E-03    -118.177E-03    -115.685E-03     233.858E-03    -118.177E-03     36.4177E-03     5.78024E+06    -37.6324E+06    -66.5143E+06    -56.9943E+06    -47.1524E+06     5.78024E+06    -505.026E+03         46.5412
             316     8.00124E-03     65.7200E-03     729.342E-03     700.837E-03        -2.31969     700.825E-03        -2.31967     729.342E-03    -1.46135E-03     234.902E-03    -116.675E-03    -118.268E-03    -116.106E-03     234.332E-03    -118.268E-03     27.9040E-03    -4.32415E+06    -63.1148E+06    -105.250E+06    -63.1163E+06    -105.248E+06    -4.32415E+06     10.3869E+03         44.9074
             317     7.11061E-03     65.6966E-03     732.447E-03     710.146E-03        -2.33489     709.845E-03        -2.33459     732.447E-03    -38.6220E-03     235.240E-03    -116.939E-03    -118.347E-03    -116.647E-03     234.948E-03    -118.347E-03     19.9614E-03    -14.4342E+06    -69.6203E+06    -153.150E+06    -69.6299E+06    -153.141E+06    -14.4342E+06    -183.048E+03         43.5684
             318     6.22171E-03     65.6808E-03     735.221E-03     717.147E-03        -2.34365     716.796E-03        -2.34330     735.221E-03    -22.4266E-03     235.632E-03    -117.269E-03    -118.395E-03    -117.131E-03     235.495E-03    -118.395E-03     13.6310E-03    -24.4032E+06    -76.8640E+06    -191.896E+06    -76.8761E+06    -191.884E+06    -24.4032E+06    -173.582E+03         42.4812
             319     5.33296E-03     65.6722E-03     737.651E-03     725.280E-03        -2.35166     724.490E-03        -2.35087     737.651E-03    -48.9394E-03     235.638E-03    -117.200E-03    -118.476E-03    -117.144E-03     235.581E-03    -118.476E-03     8.68190E-03    -35.2786E+06    -85.0678E+06    -231.929E+06    -85.0729E+06    -231.923E+06    -35.2786E+06     20.4633E+03         41.5907
             320     4.44209E-03     65.6676E-03     741.944E-03     727.549E-03        -2.36141     727.553E-03        -2.35947     740.003E-03     18.8357E-03     236.139E-03    -117.629E-03    -118.545E-03    -117.608E-03     236.118E-03    -118.545E-03     5.13257E-03    -50.0779E+06    -93.9492E+06    -263.689E+06    -93.9573E+06    -263.681E+06    -50.0779E+06     492.233E+03         40.8733
             321     3.55368E-03     65.6673E-03     745.768E-03     732.574E-03        -2.37240     734.839E-03        -2.37107     742.169E-03     114.215E-03     236.822E-03    -118.235E-03    -118.607E-03    -118.363E-03     236.816E-03    -118.473E-03     2.35864E-03    -68.5707E+06    -102.492E+06    -280.731E+06    -102.500E+06    -280.723E+06    -68.5707E+06     816.195E+03         40.3205
             322     2.66720E-03     65.6670E-03     748.624E-03     740.126E-03        -2.38353     745.498E-03        -2.38289     742.610E-03     83.5944E-03     236.787E-03    -118.193E-03    -118.616E-03    -118.507E-03     236.786E-03    -118.300E-03     362.302E-06    -88.8988E+06    -110.280E+06    -295.815E+06    -110.284E+06    -295.811E+06    -88.8988E+06     300.022E+03         39.9048
             323     1.77829E-03     65.6704E-03     758.803E-03     734.113E-03        -2.38766     753.307E-03        -2.38646     738.409E-03     102.151E-03     236.317E-03    -117.960E-03    -118.380E-03    -118.238E-03     236.316E-03    -118.101E-03    -722.176E-06    -105.585E+06    -116.375E+06    -306.266E+06    -116.379E+06    -306.261E+06    -105.585E+06    -222.884E+03         39.6105
             324     889.351E-06     65.6739E-03         1.00512     465.619E-03        -2.36216     999.696E-03        -2.36061     469.499E-03     124.282E-03     235.933E-03    -117.795E-03    -118.154E-03    -117.892E-03     235.932E-03    -118.056E-03    -764.931E-06    -116.623E+06    -120.927E+06    -313.031E+06    -120.157E+06    -313.027E+06    -117.397E+06    -235.835E+03         39.4326
             325     15.1182E-03     65.2893E-03     701.580E-03     637.973E-03        -2.25006     637.802E-03        -2.24988     701.580E-03    -8.76629E-03     246.037E-03    -117.090E-03    -128.980E-03    -116.680E-03     234.642E-03    -117.995E-03     105.033E-03     117.379E+06     104.001E+06    -5.89031E+06    -5.85954E+06     117.348E+06     104.001E+06     78.5651E+03         60.2477
             326     14.2285E-03     65.0665E-03     706.610E-03     646.226E-03        -2.26935     646.059E-03        -2.26918     706.610E-03    -9.14921E-03     248.713E-03    -118.068E-03    -130.732E-03    -115.922E-03     233.903E-03    -118.068E-03     142.455E-03     110.935E+06     104.200E+06    -12.4072E+06    -12.3710E+06     110.899E+06     104.200E+06     793.925E+03         58.0281
             327     13.3381E-03     64.9458E-03     711.680E-03     651.953E-03        -2.28424     651.803E-03        -2.28409     711.680E-03    -19.3589E-03     241.880E-03    -118.159E-03    -123.831E-03    -114.376E-03     232.425E-03    -118.159E-03     115.399E-03     104.552E+06     101.990E+06    -19.9511E+06    -19.9306E+06     104.532E+06     101.990E+06     1.45326E+06         56.0945
             328     12.4466E-03     64.7933E-03     716.425E-03     663.138E-03        -2.30429     662.997E-03        -2.30415     716.425E-03     29.4129E-03     241.678E-03    -118.103E-03    -123.553E-03    -114.412E-03     232.537E-03    -118.103E-03     113.131E-03     99.5161E+06     84.7157E+06    -28.2471E+06    -28.2256E+06     99.4946E+06     84.7157E+06     1.38458E+06         54.5530
             329     11.5592E-03     64.6860E-03     720.777E-03     672.394E-03        -2.32523     672.212E-03        -2.32505     720.777E-03     32.8169E-03     237.912E-03    -117.980E-03    -119.906E-03    -114.332E-03     232.387E-03    -118.030E-03     87.6847E-03     94.3457E+06     56.8399E+06    -36.1800E+06    -36.1627E+06     94.3284E+06     56.8399E+06     882.328E+03         52.8003
             330     10.6697E-03     64.5910E-03     724.637E-03     685.564E-03        -2.34473     684.871E-03        -2.34404     724.637E-03     68.8853E-03     235.982E-03    -117.481E-03    -118.539E-03    -114.714E-03     232.709E-03    -118.033E-03     66.8682E-03     84.8479E+06     34.6129E+06    -42.9597E+06    -42.9385E+06     84.8268E+06     34.6129E+06    -761.370E+03         50.6714
             331     9.77887E-03     64.5320E-03     727.925E-03     697.590E-03        -2.36472     696.840E-03        -2.36397     727.925E-03     87.6377E-03     234.880E-03    -116.730E-03    -118.170E-03    -115.082E-03     233.145E-03    -118.084E-03     48.7717E-03     44.7682E+06     6.76353E+06    -49.2446E+06    -49.2139E+06     32.1714E+06     19.3296E+06    -1.05543E+06         48.4880
             332     8.89029E-03     64.4872E-03     730.906E-03     702.431E-03        -2.37714     702.293E-03        -2.37700     730.906E-03     20.8479E-03     234.687E-03    -116.494E-03    -118.207E-03    -115.496E-03     233.689E-03    -118.207E-03     37.0877E-03     6.38032E+06    -36.4471E+06    -66.5727E+06    -56.3602E+06    -46.6597E+06     6.38032E+06    -112.728E+03         46.5374
             333     7.99948E-03     64.4550E-03     735.317E-03     716.986E-03        -2.39589     719.099E-03        -2.39587     733.187E-03    -3.23431E-03     235.104E-03    -116.842E-03    -118.301E-03    -116.252E-03     234.515E-03    -118.301E-03     28.5015E-03    -4.34577E+06    -63.5496E+06    -105.276E+06    -63.5511E+06    -105.274E+06    -4.34577E+06     237.308E+03         44.9073
             334     7.11104E-03     64.4308E-03     736.429E-03     727.299E-03        -2.40960     729.338E-03        -2.40951     734.300E-03    -19.6195E-03     235.458E-03    -117.134E-03    -118.362E-03    -116.822E-03     235.145E-03    -118.362E-03     20.6217E-03    -14.6127E+06    -70.5269E+06    -152.819E+06    -70.5371E+06    -152.809E+06    -14.6127E+06    -6.68965E+03         43.5713
             335     6.22170E-03     64.4153E-03     735.792E-03     719.362E-03        -2.39998     719.201E-03        -2.39982     735.792E-03     55.3811E-06     235.557E-03    -117.175E-03    -118.408E-03    -117.034E-03     235.415E-03    -118.408E-03     13.8347E-03    -25.1633E+06    -78.1230E+06    -192.416E+06    -78.1352E+06    -192.404E+06    -25.1633E+06    -143.368E+03         42.4862
             336     5.33191E-03     64.4072E-03     738.347E-03     722.885E-03        -2.40413     721.829E-03        -2.40307     738.347E-03    -56.4104E-03     235.949E-03    -117.497E-03    -118.495E-03    -117.462E-03     235.893E-03    -118.474E-03     8.55520E-03    -35.5405E+06    -86.2907E+06    -232.215E+06    -86.2959E+06    -232.209E+06    -35.5405E+06     50.4871E+03         41.5984
             337     4.44383E-03     64.4028E-03     747.036E-03     736.087E-03        -2.43009     741.521E-03        -2.42800     739.519E-03     5.79143E-03     236.346E-03    -117.880E-03    -118.503E-03    -117.883E-03     236.329E-03    -118.483E-03     4.65306E-03    -49.9566E+06     -94.714E+06    -263.852E+06    -94.7223E+06    -263.843E+06    -49.9566E+06     443.875E+03         40.8770
             338     3.55539E-03     64.3993E-03     748.141E-03     738.235E-03        -2.43441     746.882E-03        -2.43315     738.235E-03     114.778E-03     236.355E-03    -117.889E-03    -118.488E-03    -117.960E-03     236.351E-03    -118.413E-03     1.91415E-03    -69.7210E+06    -103.166E+06    -280.327E+06    -103.174E+06    -280.320E+06    -69.7210E+06     600.258E+03         40.3138
             339     2.66558E-03     64.4022E-03     742.066E-03     722.644E-03        -2.41386     724.536E-03        -2.41336     739.677E-03     76.8037E-03     236.306E-03    -117.856E-03    -118.473E-03    -117.930E-03     236.306E-03    -118.398E-03     248.713E-06    -88.8404E+06    -109.642E+06    -294.820E+06    -109.645E+06    -294.817E+06    -88.8404E+06     73.2711E+03         39.8951
             340     1.77656E-03     64.4050E-03     749.702E-03     719.971E-03        -2.42250     719.625E-03        -2.42215     749.702E-03     50.0909E-03     236.477E-03    -118.048E-03    -118.449E-03    -118.047E-03     236.475E-03    -118.449E-03    -679.557E-06    -104.878E+06    -115.382E+06    -305.445E+06    -115.388E+06    -305.440E+06    -104.878E+06    -421.392E+03         39.6141
             341     887.954E-06     64.4086E-03     945.704E-03     571.841E-03        -2.47247     929.782E-03        -2.46924     584.539E-03     147.636E-03     236.906E-03    -118.054E-03    -118.868E-03    -118.583E-03     236.905E-03    -118.337E-03    -1.16892E-03    -117.033E+06    -121.017E+06    -313.749E+06    -120.848E+06    -313.744E+06    -117.208E+06    -472.505E+03         39.4600
             342     15.1193E-03     64.0243E-03     713.780E-03     673.026E-03        -2.34901     672.809E-03        -2.34879     713.780E-03    -32.3904E-03     246.110E-03    -117.194E-03    -128.975E-03    -116.795E-03     234.733E-03    -117.997E-03     105.013E-03     117.541E+06     103.621E+06    -5.99038E+06    -5.96650E+06     117.518E+06     103.621E+06    -193.174E+03         60.2450
             343     14.2288E-03     63.8008E-03     717.640E-03     678.739E-03        -2.36834     678.558E-03        -2.36815     717.640E-03    -29.2117E-03     248.675E-03    -118.068E-03    -130.706E-03    -116.004E-03     233.973E-03    -118.068E-03     141.764E-03     110.316E+06     103.396E+06    -12.4462E+06    -12.4223E+06     110.122E+06     103.566E+06    -173.763E+03         58.0297
             344     13.3382E-03     63.6816E-03     721.254E-03     691.154E-03        -2.38916     690.899E-03        -2.38890     721.254E-03    -51.7473E-03     241.592E-03    -118.147E-03    -123.576E-03    -114.274E-03     232.290E-03    -118.147E-03     114.347E-03     103.730E+06     100.905E+06    -19.8984E+06    -19.8774E+06     103.539E+06     101.075E+06     1.02991E+06         56.0948
             345     12.4478E-03     63.5288E-03     724.783E-03     705.487E-03        -2.41149     706.216E-03        -2.41133     723.889E-03     4.19055E-03     241.456E-03    -118.091E-03    -123.385E-03    -114.457E-03     232.528E-03    -118.091E-03     111.660E-03     99.8793E+06     84.8648E+06    -28.0376E+06    -28.0093E+06     99.8510E+06     84.8648E+06     1.30657E+06         54.5460
             346     11.5585E-03     63.4147E-03     726.933E-03     703.172E-03        -2.41627     703.908E-03        -2.41612     726.038E-03     30.4196E-03     237.954E-03    -117.998E-03    -119.960E-03    -114.528E-03     232.540E-03    -118.017E-03     86.9879E-03     96.6558E+06     59.2938E+06    -34.4268E+06    -34.4094E+06     96.6385E+06     59.2938E+06     685.488E+03         52.7864
             347     10.6697E-03     63.3289E-03     728.410E-03     700.417E-03        -2.41864     699.874E-03        -2.41810     728.410E-03     61.2404E-03     235.608E-03    -117.194E-03    -118.452E-03    -114.232E-03     232.226E-03    -118.032E-03     67.9966E-03     85.9257E+06     36.3936E+06    -40.7431E+06    -40.6859E+06     85.8685E+06     36.3936E+06     833.543E+03         50.6522
             348     9.77959E-03     63.2654E-03     730.888E-03     706.373E-03        -2.43164     705.753E-03        -2.43102     730.888E-03     83.9331E-03     234.686E-03    -116.579E-03    -118.120E-03    -114.779E-03     232.886E-03    -118.120E-03     49.4995E-03     44.0228E+06     6.67680E+06    -48.8181E+06    -48.7540E+06     31.2216E+06     19.4139E+06     946.469E+03         48.4747
             349     8.88859E-03     63.2233E-03     736.436E-03     716.160E-03        -2.45095     719.683E-03        -2.45078     732.740E-03     17.1742E-03     235.033E-03    -116.806E-03    -118.245E-03    -115.830E-03     234.057E-03    -118.245E-03     36.6668E-03     6.64292E+06    -36.3101E+06    -66.1200E+06    -56.2627E+06    -46.1674E+06     6.64292E+06     585.757E+03         46.5365
             350     7.99981E-03     63.1890E-03     739.380E-03     725.011E-03        -2.46185     730.794E-03        -2.46180     733.555E-03    -7.16908E-03     235.152E-03    -116.867E-03    -118.327E-03    -116.301E-03     234.586E-03    -118.327E-03     27.9428E-03    -4.14143E+06    -63.5431E+06    -105.315E+06    -63.5483E+06    -105.310E+06    -4.14143E+06     413.794E+03         44.9130
             351     7.11032E-03     63.1646E-03     736.326E-03     724.188E-03        -2.45991     726.235E-03        -2.45982     734.196E-03    -14.2382E-03     235.385E-03    -117.033E-03    -118.395E-03    -116.730E-03     235.083E-03    -118.395E-03     20.2602E-03    -14.1426E+06    -70.7578E+06    -152.097E+06    -70.7627E+06    -152.092E+06    -14.1426E+06     451.675E+03         43.5787
             352     6.22104E-03     63.1508E-03     742.028E-03     722.336E-03        -2.46294     729.093E-03        -2.46279     735.122E-03     3.68070E-03     235.836E-03    -117.439E-03    -118.425E-03    -117.301E-03     235.698E-03    -118.425E-03     13.6886E-03    -25.0983E+06    -78.2934E+06    -191.328E+06    -78.2973E+06    -191.324E+06    -25.0983E+06     125.633E+03         42.4937
             353     5.33258E-03     63.1404E-03     745.322E-03     728.074E-03        -2.46995     736.739E-03        -2.46873     735.435E-03    -62.0962E-03     236.347E-03    -117.936E-03    -118.450E-03    -117.901E-03     236.291E-03    -118.429E-03     8.57267E-03    -36.1902E+06    -86.8582E+06    -232.465E+06    -86.8610E+06    -232.462E+06    -36.1902E+06     83.3192E+03         41.6054
             354     4.44437E-03     63.1360E-03     743.638E-03     731.166E-03        -2.47402     737.354E-03        -2.47165     735.083E-03     3.49899E-03     236.287E-03    -117.918E-03    -118.409E-03    -117.921E-03     236.269E-03    -118.388E-03     4.80010E-03    -49.9440E+06    -94.9089E+06    -263.749E+06    -94.9103E+06    -263.748E+06    -49.9440E+06     183.967E+03         40.8771
             355     3.55492E-03     63.1354E-03     741.572E-03     727.276E-03        -2.46520     731.915E-03        -2.46353     735.264E-03     139.865E-03     235.850E-03    -117.520E-03    -118.349E-03    -117.516E-03     235.846E-03    -118.349E-03     2.05496E-03    -69.9414E+06    -103.555E+06    -279.918E+06    -103.556E+06    -279.917E+06    -69.9414E+06     11.5599E+03         40.3042
             356     2.66581E-03     63.1366E-03     742.807E-03     716.683E-03        -2.45669     719.913E-03        -2.45595     738.840E-03     94.0581E-03     236.031E-03    -117.624E-03    -118.431E-03    -117.623E-03     236.031E-03    -118.431E-03    -138.759E-06    -90.4561E+06    -112.155E+06    -294.355E+06    -112.159E+06    -294.351E+06    -90.4561E+06    -265.745E+03         39.8867
             357     1.77709E-03     63.1392E-03     759.388E-03     719.404E-03        -2.48255     733.581E-03        -2.48218     744.838E-03     32.0928E-03     236.591E-03    -118.049E-03    -118.567E-03    -118.048E-03     236.589E-03    -118.567E-03    -1.14785E-03    -107.363E+06    -118.316E+06    -305.395E+06    -118.325E+06    -305.386E+06    -107.363E+06    -401.317E+03         39.6185
             358     888.340E-06     63.1422E-03     894.289E-03     608.944E-03        -2.50835     877.918E-03        -2.50080     617.762E-03     215.041E-03     237.200E-03    -118.076E-03    -119.137E-03    -118.940E-03     237.199E-03    -118.272E-03    -917.210E-06    -119.152E+06    -123.397E+06    -313.553E+06    -122.622E+06    -313.547E+06    -119.934E+06    -290.281E+03         39.4774
             359     15.1184E-03     62.7594E-03     724.917E-03     692.508E-03        -2.43648     692.338E-03        -2.43631     724.917E-03    -14.9778E-03     246.095E-03    -117.183E-03    -129.031E-03    -116.723E-03     234.609E-03    -118.004E-03     105.148E-03     117.980E+06     103.354E+06    -6.86482E+06    -6.85715E+06     117.973E+06     103.354E+06     103.590E+03         60.2421
             360     14.2287E-03     62.5344E-03     727.732E-03     701.902E-03        -2.45614     701.789E-03        -2.45603     727.732E-03    -5.85232E-03     249.288E-03    -118.063E-03    -131.280E-03    -116.433E-03     234.442E-03    -118.063E-03     142.568E-03     109.737E+06     101.818E+06    -14.0930E+06    -14.0854E+06     109.559E+06     101.988E+06     127.034E+03         58.0291
             361     13.3391E-03     62.4171E-03     729.849E-03     719.245E-03        -2.48132     719.104E-03        -2.48118     729.849E-03    -31.4365E-03     242.336E-03    -118.109E-03    -124.338E-03    -115.103E-03     233.102E-03    -118.109E-03     114.242E-03     103.106E+06     100.082E+06    -22.2853E+06    -22.2766E+06     102.927E+06     100.252E+06     21.1754E+03         56.0896
             362     12.4500E-03     62.2616E-03     732.040E-03     723.805E-03        -2.49211     724.468E-03        -2.49188     731.146E-03     17.7026E-03     241.023E-03    -118.039E-03    -123.083E-03    -114.068E-03     232.008E-03    -118.039E-03     112.331E-03     101.515E+06     84.9208E+06    -29.8200E+06    -29.8115E+06     101.506E+06     84.9208E+06     175.373E+03         54.5277
             363     11.5597E-03     62.1512E-03     737.519E-03     724.598E-03        -2.50409     729.880E-03        -2.50392     732.066E-03     23.3376E-03     237.029E-03    -117.986E-03    -119.083E-03    -113.545E-03     231.511E-03    -118.004E-03     87.3727E-03     96.1637E+06     56.5053E+06    -36.8731E+06    -36.8667E+06     96.1572E+06     56.5053E+06     201.462E+03         52.7676
             364     10.6676E-03     62.0627E-03     742.750E-03     725.475E-03        -2.51209     735.237E-03        -2.51155     732.449E-03     50.1325E-03     235.587E-03    -117.495E-03    -118.129E-03    -114.273E-03     232.293E-03    -118.056E-03     67.1399E-03     84.1769E+06     32.9634E+06    -44.5140E+06    -44.4694E+06     84.1323E+06     32.9634E+06     1.33697E+06         50.6440
             365     9.77753E-03     62.0011E-03     743.129E-03     721.824E-03        -2.51218     731.800E-03        -2.51159     732.563E-03     78.1847E-03     234.975E-03    -116.859E-03    -118.133E-03    -115.113E-03     233.228E-03    -118.133E-03     48.6832E-03     44.8199E+06     6.46938E+06    -50.5964E+06    -50.5318E+06     32.2562E+06     18.9684E+06     1.68534E+06         48.4714
             366     8.88969E-03     61.9556E-03     741.135E-03     724.393E-03        -2.51614     732.834E-03        -2.51606     732.615E-03     10.7524E-03     235.093E-03    -116.876E-03    -118.237E-03    -115.930E-03     234.147E-03    -118.237E-03     36.1764E-03     6.56240E+06    -36.1197E+06    -66.3577E+06    -56.8383E+06    -45.6391E+06     6.56240E+06     1.29121E+06         46.5386
             367     8.00062E-03     61.9243E-03     736.668E-03     722.323E-03        -2.51205     725.970E-03        -2.51201     732.972E-03     5.37991E-03     235.275E-03    -117.006E-03    -118.303E-03    -116.445E-03     234.713E-03    -118.303E-03     27.7511E-03    -4.20007E+06    -63.2753E+06    -104.758E+06    -63.3284E+06    -104.705E+06    -4.20007E+06     803.709E+03         44.9202
             368     7.11030E-03     61.8998E-03     736.513E-03     720.895E-03        -2.51066     723.144E-03        -2.51043     734.033E-03    -20.1202E-03     235.363E-03    -117.041E-03    -118.359E-03    -116.757E-03     235.079E-03    -118.359E-03     19.6228E-03    -13.9208E+06    -70.1856E+06    -151.392E+06    -70.1924E+06    -151.385E+06    -13.9208E+06     485.751E+03         43.5827
             369     6.22146E-03     61.8838E-03     749.757E-03     728.921E-03        -2.52959     744.447E-03        -2.52932     733.955E-03    -12.2475E-03     235.735E-03    -117.366E-03    -118.390E-03    -117.232E-03     235.601E-03    -118.390E-03     13.5483E-03    -24.5918E+06    -78.0426E+06    -190.303E+06    -78.0484E+06    -190.297E+06    -24.5918E+06     566.388E+03         42.4903
             370     5.33320E-03     61.8744E-03     749.797E-03     731.768E-03        -2.53188     748.819E-03        -2.53090     731.768E-03    -53.6644E-03     236.101E-03    -117.716E-03    -118.412E-03    -117.655E-03     236.040E-03    -118.412E-03     9.03955E-03    -35.9044E+06    -85.5941E+06    -231.163E+06    -85.5957E+06    -231.161E+06    -35.9044E+06     138.070E+03         41.5979
             371     4.44397E-03     61.8703E-03     735.596E-03     722.526E-03        -2.50814     725.367E-03        -2.50627     730.888E-03     1.24117E-03     236.178E-03    -117.803E-03    -118.403E-03    -117.784E-03     236.158E-03    -118.403E-03     4.93483E-03    -51.0331E+06    -94.0855E+06    -264.462E+06     -94.088E+06    -264.460E+06    -51.0331E+06    -303.983E+03         40.8725
             372     3.55533E-03     61.8707E-03     738.748E-03     718.688E-03        -2.50716     723.376E-03        -2.50569     732.592E-03     133.853E-03     236.131E-03    -117.782E-03    -118.366E-03    -117.778E-03     236.128E-03    -118.366E-03     2.05403E-03    -67.3328E+06    -102.652E+06    -279.529E+06    -102.660E+06    -279.520E+06    -67.3328E+06     404.404E+03         40.3064
             373     2.66624E-03     61.8712E-03     753.111E-03     725.589E-03        -2.53036     746.877E-03        -2.52967     731.130E-03     91.6354E-03     236.135E-03    -117.774E-03    -118.386E-03    -117.773E-03     236.135E-03    -118.386E-03     139.903E-06    -87.2226E+06    -111.591E+06    -292.978E+06    -111.602E+06    -292.966E+06    -87.2226E+06     489.953E+03         39.8929
             374     1.77682E-03     61.8741E-03     753.267E-03     720.377E-03        -2.52958     753.000E-03        -2.52931     720.377E-03     14.8360E-03     236.450E-03    -118.037E-03    -118.439E-03    -118.036E-03     236.450E-03    -118.439E-03    -735.219E-06    -108.781E+06    -120.124E+06    -305.976E+06    -120.131E+06    -305.970E+06    -108.781E+06     229.010E+03         39.6213
             375     888.249E-06     61.8751E-03     834.974E-03     604.503E-03        -2.49063     820.073E-03        -2.47572     604.503E-03     290.044E-03     236.862E-03    -118.196E-03    -118.677E-03    -118.529E-03     236.862E-03    -118.343E-03    -648.785E-06    -121.261E+06    -124.929E+06    -312.606E+06    -124.152E+06    -312.601E+06    -122.042E+06     418.596E+03         39.4710
             376     15.1188E-03     61.4935E-03     751.845E-03     723.356E-03        -2.54724     740.084E-03        -2.54715     735.022E-03    -983.188E-06     245.857E-03    -116.972E-03    -129.018E-03    -116.562E-03     234.442E-03    -118.012E-03     104.939E-03     117.221E+06     103.113E+06    -6.62007E+06    -6.60998E+06     117.211E+06     103.113E+06     618.877E+03         60.2393
             377     14.2274E-03     61.2700E-03     745.306E-03     726.090E-03        -2.54971     735.092E-03        -2.54934     735.931E-03    -20.1499E-03     249.596E-03    -118.068E-03    -131.583E-03    -116.678E-03     234.690E-03    -118.068E-03     143.278E-03     109.794E+06     101.720E+06    -14.3882E+06    -14.3763E+06     109.782E+06     101.720E+06     796.676E+03         58.0238
             378     13.3399E-03     61.1457E-03     744.203E-03     733.543E-03        -2.56060     740.638E-03        -2.56027     736.781E-03    -38.2720E-03     242.265E-03    -118.114E-03    -124.283E-03    -115.019E-03     233.001E-03    -118.114E-03     114.536E-03     103.898E+06     100.678E+06    -21.5244E+06    -21.5141E+06     103.888E+06     100.678E+06    -388.001E+03         56.0868
             379     12.4495E-03     61.0012E-03     747.322E-03     730.640E-03        -2.56719     740.608E-03        -2.56705     737.209E-03     27.2131E-03     240.952E-03    -118.048E-03    -123.020E-03    -113.945E-03     231.877E-03    -118.048E-03     112.880E-03     101.474E+06     84.6417E+06    -29.2745E+06    -29.2614E+06     101.461E+06     84.6417E+06    -105.219E+03         54.5316
             380     11.5572E-03     60.8839E-03     749.912E-03     731.734E-03        -2.57494     744.197E-03        -2.57478     737.292E-03     34.7046E-03     237.563E-03    -117.999E-03    -119.598E-03    -114.031E-03     231.996E-03    -117.999E-03     87.5993E-03     95.7370E+06     55.7772E+06    -37.8116E+06     -37.795E+06     95.7204E+06     55.7772E+06     1.37343E+06         52.7738
             381     10.6696E-03     60.7989E-03     753.172E-03     736.624E-03        -2.58644     752.668E-03        -2.58594     736.624E-03     61.8535E-03     235.655E-03    -117.394E-03    -118.301E-03    -114.518E-03     232.495E-03    -118.016E-03     65.8935E-03     85.1741E+06     32.6642E+06    -44.8874E+06    -44.8740E+06     85.1607E+06     32.6642E+06     961.822E+03         50.6470
             382     9.78079E-03     60.7330E-03     757.594E-03     735.138E-03        -2.59232     757.085E-03        -2.59181     735.138E-03     64.8425E-03     234.588E-03    -116.528E-03    -118.087E-03    -114.789E-03     232.849E-03    -118.087E-03     48.5888E-03     45.0245E+06     5.03293E+06    -51.3972E+06    -51.3763E+06     32.5559E+06     17.4806E+06     671.888E+03         48.4691
             383     8.88927E-03     60.6927E-03     746.218E-03     731.232E-03        -2.57966     743.625E-03        -2.57962     733.777E-03    -3.20466E-03     234.819E-03    -116.615E-03    -118.221E-03    -115.641E-03     233.845E-03    -118.221E-03     36.7215E-03     5.96118E+06    -36.6956E+06    -66.0824E+06    -57.3136E+06    -45.4644E+06     5.96118E+06     1.36216E+06         46.5358
             384     7.99918E-03     60.6564E-03     738.596E-03     725.961E-03        -2.57008     731.013E-03        -2.57004     733.496E-03    -44.1750E-06     235.444E-03    -117.180E-03    -118.291E-03    -116.601E-03     234.865E-03    -118.291E-03     28.1130E-03    -4.26879E+06    -63.4595E+06    -103.502E+06    -63.5427E+06    -103.419E+06    -4.26879E+06     1.23885E+06         44.9212
             385     7.11230E-03     60.6349E-03     742.796E-03     728.401E-03        -2.57679     737.544E-03        -2.57653     733.390E-03    -28.0546E-03     235.603E-03    -117.319E-03    -118.321E-03    -117.028E-03     235.313E-03    -118.321E-03     19.9552E-03    -14.2684E+06    -70.2609E+06    -150.792E+06    -70.2780E+06    -150.775E+06    -14.2684E+06     746.228E+03         43.5832
             386     6.22211E-03     60.6187E-03     743.877E-03     727.704E-03        -2.57511     738.612E-03        -2.57484     732.696E-03    -27.5468E-03     235.481E-03    -117.152E-03    -118.347E-03    -117.008E-03     235.337E-03    -118.347E-03     13.9507E-03    -24.4375E+06    -76.8501E+06    -189.784E+06    -76.8550E+06    -189.779E+06    -24.4375E+06     366.270E+03         42.4823
             387     5.33201E-03     60.6086E-03     741.099E-03     727.005E-03        -2.56909     735.317E-03        -2.56830     731.997E-03    -58.6121E-03     235.715E-03    -117.321E-03    -118.419E-03    -117.262E-03     235.656E-03    -118.419E-03     8.72149E-03    -34.8285E+06    -84.7129E+06    -230.709E+06    -84.7145E+06    -230.707E+06    -34.8285E+06     153.460E+03         41.5831
             388     4.44345E-03     60.6049E-03     741.559E-03     725.557E-03        -2.56872     734.052E-03        -2.56713     731.472E-03     2.99945E-03     236.057E-03    -117.620E-03    -118.469E-03    -117.603E-03     236.040E-03    -118.469E-03     4.65692E-03    -50.1920E+06    -94.1369E+06    -264.297E+06    -94.1429E+06    -264.291E+06    -50.1920E+06     170.596E+03         40.8652
             389     3.55466E-03     60.6044E-03     749.425E-03     723.692E-03        -2.57693     742.496E-03        -2.57591     729.607E-03     101.934E-03     236.272E-03    -117.843E-03    -118.447E-03    -117.839E-03     236.268E-03    -118.447E-03     2.41106E-03    -69.2613E+06    -103.450E+06    -280.156E+06    -103.465E+06    -280.141E+06    -69.2613E+06     204.525E+03         40.3141
             390     2.66613E-03     60.6065E-03     749.442E-03     721.286E-03        -2.57791     745.805E-03        -2.57742     724.435E-03     71.8781E-03     236.583E-03    -118.065E-03    -118.544E-03    -118.200E-03     236.582E-03    -118.407E-03     704.359E-06    -87.8664E+06    -110.366E+06    -292.271E+06    -110.384E+06    -292.253E+06    -87.8664E+06     956.510E+03         39.9059
             391     1.77760E-03     60.6082E-03     738.271E-03     705.892E-03        -2.55119     723.631E-03        -2.55059     719.931E-03     8.05787E-03     236.635E-03    -118.145E-03    -118.515E-03    -118.370E-03     236.635E-03    -118.289E-03    -640.520E-06    -105.041E+06    -116.864E+06    -304.296E+06    -116.874E+06    -304.287E+06    -105.041E+06     1.13309E+06         39.6243
             392     888.962E-06     60.6094E-03     812.816E-03     640.913E-03        -2.55872     786.084E-03        -2.54288     651.803E-03     287.716E-03     236.318E-03    -117.956E-03    -118.373E-03    -118.301E-03     236.317E-03    -118.026E-03    -1.19039E-03    -117.519E+06    -122.735E+06    -312.552E+06    -122.746E+06    -312.541E+06    -117.519E+06     20.1972E+03         39.4575
             393     15.1176E-03     60.2285E-03     781.339E-03     746.285E-03        -2.64934     781.241E-03        -2.64924     746.285E-03    -14.2577E-03     246.206E-03    -117.104E-03    -129.195E-03    -116.940E-03     234.856E-03    -118.010E-03     105.043E-03     117.198E+06     104.047E+06    -5.63524E+06    -5.62357E+06     117.186E+06     104.047E+06     644.553E+03         60.2367
             394     14.2299E-03     60.0031E-03     779.356E-03     745.615E-03        -2.65360     778.980E-03        -2.65322     745.615E-03    -36.7685E-03     249.079E-03    -118.066E-03    -131.050E-03    -116.185E-03     234.213E-03    -118.066E-03     143.114E-03     110.825E+06     103.249E+06    -12.8663E+06    -12.8498E+06     110.808E+06     103.249E+06     994.073E+03         58.0170
             395     13.3379E-03     59.8806E-03     772.076E-03     744.971E-03        -2.65080     771.683E-03        -2.65041     744.971E-03    -58.0539E-03     241.639E-03    -118.136E-03    -123.589E-03    -114.343E-03     232.394E-03    -118.136E-03     114.292E-03     104.310E+06     100.500E+06    -20.6845E+06    -20.6681E+06     104.293E+06     100.500E+06     392.789E+03         56.0836
             396     12.4475E-03     59.7352E-03     774.207E-03     743.899E-03        -2.65803     774.106E-03        -2.65793     743.899E-03     9.69352E-03     241.614E-03    -118.065E-03    -123.592E-03    -114.673E-03     232.695E-03    -118.065E-03     112.043E-03     99.7508E+06     84.1739E+06    -29.5058E+06    -29.4908E+06     99.7359E+06     84.1739E+06     182.708E+03         54.5432
             397     11.5606E-03     59.6176E-03     772.407E-03     742.324E-03        -2.65775     772.313E-03        -2.65766     742.324E-03     25.2907E-03     237.939E-03    -117.880E-03    -120.066E-03    -114.433E-03     232.407E-03    -117.981E-03     87.5967E-03     95.3057E+06     57.1073E+06    -37.4472E+06    -37.4325E+06     95.2910E+06     57.1073E+06     1.18193E+06         52.7859
             398     10.6705E-03     59.5318E-03     762.493E-03     740.667E-03        -2.65045     762.126E-03        -2.65008     740.667E-03     51.4446E-03     235.375E-03    -117.208E-03    -118.204E-03    -114.164E-03     232.118E-03    -117.991E-03     66.7940E-03     86.8491E+06     33.9527E+06    -43.4582E+06    -43.4249E+06     86.8157E+06     33.9527E+06     1.83399E+06         50.6479
             399     9.77809E-03     59.4709E-03     757.874E-03     739.170E-03        -2.64663     757.432E-03        -2.64619     739.170E-03     66.6915E-03     234.608E-03    -116.549E-03    -118.077E-03    -114.752E-03     232.811E-03    -118.077E-03     49.4572E-03     45.6466E+06     5.29138E+06    -50.6794E+06    -50.6475E+06     33.2867E+06     17.6193E+06     1.45469E+06         48.4678
             400     8.88921E-03     59.4253E-03     757.948E-03     737.477E-03        -2.64753     757.825E-03        -2.64741     737.477E-03     5.82015E-03     234.944E-03    -116.742E-03    -118.210E-03    -115.754E-03     233.957E-03    -118.210E-03     36.9265E-03     5.44732E+06    -36.9692E+06    -65.8559E+06    -57.5233E+06    -45.3018E+06     5.44732E+06     769.761E+03         46.5335
             401     8.00104E-03     59.3920E-03     759.896E-03     735.180E-03        -2.64967     759.852E-03        -2.64963     735.180E-03    -1.83932E-03     235.229E-03    -116.982E-03    -118.287E-03    -116.411E-03     234.659E-03    -118.287E-03     27.9845E-03    -4.45233E+06    -63.2704E+06    -103.134E+06    -63.3068E+06    -103.098E+06    -4.45233E+06     716.885E+03         44.9165
             402     7.10966E-03     59.3676E-03     747.919E-03     731.959E-03        -2.63496     746.751E-03        -2.63481     732.976E-03    -19.0037E-03     235.581E-03    -117.300E-03    -118.331E-03    -117.006E-03     235.288E-03    -118.331E-03     19.9944E-03    -13.6411E+06    -69.4797E+06    -150.115E+06    -69.4934E+06    -150.102E+06    -13.6411E+06     421.125E+03         43.5809
             403     6.22218E-03     59.3538E-03     734.757E-03     725.436E-03        -2.61384     727.524E-03        -2.61364     732.472E-03    -13.2488E-03     235.711E-03    -117.402E-03    -118.337E-03    -117.265E-03     235.573E-03    -118.337E-03     13.6307E-03    -23.8696E+06    -76.9750E+06    -188.881E+06    -76.9821E+06    -188.874E+06    -23.8696E+06     459.746E+03         42.4796
             404     5.33352E-03     59.3434E-03     735.504E-03     727.184E-03        -2.61478     728.697E-03        -2.61399     733.202E-03    -53.4633E-03     235.409E-03    -117.036E-03    -118.410E-03    -116.977E-03     235.350E-03    -118.410E-03     8.76700E-03    -35.1094E+06    -85.8350E+06    -230.643E+06    -85.8441E+06    -230.634E+06    -35.1094E+06     837.240E+03         41.5765
             405     4.44377E-03     59.3395E-03     748.247E-03     732.115E-03        -2.63464     746.712E-03        -2.63311     732.115E-03     3.61463E-03     235.827E-03    -117.349E-03    -118.518E-03    -117.328E-03     235.806E-03    -118.518E-03     5.10851E-03    -49.5812E+06    -94.7802E+06    -263.777E+06     -94.786E+06    -263.771E+06    -49.5812E+06     766.999E+03         40.8621
             406     3.55401E-03     59.3395E-03     748.946E-03     724.111E-03        -2.63028     743.221E-03        -2.62930     728.855E-03     101.082E-03     236.539E-03    -118.020E-03    -118.537E-03    -118.048E-03     236.533E-03    -118.504E-03     2.11571E-03    -69.5498E+06    -103.261E+06    -279.544E+06    -103.273E+06    -279.533E+06    -69.5498E+06     341.531E+03         40.3171
             407     2.66518E-03     59.3395E-03     735.738E-03     709.155E-03        -2.60298     714.912E-03        -2.60247     729.477E-03     73.5404E-03     236.734E-03    -118.171E-03    -118.586E-03    -118.340E-03     236.733E-03    -118.416E-03     151.951E-06    -90.1242E+06    -111.160E+06    -292.730E+06    -111.184E+06    -292.706E+06    -90.1242E+06    -130.524E+03         39.9080
             408     1.77772E-03     59.3419E-03     740.382E-03     711.619E-03        -2.60935     713.262E-03        -2.60870     738.088E-03     4.17767E-03     236.555E-03    -118.029E-03    -118.550E-03    -118.255E-03     236.554E-03    -118.324E-03    -417.638E-06    -104.637E+06    -116.456E+06    -303.109E+06    -116.474E+06    -303.091E+06    -104.637E+06    -170.564E+03         39.6223
             409     889.269E-06     59.3452E-03     842.280E-03     661.778E-03        -2.65977     815.899E-03        -2.64428     672.669E-03     285.985E-03     236.478E-03    -117.799E-03    -118.691E-03    -118.536E-03     236.477E-03    -117.952E-03    -53.2438E-06    -115.208E+06    -121.740E+06    -311.705E+06    -120.385E+06    -311.685E+06    -116.584E+06     70.1233E+03         39.4552
             410     15.1199E-03     58.9616E-03     804.848E-03     758.235E-03        -2.73745     804.665E-03        -2.73727     758.235E-03    -15.9239E-03     246.431E-03    -117.490E-03    -128.995E-03    -117.237E-03     235.161E-03    -117.979E-03     104.857E-03     116.786E+06     103.159E+06    -7.06949E+06    -7.06515E+06     116.782E+06     103.159E+06     315.002E+03         60.2289
             411     14.2287E-03     58.7375E-03     808.593E-03     756.525E-03        -2.74590     808.473E-03        -2.74578     756.525E-03    -7.97857E-03     248.348E-03    -118.032E-03    -130.339E-03    -115.710E-03     233.719E-03    -118.032E-03     141.516E-03     111.136E+06     102.705E+06    -12.7862E+06    -12.7746E+06     111.124E+06     102.705E+06     124.640E+03         58.0070
             412     13.3379E-03     58.6185E-03     804.693E-03     754.480E-03        -2.74509     804.544E-03        -2.74494     754.480E-03    -45.6998E-03     241.553E-03    -118.123E-03    -123.470E-03    -114.144E-03     232.227E-03    -118.123E-03     114.521E-03     104.213E+06     100.060E+06    -19.9348E+06    -19.9050E+06     104.183E+06     100.060E+06     1.04617E+06         56.0723
             413     12.4497E-03     58.4643E-03     797.562E-03     752.180E-03        -2.73987     797.382E-03        -2.73969     752.180E-03     5.56752E-03     241.697E-03    -118.075E-03    -123.646E-03    -114.610E-03     232.661E-03    -118.075E-03     112.555E-03     99.6164E+06     84.0985E+06    -28.6705E+06    -28.6399E+06     99.5857E+06     84.0985E+06     1.59956E+06         54.5412
             414     11.5592E-03     58.3547E-03     793.034E-03     749.712E-03        -2.73866     792.913E-03        -2.73854     749.712E-03     18.6456E-03     237.415E-03    -117.918E-03    -119.535E-03    -113.887E-03     231.868E-03    -118.019E-03     87.8331E-03     95.1140E+06     57.6207E+06    -37.1115E+06    -37.0888E+06     95.0913E+06     57.6207E+06     1.44250E+06         52.7976
             415     10.6674E-03     58.2667E-03     788.209E-03     746.928E-03        -2.73274     787.815E-03        -2.73235     746.928E-03     42.8354E-03     235.707E-03    -117.655E-03    -118.090E-03    -114.347E-03     232.350E-03    -118.040E-03     67.6893E-03     86.5487E+06     33.6553E+06    -45.4126E+06    -45.3758E+06     86.5119E+06     33.6553E+06     1.93312E+06         50.6629
             416     9.78012E-03     58.2051E-03     776.138E-03     744.159E-03        -2.71804     775.654E-03        -2.71756     744.159E-03     74.4923E-03     235.393E-03    -117.271E-03    -118.130E-03    -115.571E-03     233.646E-03    -118.083E-03     48.8528E-03     46.4554E+06     6.97148E+06    -51.2883E+06    -51.2530E+06     35.2869E+06     18.1047E+06     1.54582E+06         48.4801
             417     8.89014E-03     58.1594E-03     770.880E-03     741.452E-03        -2.71361     770.679E-03        -2.71341     741.452E-03     953.589E-06     234.895E-03    -116.732E-03    -118.172E-03    -115.775E-03     233.938E-03    -118.172E-03     36.3810E-03     6.16180E+06    -34.9496E+06    -65.4958E+06    -56.5392E+06    -43.9063E+06     6.16180E+06     583.392E+03         46.5400
             418     7.99967E-03     58.1265E-03     770.934E-03     738.291E-03        -2.71187     770.790E-03        -2.71173     738.291E-03    -4.75999E-03     234.907E-03    -116.694E-03    -118.259E-03    -116.123E-03     234.336E-03    -118.259E-03     28.0223E-03    -4.29224E+06    -62.8943E+06    -102.846E+06    -62.9001E+06    -102.840E+06    -4.29224E+06     232.667E+03         44.9137
             419     7.11191E-03     58.1027E-03     758.053E-03     734.194E-03        -2.69618     756.911E-03        -2.69606     735.211E-03    -6.74820E-03     235.398E-03    -117.123E-03    -118.325E-03    -116.824E-03     235.099E-03    -118.325E-03     20.1179E-03    -14.2279E+06    -70.3338E+06    -150.005E+06    -70.3414E+06    -149.998E+06    -14.2279E+06     510.528E+03         43.5739
             420     6.22206E-03     58.0865E-03     747.848E-03     730.949E-03        -2.68470     745.655E-03        -2.68455     732.993E-03    -5.04173E-03     235.464E-03    -117.123E-03    -118.368E-03    -116.988E-03     235.330E-03    -118.368E-03     13.4873E-03    -24.2794E+06    -77.8141E+06    -189.346E+06    -77.8242E+06    -189.336E+06    -24.2794E+06     926.201E+03         42.4794
             421     5.33252E-03     58.0800E-03     742.247E-03     730.290E-03        -2.67669     740.569E-03        -2.67604     731.317E-03    -44.3111E-03     235.652E-03    -117.236E-03    -118.454E-03    -117.177E-03     235.590E-03    -118.451E-03     9.17502E-03    -34.8528E+06    -84.9010E+06    -229.460E+06    -84.9111E+06    -229.450E+06    -34.8528E+06     1.06958E+06         41.5853
             422     4.44209E-03     58.0747E-03     740.816E-03     720.560E-03        -2.66879     729.738E-03        -2.66778     730.623E-03    -9.65052E-03     236.309E-03    -117.856E-03    -118.495E-03    -117.835E-03     236.285E-03    -118.492E-03     5.17915E-03    -49.7763E+06    -93.5463E+06    -262.660E+06    -93.5496E+06    -262.657E+06    -49.7763E+06     332.505E+03         40.8682
             423     3.55493E-03     58.0717E-03     740.243E-03     716.808E-03        -2.66726     724.328E-03        -2.66616     731.615E-03     118.932E-03     236.520E-03    -118.094E-03    -118.450E-03    -118.123E-03     236.516E-03    -118.417E-03     1.41216E-03    -67.7748E+06    -102.195E+06    -278.660E+06    -102.200E+06    -278.655E+06    -67.7748E+06     116.791E+03         40.3128
             424     2.66719E-03     58.0746E-03     741.350E-03     717.200E-03        -2.66802     723.279E-03        -2.66712     734.373E-03     104.273E-03     236.196E-03    -117.800E-03    -118.417E-03    -117.833E-03     236.196E-03    -118.384E-03    -77.0510E-06    -88.0631E+06    -109.482E+06    -291.512E+06    -109.496E+06    -291.497E+06    -88.0631E+06    -352.809E+03         39.8975
             425     1.77663E-03     58.0764E-03     749.104E-03     723.805E-03        -2.68525     736.250E-03        -2.68483     736.234E-03     3.42102E-03     236.395E-03    -117.932E-03    -118.482E-03    -117.931E-03     236.394E-03    -118.482E-03    -346.150E-06    -106.401E+06    -116.027E+06    -304.076E+06    -116.039E+06    -304.064E+06    -106.401E+06    -1.10439E+06         39.6165
             426     887.219E-06     58.0795E-03     869.015E-03     622.538E-03        -2.69625     850.091E-03        -2.67733     622.538E-03     333.829E-03     237.064E-03    -118.179E-03    -118.896E-03    -118.720E-03     237.061E-03    -118.353E-03    -363.982E-06    -115.910E+06    -121.811E+06    -311.889E+06    -120.451E+06    -311.873E+06    -117.285E+06    -159.531E+03         39.4594
             427     15.1193E-03     57.6941E-03     842.071E-03     770.737E-03        -2.84176     841.905E-03        -2.84160     770.737E-03    -18.9745E-03     246.170E-03    -117.390E-03    -128.845E-03    -116.873E-03     234.772E-03    -117.963E-03     105.396E-03     116.586E+06     103.071E+06    -5.63557E+06    -5.63052E+06     116.581E+06     103.071E+06     376.486E+03         60.2131
             428     14.2305E-03     57.4738E-03     832.557E-03     768.137E-03        -2.83627     832.341E-03        -2.83605     768.137E-03    -22.3689E-03     248.685E-03    -118.030E-03    -130.666E-03    -115.920E-03     233.939E-03    -118.030E-03     142.017E-03     111.099E+06     102.502E+06    -12.2337E+06    -12.2164E+06     111.081E+06     102.502E+06     331.601E+03         57.9955
             429     13.3397E-03     57.3539E-03     837.277E-03     765.231E-03        -2.84134     837.048E-03        -2.84111     765.231E-03    -50.6369E-03     241.786E-03    -118.126E-03    -123.695E-03    -114.105E-03     232.196E-03    -118.126E-03     115.992E-03     104.110E+06     100.026E+06    -20.3950E+06    -20.3583E+06     104.074E+06     100.026E+06     1.30536E+06         56.0644
             430     12.4474E-03     57.1981E-03     827.264E-03     761.676E-03        -2.83322     826.993E-03        -2.83295     761.676E-03     23.4032E-03     241.160E-03    -118.113E-03    -123.089E-03    -113.818E-03     231.888E-03    -118.113E-03     113.597E-03     99.5155E+06     84.1697E+06    -29.5469E+06    -29.4897E+06     99.4583E+06     84.1697E+06     2.57765E+06         54.5431
             431     11.5578E-03     57.0897E-03     807.284E-03     758.354E-03        -2.81521     807.053E-03        -2.81498     758.354E-03     37.7733E-03     237.706E-03    -118.071E-03    -119.701E-03    -114.293E-03     232.298E-03    -118.071E-03     86.7033E-03     95.2426E+06     57.9382E+06    -38.0455E+06    -37.9987E+06     95.1958E+06     57.9382E+06     2.27622E+06         52.8186
             432     10.6688E-03     57.0011E-03     801.218E-03     755.177E-03        -2.80595     800.745E-03        -2.80548     755.177E-03     55.9787E-03     236.211E-03    -117.680E-03    -118.572E-03    -114.932E-03     232.947E-03    -118.056E-03     67.0054E-03     87.8097E+06     35.3420E+06    -44.5893E+06    -44.5751E+06     87.7955E+06     35.3420E+06     1.15306E+06         50.6857
             433     9.77889E-03     56.9358E-03     800.809E-03     751.503E-03        -2.80281     800.332E-03        -2.80234     751.503E-03     67.2973E-03     235.134E-03    -117.012E-03    -118.125E-03    -115.309E-03     233.384E-03    -118.078E-03     48.8222E-03     47.2169E+06     8.17742E+06    -50.4892E+06    -50.4790E+06     36.3530E+06     19.0310E+06     755.060E+03         48.4918
             434     8.89076E-03     56.8962E-03     785.307E-03     747.733E-03        -2.78742     785.181E-03        -2.78729     747.733E-03    -16.8176E-03     234.963E-03    -116.794E-03    -118.170E-03    -115.808E-03     233.977E-03    -118.170E-03     37.0231E-03     6.24856E+06    -34.8186E+06    -65.0310E+06    -56.6342E+06    -43.2153E+06     6.24856E+06     590.913E+03         46.5507
             435     8.00091E-03     56.8611E-03     770.838E-03     744.643E-03        -2.76920     770.691E-03        -2.76906     744.643E-03    -13.6628E-03     235.126E-03    -116.916E-03    -118.244E-03    -116.311E-03     234.521E-03    -118.244E-03     28.7220E-03    -4.15142E+06    -63.0474E+06    -101.868E+06    -63.0620E+06    -101.853E+06    -4.15142E+06     630.226E+03         44.9212
             436     7.11044E-03     56.8363E-03     769.165E-03     741.647E-03        -2.76523     769.012E-03        -2.76507     741.647E-03    -16.0554E-03     235.063E-03    -116.774E-03    -118.325E-03    -116.479E-03     234.767E-03    -118.325E-03     20.0041E-03    -14.1611E+06    -69.4408E+06    -149.523E+06    -69.4503E+06    -149.514E+06    -14.1611E+06     686.154E+03         43.5730
             437     6.22123E-03     56.8228E-03     766.687E-03     738.006E-03        -2.76191     766.527E-03        -2.76175     738.006E-03    -35.5973E-03     235.371E-03    -116.979E-03    -118.405E-03    -116.847E-03     235.239E-03    -118.405E-03     13.3070E-03    -24.3545E+06    -76.5771E+06    -189.745E+06    -76.5802E+06    -189.742E+06    -24.3545E+06     349.384E+03         42.4835
             438     5.33136E-03     56.8142E-03     759.041E-03     734.001E-03        -2.75036     758.433E-03        -2.74975     734.001E-03    -69.9409E-03     236.288E-03    -117.875E-03    -118.453E-03    -117.822E-03     236.233E-03    -118.450E-03     8.66179E-03    -34.7204E+06    -84.8090E+06    -229.119E+06    -84.8129E+06    -229.115E+06    -34.7204E+06     639.149E+03         41.5976
             439     4.44544E-03     56.8070E-03     744.362E-03     721.798E-03        -2.72594     733.255E-03        -2.72489     731.860E-03    -6.99257E-03     236.363E-03    -117.997E-03    -118.417E-03    -117.978E-03     236.341E-03    -118.415E-03     5.01734E-03    -49.1326E+06    -92.9464E+06    -261.021E+06    -92.9526E+06    -261.015E+06    -49.1326E+06     741.242E+03         40.8713
             440     3.55577E-03     56.8075E-03     736.247E-03     722.402E-03        -2.72080     724.865E-03        -2.71972     732.710E-03     115.628E-03     235.992E-03    -117.651E-03    -118.363E-03    -117.645E-03     235.987E-03    -118.363E-03     2.11971E-03    -68.4362E+06    -100.856E+06    -277.793E+06    -100.870E+06    -277.780E+06    -68.4362E+06    -594.983E+03         40.3047
             441     2.66501E-03     56.8088E-03     748.459E-03     730.725E-03        -2.73910     747.315E-03        -2.73820     730.970E-03     105.197E-03     236.290E-03    -117.785E-03    -118.524E-03    -117.936E-03     236.288E-03    -118.370E-03     75.5576E-06    -87.8293E+06    -108.735E+06    -290.975E+06    -108.745E+06    -290.964E+06    -87.8293E+06    -722.244E+03         39.8926
             442     1.77702E-03     56.8123E-03     747.015E-03     714.782E-03        -2.71973     735.230E-03        -2.71909     725.928E-03    -2.57134E-03     236.589E-03    -118.078E-03    -118.534E-03    -118.277E-03     236.588E-03    -118.333E-03    -866.467E-06    -105.075E+06    -115.544E+06    -304.189E+06    -115.551E+06    -304.182E+06    -105.075E+06     449.335E+03         39.6163
             443     889.550E-06     56.8106E-03     882.251E-03     583.698E-03        -2.72423     852.484E-03        -2.70561     594.843E-03     321.949E-03     236.512E-03    -117.971E-03    -118.551E-03    -118.529E-03     236.510E-03    -117.992E-03    -1.31916E-03    -115.961E+06    -122.052E+06    -313.180E+06    -120.279E+06    -313.169E+06    -117.745E+06     81.3783E+03         39.4543
             444     15.1192E-03     56.4317E-03     874.139E-03     784.924E-03        -2.94433     874.012E-03        -2.94420     784.924E-03    -11.4040E-03     245.607E-03    -117.054E-03    -128.616E-03    -116.205E-03     234.134E-03    -117.993E-03     105.525E-03     116.458E+06     102.356E+06    -5.76949E+06    -5.76269E+06     116.451E+06     102.356E+06     89.1226E+03         60.1962
             445     14.2268E-03     56.2055E-03     871.111E-03     781.161E-03        -2.94307     870.920E-03        -2.94288     781.161E-03    -12.8828E-03     248.871E-03    -118.085E-03    -130.842E-03    -115.908E-03     233.936E-03    -118.085E-03     143.096E-03     110.933E+06     101.664E+06    -13.3649E+06    -13.3496E+06     110.918E+06     101.664E+06     959.059E+03         57.9872
             446     13.3383E-03     56.0889E-03     862.553E-03     777.089E-03        -2.93425     862.401E-03        -2.93410     777.089E-03    -29.6858E-03     242.222E-03    -118.172E-03    -124.142E-03    -114.637E-03     232.717E-03    -118.172E-03     115.828E-03     103.000E+06     99.2280E+06    -21.3754E+06    -21.3417E+06     102.966E+06     99.2280E+06     1.91236E+06         56.0673
             447     12.4477E-03     55.9355E-03     850.377E-03     772.747E-03        -2.92205     850.116E-03        -2.92179     772.747E-03     40.4614E-03     241.542E-03    -118.129E-03    -123.423E-03    -114.268E-03     232.387E-03    -118.129E-03     113.203E-03     98.5871E+06     84.5381E+06    -28.9051E+06    -28.8580E+06     98.5400E+06     84.5381E+06     2.09606E+06         54.5466
             448     11.5578E-03     55.8203E-03     834.861E-03     768.546E-03        -2.90606     834.602E-03        -2.90580     768.546E-03     45.9441E-03     238.187E-03    -118.056E-03    -120.155E-03    -114.772E-03     232.803E-03    -118.056E-03     86.4279E-03     96.9751E+06     59.9892E+06    -35.8591E+06    -35.8247E+06     96.9407E+06     59.9892E+06     1.72321E+06         52.8177
             449     10.6702E-03     55.7352E-03     817.599E-03     764.594E-03        -2.88627     817.091E-03        -2.88576     764.594E-03     63.2419E-03     235.737E-03    -117.109E-03    -118.677E-03    -114.573E-03     232.561E-03    -118.036E-03     66.1854E-03     89.5070E+06     36.8730E+06    -42.6672E+06    -42.6504E+06     89.4902E+06     36.8730E+06     1.34222E+06         50.6837
             450     9.77960E-03     55.6722E-03     806.739E-03     760.849E-03        -2.87481     806.214E-03        -2.87428     760.849E-03     72.5266E-03     234.323E-03    -116.224E-03    -118.107E-03    -114.427E-03     232.526E-03    -118.107E-03     49.3979E-03     47.7786E+06     8.30441E+06    -49.1384E+06    -49.1255E+06      36.445E+06     19.6251E+06     952.365E+03         48.4907
             451     8.88786E-03     55.6296E-03     799.409E-03     757.018E-03        -2.86600     799.369E-03        -2.86596     757.018E-03     7.37576E-03     235.235E-03    -116.995E-03    -118.234E-03    -115.976E-03     234.216E-03    -118.234E-03     37.6174E-03     6.30067E+06    -34.7328E+06    -64.1775E+06    -55.8835E+06    -43.0268E+06     6.30067E+06     640.952E+03         46.5582
             452     8.00028E-03     55.5947E-03     785.456E-03     753.378E-03        -2.84790     785.411E-03        -2.84785     753.378E-03     6.94811E-03     235.541E-03    -117.289E-03    -118.284E-03    -116.683E-03     234.935E-03    -118.284E-03     28.7632E-03    -3.84436E+06    -62.2900E+06    -101.503E+06    -62.3066E+06    -101.486E+06    -3.84436E+06     650.363E+03         44.9369
             453     7.11169E-03     55.5721E-03     771.521E-03     750.461E-03        -2.82952     771.416E-03        -2.82941     750.461E-03    -8.35847E-03     235.266E-03    -116.977E-03    -118.335E-03    -116.688E-03     234.978E-03    -118.335E-03     19.7683E-03    -13.9265E+06    -69.2290E+06    -149.040E+06    -69.2386E+06    -149.031E+06    -13.9265E+06     674.595E+03         43.5875
             454     6.22106E-03     55.5577E-03     768.032E-03     747.834E-03        -2.82467     767.899E-03        -2.82454     747.834E-03    -38.1039E-03     235.827E-03    -117.483E-03    -118.366E-03    -117.352E-03     235.697E-03    -118.366E-03     13.3184E-03    -24.7630E+06    -76.8163E+06    -188.834E+06    -76.8241E+06    -188.826E+06    -24.7630E+06     586.505E+03         42.4923
             455     5.33418E-03     55.5458E-03     773.853E-03     744.043E-03        -2.82886     773.363E-03        -2.82838     744.043E-03    -73.7001E-03     236.035E-03    -117.689E-03    -118.377E-03    -117.632E-03     235.979E-03    -118.377E-03     8.65676E-03    -35.5509E+06    -84.6053E+06    -229.049E+06    -84.6124E+06    -229.042E+06    -35.5509E+06     179.023E+03         41.5979
             456     4.44318E-03     55.5432E-03     771.585E-03     738.443E-03        -2.82127     770.459E-03        -2.82014     738.443E-03     15.1313E-03     235.749E-03    -117.377E-03    -118.415E-03    -117.356E-03     235.728E-03    -118.415E-03     5.12177E-03    -48.8878E+06    -91.9752E+06    -260.216E+06    -91.9851E+06    -260.206E+06    -48.8878E+06    -37.9181E+03         40.8658
             457     3.55375E-03     55.5422E-03     750.116E-03     733.047E-03        -2.79416     748.993E-03        -2.79328     733.292E-03     106.632E-03     236.096E-03    -117.672E-03    -118.443E-03    -117.666E-03     236.089E-03    -118.443E-03     2.52353E-03    -66.8581E+06    -100.240E+06    -276.814E+06    -100.265E+06    -276.789E+06    -66.8581E+06     25.9515E+03         40.3012
             458     2.66669E-03     55.5434E-03     743.418E-03     720.634E-03        -2.77246     732.408E-03        -2.77193     731.112E-03     85.4644E-03     236.725E-03    -118.203E-03    -118.545E-03    -118.354E-03     236.723E-03    -118.391E-03     440.532E-06    -87.0176E+06    -109.482E+06    -291.765E+06    -109.502E+06    -291.744E+06    -87.0176E+06    -72.1740E+03         39.8958
             459     1.77861E-03     55.5447E-03     748.341E-03     710.997E-03        -2.76623     726.411E-03        -2.76567     732.375E-03     13.4696E-03     236.615E-03    -118.208E-03    -118.432E-03    -118.427E-03     236.613E-03    -118.212E-03    -387.269E-06    -103.682E+06    -116.218E+06    -303.935E+06    -116.225E+06    -303.928E+06    -103.682E+06     539.715E+03         39.6210
             460     888.634E-06     55.5487E-03     938.824E-03     542.428E-03        -2.78621     914.277E-03        -2.77281     553.573E-03     278.904E-03     236.106E-03    -117.842E-03    -118.275E-03    -118.274E-03     236.106E-03    -117.842E-03    -404.822E-06    -115.054E+06    -121.833E+06    -312.011E+06    -120.064E+06    -311.995E+06    -116.839E+06     1.35772E+06         39.4532
             461     15.1180E-03     55.1640E-03     912.793E-03     800.501E-03        -3.05172     912.686E-03        -3.05161     800.501E-03    -9.09308E-03     245.469E-03    -117.023E-03    -128.505E-03    -116.256E-03     234.222E-03    -118.024E-03     104.599E-03     116.178E+06     101.720E+06    -6.47746E+06    -6.46805E+06     116.168E+06     101.720E+06     516.495E+03         60.1885
             462     14.2284E-03     54.9449E-03     903.541E-03     795.641E-03        -3.04109     903.465E-03        -3.04101     795.641E-03    -656.941E-06     248.768E-03    -118.097E-03    -130.748E-03    -116.056E-03     234.076E-03    -118.097E-03     142.056E-03     110.504E+06     101.073E+06    -13.5896E+06    -13.5624E+06     110.477E+06     101.073E+06     1.51785E+06         57.9820
             463     13.3368E-03     54.8183E-03     880.384E-03     791.245E-03        -3.01880     880.233E-03        -3.01865     791.245E-03    -35.5754E-03     242.268E-03    -118.154E-03    -124.242E-03    -115.106E-03     233.131E-03    -118.154E-03     113.816E-03     102.688E+06     98.9025E+06    -21.3719E+06    -21.3072E+06     102.624E+06     98.9025E+06     972.616E+03         56.0613
             464     12.4492E-03     54.6721E-03     867.053E-03     787.206E-03        -3.00531     866.779E-03        -3.00504     787.206E-03     13.0252E-03     241.630E-03    -118.093E-03    -123.563E-03    -114.589E-03     232.656E-03    -118.093E-03     112.516E-03     98.8887E+06     85.1588E+06    -27.9613E+06    -27.9131E+06     98.8405E+06     85.1588E+06     461.980E+03         54.5260
             465     11.5596E-03     54.5521E-03     863.760E-03     782.816E-03        -3.00304     863.596E-03        -3.00288     782.816E-03     28.5464E-03     237.559E-03    -117.799E-03    -119.777E-03    -113.921E-03     231.953E-03    -118.049E-03     87.9527E-03     97.1970E+06     60.6149E+06    -34.5352E+06    -34.5186E+06     97.1804E+06     60.6149E+06     1.31793E+06         52.7862
             466     10.6690E-03     54.4704E-03     850.690E-03     777.829E-03        -2.98910     850.226E-03        -2.98863     777.829E-03     53.1767E-03     235.332E-03    -117.132E-03    -118.253E-03    -114.100E-03     232.127E-03    -118.079E-03     66.2784E-03     90.5864E+06     37.8039E+06    -41.8612E+06    -41.8296E+06     90.5548E+06     37.8039E+06     1.92581E+06         50.6692
             467     9.77752E-03     54.4091E-03     828.357E-03     773.112E-03        -2.96389     827.870E-03        -2.96341     773.112E-03     57.2968E-03     234.789E-03    -116.643E-03    -118.152E-03    -114.837E-03     232.982E-03    -118.152E-03     49.7144E-03     48.1687E+06     9.23931E+06    -49.1528E+06    -49.1134E+06     37.5629E+06     19.8058E+06     1.75815E+06         48.4935
             468     8.88949E-03     54.3622E-03     816.146E-03     768.794E-03        -2.94850     816.102E-03        -2.94846     768.794E-03    -4.08407E-03     235.134E-03    -116.853E-03    -118.271E-03    -115.825E-03     234.107E-03    -118.271E-03     37.6625E-03     6.72263E+06    -33.6289E+06    -63.5278E+06    -55.2477E+06    -41.9090E+06     6.72263E+06     1.18747E+06         46.5613
             469     7.99972E-03     54.3287E-03     809.637E-03     764.274E-03        -2.93708     809.570E-03        -2.93701     764.274E-03     17.4866E-03     235.544E-03    -117.239E-03    -118.334E-03    -116.663E-03     234.969E-03    -118.334E-03     28.0440E-03    -3.89372E+06    -62.0171E+06    -101.892E+06    -62.0799E+06    -101.829E+06    -3.89372E+06     872.221E+03         44.9440
             470     7.10976E-03     54.3070E-03     792.252E-03     759.969E-03        -2.91486     792.195E-03        -2.91481     759.969E-03     14.6078E-03     235.866E-03    -117.565E-03    -118.354E-03    -117.274E-03     235.575E-03    -118.354E-03     20.0150E-03    -14.1486E+06    -69.4537E+06    -149.134E+06    -69.4621E+06    -149.125E+06    -14.1486E+06     737.741E+03         43.6009
             471     6.22328E-03     54.2900E-03     777.692E-03     756.565E-03        -2.89939     777.659E-03        -2.89935     756.565E-03    -19.8566E-03     235.904E-03    -117.599E-03    -118.341E-03    -117.452E-03     235.757E-03    -118.341E-03     14.1675E-03    -24.4651E+06    -76.3266E+06    -187.583E+06    -76.3350E+06    -187.575E+06    -24.4651E+06     671.414E+03         42.4994
             472     5.33237E-03     54.2821E-03     773.397E-03     751.864E-03        -2.89005     771.443E-03        -2.88986     753.627E-03    -47.0390E-03     235.731E-03    -117.392E-03    -118.367E-03    -117.332E-03     235.672E-03    -118.367E-03     8.73468E-03    -35.0015E+06    -83.4879E+06    -227.681E+06    -83.4942E+06    -227.675E+06    -35.0015E+06     52.2748E+03         41.5970
             473     4.44405E-03     54.2779E-03     773.243E-03     747.558E-03        -2.88283     770.064E-03        -2.88228     750.182E-03     15.3974E-03     235.875E-03    -117.492E-03    -118.416E-03    -117.476E-03     235.858E-03    -118.416E-03     4.50450E-03    -49.2823E+06    -92.1109E+06    -259.959E+06    -92.1174E+06    -259.952E+06    -49.2823E+06    -417.209E+03         40.8673
             474     3.55514E-03     54.2765E-03     768.263E-03     744.712E-03        -2.87094     766.633E-03        -2.87017     745.573E-03     98.6756E-03     236.072E-03    -117.660E-03    -118.443E-03    -117.656E-03     236.068E-03    -118.443E-03     2.16546E-03    -66.3182E+06    -101.009E+06    -277.235E+06    -101.022E+06    -277.222E+06    -66.3182E+06     229.804E+03         40.3037
             475     2.66529E-03     54.2763E-03     752.408E-03     732.089E-03        -2.84215     740.545E-03        -2.84160     743.408E-03     78.9546E-03     236.333E-03    -117.875E-03    -118.486E-03    -117.874E-03     236.332E-03    -118.486E-03     923.181E-06    -86.6233E+06    -109.205E+06    -291.764E+06    -109.220E+06    -291.749E+06    -86.6233E+06     787.337E+03         39.8950
             476     1.77626E-03     54.2802E-03     751.722E-03     731.604E-03        -2.84323     736.646E-03        -2.84282     746.267E-03    -10.7087E-03     236.770E-03    -118.271E-03    -118.518E-03    -118.289E-03     236.770E-03    -118.499E-03     17.0599E-06    -105.790E+06    -115.624E+06    -304.137E+06    -115.633E+06    -304.128E+06    -105.790E+06    -163.456E+03         39.6260
             477     889.019E-06     54.2816E-03     995.010E-03     514.219E-03        -2.86276     979.927E-03        -2.85102     517.564E-03     264.019E-03     236.918E-03    -118.257E-03    -118.675E-03    -118.665E-03     236.917E-03    -118.267E-03    -419.577E-06    -115.491E+06    -119.416E+06    -309.818E+06    -119.276E+06    -309.796E+06    -115.652E+06    -416.447E+03         39.4715
             478     15.1186E-03     53.9008E-03     948.532E-03     819.161E-03        -3.16046     948.450E-03        -3.16038     819.161E-03    -29.9691E-03     246.305E-03    -117.239E-03    -129.093E-03    -117.189E-03     235.175E-03    -118.012E-03     103.765E-03     115.391E+06     101.910E+06    -6.21581E+06    -6.20499E+06     115.380E+06     101.910E+06     806.834E+03         60.1855
             479     14.2283E-03     53.6766E-03     922.594E-03     814.558E-03        -3.13257     922.523E-03        -3.13250     814.558E-03    -27.7544E-03     249.226E-03    -118.033E-03    -131.216E-03    -116.703E-03     234.713E-03    -118.033E-03     141.328E-03     110.732E+06     102.654E+06    -12.7502E+06    -12.7208E+06     110.703E+06     102.654E+06     1.13646E+06         57.9760
             480     13.3409E-03     53.5545E-03     908.028E-03     810.662E-03        -3.11740     907.776E-03        -3.11714     810.662E-03    -60.9931E-03     241.639E-03    -118.083E-03    -123.611E-03    -114.426E-03     232.454E-03    -118.083E-03     113.732E-03     104.372E+06     100.772E+06    -19.9536E+06    -19.8697E+06     104.288E+06     100.772E+06     790.530E+03         56.0446
             481     12.4493E-03     53.4040E-03     901.877E-03     806.344E-03        -3.11163     901.590E-03        -3.11134     806.344E-03    -11.6502E-03     240.751E-03    -118.069E-03    -122.709E-03    -113.562E-03     231.605E-03    -118.069E-03     113.214E-03     98.7540E+06     83.8072E+06    -28.4690E+06    -28.4006E+06     98.6856E+06     83.8072E+06     591.888E+03         54.5010
             482     11.5581E-03     53.2905E-03     890.564E-03     801.462E-03        -3.10029     890.461E-03        -3.10019     801.462E-03     20.3234E-03     237.102E-03    -117.819E-03    -119.303E-03    -113.325E-03     231.394E-03    -118.089E-03     88.7009E-03     95.4056E+06     57.6737E+06    -36.5661E+06    -36.5567E+06     95.3963E+06     57.6737E+06     558.593E+03         52.7668
             483     10.6665E-03     53.2036E-03     875.347E-03     796.174E-03        -3.08266     874.822E-03        -3.08214     796.174E-03     56.4349E-03     235.728E-03    -117.635E-03    -118.141E-03    -114.397E-03     232.489E-03    -118.141E-03     66.5257E-03     89.4298E+06     37.0705E+06    -43.0184E+06    -42.9978E+06     89.4092E+06     37.0705E+06     1.23684E+06         50.6702
             484     9.77953E-03     53.1427E-03     858.681E-03     790.873E-03        -3.06159     858.146E-03        -3.06105     790.873E-03     54.2448E-03     235.578E-03    -117.404E-03    -118.171E-03    -115.655E-03     233.829E-03    -118.171E-03     49.0468E-03     49.0232E+06     11.8226E+06    -49.0555E+06    -48.9827E+06     39.5557E+06     21.2173E+06     2.14649E+06         48.5083
             485     8.88859E-03     53.0972E-03     841.388E-03     785.793E-03        -3.03850     841.324E-03        -3.03844     785.793E-03    -27.4957E-03     235.125E-03    -116.857E-03    -118.249E-03    -115.867E-03     234.134E-03    -118.249E-03     36.9531E-03     7.05336E+06    -32.4280E+06    -64.3071E+06    -55.7963E+06    -40.9389E+06     7.05336E+06     1.69668E+06         46.5667
             486     7.99888E-03     53.0631E-03     834.355E-03     780.579E-03        -3.02602     834.275E-03        -3.02594     780.579E-03    -9.94616E-03     235.188E-03    -116.883E-03    -118.327E-03    -116.326E-03     234.632E-03    -118.327E-03     27.5744E-03    -3.80467E+06    -62.5532E+06    -101.434E+06    -62.6238E+06    -101.364E+06    -3.80467E+06     1.11871E+06         44.9371
             487     7.11167E-03     53.0393E-03     826.565E-03     774.737E-03        -3.01600     826.499E-03        -3.01593     774.737E-03    -5.49638E-03     235.682E-03    -117.335E-03    -118.382E-03    -117.046E-03     235.393E-03    -118.382E-03     19.9355E-03    -13.1185E+06    -68.5344E+06    -147.843E+06    -68.5462E+06    -147.832E+06    -13.1185E+06     613.045E+03         43.5948
             488     6.22065E-03     53.0254E-03     803.482E-03     769.314E-03        -2.98883     803.278E-03        -2.98863     769.314E-03    -45.2857E-03     235.742E-03    -117.368E-03    -118.403E-03    -117.223E-03     235.597E-03    -118.403E-03     14.0412E-03    -23.1212E+06    -75.2477E+06    -186.786E+06    -75.2491E+06    -186.784E+06    -23.1212E+06     173.707E+03         42.4992
             489     5.33314E-03     53.0160E-03     776.668E-03     763.593E-03        -2.95648     773.515E-03        -2.95616     766.433E-03    -62.5376E-03     235.996E-03    -117.600E-03    -118.437E-03    -117.536E-03     235.932E-03    -118.437E-03     9.16132E-03    -34.2789E+06    -83.6803E+06    -226.966E+06    -83.6827E+06    -226.964E+06    -34.2789E+06     422.072E+03         41.6042
             490     4.44398E-03     53.0126E-03     766.379E-03     761.990E-03        -2.94216     761.706E-03        -2.94188     766.379E-03     620.956E-06     236.354E-03    -117.968E-03    -118.431E-03    -117.946E-03     236.331E-03    -118.431E-03     5.22485E-03    -48.7236E+06    -92.6658E+06    -259.421E+06    -92.6686E+06    -259.418E+06    -48.7236E+06     591.847E+03         40.8808
             491     3.55513E-03     53.0109E-03     774.403E-03     764.613E-03        -2.94959     771.806E-03        -2.94855     766.163E-03     112.244E-03     236.094E-03    -117.739E-03    -118.387E-03    -117.735E-03     236.089E-03    -118.387E-03     2.22905E-03    -68.1017E+06    -101.763E+06    -277.665E+06    -101.765E+06    -277.662E+06    -68.1017E+06     226.211E+03         40.3145
             492     2.66571E-03     53.0130E-03     782.681E-03     761.338E-03        -2.95464     780.566E-03        -2.95361     762.423E-03     106.460E-03     236.020E-03    -117.581E-03    -118.462E-03    -117.580E-03     236.020E-03    -118.462E-03     399.422E-06    -87.9478E+06    -109.791E+06    -291.721E+06    -109.797E+06    -291.715E+06    -87.9478E+06     138.341E+03         39.8959
             493     1.77669E-03     53.0120E-03     770.335E-03     750.895E-03        -2.93396     762.563E-03        -2.93361     758.318E-03    -9.58794E-03     236.649E-03    -118.042E-03    -118.619E-03    -118.041E-03     236.649E-03    -118.619E-03    -699.790E-06    -104.933E+06    -116.216E+06    -303.066E+06    -116.226E+06    -303.056E+06    -104.933E+06    -208.111E+03         39.6244
             494     887.476E-06     53.0165E-03         1.03171     495.907E-03        -2.93545         1.01259        -2.92266     502.244E-03     289.068E-03     237.327E-03    -118.315E-03    -119.026E-03    -118.878E-03     237.326E-03    -118.462E-03    -950.109E-06    -117.303E+06    -121.314E+06    -310.323E+06    -120.504E+06    -310.309E+06    -118.127E+06    -1.02166E+06         39.4801
             495     15.1191E-03     52.6347E-03     962.171E-03     841.953E-03        -3.24999     962.086E-03        -3.24990     841.953E-03    -14.2349E-03     246.940E-03    -117.472E-03    -129.478E-03    -117.591E-03     235.577E-03    -117.996E-03     104.776E-03     115.103E+06     102.661E+06    -5.59432E+06    -5.58557E+06     115.095E+06     102.661E+06     195.102E+03         60.1667
             496     14.2318E-03     52.4086E-03     950.649E-03     837.765E-03        -3.23445     950.577E-03        -3.23438     837.765E-03    -9.93587E-03     249.271E-03    -118.018E-03    -131.323E-03    -116.480E-03     234.428E-03    -118.018E-03     142.960E-03     110.214E+06     103.873E+06    -11.2783E+06    -11.2617E+06     110.197E+06     103.873E+06     380.663E+03         57.9635
             497     13.3395E-03     52.2912E-03     942.307E-03     833.512E-03        -3.22587     942.186E-03        -3.22575     833.512E-03    -39.7720E-03     241.507E-03    -118.096E-03    -123.459E-03    -113.981E-03     232.029E-03    -118.096E-03     115.429E-03     104.363E+06     101.865E+06    -18.3921E+06    -18.3408E+06     104.311E+06     101.865E+06     1.68187E+06         56.0413
             498     12.4478E-03     52.1402E-03     928.840E-03     828.780E-03        -3.21118     928.681E-03        -3.21102     828.780E-03    -1.62661E-03     240.805E-03    -118.100E-03    -122.685E-03    -113.483E-03     231.604E-03    -118.100E-03     113.326E-03     100.251E+06     84.4923E+06    -27.0522E+06    -26.9722E+06     100.171E+06     84.4923E+06     2.45597E+06         54.5065
             499     11.5571E-03     52.0253E-03     917.876E-03     823.786E-03        -3.19617     917.805E-03        -3.19610     823.786E-03     20.0212E-03     237.303E-03    -118.075E-03    -119.235E-03    -113.665E-03     231.753E-03    -118.095E-03     87.6107E-03     96.0913E+06     56.1940E+06    -36.5180E+06    -36.4778E+06     96.0510E+06     56.1940E+06     1.24957E+06         52.7721
             500     10.6685E-03     51.9380E-03     901.826E-03     818.398E-03        -3.17789     901.233E-03        -3.17730     818.398E-03     65.5796E-03     235.951E-03    -117.765E-03    -118.218E-03    -114.627E-03     232.719E-03    -118.123E-03     66.5443E-03     88.1683E+06     35.1046E+06    -43.6498E+06    -43.6426E+06     88.1612E+06     35.1046E+06     482.423E+03         50.6716
             501     9.77735E-03     51.8744E-03     882.508E-03     813.032E-03        -3.15477     881.917E-03        -3.15418     813.032E-03     68.3343E-03     235.538E-03    -117.388E-03    -118.149E-03    -115.661E-03     233.812E-03    -118.149E-03     48.6319E-03     48.1530E+06     11.8649E+06    -50.0122E+06    -49.9511E+06     39.2924E+06     20.6644E+06     1.38467E+06         48.5130
             502     8.89060E-03     51.8322E-03     868.115E-03     807.747E-03        -3.13283     868.075E-03        -3.13279     807.747E-03    -16.4771E-03     235.273E-03    -117.052E-03    -118.217E-03    -116.087E-03     234.307E-03    -118.217E-03     36.5592E-03     7.23824E+06    -31.6506E+06    -64.5430E+06    -56.3316E+06    -39.8621E+06     7.23824E+06     1.60229E+06         46.5714
             503     8.00116E-03     51.7978E-03     854.122E-03     802.499E-03        -3.11320     854.080E-03        -3.11316     802.499E-03    -16.8073E-03     234.976E-03    -116.711E-03    -118.296E-03    -116.138E-03     234.403E-03    -118.296E-03     28.0249E-03    -2.84651E+06    -62.1085E+06    -100.149E+06    -62.1494E+06    -100.108E+06    -2.84651E+06     854.996E+03         44.9306
             504     7.10917E-03     51.7741E-03     841.007E-03     797.377E-03        -3.09942     840.963E-03        -3.09937     797.377E-03    -18.9153E-03     235.215E-03    -116.874E-03    -118.387E-03    -116.583E-03     234.924E-03    -118.387E-03     19.7711E-03    -12.3005E+06    -68.8083E+06    -146.589E+06    -68.8220E+06    -146.575E+06    -12.3005E+06     674.974E+03         43.5808
             505     6.22203E-03     51.7588E-03     824.225E-03     792.742E-03        -3.08056     824.024E-03        -3.08036     792.742E-03    -43.5347E-03     235.556E-03    -117.134E-03    -118.451E-03    -117.005E-03     235.426E-03    -118.451E-03     13.2898E-03    -22.8438E+06    -76.1765E+06    -186.391E+06    -76.1809E+06    -186.386E+06    -22.8438E+06     310.649E+03         42.4926
             506     5.33117E-03     51.7512E-03     809.189E-03     788.096E-03        -3.05914     807.661E-03        -3.05869     789.173E-03    -72.9505E-03     235.957E-03    -117.479E-03    -118.520E-03    -117.417E-03     235.895E-03    -118.520E-03     9.22147E-03    -34.0920E+06    -84.3649E+06    -227.066E+06    -84.3669E+06    -227.064E+06    -34.0920E+06     335.272E+03         41.6094
             507     4.44307E-03     51.7450E-03     803.041E-03     784.523E-03        -3.04810     800.773E-03        -3.04760     786.289E-03    -6.90602E-03     236.504E-03    -118.016E-03    -118.532E-03    -117.992E-03     236.480E-03    -118.532E-03     5.36875E-03    -49.2866E+06    -93.2359E+06    -259.712E+06    -93.2382E+06    -259.710E+06    -49.2866E+06     538.421E+03         40.8937
             508     3.55491E-03     51.7467E-03     794.121E-03     783.111E-03        -3.03656     792.311E-03        -3.03544     783.800E-03     121.843E-03     236.659E-03    -118.220E-03    -118.464E-03    -118.239E-03     236.655E-03    -118.441E-03     2.26005E-03    -67.5152E+06    -101.879E+06    -276.754E+06    -101.884E+06    -276.749E+06    -67.5152E+06     763.582E+03         40.3325
             509     2.66670E-03     51.7469E-03     796.725E-03     780.130E-03        -3.04033     795.695E-03        -3.03930     780.130E-03     100.447E-03     236.428E-03    -118.044E-03    -118.402E-03    -118.087E-03     236.428E-03    -118.358E-03     760.015E-06    -86.4486E+06    -109.632E+06    -290.559E+06    -109.637E+06    -290.554E+06    -86.4486E+06     219.739E+03         39.9080
             510     1.77729E-03     51.7491E-03     793.895E-03     770.180E-03        -3.03290     790.559E-03        -3.03256     773.172E-03     39.3062E-03     236.347E-03    -117.993E-03    -118.368E-03    -118.013E-03     236.347E-03    -118.347E-03    -288.895E-06    -103.212E+06    -116.546E+06    -302.419E+06    -116.550E+06    -302.415E+06    -103.212E+06    -502.346E+03         39.6196
             511     888.891E-06     51.7474E-03         1.07364     470.457E-03        -3.01289         1.06436        -3.00660     473.449E-03     234.533E-03     236.638E-03    -118.095E-03    -118.558E-03    -118.418E-03     236.636E-03    -118.233E-03    -1.29333E-03    -116.406E+06    -122.744E+06    -311.101E+06    -122.084E+06    -311.098E+06    -117.069E+06    -350.725E+03         39.4630
             512     15.1192E-03     51.3654E-03         1.00246     868.214E-03        -3.36195         1.00240        -3.36190     868.214E-03    -6.13910E-03     246.123E-03    -117.312E-03    -128.891E-03    -116.698E-03     234.636E-03    -118.018E-03     105.564E-03     115.606E+06     101.983E+06    -5.45866E+06    -5.44809E+06     115.596E+06     101.983E+06    -798.140E+03         60.1241
             513     14.2266E-03     51.1451E-03     989.941E-03     863.525E-03        -3.34698     989.805E-03        -3.34684     863.525E-03    -18.9198E-03     248.842E-03    -118.089E-03    -130.853E-03    -115.891E-03     233.880E-03    -118.089E-03     143.252E-03     108.697E+06     102.156E+06    -12.2555E+06    -12.2284E+06     108.586E+06     102.241E+06    -778.348E+03         57.9420
             514     13.3371E-03     51.0252E-03     977.362E-03     858.964E-03        -3.33355     977.220E-03        -3.33341     858.964E-03    -43.5060E-03     242.169E-03    -118.172E-03    -124.075E-03    -114.703E-03     232.796E-03    -118.172E-03     115.108E-03     101.150E+06     99.7858E+06    -19.7678E+06    -19.7228E+06     101.021E+06     99.8699E+06     947.558E+03         56.0524
             515     12.4489E-03     50.8749E-03     955.111E-03     854.343E-03        -3.30973     955.015E-03        -3.30964     854.343E-03     1.62870E-03     241.693E-03    -118.120E-03    -123.583E-03    -114.545E-03     232.655E-03    -118.120E-03     112.674E-03     101.479E+06     85.9572E+06    -26.6680E+06    -26.5922E+06     101.404E+06     85.9572E+06     2.95910E+06         54.5346
             516     11.5591E-03     50.7608E-03     938.579E-03     849.916E-03        -3.29113     938.519E-03        -3.29107     849.916E-03     13.1449E-03     237.755E-03    -118.052E-03    -119.718E-03    -114.209E-03     232.246E-03    -118.052E-03     87.4390E-03     100.101E+06     59.9057E+06    -33.8265E+06    -33.7340E+06     100.009E+06     59.9057E+06     3.24642E+06         52.7857
             517     10.6680E-03     50.6715E-03     926.310E-03     845.151E-03        -3.27760     925.817E-03        -3.27710     845.151E-03     55.7551E-03     235.690E-03    -117.442E-03    -118.269E-03    -114.426E-03     232.458E-03    -118.054E-03     66.5266E-03     88.8242E+06     35.1952E+06    -42.2310E+06    -42.1804E+06     88.7736E+06     35.1952E+06     1.86174E+06         50.6602
             518     9.77987E-03     50.6092E-03     914.106E-03     839.962E-03        -3.25965     913.602E-03        -3.25914     839.962E-03     54.5338E-03     234.867E-03    -116.758E-03    -118.117E-03    -115.020E-03     233.129E-03    -118.117E-03     48.7204E-03     47.8316E+06     10.4275E+06    -49.5969E+06    -49.5691E+06     38.2063E+06     20.0251E+06     934.718E+03         48.4964
             519     8.88868E-03     50.5647E-03     898.745E-03     834.496E-03        -3.23702     898.692E-03        -3.23697     834.496E-03    -23.7615E-03     235.146E-03    -116.925E-03    -118.226E-03    -115.952E-03     234.174E-03    -118.226E-03     36.6646E-03     8.73118E+06    -31.2496E+06    -62.5487E+06    -55.3591E+06    -38.4392E+06     8.73118E+06     1.06426E+06         46.5665
             520     7.99929E-03     50.5339E-03     876.731E-03     829.454E-03        -3.21164     876.686E-03        -3.21159     829.454E-03    -20.2767E-03     235.245E-03    -116.991E-03    -118.296E-03    -116.417E-03     234.671E-03    -118.296E-03     28.0831E-03    -2.45438E+06    -61.9160E+06    -99.2035E+06    -61.9614E+06    -99.1581E+06    -2.45438E+06     678.218E+03         44.9319
             521     7.11209E-03     50.5076E-03     858.546E-03     825.329E-03        -3.19233     858.464E-03        -3.19225     825.329E-03    -27.7364E-03     235.065E-03    -116.749E-03    -118.380E-03    -116.455E-03     234.771E-03    -118.380E-03     19.9128E-03    -12.2401E+06    -68.9880E+06    -146.787E+06    -68.9922E+06    -146.783E+06    -12.2401E+06     391.284E+03         43.5798
             522     6.22049E-03     50.4948E-03     853.285E-03     821.355E-03        -3.18333     853.213E-03        -3.18326     821.355E-03    -20.9596E-03     235.474E-03    -117.051E-03    -118.458E-03    -116.917E-03     235.340E-03    -118.458E-03     13.4961E-03    -22.2293E+06    -76.2572E+06    -185.503E+06    -76.2679E+06    -185.492E+06    -22.2293E+06     640.803E+03         42.4929
             523     5.33270E-03     50.4842E-03     845.957E-03     816.903E-03        -3.16904     845.649E-03        -3.16873     816.903E-03    -47.8642E-03     236.005E-03    -117.518E-03    -118.532E-03    -117.460E-03     235.946E-03    -118.532E-03     8.77150E-03    -33.6495E+06    -84.4622E+06    -226.617E+06    -84.4700E+06    -226.609E+06    -33.6495E+06     498.988E+03         41.6113
             524     4.44274E-03     50.4803E-03     833.824E-03     812.535E-03        -3.15048     833.389E-03        -3.15005     812.535E-03    -19.2183E-03     236.244E-03    -117.709E-03    -118.573E-03    -117.691E-03     236.225E-03    -118.573E-03     4.78029E-03    -49.0971E+06    -93.3124E+06    -259.960E+06    -93.3136E+06    -259.959E+06    -49.0971E+06     305.252E+03         40.8948
             525     3.55404E-03     50.4784E-03     823.176E-03     808.759E-03        -3.13577     822.526E-03        -3.13512     808.759E-03     94.0806E-03     236.699E-03    -118.157E-03    -118.563E-03    -118.183E-03     236.695E-03    -118.533E-03     2.15997E-03    -66.6716E+06    -101.741E+06    -276.236E+06    -101.751E+06    -276.226E+06    -66.6716E+06     13.0395E+03         40.3399
             526     2.66572E-03     50.4818E-03     813.905E-03     801.563E-03        -3.12407     808.049E-03        -3.12345     806.803E-03     42.4549E-03     236.923E-03    -118.398E-03    -118.552E-03    -118.552E-03     236.922E-03    -118.398E-03     738.429E-06    -85.7353E+06    -109.290E+06    -289.155E+06    -109.301E+06    -289.144E+06    -85.7353E+06     10.8556E+03         39.9225
             527     1.77805E-03     50.4815E-03     815.981E-03     796.064E-03        -3.12523     804.344E-03        -3.12481     807.276E-03     28.9476E-03     236.450E-03    -118.133E-03    -118.344E-03    -118.257E-03     236.450E-03    -118.219E-03     132.920E-06    -104.546E+06    -115.801E+06    -302.078E+06    -115.811E+06    -302.068E+06    -104.546E+06     412.686E+03         39.6270
             528     888.904E-06     50.4850E-03         1.18096     437.734E-03        -3.13943         1.17285        -3.13729     443.706E-03     180.249E-03     236.209E-03    -117.616E-03    -118.611E-03    -118.522E-03     236.207E-03    -117.703E-03    -309.097E-06    -117.605E+06    -122.314E+06    -312.533E+06    -121.457E+06    -312.524E+06    -118.471E+06     91.0940E+03         39.4540
             529     15.1177E-03     50.1028E-03         1.05293     898.790E-03        -3.48495         1.05291        -3.48492     898.790E-03    -21.1046E-03     245.559E-03    -117.007E-03    -128.644E-03    -116.215E-03     234.174E-03    -118.050E-03     104.881E-03     116.181E+06     100.454E+06    -6.75336E+06    -6.73903E+06     116.167E+06     100.454E+06    -1.16249E+06         60.0720
             530     14.2277E-03     49.8791E-03         1.03577     893.697E-03        -3.46745         1.03565        -3.46734     893.697E-03    -36.7434E-03     248.865E-03    -118.134E-03    -130.783E-03    -115.966E-03     234.048E-03    -118.134E-03     142.498E-03     107.727E+06     100.351E+06    -12.8063E+06    -12.7817E+06     107.286E+06     100.768E+06    -1.34741E+06         57.9145
             531     13.3381E-03     49.7582E-03         1.01317     889.140E-03        -3.44490         1.01299        -3.44472     889.140E-03    -49.8403E-03     242.688E-03    -118.202E-03    -124.532E-03    -115.241E-03     233.398E-03    -118.202E-03     114.761E-03     99.9449E+06     98.5476E+06    -19.6676E+06    -19.6328E+06     99.4928E+06     98.9648E+06    -32.9383E+03         56.0575
             532     12.4478E-03     49.6087E-03     994.151E-03     884.569E-03        -3.42536     993.997E-03        -3.42521     884.569E-03    -393.416E-06     242.303E-03    -118.104E-03    -124.203E-03    -115.244E-03     233.344E-03    -118.104E-03     112.356E-03     99.9547E+06     85.0055E+06    -27.5766E+06    -27.5383E+06     99.9164E+06     85.0055E+06     1.55317E+06         54.5597
             533     11.5590E-03     49.4938E-03     966.856E-03     880.364E-03        -3.39832     966.767E-03        -3.39824     880.364E-03     16.2314E-03     237.966E-03    -118.003E-03    -119.951E-03    -114.514E-03     232.532E-03    -118.006E-03     86.9137E-03     99.9948E+06     61.5030E+06    -34.1575E+06    -34.0690E+06     99.9063E+06     61.5030E+06     3.20165E+06         52.8066
             534     10.6705E-03     49.4072E-03     946.099E-03     876.448E-03        -3.37513     945.623E-03        -3.37465     876.448E-03     53.7661E-03     235.323E-03    -117.216E-03    -118.133E-03    -114.090E-03     232.076E-03    -118.012E-03     66.7300E-03     91.6727E+06     38.1735E+06    -40.9095E+06    -40.8121E+06     91.5753E+06     38.1735E+06     3.49405E+06         50.6601
             535     9.77821E-03     49.3433E-03     942.838E-03     872.078E-03        -3.36378     942.353E-03        -3.36329     872.078E-03     52.6728E-03     234.581E-03    -116.492E-03    -118.093E-03    -114.715E-03     232.805E-03    -118.093E-03     49.1065E-03     50.1151E+06     10.5082E+06    -47.9507E+06    -47.9056E+06     39.4398E+06     21.1385E+06     1.79120E+06         48.4851
             536     8.88943E-03     49.3004E-03     932.514E-03     866.859E-03        -3.34838     932.464E-03        -3.34833     866.859E-03    -22.9040E-03     234.963E-03    -116.743E-03    -118.219E-03    -115.790E-03     234.011E-03    -118.219E-03     36.2501E-03     8.94144E+06    -32.1810E+06    -61.4448E+06    -54.7708E+06    -38.8550E+06     8.94144E+06     855.832E+03         46.5601
             537     8.00090E-03     49.2653E-03     910.510E-03     861.795E-03        -3.32486     910.437E-03        -3.32479     861.795E-03    -7.64189E-03     235.070E-03    -116.808E-03    -118.306E-03    -116.259E-03     234.521E-03    -118.306E-03     27.4641E-03    -1.66115E+06    -61.1642E+06    -97.9236E+06    -61.1923E+06    -97.8955E+06    -1.66115E+06     728.306E+03         44.9358
             538     7.10959E-03     49.2450E-03     891.328E-03     857.649E-03        -3.30317     891.140E-03        -3.30298     857.649E-03    -30.0463E-03     235.198E-03    -116.872E-03    -118.391E-03    -116.577E-03     234.904E-03    -118.391E-03     20.1058E-03    -11.6634E+06    -67.9427E+06    -146.175E+06    -67.9483E+06    -146.169E+06    -11.6634E+06     456.799E+03         43.5914
             539     6.22153E-03     49.2278E-03     882.523E-03     853.972E-03        -3.28930     882.354E-03        -3.28913     853.972E-03    -41.4590E-03     235.756E-03    -117.348E-03    -118.440E-03    -117.206E-03     235.613E-03    -118.440E-03     13.8567E-03    -22.4552E+06    -75.8816E+06    -185.647E+06    -75.8891E+06    -185.639E+06    -22.4552E+06     495.047E+03         42.5031
             540     5.33193E-03     49.2190E-03     872.333E-03     850.439E-03        -3.27318     871.943E-03        -3.27279     850.439E-03    -61.1434E-03     236.040E-03    -117.599E-03    -118.483E-03    -117.545E-03     235.986E-03    -118.483E-03     8.43424E-03    -33.1915E+06    -83.7748E+06    -226.083E+06    -83.7823E+06    -226.076E+06    -33.1915E+06     505.253E+03         41.6140
             541     4.44393E-03     49.2142E-03     858.593E-03     847.756E-03        -3.25734     858.177E-03        -3.25693     847.756E-03    -34.6180E-03     236.048E-03    -117.557E-03    -118.529E-03    -117.540E-03     236.031E-03    -118.529E-03     4.74514E-03    -47.3790E+06    -92.0650E+06    -258.899E+06    -92.0661E+06    -258.898E+06    -47.3790E+06     317.720E+03         40.8903
             542     3.55408E-03     49.2136E-03     853.867E-03     845.843E-03        -3.25159     853.213E-03        -3.25094     845.843E-03     90.0593E-03     236.400E-03    -117.881E-03    -118.536E-03    -117.883E-03     236.396E-03    -118.530E-03     2.18393E-03    -66.6633E+06    -100.853E+06    -275.851E+06    -100.861E+06    -275.843E+06    -66.6633E+06    -47.2273E+03         40.3339
             543     2.66591E-03     49.2131E-03     851.117E-03     839.606E-03        -3.24296     845.179E-03        -3.24226     844.846E-03     52.4409E-03     236.779E-03    -118.221E-03    -118.590E-03    -118.330E-03     236.779E-03    -118.479E-03     306.370E-06    -87.5028E+06    -109.211E+06    -289.277E+06    -109.220E+06    -289.267E+06    -87.5028E+06    -169.275E+03         39.9269
             544     1.77728E-03     49.2178E-03     849.196E-03     834.281E-03        -3.23977     835.245E-03        -3.23943     847.893E-03     27.0376E-03     236.732E-03    -118.174E-03    -118.589E-03    -118.405E-03     236.732E-03    -118.358E-03    -186.292E-06    -104.947E+06    -115.832E+06    -302.077E+06    -115.842E+06    -302.067E+06    -104.947E+06     902.840E+03         39.6426
             545     888.360E-06     49.2180E-03         1.30105     402.725E-03        -3.26240         1.29109        -3.26081     411.097E-03     160.423E-03     236.487E-03    -117.455E-03    -119.047E-03    -118.345E-03     236.487E-03    -118.157E-03     164.997E-06    -116.286E+06    -120.754E+06    -311.470E+06    -119.900E+06    -311.457E+06    -117.153E+06     1.24972E+06         39.4676
             546     15.1176E-03     48.8375E-03         1.08025     932.313E-03        -3.59014         1.08021        -3.59011     932.313E-03    -9.11903E-03     245.907E-03    -116.814E-03    -129.207E-03    -116.580E-03     234.526E-03    -118.060E-03     104.923E-03     117.452E+06     100.763E+06    -6.05111E+06    -6.03884E+06     117.440E+06     100.763E+06    -866.043E+03         60.0270
             547     14.2271E-03     48.6136E-03         1.06880     927.601E-03        -3.57826         1.06878        -3.57824     927.601E-03    -1.92604E-03     249.230E-03    -118.118E-03    -131.234E-03    -116.480E-03     234.475E-03    -118.118E-03     142.273E-03     107.225E+06     99.1408E+06    -13.2293E+06    -13.2095E+06     106.872E+06     99.4739E+06    -959.701E+03         57.8887
             548     13.3367E-03     48.4921E-03         1.04193     923.567E-03        -3.55590         1.04179        -3.55575     923.567E-03    -38.5457E-03     242.354E-03    -118.182E-03    -124.300E-03    -114.974E-03     233.028E-03    -118.182E-03     114.763E-03     98.4595E+06     96.4024E+06    -21.1038E+06    -21.0888E+06     98.1113E+06     96.7355E+06    -650.567E+03         56.0498
             549     12.4490E-03     48.3397E-03         1.02490     919.794E-03        -3.53748         1.02467        -3.53724     919.794E-03    -6.83827E-03     242.169E-03    -118.107E-03    -124.132E-03    -115.016E-03     233.053E-03    -118.107E-03     113.248E-03     97.9822E+06     83.5083E+06    -29.1308E+06    -29.1260E+06     97.9775E+06     83.5083E+06     161.687E+03         54.5689
             550     11.5607E-03     48.2279E-03         1.00755     916.013E-03        -3.51736         1.00746        -3.51726     916.013E-03     20.1309E-03     238.013E-03    -118.020E-03    -119.999E-03    -114.509E-03     232.526E-03    -118.023E-03     87.2987E-03     97.7477E+06     60.2418E+06    -36.1574E+06    -36.1214E+06     97.7117E+06     60.2418E+06     1.40104E+06         52.8332
             551     10.6687E-03     48.1430E-03     988.693E-03     911.953E-03        -3.49414     988.330E-03        -3.49378     911.953E-03     45.7005E-03     235.657E-03    -117.563E-03    -118.128E-03    -114.355E-03     232.348E-03    -118.027E-03     67.5314E-03     93.0237E+06     39.4578E+06    -41.4942E+06    -41.4191E+06     92.9486E+06     39.4578E+06     2.78808E+06         50.6891
             552     9.77980E-03     48.0786E-03     977.504E-03     907.534E-03        -3.47811     977.149E-03        -3.47775     907.534E-03     53.1584E-03     235.022E-03    -116.944E-03    -118.074E-03    -115.126E-03     233.204E-03    -118.074E-03     49.5665E-03     52.1471E+06     12.5591E+06    -47.3113E+06    -47.2411E+06     41.9144E+06     22.7215E+06     2.45760E+06         48.5004
             553     8.89023E-03     48.0336E-03     966.399E-03     902.525E-03        -3.46335     966.398E-03        -3.46335     902.525E-03    -2.61558E-03     234.698E-03    -116.499E-03    -118.188E-03    -115.558E-03     233.757E-03    -118.188E-03     36.0773E-03     9.76883E+06    -30.6896E+06    -60.4539E+06    -53.4511E+06    -37.6924E+06     9.76883E+06     1.39211E+06         46.5637
             554     7.99914E-03     48.0019E-03     948.641E-03     897.453E-03        -3.44310     948.589E-03        -3.44305     897.453E-03     19.4358E-03     234.821E-03    -116.561E-03    -118.299E-03    -116.010E-03     234.269E-03    -118.299E-03     27.4352E-03    -774.055E+03    -59.9825E+06    -97.2854E+06    -60.0536E+06    -97.2142E+06    -774.055E+03     1.02487E+06         44.9421
             555     7.11099E-03     47.9781E-03     924.512E-03     893.371E-03        -3.41559     924.356E-03        -3.41543     893.371E-03    -6.90273E-03     235.471E-03    -117.158E-03    -118.376E-03    -116.877E-03     235.189E-03    -118.376E-03     19.6426E-03    -11.2638E+06    -67.4034E+06    -145.505E+06    -67.4129E+06    -145.495E+06    -11.2638E+06     795.491E+03         43.6035
             556     6.22144E-03     47.9625E-03     903.351E-03     891.042E-03        -3.39113     903.207E-03        -3.39099     891.042E-03    -28.3138E-03     235.712E-03    -117.345E-03    -118.401E-03    -117.205E-03     235.572E-03    -118.401E-03     13.7598E-03    -22.4372E+06    -75.2483E+06    -185.456E+06    -75.2526E+06    -185.452E+06    -22.4372E+06     466.342E+03         42.5099
             557     5.33323E-03     47.9527E-03     905.351E-03     889.149E-03        -3.38818     904.992E-03        -3.38782     889.149E-03    -50.8088E-03     235.924E-03    -117.510E-03    -118.445E-03    -117.453E-03     235.867E-03    -118.445E-03     8.53133E-03    -32.9184E+06    -82.8732E+06    -225.906E+06    -82.8762E+06    -225.903E+06    -32.9184E+06    -3.60819E+03         41.6154
             558     4.44298E-03     47.9498E-03     911.655E-03     885.407E-03        -3.39033     911.083E-03        -3.38976     885.407E-03    -8.57192E-03     236.199E-03    -117.766E-03    -118.468E-03    -117.749E-03     236.182E-03    -118.468E-03     4.67692E-03    -46.9615E+06    -90.9609E+06    -258.171E+06    -90.9637E+06    -258.168E+06    -46.9615E+06     134.917E+03         40.8909
             559     3.55506E-03     47.9471E-03     896.336E-03     881.166E-03        -3.37218     894.934E-03        -3.37078     881.166E-03     138.973E-03     236.152E-03    -117.715E-03    -118.457E-03    -117.711E-03     236.148E-03    -118.457E-03     2.25798E-03    -66.3490E+06    -99.8470E+06    -275.507E+06    -99.8496E+06    -275.505E+06    -66.3490E+06     487.803E+03         40.3300
             560     2.66546E-03     47.9488E-03     884.375E-03     878.695E-03        -3.36020     883.145E-03        -3.35897     878.695E-03     79.9125E-03     236.394E-03    -117.922E-03    -118.493E-03    -117.921E-03     236.393E-03    -118.493E-03     275.064E-06    -86.8789E+06    -107.766E+06    -289.574E+06    -107.778E+06    -289.563E+06    -86.8789E+06     756.271E+03         39.9216
             561     1.77665E-03     47.9505E-03     883.766E-03     874.547E-03        -3.35514     880.800E-03        -3.35457     876.948E-03     44.7384E-03     236.856E-03    -118.282E-03    -118.597E-03    -118.408E-03     236.856E-03    -118.470E-03    -589.921E-06    -103.920E+06    -114.924E+06    -301.841E+06    -114.935E+06    -301.830E+06    -103.920E+06     612.076E+03         39.6454
             562     889.405E-06     47.9527E-03         1.36801     384.921E-03        -3.34819         1.36459        -3.34717     387.321E-03     115.897E-03     236.763E-03    -117.690E-03    -119.089E-03    -118.435E-03     236.762E-03    -118.343E-03    -1.01022E-03    -114.389E+06    -119.310E+06    -309.242E+06    -118.880E+06    -309.232E+06    -114.828E+06     184.213E+03         39.4791
             563     15.1168E-03     47.5716E-03         1.10493     968.059E-03        -3.69813         1.10489        -3.69809     968.059E-03    -12.1848E-03     246.213E-03    -117.010E-03    -129.344E-03    -116.988E-03     234.885E-03    -118.038E-03     105.236E-03     118.426E+06     100.766E+06    -7.08505E+06    -7.07277E+06     118.413E+06     100.766E+06     20.5497E+03         59.9899
             564     14.2287E-03     47.3462E-03         1.08348     964.904E-03        -3.67742         1.08340        -3.67734     964.904E-03    -15.4761E-03     249.208E-03    -118.079E-03    -131.254E-03    -116.665E-03     234.619E-03    -118.079E-03     141.392E-03     107.702E+06     98.8132E+06    -15.1600E+06    -15.1446E+06     107.687E+06     98.8132E+06    -374.649E+03         57.8674
             565     13.3398E-03     47.2283E-03         1.06954     962.577E-03        -3.66716         1.06930        -3.66692     962.577E-03    -57.6737E-03     241.902E-03    -118.145E-03    -123.871E-03    -114.529E-03     232.560E-03    -118.145E-03     114.576E-03     96.7062E+06     94.6771E+06    -23.8774E+06     -23.852E+06     96.6808E+06     94.6771E+06    -799.409E+03         56.0407
             566     12.4468E-03     47.0735E-03         1.05976     959.968E-03        -3.65380         1.05951        -3.65356     959.968E-03    -19.3976E-03     241.253E-03    -118.119E-03    -123.235E-03    -114.013E-03     232.031E-03    -118.119E-03     113.547E-03     95.7118E+06     81.1104E+06    -31.1486E+06    -31.1154E+06     95.6786E+06     81.1104E+06    -1.34610E+06         54.5641
             567     11.5565E-03     46.9601E-03         1.04841     956.838E-03        -3.64185         1.04834        -3.64179     956.838E-03     16.0668E-03     237.848E-03    -118.087E-03    -119.816E-03    -114.364E-03     232.397E-03    -118.087E-03     86.8977E-03     97.0247E+06     59.3023E+06    -37.0655E+06    -37.0405E+06     96.9997E+06     59.3023E+06    -1.08040E+06         52.8447
             568     10.6691E-03     46.8784E-03         1.03833     952.736E-03        -3.62963         1.03812        -3.62942     952.736E-03     36.7194E-03     236.381E-03    -117.882E-03    -118.536E-03    -115.087E-03     233.116E-03    -118.065E-03     67.2408E-03     91.9344E+06     38.5356E+06    -43.1041E+06    -43.0753E+06     91.9056E+06     38.5356E+06     477.502E+03         50.7193
             569     9.77947E-03     46.8101E-03         1.02156     948.083E-03        -3.60926         1.02132        -3.60901     948.083E-03     29.5867E-03     235.061E-03    -116.978E-03    -118.083E-03    -115.147E-03     233.230E-03    -118.083E-03     49.8546E-03     52.5160E+06     13.9901E+06    -47.6459E+06    -47.5963E+06     43.3000E+06     23.1565E+06     1.39684E+06         48.5247
             570     8.88998E-03     46.7709E-03         1.00022     943.554E-03        -3.58435         1.00012        -3.58425     943.554E-03    -30.6045E-03     234.770E-03    -116.564E-03    -118.198E-03    -115.599E-03     233.805E-03    -118.198E-03     36.5082E-03     10.5908E+06    -29.3251E+06    -60.0569E+06    -53.4199E+06    -35.9622E+06     10.5908E+06     1.62551E+06         46.5771
             571     8.00057E-03     46.7358E-03     985.296E-03     939.400E-03        -3.56530     985.194E-03        -3.56520     939.400E-03    -17.9267E-03     235.210E-03    -116.968E-03    -118.279E-03    -116.402E-03     234.644E-03    -118.279E-03     27.8795E-03    -1.07742E+06    -60.8304E+06    -96.9541E+06    -60.9639E+06    -96.8206E+06    -1.07742E+06     1.46935E+06         44.9546
             572     7.11113E-03     46.7122E-03     973.887E-03     935.359E-03        -3.54965     973.779E-03        -3.54954     935.359E-03    -24.5846E-03     235.442E-03    -117.166E-03    -118.329E-03    -116.874E-03     235.151E-03    -118.329E-03     19.9054E-03    -11.7780E+06    -68.0688E+06    -145.271E+06    -68.0870E+06    -145.253E+06    -11.7780E+06     1.03178E+06         43.6127
             573     6.22215E-03     46.6971E-03     958.946E-03     931.601E-03        -3.52850     958.832E-03        -3.52838     931.601E-03    -26.5826E-03     235.491E-03    -117.151E-03    -118.370E-03    -117.013E-03     235.353E-03    -118.370E-03     13.6864E-03    -21.1344E+06    -74.0058E+06    -183.901E+06    -74.0110E+06    -183.896E+06    -21.1344E+06     616.959E+03         42.5128
             574     5.33171E-03     46.6874E-03     949.420E-03     928.268E-03        -3.51544     948.945E-03        -3.51497     928.268E-03    -61.2617E-03     235.804E-03    -117.407E-03    -118.430E-03    -117.347E-03     235.745E-03    -118.430E-03     8.85792E-03    -32.4605E+06    -82.2346E+06    -225.048E+06    -82.2389E+06    -225.044E+06    -32.4605E+06     198.452E+03         41.6159
             575     4.44465E-03     46.6828E-03     953.841E-03     923.761E-03        -3.51522     953.185E-03        -3.51456     923.761E-03    -21.8561E-03     236.321E-03    -117.916E-03    -118.438E-03    -117.896E-03     236.302E-03    -118.438E-03     5.02300E-03    -47.7782E+06    -91.5691E+06    -258.545E+06    -91.5734E+06    -258.541E+06    -47.7782E+06     282.651E+03         40.8940
             576     3.55485E-03     46.6828E-03     948.707E-03     917.153E-03        -3.50073     946.831E-03        -3.49885     917.153E-03     156.748E-03     236.371E-03    -117.949E-03    -118.442E-03    -118.025E-03     236.367E-03    -118.361E-03     1.93434E-03    -66.4451E+06    -99.8719E+06    -275.490E+06    -99.8728E+06    -275.489E+06    -66.4451E+06     238.331E+03         40.3316
             577     2.66588E-03     46.6834E-03     929.460E-03     910.607E-03        -3.47144     927.538E-03        -3.46951     910.607E-03     72.2795E-03     236.234E-03    -117.858E-03    -118.397E-03    -117.938E-03     236.233E-03    -118.317E-03    -299.542E-06    -86.0381E+06    -107.884E+06    -289.514E+06    -107.894E+06    -289.504E+06    -86.0381E+06     515.016E+03         39.9121
             578     1.77755E-03     46.6840E-03     917.163E-03     905.267E-03        -3.45186     915.172E-03        -3.44987     905.267E-03     68.4157E-03     236.286E-03    -117.966E-03    -118.344E-03    -117.965E-03     236.285E-03    -118.344E-03    -1.12985E-03    -102.609E+06    -113.891E+06    -300.871E+06    -113.901E+06    -300.861E+06    -102.609E+06     584.182E+03         39.6293
             579     887.579E-06     46.6878E-03         1.44537     362.746E-03        -3.43330         1.44355        -3.43148     362.746E-03     93.5501E-03     236.675E-03    -117.871E-03    -118.823E-03    -118.643E-03     236.673E-03    -118.050E-03    -700.601E-06    -114.824E+06    -118.871E+06    -309.205E+06    -118.091E+06    -309.200E+06    -115.610E+06    -133.308E+03         39.4712
             580     15.1194E-03     46.3050E-03         1.12924         1.00820        -3.80537         1.12921        -3.80534         1.00820    -16.8917E-03     246.526E-03    -117.470E-03    -129.142E-03    -117.109E-03     235.042E-03    -118.019E-03     106.054E-03     118.697E+06     101.431E+06    -6.03064E+06    -6.01844E+06     118.685E+06     101.431E+06     964.044E+03         59.9550
             581     14.2287E-03     46.0801E-03         1.11072         1.00651        -3.78767         1.11065        -3.78760         1.00651    -25.2252E-03     249.266E-03    -118.064E-03    -131.251E-03    -116.462E-03     234.477E-03    -118.064E-03     142.311E-03     108.205E+06     100.028E+06    -12.6965E+06    -12.6850E+06     108.090E+06     100.131E+06     954.097E+03         57.8476
             582     13.3377E-03     45.9626E-03         1.10212         1.00533        -3.78196         1.10197        -3.78181         1.00533    -46.7567E-03     242.243E-03    -118.123E-03    -124.147E-03    -114.861E-03     232.957E-03    -118.123E-03     114.452E-03     99.4430E+06     97.3780E+06    -19.6393E+06    -19.6226E+06     99.3228E+06     97.4815E+06     66.1933E+03         56.0368
             583     12.4496E-03     45.8095E-03         1.09641         1.00345        -3.77467         1.09622        -3.77448         1.00345     1.41640E-03     240.861E-03    -118.074E-03    -122.807E-03    -113.828E-03     231.882E-03    -118.074E-03     111.916E-03     96.6353E+06     81.7985E+06    -28.3038E+06    -28.2696E+06     96.6012E+06     81.7985E+06    -1.22819E+06         54.5572
             584     11.5582E-03     45.6963E-03         1.08462         1.00105        -3.76696         1.08452        -3.76686         1.00105     19.7099E-03     237.203E-03    -118.037E-03    -119.200E-03    -113.786E-03     231.809E-03    -118.056E-03     86.4659E-03     94.8762E+06     56.8755E+06    -37.3406E+06    -37.3082E+06     94.8438E+06     56.8755E+06    -1.37870E+06         52.8323
             585     10.6686E-03     45.6075E-03         1.07169     997.960E-03        -3.75311         1.07133        -3.75275     997.960E-03     48.4943E-03     236.079E-03    -117.654E-03    -118.448E-03    -114.785E-03     232.839E-03    -118.078E-03     66.6280E-03     90.8694E+06     36.8161E+06    -43.9775E+06    -43.9618E+06     90.8536E+06     36.8161E+06    -1.40295E+06         50.7196
             586     9.77929E-03     45.5491E-03         1.05073     994.779E-03        -3.72641         1.05033        -3.72601     994.779E-03     38.2539E-03     234.902E-03    -116.800E-03    -118.119E-03    -115.037E-03     233.140E-03    -118.119E-03     49.1295E-03     50.8239E+06     13.3597E+06    -49.8854E+06    -49.8649E+06     42.7622E+06     21.4009E+06    -365.969E+03         48.5353
             587     8.88831E-03     45.5022E-03         1.03173     992.087E-03        -3.70581         1.03161        -3.70569     992.087E-03    -41.7546E-03     235.027E-03    -116.815E-03    -118.229E-03    -115.823E-03     234.034E-03    -118.229E-03     36.9790E-03     8.47213E+06    -30.2654E+06    -62.3874E+06    -55.8763E+06    -36.7765E+06     8.47213E+06     691.487E+03         46.5897
             588     8.00056E-03     45.4710E-03         1.02622     989.455E-03        -3.69755         1.02613        -3.69746     989.455E-03    -35.7779E-03     235.391E-03    -117.137E-03    -118.294E-03    -116.559E-03     234.813E-03    -118.294E-03     28.2664E-03    -1.58662E+06     -61.567E+06    -96.5682E+06    -61.6444E+06    -96.4908E+06    -1.58662E+06     1.03450E+06         44.9683
             589     7.11098E-03     45.4466E-03         1.02717     985.862E-03        -3.69581         1.02701        -3.69565     985.862E-03    -48.6312E-03     235.479E-03    -117.180E-03    -118.341E-03    -116.869E-03     235.168E-03    -118.341E-03     20.5814E-03    -10.9296E+06    -67.3280E+06    -143.435E+06    -67.3470E+06    -143.416E+06    -10.9296E+06     1.00092E+06         43.6251
             590     6.22179E-03     45.4317E-03         1.02697     980.689E-03        -3.68912         1.02680        -3.68895     980.689E-03    -51.3090E-03     235.792E-03    -117.463E-03    -118.356E-03    -117.324E-03     235.653E-03    -118.356E-03     13.7027E-03    -21.7636E+06    -74.8599E+06    -183.740E+06    -74.8650E+06    -183.735E+06    -21.7636E+06     623.695E+03         42.5221
             591     5.33363E-03     45.4222E-03         1.00595     975.325E-03        -3.66152         1.00530        -3.66087     975.325E-03    -91.0208E-03     235.900E-03    -117.556E-03    -118.376E-03    -117.502E-03     235.846E-03    -118.376E-03     8.44930E-03    -32.9122E+06    -82.8751E+06    -224.248E+06    -82.8798E+06    -224.244E+06    -32.9122E+06     542.795E+03         41.6190
             592     4.44243E-03     45.4170E-03     987.112E-03     963.346E-03        -3.63199     977.246E-03        -3.63136     972.583E-03    -63.5455E-03     236.131E-03    -117.789E-03    -118.373E-03    -117.772E-03     236.114E-03    -118.373E-03     4.50626E-03    -47.9424E+06    -91.3738E+06    -258.056E+06    -91.3777E+06    -258.052E+06    -47.9424E+06     51.8516E+03         40.8912
             593     3.55554E-03     45.4162E-03     990.440E-03     961.067E-03        -3.62973     979.280E-03        -3.62867     971.164E-03     103.872E-03     236.388E-03    -118.044E-03    -118.361E-03    -118.120E-03     236.384E-03    -118.280E-03     1.85649E-03    -66.4415E+06    -100.211E+06    -275.818E+06    -100.214E+06    -275.814E+06    -66.4415E+06     59.4068E+03         40.3268
             594     2.66789E-03     45.4175E-03     992.176E-03     965.327E-03        -3.63196     989.582E-03        -3.63022     966.186E-03     14.1862E-03     236.140E-03    -117.897E-03    -118.265E-03    -117.976E-03     236.138E-03    -118.185E-03     250.873E-06    -85.3411E+06    -108.236E+06    -289.636E+06    -108.238E+06    -289.633E+06    -85.3411E+06     344.121E+03         39.9042
             595     1.77771E-03     45.4208E-03     977.787E-03     957.757E-03        -3.61064     975.392E-03        -3.60824     957.757E-03     40.1564E-03     235.965E-03    -117.821E-03    -118.170E-03    -117.820E-03     235.963E-03    -118.170E-03    -309.225E-06    -102.085E+06    -114.117E+06    -299.988E+06    -114.120E+06    -299.985E+06    -102.085E+06     81.7936E+03         39.6172
             596     889.377E-06     45.4209E-03         1.51999     388.593E-03        -3.57914         1.51817        -3.57731     388.593E-03     86.7621E-03     236.315E-03    -117.998E-03    -118.335E-03    -118.149E-03     236.312E-03    -118.181E-03    -532.979E-06    -114.169E+06    -118.417E+06    -308.201E+06    -118.074E+06    -308.198E+06    -114.515E+06     368.499E+03         39.4574
             597     15.1180E-03     45.0393E-03         1.16416         1.05203        -3.92545         1.16415        -3.92544         1.05203    -2.23484E-03     246.351E-03    -117.352E-03    -129.145E-03    -117.059E-03     234.921E-03    -118.007E-03     105.907E-03     118.493E+06     100.386E+06    -6.18961E+06    -6.18295E+06     118.487E+06     100.386E+06     455.488E+03         59.9261
             598     14.2273E-03     44.8156E-03         1.15466         1.05080        -3.92033         1.15465        -3.92031         1.05080    -6.81765E-03     249.232E-03    -118.051E-03    -131.311E-03    -116.600E-03     234.521E-03    -118.051E-03     141.944E-03     108.215E+06     99.6921E+06    -12.3481E+06    -12.3373E+06     108.100E+06     99.7956E+06     406.419E+03         57.8299
             599     13.3398E-03     44.6940E-03         1.13987         1.05010        -3.90825         1.13976        -3.90815         1.05010    -37.5086E-03     242.080E-03    -118.109E-03    -124.060E-03    -114.821E-03     232.841E-03    -118.109E-03     114.121E-03     100.994E+06     97.9634E+06    -18.7630E+06    -18.7574E+06     100.885E+06     98.0669E+06     283.753E+03         56.0326
             600     12.4495E-03     44.5445E-03         1.12746         1.04924        -3.89657         1.12728        -3.89639         1.04924     2.56134E-03     241.276E-03    -118.047E-03    -123.210E-03    -114.106E-03     232.172E-03    -118.047E-03     112.944E-03     98.8863E+06     82.6352E+06    -27.0132E+06    -27.0091E+06     98.8821E+06     82.6352E+06     569.510E+03         54.5580
             601     11.5595E-03     44.4324E-03         1.11418         1.04835        -3.88572         1.11405        -3.88559         1.04835     10.1124E-03     237.403E-03    -117.997E-03    -119.404E-03    -113.756E-03     231.775E-03    -118.016E-03     88.3680E-03     95.5236E+06      56.692E+06    -35.7402E+06    -35.7299E+06     95.5133E+06      56.692E+06     96.3944E+03         52.8231
             602     10.6680E-03     44.3417E-03         1.10269         1.04701        -3.87251         1.10221        -3.87203         1.04701     47.1599E-03     235.538E-03    -117.445E-03    -118.120E-03    -114.220E-03     232.261E-03    -118.068E-03     66.7241E-03     89.7246E+06     34.9491E+06    -43.4147E+06    -43.3990E+06     89.7089E+06     34.9491E+06    -1.17424E+06         50.7054
             603     9.77846E-03     44.2822E-03         1.09016         1.04530        -3.85731         1.08971        -3.85686         1.04530     57.0985E-03     234.946E-03    -116.834E-03    -118.137E-03    -115.131E-03     233.244E-03    -118.137E-03     48.3321E-03     49.5122E+06     11.5813E+06    -50.2508E+06    -50.2357E+06     41.0935E+06     19.9849E+06    -1.11024E+06         48.5329
             604     8.89007E-03     44.2377E-03         1.07940         1.04334        -3.84696         1.07937        -3.84693         1.04334    -23.8970E-03     234.939E-03    -116.711E-03    -118.250E-03    -115.718E-03     233.946E-03    -118.250E-03     37.0359E-03     7.63169E+06    -30.8592E+06    -62.4570E+06    -56.0048E+06    -37.3114E+06     7.63169E+06    -421.478E+03         46.5953
             605     7.99918E-03     44.2041E-03         1.07687         1.04091        -3.84187         1.07681        -3.84181         1.04091    -3.94913E-03     235.377E-03    -117.092E-03    -118.327E-03    -116.514E-03     234.799E-03    -118.327E-03     28.1247E-03    -2.20824E+06    -61.6564E+06    -96.7205E+06    -61.6645E+06    -96.7125E+06    -2.20824E+06    -16.1221E+03         44.9763
             606     7.11053E-03     44.1814E-03         1.06952         1.03790        -3.83137         1.06938        -3.83123         1.03790    -15.7703E-03     235.863E-03    -117.545E-03    -118.353E-03    -117.253E-03     235.571E-03    -118.353E-03     19.9468E-03    -11.1918E+06    -67.9403E+06    -142.997E+06    -67.9547E+06    -142.983E+06    -11.1918E+06     605.859E+03         43.6366
             607     6.22171E-03     44.1649E-03         1.06367         1.03451        -3.82060         1.06355        -3.82048         1.03451    -20.5410E-03     235.919E-03    -117.613E-03    -118.327E-03    -117.480E-03     235.787E-03    -118.327E-03     13.3320E-03    -22.3960E+06    -75.4253E+06    -183.051E+06    -75.4367E+06    -183.039E+06    -22.3960E+06     644.850E+03         42.5314
             608     5.33304E-03     44.1566E-03         1.05693         1.03069        -3.80877         1.05648        -3.80833         1.03069    -57.0796E-03     236.036E-03    -117.753E-03    -118.312E-03    -117.698E-03     235.981E-03    -118.312E-03     8.55365E-03    -33.8405E+06    -83.3561E+06    -223.985E+06    -83.3601E+06    -223.981E+06    -33.8405E+06     178.108E+03         41.6209
             609     4.44630E-03     44.1520E-03         1.04018         1.01936        -3.78151         1.03026        -3.78083         1.02860    -21.5115E-03     235.895E-03    -117.627E-03    -118.302E-03    -117.605E-03     235.874E-03    -118.302E-03     5.02639E-03    -48.0087E+06    -91.4588E+06    -257.638E+06    -91.4610E+06    -257.636E+06    -48.0087E+06    -101.371E+03         40.8842
             610     3.55524E-03     44.1504E-03         1.03206         1.01032        -3.76628         1.01032        -3.76533         1.03110     121.466E-03     235.762E-03    -117.477E-03    -118.302E-03    -117.471E-03     235.756E-03    -118.302E-03     2.35600E-03    -66.5639E+06    -99.9080E+06    -276.039E+06    -99.9113E+06    -276.035E+06    -66.5639E+06     97.2874E+03         40.3174
             611     2.66519E-03     44.1523E-03         1.04589         1.01404        -3.78429         1.02295        -3.78310         1.03579     35.1820E-03     236.203E-03    -117.859E-03    -118.362E-03    -117.895E-03     236.203E-03    -118.325E-03     817.854E-06    -84.9939E+06    -107.005E+06    -289.099E+06    -107.013E+06    -289.091E+06    -84.9939E+06    -43.5294E+03         39.9042
             612     1.77765E-03     44.1554E-03         1.05118         1.02630        -3.80190         1.03861        -3.80055         1.03753     46.1159E-03     236.525E-03    -118.182E-03    -118.368E-03    -118.307E-03     236.525E-03    -118.243E-03     174.880E-06    -102.561E+06    -113.753E+06    -299.655E+06    -113.764E+06    -299.644E+06    -102.561E+06    -99.9455E+03         39.6252
             613     888.385E-06     44.1556E-03         1.60494     470.523E-03        -3.80227         1.60291        -3.80127     471.553E-03     112.886E-03     236.252E-03    -117.937E-03    -118.330E-03    -118.285E-03     236.249E-03    -117.979E-03    -392.989E-06    -115.535E+06    -119.070E+06    -307.766E+06    -119.076E+06    -307.760E+06    -115.535E+06     568.929E+03         39.4605
             614     15.1182E-03     43.7737E-03         1.19954         1.09904        -4.04932         1.19943        -4.04920         1.09904    -34.4356E-03     246.431E-03    -117.193E-03    -129.355E-03    -117.178E-03     235.062E-03    -118.000E-03     105.950E-03     118.322E+06     100.846E+06    -7.05128E+06    -7.04136E+06     118.312E+06     100.846E+06     631.042E+03         59.9076
             615     14.2306E-03     43.5484E-03         1.19276         1.09915        -4.04769         1.19260        -4.04753         1.09915    -44.7766E-03     249.058E-03    -118.051E-03    -131.139E-03    -116.411E-03     234.329E-03    -118.051E-03     142.264E-03     108.982E+06     100.906E+06    -13.8574E+06    -13.8511E+06     108.975E+06     100.906E+06    -254.906E+03         57.8175
             616     13.3385E-03     43.4297E-03         1.18376         1.09978        -4.04196         1.18341        -4.04160         1.09978    -80.3998E-03     241.737E-03    -118.134E-03    -123.643E-03    -114.252E-03     232.347E-03    -118.134E-03     114.958E-03     99.9396E+06     97.4870E+06    -21.6247E+06    -21.6214E+06     99.9364E+06     97.4870E+06    -167.921E+03         56.0300
             617     12.4470E-03     43.2792E-03         1.17302         1.10009        -4.03283         1.17275        -4.03256         1.10009    -33.7621E-03     241.691E-03    -118.090E-03    -123.531E-03    -114.400E-03     232.559E-03    -118.090E-03     113.133E-03     99.1183E+06     82.7024E+06    -28.9633E+06    -28.9508E+06     99.1058E+06     82.7024E+06    -53.0644E+03         54.5673
             618     11.5581E-03     43.1649E-03         1.15715         1.10034        -4.01858         1.15709        -4.01852         1.10034    -1.64723E-03     237.795E-03    -118.027E-03    -119.747E-03    -114.245E-03     232.293E-03    -118.029E-03     87.3971E-03     97.7064E+06     57.7454E+06    -35.7962E+06    -35.7813E+06     97.6915E+06     57.7454E+06    -519.085E+03         52.8301
             619     10.6692E-03     43.0793E-03         1.14618         1.10006        -4.00723         1.14580        -4.00685         1.10006     41.5148E-03     235.418E-03    -117.345E-03    -118.110E-03    -114.125E-03     232.146E-03    -118.058E-03     66.9473E-03     90.2734E+06     35.1808E+06    -42.1178E+06    -42.1103E+06     90.2658E+06     35.1808E+06    -432.248E+03         50.6989
             620     9.77889E-03     43.0140E-03         1.14486         1.09887        -4.00805         1.14450        -4.00769         1.09887     46.9448E-03     234.841E-03    -116.720E-03    -118.144E-03    -114.969E-03     233.091E-03    -118.144E-03     48.7084E-03     50.0669E+06     10.7244E+06    -48.2862E+06    -48.2696E+06     40.2995E+06     20.4752E+06    -711.861E+03         48.5283
             621     8.88856E-03     42.9740E-03         1.14147         1.09656        -4.00427         1.14140        -4.00420         1.09656    -35.1394E-03     235.148E-03    -116.910E-03    -118.252E-03    -115.943E-03     234.181E-03    -118.252E-03     36.6805E-03     8.07085E+06    -31.7967E+06    -60.8313E+06    -55.1087E+06    -37.5194E+06     8.07085E+06    -589.521E+03         46.5979
             622     7.99980E-03     42.9379E-03         1.13072         1.09377        -3.98763         1.13062        -3.98753         1.09377    -15.6382E-03     235.446E-03    -117.178E-03    -118.303E-03    -116.599E-03     234.867E-03    -118.303E-03     28.0709E-03    -3.09751E+06    -61.9683E+06    -96.8474E+06    -61.9723E+06    -96.8434E+06    -3.09751E+06    -107.374E+03         44.9763
             623     7.11147E-03     42.9143E-03         1.11299         1.09147        -3.96704         1.11280        -3.96684         1.09147    -25.9084E-03     235.701E-03    -117.410E-03    -118.327E-03    -117.124E-03     235.415E-03    -118.327E-03     19.8268E-03    -13.1320E+06    -69.3816E+06    -144.385E+06    -69.3931E+06    -144.374E+06    -13.1320E+06     179.561E+03         43.6341
             624     6.22287E-03     42.9000E-03         1.10034         1.09014        -3.95252         1.10013        -3.95230         1.09014    -38.3086E-03     235.756E-03    -117.452E-03    -118.328E-03    -117.309E-03     235.613E-03    -118.328E-03     13.8682E-03    -22.6985E+06    -75.8684E+06    -181.837E+06    -75.8894E+06    -181.816E+06    -22.6985E+06     645.248E+03         42.5305
             625     5.33344E-03     42.8908E-03         1.10464         1.08856        -3.95594         1.10421        -3.95551         1.08856    -66.0806E-03     235.807E-03    -117.491E-03    -118.348E-03    -117.429E-03     235.745E-03    -118.348E-03     9.09666E-03    -34.6178E+06    -83.5439E+06    -222.729E+06    -83.5588E+06    -222.714E+06    -34.6178E+06     245.761E+03         41.6224
             626     4.44286E-03     42.8865E-03         1.10862         1.08521        -3.96059         1.10784        -3.95981         1.08521     2.99103E-03     235.938E-03    -117.595E-03    -118.374E-03    -117.570E-03     235.914E-03    -118.374E-03     5.55280E-03    -49.2228E+06    -92.0819E+06    -257.932E+06    -92.0875E+06    -257.927E+06    -49.2228E+06    -446.035E+03         40.8870
             627     3.55509E-03     42.8864E-03         1.10289         1.07118        -3.94223         1.09105        -3.94108         1.08187     148.270E-03     236.067E-03    -117.669E-03    -118.415E-03    -117.707E-03     236.061E-03    -118.371E-03     2.37107E-03    -65.7729E+06    -99.5451E+06    -275.397E+06    -99.5493E+06    -275.393E+06    -65.7729E+06    -410.581E+03         40.3209
             628     2.66600E-03     42.8869E-03         1.09286         1.05823        -3.91746         1.06686        -3.91671         1.08348     84.3787E-03     236.331E-03    -117.907E-03    -118.440E-03    -117.988E-03     236.330E-03    -118.359E-03     127.426E-06    -85.4179E+06    -107.758E+06    -288.785E+06    -107.764E+06    -288.779E+06    -85.4179E+06    -623.683E+03         39.9092
             629     1.77696E-03     42.8876E-03         1.09123         1.07204        -3.93073         1.07118        -3.92987         1.09123     92.3912E-03     236.487E-03    -118.065E-03    -118.448E-03    -118.190E-03     236.487E-03    -118.322E-03    -723.710E-06    -103.310E+06    -114.701E+06    -300.699E+06    -114.712E+06    -300.688E+06    -103.310E+06    -344.136E+03         39.6318
             630     889.486E-06     42.8919E-03         1.64615     547.376E-03        -3.96330         1.64020        -3.96198     552.001E-03     166.871E-03     236.514E-03    -117.831E-03    -118.700E-03    -118.181E-03     236.513E-03    -118.349E-03     81.3771E-06    -114.456E+06    -118.800E+06    -307.421E+06    -117.818E+06    -307.415E+06    -115.444E+06     297.675E+03         39.4696
             631     15.1191E-03     42.5056E-03         1.22273         1.14945        -4.16240         1.22260        -4.16227         1.14945    -40.5189E-03     246.093E-03    -117.328E-03    -128.874E-03    -116.654E-03     234.549E-03    -118.004E-03     106.373E-03     118.355E+06     103.057E+06    -4.23648E+06    -4.21453E+06     118.333E+06     103.057E+06     1.21252E+06         59.8961
             632     14.2272E-03     42.2829E-03         1.21828         1.15141        -4.16012         1.21812        -4.15996         1.15141    -43.3305E-03     248.706E-03    -118.084E-03    -130.760E-03    -115.880E-03     233.826E-03    -118.084E-03     142.569E-03     109.564E+06     102.598E+06    -10.5037E+06    -10.4822E+06     109.542E+06     102.598E+06     1.03629E+06         57.8129
             633     13.3372E-03     42.1658E-03         1.22094         1.15358        -4.16685         1.22065        -4.16656         1.15358    -66.1157E-03     242.170E-03    -118.172E-03    -124.069E-03    -114.745E-03     232.846E-03    -118.172E-03     114.704E-03     100.582E+06     98.1434E+06    -19.3699E+06    -19.3631E+06     100.575E+06     98.1434E+06     159.741E+03         56.0347
             634     12.4491E-03     42.0116E-03         1.21672         1.15493        -4.16739         1.21648        -4.16715         1.15493    -12.8987E-03     241.818E-03    -118.104E-03    -123.712E-03    -114.604E-03     232.710E-03    -118.104E-03     113.101E-03     99.3594E+06     82.7954E+06    -28.4133E+06    -28.4032E+06     99.3493E+06     82.7954E+06    -581.683E+03         54.5780
             635     11.5596E-03     41.8996E-03         1.20862         1.15584        -4.16414         1.20855        -4.16407         1.15584     14.2013E-03     237.819E-03    -118.035E-03    -119.754E-03    -114.262E-03     232.328E-03    -118.037E-03     87.2548E-03     98.2514E+06     58.0386E+06    -35.4049E+06    -35.3923E+06     98.2387E+06     58.0386E+06    -1.04322E+06         52.8411
             636     10.6685E-03     41.8135E-03         1.19984         1.15591        -4.15776         1.19952        -4.15744         1.15591     48.0347E-03     235.585E-03    -117.345E-03    -118.263E-03    -114.290E-03     232.329E-03    -118.063E-03     66.8683E-03     91.4895E+06     36.1066E+06    -41.8502E+06    -41.8379E+06     91.4772E+06     36.1066E+06    -783.689E+03         50.7038
             637     9.77810E-03     41.7498E-03         1.19043         1.15543        -4.15043         1.19006        -4.15005         1.15543     33.7214E-03     234.794E-03    -116.675E-03    -118.136E-03    -114.907E-03     233.026E-03    -118.136E-03     48.9457E-03     49.4345E+06     9.86496E+06    -48.7443E+06    -48.7247E+06     39.6873E+06     19.5925E+06    -421.824E+03         48.5276
             638     8.88963E-03     41.7066E-03         1.18727         1.15437        -4.14554         1.18715        -4.14543         1.15437    -48.1868E-03     235.240E-03    -117.010E-03    -118.242E-03    -116.037E-03     234.266E-03    -118.242E-03     36.8010E-03     7.21340E+06    -32.7933E+06    -61.0858E+06    -55.3014E+06    -38.5778E+06     7.21340E+06     182.919E+03         46.5962
             639     8.00105E-03     41.6721E-03         1.17889         1.15293        -4.13214         1.17882        -4.13207         1.15293    -25.3525E-03     235.333E-03    -117.080E-03    -118.292E-03    -116.483E-03     234.736E-03    -118.292E-03     28.6100E-03    -3.15910E+06    -61.7548E+06    -96.2202E+06    -61.7803E+06    -96.1948E+06    -3.15910E+06     348.111E+03         44.9715
             640     7.11034E-03     41.6491E-03         1.16476         1.15191        -4.11711         1.16459        -4.11694         1.15191    -39.6130E-03     235.311E-03    -116.999E-03    -118.349E-03    -116.694E-03     235.005E-03    -118.349E-03     20.4161E-03    -13.4510E+06    -68.3819E+06    -143.832E+06    -68.3844E+06    -143.830E+06    -13.4510E+06    -49.5912E+03         43.6258
             641     6.22085E-03     41.6335E-03         1.15847         1.15142        -4.11229         1.15826        -4.11208         1.15142    -57.8788E-03     235.697E-03    -117.329E-03    -118.398E-03    -117.182E-03     235.550E-03    -118.398E-03     14.1088E-03    -23.9321E+06    -75.8969E+06    -182.832E+06    -75.9165E+06    -182.813E+06    -23.9321E+06    -9.86075E+03         42.5276
             642     5.33234E-03     41.6257E-03         1.15988         1.15070        -4.11420         1.15918        -4.11350         1.15070    -101.099E-03     236.041E-03    -117.650E-03    -118.430E-03    -117.590E-03     235.982E-03    -118.430E-03     8.77438E-03    -33.8589E+06    -82.7799E+06    -221.610E+06    -82.8008E+06    -221.589E+06    -33.8589E+06     50.7446E+03         41.6300
             643     4.44408E-03     41.6214E-03         1.16538         1.14562        -4.11765         1.16111        -4.11678         1.14902    -34.2607E-03     236.248E-03    -117.848E-03    -118.430E-03    -117.831E-03     236.231E-03    -118.430E-03     4.47290E-03    -47.5671E+06    -90.8846E+06    -255.805E+06    -90.8911E+06    -255.799E+06    -47.5671E+06    -313.370E+03         40.9000
             644     3.55457E-03     41.6197E-03         1.16780         1.14218        -4.11879         1.16393        -4.11833         1.14559     90.3881E-03     236.447E-03    -118.070E-03    -118.393E-03    -118.111E-03     236.444E-03    -118.349E-03     1.92311E-03    -66.4271E+06    -101.031E+06    -276.075E+06    -101.036E+06    -276.069E+06    -66.4271E+06    -623.416E+03         40.3313
             645     2.66707E-03     41.6215E-03         1.16195         1.13608        -4.10585         1.15720        -4.10546         1.14044     11.9179E-03     236.387E-03    -118.070E-03    -118.336E-03    -118.175E-03     236.386E-03    -118.230E-03     141.972E-06    -85.9558E+06    -109.569E+06    -289.657E+06    -109.572E+06    -289.655E+06    -85.9558E+06    -462.888E+03         39.9108
             646     1.77794E-03     41.6239E-03         1.14724         1.12885        -4.07935         1.13831        -4.07883         1.13727     2.20744E-03     236.101E-03    -117.890E-03    -118.238E-03    -117.980E-03     236.100E-03    -118.147E-03    -1.10980E-03    -103.380E+06    -115.186E+06    -300.330E+06    -115.191E+06    -300.324E+06    -103.380E+06    -772.375E+03         39.6256
             647     887.361E-06     41.6251E-03         1.62531     649.547E-03        -4.07745         1.62039        -4.07658     653.599E-03     110.487E-03     236.181E-03    -117.538E-03    -118.659E-03    -118.140E-03     236.179E-03    -118.056E-03    -1.20193E-03    -115.810E+06    -120.460E+06    -308.856E+06    -119.477E+06    -308.850E+06    -116.799E+06    -765.128E+03         39.4637
             648     15.1191E-03     41.2441E-03         1.25634         1.20064        -4.28536         1.25633        -4.28534         1.20064    -150.065E-06     245.736E-03    -117.260E-03    -128.617E-03    -116.339E-03     234.208E-03    -118.010E-03     105.509E-03     117.278E+06     101.961E+06    -5.36645E+06    -5.34843E+06     117.260E+06     101.961E+06     12.5188E+03         59.8873
             649     14.2274E-03     41.0181E-03         1.25338         1.20347        -4.28611         1.25337        -4.28610         1.20347    -7.80973E-03     248.741E-03    -118.104E-03    -130.788E-03    -115.861E-03     233.814E-03    -118.104E-03     142.803E-03     109.304E+06     101.415E+06    -12.0282E+06    -12.0047E+06     109.280E+06     101.415E+06     1.31572E+06         57.8098
             650     13.3388E-03     40.8971E-03         1.24978         1.20679        -4.28556         1.24974        -4.28552         1.20679    -27.4517E-03     242.347E-03    -118.178E-03    -124.320E-03    -115.027E-03     233.054E-03    -118.178E-03     114.634E-03     102.749E+06     98.1270E+06    -20.0997E+06    -20.0888E+06     102.739E+06     98.1270E+06     661.022E+03         56.0358
             651     12.4477E-03     40.7476E-03         1.24366         1.20979        -4.28468         1.24353        -4.28455         1.20979     13.2569E-03     241.438E-03    -118.109E-03    -123.385E-03    -114.300E-03     232.354E-03    -118.109E-03     112.934E-03     100.411E+06     82.7666E+06    -27.9238E+06    -27.9206E+06     100.408E+06     82.7666E+06    -501.055E+03         54.5783
             652     11.5567E-03     40.6323E-03         1.24405         1.21247        -4.29304         1.24393        -4.29292         1.21247     15.8871E-03     237.751E-03    -118.061E-03    -119.658E-03    -114.094E-03     232.187E-03    -118.061E-03     87.8181E-03     98.1302E+06     57.4204E+06    -34.8426E+06    -34.8327E+06     98.1203E+06     57.4204E+06    -945.901E+03         52.8432
             653     10.6692E-03     40.5480E-03         1.24389         1.21403        -4.29960         1.24350        -4.29921         1.21403     47.8589E-03     236.041E-03    -117.579E-03    -118.460E-03    -114.724E-03     232.801E-03    -118.075E-03     66.6645E-03     90.4847E+06     35.5692E+06    -42.0800E+06    -42.0586E+06     90.4632E+06     35.5692E+06    -652.537E+03         50.7109
             654     9.77960E-03     40.4847E-03         1.23435         1.21498        -4.29231         1.23388        -4.29184         1.21498     28.8774E-03     234.854E-03    -116.719E-03    -118.128E-03    -114.944E-03     233.079E-03    -118.128E-03     49.3203E-03     48.6832E+06     10.8038E+06    -49.1435E+06    -49.1230E+06     39.9287E+06     19.5379E+06     298.765E+03         48.5303
             655     8.88886E-03     40.4395E-03         1.22873         1.21576        -4.28608         1.22858        -4.28592         1.21576    -57.2771E-03     234.953E-03    -116.703E-03    -118.255E-03    -115.677E-03     233.928E-03    -118.255E-03     37.6048E-03     6.93999E+06    -31.5501E+06    -61.7177E+06    -55.3137E+06    -37.9540E+06     6.93999E+06     293.789E+03         46.5935
             656     7.99881E-03     40.4070E-03         1.23276         1.21588        -4.28803         1.23270        -4.28797         1.21588    -10.5772E-03     235.372E-03    -117.074E-03    -118.328E-03    -116.486E-03     234.783E-03    -118.328E-03     28.3897E-03    -3.34235E+06    -61.5693E+06    -96.6356E+06    -61.6278E+06    -96.5771E+06    -3.34235E+06    -106.503E+03         44.9721
             657     7.11077E-03     40.3828E-03         1.23322         1.21502        -4.28387         1.23314        -4.28378         1.21502    -15.1237E-03     235.551E-03    -117.213E-03    -118.369E-03    -116.921E-03     235.260E-03    -118.369E-03     19.8859E-03    -13.3203E+06    -67.9430E+06    -143.204E+06    -67.9434E+06    -143.203E+06    -13.3203E+06    -112.087E+03         43.6285
             658     6.22151E-03     40.3689E-03         1.22380         1.21265        -4.27239         1.22230        -4.27232         1.21407    -32.2164E-03     235.766E-03    -117.399E-03    -118.399E-03    -117.272E-03     235.640E-03    -118.399E-03     13.0581E-03    -23.9000E+06    -74.9843E+06    -182.867E+06    -74.9912E+06    -182.860E+06    -23.9000E+06    -518.984E+03         42.5285
             659     5.33227E-03     40.3582E-03         1.21604         1.20834        -4.26590         1.20933        -4.26521         1.21436    -91.0155E-03     236.077E-03    -117.697E-03    -118.427E-03    -117.648E-03     236.028E-03    -118.427E-03     8.07415E-03    -33.9673E+06    -83.1542E+06    -222.082E+06    -83.1614E+06    -222.074E+06    -33.9673E+06    -274.131E+03         41.6331
             660     4.44397E-03     40.3554E-03         1.21628         1.20595        -4.26403         1.20483        -4.26277         1.21614    -14.5936E-03     236.359E-03    -117.995E-03    -118.405E-03    -117.978E-03     236.342E-03    -118.405E-03     4.62428E-03    -47.6063E+06    -92.3546E+06    -255.358E+06    -92.3569E+06    -255.356E+06    -47.6063E+06     522.720E+03         40.9056
             661     3.55576E-03     40.3547E-03         1.22076         1.20699        -4.26761         1.20836        -4.26683         1.21861     113.154E-03     236.313E-03    -118.034E-03    -118.309E-03    -118.030E-03     236.308E-03    -118.308E-03     2.22053E-03    -66.5173E+06    -101.377E+06    -275.218E+06    -101.380E+06    -275.215E+06    -66.5173E+06     102.629E+03         40.3333
             662     2.66601E-03     40.3553E-03         1.23182         1.20884        -4.28084         1.22052        -4.28039         1.21970     38.2015E-03     236.291E-03    -118.063E-03    -118.262E-03    -118.127E-03     236.290E-03    -118.198E-03     184.004E-06    -86.5187E+06    -108.666E+06    -289.082E+06    -108.669E+06    -289.079E+06    -86.5187E+06    -645.084E+03         39.9089
             663     1.77809E-03     40.3588E-03         1.23738         1.21002        -4.28475         1.23179        -4.28444         1.21530     5.42607E-03     236.216E-03    -118.032E-03    -118.214E-03    -118.213E-03     236.215E-03    -118.032E-03    -764.999E-06    -104.767E+06    -115.159E+06    -301.000E+06    -115.167E+06    -300.992E+06    -104.767E+06    -540.694E+03         39.6235
             664     890.861E-06     40.3605E-03         1.62609     797.572E-03        -4.26102         1.62450        -4.25989     798.028E-03     115.675E-03     235.781E-03    -117.511E-03    -118.285E-03    -118.200E-03     235.779E-03    -117.594E-03    -280.043E-06    -117.097E+06    -120.623E+06    -309.424E+06    -120.631E+06    -309.417E+06    -117.097E+06     103.406E+03         39.4607
             665     15.1180E-03     39.9785E-03         1.29066         1.25228        -4.40026         1.29062        -4.40022         1.25228    -14.0047E-03     246.184E-03    -117.099E-03    -129.145E-03    -116.838E-03     234.805E-03    -118.028E-03     105.073E-03     116.151E+06     101.015E+06    -7.15685E+06    -7.14962E+06     116.144E+06     101.015E+06    -102.615E+03         59.8766
             666     14.2285E-03     39.7545E-03         1.29205         1.25641        -4.41069         1.29199        -4.41063         1.25641    -28.8792E-03     249.206E-03    -118.095E-03    -131.218E-03    -116.355E-03     234.344E-03    -118.095E-03     143.035E-03     108.536E+06     100.712E+06    -14.4098E+06    -14.4005E+06     108.526E+06     100.712E+06     407.524E+03         57.7977
             667     13.3369E-03     39.6303E-03         1.28568         1.26129        -4.41269         1.28554        -4.41255         1.26129    -50.7108E-03     241.880E-03    -118.160E-03    -123.879E-03    -114.678E-03     232.679E-03    -118.160E-03     114.084E-03     104.801E+06     99.7786E+06    -20.4448E+06    -20.4288E+06     104.785E+06     99.7786E+06    -306.235E+03         56.0226
             668     12.4489E-03     39.4820E-03         1.28294         1.26593        -4.41627         1.28280        -4.41612         1.26593    -9.66200E-03     241.009E-03    -118.102E-03    -122.940E-03    -114.119E-03     232.188E-03    -118.102E-03     111.198E-03     101.505E+06     83.8321E+06    -27.5535E+06    -27.5408E+06     101.493E+06     83.8321E+06    -692.589E+03         54.5648
             669     11.5588E-03     39.3687E-03         1.28345         1.27016        -4.42233         1.28337        -4.42225         1.27016     3.36956E-03     237.290E-03    -117.907E-03    -119.366E-03    -113.696E-03     231.771E-03    -118.058E-03     87.4900E-03     96.9146E+06     54.5452E+06    -36.4207E+06    -36.4016E+06     96.8954E+06     54.5452E+06    -47.9825E+03         52.8298
             670     10.6675E-03     39.2789E-03         1.28338         1.27314        -4.43157         1.28271        -4.43112         1.27335     50.2555E-03     235.760E-03    -117.489E-03    -118.278E-03    -114.394E-03     232.480E-03    -118.094E-03     66.9258E-03     89.2316E+06     33.0583E+06    -43.6911E+06    -43.6622E+06     89.2028E+06     33.0583E+06     22.0721E+03         50.7070
             671     9.77858E-03     39.2210E-03         1.28511         1.27536        -4.43977         1.28441        -4.43928         1.27557     55.6528E-03     235.201E-03    -117.022E-03    -118.161E-03    -115.244E-03     233.423E-03    -118.161E-03     49.4516E-03     48.8157E+06     12.4427E+06    -49.7775E+06    -49.7587E+06     41.1509E+06     20.0886E+06    -85.9446E+03         48.5386
             672     8.88850E-03     39.1746E-03         1.28426         1.27333        -4.43453         1.28027        -4.43444         1.27723    -27.7133E-03     235.196E-03    -116.943E-03    -118.266E-03    -115.918E-03     234.171E-03    -118.266E-03     37.5850E-03     7.27501E+06    -29.8958E+06    -62.3292E+06    -55.4612E+06    -36.7637E+06     7.27501E+06    -304.317E+03         46.6011
             673     8.00031E-03     39.1402E-03         1.28701         1.26968        -4.43350         1.27786        -4.43346         1.27879    -9.60553E-03     235.594E-03    -117.302E-03    -118.318E-03    -116.740E-03     235.032E-03    -118.318E-03     27.7189E-03    -3.30764E+06    -61.0575E+06    -96.8457E+06    -61.0985E+06    -96.8047E+06    -3.30764E+06    -518.996E+03         44.9745
             674     7.11042E-03     39.1173E-03         1.29515         1.27419        -4.44410         1.28980        -4.44397         1.27941    -32.5695E-03     235.792E-03    -117.493E-03    -118.323E-03    -117.223E-03     235.522E-03    -118.323E-03     19.1734E-03    -12.9154E+06    -68.0928E+06    -143.340E+06    -68.0978E+06    -143.335E+06    -12.9154E+06    -357.248E+03         43.6286
             675     6.22221E-03     39.1018E-03         1.29378         1.27718        -4.44386         1.29222        -4.44373         1.27860    -45.5280E-03     235.556E-03    -117.267E-03    -118.328E-03    -117.144E-03     235.433E-03    -118.328E-03     12.9104E-03    -23.7512E+06    -75.6021E+06    -182.296E+06    -75.6026E+06    -182.295E+06    -23.7512E+06    -47.0265E+03         42.5245
             676     5.33346E-03     39.0944E-03         1.28557         1.27203        -4.43187         1.27893        -4.43125         1.27805    -91.8130E-03     235.662E-03    -117.324E-03    -118.389E-03    -117.269E-03     235.607E-03    -118.389E-03     8.58109E-03    -35.4040E+06    -83.6156E+06    -222.992E+06    -83.6161E+06    -222.992E+06    -35.4040E+06    -86.2438E+03         41.6263
             677     4.44344E-03     39.0890E-03         1.28099         1.27203        -4.42599         1.27295        -4.42474         1.27881    -2.13872E-03     236.226E-03    -117.849E-03    -118.420E-03    -117.829E-03     236.206E-03    -118.420E-03     4.92460E-03    -47.8325E+06    -91.6304E+06    -256.071E+06    -91.6318E+06    -256.069E+06    -47.8325E+06     127.789E+03         40.9006
             678     3.55494E-03     39.0891E-03         1.28687         1.27147        -4.42866         1.27776        -4.42778         1.27969     131.299E-03     236.267E-03    -117.951E-03    -118.356E-03    -117.948E-03     236.263E-03    -118.355E-03     2.02893E-03    -65.3435E+06    -100.226E+06    -273.366E+06    -100.227E+06    -273.365E+06    -65.3435E+06     251.948E+03         40.3305
             679     2.66689E-03     39.0907E-03         1.28837         1.26958        -4.42857         1.27711        -4.42817         1.28043     91.5624E-03     236.084E-03    -117.783E-03    -118.344E-03    -117.784E-03     236.082E-03    -118.341E-03     841.936E-06    -86.3065E+06    -108.698E+06    -288.201E+06    -108.705E+06    -288.195E+06    -86.3065E+06     123.571E+03         39.9105
             680     1.77744E-03     39.0926E-03         1.29278         1.27287        -4.43462         1.28634        -4.43441         1.27909     61.2771E-03     236.494E-03    -118.073E-03    -118.452E-03    -118.181E-03     236.492E-03    -118.342E-03     72.1123E-06    -104.689E+06    -115.239E+06    -301.986E+06    -115.252E+06    -301.972E+06    -104.689E+06    -75.3197E+03         39.6343
             681     887.461E-06     39.0970E-03         1.56632     990.979E-03        -4.43025         1.56202        -4.42736     992.381E-03     204.640E-03     236.577E-03    -118.013E-03    -118.579E-03    -118.493E-03     236.573E-03    -118.095E-03    -455.872E-06    -114.977E+06    -118.536E+06    -308.539E+06    -117.857E+06    -308.517E+06    -115.677E+06    -747.849E+03         39.4830
             682     15.1176E-03     38.7102E-03         1.31791         1.29750        -4.50951         1.31028        -4.50947         1.30510    -16.6604E-03     246.329E-03    -117.258E-03    -129.109E-03    -117.178E-03     235.149E-03    -118.008E-03     104.191E-03     116.874E+06     101.074E+06    -5.78585E+06    -5.78063E+06     116.869E+06     101.074E+06         773.961         59.8632
             683     14.2289E-03     38.4883E-03         1.32262         1.29837        -4.51796         1.30949        -4.51789         1.31144    -30.7009E-03     249.064E-03    -118.057E-03    -131.062E-03    -116.404E-03     234.406E-03    -118.057E-03     142.160E-03     109.055E+06     101.179E+06    -11.5841E+06    -11.5782E+06     109.050E+06     101.179E+06    -349.600E+03         57.7819
             684     13.3407E-03     38.3652E-03         1.32687         1.31231        -4.53910         1.32076        -4.53895         1.31827    -54.7031E-03     241.495E-03    -118.130E-03    -123.492E-03    -114.112E-03     232.116E-03    -118.130E-03     114.904E-03     103.679E+06     99.5658E+06    -18.8857E+06    -18.8663E+06     103.660E+06     99.5658E+06    -309.513E+03         56.0065
             685     12.4485E-03     38.2158E-03         1.33207         1.32109        -4.55715         1.32886        -4.55700         1.32415    -9.72117E-03     241.166E-03    -118.100E-03    -123.092E-03    -114.007E-03     232.080E-03    -118.100E-03     112.774E-03     101.022E+06     83.5087E+06    -27.3082E+06    -27.2841E+06     100.998E+06     83.5087E+06     594.053E+03         54.5560
             686     11.5585E-03     38.1035E-03         1.33481         1.32674        -4.56630         1.33215        -4.56620         1.32930    -900.507E-06     237.507E-03    -117.892E-03    -119.598E-03    -113.866E-03     231.947E-03    -118.064E-03     87.7832E-03     98.1046E+06     56.3443E+06    -35.6794E+06    -35.6645E+06     98.0897E+06     56.3443E+06     1.09015E+06         52.8250
             687     10.6679E-03     38.0156E-03         1.33554         1.33252        -4.57476         1.33435        -4.57440         1.33334     33.9513E-03     235.441E-03    -117.340E-03    -118.102E-03    -114.066E-03     232.167E-03    -118.102E-03     66.8961E-03     90.7030E+06     34.1394E+06    -43.1253E+06    -43.1085E+06     90.6861E+06     34.1394E+06     160.466E+03         50.7045
             688     9.77729E-03     37.9520E-03         1.33985         1.33287        -4.58321         1.33589        -4.58283         1.33646     42.3645E-03     235.616E-03    -117.429E-03    -118.175E-03    -115.710E-03     233.880E-03    -118.158E-03     48.6411E-03     49.7531E+06     11.2903E+06    -49.2125E+06    -49.1923E+06     41.1715E+06     19.8517E+06    -843.794E+03         48.5464
             689     8.88986E-03     37.9096E-03         1.34402         1.33219        -4.58690         1.33726        -4.58679         1.33884    -29.5508E-03     235.585E-03    -117.386E-03    -118.233E-03    -116.465E-03     234.646E-03    -118.216E-03     36.0724E-03     7.62812E+06    -30.7588E+06    -61.3102E+06    -55.0064E+06    -37.0626E+06     7.62812E+06    -744.089E+03         46.6065
             690     7.99947E-03     37.8738E-03         1.34302         1.32821        -4.58510         1.32996        -4.58506         1.34124    -9.89781E-03     235.186E-03    -116.974E-03    -118.258E-03    -116.413E-03     234.625E-03    -118.258E-03     27.7668E-03    -2.95369E+06    -61.2789E+06    -96.0113E+06    -61.3232E+06    -95.9670E+06    -2.95369E+06    -229.342E+03         44.9608
             691     7.11239E-03     37.8506E-03         1.34654         1.32943        -4.59016         1.33209        -4.59007         1.34379    -24.5912E-03     235.341E-03    -117.052E-03    -118.302E-03    -116.764E-03     235.053E-03    -118.302E-03     19.6921E-03    -13.5469E+06    -68.5458E+06    -144.150E+06    -68.5577E+06    -144.138E+06    -13.5469E+06    -266.253E+03         43.6090
             692     6.22234E-03     37.8375E-03         1.35402         1.33870        -4.60242         1.34750        -4.60232         1.34511    -29.3364E-03     235.411E-03    -117.087E-03    -118.349E-03    -116.950E-03     235.275E-03    -118.349E-03     13.7158E-03    -23.7773E+06    -75.4843E+06    -183.049E+06    -75.4877E+06    -183.046E+06    -23.7773E+06    -347.015E+03         42.5152
             693     5.33196E-03     37.8283E-03         1.35319         1.34370        -4.60122         1.35139        -4.60062         1.34489    -83.6844E-03     235.867E-03    -117.504E-03    -118.417E-03    -117.438E-03     235.802E-03    -118.417E-03     9.23616E-03    -34.4901E+06    -82.9049E+06    -222.510E+06    -82.9076E+06    -222.507E+06    -34.4901E+06     47.2895E+03         41.6232
             694     4.44410E-03     37.8232E-03         1.35082         1.34401        -4.59404         1.35001        -4.59323         1.34401    -31.9333E-03     236.035E-03    -117.622E-03    -118.458E-03    -117.601E-03     236.014E-03    -118.458E-03     4.99525E-03    -48.5766E+06    -91.5722E+06    -256.356E+06    -91.5752E+06    -256.353E+06    -48.5766E+06     19.8547E+03         40.8971
             695     3.55511E-03     37.8225E-03         1.35368         1.33842        -4.59180         1.34910        -4.59145         1.34265     89.8295E-03     236.026E-03    -117.582E-03    -118.482E-03    -117.577E-03     236.021E-03    -118.482E-03     2.18904E-03    -65.4551E+06    -99.7159E+06    -273.283E+06    -99.7205E+06    -273.278E+06    -65.4551E+06     296.206E+03         40.3328
             696     2.66494E-03     37.8262E-03         1.34988         1.33316        -4.58466         1.34085        -4.58441         1.34195     35.7112E-03     236.395E-03    -117.887E-03    -118.548E-03    -117.885E-03     236.393E-03    -118.548E-03     840.573E-06    -85.3119E+06    -107.303E+06    -287.519E+06    -107.315E+06    -287.507E+06    -85.3119E+06     433.338E+03         39.9232
             697     1.77583E-03     37.8266E-03         1.34648         1.33195        -4.58070         1.33334        -4.58051         1.34490    -21.5468E-03     236.800E-03    -118.167E-03    -118.666E-03    -118.183E-03     236.798E-03    -118.648E-03    -253.219E-06    -103.312E+06    -114.083E+06    -300.914E+06    -114.096E+06    -300.901E+06    -103.312E+06    -531.737E+03         39.6544
             698     889.348E-06     37.8290E-03         1.47330         1.22482        -4.60943         1.46216        -4.60669         1.23322     159.043E-03     237.323E-03    -118.332E-03    -119.010E-03    -118.816E-03     237.320E-03    -118.523E-03    -1.03805E-03    -115.282E+06    -120.138E+06    -309.908E+06    -119.468E+06    -309.878E+06    -115.982E+06    -613.728E+03         39.5144
             699     15.1205E-03     37.4468E-03         1.35856         1.33152        -4.62313         1.33206        -4.62311         1.35800     5.41826E-03     246.542E-03    -117.458E-03    -129.099E-03    -117.174E-03     235.143E-03    -117.984E-03     105.254E-03     118.214E+06     101.340E+06    -5.97373E+06    -5.96799E+06     118.208E+06     101.340E+06    -472.241E+03         59.8499
             700     14.2299E-03     37.2209E-03         1.36601         1.33588        -4.63634         1.33584        -4.63630         1.36601    -24.3403E-03     248.745E-03    -118.051E-03    -130.699E-03    -115.864E-03     233.910E-03    -118.051E-03     142.651E-03     108.723E+06     99.5990E+06    -13.3239E+06    -13.3151E+06     108.714E+06     99.5990E+06    -992.318E+03         57.7733
             701     13.3372E-03     37.1029E-03         1.37437         1.35059        -4.66082         1.35051        -4.66074         1.37437    -43.1645E-03     241.449E-03    -118.139E-03    -123.410E-03    -113.935E-03     231.974E-03    -118.139E-03     115.390E-03     101.356E+06     97.1892E+06    -20.4310E+06    -20.4173E+06     101.342E+06     97.1892E+06    -52.8543E+03         56.0038
             702     12.4466E-03     36.9504E-03         1.38198         1.35753        -4.67936         1.35741        -4.67925         1.38198     3.80208E-03     241.362E-03    -118.116E-03    -123.288E-03    -114.180E-03     232.254E-03    -118.116E-03     112.803E-03     100.638E+06     83.6167E+06    -27.5293E+06    -27.5135E+06     100.622E+06     83.6167E+06     625.042E+03         54.5613
             703     11.5580E-03     36.8362E-03         1.38943         1.36889        -4.69871         1.36922        -4.69856         1.38895    -3.31779E-03     237.783E-03    -118.051E-03    -119.716E-03    -114.315E-03     232.403E-03    -118.072E-03     86.4073E-03     100.098E+06     60.4044E+06    -34.0700E+06    -34.0635E+06     100.091E+06     60.4044E+06     253.006E+03         52.8361
             704     10.6685E-03     36.7529E-03         1.39497         1.38026        -4.71556         1.38039        -4.71521         1.39450     24.0338E-03     236.111E-03    -117.758E-03    -118.344E-03    -114.825E-03     232.887E-03    -118.053E-03     66.6591E-03     92.9678E+06     37.3441E+06    -40.7509E+06    -40.7498E+06     92.9667E+06     37.3441E+06     216.606E+03         50.7084
             705     9.77932E-03     36.6842E-03         1.39909         1.38228        -4.72445         1.38194        -4.72411         1.39909     29.0628E-03     235.358E-03    -117.193E-03    -118.168E-03    -115.558E-03     233.624E-03    -118.069E-03     48.4606E-03     50.3591E+06     10.1751E+06    -48.0115E+06    -48.0016E+06     40.4906E+06     20.0337E+06    -120.790E+03         48.5377
             706     8.89067E-03     36.6415E-03         1.40444         1.39198        -4.74228         1.39360        -4.74212         1.40266    -57.9705E-03     235.082E-03    -116.944E-03    -118.168E-03    -116.042E-03     234.162E-03    -118.150E-03     35.7376E-03     8.03416E+06    -32.0051E+06    -60.2163E+06    -54.8457E+06    -37.3757E+06     8.03416E+06    -302.852E+03         46.5913
             707     8.00225E-03     36.6106E-03         1.40981         1.39990        -4.75707         1.40479        -4.75697         1.40482    -16.6612E-03     234.721E-03    -116.522E-03    -118.234E-03    -115.947E-03     234.146E-03    -118.234E-03     28.0937E-03    -2.43447E+06    -60.8352E+06    -95.4526E+06    -60.9204E+06    -95.3673E+06    -2.43447E+06    -80.7839E+03         44.9403
             708     7.10938E-03     36.5843E-03         1.40983         1.39446        -4.75033         1.39745        -4.75010         1.40662    -28.4464E-03     234.745E-03    -116.399E-03    -118.346E-03    -116.102E-03     234.448E-03    -118.346E-03     19.9820E-03    -13.2735E+06    -67.6941E+06    -144.288E+06    -67.7103E+06    -144.271E+06    -13.2735E+06    -513.787E+03         43.5897
             709     6.22058E-03     36.5732E-03         1.40882         1.39720        -4.74947         1.39697        -4.74924         1.40882    -28.8129E-03     235.704E-03    -117.284E-03    -118.427E-03    -117.143E-03     235.564E-03    -118.427E-03     13.8987E-03    -23.8172E+06    -75.6251E+06    -183.657E+06    -75.6298E+06    -183.652E+06    -23.8172E+06    -490.033E+03         42.5085
             710     5.33297E-03     36.5609E-03         1.41118         1.40689        -4.75705         1.40732        -4.75670         1.41040    -48.5171E-03     236.022E-03    -117.582E-03    -118.488E-03    -117.516E-03     235.956E-03    -118.488E-03     9.19804E-03    -34.2663E+06    -83.6116E+06    -222.803E+06    -83.6141E+06    -222.801E+06    -34.2663E+06     270.686E+03         41.6241
             711     4.44364E-03     36.5584E-03         1.41528         1.40893        -4.75785         1.41300        -4.75728         1.41065    -9.61895E-03     235.857E-03    -117.348E-03    -118.560E-03    -117.327E-03     235.836E-03    -118.560E-03     5.20906E-03    -49.5539E+06    -91.7715E+06    -256.054E+06    -91.7750E+06    -256.050E+06    -49.5539E+06     342.757E+03         40.9005
             712     3.55315E-03     36.5581E-03         1.41559         1.39826        -4.74668         1.40152        -4.74608         1.41174     116.976E-03     236.312E-03    -117.728E-03    -118.620E-03    -117.722E-03     236.306E-03    -118.620E-03     2.62462E-03    -66.9984E+06    -99.6946E+06    -273.449E+06    -99.7054E+06    -273.438E+06    -66.9984E+06    -68.4538E+03         40.3452
             713     2.66559E-03     36.5586E-03         1.41699         1.39328        -4.74439         1.39285        -4.74396         1.41699     40.7542E-03     236.889E-03    -118.279E-03    -118.643E-03    -118.278E-03     236.888E-03    -118.643E-03     541.084E-06    -85.8980E+06    -107.719E+06    -287.207E+06    -107.743E+06    -287.182E+06    -85.8980E+06     236.932E+03         39.9435
             714     1.77794E-03     36.5610E-03         1.42581         1.40680        -4.77084         1.40681        -4.77067         1.42562    -27.2087E-03     236.903E-03    -118.253E-03    -118.681E-03    -118.253E-03     236.902E-03    -118.681E-03    -313.960E-06    -104.451E+06    -115.039E+06    -300.005E+06    -115.059E+06    -299.986E+06    -104.451E+06     679.666E+03         39.6722
             715     886.657E-06     36.5623E-03         1.52858         1.33278        -4.80325         1.37491        -4.80225         1.48545     94.2497E-03     237.370E-03    -118.328E-03    -119.064E-03    -118.717E-03     237.368E-03    -118.673E-03    -441.474E-06    -116.718E+06    -120.911E+06    -310.090E+06    -120.641E+06    -310.056E+06    -117.023E+06     147.594E+03         39.5252
             716     15.1176E-03     36.1782E-03         1.41079         1.35995        -4.73312         1.35992        -4.73309         1.41079     3.57277E-03     246.075E-03    -117.190E-03    -128.933E-03    -116.604E-03     234.580E-03    -118.025E-03     106.381E-03     118.197E+06     101.059E+06    -5.62087E+06    -5.61172E+06     118.188E+06     101.059E+06    -180.084E+03         59.8353
             717     14.2280E-03     35.9572E-03         1.42012         1.37180        -4.75734         1.37171        -4.75725         1.42012    -43.2461E-03     249.192E-03    -118.105E-03    -131.159E-03    -116.270E-03     234.303E-03    -118.105E-03     142.962E-03     109.109E+06     99.7545E+06    -12.4880E+06    -12.4783E+06     109.100E+06     99.7545E+06    -102.160E+03         57.7691
             718     13.3384E-03     35.8383E-03         1.42999         1.38099        -4.77942         1.38078        -4.77921         1.42999    -69.1330E-03     242.462E-03    -118.146E-03    -124.455E-03    -115.181E-03     233.189E-03    -118.146E-03     114.625E-03     101.941E+06     97.6147E+06    -20.4351E+06    -20.4263E+06     101.933E+06     97.6147E+06    -545.595E+03         56.0113
             719     12.4500E-03     35.6825E-03         1.43927         1.39489        -4.80733         1.39473        -4.80717         1.43927    -18.4605E-03     241.209E-03    -118.069E-03    -123.181E-03    -114.341E-03     232.369E-03    -118.069E-03     111.244E-03     101.120E+06     84.6673E+06    -27.2289E+06    -27.2226E+06     101.114E+06     84.6673E+06    -845.739E+03         54.5686
             720     11.5585E-03     35.5727E-03         1.44764         1.41000        -4.83004         1.40992        -4.82997         1.44764     1.99380E-03     237.539E-03    -118.016E-03    -119.507E-03    -114.131E-03     232.164E-03    -118.016E-03     86.4193E-03     99.7745E+06     60.3796E+06    -34.4645E+06    -34.4615E+06     99.7715E+06     60.3796E+06    -259.350E+03         52.8391
             721     10.6696E-03     35.4825E-03         1.45463         1.41964        -4.84734         1.41936        -4.84707         1.45463     35.4263E-03     236.287E-03    -117.668E-03    -118.621E-03    -115.006E-03     233.003E-03    -117.998E-03     67.2503E-03     92.7044E+06     37.2492E+06    -41.5918E+06    -41.5875E+06     92.7002E+06     37.2492E+06     532.943E+03         50.7017
             722     9.78152E-03     35.4199E-03         1.46031         1.43462        -4.87181         1.43437        -4.87156         1.46031     48.1706E-03     234.801E-03    -116.700E-03    -118.105E-03    -114.990E-03     233.011E-03    -118.024E-03     49.3870E-03     50.6372E+06     10.6214E+06    -47.7417E+06    -47.7332E+06     40.7339E+06     20.5161E+06     165.138E+03         48.5158
             723     8.88927E-03     35.3777E-03         1.46474         1.44290        -4.88735         1.44280        -4.88724         1.46474    -39.5461E-03     234.550E-03    -116.411E-03    -118.158E-03    -115.425E-03     233.565E-03    -118.158E-03     36.8357E-03     8.70600E+06    -31.6251E+06    -59.7053E+06    -53.9816E+06    -37.3488E+06     8.70600E+06    -28.4675E+03         46.5718
             724     7.99947E-03     35.3430E-03         1.47152         1.44905        -4.89901         1.45209        -4.89883         1.46831    -6.50223E-03     234.826E-03    -116.579E-03    -118.273E-03    -116.013E-03     234.260E-03    -118.273E-03     27.7559E-03    -1.84665E+06    -60.6097E+06    -95.3964E+06    -60.6642E+06    -95.3419E+06    -1.84665E+06     9.71549E+03         44.9377
             725     7.11164E-03     35.3240E-03         1.47415         1.45947        -4.91094         1.46233        -4.91058         1.47094    -30.0035E-03     235.079E-03    -116.721E-03    -118.364E-03    -116.427E-03     234.785E-03    -118.364E-03     20.0887E-03    -12.7589E+06    -67.7125E+06    -143.655E+06    -67.7270E+06    -143.641E+06    -12.7589E+06    -46.8478E+03         43.5924
             726     6.22116E-03     35.3029E-03         1.47287         1.46556        -4.91597         1.46526        -4.91567         1.47287    -57.2928E-03     235.536E-03    -117.109E-03    -118.436E-03    -116.968E-03     235.395E-03    -118.436E-03     13.5713E-03    -23.8204E+06    -75.0975E+06    -183.729E+06    -75.1066E+06    -183.720E+06    -23.8204E+06    -160.926E+03         42.5057
             727     5.33201E-03     35.2977E-03         1.47422         1.47077        -4.91944         1.47043        -4.91909         1.47422    -63.0715E-03     235.622E-03    -117.109E-03    -118.555E-03    -117.056E-03     235.570E-03    -118.555E-03     8.44381E-03    -34.0926E+06    -82.3981E+06    -224.119E+06    -82.4027E+06    -224.115E+06    -34.0926E+06    -337.680E+03         41.6218
             728     4.44164E-03     35.2927E-03         1.47562         1.46771        -4.91542         1.46713        -4.91484         1.47562    -8.06396E-03     236.180E-03    -117.558E-03    -118.671E-03    -117.537E-03     236.159E-03    -118.671E-03     5.21554E-03    -46.7947E+06    -89.9620E+06    -255.092E+06    -89.9645E+06    -255.090E+06    -46.7947E+06     366.224E+03         40.9067
             729     3.55443E-03     35.2920E-03         1.47908         1.46338        -4.91674         1.46338        -4.91610         1.47843     124.906E-03     236.843E-03    -118.222E-03    -118.654E-03    -118.217E-03     236.838E-03    -118.654E-03     2.26457E-03    -66.7295E+06    -100.077E+06    -272.740E+06    -100.096E+06     -272.72E+06    -66.7295E+06     663.473E+03         40.3566
             730     2.66500E-03     35.2921E-03         1.49449         1.46561        -4.93368         1.47909        -4.93319         1.48053     41.5849E-03     236.883E-03    -118.316E-03    -118.599E-03    -118.315E-03     236.882E-03    -118.599E-03     103.509E-06    -88.0472E+06    -109.898E+06    -287.791E+06    -109.931E+06    -287.758E+06    -88.0472E+06     572.648E+03         39.9518
             731     1.77571E-03     35.2950E-03         1.49393         1.47152        -4.93873         1.48648        -4.93855         1.47879     6.74438E-03     236.995E-03    -118.235E-03    -118.788E-03    -118.489E-03     236.993E-03    -118.532E-03    -877.507E-06    -104.347E+06    -116.309E+06    -299.692E+06    -116.329E+06    -299.672E+06    -104.347E+06     902.056E+03         39.6710
             732     889.422E-06     35.2967E-03         1.71496         1.23880        -4.93035         1.24017        -4.92989         1.71313     99.9923E-03     236.882E-03    -117.990E-03    -118.913E-03    -118.757E-03     236.880E-03    -118.144E-03    -722.700E-06    -115.125E+06    -119.793E+06    -308.092E+06    -119.105E+06    -308.058E+06    -115.846E+06     324.107E+03         39.5075
             733     15.1180E-03     34.9126E-03         1.46298         1.39358        -4.84727         1.39355        -4.84723         1.46298    -7.19375E-03     245.628E-03    -117.031E-03    -128.677E-03    -116.446E-03     234.401E-03    -118.035E-03     104.583E-03     117.838E+06     98.6481E+06    -7.28469E+06    -7.24979E+06     117.803E+06     98.6481E+06    -826.780E+03         59.8228
             734     14.2262E-03     34.6923E-03         1.47343         1.40045        -4.87197         1.40038        -4.87190         1.47343    -23.0720E-03     249.284E-03    -118.111E-03    -131.283E-03    -116.632E-03     234.633E-03    -118.111E-03     142.019E-03     110.143E+06     99.2335E+06    -13.1644E+06    -13.1196E+06     110.099E+06     99.2335E+06    -1.10052E+06         57.7607
             735     13.3393E-03     34.5661E-03         1.48461         1.41036        -4.89676         1.41019        -4.89659         1.48461    -54.9046E-03     242.526E-03    -118.142E-03    -124.536E-03    -115.175E-03     233.165E-03    -118.142E-03     115.099E-03     103.616E+06     98.7201E+06    -19.1789E+06    -19.1580E+06     103.596E+06     98.7201E+06    -1.02598E+06         56.0073
             736     12.4497E-03     34.4211E-03         1.49493         1.43338        -4.93301         1.43324        -4.93287         1.49493    -14.7659E-03     241.592E-03    -118.067E-03    -123.544E-03    -114.395E-03     232.442E-03    -118.067E-03     113.364E-03     100.341E+06     83.9711E+06    -27.2769E+06    -27.2674E+06     100.331E+06     83.9711E+06    -560.245E+03         54.5682
             737     11.5595E-03     34.3059E-03         1.50416         1.45201        -4.96439         1.45198        -4.96436         1.50416     17.4387E-03     238.158E-03    -118.003E-03    -120.143E-03    -114.468E-03     232.483E-03    -118.003E-03     88.8664E-03     98.6488E+06     59.0128E+06    -35.3588E+06    -35.3519E+06     98.6419E+06     59.0128E+06     439.037E+03         52.8385
             738     10.6700E-03     34.2167E-03         1.51195         1.46648        -4.98746         1.46636        -4.98734         1.51195     37.2277E-03     235.782E-03    -117.275E-03    -118.528E-03    -114.468E-03     232.448E-03    -118.001E-03     67.5225E-03     92.1998E+06     37.3495E+06    -41.4385E+06    -41.4241E+06     92.1854E+06     37.3495E+06     275.233E+03         50.6943
             739     9.77781E-03     34.1560E-03         1.51838         1.48198        -5.01037         1.48187        -5.01026         1.51838     36.2551E-03     234.574E-03    -116.519E-03    -118.063E-03    -114.738E-03     232.794E-03    -118.063E-03     49.3064E-03     50.6551E+06     12.4156E+06    -46.9111E+06    -46.8902E+06     41.8241E+06     21.2258E+06    -85.3609E+03         48.5043
             740     8.89028E-03     34.1113E-03         1.52391         1.48833        -5.02394         1.48824        -5.02385         1.52391    -36.2028E-03     234.586E-03    -116.401E-03    -118.212E-03    -115.409E-03     233.594E-03    -118.212E-03     36.9188E-03     8.12087E+06    -30.6904E+06    -61.1905E+06    -53.9117E+06    -37.9693E+06     8.12087E+06    -387.193E+03         46.5695
             741     8.00025E-03     34.0797E-03         1.52912         1.49577        -5.03474         1.49562        -5.03458         1.52912    -12.3951E-03     235.103E-03    -116.814E-03    -118.323E-03    -116.248E-03     234.537E-03    -118.323E-03     27.8765E-03    -2.07829E+06    -61.3354E+06    -96.4051E+06    -61.3733E+06    -96.3672E+06    -2.07829E+06     93.6423E+03         44.9512
             742     7.10983E-03     34.0553E-03         1.53336         1.51355        -5.05657         1.51337        -5.05639         1.53336    -15.0817E-03     235.663E-03    -117.309E-03    -118.369E-03    -117.003E-03     235.358E-03    -118.369E-03     20.4072E-03    -11.8685E+06    -67.7974E+06    -142.158E+06    -67.8126E+06    -142.143E+06    -11.8685E+06     892.047E+03         43.6083
             743     6.22231E-03     34.0401E-03         1.53634         1.52303        -5.06912         1.52290        -5.06899         1.53634    -33.9615E-03     235.337E-03    -116.938E-03    -118.418E-03    -116.798E-03     235.198E-03    -118.418E-03     13.5075E-03    -22.8109E+06    -74.3581E+06    -182.826E+06    -74.3663E+06    -182.817E+06    -22.8109E+06     90.9117E+03         42.5112
             744     5.33126E-03     34.0318E-03         1.53914         1.52289        -5.07074         1.52254        -5.07039         1.53914    -61.4084E-03     235.695E-03    -117.207E-03    -118.535E-03    -117.159E-03     235.646E-03    -118.535E-03     8.01608E-03    -34.0294E+06    -82.6071E+06    -224.564E+06    -82.6119E+06    -224.560E+06    -34.0294E+06    -305.631E+03         41.6237
             745     4.44328E-03     34.0275E-03         1.54562         1.52709        -5.08189         1.53026        -5.08138         1.54194    -16.5521E-03     236.461E-03    -117.917E-03    -118.596E-03    -117.901E-03     236.445E-03    -118.596E-03     4.53147E-03    -47.4687E+06    -92.0817E+06    -256.552E+06    -92.0877E+06    -256.546E+06    -47.4687E+06     622.255E+03         40.9073
             746     3.55368E-03     34.0243E-03         1.55271         1.53693        -5.10245         1.54646        -5.10201         1.54275     107.453E-03     236.630E-03    -118.136E-03    -118.529E-03    -118.133E-03     236.626E-03    -118.529E-03     1.67751E-03    -65.8089E+06    -100.820E+06    -272.028E+06    -100.838E+06    -272.010E+06    -65.8089E+06     1.30253E+06         40.3483
             747     2.66633E-03     34.0273E-03         1.56119         1.53855        -5.11617         1.56078        -5.11576         1.53855     16.7339E-03     236.751E-03    -118.245E-03    -118.547E-03    -118.360E-03     236.750E-03    -118.431E-03    -356.555E-06    -86.4537E+06    -108.090E+06    -286.334E+06    -108.106E+06    -286.318E+06    -86.4537E+06     400.103E+03         39.9357
             748     1.77824E-03     34.0280E-03         1.55092         1.52950        -5.09487         1.55051        -5.09447         1.52950     13.4358E-03     236.658E-03    -118.022E-03    -118.672E-03    -118.393E-03     236.657E-03    -118.300E-03    -861.772E-06    -102.602E+06    -114.477E+06    -299.443E+06    -114.483E+06    -299.436E+06    -102.602E+06    -401.882E+03         39.6511
             749     889.072E-06     34.0303E-03         1.93618         1.11234        -5.06363         1.11675        -5.06296         1.93111     59.1911E-03     236.339E-03    -117.770E-03    -118.591E-03    -118.392E-03     236.337E-03    -117.967E-03    -420.950E-06    -114.677E+06    -119.561E+06    -307.970E+06    -119.030E+06    -307.956E+06    -115.222E+06     393.624E+03         39.4835
             750     15.1185E-03     33.6521E-03         1.51344         1.42359        -4.96542         1.42356        -4.96539         1.51344    -9.39507E-03     246.579E-03    -117.237E-03    -129.398E-03    -117.264E-03     235.217E-03    -118.009E-03     104.982E-03     119.472E+06     100.493E+06    -6.53507E+06    -6.49261E+06     119.430E+06     100.493E+06    -31.6440E+03         59.8142
             751     14.2306E-03     33.4224E-03         1.52463         1.44050        -4.99925         1.44045        -4.99920         1.52463    -14.1922E-03     248.948E-03    -118.074E-03    -130.954E-03    -116.214E-03     234.208E-03    -118.074E-03     142.209E-03     111.008E+06     99.5574E+06    -13.8442E+06    -13.7826E+06     110.947E+06     99.5574E+06    -1.41458E+06         57.7480
             752     13.3379E-03     33.3050E-03         1.53607         1.45567        -5.02963         1.45557        -5.02953         1.53607    -46.1961E-03     241.187E-03    -118.156E-03    -123.156E-03    -113.810E-03     231.841E-03    -118.156E-03     114.516E-03     103.084E+06     97.1399E+06    -21.7470E+06    -21.7185E+06     103.055E+06     97.1399E+06    -1.81135E+06         55.9888
             753     12.4455E-03     33.1523E-03         1.54711         1.46256        -5.05013         1.46246        -5.05004         1.54711    -5.05827E-03     241.727E-03    -118.127E-03    -123.615E-03    -114.418E-03     232.530E-03    -118.127E-03     113.619E-03     98.8355E+06     82.1707E+06    -29.7120E+06    -29.6887E+06     98.8122E+06     82.1707E+06    -1.09381E+06         54.5561
             754     11.5587E-03     33.0385E-03         1.55776         1.48249        -5.08101         1.48243        -5.08095         1.55776     10.1147E-03     238.460E-03    -118.058E-03    -120.401E-03    -114.781E-03     232.841E-03    -118.058E-03     88.4661E-03     97.4964E+06     58.1868E+06    -36.0881E+06    -36.0526E+06     97.4609E+06     58.1868E+06    -828.787E+03         52.8370
             755     10.6685E-03     32.9529E-03         1.56668         1.51002        -5.11596         1.50982        -5.11577         1.56668     36.1971E-03     235.795E-03    -117.399E-03    -118.412E-03    -114.475E-03     232.508E-03    -118.048E-03     67.0969E-03     92.3834E+06     37.8493E+06    -41.4152E+06    -41.3842E+06     92.3524E+06     37.8493E+06    -567.010E+03         50.6978
             756     9.78045E-03     32.8901E-03         1.57427         1.51960        -5.13222         1.51942        -5.13205         1.57427     39.7318E-03     234.613E-03    -116.518E-03    -118.111E-03    -114.746E-03     232.842E-03    -118.111E-03     49.1612E-03     49.8879E+06     13.0937E+06    -48.2011E+06    -48.1849E+06     41.9246E+06     21.0408E+06     166.584E+03         48.5120
             757     8.88824E-03     32.8467E-03         1.58107         1.53494        -5.15405         1.53488        -5.15399         1.58107    -33.8479E-03     234.852E-03    -116.635E-03    -118.249E-03    -115.651E-03     233.868E-03    -118.249E-03     36.8112E-03     7.25596E+06    -30.3398E+06    -62.4302E+06    -54.7552E+06    -38.0148E+06     7.25596E+06     70.1161E+03         46.5823
             758     7.99870E-03     32.8144E-03         1.58661         1.55516        -5.17937         1.55505        -5.17926         1.58661    -5.86748E-03     235.432E-03    -117.133E-03    -118.336E-03    -116.568E-03     234.867E-03    -118.336E-03     27.8766E-03    -2.05799E+06    -61.0409E+06    -96.8118E+06    -61.0763E+06    -96.7764E+06    -2.05799E+06    -86.7472E+03         44.9667
             759     7.11152E-03     32.7888E-03         1.59120         1.56322        -5.19446         1.56301        -5.19425         1.59120    -22.9196E-03     235.470E-03    -117.113E-03    -118.382E-03    -116.825E-03     235.182E-03    -118.382E-03     19.7322E-03    -10.8751E+06    -67.5250E+06    -141.909E+06    -67.5428E+06    -141.891E+06    -10.8751E+06     562.781E+03         43.6230
             760     6.22080E-03     32.7760E-03         1.59510         1.57516        -5.21434         1.57498        -5.21416         1.59510    -26.8086E-03     235.721E-03    -117.290E-03    -118.457E-03    -117.206E-03     235.591E-03    -118.411E-03     13.2558E-03    -21.8569E+06    -75.1304E+06    -181.660E+06    -75.1387E+06    -181.652E+06    -21.8569E+06     775.609E+03         42.5230
             761     5.33280E-03     32.7662E-03         1.59831         1.58223        -5.22902         1.58208        -5.22887         1.59831    -22.6501E-03     236.263E-03    -117.847E-03    -118.473E-03    -117.840E-03     236.211E-03    -118.427E-03     8.23407E-03    -33.8908E+06    -84.4906E+06    -223.808E+06    -84.5021E+06    -223.796E+06    -33.8908E+06     1.02603E+06         41.6288
             762     4.44405E-03     32.7605E-03         1.60451         1.58798        -5.24277         1.59137        -5.24247         1.60083     8.42814E-03     236.239E-03    -117.908E-03    -118.390E-03    -117.894E-03     236.225E-03    -118.390E-03     4.26100E-03    -50.1140E+06    -93.7416E+06    -256.994E+06    -93.7546E+06    -256.981E+06    -50.1140E+06     992.552E+03         40.8982
             763     3.55570E-03     32.7606E-03         1.61349         1.59748        -5.26278         1.60982        -5.26235         1.60071     108.797E-03     236.005E-03    -117.713E-03    -118.331E-03    -117.710E-03     236.002E-03    -118.331E-03     1.73668E-03    -68.2558E+06    -101.261E+06    -271.650E+06    -101.266E+06    -271.645E+06    -68.2558E+06     270.800E+03         40.3243
             764     2.66583E-03     32.7597E-03         1.61030         1.59460        -5.26178         1.60640        -5.26144         1.59817     33.5966E-03     236.184E-03    -117.776E-03    -118.451E-03    -117.892E-03     236.184E-03    -118.335E-03     378.201E-06    -86.1857E+06    -108.571E+06    -285.196E+06    -108.572E+06    -285.196E+06    -86.1857E+06     169.188E+03         39.9079
             765     1.77749E-03     32.7645E-03         1.60265         1.59255        -5.24581         1.59846        -5.24519         1.59612     59.9882E-03     236.466E-03    -117.891E-03    -118.610E-03    -118.186E-03     236.465E-03    -118.315E-03    -189.339E-06    -103.614E+06    -114.935E+06    -298.920E+06    -114.940E+06    -298.915E+06    -103.614E+06     201.728E+03         39.6325
             766     887.835E-06     32.7653E-03         2.15314         1.03814        -5.23221         1.04082        -5.23140         2.14964     75.0412E-03     236.484E-03    -117.930E-03    -118.573E-03    -118.374E-03     236.483E-03    -118.127E-03    -967.127E-06    -117.121E+06    -120.495E+06    -307.926E+06    -120.081E+06    -307.922E+06    -117.540E+06    -311.546E+03         39.4778
             767     15.1185E-03     32.3803E-03         1.56142         1.44321        -5.06863         1.44320        -5.06862         1.56142    -7.83924E-03     246.570E-03    -117.367E-03    -129.311E-03    -117.135E-03     235.049E-03    -118.023E-03     106.440E-03     120.143E+06     102.330E+06    -5.52327E+06     -5.5091E+06     120.129E+06     102.330E+06     563.956E+03         59.8038
             768     14.2284E-03     32.1589E-03         1.57370         1.47089        -5.11133         1.47082        -5.11127         1.57370    -29.3988E-03     249.048E-03    -118.094E-03    -131.079E-03    -116.228E-03     234.197E-03    -118.094E-03     142.638E-03     112.995E+06     101.324E+06    -12.4150E+06    -12.3920E+06     112.972E+06     101.324E+06     367.909E+03         57.7404
             769     13.3378E-03     32.0415E-03         1.58584         1.49529        -5.15189         1.49515        -5.15175         1.58584    -59.8726E-03     241.833E-03    -118.151E-03    -123.809E-03    -114.543E-03     232.568E-03    -118.151E-03     114.290E-03     104.059E+06     97.7672E+06    -21.1292E+06    -21.1143E+06     104.044E+06     97.7672E+06    -712.837E+03         55.9833
             770     12.4496E-03     31.8867E-03         1.59737         1.50784        -5.17965         1.50774        -5.17955         1.59737    -11.4239E-03     241.429E-03    -118.084E-03    -123.332E-03    -114.322E-03     232.419E-03    -118.084E-03     112.386E-03     98.6302E+06     81.3798E+06    -29.9635E+06    -29.9316E+06     98.5983E+06     81.3798E+06    -1.81623E+06         54.5440
             771     11.5576E-03     31.7723E-03         1.60850         1.52295        -5.20304         1.52289        -5.20299         1.60850    -57.7769E-06     237.368E-03    -117.850E-03    -119.499E-03    -113.890E-03     231.952E-03    -118.044E-03     86.5704E-03     96.5726E+06     56.7134E+06    -37.6694E+06    -37.6192E+06     96.5224E+06     56.7134E+06    -2.56214E+06         52.8210
             772     10.6689E-03     31.6865E-03         1.61830         1.54498        -5.23135         1.54473        -5.23111         1.61830     35.0594E-03     235.476E-03    -117.235E-03    -118.255E-03    -114.181E-03     232.253E-03    -118.086E-03     66.5342E-03     90.1122E+06     35.6312E+06    -44.5738E+06    -44.5311E+06     90.0694E+06     35.6312E+06    -1.60516E+06         50.6953
             773     9.77734E-03     31.6246E-03         1.62653         1.56861        -5.26460         1.56838        -5.26437         1.62653     56.4560E-03     234.944E-03    -116.804E-03    -118.156E-03    -115.017E-03     233.157E-03    -118.156E-03     49.3193E-03     49.2197E+06     12.2479E+06    -50.7327E+06    -50.7118E+06     41.2626E+06     20.1841E+06    -154.761E+03         48.5254
             774     8.88920E-03     31.5819E-03         1.63346         1.58413        -5.28805         1.58407        -5.28799         1.63346    -22.8792E-03     235.319E-03    -117.083E-03    -118.259E-03    -116.096E-03     234.332E-03    -118.259E-03     36.9840E-03     7.60861E+06    -30.6550E+06    -61.8442E+06    -56.3752E+06    -36.1240E+06     7.60861E+06     337.600E+03         46.5980
             775     8.00120E-03     31.5459E-03         1.63980         1.59416        -5.30645         1.59404        -5.30634         1.63980     3.72935E-03     235.518E-03    -117.234E-03    -118.312E-03    -116.669E-03     234.953E-03    -118.312E-03     27.7303E-03    -2.93074E+06    -62.2868E+06    -96.9718E+06    -62.2955E+06    -96.9631E+06    -2.93074E+06    -248.997E+03         44.9779
             776     7.10998E-03     31.5251E-03         1.64594         1.60448        -5.32490         1.60420        -5.32462         1.64594    -26.1844E-03     235.552E-03    -117.231E-03    -118.340E-03    -116.963E-03     235.284E-03    -118.340E-03     19.1169E-03    -11.9067E+06    -68.8693E+06    -143.944E+06    -68.8801E+06    -143.933E+06    -11.9067E+06    -150.065E+03         43.6305
             777     6.22158E-03     31.5083E-03         1.65127         1.62276        -5.34953         1.62250        -5.34927         1.65127    -62.5690E-03     235.900E-03    -117.545E-03    -118.382E-03    -117.467E-03     235.777E-03    -118.336E-03     12.9260E-03    -21.8270E+06    -76.2737E+06    -181.438E+06    -76.2905E+06    -181.422E+06    -21.8270E+06     1.01606E+06         42.5251
             778     5.33363E-03     31.4999E-03         1.65835         1.64471        -5.38217         1.64851        -5.38185         1.65424    -63.7844E-03     236.136E-03    -117.828E-03    -118.366E-03    -117.823E-03     236.085E-03    -118.321E-03     8.22710E-03    -33.2565E+06    -84.4718E+06    -223.240E+06    -84.4916E+06    -223.220E+06    -33.2565E+06     1.48201E+06         41.6223
             779     4.44479E-03     31.4956E-03         1.66096         1.65059        -5.39554         1.65639        -5.39516         1.65477    -24.0098E-03     235.982E-03    -117.759E-03    -118.277E-03    -117.743E-03     235.965E-03    -118.277E-03     4.58853E-03    -48.9139E+06    -92.7628E+06    -255.149E+06    -92.7772E+06    -255.134E+06    -48.9139E+06     1.07488E+06         40.8849
             780     3.55543E-03     31.4944E-03         1.66146         1.64064        -5.39058         1.64584        -5.39024         1.65593     89.1356E-03     235.705E-03    -117.514E-03    -118.231E-03    -117.510E-03     235.702E-03    -118.231E-03     2.11656E-03    -69.0698E+06    -101.557E+06    -270.856E+06    -101.563E+06    -270.851E+06    -69.0698E+06     387.007E+03         40.3082
             781     2.66633E-03     31.4963E-03         1.66394         1.63732        -5.39040         1.64049        -5.39011         1.66049     29.4805E-03     235.861E-03    -117.620E-03    -118.280E-03    -117.619E-03     235.860E-03    -118.280E-03     447.659E-06    -88.5777E+06    -109.814E+06    -285.590E+06    -109.814E+06    -285.590E+06    -88.5777E+06     93.0695E+03         39.8912
             782     1.77624E-03     31.4968E-03         1.66707         1.65427        -5.40555         1.65391        -5.40513         1.66700     33.5767E-03     236.427E-03    -117.956E-03    -118.497E-03    -118.135E-03     236.426E-03    -118.318E-03    -852.587E-06    -104.648E+06    -116.007E+06    -298.710E+06    -116.009E+06    -298.708E+06    -104.648E+06     304.029E+03         39.6214
             783     890.075E-06     31.4998E-03         2.35134     988.805E-03        -5.41960     988.366E-03        -5.41909         2.35127     101.484E-03     236.530E-03    -117.970E-03    -118.574E-03    -118.457E-03     236.528E-03    -118.086E-03    -1.32611E-03    -115.816E+06    -120.633E+06    -306.438E+06    -120.344E+06    -306.436E+06    -116.107E+06     221.654E+03         39.4780
             784     15.1181E-03     31.1159E-03         1.60641         1.47236        -5.16756         1.47235        -5.16756         1.60641    -12.7256E-03     245.994E-03    -117.152E-03    -128.935E-03    -116.641E-03     234.590E-03    -118.042E-03     106.157E-03     119.777E+06     101.345E+06    -6.81788E+06    -6.81505E+06     119.774E+06     101.345E+06    -28.2399E+03         59.7949
             785     14.2266E-03     30.8935E-03         1.61936         1.49481        -5.20522         1.49478        -5.20520         1.61936    -16.7734E-03     249.209E-03    -118.114E-03    -131.223E-03    -116.577E-03     234.563E-03    -118.114E-03     141.600E-03     113.227E+06     101.097E+06    -12.9622E+06    -12.9593E+06     113.224E+06     101.097E+06         905.738         57.7405
             786     13.3394E-03     30.7728E-03         1.63254         1.51341        -5.23814         1.51335        -5.23808         1.63254    -34.1697E-03     242.660E-03    -118.134E-03    -124.711E-03    -115.433E-03     233.383E-03    -118.134E-03     114.522E-03     105.728E+06     99.2424E+06    -20.1131E+06    -20.1076E+06     105.722E+06     99.2424E+06     403.858E+03         55.9930
             787     12.4494E-03     30.6226E-03         1.64497         1.54043        -5.27945         1.54037        -5.27939         1.64497     112.027E-06     241.600E-03    -118.033E-03    -123.599E-03    -114.492E-03     232.492E-03    -118.033E-03     113.026E-03     100.256E+06     82.2160E+06    -29.1471E+06    -29.1305E+06     100.239E+06     82.2160E+06    -341.688E+03         54.5482
             788     11.5600E-03     30.5078E-03         1.65643         1.56540        -5.31835         1.56535        -5.31830         1.65643     2.70689E-03     236.798E-03    -117.577E-03    -119.203E-03    -113.338E-03     231.353E-03    -117.998E-03     86.6809E-03     96.3235E+06     55.2651E+06    -38.0231E+06    -37.9975E+06     96.2980E+06     55.2651E+06    -1.46229E+06         52.8143
             789     10.6675E-03     30.4224E-03         1.66651         1.58651        -5.35107         1.58637        -5.35093         1.66651     21.2322E-03     235.014E-03    -116.956E-03    -118.075E-03    -113.746E-03     231.805E-03    -118.075E-03     66.2309E-03     88.8912E+06     33.6784E+06    -45.8865E+06    -45.8578E+06     88.8624E+06     33.6784E+06    -1.82953E+06         50.6918
             790     9.77862E-03     30.3584E-03         1.67524         1.60990        -5.38660         1.60975        -5.38646         1.67524     32.8354E-03     235.170E-03    -117.015E-03    -118.157E-03    -115.257E-03     233.412E-03    -118.157E-03     48.9990E-03     48.6899E+06     11.6982E+06    -52.4652E+06    -52.4127E+06     40.8860E+06     19.4496E+06    -1.41674E+06         48.5309
             791     8.88938E-03     30.3147E-03         1.68279         1.62678        -5.41174         1.62669        -5.41165         1.68279    -36.4518E-03     235.459E-03    -117.246E-03    -118.236E-03    -116.277E-03     234.489E-03    -118.236E-03     36.5858E-03     6.98327E+06    -31.2935E+06    -63.0376E+06    -57.9923E+06    -36.3389E+06     6.98327E+06    -780.345E+03         46.6034
             792     7.99866E-03     30.2821E-03         1.68997         1.63492        -5.42848         1.63484        -5.42839         1.68997    -14.6926E-03     235.450E-03    -117.211E-03    -118.273E-03    -116.663E-03     234.901E-03    -118.273E-03     27.3398E-03    -3.85100E+06    -63.6872E+06    -97.4517E+06    -63.7340E+06    -97.4049E+06    -3.85100E+06    -656.873E+03         44.9764
             793     7.11199E-03     30.2579E-03         1.69694         1.64962        -5.45090         1.64947        -5.45074         1.69694    -26.2015E-03     235.802E-03    -117.545E-03    -118.274E-03    -117.272E-03     235.528E-03    -118.274E-03     19.3466E-03    -12.8051E+06    -70.3685E+06    -144.258E+06    -70.3750E+06    -144.251E+06    -12.8051E+06    -322.166E+03         43.6226
             794     6.22355E-03     30.2437E-03         1.70346         1.66240        -5.46983         1.66223        -5.46967         1.70346    -59.8506E-03     235.775E-03    -117.557E-03    -118.246E-03    -117.428E-03     235.646E-03    -118.246E-03     13.1810E-03    -22.4220E+06    -77.3803E+06    -181.984E+06    -77.3905E+06    -181.974E+06    -22.4220E+06     470.742E+03         42.5129
             795     5.33305E-03     30.2338E-03         1.71313         1.67842        -5.49809         1.68215        -5.49771         1.70901    -86.3687E-03     235.556E-03    -117.341E-03    -118.271E-03    -117.288E-03     235.503E-03    -118.271E-03     8.40070E-03    -33.0952E+06    -84.6271E+06    -223.181E+06    -84.6387E+06    -223.170E+06    -33.0952E+06     868.587E+03         41.6083
             796     4.44454E-03     30.2299E-03         1.71810         1.70165        -5.52987         1.70741        -5.52940         1.71188    -34.5553E-03     235.793E-03    -117.555E-03    -118.286E-03    -117.537E-03     235.775E-03    -118.286E-03     4.78624E-03    -48.5355E+06    -93.3322E+06    -254.662E+06    -93.3409E+06    -254.653E+06    -48.5355E+06     1.00393E+06         40.8767
             797     3.55543E-03     30.2313E-03         1.71583         1.70132        -5.52780         1.70296        -5.52734         1.71372     104.774E-03     236.025E-03    -117.797E-03    -118.261E-03    -117.836E-03     236.021E-03    -118.218E-03     2.09642E-03    -68.0970E+06    -102.233E+06    -270.093E+06    -102.240E+06    -270.086E+06    -68.0970E+06     784.896E+03         40.3085
             798     2.66639E-03     30.2303E-03         1.71966         1.69237        -5.52251         1.69194        -5.52209         1.71966     38.7589E-03     236.010E-03    -117.850E-03    -118.202E-03    -117.892E-03     236.010E-03    -118.159E-03     429.962E-06    -87.5854E+06    -109.343E+06    -284.371E+06    -109.345E+06    -284.370E+06    -87.5854E+06     304.443E+03         39.8903
             799     1.77904E-03     30.2325E-03         1.72988         1.70761        -5.54958         1.70728        -5.54925         1.72988     22.0792E-03     235.881E-03    -117.715E-03    -118.201E-03    -117.714E-03     235.880E-03    -118.201E-03    -396.435E-06    -105.122E+06    -115.648E+06    -298.181E+06    -115.649E+06    -298.181E+06    -105.122E+06     111.124E+03         39.6115
             800     887.069E-06     30.2346E-03         2.54429     926.373E-03        -5.59690     926.039E-03        -5.59656         2.54429     68.8724E-03     236.441E-03    -117.843E-03    -118.614E-03    -118.292E-03     236.440E-03    -118.164E-03    -800.397E-06    -116.648E+06    -121.022E+06    -306.284E+06    -120.652E+06    -306.275E+06    -117.028E+06    -463.743E+03         39.4654
             801     15.1175E-03     29.8519E-03         1.64746         1.49433        -5.25719         1.49432        -5.25718         1.64746    -9.47406E-03     246.330E-03    -117.105E-03    -129.288E-03    -116.921E-03     234.893E-03    -118.034E-03     105.924E-03     120.247E+06     102.152E+06    -6.07344E+06    -6.06510E+06     120.239E+06     102.152E+06     507.127E+03         59.7888
             802     14.2298E-03     29.6256E-03         1.66100         1.52138        -5.30074         1.52137        -5.30073         1.66100    -8.08048E-03     249.383E-03    -118.093E-03    -131.377E-03    -116.682E-03     234.688E-03    -118.093E-03     141.872E-03     112.513E+06     100.692E+06    -14.3466E+06    -14.3398E+06     112.506E+06     100.692E+06     339.636E+03         57.7394
             803     13.3380E-03     29.5087E-03         1.67463         1.54270        -5.33814         1.54265        -5.33809         1.67463    -32.8675E-03     242.120E-03    -118.128E-03    -124.126E-03    -114.825E-03     232.819E-03    -118.128E-03     114.447E-03     105.236E+06     98.6073E+06    -22.5426E+06    -22.5318E+06     105.225E+06     98.6073E+06    -161.258E+03         55.9979
             804     12.4493E-03     29.3536E-03         1.68775         1.56337        -5.37345         1.56328        -5.37336         1.68775     3.42189E-03     241.431E-03    -118.065E-03    -123.403E-03    -114.228E-03     232.255E-03    -118.065E-03     113.369E-03     102.080E+06     83.5597E+06    -29.3186E+06    -29.3074E+06     102.069E+06     83.5597E+06    -210.695E+03         54.5602
             805     11.5589E-03     29.2448E-03         1.70011         1.59160        -5.41618         1.59153        -5.41610         1.70011     6.33157E-03     237.525E-03    -117.790E-03    -119.718E-03    -113.993E-03     232.027E-03    -118.016E-03     87.2652E-03     97.9616E+06     56.8621E+06    -36.7336E+06    -36.7270E+06      97.955E+06     56.8621E+06    -294.710E+03         52.8288
             806     10.6693E-03     29.1569E-03         1.71093         1.62043        -5.45693         1.62026        -5.45676         1.71093     22.9525E-03     235.600E-03    -117.223E-03    -118.368E-03    -114.308E-03     232.355E-03    -118.038E-03     66.7261E-03     90.1200E+06     34.9032E+06    -44.0668E+06    -44.0534E+06     90.1067E+06     34.9032E+06    -933.300E+03         50.6993
             807     9.77872E-03     29.0929E-03         1.72077         1.63625        -5.48623         1.63608        -5.48606         1.72077     24.3791E-03     235.060E-03    -116.965E-03    -118.094E-03    -115.184E-03     233.280E-03    -118.094E-03     49.2966E-03     48.5784E+06     10.7968E+06    -50.5049E+06    -50.4586E+06     39.8896E+06     19.4393E+06    -1.55081E+06         48.5266
             808     8.88942E-03     29.0479E-03         1.72956         1.66321        -5.52377         1.66315        -5.52370         1.72956    -40.1420E-03     235.345E-03    -117.206E-03    -118.174E-03    -116.257E-03     234.397E-03    -118.174E-03     36.1121E-03     6.74129E+06    -32.7341E+06    -62.3954E+06    -57.0201E+06    -38.1094E+06     6.74129E+06    -1.41638E+06         46.5903
             809     8.00223E-03     29.0158E-03         1.73676         1.68810        -5.55938         1.68804        -5.55933         1.73676    -7.43711E-03     235.382E-03    -117.224E-03    -118.204E-03    -116.706E-03     234.864E-03    -118.204E-03     26.6729E-03    -3.27204E+06    -63.6816E+06    -96.5654E+06    -63.7380E+06    -96.5090E+06    -3.27204E+06    -793.899E+03         44.9570
             810     7.11083E-03     28.9916E-03         1.74286         1.70192        -5.58056         1.70180        -5.58045         1.74286    -22.7137E-03     235.229E-03    -117.029E-03    -118.226E-03    -116.754E-03     234.955E-03    -118.226E-03     19.3902E-03    -13.2767E+06    -70.8636E+06    -143.949E+06    -70.8754E+06    -143.938E+06    -13.2767E+06    -526.476E+03         43.5995
             811     6.22191E-03     28.9766E-03         1.74807         1.71846        -5.60125         1.71835        -5.60114         1.74807    -46.5641E-03     235.452E-03    -117.226E-03    -118.254E-03    -117.087E-03     235.314E-03    -118.254E-03     13.6886E-03    -23.1577E+06    -78.0725E+06    -183.183E+06    -78.0813E+06    -183.175E+06    -23.1577E+06    -387.271E+03         42.4941
             812     5.33439E-03     28.9695E-03         1.75330         1.71974        -5.61033         1.71959        -5.61018         1.75330    -54.2518E-03     235.704E-03    -117.454E-03    -118.297E-03    -117.396E-03     235.646E-03    -118.297E-03     8.72799E-03    -33.4819E+06    -85.7535E+06    -223.802E+06    -85.7565E+06    -223.799E+06    -33.4819E+06     132.729E+03         41.5991
             813     4.44362E-03     28.9649E-03         1.76027         1.72046        -5.61930         1.72020        -5.61901         1.76024    -68.6385E-06     235.863E-03    -117.603E-03    -118.300E-03    -117.585E-03     235.845E-03    -118.300E-03     4.72403E-03    -49.1091E+06    -94.5810E+06    -254.764E+06    -94.5840E+06    -254.761E+06    -49.1091E+06     417.188E+03         40.8750
             814     3.55543E-03     28.9639E-03         1.77158         1.74754        -5.65413         1.75258        -5.65353         1.76595     127.081E-03     236.108E-03    -117.880E-03    -118.258E-03    -117.918E-03     236.104E-03    -118.216E-03     2.14566E-03    -68.2998E+06    -103.129E+06    -269.120E+06    -103.131E+06    -269.117E+06    -68.2998E+06     558.223E+03         40.3115
             815     2.66757E-03     28.9652E-03         1.78189         1.75867        -5.67287         1.77369        -5.67238         1.76637     55.5365E-03     235.995E-03    -117.859E-03    -118.181E-03    -117.901E-03     235.994E-03    -118.138E-03     564.483E-06    -87.8214E+06    -110.888E+06    -283.603E+06    -110.892E+06    -283.598E+06    -87.8214E+06     776.981E+03         39.8942
             816     1.77634E-03     28.9676E-03         1.77749         1.75236        -5.66241         1.76405        -5.66207         1.76547     35.8127E-03     235.897E-03    -117.723E-03    -118.211E-03    -117.823E-03     235.897E-03    -118.111E-03    -331.083E-06    -106.600E+06    -118.228E+06    -297.392E+06    -118.233E+06    -297.387E+06    -106.600E+06     810.336E+03         39.6086
             817     889.622E-06     28.9687E-03         2.67270     859.222E-03        -5.66617     861.040E-03        -5.66587         2.67059     54.7490E-03     236.155E-03    -117.692E-03    -118.477E-03    -118.045E-03     236.155E-03    -118.124E-03    -487.995E-06    -118.837E+06    -123.849E+06    -306.266E+06    -122.142E+06    -306.248E+06    -120.562E+06     411.858E+03         39.4502
             818     15.1195E-03     28.5844E-03         1.68416         1.50471        -5.33865         1.50469        -5.33864         1.68416    -11.1356E-03     246.222E-03    -117.344E-03    -128.962E-03    -116.785E-03     234.713E-03    -118.012E-03     105.936E-03     119.800E+06     102.597E+06    -6.08468E+06    -6.07101E+06     119.787E+06     102.597E+06     1.07810E+06         59.7790
             819     14.2274E-03     28.3606E-03         1.69880         1.53337        -5.38387         1.53335        -5.38385         1.69880    -11.5278E-03     249.102E-03    -118.092E-03    -131.138E-03    -116.212E-03     234.176E-03    -118.092E-03     143.076E-03     113.788E+06     102.366E+06    -12.6979E+06    -12.6836E+06     113.774E+06     102.366E+06     1.24563E+06         57.7307
             820     13.3398E-03     28.2404E-03         1.71325         1.56714        -5.43734         1.56706        -5.43726         1.71325    -44.5726E-03     242.072E-03    -118.144E-03    -124.074E-03    -114.795E-03     232.793E-03    -118.144E-03     114.508E-03     106.356E+06     99.6571E+06    -20.9249E+06    -20.9107E+06     106.342E+06     99.6571E+06     205.429E+03         55.9941
             821     12.4475E-03     28.0930E-03         1.72653         1.60094        -5.48754         1.60083        -5.48744         1.72653    -7.15060E-03     241.127E-03    -118.074E-03    -123.059E-03    -114.099E-03     232.166E-03    -118.074E-03     112.028E-03     101.831E+06     82.9531E+06    -29.6688E+06    -29.6549E+06     101.817E+06     82.9531E+06    -811.200E+03         54.5623
             822     11.5577E-03     27.9757E-03         1.73891         1.62238        -5.52522         1.62231        -5.52514         1.73891     518.520E-06     237.610E-03    -118.027E-03    -119.536E-03    -114.102E-03     232.176E-03    -118.027E-03     86.7609E-03     99.1110E+06     57.3705E+06    -36.5803E+06    -36.5629E+06     99.0936E+06     57.3705E+06    -1.00492E+06         52.8340
             823     10.6694E-03     27.8930E-03         1.75040         1.64406        -5.55745         1.64384        -5.55723         1.75040     29.4687E-03     236.349E-03    -117.722E-03    -118.616E-03    -115.064E-03     233.091E-03    -118.015E-03     67.1013E-03     91.0051E+06     35.3878E+06    -43.2666E+06    -43.2472E+06     90.9857E+06     35.3878E+06    -747.512E+03         50.7030
             824     9.78015E-03     27.8269E-03         1.76078         1.67205        -5.59593         1.67185        -5.59572         1.76078     34.9051E-03     235.352E-03    -117.088E-03    -118.262E-03    -115.541E-03     233.563E-03    -118.019E-03     49.3191E-03     48.6575E+06     10.4123E+06    -49.9460E+06    -49.9333E+06     39.7211E+06     19.3360E+06    -600.583E+03         48.5172
             825     8.89072E-03     27.7823E-03         1.76972         1.69894        -5.63356         1.69889        -5.63351         1.76972    -36.0846E-03     234.841E-03    -116.777E-03    -118.103E-03    -115.828E-03     233.892E-03    -118.103E-03     36.2447E-03     6.82719E+06    -32.8717E+06    -62.5168E+06    -56.8834E+06    -38.5051E+06     6.82719E+06    -760.348E+03         46.5647
             826     8.00037E-03     27.7484E-03         1.77725         1.72290        -5.66889         1.72285        -5.66884         1.77725    -711.292E-06     235.083E-03    -116.962E-03    -118.166E-03    -116.411E-03     234.532E-03    -118.166E-03     27.4172E-03    -3.26235E+06    -63.8346E+06    -96.5991E+06    -63.8678E+06    -96.5659E+06    -3.26235E+06    -621.313E+03         44.9293
             827     7.11314E-03     27.7285E-03         1.78333         1.74552        -5.69930         1.74539        -5.69917         1.78333    -20.7635E-03     235.154E-03    -116.973E-03    -118.204E-03    -116.701E-03     234.881E-03    -118.204E-03     19.2804E-03    -12.9807E+06    -70.5332E+06    -143.773E+06    -70.5424E+06    -143.764E+06    -12.9807E+06    -549.750E+03         43.5791
             828     6.22212E-03     27.7119E-03         1.78803         1.76218        -5.71782         1.76204        -5.71768         1.78803    -61.1749E-03     235.159E-03    -116.932E-03    -118.250E-03    -116.805E-03     235.032E-03    -118.250E-03     13.0410E-03    -23.5398E+06    -77.8793E+06    -183.859E+06    -77.8891E+06    -183.849E+06    -23.5398E+06    -659.582E+03         42.4787
             829     5.33193E-03     27.7030E-03         1.79283         1.76109        -5.71805         1.76096        -5.71791         1.79283    -59.6710E-03     235.733E-03    -117.466E-03    -118.313E-03    -117.415E-03     235.682E-03    -118.313E-03     8.16908E-03    -34.8029E+06    -86.7470E+06    -225.055E+06    -86.7511E+06    -225.051E+06    -34.8029E+06    -630.353E+03         41.5886
             830     4.44539E-03     27.7006E-03         1.80016         1.75512        -5.72025         1.75494        -5.72007         1.80016    -38.5192E-03     236.050E-03    -117.794E-03    -118.301E-03    -117.776E-03     236.031E-03    -118.301E-03     4.86024E-03    -49.7172E+06    -95.2947E+06    -255.147E+06    -95.2967E+06    -255.145E+06    -49.7172E+06    -196.579E+03         40.8696
             831     3.55547E-03     27.6985E-03         1.81351         1.77732        -5.75395         1.78241        -5.75343         1.80791     81.3035E-03     235.932E-03    -117.748E-03    -118.218E-03    -117.743E-03     235.927E-03    -118.218E-03     2.15947E-03    -69.1682E+06    -103.313E+06    -269.247E+06    -103.314E+06    -269.247E+06    -69.1682E+06     340.853E+03         40.3087
             832     2.66551E-03     27.7002E-03         1.82804         1.80244        -5.79070         1.82085        -5.79017         1.80911     46.5095E-03     236.117E-03    -117.903E-03    -118.251E-03    -118.007E-03     236.116E-03    -118.146E-03     96.8876E-06    -88.6889E+06    -111.264E+06    -283.549E+06    -111.267E+06    -283.546E+06    -88.6889E+06     702.988E+03         39.8954
             833     1.77911E-03     27.7025E-03         1.82778         1.80032        -5.78799         1.82736        -5.78757         1.80032     31.1661E-03     236.164E-03    -117.951E-03    -118.239E-03    -118.203E-03     236.164E-03    -117.986E-03    -632.646E-06    -105.498E+06    -117.581E+06    -296.510E+06    -117.586E+06    -296.504E+06    -105.498E+06     906.747E+03         39.6106
             834     888.744E-06     27.7035E-03         2.78022     806.334E-03        -5.74115     820.094E-03        -5.74078         2.76609     49.7185E-03     235.658E-03    -117.388E-03    -118.283E-03    -118.056E-03     235.657E-03    -117.614E-03    -816.730E-06    -117.148E+06    -122.808E+06    -304.854E+06    -121.474E+06    -304.841E+06    -118.495E+06     1.34391E+06         39.4427
             835     15.1189E-03     27.3208E-03         1.71731         1.52518        -5.42719         1.52516        -5.42717         1.71731    -16.2379E-03     246.109E-03    -117.436E-03    -128.764E-03    -116.894E-03     234.794E-03    -117.992E-03     105.412E-03     119.133E+06     102.774E+06    -5.09214E+06    -5.08310E+06     119.124E+06     102.774E+06     418.077E+03         59.7676
             836     14.2289E-03     27.0959E-03         1.73222         1.55531        -5.47097         1.55529        -5.47096         1.73222    -15.4699E-03     248.469E-03    -118.075E-03    -130.536E-03    -115.792E-03     233.725E-03    -118.075E-03     142.236E-03     113.941E+06     102.933E+06    -11.3414E+06    -11.3190E+06     113.919E+06     102.933E+06     1.21151E+06         57.7165
             837     13.3363E-03     26.9738E-03         1.74686         1.58707        -5.51974         1.58702        -5.51969         1.74686    -36.8035E-03     241.842E-03    -118.147E-03    -123.822E-03    -114.559E-03     232.578E-03    -118.147E-03     114.407E-03     107.632E+06     100.323E+06    -19.4736E+06    -19.4534E+06     107.612E+06     100.323E+06     1.14752E+06         55.9780
             838     12.4507E-03     26.8253E-03         1.76042         1.61966        -5.57187         1.61958        -5.57180         1.76042    -1.29458E-03     241.361E-03    -118.078E-03    -123.260E-03    -114.343E-03     232.444E-03    -118.078E-03     111.865E-03     103.499E+06     84.2893E+06    -27.7130E+06    -27.7021E+06     103.488E+06     84.2893E+06     93.0264E+03         54.5515
             839     11.5595E-03     26.7131E-03         1.77310         1.64867        -5.61812         1.64861        -5.61806         1.77310     10.4582E-03     237.805E-03    -118.013E-03    -119.752E-03    -114.201E-03     232.254E-03    -118.013E-03     87.8580E-03     99.4488E+06     57.0111E+06    -35.6908E+06    -35.6612E+06     99.4193E+06     57.0111E+06    -100.059E+03         52.8288
             840     10.6680E-03     26.6237E-03         1.78455         1.67809        -5.65420         1.67794        -5.65406         1.78455     31.7921E-03     236.655E-03    -117.897E-03    -118.768E-03    -115.402E-03     233.374E-03    -117.982E-03     67.0240E-03     90.3908E+06     33.9051E+06    -43.9887E+06    -43.9598E+06     90.3620E+06     33.9051E+06    -412.418E+03         50.6976
             841     9.78108E-03     26.5605E-03         1.79455         1.70759        -5.69314         1.70744        -5.69300         1.79455     23.7822E-03     235.317E-03    -117.110E-03    -118.212E-03    -115.643E-03     233.607E-03    -117.969E-03     48.3994E-03     48.8929E+06     11.0167E+06    -50.6299E+06    -50.6194E+06     40.3583E+06     19.5407E+06    -532.313E+03         48.5039
             842     8.89110E-03     26.5186E-03         1.80347         1.72715        -5.72647         1.72709        -5.72642         1.80347    -40.2484E-03     234.501E-03    -116.482E-03    -118.061E-03    -115.518E-03     233.537E-03    -118.061E-03     36.4591E-03     7.23140E+06    -31.5848E+06    -62.6718E+06    -56.5193E+06    -37.7373E+06     7.23140E+06    -571.816E+03         46.5401
             843     8.00114E-03     26.4840E-03         1.81176         1.74680        -5.75636         1.74675        -5.75630         1.81176    -20.4579E-03     234.826E-03    -116.730E-03    -118.149E-03    -116.185E-03     234.282E-03    -118.149E-03     27.1972E-03    -3.62039E+06    -63.3307E+06    -97.7483E+06    -63.3558E+06    -97.7233E+06    -3.62039E+06    -637.265E+03         44.9046
             844     7.11062E-03     26.4608E-03         1.81862         1.77633        -5.78863         1.77624        -5.78855         1.81862    -26.4049E-03     235.354E-03    -117.205E-03    -118.183E-03    -116.944E-03     235.093E-03    -118.183E-03     18.8412E-03    -12.9987E+06    -70.5262E+06    -144.673E+06    -70.5355E+06    -144.664E+06    -12.9987E+06    -597.864E+03         43.5663
             845     6.22376E-03     26.4482E-03         1.82437         1.78652        -5.80266         1.78643        -5.80257         1.82437    -42.0460E-03     235.395E-03    -117.240E-03    -118.182E-03    -117.119E-03     235.273E-03    -118.182E-03     12.7644E-03    -23.5633E+06    -78.1415E+06    -183.335E+06    -78.1526E+06    -183.324E+06    -23.5633E+06     -311.39E+03         42.4701
             846     5.33444E-03     26.4386E-03         1.83018         1.79604        -5.81672         1.79596        -5.81664         1.83018    -31.9807E-03     235.356E-03    -117.172E-03    -118.235E-03    -117.123E-03     235.307E-03    -118.235E-03     7.86669E-03    -34.7148E+06    -85.7444E+06    -224.124E+06    -85.7519E+06    -224.117E+06    -34.7148E+06    -476.696E+03         41.5739
             847     4.44320E-03     26.4339E-03         1.83522         1.81739        -5.84029         1.81764        -5.84018         1.83487    -22.7991E-03     235.748E-03    -117.540E-03    -118.267E-03    -117.525E-03     235.733E-03    -118.267E-03     4.25394E-03    -50.0628E+06    -93.7346E+06    -255.677E+06    -93.7448E+06    -255.666E+06    -50.0628E+06    -979.257E+03         40.8537
             848     3.55554E-03     26.4340E-03         1.83929         1.82069        -5.84777         1.82042        -5.84714         1.83894     87.9127E-03     236.016E-03    -117.843E-03    -118.210E-03    -117.854E-03     236.012E-03    -118.195E-03     1.88610E-03    -68.5635E+06    -102.247E+06    -270.422E+06    -102.256E+06    -270.414E+06    -68.5635E+06    -201.433E+03         40.2961
             849     2.66758E-03     26.4347E-03         1.84847         1.81945        -5.85621         1.82216        -5.85550         1.84505     47.3351E-03     236.096E-03    -117.919E-03    -118.212E-03    -118.037E-03     236.096E-03    -118.093E-03     76.1755E-06    -87.9548E+06    -109.645E+06    -283.540E+06    -109.647E+06    -283.538E+06    -87.9548E+06     389.508E+03         39.8853
             850     1.77716E-03     26.4368E-03         1.86718         1.82521        -5.87910         1.84000        -5.87845         1.85174     43.8908E-03     235.952E-03    -117.862E-03    -118.118E-03    -118.014E-03     235.951E-03    -117.965E-03    -684.352E-06    -105.337E+06    -115.281E+06    -295.986E+06    -115.282E+06    -295.985E+06    -105.337E+06     196.237E+03         39.6030
             851     889.748E-06     26.4401E-03         2.88651     822.144E-03        -5.89587     833.605E-03        -5.89532         2.87449     74.2143E-03     235.715E-03    -117.543E-03    -118.185E-03    -118.112E-03     235.714E-03    -117.616E-03    -429.536E-06    -115.842E+06    -120.291E+06    -302.898E+06    -120.295E+06    -302.894E+06    -115.842E+06     132.371E+03         39.4384
             852     15.1190E-03     26.0513E-03         1.74648         1.54792        -5.50102         1.54791        -5.50101         1.74648    -8.40057E-03     246.331E-03    -117.367E-03    -129.008E-03    -117.139E-03     235.092E-03    -117.996E-03     105.626E-03     118.409E+06     102.181E+06    -6.08606E+06    -6.08456E+06     118.408E+06     102.181E+06    -384.679E+03         59.7557
             853     14.2301E-03     25.8327E-03         1.76103         1.58258        -5.55307         1.58253        -5.55302         1.76103    -22.0647E-03     248.993E-03    -118.053E-03    -131.020E-03    -116.328E-03     234.301E-03    -118.053E-03     142.348E-03     112.183E+06     102.154E+06    -12.8920E+06    -12.8778E+06     112.169E+06     102.154E+06     468.330E+03         57.7033
             854     13.3403E-03     25.7094E-03         1.77521         1.61446        -5.60442         1.61436        -5.60432         1.77521    -49.8366E-03     241.280E-03    -118.128E-03    -123.231E-03    -113.881E-03     231.929E-03    -118.128E-03     114.718E-03     108.310E+06     100.581E+06    -18.9637E+06    -18.9452E+06     108.292E+06     100.581E+06     917.932E+03         55.9604
             855     12.4461E-03     25.5573E-03         1.78886         1.63552        -5.64525         1.63543        -5.64516         1.78886    -13.1648E-03     241.101E-03    -118.095E-03    -122.969E-03    -113.972E-03     232.103E-03    -118.095E-03     112.229E-03     105.135E+06     85.0695E+06    -26.6942E+06    -26.6844E+06     105.125E+06     85.0695E+06     759.642E+03         54.5379
             856     11.5573E-03     25.4486E-03         1.80197         1.66694        -5.69174         1.66689        -5.69169         1.80197     2.49200E-03     238.941E-03    -118.007E-03    -120.903E-03    -115.304E-03     233.343E-03    -118.007E-03     88.4977E-03     100.155E+06     58.1258E+06    -35.4948E+06    -35.4794E+06     100.140E+06     58.1258E+06     1.28104E+06         52.8217
             857     10.6715E-03     25.3538E-03         1.81324         1.71132        -5.74295         1.71119        -5.74282         1.81324     29.9320E-03     236.619E-03    -117.541E-03    -119.100E-03    -115.465E-03     233.373E-03    -117.930E-03     66.5923E-03     91.1935E+06     34.9228E+06    -42.0593E+06    -42.0379E+06     91.1721E+06     34.9228E+06     622.524E+03         50.6839
             858     9.78061E-03     25.2980E-03         1.82265         1.73787        -5.77757         1.73775        -5.77745         1.82265     25.3528E-03     234.922E-03    -117.027E-03    -117.921E-03    -115.386E-03     233.281E-03    -117.921E-03     47.3564E-03     49.5394E+06     10.4885E+06    -48.1524E+06    -48.1336E+06     40.1303E+06     19.8789E+06    -562.138E+03         48.4852
             859     8.89056E-03     25.2514E-03         1.83142         1.75131        -5.80404         1.75128        -5.80401         1.83142    -24.9156E-03     234.751E-03    -116.790E-03    -118.003E-03    -115.873E-03     233.834E-03    -118.003E-03     35.5324E-03     7.81588E+06    -32.0784E+06    -61.2366E+06    -55.5706E+06    -37.7445E+06     7.81588E+06    -374.386E+03         46.5209
             860     8.00187E-03     25.2190E-03         1.83994         1.77058        -5.83332         1.77055        -5.83329         1.83994    -15.3051E-03     234.671E-03    -116.659E-03    -118.066E-03    -116.137E-03     234.149E-03    -118.066E-03     26.7157E-03    -3.62388E+06    -63.1845E+06    -97.3511E+06    -63.1951E+06    -97.3406E+06    -3.62388E+06    -174.623E+03         44.8807
             861     7.11328E-03     25.1951E-03         1.84785         1.79033        -5.86138         1.79030        -5.86134         1.84785    -23.5988E-03     234.973E-03    -116.895E-03    -118.113E-03    -116.637E-03     234.716E-03    -118.113E-03     18.6078E-03    -13.6568E+06    -70.3104E+06    -145.142E+06    -70.3185E+06    -145.133E+06    -13.6568E+06    -532.220E+03         43.5441
             862     6.22254E-03     25.1811E-03         1.85484         1.81182        -5.88973         1.81177        -5.88968         1.85484    -32.4285E-03     235.371E-03    -117.278E-03    -118.120E-03    -117.163E-03     235.256E-03    -118.120E-03     12.5226E-03    -23.2912E+06    -77.2863E+06    -183.211E+06    -77.3029E+06    -183.195E+06    -23.2912E+06    -572.170E+03         42.4554
             863     5.33391E-03     25.1737E-03         1.86073         1.84099        -5.92045         1.84198        -5.92028         1.85957    -46.0541E-03     235.574E-03    -117.479E-03    -118.145E-03    -117.442E-03     235.524E-03    -118.131E-03     8.05204E-03    -33.9255E+06    -84.8074E+06    -223.335E+06    -84.8188E+06    -223.324E+06    -33.9255E+06    -479.311E+03         41.5592
             864     4.44598E-03     25.1691E-03         1.86373         1.85006        -5.93245         1.85142        -5.93229         1.86221    -17.0027E-03     235.638E-03    -117.559E-03    -118.127E-03    -117.560E-03     235.625E-03    -118.114E-03     3.74222E-03    -49.0951E+06    -93.4857E+06    -255.176E+06    -93.4941E+06    -255.167E+06    -49.0951E+06    -775.231E+03         40.8313
             865     3.55554E-03     25.1676E-03         1.86623         1.84539        -5.93121         1.84538        -5.93084         1.86587     72.5667E-03     235.622E-03    -117.608E-03    -118.047E-03    -117.621E-03     235.620E-03    -118.032E-03     936.231E-06    -68.0140E+06    -102.032E+06    -270.670E+06    -102.048E+06    -270.655E+06    -68.0140E+06    -829.084E+03         40.2673
             866     2.66635E-03     25.1689E-03         1.87377         1.84860        -5.93947         1.84980        -5.93903         1.87213     21.7387E-03     235.562E-03    -117.594E-03    -118.003E-03    -117.608E-03     235.561E-03    -117.988E-03    -384.276E-06    -88.7249E+06    -109.501E+06    -284.479E+06    -109.509E+06    -284.471E+06    -88.7249E+06    -366.173E+03         39.8551
             867     1.77863E-03     25.1725E-03         1.88465         1.85323        -5.95646         1.85424        -5.95583         1.88301     56.3970E-03     235.687E-03    -117.716E-03    -118.001E-03    -117.715E-03     235.686E-03    -118.001E-03    -878.312E-06    -105.584E+06    -115.682E+06    -295.938E+06    -115.682E+06    -295.937E+06    -105.584E+06    -106.977E+03         39.5777
             868     888.044E-06     25.1739E-03         2.90311     876.571E-03        -5.99615     876.003E-03        -5.99558         2.90311     103.385E-03     235.960E-03    -117.646E-03    -118.329E-03    -118.203E-03     235.957E-03    -117.769E-03    -1.14301E-03    -116.008E+06    -120.856E+06    -302.631E+06    -120.189E+06    -302.627E+06    -116.678E+06    -608.985E+03         39.4231
             869     15.1182E-03     24.7870E-03         1.77073         1.57549        -5.57801         1.57544        -5.57796         1.77073    -7.47300E-03     246.043E-03    -117.202E-03    -128.848E-03    -116.659E-03     234.666E-03    -118.013E-03     106.021E-03     118.249E+06     100.880E+06    -6.46101E+06    -6.45874E+06     118.246E+06     100.880E+06    -149.079E+03         59.7420
             870     14.2278E-03     24.5642E-03         1.78461         1.60381        -5.62366         1.60376        -5.62361         1.78461    -12.4850E-03     249.319E-03    -118.084E-03    -131.323E-03    -116.429E-03     234.425E-03    -118.084E-03     143.379E-03     111.428E+06     101.331E+06    -12.4765E+06    -12.4695E+06     111.421E+06     101.331E+06    -650.909E+03         57.6983
             871     13.3390E-03     24.4442E-03         1.79851         1.62639        -5.66666         1.62630        -5.66657         1.79851    -38.7877E-03     242.053E-03    -118.132E-03    -124.062E-03    -114.773E-03     232.764E-03    -118.132E-03     114.709E-03     107.920E+06     100.064E+06    -19.4986E+06    -19.4833E+06     107.904E+06     100.064E+06     358.120E+03         55.9640
             872     12.4486E-03     24.2991E-03         1.81195         1.65626        -5.71446         1.65619        -5.71439         1.81195    -2.64040E-03     241.677E-03    -118.043E-03    -123.635E-03    -114.720E-03     232.763E-03    -118.043E-03     112.021E-03     105.068E+06     84.4928E+06    -27.6942E+06    -27.6723E+06     105.046E+06     84.4928E+06     1.51376E+06         54.5330
             873     11.5599E-03     24.1734E-03         1.82449         1.69080        -5.76548         1.69074        -5.76543         1.82449    -1.90593E-03     238.484E-03    -117.804E-03    -120.649E-03    -115.074E-03     233.035E-03    -117.930E-03     86.9895E-03     100.900E+06     58.4804E+06    -35.5443E+06    -35.5254E+06     100.881E+06     58.4804E+06     589.331E+03         52.7977
             874     10.6701E-03     24.0931E-03         1.83553         1.72604        -5.81377         1.72587        -5.81360         1.83553     32.4789E-03     236.023E-03    -117.443E-03    -118.585E-03    -115.030E-03     232.897E-03    -117.873E-03     65.6204E-03     92.7498E+06     35.7217E+06    -42.3843E+06    -42.3746E+06     92.7401E+06     35.7217E+06     199.380E+03         50.6497
             875     9.78089E-03     24.0277E-03         1.84499         1.75834        -5.85276         1.75819        -5.85261         1.84499     33.9738E-03     235.200E-03    -117.292E-03    -117.918E-03    -115.688E-03     233.539E-03    -117.860E-03     47.4355E-03     49.5474E+06     9.98343E+06    -49.3748E+06    -49.3311E+06     40.2870E+06     19.2000E+06     712.736E+03         48.4555
             876     8.89350E-03     23.9878E-03         1.85323         1.78113        -5.88177         1.78110        -5.88174         1.85323    -23.9884E-03     234.829E-03    -116.962E-03    -117.907E-03    -116.093E-03     233.960E-03    -117.907E-03     34.7122E-03     6.89612E+06    -32.3444E+06    -61.6650E+06    -55.8923E+06    -38.1172E+06     6.89612E+06     601.726E+03         46.4984
             877     8.00269E-03     23.9531E-03         1.86119         1.79181        -5.90055         1.79179        -5.90053         1.86119    -4.94651E-03     234.514E-03    -116.605E-03    -117.956E-03    -116.082E-03     233.991E-03    -117.956E-03     26.7390E-03    -3.53509E+06    -62.1770E+06    -96.7900E+06    -62.1861E+06    -96.7809E+06    -3.53509E+06     125.353E+03         44.8551
             878     7.11249E-03     23.9304E-03         1.87006         1.79548        -5.91655         1.79544        -5.91651         1.87006    -16.6501E-03     234.837E-03    -116.868E-03    -117.996E-03    -116.611E-03     234.580E-03    -117.996E-03     18.5851E-03    -13.2112E+06    -69.0085E+06    -144.206E+06    -69.0125E+06    -144.202E+06    -13.2112E+06    -345.747E+03         43.5111
             879     6.22401E-03     23.9165E-03         1.87881         1.82493        -5.95386         1.82482        -5.95374         1.87881    -58.0598E-03     235.326E-03    -117.359E-03    -117.994E-03    -117.272E-03     235.224E-03    -117.979E-03     11.5855E-03    -22.9164E+06    -76.3375E+06    -182.528E+06    -76.3489E+06    -182.516E+06    -22.9164E+06    -705.860E+03         42.4225
             880     5.33468E-03     23.9078E-03         1.88577         1.86213        -5.99422         1.86306        -5.99399         1.88461    -74.8844E-03     235.597E-03    -117.674E-03    -117.967E-03    -117.669E-03     235.563E-03    -117.939E-03     6.44122E-03    -33.7837E+06    -84.7992E+06    -223.708E+06    -84.8113E+06    -223.696E+06    -33.7837E+06    -899.875E+03         41.5280
             881     4.44565E-03     23.9036E-03         1.88993         1.86500        -6.00293         1.86592        -6.00268         1.88877    -10.2509E-03     235.427E-03    -117.597E-03    -117.870E-03    -117.601E-03     235.418E-03    -117.857E-03     3.04401E-03    -48.8580E+06    -93.3555E+06    -255.225E+06    -93.3604E+06    -255.220E+06    -48.8580E+06    -585.057E+03         40.7939
             882     3.55804E-03     23.9043E-03         1.89475         1.86547        -6.01085         1.86533        -6.01071         1.89475     53.0482E-03     235.059E-03    -117.339E-03    -117.747E-03    -117.337E-03     235.058E-03    -117.747E-03     575.561E-06    -67.8436E+06    -101.933E+06    -270.407E+06    -101.941E+06    -270.399E+06    -67.8436E+06    -633.324E+03         40.2216
             883     2.66802E-03     23.9054E-03         1.90209         1.88767        -6.03896         1.88944        -6.03884         1.90020    -10.5671E-03     234.943E-03    -117.253E-03    -117.721E-03    -117.252E-03     234.941E-03    -117.721E-03    -1.14331E-03    -88.3053E+06    -110.138E+06    -285.007E+06    -110.153E+06    -284.992E+06    -88.3053E+06    -1.04769E+06         39.8060
             884     1.77710E-03     23.9075E-03         1.91296         1.89624        -6.05951         1.90932        -6.05912         1.89949     9.22737E-03     235.194E-03    -117.477E-03    -117.745E-03    -117.475E-03     235.192E-03    -117.745E-03    -1.52148E-03    -104.273E+06    -115.625E+06    -296.008E+06    -115.637E+06    -295.995E+06    -104.273E+06    -1.08447E+06         39.5298
             885     889.669E-06     23.9091E-03         2.88149     912.211E-03        -6.05617     923.390E-03        -6.05578         2.86992     73.6412E-03     235.433E-03    -117.285E-03    -118.162E-03    -117.841E-03     235.428E-03    -117.601E-03    -1.34308E-03    -116.113E+06    -120.829E+06    -303.352E+06    -120.167E+06    -303.344E+06    -116.783E+06    -526.388E+03         39.3791
             886     15.1186E-03     23.5237E-03         1.79044         1.60162        -5.65872         1.60156        -5.65867         1.79044    -16.2232E-03     245.894E-03    -117.204E-03    -128.766E-03    -116.426E-03     234.388E-03    -118.037E-03     105.791E-03     119.173E+06     100.980E+06    -5.84120E+06    -5.83886E+06     119.170E+06     100.980E+06    -112.865E+03         59.7294
             887     14.2280E-03     23.2983E-03         1.80344         1.63126        -5.70273         1.63121        -5.70269         1.80344    -13.7329E-03     249.141E-03    -118.124E-03    -131.127E-03    -116.139E-03     234.153E-03    -118.124E-03     143.470E-03     111.733E+06     100.432E+06    -12.9767E+06    -12.9697E+06     111.726E+06     100.432E+06    -587.947E+03         57.6944
             888     13.3369E-03     23.1780E-03         1.81636         1.65055        -5.73933         1.65048        -5.73925         1.81636    -34.1657E-03     243.433E-03    -118.141E-03    -125.394E-03    -116.206E-03     234.244E-03    -118.141E-03     114.551E-03     106.455E+06     99.0783E+06    -20.7194E+06    -20.7038E+06     106.439E+06     99.0783E+06    -403.343E+03         55.9704
             889     12.4514E-03     23.0267E-03         1.82870         1.68128        -5.78163         1.68121        -5.78156         1.82870    -3.43932E-03     242.907E-03    -117.962E-03    -124.913E-03    -116.056E-03     234.050E-03    -117.962E-03     112.114E-03     104.971E+06     85.5680E+06    -27.5311E+06    -27.5061E+06     104.946E+06     85.5680E+06     963.093E+03         54.5278
             890     11.5617E-03     22.9115E-03         1.84020         1.71004        -5.82479         1.71001        -5.82476         1.84020     3.84637E-03     237.640E-03    -117.686E-03    -119.925E-03    -114.354E-03     232.194E-03    -117.812E-03     86.8271E-03     101.599E+06     59.1069E+06    -34.7783E+06    -34.7432E+06     101.564E+06     59.1069E+06     1.28309E+06         52.7613
             891     10.6709E-03     22.8245E-03         1.85122         1.72808        -5.85599         1.72796        -5.85587         1.85122     34.7031E-03     235.484E-03    -117.498E-03    -117.989E-03    -114.573E-03     232.360E-03    -117.789E-03     65.4146E-03     92.2869E+06     35.4987E+06    -42.5222E+06    -42.4958E+06     92.2604E+06     35.4987E+06     797.796E+03         50.5956
             892     9.78256E-03     22.7619E-03         1.86171         1.75865        -5.89650         1.75850        -5.89635         1.86171     17.8366E-03     235.098E-03    -117.252E-03    -117.850E-03    -115.662E-03     233.450E-03    -117.793E-03     47.3063E-03     48.7613E+06     10.9806E+06    -49.7150E+06    -49.6727E+06     40.4923E+06     19.2073E+06     958.314E+03         48.4052
             893     8.89179E-03     22.7217E-03         1.87082         1.79257        -5.93921         1.79251        -5.93915         1.87082    -38.7004E-03     235.072E-03    -117.183E-03    -117.927E-03    -116.441E-03     234.218E-03    -117.816E-03     34.3076E-03     6.94733E+06    -31.2299E+06    -61.4578E+06    -55.4309E+06    -37.2568E+06     6.94733E+06     725.884E+03         46.4614
             894     8.00379E-03     22.6902E-03         1.87890         1.81159        -5.96412         1.81157        -5.96410         1.87890    -17.1425E-03     235.104E-03    -117.165E-03    -117.986E-03    -116.883E-03     234.629E-03    -117.794E-03     25.4060E-03    -2.82656E+06    -61.2325E+06    -95.7408E+06    -61.2420E+06    -95.7313E+06    -2.82656E+06     173.842E+03         44.8240
             895     7.11460E-03     22.6657E-03         1.88654         1.82895        -5.98744         1.82890        -5.98739         1.88654    -26.5905E-03     234.976E-03    -117.195E-03    -117.815E-03    -117.063E-03     234.764E-03    -117.734E-03     16.6860E-03    -12.8694E+06    -68.5649E+06    -143.255E+06    -68.5699E+06    -143.250E+06    -12.8694E+06    -179.321E+03         43.4657
             896     6.22549E-03     22.6505E-03         1.89385         1.84429        -6.00948         1.84418        -6.00938         1.89385    -54.4829E-03     234.980E-03    -117.349E-03    -117.660E-03    -117.288E-03     234.904E-03    -117.646E-03     9.99944E-03    -23.2006E+06    -76.6746E+06    -181.979E+06    -76.6803E+06    -181.973E+06    -23.2006E+06    -265.772E+03         42.3580
             897     5.33768E-03     22.6425E-03         1.90136         1.85476        -6.02849         1.85467        -6.02840         1.90136    -47.7828E-03     234.835E-03    -117.274E-03    -117.602E-03    -117.265E-03     234.811E-03    -117.587E-03     5.33665E-03    -33.4406E+06    -84.2019E+06    -223.056E+06    -84.2071E+06    -223.051E+06    -33.4406E+06    -573.803E+03         41.4566
             898     4.44833E-03     22.6405E-03         1.90819         1.87917        -6.06268         1.87904        -6.06254         1.90819     17.7716E-03     234.601E-03    -117.121E-03    -117.524E-03    -117.116E-03     234.597E-03    -117.524E-03     2.15135E-03    -48.9846E+06    -92.7045E+06    -255.677E+06    -92.7138E+06    -255.668E+06    -48.9846E+06    -1.02331E+06         40.7247
             899     3.55734E-03     22.6393E-03         1.91594         1.89760        -6.09204         1.90071        -6.09180         1.91259     82.4947E-03     234.511E-03    -117.121E-03    -117.419E-03    -117.119E-03     234.510E-03    -117.419E-03     62.6196E-06    -67.8688E+06    -101.464E+06    -270.712E+06    -101.472E+06    -270.704E+06    -67.8688E+06    -879.082E+03         40.1553
             900     2.66868E-03     22.6423E-03         1.91912         1.90345        -6.09938         1.90687        -6.09920         1.91552     24.6130E-03     234.494E-03    -117.167E-03    -117.356E-03    -117.188E-03     234.492E-03    -117.333E-03    -1.30069E-03    -87.0423E+06    -109.172E+06    -284.756E+06    -109.183E+06    -284.745E+06    -87.0423E+06    -633.920E+03         39.7396
             901     1.78043E-03     22.6438E-03         1.92918         1.90426        -6.10955         1.91577        -6.10924         1.91736     18.8820E-03     234.272E-03    -116.966E-03    -117.333E-03    -116.987E-03     234.270E-03    -117.310E-03    -1.34996E-03    -104.685E+06    -115.968E+06    -296.963E+06    -115.983E+06    -296.949E+06    -104.685E+06    -604.920E+03         39.4606
             902     889.206E-06     22.6455E-03         2.83857     997.789E-03        -6.11777         1.00889        -6.11730         2.82700     88.9640E-03     234.567E-03    -116.896E-03    -117.686E-03    -117.160E-03     234.565E-03    -117.420E-03    -676.106E-06    -118.148E+06    -122.117E+06    -305.227E+06    -121.874E+06    -305.219E+06    -118.399E+06    -186.593E+03         39.3081
             903     15.1178E-03     22.2568E-03         1.80636         1.61464        -5.71597         1.61457        -5.71590         1.80636    -34.3752E-03     246.141E-03    -117.000E-03    -129.212E-03    -116.731E-03     234.714E-03    -118.055E-03     105.598E-03     119.271E+06     100.984E+06    -5.50989E+06    -5.50538E+06     119.267E+06     100.984E+06    -473.293E+03         59.7183
             904     14.2269E-03     22.0344E-03         1.81889         1.65203        -5.76538         1.65198        -5.76533         1.81889    -32.0898E-03     249.886E-03    -118.106E-03    -131.907E-03    -117.045E-03     235.024E-03    -118.106E-03     143.146E-03     112.813E+06     101.288E+06    -12.1508E+06    -12.1494E+06     112.812E+06     101.288E+06     181.656E+03         57.6795
             905     13.3392E-03     21.9092E-03         1.83072         1.68275        -5.81070         1.68266        -5.81061         1.83072    -50.5668E-03     243.368E-03    -118.090E-03    -125.384E-03    -116.132E-03     234.116E-03    -118.090E-03     114.809E-03     106.037E+06     98.8946E+06    -20.3915E+06    -20.3852E+06     106.030E+06     98.8946E+06    -189.854E+03         55.9458
             906     12.4506E-03     21.7572E-03         1.84165         1.71180        -5.84550         1.71174        -5.84544         1.84165    -39.8117E-03     242.623E-03    -117.922E-03    -124.628E-03    -115.790E-03     233.785E-03    -117.922E-03     111.708E-03     102.587E+06     83.2870E+06    -28.8205E+06    -28.8007E+06     102.567E+06     83.2870E+06    -708.137E+03         54.4962
             907     11.5620E-03     21.6487E-03         1.85218         1.72771        -5.87354         1.72769        -5.87351         1.85218    -24.8046E-03     238.472E-03    -117.750E-03    -120.669E-03    -115.282E-03     233.085E-03    -117.750E-03     86.7562E-03     100.796E+06     58.7415E+06    -35.6523E+06    -35.6119E+06     100.756E+06     58.7415E+06     1.01120E+06         52.7208
             908     10.6728E-03     21.5578E-03         1.86267         1.74425        -5.90455         1.74421        -5.90451         1.86267     13.1532E-03     235.983E-03    -117.467E-03    -118.514E-03    -115.243E-03     232.896E-03    -117.651E-03     64.7909E-03     92.8885E+06     36.3103E+06    -41.5578E+06    -41.5204E+06     92.8511E+06     36.3103E+06     2.19922E+06         50.5342
             909     9.78203E-03     21.4988E-03         1.87300         1.76523        -5.93850         1.76516        -5.93843         1.87300     468.605E-06     234.812E-03    -117.218E-03    -117.611E-03    -115.733E-03     233.324E-03    -117.608E-03     44.8896E-03     50.0324E+06     12.1664E+06    -48.1305E+06    -48.1009E+06     42.1613E+06     20.0078E+06     1.16966E+06         48.3250
             910     8.89430E-03     21.4541E-03         1.88295         1.78787        -5.97296         1.78783        -5.97291         1.88295    -33.2714E-03     235.243E-03    -117.377E-03    -117.910E-03    -116.963E-03     234.502E-03    -117.582E-03     31.8548E-03     7.26159E+06    -30.7476E+06    -60.7748E+06    -55.4846E+06    -36.0378E+06     7.26159E+06     507.900E+03         46.3791
             911     8.00630E-03     21.4236E-03         1.89145         1.82760        -6.02063         1.82759        -6.02062         1.89145    -12.0438E-03     235.477E-03    -117.454E-03    -118.075E-03    -117.696E-03     235.098E-03    -117.454E-03     22.7513E-03    -3.39748E+06    -62.2944E+06    -94.7144E+06    -62.3224E+06    -94.6863E+06    -3.39748E+06     731.953E+03         44.7434
             912     7.11878E-03     21.4006E-03         1.89709         1.86579        -6.06517         1.86576        -6.06514         1.89709    -23.8483E-03     234.710E-03    -117.170E-03    -117.585E-03    -117.295E-03     234.539E-03    -117.289E-03     15.0526E-03    -13.8260E+06    -68.9589E+06    -142.409E+06    -68.9796E+06    -142.388E+06    -13.8260E+06     598.466E+03         43.3710
             913     6.22987E-03     21.3872E-03         1.90147         1.86873        -6.07208         1.86869        -6.07204         1.90147    -32.0095E-03     233.868E-03    -116.727E-03    -117.170E-03    -116.666E-03     233.806E-03    -117.170E-03     8.93058E-03    -24.0895E+06    -75.9205E+06    -181.864E+06    -75.9231E+06    -181.861E+06    -24.0895E+06    -147.867E+03         42.2434
             914     5.33866E-03     21.3789E-03         1.90787         1.85974        -6.07027         1.85961        -6.07014         1.90787    -51.2489E-03     233.727E-03    -116.615E-03    -117.144E-03    -116.597E-03     233.709E-03    -117.144E-03     4.56554E-03    -34.0746E+06    -84.3489E+06    -222.943E+06    -84.3502E+06    -222.942E+06    -34.0746E+06    -331.906E+03         41.3384
             915     4.44910E-03     21.3768E-03         1.91520         1.88229        -6.10028         1.88212        -6.10010         1.91520    -14.9899E-03     233.854E-03    -116.756E-03    -117.138E-03    -116.793E-03     233.851E-03    -117.098E-03     1.33610E-03    -48.3948E+06    -93.3018E+06    -255.040E+06    -93.3064E+06    -255.035E+06    -48.3948E+06    -551.438E+03         40.6149
             916     3.56047E-03     21.3775E-03         1.92406         1.91151        -6.13654         1.91662        -6.13637         1.91878     66.3646E-03     233.629E-03    -116.640E-03    -117.023E-03    -116.679E-03     233.628E-03    -116.982E-03    -812.232E-06    -68.4481E+06    -102.367E+06    -271.075E+06    -102.377E+06    -271.065E+06    -68.4481E+06    -1.13554E+06         40.0539
             917     2.66991E-03     21.3790E-03         1.92946         1.91369        -6.14597         1.92518        -6.14582         1.91782     22.5958E-03     233.499E-03    -116.580E-03    -116.947E-03    -116.601E-03     233.497E-03    -116.923E-03    -1.65155E-03    -88.5163E+06    -110.229E+06    -285.651E+06    -110.237E+06    -285.643E+06    -88.5163E+06    -685.736E+03         39.6450
             918     1.77905E-03     21.3823E-03         1.92877         1.90389        -6.13990         1.91538        -6.13961         1.91700     28.5538E-03     233.601E-03    -116.502E-03    -117.127E-03    -116.729E-03     233.598E-03    -116.897E-03    -1.58712E-03    -104.936E+06    -116.915E+06    -297.657E+06    -116.922E+06    -297.650E+06    -104.936E+06     602.638E+03         39.3690
             919     889.281E-06     21.3841E-03         2.75723         1.07657        -6.15594         1.08144        -6.15540         2.75182     105.354E-03     233.657E-03    -116.151E-03    -117.530E-03    -117.270E-03     233.654E-03    -116.409E-03    -831.512E-06    -117.613E+06    -122.953E+06    -305.909E+06    -122.711E+06    -305.901E+06    -117.864E+06     762.565E+03         39.2112
             920     15.1169E-03     20.9916E-03         1.81747         1.62537        -5.76452         1.62530        -5.76445         1.81747    -15.6190E-03     246.955E-03    -117.059E-03    -129.921E-03    -117.436E-03     235.458E-03    -118.047E-03     106.450E-03     119.871E+06     100.261E+06    -6.39246E+06    -6.38609E+06     119.864E+06     100.261E+06    -666.975E+03         59.7053
             921     14.2302E-03     20.7655E-03         1.82936         1.65762        -5.80411         1.65758        -5.80407         1.82936    -12.9228E-03     250.791E-03    -118.055E-03    -132.868E-03    -117.933E-03     235.856E-03    -118.055E-03     143.873E-03     112.581E+06     100.679E+06    -12.9432E+06    -12.9394E+06     112.577E+06     100.679E+06    -19.1911E+03         57.6496
             922     13.3408E-03     20.6418E-03         1.84066         1.68816        -5.84671         1.68812        -5.84667         1.84066    -34.6548E-03     242.948E-03    -118.018E-03    -125.072E-03    -115.811E-03     233.687E-03    -118.018E-03     114.736E-03     106.230E+06     98.8077E+06    -20.2566E+06    -20.2536E+06     106.227E+06     98.8077E+06     502.516E+03         55.8866
             923     12.4497E-03     20.4922E-03         1.85125         1.71712        -5.88500         1.71708        -5.88496         1.85125    -25.4121E-03     242.362E-03    -117.854E-03    -124.440E-03    -115.698E-03     233.619E-03    -117.854E-03     110.912E-03     101.995E+06     81.1981E+06    -29.3017E+06    -29.2840E+06     101.977E+06     81.1981E+06    -29.4876E+03         54.4173
             924     11.5619E-03     20.3778E-03         1.86128         1.74101        -5.92119         1.74098        -5.92116         1.86128    -22.1683E-03     239.529E-03    -117.621E-03    -121.853E-03    -116.759E-03     234.435E-03    -117.621E-03     84.4321E-03     98.8107E+06     56.1204E+06    -37.0967E+06    -37.0543E+06     98.7683E+06     56.1204E+06    -380.889E+03         52.6370
             925     10.6753E-03     20.2934E-03         1.87063         1.76749        -5.96125         1.76746        -5.96122         1.87063     967.870E-06     237.110E-03    -117.359E-03    -119.744E-03    -116.960E-03     234.345E-03    -117.378E-03     61.4873E-03     93.2642E+06     36.1883E+06    -43.0700E+06    -43.0344E+06     93.2286E+06     36.1883E+06     655.581E+03         50.4308
             926     9.78814E-03     20.2315E-03         1.87937         1.78694        -5.99296         1.78690        -5.99292         1.87937     103.288E-06     235.213E-03    -117.160E-03    -118.069E-03    -116.775E-03     233.937E-03    -117.179E-03     41.5664E-03     50.9387E+06     13.2356E+06    -49.0780E+06    -49.0412E+06     43.8784E+06     20.2592E+06     1.63033E+06         48.1827
             927     8.89875E-03     20.1888E-03         1.88773         1.80678        -6.02139         1.80674        -6.02135         1.88773    -34.4700E-03     234.708E-03    -117.047E-03    -117.707E-03    -117.099E-03     234.100E-03    -117.047E-03     28.8773E-03     6.50485E+06    -29.5388E+06    -60.2773E+06    -55.1180E+06    -34.6981E+06     6.50485E+06     1.55106E+06         46.2038
             928     8.01089E-03     20.1553E-03         1.89511         1.83533        -6.05564         1.83530        -6.05561         1.89511    -22.0454E-03     234.425E-03    -116.877E-03    -117.598E-03    -117.304E-03     234.130E-03    -116.877E-03     19.7224E-03    -4.54405E+06    -61.4736E+06    -94.8687E+06    -61.6252E+06    -94.7171E+06    -4.54405E+06     1.28003E+06         44.5560
             929     7.12189E-03     20.1375E-03         1.90134         1.85466        -6.08163         1.85463        -6.08159         1.90134    -27.0564E-03     233.686E-03    -116.643E-03    -117.080E-03    -116.915E-03     233.571E-03    -116.693E-03     12.0653E-03    -13.9863E+06    -68.2064E+06    -141.485E+06    -68.2452E+06    -141.446E+06    -13.9863E+06     1.12455E+06         43.1858
             930     6.23182E-03     20.1234E-03         1.90671         1.87274        -6.10758         1.87268        -6.10752         1.90671    -39.0255E-03     232.934E-03    -116.291E-03    -116.662E-03    -116.376E-03     232.895E-03    -116.537E-03     6.42431E-03    -25.0435E+06    -76.1554E+06    -180.611E+06    -76.1752E+06    -180.591E+06    -25.0435E+06     602.994E+03         42.0618
             931     5.34266E-03     20.1184E-03         1.91126         1.88634        -6.12806         1.88616        -6.12788         1.91126    -63.7697E-03     232.628E-03    -116.103E-03    -116.550E-03    -116.180E-03     232.620E-03    -116.465E-03     1.93157E-03    -35.6752E+06    -84.5879E+06    -222.499E+06    -84.5889E+06    -222.498E+06    -35.6752E+06    -177.842E+03         41.1601
             932     4.45224E-03     20.1136E-03         1.91689         1.88176        -6.13038         1.88156        -6.13018         1.91689    -42.7684E-03     232.363E-03    -115.939E-03    -116.460E-03    -115.977E-03     232.360E-03    -116.420E-03    -1.01117E-03    -49.1893E+06    -93.6637E+06    -254.633E+06    -93.6653E+06    -254.632E+06    -49.1893E+06    -434.461E+03         40.4433
             933     3.56155E-03     20.1160E-03         1.92566         1.89535        -6.15372         1.89720        -6.15366         1.92374     12.9649E-03     232.232E-03    -115.853E-03    -116.407E-03    -115.910E-03     232.228E-03    -116.346E-03    -2.12746E-03    -68.1549E+06    -102.875E+06    -270.876E+06    -102.879E+06    -270.872E+06    -68.1549E+06    -433.767E+03         39.8933
             934     2.67100E-03     20.1175E-03         1.93992         1.91945        -6.19018         1.93357        -6.19012         1.92573    -2.26269E-03     232.419E-03    -115.945E-03    -116.503E-03    -116.181E-03     232.412E-03    -116.260E-03    -2.87303E-03    -88.9243E+06    -111.609E+06    -286.307E+06    -111.615E+06    -286.301E+06    -88.9243E+06    -703.365E+03         39.4961
             935     1.78097E-03     20.1205E-03         1.94563         1.91735        -6.19742         1.94556        -6.19734         1.91735     5.58539E-03     232.452E-03    -115.921E-03    -116.567E-03    -116.422E-03     232.444E-03    -116.058E-03    -3.24587E-03    -106.032E+06    -118.625E+06    -299.039E+06    -118.636E+06    -299.028E+06    -106.032E+06    -546.886E+03         39.2251
             936     891.957E-06     20.1211E-03         2.65408         1.16678        -6.16344         1.18164        -6.16229         2.63806     125.937E-03     231.738E-03    -115.250E-03    -116.513E-03    -116.180E-03     231.734E-03    -115.579E-03    -1.70214E-03    -115.757E+06    -121.639E+06    -304.071E+06    -121.000E+06    -304.059E+06    -116.409E+06     75.8610E+03         39.0628
             937     15.1186E-03     19.7263E-03         1.82321         1.63995        -5.80692         1.63991        -5.80688         1.82321     997.406E-06     247.749E-03    -117.663E-03    -130.125E-03    -118.152E-03     236.142E-03    -118.030E-03     107.507E-03     121.695E+06     100.518E+06    -7.70021E+06    -7.69340E+06     121.688E+06     100.518E+06     282.645E+03         59.6829
             938     14.2280E-03     19.4958E-03         1.83421         1.66604        -5.83988         1.66599        -5.83983         1.83421    -17.0647E-03     251.181E-03    -118.005E-03    -133.262E-03    -118.287E-03     236.206E-03    -118.005E-03     144.045E-03     111.529E+06     99.2326E+06    -14.6941E+06    -14.6757E+06     111.510E+06     99.2326E+06    -498.101E+03         57.5934
             939     13.3404E-03     19.3766E-03         1.84490         1.69042        -5.87576         1.69038        -5.87573         1.84490    -31.6842E-03     243.857E-03    -117.903E-03    -126.095E-03    -117.200E-03     234.962E-03    -117.903E-03     112.918E-03     104.261E+06     97.0626E+06    -21.9408E+06    -21.9253E+06     104.246E+06     97.0626E+06    -474.620E+03         55.7838
             940     12.4534E-03     19.2245E-03         1.85519         1.71509        -5.91249         1.71506        -5.91246         1.85519    -19.3351E-03     243.461E-03    -117.610E-03    -125.844E-03    -117.584E-03     235.201E-03    -117.610E-03     108.267E-03     103.717E+06     82.3494E+06    -28.6049E+06    -28.5982E+06     103.710E+06     82.3494E+06     536.690E+03         54.2641
             941     11.5666E-03     19.1088E-03         1.86484         1.74512        -5.95695         1.74509        -5.95692         1.86484    -21.7809E-03     239.949E-03    -117.226E-03    -122.694E-03    -118.080E-03     235.335E-03    -117.226E-03     80.1838E-03     99.7219E+06     56.5024E+06    -36.2779E+06    -36.2542E+06     99.6982E+06     56.5024E+06     64.1916E+03         52.4404
             942     10.6805E-03     19.0241E-03         1.87363         1.77328        -5.99593         1.77323        -5.99588         1.87363    -3.65487E-03     237.483E-03    -116.825E-03    -120.657E-03    -118.351E-03     235.177E-03    -116.825E-03     56.2561E-03     91.1375E+06     33.6403E+06    -44.0119E+06    -43.9789E+06     91.1045E+06     33.6403E+06    -596.723E+03         50.2032
             943     9.79360E-03     18.9659E-03         1.88129         1.80433        -6.03429         1.80426        -6.03422         1.88129    -10.1004E-03     235.552E-03    -116.452E-03    -119.114E-03    -118.083E-03     234.521E-03    -116.452E-03     37.0710E-03     49.0119E+06     12.2530E+06    -49.4370E+06    -49.3822E+06     42.8917E+06     18.3184E+06     819.577E+03         47.9217
             944     8.90690E-03     18.9231E-03         1.88790         1.82526        -6.06340         1.82518        -6.06332         1.88790    -50.6162E-03     233.914E-03    -116.176E-03    -117.772E-03    -117.341E-03     233.484E-03    -116.176E-03     23.9495E-03     6.08737E+06    -28.3016E+06    -59.6756E+06    -54.4790E+06    -33.4982E+06     6.08737E+06     2.27416E+06         45.9082
             945     8.01732E-03     18.8929E-03         1.89472         1.82791        -6.07223         1.82780        -6.07213         1.89472    -51.6448E-03     232.760E-03    -115.937E-03    -116.869E-03    -116.693E-03     232.583E-03    -115.937E-03     14.6168E-03    -5.05644E+06    -61.0659E+06    -94.0509E+06    -61.4449E+06    -93.6720E+06    -5.05644E+06     2.15755E+06         44.2414
             946     7.12828E-03     18.8736E-03         1.90224         1.84125        -6.09418         1.84111        -6.09404         1.90224    -61.3905E-03     232.218E-03    -115.698E-03    -116.542E-03    -116.497E-03     232.174E-03    -115.698E-03     6.15895E-03    -15.2637E+06    -69.2702E+06    -140.683E+06    -69.3503E+06    -140.603E+06    -15.2637E+06     1.92058E+06         42.8778
             947     6.23885E-03     18.8634E-03         1.90869         1.87189        -6.13579         1.87175        -6.13565         1.90869    -66.0653E-03     231.456E-03    -115.464E-03    -115.995E-03    -115.985E-03     231.446E-03    -115.464E-03     911.111E-06    -26.1100E+06    -77.0237E+06    -179.079E+06    -77.0633E+06    -179.040E+06    -26.1100E+06     1.74830E+06         41.7706
             948     5.34830E-03     18.8554E-03         1.91252         1.89833        -6.16817         1.89819        -6.16804         1.91252    -64.5172E-03     230.643E-03    -115.232E-03    -115.438E-03    -115.341E-03     230.634E-03    -115.319E-03    -2.22952E-03    -37.2938E+06    -85.1102E+06    -221.036E+06    -85.1248E+06    -221.021E+06    -37.2938E+06     690.095E+03         40.8790
             949     4.45745E-03     18.8559E-03         1.92157         1.89670        -6.17644         1.90324        -6.17629         1.91488    -19.7400E-03     230.162E-03    -114.840E-03    -115.358E-03    -114.938E-03     230.143E-03    -115.242E-03    -4.52870E-03    -50.4608E+06    -93.8585E+06    -253.718E+06    -93.8605E+06    -253.716E+06    -50.4608E+06    -105.438E+03         40.1717
             950     3.56493E-03     18.8556E-03         1.92519         1.89240        -6.17596         1.89895        -6.17583         1.91850     28.3123E-03     230.071E-03    -114.817E-03    -115.276E-03    -114.928E-03     230.045E-03    -115.139E-03    -5.58906E-03    -68.0634E+06    -103.155E+06    -270.557E+06    -103.157E+06    -270.555E+06    -68.0634E+06    -94.0130E+03         39.6337
             951     2.67446E-03     18.8579E-03         1.92864         1.90633        -6.19287         1.91217        -6.19281         1.92274     26.4010E-03     230.060E-03    -114.837E-03    -115.249E-03    -115.058E-03     230.038E-03    -115.006E-03    -5.30661E-03    -88.3231E+06    -111.800E+06    -285.875E+06    -111.803E+06    -285.872E+06    -88.3231E+06    -99.9535E+03         39.2449
             952     1.78419E-03     18.8604E-03         1.94040         1.90997        -6.20896         1.92642        -6.20890         1.92390     38.5414E-03     229.716E-03    -114.581E-03    -115.172E-03    -114.871E-03     229.705E-03    -114.871E-03    -3.86876E-03    -107.459E+06    -119.476E+06    -299.460E+06    -119.484E+06    -299.452E+06    -107.459E+06    -782.647E+03         38.9824
             953     891.139E-06     18.8652E-03         2.56242         1.28570        -6.20793         1.29489        -6.20651         2.55181     161.348E-03     229.551E-03    -114.321E-03    -115.251E-03    -114.788E-03     229.547E-03    -114.779E-03    -2.34081E-03    -119.508E+06    -125.368E+06    -306.285E+06    -122.973E+06    -306.277E+06    -121.910E+06    -1.07205E+06         38.8341
             954     15.1177E-03     18.4556E-03         1.82602         1.65450        -5.83894         1.65446        -5.83890         1.82602    -23.3551E-03     248.291E-03    -117.793E-03    -130.574E-03    -118.982E-03     236.898E-03    -117.991E-03     107.855E-03     121.380E+06     101.237E+06    -5.43330E+06    -5.42776E+06     121.375E+06     101.237E+06     743.963E+03         59.6501
             955     14.2312E-03     18.2324E-03         1.83605         1.68184        -5.87908         1.68175        -5.87899         1.83605    -49.9944E-03     252.433E-03    -117.870E-03    -134.634E-03    -120.116E-03     237.915E-03    -117.870E-03     142.131E-03     112.502E+06     100.112E+06    -12.4383E+06    -12.4053E+06     112.469E+06     100.112E+06     436.648E+03         57.5039
             956     13.3436E-03     18.1023E-03         1.84564         1.70372        -5.91817         1.70363        -5.91808         1.84564    -50.5750E-03     245.615E-03    -117.605E-03    -128.161E-03    -119.899E-03     237.353E-03    -117.605E-03     109.581E-03     104.588E+06     97.8781E+06    -20.3436E+06    -20.3085E+06     104.553E+06     97.8781E+06    -411.783E+03         55.6111
             957     12.4597E-03     17.9560E-03         1.85471         1.72881        -5.95476         1.72873        -5.95469         1.85471    -42.2210E-03     245.072E-03    -117.091E-03    -128.040E-03    -120.516E-03     237.548E-03    -117.091E-03     103.923E-03     103.471E+06     83.1341E+06    -28.4382E+06    -28.4313E+06     103.464E+06     83.1341E+06    -183.264E+03         54.0034
             958     11.5754E-03     17.8366E-03         1.86335         1.74868        -5.98644         1.74863        -5.98639         1.86335    -35.0176E-03     240.690E-03    -116.461E-03    -124.247E-03    -120.226E-03     236.670E-03    -116.461E-03     74.7763E-03     100.438E+06     56.5968E+06    -35.6366E+06    -35.6311E+06     100.432E+06     56.5968E+06     519.387E+03         52.1062
             959     10.6902E-03     17.7567E-03         1.87168         1.77065        -6.01716         1.77060        -6.01711         1.87168    -13.4304E-03     237.466E-03    -115.831E-03    -121.661E-03    -119.908E-03     235.712E-03    -115.831E-03     48.4488E-03     91.1323E+06     32.2621E+06    -42.7720E+06    -42.7192E+06     91.0795E+06     32.2621E+06     780.909E+03         49.8241
             960     9.80485E-03     17.6965E-03         1.87928         1.79961        -6.05123         1.79948        -6.05110         1.87928    -36.5049E-03     235.046E-03    -115.242E-03    -119.817E-03    -119.191E-03     234.420E-03    -115.242E-03     27.8628E-03     47.2333E+06     10.6919E+06    -50.2934E+06    -50.2097E+06     42.0364E+06     15.8050E+06     1.47879E+06         47.5170
             961     8.91812E-03     17.6606E-03         1.88612         1.81911        -6.08059         1.81896        -6.08044         1.88612    -66.5380E-03     232.967E-03    -114.752E-03    -118.232E-03    -118.042E-03     232.778E-03    -114.752E-03     14.5342E-03     3.64811E+06    -30.1871E+06    -60.7787E+06    -57.0233E+06    -33.9424E+06     3.64811E+06     2.22315E+06         45.4795
             962     8.02979E-03     17.6311E-03         1.89287         1.84103        -6.11217         1.84160        -6.11205         1.89220    -51.2308E-03     231.017E-03    -114.317E-03    -116.727E-03    -116.664E-03     230.954E-03    -114.317E-03     5.22418E-03    -6.66900E+06    -62.4402E+06    -92.3571E+06    -63.0418E+06    -91.7554E+06    -6.66900E+06     3.03780E+06         43.7876
             963     7.13997E-03     17.6128E-03         1.89764         1.86362        -6.13954         1.86418        -6.13943         1.89696    -40.2721E-03     229.417E-03    -113.959E-03    -115.476E-03    -115.447E-03     229.387E-03    -113.959E-03    -2.31028E-03    -17.0242E+06    -69.5554E+06    -139.372E+06    -69.6987E+06    -139.228E+06    -17.0242E+06     2.79764E+06         42.4129
             964     6.24978E-03     17.6043E-03         1.90119         1.86957        -6.15215         1.86948        -6.15205         1.90119    -35.9354E-03     228.346E-03    -113.662E-03    -114.703E-03    -114.659E-03     228.302E-03    -113.662E-03    -6.35336E-03    -27.3021E+06    -77.2411E+06    -177.993E+06    -77.2995E+06    -177.935E+06    -27.3021E+06     2.37068E+06         41.3162
             965     5.35773E-03     17.6005E-03         1.90520         1.88369        -6.17277         1.88360        -6.17268         1.90520    -46.4719E-03     227.479E-03    -113.396E-03    -114.104E-03    -113.989E-03     227.407E-03    -113.440E-03    -8.85497E-03    -38.2555E+06    -85.7988E+06    -218.603E+06    -85.8403E+06    -218.562E+06    -38.2555E+06     2.06633E+06         40.4423
             966     4.46462E-03     17.5988E-03         1.92071         1.90159        -6.20224         1.91625        -6.20214         1.90595    -3.62996E-03     226.946E-03    -113.213E-03    -113.746E-03    -113.618E-03     226.860E-03    -113.257E-03    -10.1390E-03    -52.2958E+06    -95.0189E+06    -252.589E+06    -95.0341E+06    -252.574E+06    -52.2958E+06     1.20913E+06         39.7494
             967     3.57409E-03     17.6005E-03         1.92041         1.89886        -6.19707         1.91576        -6.19694         1.90338     50.7225E-03     226.254E-03    -112.977E-03    -113.293E-03    -113.140E-03     226.182E-03    -113.058E-03    -9.63586E-03    -70.1554E+06    -104.290E+06    -270.041E+06    -104.297E+06    -270.034E+06    -70.1554E+06     694.623E+03         39.2220
             968     2.68014E-03     17.6035E-03         1.90816         1.87951        -6.16595         1.88168        -6.16585         1.90590     14.6678E-03     225.553E-03    -112.607E-03    -112.973E-03    -112.554E-03     225.500E-03    -112.973E-03    -8.23778E-03    -90.3934E+06    -112.956E+06    -285.500E+06    -112.962E+06    -285.495E+06    -90.3934E+06     342.474E+03         38.8426
             969     1.78476E-03     17.6063E-03         1.91823         1.88524        -6.17852         1.88516        -6.17845         1.91823     12.0920E-03     225.597E-03    -112.577E-03    -113.055E-03    -112.542E-03     225.562E-03    -113.055E-03    -6.36650E-03    -108.874E+06    -119.775E+06    -298.759E+06    -119.777E+06    -298.756E+06    -108.874E+06    -103.625E+03         38.5970
             970     892.722E-06     17.6087E-03         2.45345         1.40025        -6.23679         1.39901        -6.23555         2.45345     154.725E-03     226.208E-03    -112.756E-03    -113.469E-03    -113.264E-03     226.194E-03    -112.947E-03    -3.53765E-03    -120.159E+06    -127.187E+06    -307.162E+06    -125.439E+06    -307.160E+06    -121.910E+06    -402.439E+03         38.4718
             971     15.1190E-03     17.1874E-03         1.82649         1.66731        -5.87731         1.66728        -5.87727         1.82649    -29.4048E-03     250.260E-03    -117.722E-03    -132.576E-03    -121.261E-03     239.100E-03    -117.877E-03     108.883E-03     120.112E+06     100.932E+06    -6.08526E+06    -6.08427E+06     120.111E+06     100.932E+06     109.510E+03         59.6173
             972     14.2336E-03     16.9562E-03         1.83542         1.69069        -5.91085         1.69056        -5.91071         1.83542    -61.0221E-03     255.410E-03    -117.548E-03    -137.855E-03    -124.006E-03     241.562E-03    -117.548E-03     139.338E-03     113.496E+06     101.100E+06    -11.8408E+06    -11.8217E+06     113.477E+06     101.100E+06     468.232E+03         57.4028
             973     13.3522E-03     16.8345E-03         1.84393         1.71331        -5.94903         1.71312        -5.94885         1.84393    -74.8990E-03     248.066E-03    -116.988E-03    -131.127E-03    -123.740E-03     240.680E-03    -116.988E-03     104.406E-03     106.600E+06     99.1710E+06    -19.0474E+06    -19.0170E+06     106.570E+06     99.1710E+06     598.967E+03         55.3893
             974     12.4697E-03     16.6799E-03         1.85177         1.74208        -5.98620         1.74193        -5.98606         1.85177    -66.9883E-03     246.408E-03    -116.153E-03    -130.271E-03    -123.860E-03     239.997E-03    -116.153E-03     95.9227E-03     102.970E+06     82.8023E+06    -27.8905E+06    -27.8672E+06     102.946E+06     82.8023E+06    -210.438E+03         53.6631
             975     11.5889E-03     16.5700E-03         1.85907         1.75917        -6.01192         1.75908        -6.01183         1.85907    -51.0546E-03     241.676E-03    -115.180E-03    -126.534E-03    -123.455E-03     238.597E-03    -115.180E-03     65.3918E-03     99.0095E+06     55.4923E+06    -35.6693E+06    -35.6245E+06     98.9647E+06     55.4923E+06     584.986E+03         51.6836
             976     10.7075E-03     16.4836E-03         1.86636         1.77325        -6.03577         1.77320        -6.03572         1.86636    -38.7930E-03     237.912E-03    -114.189E-03    -123.778E-03    -122.645E-03     236.779E-03    -114.189E-03     37.2437E-03     91.6917E+06     32.9168E+06    -42.4863E+06    -42.4101E+06     91.6155E+06     32.9168E+06     2.42879E+06         49.3467
             977     9.82447E-03     16.4324E-03         1.87342         1.79558        -6.06459         1.79548        -6.06449         1.87342    -48.1070E-03     234.135E-03    -113.255E-03    -120.908E-03    -120.673E-03     233.900E-03    -113.255E-03     14.4536E-03     47.5559E+06     12.6095E+06    -49.3662E+06    -49.2040E+06     43.7913E+06     16.2119E+06     3.02829E+06         47.0020
             978     8.93776E-03     16.3967E-03         1.87934         1.82601        -6.10272         1.82589        -6.10259         1.87934    -58.7277E-03     231.055E-03    -112.452E-03    -118.619E-03    -118.567E-03     231.003E-03    -112.452E-03     1.53420E-03     1.83763E+06    -29.1563E+06    -60.3091E+06    -56.2984E+06    -33.1670E+06     1.83763E+06     2.84760E+06         44.9277
             979     8.05114E-03     16.3713E-03         1.88385         1.85727        -6.14203         1.85786        -6.14194         1.88317    -46.1990E-03     228.184E-03    -111.749E-03    -116.443E-03    -116.361E-03     228.102E-03    -111.749E-03    -7.28241E-03    -8.44853E+06    -62.1959E+06    -91.6584E+06    -62.8516E+06    -91.0028E+06    -8.44853E+06     3.43703E+06         43.1951
             980     7.16012E-03     16.3586E-03         1.88620         1.86719        -6.15656         1.86775        -6.15644         1.88552    -38.4890E-03     225.425E-03    -111.198E-03    -114.216E-03    -114.048E-03     225.257E-03    -111.198E-03    -13.5815E-03    -18.1880E+06    -68.9810E+06    -137.457E+06    -69.2762E+06    -137.162E+06    -18.1880E+06     4.18500E+06         41.7883
             981     6.26584E-03     16.3504E-03         1.88818         1.86541        -6.16108         1.86514        -6.16081         1.88818    -61.8912E-03     223.707E-03    -110.765E-03    -112.915E-03    -112.657E-03     223.449E-03    -110.765E-03    -17.2447E-03    -28.6830E+06    -76.8918E+06    -175.830E+06    -77.0618E+06    -175.660E+06    -28.6830E+06     3.82739E+06         40.6777
             982     5.37341E-03     16.3476E-03         1.89153         1.87085        -6.17299         1.87056        -6.17269         1.89153    -80.4759E-03     222.457E-03    -110.417E-03    -112.008E-03    -111.724E-03     222.174E-03    -110.417E-03    -18.5425E-03    -39.6652E+06    -86.2434E+06    -215.979E+06    -86.3524E+06    -215.870E+06    -39.6652E+06     3.60372E+06         39.8082
             983     4.48009E-03     16.3479E-03         1.90289         1.87139        -6.18560         1.87935        -6.18548         1.89481    -44.0484E-03     221.124E-03    -110.152E-03    -110.942E-03    -110.700E-03     220.882E-03    -110.152E-03    -17.4218E-03    -54.5175E+06    -95.7358E+06    -251.058E+06    -95.7978E+06    -250.996E+06    -54.5175E+06     2.78551E+06         39.1265
             984     3.58278E-03     16.3503E-03         1.90804         1.87670        -6.19264         1.88695        -6.19255         1.89770     30.8898E-03     220.114E-03    -109.878E-03    -110.226E-03    -109.959E-03     219.920E-03    -109.952E-03    -15.3916E-03    -72.8014E+06    -104.391E+06    -269.410E+06    -104.410E+06    -269.390E+06    -72.8014E+06     1.73611E+06         38.6123
             985     2.68732E-03     16.3543E-03         1.90522         1.87739        -6.18819         1.87936        -6.18790         1.90296    -18.7936E-03     219.658E-03    -109.650E-03    -110.029E-03    -109.699E-03     219.526E-03    -109.849E-03    -12.6568E-03    -91.9092E+06    -112.423E+06    -283.944E+06    -112.452E+06    -283.914E+06    -91.9092E+06     1.66904E+06         38.2499
             986     1.79288E-03     16.3570E-03         1.91403         1.88580        -6.20261         1.88540        -6.20220         1.91403    -79.7597E-03     219.527E-03    -109.613E-03    -109.943E-03    -109.686E-03     219.457E-03    -109.800E-03    -9.39327E-03    -108.733E+06    -119.742E+06    -296.892E+06    -119.764E+06    -296.870E+06    -108.733E+06     795.619E+03         38.0187
             987     895.775E-06     16.3589E-03         2.33601         1.50734        -6.25495         1.50623        -6.25385         2.33601     28.3934E-03     219.526E-03    -109.563E-03    -109.969E-03    -109.881E-03     219.501E-03    -109.625E-03    -5.24840E-03    -119.645E+06    -127.533E+06    -306.117E+06    -125.760E+06    -306.116E+06    -121.418E+06    -35.9097E+03         37.8980
             988     15.1216E-03     15.9129E-03         1.82354         1.68237        -5.91057         1.68234        -5.91054         1.82354    -21.9248E-03     254.478E-03    -117.632E-03    -136.892E-03    -126.064E-03     243.650E-03    -117.632E-03     110.371E-03     120.511E+06     101.189E+06    -6.74405E+06    -6.73556E+06     120.502E+06     101.189E+06     104.100E+03         59.6023
             989     14.2432E-03     15.6811E-03         1.83104         1.69837        -5.93380         1.69827        -5.93369         1.83104    -53.1702E-03     259.124E-03    -116.969E-03    -142.109E-03    -129.122E-03     246.138E-03    -116.969E-03     135.688E-03     112.152E+06     100.076E+06    -13.4083E+06    -13.4025E+06     112.146E+06     100.076E+06    -332.438E+03         57.3349
             990     13.3649E-03     15.5547E-03         1.83829         1.71612        -5.96025         1.71595        -5.96008         1.83829    -69.4416E-03     251.235E-03    -116.017E-03    -135.156E-03    -128.643E-03     244.722E-03    -116.017E-03     99.1017E-03     106.100E+06     97.6501E+06    -21.1792E+06    -21.1659E+06     106.087E+06     97.6501E+06     168.686E+03         55.1988
             991     12.4900E-03     15.4061E-03         1.84514         1.73866        -5.98880         1.73852        -5.98866         1.84514    -61.0485E-03     249.427E-03    -114.729E-03    -134.582E-03    -129.171E-03     244.016E-03    -114.729E-03     88.5333E-03     103.468E+06     82.9705E+06    -28.0137E+06    -27.9639E+06     103.418E+06     82.9705E+06     635.471E+03         53.3454
             992     11.6117E-03     15.2950E-03         1.85144         1.76174        -6.02021         1.76167        -6.02013         1.85144    -42.2754E-03     243.617E-03    -113.249E-03    -130.318E-03    -128.185E-03     241.485E-03    -113.249E-03     53.9722E-03     98.2821E+06     56.2449E+06    -35.7485E+06    -35.6759E+06     98.2095E+06     56.2449E+06     1.47913E+06         51.2749
             993     10.7341E-03     15.2130E-03         1.85747         1.77769        -6.04927         1.77764        -6.04923         1.85747    -35.9672E-03     237.964E-03    -111.750E-03    -126.249E-03    -125.680E-03     237.394E-03    -111.750E-03     23.5063E-03     90.4141E+06     32.2664E+06    -42.7265E+06    -42.6701E+06     90.3578E+06     32.2664E+06     2.21314E+06         48.8654
             994     9.85296E-03     15.1680E-03         1.86283         1.80607        -6.08407         1.80591        -6.08391         1.86283    -56.5548E-03     233.082E-03    -110.356E-03    -122.751E-03    -122.670E-03     233.001E-03    -110.356E-03     91.3320E-06     46.8497E+06     13.9014E+06    -48.6432E+06    -48.4538E+06     45.3497E+06     15.2120E+06     3.29124E+06         46.4624
             995     8.96908E-03     15.1381E-03         1.86683         1.83111        -6.11287         1.83086        -6.11263         1.86683    -78.3555E-03     228.622E-03    -109.138E-03    -119.479E-03    -119.292E-03     228.435E-03    -109.138E-03    -13.1727E-03     1.43133E+06    -24.5346E+06    -59.4271E+06    -54.5032E+06    -29.4585E+06     1.43133E+06     4.69751E+06         44.3284
             996     8.07860E-03     15.1182E-03         1.87055         1.83137        -6.12092         1.83117        -6.12072         1.87055    -76.6953E-03     224.389E-03    -108.061E-03    -116.290E-03    -115.837E-03     223.937E-03    -108.061E-03    -22.6025E-03    -9.66051E+06    -59.4853E+06    -91.4574E+06    -61.3697E+06    -89.5729E+06    -9.66051E+06     4.87968E+06         42.5264
             997     7.18749E-03     15.1091E-03         1.87448         1.84463        -6.14004         1.84443        -6.13984         1.87448    -76.2202E-03     220.659E-03    -107.164E-03    -113.427E-03    -112.752E-03     219.985E-03    -107.164E-03    -28.5084E-03    -20.2691E+06    -68.7345E+06    -136.321E+06    -69.2264E+06    -135.829E+06    -20.2691E+06     5.66118E+06         41.0505
             998     6.29514E-03     15.1045E-03         1.87711         1.86643        -6.16726         1.86613        -6.16696         1.87711    -87.7567E-03     217.084E-03    -106.455E-03    -110.542E-03    -109.804E-03     216.347E-03    -106.455E-03    -30.2513E-03    -31.6467E+06    -76.8378E+06    -173.588E+06    -77.2739E+06    -173.152E+06    -31.6467E+06     6.18945E+06         39.8800
             999     5.39744E-03     15.1036E-03         1.87910         1.86505        -6.17002         1.86475        -6.16972         1.87910    -88.1787E-03     214.527E-03    -105.977E-03    -108.456E-03    -107.748E-03     213.819E-03    -105.977E-03    -29.5574E-03    -41.6316E+06    -85.1618E+06    -213.163E+06    -85.4351E+06    -212.889E+06    -41.6316E+06     5.72292E+06         38.9786
            1000     4.49797E-03     15.1064E-03         1.88377         1.84936        -6.16024         1.84924        -6.16013         1.88377    -41.3210E-03     212.841E-03    -105.641E-03    -107.115E-03    -106.507E-03     212.233E-03    -105.641E-03    -27.0656E-03    -54.9627E+06    -94.6380E+06    -247.447E+06    -94.8302E+06    -247.255E+06    -54.9627E+06     5.09343E+06         38.2901
            1001     3.60010E-03     15.1104E-03         1.89210         1.85351        -6.18003         1.85338        -6.17990         1.89210     43.4003E-03     211.548E-03    -105.372E-03    -106.136E-03    -105.682E-03     211.093E-03    -105.372E-03    -23.4242E-03    -73.5991E+06    -104.951E+06    -267.203E+06    -105.056E+06    -267.098E+06    -73.5991E+06     3.64589E+06         37.7777
            1002     2.70025E-03     15.1149E-03         1.90918         1.88065        -6.22978         1.89143        -6.22947         1.89810     18.7739E-03     210.769E-03    -105.199E-03    -105.566E-03    -105.281E-03     210.484E-03    -105.199E-03    -18.4587E-03    -91.9096E+06    -113.440E+06    -281.885E+06    -113.493E+06    -281.832E+06    -91.9096E+06     2.25222E+06         37.4228
            1003     1.79936E-03     15.1167E-03         1.91510         1.88806        -6.24264         1.90543        -6.24214         1.89723    -32.9196E-03     210.335E-03    -105.064E-03    -105.272E-03    -105.132E-03     210.195E-03    -105.064E-03    -12.5946E-03    -108.132E+06    -119.801E+06    -294.411E+06    -119.831E+06    -294.381E+06    -108.132E+06     1.23910E+06         37.1953
            1004     900.665E-06     15.1206E-03         2.21146         1.57942        -6.23961         1.58571        -6.23910         2.20467     303.810E-06     209.992E-03    -104.762E-03    -105.227E-03    -105.181E-03     209.947E-03    -104.762E-03    -6.84756E-03    -119.904E+06    -127.279E+06    -304.684E+06    -125.520E+06    -304.670E+06    -121.678E+06     1.05939E+06         37.0685
            1005     15.1281E-03     14.6337E-03         1.81753         1.69334        -5.93418         1.69329        -5.93412         1.81753    -16.6670E-03     260.621E-03    -117.284E-03    -143.378E-03    -132.718E-03     249.960E-03    -117.284E-03     113.190E-03     121.386E+06     102.772E+06    -5.83677E+06    -5.80619E+06     121.356E+06     102.772E+06     616.692E+03         59.6306
            1006     14.2546E-03     14.3960E-03         1.82356         1.71206        -5.95392         1.71193        -5.95380         1.82356    -59.0941E-03     263.999E-03    -116.190E-03    -147.866E-03    -135.536E-03     251.669E-03    -116.190E-03     133.233E-03     112.140E+06     100.569E+06    -12.5981E+06    -12.5672E+06     112.109E+06     100.569E+06     223.867E+03         57.3395
            1007     13.3819E-03     14.2760E-03         1.82930         1.72497        -5.97210         1.72470        -5.97183         1.82930    -83.9214E-03     255.475E-03    -114.761E-03    -140.766E-03    -134.966E-03     249.674E-03    -114.761E-03     94.6735E-03     105.637E+06     97.6374E+06    -20.4367E+06    -20.3984E+06     105.599E+06     97.6374E+06     335.783E+03         55.1052
            1008     12.5091E-03     14.1216E-03         1.83496         1.73987        -5.99524         1.73957        -5.99494         1.83496    -87.2220E-03     253.805E-03    -112.910E-03    -140.777E-03    -136.110E-03     249.138E-03    -112.910E-03     82.5742E-03     103.114E+06     82.8958E+06    -28.8877E+06    -28.8288E+06     103.055E+06     82.8958E+06     1.44394E+06         53.1373
            1009     11.6436E-03     14.0160E-03         1.84042         1.75802        -6.02640         1.75775        -6.02613         1.84042    -74.7035E-03     246.577E-03    -110.792E-03    -135.652E-03    -134.182E-03     245.107E-03    -110.792E-03     44.0966E-03     97.5145E+06     56.4152E+06    -36.4682E+06    -36.4263E+06     97.4726E+06     56.4152E+06     1.40529E+06         50.9843
            1010     10.7691E-03     13.9439E-03         1.84535         1.78346        -6.06353         1.78323        -6.06330         1.84535    -69.4774E-03     238.687E-03    -108.654E-03    -130.026E-03    -129.766E-03     238.426E-03    -108.654E-03     11.9273E-03     89.0827E+06     30.8403E+06    -42.2868E+06    -42.2534E+06     89.0493E+06     30.8403E+06     1.69075E+06         48.5014
            1011     9.88979E-03     13.9029E-03         1.84926         1.80851        -6.09274         1.80819        -6.09243         1.84926    -91.6553E-03     232.461E-03    -106.670E-03    -125.753E-03    -125.531E-03     232.238E-03    -106.670E-03    -13.1334E-03     46.0269E+06     12.5569E+06    -48.6130E+06    -48.2671E+06     45.5726E+06     12.6652E+06     3.99750E+06         46.0217
            1012     9.00652E-03     13.8815E-03         1.85278         1.81347        -6.10312         1.81315        -6.10280         1.85278    -91.6481E-03     226.653E-03    -104.876E-03    -121.703E-03    -121.042E-03     225.992E-03    -104.876E-03    -28.6621E-03     332.777E+03    -23.4781E+06    -59.6717E+06    -55.5893E+06    -26.5829E+06    -644.839E+03     6.39377E+06         43.7991
            1013     8.12063E-03     13.8699E-03         1.85704         1.81301        -6.11116         1.81282        -6.11097         1.85704    -71.5498E-03     220.212E-03    -103.246E-03    -116.890E-03    -115.772E-03     219.094E-03    -103.246E-03    -37.9195E-03    -12.4687E+06    -58.6367E+06    -90.9966E+06    -62.7585E+06    -86.8748E+06    -12.4687E+06     7.14669E+06         41.8896
            1014     7.22852E-03     13.8655E-03         1.86126         1.83203        -6.13335         1.83179        -6.13310         1.86126    -83.2949E-03     214.164E-03    -101.889E-03    -112.217E-03    -110.773E-03     212.721E-03    -101.889E-03    -42.8285E-03    -23.0842E+06    -68.3846E+06    -134.971E+06    -69.3912E+06    -133.964E+06    -23.0842E+06     7.39503E+06         40.2984
            1015     6.32965E-03     13.8684E-03         1.86435         1.84685        -6.15556         1.84659        -6.15530         1.86435    -83.2795E-03     208.928E-03    -100.815E-03    -108.073E-03    -106.534E-03     207.388E-03    -100.815E-03    -43.4048E-03    -34.4237E+06    -75.9614E+06    -171.113E+06    -76.6483E+06    -170.426E+06    -34.4237E+06     7.96086E+06         39.0191
            1016     5.42912E-03     13.8722E-03         1.86699         1.85091        -6.16332         1.85070        -6.16312         1.86699    -74.9080E-03     204.935E-03    -100.050E-03    -104.827E-03    -103.382E-03     203.490E-03    -100.050E-03    -41.5346E-03    -43.9374E+06    -83.4736E+06    -210.470E+06    -84.0741E+06    -209.869E+06    -43.9374E+06     8.45649E+06         38.0302
            1017     4.52746E-03     13.8763E-03         1.87187         1.85263        -6.17079         1.85448        -6.17071         1.86994    -40.2231E-03     202.073E-03    -99.5029E-03    -102.500E-03    -101.288E-03     200.861E-03    -99.5029E-03    -37.8113E-03    -54.4693E+06    -92.9334E+06    -243.485E+06    -93.4103E+06    -243.009E+06    -54.4693E+06     8.27247E+06         37.2845
            1018     3.62239E-03     13.8826E-03         1.88218         1.85498        -6.19574         1.86455        -6.19569         1.87257     12.1133E-03     199.893E-03    -99.0830E-03    -100.756E-03    -99.8846E-03     199.022E-03    -99.0830E-03    -31.7192E-03    -70.4234E+06    -103.401E+06    -260.789E+06    -103.676E+06    -260.514E+06    -70.4234E+06     6.11553E+06         36.7352
            1019     2.71733E-03     13.8882E-03         1.89920         1.86210        -6.22339         1.89098        -6.22330         1.87023     12.0778E-03     198.474E-03    -98.7996E-03    -99.6327E-03    -99.0963E-03     197.938E-03    -98.7996E-03    -24.7011E-03    -90.6277E+06    -112.777E+06    -278.277E+06    -112.840E+06    -278.214E+06    -90.6277E+06     2.53125E+06         36.3548
            1020     1.81219E-03     13.8916E-03         1.89951         1.85607        -6.21720         1.89934        -6.21703         1.85607     28.2918E-03     197.620E-03    -98.6045E-03    -98.9885E-03    -98.7181E-03     197.350E-03    -98.6045E-03    -17.2098E-03    -108.810E+06    -120.726E+06    -293.992E+06    -120.746E+06    -293.971E+06    -108.810E+06     1.45830E+06         36.1128
            1021     905.317E-06     13.8942E-03         2.06590         1.62512        -6.15997         1.64682        -6.15952         2.04375     23.7537E-03     197.103E-03    -98.3631E-03    -98.7288E-03    -98.6337E-03     197.008E-03    -98.3631E-03    -9.89893E-03    -117.422E+06    -127.168E+06    -301.331E+06    -123.732E+06    -301.309E+06    -120.880E+06     1.10915E+06         35.9778
            1022     15.1334E-03     13.3439E-03         1.80963         1.69558        -5.93938         1.69548        -5.93927         1.80963    -38.2741E-03     267.134E-03    -116.906E-03    -150.311E-03    -139.798E-03     256.621E-03    -116.906E-03     117.098E-03     120.809E+06     102.421E+06    -6.20191E+06    -6.17638E+06     120.784E+06     102.421E+06     26.6288E+03         59.7201
            1023     14.2672E-03     13.1046E-03         1.81475         1.71740        -5.96448         1.71718        -5.96427         1.81475    -79.6771E-03     270.019E-03    -115.333E-03    -154.793E-03    -143.001E-03     258.227E-03    -115.333E-03     132.321E-03     112.724E+06     100.501E+06    -11.9024E+06    -11.8563E+06     112.678E+06     100.501E+06     664.933E+03         57.4319
            1024     13.4011E-03     12.9888E-03         1.81944         1.73107        -5.98611         1.73067        -5.98571         1.81944    -107.883E-03     261.762E-03    -113.335E-03    -148.606E-03    -143.308E-03     256.464E-03    -113.335E-03     92.3511E-03     105.734E+06     98.1499E+06    -18.5629E+06    -18.5120E+06     105.683E+06     98.1499E+06     1.28369E+06         55.1319
            1025     12.5406E-03     12.8323E-03         1.82410         1.74258        -6.00761         1.74205        -6.00708         1.82410    -127.088E-03     257.720E-03    -110.849E-03    -146.986E-03    -142.935E-03     253.669E-03    -110.849E-03     77.7996E-03     102.926E+06     83.0921E+06    -26.4792E+06    -26.4022E+06     102.849E+06     83.0921E+06     2.17980E+06         53.0739
            1026     11.6731E-03     12.7321E-03         1.82852         1.76260        -6.03607         1.76210        -6.03557         1.82852    -124.635E-03     249.087E-03    -108.052E-03    -141.027E-03    -139.926E-03     247.986E-03    -108.052E-03     36.9394E-03     97.8820E+06     54.4663E+06    -34.0915E+06    -34.0263E+06     97.8168E+06     54.4663E+06     2.03283E+06         50.8634
            1027     10.8058E-03     12.6720E-03         1.83223         1.78720        -6.06908         1.78675        -6.06864         1.83223    -117.112E-03     241.041E-03    -105.233E-03    -135.777E-03    -135.595E-03     240.858E-03    -105.233E-03     2.53661E-03     87.2630E+06     26.9881E+06    -41.9934E+06    -41.8489E+06     87.1186E+06     26.9881E+06     3.24428E+06         48.3315
            1028     9.93246E-03     12.6405E-03         1.83528         1.80021        -6.08833         1.79984        -6.08797         1.83528    -107.191E-03     232.794E-03    -102.556E-03    -130.185E-03    -129.732E-03     232.341E-03    -102.556E-03    -23.1036E-03     45.5377E+06     8.51413E+06    -50.4943E+06    -49.8530E+06     44.8965E+06     8.51413E+06     6.33203E+06         45.7713
            1029     9.05377E-03     12.6278E-03         1.83844         1.80309        -6.10059         1.80267        -6.10016         1.83844    -103.184E-03     224.762E-03    -100.060E-03    -124.638E-03    -123.457E-03     223.581E-03    -100.060E-03    -39.7166E-03     200.757E+03    -24.3781E+06    -61.2035E+06    -57.0854E+06    -24.0175E+06    -4.27783E+06     8.41012E+06         43.4387
            1030     8.16613E-03     12.6284E-03         1.84150         1.81726        -6.12467         1.81689        -6.12431         1.84150    -92.0739E-03     216.026E-03    -97.7816E-03    -118.209E-03    -116.326E-03     214.142E-03    -97.7816E-03    -49.5246E-03    -14.1055E+06    -57.3742E+06    -89.2126E+06    -63.6350E+06    -82.9517E+06    -14.1055E+06     8.90023E+06         41.4012
            1031     7.27152E-03     12.6350E-03         1.84422         1.82342        -6.13681         1.82313        -6.13652         1.84422    -92.7315E-03     207.740E-03    -95.8267E-03    -111.895E-03    -109.536E-03     205.381E-03    -95.8267E-03    -54.2765E-03    -24.7818E+06    -68.6261E+06    -132.506E+06    -70.1091E+06    -131.024E+06    -24.7818E+06     9.08391E+06         39.6681
            1032     6.37375E-03     12.6438E-03         1.84743         1.82285        -6.14075         1.82257        -6.14047         1.84743    -86.1751E-03     200.697E-03    -94.1899E-03    -106.502E-03    -103.978E-03     198.173E-03    -94.1899E-03    -55.1523E-03    -36.1250E+06    -75.8586E+06    -168.798E+06    -76.9656E+06    -167.691E+06    -36.1250E+06     9.90672E+06         38.2390
            1033     5.47042E-03     12.6542E-03         1.85401         1.83725        -6.16388         1.84092        -6.16370         1.85016    -60.6218E-03     194.300E-03    -92.9284E-03    -101.376E-03    -99.0326E-03     191.957E-03    -92.9284E-03    -52.1196E-03    -46.2751E+06    -84.3010E+06    -208.605E+06    -85.4414E+06    -207.465E+06    -46.2751E+06     11.6561E+06         37.0984
            1034     4.56166E-03     12.6631E-03         1.86027         1.84789        -6.18823         1.85767        -6.18816         1.85042    -24.9057E-03     189.205E-03    -92.0174E-03    -97.1889E-03    -95.2837E-03     187.300E-03    -92.0174E-03    -46.1826E-03    -56.9815E+06    -93.5253E+06    -237.752E+06    -94.3524E+06    -236.925E+06    -56.9815E+06     10.5076E+06         36.2226
            1035     3.65174E-03     12.6712E-03         1.86247         1.84384        -6.18965         1.85751        -6.18964         1.84879    -2.07241E-03     185.855E-03    -91.3447E-03    -94.4698E-03    -93.0992E-03     184.485E-03    -91.3447E-03    -38.6986E-03    -70.6886E+06    -101.627E+06    -252.810E+06    -101.960E+06    -252.477E+06    -70.6886E+06     6.74893E+06         35.5777
            1036     2.73974E-03     12.6778E-03         1.86491         1.83400        -6.18294         1.85172        -6.18277         1.84702    -50.6826E-03     183.532E-03    -90.8469E-03    -92.6235E-03    -91.7640E-03     182.673E-03    -90.8469E-03    -30.2304E-03    -89.5936E+06    -110.350E+06    -274.298E+06    -110.528E+06    -274.120E+06    -89.5936E+06     5.02015E+06         35.1255
            1037     1.82684E-03     12.6830E-03         1.86781         1.83289        -6.17891         1.85825        -6.17870         1.84225    -28.8774E-03     181.815E-03    -90.4753E-03    -91.2954E-03    -90.8704E-03     181.390E-03    -90.4753E-03    -20.8439E-03    -107.991E+06    -118.749E+06    -290.290E+06    -118.767E+06    -290.174E+06    -108.089E+06     3.79438E+06         34.8346
            1038     914.367E-06     12.6868E-03         1.99730         1.67955        -6.16267         1.69446        -6.16222         1.98194     20.3319E-03     180.770E-03    -90.1816E-03    -90.5657E-03    -90.3173E-03     180.624E-03    -90.2840E-03    -11.7641E-03    -118.556E+06    -128.172E+06    -299.571E+06    -124.644E+06    -299.545E+06    -122.111E+06     928.838E+03         34.6746
            1039     15.1396E-03     12.0382E-03         1.80114         1.70143        -5.94114         1.70115        -5.94085         1.80114    -75.6687E-03     273.818E-03    -116.542E-03    -157.423E-03    -147.291E-03     263.686E-03    -116.542E-03     119.795E-03     120.360E+06     101.656E+06    -6.55713E+06    -6.54664E+06     120.349E+06     101.656E+06    -906.154E+03         59.8634
            1040     14.2779E-03     11.8126E-03         1.80561         1.71467        -5.96825         1.71415        -5.96773         1.80561    -120.129E-03     276.358E-03    -114.469E-03    -161.912E-03    -150.693E-03     265.139E-03    -114.469E-03     132.161E-03     112.319E+06     99.6632E+06    -12.3006E+06    -12.2718E+06     112.290E+06     99.6632E+06    -369.835E+03         57.5959
            1041     13.4213E-03     11.6804E-03         1.80969         1.73398        -5.99606         1.73324        -5.99532         1.80969    -143.127E-03     268.034E-03    -111.910E-03    -156.261E-03    -151.152E-03     262.925E-03    -111.910E-03     92.4498E-03     104.970E+06     97.5845E+06    -18.8224E+06    -18.7892E+06     104.937E+06     97.5845E+06     1.27428E+06         55.2635
            1042     12.5644E-03     11.5425E-03         1.81320         1.75413        -6.02566         1.75322        -6.02475         1.81320    -164.099E-03     261.906E-03    -108.834E-03    -153.399E-03    -149.732E-03     258.239E-03    -108.834E-03     75.0842E-03     102.291E+06     83.1474E+06    -25.9248E+06    -25.8605E+06     102.226E+06     83.1474E+06     2.13889E+06         53.1526
            1043     11.7058E-03     11.4434E-03         1.81578         1.77860        -6.05401         1.77786        -6.05328         1.81578    -149.032E-03     251.817E-03    -105.393E-03    -146.567E-03    -145.617E-03     250.867E-03    -105.393E-03     33.2199E-03     95.7749E+06     52.0465E+06    -33.7159E+06    -33.4737E+06     95.5328E+06     52.0465E+06     4.10284E+06         50.9087
            1044     10.8434E-03     11.3929E-03         1.81785         1.78733        -6.07086         1.78677        -6.07030         1.81785    -131.618E-03     242.965E-03    -101.944E-03    -140.972E-03    -140.806E-03     242.799E-03    -101.944E-03    -3.02313E-03     85.1172E+06     24.6582E+06    -42.2180E+06    -41.6904E+06     84.5897E+06     24.6582E+06     7.35243E+06         48.3512
            1045     9.97393E-03     11.3779E-03         1.82008         1.79231        -6.08708         1.79192        -6.08669         1.82008    -108.999E-03     233.430E-03    -98.6054E-03    -134.807E-03    -134.197E-03     232.820E-03    -98.6054E-03    -28.1173E-03     46.9801E+06     6.91363E+06    -51.0422E+06    -49.7636E+06     45.7015E+06     6.91363E+06     10.0519E+06         45.7365
            1046     9.09585E-03     11.3765E-03         1.82226         1.80374        -6.11042         1.80331        -6.10999         1.82226    -110.304E-03     223.218E-03    -95.3981E-03    -127.810E-03    -126.304E-03     221.713E-03    -95.3981E-03    -45.0267E-03     2.24871E+06    -23.6670E+06    -61.7902E+06    -57.2196E+06    -20.0080E+06    -5.98088E+06     10.6350E+06         43.3129
            1047     8.21208E-03     11.3928E-03         1.82759         1.81514        -6.12996         1.81866        -6.12958         1.82368    -100.754E-03     212.946E-03    -92.4271E-03    -120.515E-03    -118.112E-03     210.543E-03    -92.4271E-03    -56.1441E-03    -14.0594E+06    -54.9147E+06    -87.7097E+06    -64.2028E+06    -78.4216E+06    -14.0594E+06     10.6367E+06         41.1626
            1048     7.32028E-03     11.4093E-03         1.83765         1.81558        -6.13927         1.82908        -6.13913         1.82400    -58.3149E-03     202.494E-03    -89.7457E-03    -112.733E-03    -109.778E-03     199.539E-03    -89.7457E-03    -60.6928E-03    -24.5920E+06    -69.1814E+06    -129.820E+06    -71.7704E+06    -127.231E+06    -24.5920E+06     11.3060E+06         39.2929
            1049     6.41953E-03     11.4300E-03         1.83421         1.81470        -6.13805         1.82474        -6.13797         1.82410    -40.6474E-03     192.515E-03    -87.4305E-03    -105.074E-03    -101.944E-03     189.385E-03    -87.4305E-03    -60.6781E-03    -37.4994E+06    -77.5463E+06    -168.855E+06    -79.3376E+06    -167.064E+06    -37.4994E+06     12.5646E+06         37.7101
            1050     5.51252E-03     11.4507E-03         1.82929         1.81443        -6.13940         1.81852        -6.13929         1.82507    -48.5228E-03     183.794E-03    -85.5710E-03    -98.2399E-03    -95.3196E-03     180.874E-03    -85.5710E-03    -57.0453E-03    -48.6733E+06    -85.4656E+06    -205.392E+06    -87.1026E+06    -203.755E+06    -48.6733E+06     13.7593E+06         36.4094
            1051     4.60013E-03     11.4687E-03         1.83420         1.81547        -6.15090         1.82326        -6.15076         1.82628    -41.9710E-03     176.661E-03    -84.0987E-03    -92.5901E-03    -90.1866E-03     174.257E-03    -84.0987E-03    -50.5179E-03    -60.8636E+06    -93.1711E+06    -228.162E+06    -94.1767E+06    -227.156E+06    -60.8636E+06     11.2308E+06         35.3776
            1052     3.68339E-03     11.4794E-03         1.83406         1.81878        -6.15638         1.82581        -6.15631         1.82696    -271.532E-06     171.220E-03    -82.9700E-03    -88.2363E-03    -86.4491E-03     169.433E-03    -82.9700E-03    -42.6835E-03    -75.0156E+06    -101.021E+06    -247.529E+06    -101.466E+06    -247.084E+06    -75.0156E+06     7.84761E+06         34.5983
            1053     2.76486E-03     11.4903E-03         1.83217         1.81522        -6.15477         1.81808        -6.15462         1.82914    -18.9667E-03     167.211E-03    -82.1723E-03    -84.9784E-03    -83.8475E-03     166.080E-03    -82.1723E-03    -33.2463E-03    -89.9770E+06    -109.212E+06    -271.126E+06    -109.602E+06    -270.735E+06    -89.9770E+06     7.84910E+06         34.0395
            1054     1.84406E-03     11.4952E-03         1.83438         1.82343        -6.16487         1.82367        -6.16442         1.83370     33.5268E-03     164.496E-03    -81.6217E-03    -82.8160E-03    -82.2590E-03     163.939E-03    -81.6217E-03    -22.8669E-03    -106.631E+06    -116.547E+06    -282.702E+06    -116.749E+06    -282.403E+06    -106.728E+06     6.66917E+06         33.6690
            1055     921.579E-06     11.5018E-03         1.94842         1.72484        -6.18858         1.72498        -6.18804         1.94773     93.7595E-03     163.010E-03    -81.0921E-03    -81.8927E-03    -81.5938E-03     162.814E-03    -81.1945E-03    -12.8591E-03    -117.635E+06    -125.987E+06    -293.143E+06    -122.982E+06    -293.038E+06    -120.746E+06     3.55050E+06         33.4601
            1056     15.1441E-03     10.7334E-03         1.79247         1.70324        -5.94029         1.70278        -5.93983         1.79247    -104.896E-03     281.547E-03    -116.261E-03    -165.389E-03    -154.989E-03     271.147E-03    -116.261E-03     124.551E-03     121.348E+06     102.928E+06    -6.12409E+06    -6.11590E+06     121.340E+06     102.928E+06    -355.468E+03         60.0249
            1057     14.2918E-03     10.5002E-03         1.79632         1.71430        -5.96416         1.71344        -5.96330         1.79632    -162.296E-03     283.415E-03    -113.719E-03    -169.675E-03    -158.333E-03     272.072E-03    -113.719E-03     135.150E-03     111.815E+06     99.1009E+06    -13.5387E+06    -13.5138E+06     111.790E+06     99.1009E+06     77.2711E+03         57.7815
            1058     13.4385E-03     10.3765E-03         1.79949         1.74196        -6.00285         1.74084        -6.00173         1.79949    -185.200E-03     272.936E-03    -110.670E-03    -162.323E-03    -157.256E-03     267.870E-03    -110.670E-03     93.2998E-03     103.628E+06     95.3391E+06    -21.3786E+06    -21.3399E+06     103.589E+06     95.3391E+06     568.390E+03         55.4398
            1059     12.5874E-03     10.2376E-03         1.80130         1.77306        -6.04774         1.77176        -6.04645         1.80130    -200.972E-03     265.336E-03    -107.134E-03    -158.477E-03    -154.867E-03     261.726E-03    -107.134E-03     75.3675E-03     99.0078E+06     80.3521E+06    -29.1081E+06    -28.9840E+06     98.8837E+06     80.3521E+06     2.01249E+06         53.3116
            1060     11.7343E-03     10.1531E-03         1.80245         1.79111        -6.08024         1.79071        -6.07923         1.80184    -176.904E-03     254.144E-03    -103.291E-03    -151.015E-03    -150.045E-03     253.173E-03    -103.291E-03     34.5773E-03     91.2191E+06     51.7152E+06    -37.6563E+06    -37.3022E+06     90.8650E+06     51.7152E+06     5.72167E+06         51.0669
            1061     10.8724E-03     10.1145E-03         1.80913         1.79086        -6.09771         1.79739        -6.09709         1.80198    -138.048E-03     243.768E-03    -99.4008E-03    -144.330E-03    -144.173E-03     243.611E-03    -99.4008E-03    -655.418E-06     81.4601E+06     25.9184E+06    -45.2893E+06    -44.2932E+06     80.4640E+06     25.9184E+06     10.4920E+06         48.5210
            1062     10.0066E-03     10.1110E-03         1.81762         1.79115        -6.11159         1.80644        -6.11119         1.80192    -111.052E-03     233.484E-03    -95.5304E-03    -137.928E-03    -137.365E-03     232.921E-03    -95.5304E-03    -26.4694E-03     49.7784E+06     7.34711E+06    -53.7354E+06    -51.7157E+06     47.7587E+06     7.34711E+06     13.6798E+06         45.9126
            1063     9.13346E-03     10.1306E-03         1.81682         1.79716        -6.12122         1.81224        -6.12099         1.80151    -81.8420E-03     221.644E-03    -91.7785E-03    -129.841E-03    -128.521E-03     220.324E-03    -91.7785E-03    -42.1775E-03     6.10663E+06    -21.7834E+06    -63.9023E+06    -58.9906E+06    -14.4032E+06    -6.18516E+06     13.0241E+06         43.4675
            1064     8.24969E-03     10.1569E-03         1.81534         1.79984        -6.12453         1.81417        -6.12436         1.80084    -69.6629E-03     209.938E-03    -88.2519E-03    -121.670E-03    -119.643E-03     207.912E-03    -88.2519E-03    -51.0533E-03    -13.6773E+06    -53.1048E+06    -87.5913E+06    -65.0561E+06    -75.6400E+06    -13.6773E+06     12.2418E+06         41.2635
            1065     7.35829E-03     10.1937E-03         1.82353         1.79937        -6.13236         1.82342        -6.13225         1.79937    -45.1672E-03     198.193E-03    -84.9702E-03    -113.213E-03    -110.673E-03     195.653E-03    -84.9702E-03    -55.6870E-03    -21.3002E+06    -67.7280E+06    -127.860E+06    -71.1836E+06    -124.404E+06    -21.3002E+06     13.3243E+06         39.3142
            1066     6.45785E-03     10.2269E-03         1.81797         1.79718        -6.12887         1.81793        -6.12882         1.79718    -32.3196E-03     186.277E-03    -82.0131E-03    -104.263E-03    -101.499E-03     183.513E-03    -82.0131E-03    -56.1821E-03    -34.7600E+06    -75.6666E+06    -167.473E+06    -78.0677E+06    -165.072E+06    -34.7600E+06     14.4745E+06         37.6373
            1067     5.54861E-03     10.2595E-03         1.80217         1.78904        -6.11583         1.79446        -6.11570         1.79662    -55.6353E-03     175.973E-03    -79.4482E-03    -96.5243E-03    -93.8488E-03     173.297E-03    -79.4482E-03    -53.6003E-03    -48.7950E+06    -82.8076E+06    -200.071E+06    -84.5579E+06    -198.320E+06    -48.7950E+06     14.0182E+06         36.2359
            1068     4.63422E-03     10.2844E-03         1.80128         1.78749        -6.11864         1.79030        -6.11847         1.79830    -33.4005E-03     166.735E-03    -77.2506E-03    -89.4876E-03    -87.1804E-03     164.428E-03    -77.2506E-03    -48.3348E-03    -61.3017E+06    -89.8375E+06    -220.097E+06    -91.0082E+06    -218.926E+06    -61.3017E+06     12.1868E+06         35.0970
            1069     3.71414E-03     10.3053E-03         1.81050         1.79550        -6.13463         1.80707        -6.13442         1.79873     38.5720E-03     158.690E-03    -75.5027E-03    -83.1682E-03    -81.3952E-03     156.917E-03    -75.5027E-03    -41.1217E-03    -74.4241E+06    -98.1262E+06    -243.184E+06    -99.0082E+06    -242.302E+06    -74.4241E+06     11.0218E+06         34.2089
            1070     2.78812E-03     10.3198E-03         1.81112         1.79498        -6.13585         1.81008        -6.13571         1.79588     32.4491E-03     152.727E-03    -74.2081E-03    -78.4664E-03    -77.3017E-03     151.562E-03    -74.2081E-03    -32.4732E-03    -89.0663E+06    -106.909E+06    -266.534E+06    -107.574E+06    -265.868E+06    -89.0663E+06     10.1163E+06         33.5526
            1071     1.86011E-03     10.3314E-03         1.80229         1.78214        -6.11271         1.78839        -6.11240         1.79573     50.6544E-03     148.558E-03    -73.2678E-03    -75.2385E-03    -74.6292E-03     147.949E-03    -73.2678E-03    -22.8159E-03    -104.110E+06    -113.909E+06    -274.089E+06    -114.311E+06    -273.688E+06    -104.110E+06     7.86093E+06         33.1043
            1072     930.877E-06     10.3358E-03         1.88498         1.71090        -6.12290         1.71110        -6.12241         1.88430     12.1067E-03     145.986E-03    -72.3660E-03    -73.5964E-03    -73.3746E-03     145.764E-03    -72.3660E-03    -13.2210E-03    -112.618E+06    -121.921E+06    -282.519E+06    -119.099E+06    -282.328E+06    -115.631E+06     5.50058E+06         32.8403
            1073     15.1459E-03     9.41920E-03         1.78373         1.70275        -5.91799         1.70181        -5.91705         1.78373    -158.404E-03     288.965E-03    -116.138E-03    -172.926E-03    -162.221E-03     278.261E-03    -116.138E-03     128.840E-03     120.603E+06     102.333E+06    -7.19828E+06    -7.19208E+06     120.597E+06     102.333E+06     711.959E+03         60.1628
            1074     14.2960E-03     9.17760E-03         1.78650         1.73253        -5.96811         1.73084        -5.96642         1.78650    -220.447E-03     288.239E-03    -113.245E-03    -175.027E-03    -163.425E-03     276.637E-03    -113.245E-03     138.404E-03     111.592E+06     98.3951E+06    -14.0546E+06    -14.0313E+06     111.569E+06     98.3951E+06     862.847E+03         57.9324
            1075     13.4522E-03     9.06372E-03         1.79343         1.76056        -6.02465         1.76439        -6.02268         1.78762    -241.868E-03     275.862E-03    -109.934E-03    -165.981E-03    -160.366E-03     270.247E-03    -109.934E-03     98.6337E-03     103.016E+06     94.6388E+06    -21.8299E+06    -21.6673E+06     102.853E+06     94.6388E+06     1.94615E+06         55.5860
            1076     12.6015E-03     8.93241E-03         1.79734         1.77820        -6.06878         1.78669        -6.06711         1.78718    -226.681E-03     266.724E-03    -106.213E-03    -160.664E-03    -156.313E-03     262.374E-03    -106.213E-03     83.3118E-03     95.5321E+06     78.0116E+06    -31.8706E+06    -31.6163E+06     95.2777E+06     78.0116E+06      3.9548E+06         53.4530
            1077     11.7470E-03     8.85931E-03         1.79859         1.78447        -6.09668         1.79607        -6.09559         1.78591    -183.495E-03     254.198E-03    -102.240E-03    -152.092E-03    -150.700E-03     252.806E-03    -102.240E-03     43.7305E-03     86.8095E+06     49.3413E+06    -40.5148E+06    -39.9108E+06     86.2056E+06     49.3413E+06     7.40798E+06         51.2356
            1078     10.8894E-03     8.83617E-03         1.81187         1.78409        -6.11963         1.81128        -6.11904         1.78409    -135.352E-03     242.513E-03    -98.2622E-03    -144.283E-03    -144.016E-03     242.245E-03    -98.2622E-03     11.4665E-03     76.2212E+06     24.1402E+06    -49.8123E+06    -48.4359E+06     74.8447E+06     24.1402E+06     12.4245E+06         48.7591
            1079     10.0232E-03     8.84479E-03         1.82225         1.78142        -6.13088         1.82185        -6.13048         1.78142    -113.300E-03     230.419E-03    -94.3629E-03    -136.028E-03    -135.792E-03     230.183E-03    -94.3629E-03    -10.6782E-03     50.9849E+06     9.48608E+06    -56.7276E+06    -54.7186E+06     48.9759E+06     9.48608E+06     14.3736E+06         46.2540
            1080     9.14839E-03     8.88372E-03         1.82106         1.77817        -6.12819         1.82080        -6.12793         1.77817    -86.2537E-03     218.666E-03    -90.5841E-03    -128.039E-03    -127.518E-03     218.146E-03    -90.5841E-03    -21.7014E-03     12.6011E+06    -16.6914E+06    -62.9933E+06    -58.2294E+06    -7.93244E+06    -921.753E+03     13.3369E+06         43.9191
            1081     8.26491E-03     8.92780E-03         1.81040         1.77507        -6.11773         1.81023        -6.11757         1.77507    -68.1171E-03     207.315E-03    -86.9325E-03    -120.379E-03    -119.550E-03     206.486E-03    -86.9325E-03    -28.3454E-03    -9.89589E+06    -50.3364E+06    -87.0523E+06    -63.2703E+06    -74.1185E+06    -9.89589E+06     12.1565E+06         41.7895
            1082     7.37418E-03     8.97757E-03         1.79726         1.77275        -6.10603         1.79715        -6.10592         1.77275    -44.5668E-03     196.148E-03    -83.3803E-03    -112.759E-03    -111.602E-03     194.990E-03    -83.3803E-03    -33.9026E-03    -16.5959E+06    -65.7294E+06    -127.412E+06    -68.6680E+06    -124.473E+06    -16.5959E+06     12.6659E+06         39.8587
            1083     6.47550E-03     9.03057E-03         1.79484         1.77070        -6.10481         1.79482        -6.10479         1.77070    -15.0925E-03     184.894E-03    -79.9339E-03    -104.949E-03    -103.627E-03     183.572E-03    -79.9339E-03    -35.8156E-03    -27.3116E+06    -71.8089E+06    -164.342E+06    -74.0927E+06    -162.059E+06    -27.3116E+06     14.1542E+06         38.1586
            1084     5.56932E-03     9.07347E-03         1.78949         1.76836        -6.10611         1.78935        -6.10597         1.76836    -41.8846E-03     173.527E-03    -76.6708E-03    -96.8137E-03    -95.4316E-03     172.145E-03    -76.6708E-03    -36.0147E-03    -41.9055E+06    -78.3465E+06    -194.797E+06    -80.1410E+06    -193.002E+06    -41.9055E+06     14.2127E+06         36.7164
            1085     4.65488E-03     9.11305E-03         1.78344         1.76588        -6.10260         1.78326        -6.10242         1.76588    -34.2938E-03     162.479E-03    -73.7291E-03    -88.6910E-03    -87.3659E-03     161.154E-03    -73.7291E-03    -34.7772E-03    -55.1745E+06    -85.5335E+06    -215.279E+06    -87.0232E+06    -213.789E+06    -55.1745E+06     13.8004E+06         35.5290
            1086     3.73223E-03     9.14300E-03         1.78140         1.76272        -6.09452         1.78122        -6.09434         1.76272     36.4057E-03     152.604E-03    -71.2316E-03    -81.3142E-03    -80.2333E-03     151.523E-03    -71.2316E-03    -30.7252E-03    -67.6325E+06    -93.8718E+06    -238.628E+06    -95.1417E+06    -237.358E+06    -67.6325E+06     13.3793E+06         34.5864
            1087     2.80543E-03     9.16623E-03         1.77339         1.75869        -6.07875         1.77320        -6.07858         1.75871     45.2722E-03     144.496E-03    -69.1891E-03    -75.2525E-03    -74.4836E-03     143.727E-03    -69.1891E-03    -25.2582E-03    -81.0947E+06    -101.393E+06    -259.406E+06    -102.197E+06    -258.602E+06    -81.0947E+06     11.0830E+06         33.8762
            1088     1.87313E-03     9.18053E-03         1.76535         1.74570        -6.04870         1.75215        -6.04819         1.75840     78.7021E-03     138.185E-03    -67.6080E-03    -70.5385E-03    -70.1034E-03     137.750E-03    -67.6080E-03    -18.3222E-03    -96.0851E+06    -107.824E+06    -264.800E+06    -108.193E+06    -264.431E+06    -96.0851E+06     7.35073E+06         33.3814
            1089     937.403E-06     9.19025E-03         1.80490         1.71743        -6.04726         1.71853        -6.04576         1.80232    -47.7150E-03     134.045E-03    -66.4311E-03    -67.5909E-03    -67.4286E-03     133.882E-03    -66.4311E-03    -10.7291E-03    -104.590E+06    -113.950E+06    -270.815E+06    -111.917E+06    -270.678E+06    -106.761E+06     4.11892E+06         33.0836
            1090     15.1464E-03     8.08686E-03         1.77398         1.70327        -5.90279         1.70126        -5.90078         1.77398    -240.840E-03     295.026E-03    -116.453E-03    -178.658E-03    -166.602E-03     282.970E-03    -116.453E-03     138.436E-03     120.740E+06     102.013E+06    -6.99667E+06    -6.95465E+06     120.698E+06     102.013E+06     2.06391E+06         60.2562
            1091     14.3030E-03     7.85819E-03         1.78242         1.75373        -5.98941         1.75823        -5.98657         1.77507    -295.565E-03     290.860E-03    -113.479E-03    -177.448E-03    -163.854E-03     277.267E-03    -113.479E-03     151.743E-03     111.098E+06     97.2220E+06    -13.9811E+06    -13.8092E+06     110.926E+06     97.2220E+06     2.80557E+06         58.0101
            1092     13.4488E-03     7.74661E-03         1.79868         1.77056        -6.05352         1.79295        -6.05075         1.77351    -294.487E-03     276.494E-03    -110.284E-03    -166.309E-03    -158.679E-03     268.864E-03    -110.284E-03     114.329E-03     100.453E+06     92.7571E+06    -23.3706E+06    -23.0768E+06     100.159E+06     92.7571E+06     4.10688E+06         55.6269
            1093     12.5982E-03     7.62665E-03         1.80998         1.77035        -6.08998         1.80807        -6.08807         1.77035    -242.286E-03     265.631E-03    -106.829E-03    -158.891E-03    -152.436E-03     259.177E-03    -106.829E-03     101.644E-03     92.2310E+06     78.5836E+06    -32.2764E+06    -31.6225E+06     91.5770E+06     78.5836E+06     6.68482E+06         53.4539
            1094     11.7413E-03     7.56845E-03         1.81255         1.76655        -6.10984         1.81149        -6.10878         1.76655    -182.270E-03     250.886E-03    -103.273E-03    -147.683E-03    -144.568E-03     247.771E-03    -103.273E-03     66.4929E-03     82.4612E+06     50.9687E+06    -43.0820E+06    -41.8713E+06     81.2505E+06     50.9687E+06     10.9941E+06         51.2413
            1095     10.8777E-03     7.55613E-03         1.81879         1.76253        -6.12689         1.81823        -6.12633         1.76253    -128.343E-03     236.338E-03    -99.9179E-03    -136.478E-03    -134.997E-03     234.857E-03    -99.9179E-03     40.7166E-03     74.3211E+06     27.9734E+06    -50.8299E+06    -49.4306E+06     72.9217E+06     27.9734E+06     13.1078E+06         48.8864
            1096     10.0048E-03     7.59336E-03         1.82044         1.75809        -6.13583         1.82019        -6.13558         1.75809    -78.1526E-03     224.699E-03    -96.8083E-03    -127.889E-03    -126.787E-03     223.597E-03    -96.8083E-03     28.3516E-03     53.3790E+06     17.1790E+06    -54.7970E+06    -53.3659E+06     51.9479E+06     17.1790E+06     12.0582E+06         46.6208
            1097     9.12330E-03     7.63945E-03         1.81556         1.75332        -6.13204         1.81543        -6.13190         1.75332    -49.3820E-03     216.616E-03    -93.7523E-03    -122.846E-03    -121.846E-03     215.615E-03    -93.7523E-03     22.5323E-03     19.4297E+06    -13.6045E+06    -59.7197E+06    -56.6313E+06    -5.99977E+06     8.73655E+06     9.83623E+06         44.5725
            1098     8.24056E-03     7.70013E-03         1.80585         1.74847        -6.11593         1.80578        -6.11586         1.74847    -23.5778E-03     208.628E-03    -90.5764E-03    -118.078E-03    -117.236E-03     207.785E-03    -90.5764E-03     16.4871E-03    -644.461E+03    -50.4084E+06    -84.2178E+06    -60.0571E+06    -74.5692E+06    -644.461E+03     9.83967E+06         42.7000
            1099     7.34978E-03     7.76411E-03         1.78418         1.74440        -6.09232         1.78416        -6.09229         1.74440    -10.6569E-03     200.109E-03    -87.2280E-03    -112.900E-03    -112.181E-03     199.390E-03    -87.2280E-03     10.4713E-03    -7.20722E+06    -62.9348E+06    -127.033E+06    -65.0075E+06    -124.960E+06    -7.20722E+06     10.5882E+06         40.9381
            1100     6.45540E-03     7.82830E-03         1.77317         1.74132        -6.08307         1.77316        -6.08306         1.74132     2.66046E-03     191.193E-03    -83.7041E-03    -107.512E-03    -106.927E-03     190.609E-03    -83.7041E-03     5.27515E-03    -14.9570E+06    -69.4050E+06    -163.905E+06    -70.8202E+06    -162.490E+06    -14.9570E+06     11.2509E+06         39.3025
            1101     5.55475E-03     7.88581E-03         1.76831         1.73818        -6.07525         1.76819        -6.07512         1.73818    -14.1888E-03     180.684E-03    -80.0750E-03    -100.615E-03    -100.150E-03     180.218E-03    -80.0750E-03    -11.8935E-06    -26.6986E+06    -75.0449E+06    -191.628E+06    -76.4252E+06    -190.248E+06    -26.6986E+06     12.3128E+06         37.8647
            1102     4.64574E-03     7.93894E-03         1.75550         1.73274        -6.05441         1.75269        -6.05425         1.73540    -34.0913E-03     169.437E-03    -76.5313E-03    -92.8884E-03    -92.4878E-03     169.036E-03    -76.5313E-03    -4.63748E-03    -39.1564E+06    -80.4297E+06    -211.396E+06     -81.676E+06    -210.149E+06    -39.1564E+06     12.5214E+06         36.6722
            1103     3.72987E-03     7.98189E-03         1.74452         1.72554        -6.03801         1.73541        -6.03796         1.73459     4.23220E-03     158.438E-03    -73.2627E-03    -85.1532E-03    -84.8323E-03     158.117E-03    -73.2627E-03    -7.56071E-03    -51.1596E+06    -85.7035E+06    -232.140E+06    -86.6784E+06    -231.165E+06    -51.1596E+06     11.4591E+06         35.7243
            1104     2.80496E-03     8.01507E-03         1.73927         1.72351        -6.03562         1.72576        -6.03540         1.73681    -2.04472E-03     148.115E-03    -70.4481E-03    -77.6511E-03    -77.4232E-03     147.887E-03    -70.4481E-03    -8.25604E-03    -65.2169E+06    -91.3382E+06    -250.374E+06    -91.8270E+06    -249.885E+06    -65.2169E+06     7.79160E+06         35.0046
            1105     1.87429E-03     8.03872E-03         1.75418         1.72919        -6.05883         1.74664        -6.05820         1.73610     41.2212E-03     139.919E-03    -68.3029E-03    -71.6072E-03    -71.4765E-03     139.788E-03    -68.3029E-03    -6.66233E-03    -80.1488E+06    -95.5462E+06    -257.175E+06    -95.7148E+06    -257.006E+06    -80.1488E+06     3.96732E+06         34.4998
            1106     938.484E-06     8.05369E-03         1.75651         1.71192        -6.03922         1.75519        -6.03790         1.71192    -37.7805E-03     134.805E-03    -66.7697E-03    -68.0262E-03    -67.9720E-03     134.751E-03    -66.7697E-03    -4.35059E-03    -90.2526E+06    -100.033E+06    -262.416E+06    -97.8983E+06    -262.379E+06    -92.4233E+06     1.13108E+06         34.1960
            1107     15.1305E-03     6.75873E-03         1.77042         1.71638        -5.91693         1.72039        -5.91198         1.76147    -376.060E-03     298.517E-03    -117.784E-03    -180.848E-03    -166.163E-03     283.832E-03    -117.784E-03     154.750E-03     119.541E+06     100.806E+06    -7.32839E+06    -7.16638E+06     119.379E+06     100.806E+06     4.26447E+06         60.2857
            1108     14.2721E-03     6.53479E-03         1.79628         1.75393        -6.02470         1.78583        -6.02029         1.75997    -365.893E-03     290.793E-03    -115.114E-03    -175.813E-03    -158.657E-03     273.636E-03    -115.114E-03     171.997E-03     109.792E+06     94.6848E+06    -16.0130E+06    -15.7501E+06     109.529E+06     94.6848E+06     4.05826E+06         58.0042
            1109     13.4259E-03     6.43156E-03         1.82027         1.75535        -6.09314         1.81719        -6.09007         1.75535    -310.169E-03     274.406E-03    -112.517E-03    -162.019E-03    -150.116E-03     262.503E-03    -112.517E-03     140.489E-03     97.3405E+06     90.4728E+06    -23.4988E+06    -22.8516E+06     96.6933E+06     90.4728E+06     5.62233E+06         55.4547
            1110     12.5621E-03     6.32973E-03         1.83727         1.74888        -6.13187         1.83565        -6.13026         1.74888    -212.166E-03     261.298E-03    -109.964E-03    -151.406E-03    -140.188E-03     250.080E-03    -109.964E-03     131.891E-03     86.8882E+06     78.4740E+06    -34.0707E+06    -32.8006E+06     85.6181E+06     78.4740E+06     10.7438E+06         53.0569
            1111     11.6953E-03     6.27804E-03         1.84077         1.74138        -6.14829         1.84018        -6.14771         1.74138    -127.124E-03     242.264E-03    -107.748E-03    -134.541E-03    -127.026E-03     234.750E-03    -107.748E-03     102.044E-03     81.5160E+06     60.4847E+06    -42.4435E+06    -41.0683E+06     80.1407E+06     60.4847E+06     12.8619E+06         50.7674
            1112     10.8153E-03     6.30164E-03         1.82809         1.73407        -6.14737         1.82775        -6.14703         1.73407    -51.3793E-03     228.845E-03    -106.017E-03    -122.837E-03    -116.620E-03     222.628E-03    -106.017E-03     87.5646E-03     77.7534E+06     42.6614E+06    -47.4334E+06    -46.4614E+06     76.7813E+06     42.6614E+06     10.1427E+06         48.6032
            1113     9.92579E-03     6.34141E-03         1.80685         1.72772        -6.12699         1.80669        -6.12683         1.72772     21.1884E-03     223.413E-03    -104.499E-03    -118.932E-03    -113.135E-03     217.615E-03    -104.499E-03     83.1206E-03     58.4593E+06     28.3376E+06    -51.3738E+06    -50.7955E+06     53.8669E+06     32.3517E+06     6.85458E+06         46.7315
            1114     9.04144E-03     6.40085E-03         1.78209         1.72277        -6.09854         1.78202        -6.09847         1.72277     27.7646E-03     220.516E-03    -102.888E-03    -117.656E-03    -112.249E-03     215.108E-03    -102.888E-03     79.7581E-03     29.5283E+06    -13.9571E+06    -56.3628E+06    -54.7955E+06    -10.7910E+06     24.7948E+06     4.83753E+06         45.1434
            1115     8.15365E-03     6.46575E-03         1.77257         1.71860        -6.08771         1.77255        -6.08768         1.71860     19.7661E-03     218.096E-03    -100.936E-03    -117.201E-03    -112.170E-03     213.065E-03    -100.936E-03     75.8378E-03     15.6443E+06    -54.7632E+06    -83.1607E+06    -58.5625E+06    -79.3614E+06     15.6443E+06     4.34332E+06         43.7219
            1116     7.26914E-03     6.54008E-03         1.76632         1.71419        -6.08367         1.76630        -6.08365         1.71419     12.0268E-03     215.068E-03    -98.5034E-03    -116.602E-03    -112.191E-03     210.657E-03    -98.5034E-03     70.0623E-03     10.4297E+06    -60.6878E+06    -128.169E+06    -61.4684E+06    -127.389E+06     10.4297E+06     5.27260E+06         42.3537
            1117     6.38045E-03     6.61016E-03         1.75079         1.70988        -6.06373         1.75076        -6.06371         1.70988     16.0707E-03     209.714E-03    -95.5857E-03    -114.172E-03    -110.598E-03     206.139E-03    -95.5857E-03     61.6075E-03     5.81571E+06    -64.2669E+06    -164.464E+06    -64.7569E+06    -163.974E+06     5.81571E+06     5.60799E+06         40.9941
            1118     5.48921E-03     6.68199E-03         1.73222         1.70667        -6.03145         1.73220        -6.03143         1.70667     22.2748E-03     202.268E-03    -92.2596E-03    -110.061E-03    -107.404E-03     199.612E-03    -92.2596E-03     51.2029E-03    -2.66812E+06    -68.5652E+06    -190.073E+06    -68.9988E+06    -189.639E+06    -2.66812E+06     5.40653E+06         39.7001
            1119     4.59245E-03     6.74733E-03         1.71479         1.69648        -5.99884         1.70493        -5.99882         1.70633     9.38509E-03     192.861E-03    -88.6611E-03    -104.233E-03    -102.419E-03     191.047E-03    -88.6611E-03     40.2676E-03    -16.8720E+06    -73.5857E+06    -208.845E+06    -74.0033E+06    -208.428E+06    -16.8720E+06     5.36115E+06         38.5731
            1120     3.68850E-03     6.80313E-03         1.71052         1.68906        -5.99125         1.68897        -5.99117         1.71052     28.4831E-03     181.900E-03    -85.0769E-03    -96.8385E-03    -95.7141E-03     180.776E-03    -85.0769E-03     29.4346E-03    -34.9002E+06    -77.9378E+06    -226.621E+06    -78.2336E+06    -226.325E+06    -34.9002E+06     4.11493E+06         37.6674
            1121     2.77659E-03     6.85121E-03         1.71768         1.69806        -6.01248         1.69779        -6.01221         1.71768     10.7980E-03     171.095E-03    -81.8589E-03    -89.2518E-03    -88.6197E-03     170.463E-03    -81.8589E-03     20.1964E-03    -53.6181E+06    -81.5744E+06    -242.515E+06    -81.6875E+06    -242.402E+06    -53.6181E+06     1.43967E+06         36.9847
            1122     1.85521E-03     6.88497E-03         1.74064         1.70027        -6.03736         1.71688        -6.03696         1.72363     21.2740E-03     162.157E-03    -79.3329E-03    -82.8343E-03    -82.5571E-03     161.879E-03    -79.3329E-03     12.3261E-03    -71.2627E+06    -85.4991E+06    -253.998E+06    -85.5209E+06    -253.977E+06    -71.2627E+06    -662.087E+03         36.5076
            1123     928.905E-06     6.90560E-03         1.75471         1.69715        -6.05002         1.73873        -6.04960         1.71271    -14.1547E-03     156.339E-03    -77.4154E-03    -78.9268E-03    -78.8456E-03     156.258E-03    -77.4154E-03     6.18911E-03    -83.7027E+06    -92.3129E+06    -263.080E+06    -90.4588E+06    -263.049E+06     -85.587E+06    -1.67362E+06         36.2186
            1124     15.0869E-03     5.42396E-03         1.77521         1.72815        -5.96116         1.74792        -5.95101         1.74529    -551.899E-03     297.714E-03    -120.843E-03    -177.031E-03    -156.702E-03     277.386E-03    -120.843E-03     180.461E-03     119.025E+06     100.863E+06    -7.07820E+06    -6.78272E+06     118.730E+06     100.863E+06     5.49979E+06         60.1501
            1125     14.2353E-03     5.21559E-03         1.83917         1.74029        -6.09634         1.83227        -6.08944         1.74029    -461.173E-03     291.109E-03    -119.032E-03    -172.213E-03    -146.742E-03     265.638E-03    -119.032E-03     207.097E-03     107.711E+06     94.0314E+06    -15.4400E+06    -14.5121E+06     106.783E+06     94.0314E+06     6.63184E+06         57.7868
            1126     13.3575E-03     5.13138E-03         1.87527         1.73080        -6.17429         1.87196        -6.17098         1.73080    -306.438E-03     272.916E-03    -117.510E-03    -155.486E-03    -136.341E-03     253.772E-03    -117.510E-03     175.126E-03     94.5206E+06     88.5806E+06    -26.5871E+06    -25.0944E+06     93.0279E+06     88.5806E+06     10.6115E+06         54.9478
            1127     12.4845E-03     5.02934E-03         1.87008         1.71939        -6.19797         1.86921        -6.19710         1.71939    -131.172E-03     252.744E-03    -113.852E-03    -138.975E-03    -118.941E-03     235.353E-03    -116.495E-03     159.552E-03     85.3611E+06     81.0983E+06    -34.8468E+06    -33.7782E+06     84.0526E+06     81.3383E+06     10.9366E+06         52.2141
            1128     11.5928E-03     5.02858E-03         1.84617         1.70824        -6.17988         1.84607        -6.17978         1.70824    -35.9378E-03     233.440E-03    -109.946E-03    -123.528E-03    -102.949E-03     219.266E-03    -116.351E-03     136.499E-03     83.6551E+06     70.1795E+06    -39.2485E+06    -38.4945E+06     82.6611E+06     70.4194E+06     8.72961E+06         49.8430
            1129     10.6885E-03     5.05123E-03         1.80679         1.69892        -6.13845         1.80662        -6.13828         1.69892     34.7578E-03     228.474E-03    -108.974E-03    -119.474E-03    -98.2841E-03     215.132E-03    -116.822E-03     130.743E-03     84.5641E+06     58.7739E+06    -43.3957E+06    -43.0269E+06     84.1952E+06     58.7739E+06     4.99089E+06         47.8900
            1130     9.79565E-03     5.09579E-03         1.76813         1.69209        -6.09336         1.76792        -6.09315         1.69209     79.2299E-03     229.805E-03    -109.669E-03    -120.161E-03    -99.6544E-03     217.056E-03    -117.426E-03     128.425E-03     66.2842E+06     35.1816E+06    -48.6035E+06    -48.4613E+06     50.3734E+06     50.9501E+06     596.621E+03         46.4064
            1131     8.90087E-03     5.15296E-03         1.74397         1.68734        -6.06406         1.74380        -6.06389         1.68734     70.2450E-03     232.901E-03    -111.888E-03    -121.090E-03    -102.849E-03     220.637E-03    -117.865E-03     127.159E-03     44.7430E+06    -16.6271E+06    -55.5375E+06    -52.8068E+06    -19.3578E+06     44.7430E+06    -1.71616E+06         45.3229
            1132     8.01208E-03     5.22311E-03         1.73163         1.68370        -6.04797         1.73145        -6.04779         1.68370     63.1938E-03     236.777E-03    -114.222E-03    -122.632E-03    -107.494E-03     225.255E-03    -117.839E-03     125.024E-03     36.3912E+06    -54.0834E+06    -87.2770E+06    -56.6909E+06    -84.6695E+06     36.3912E+06    -4.82871E+06         44.4924
            1133     7.12655E-03     5.29090E-03         1.72389         1.68039        -6.03629         1.72367        -6.03607         1.68039     66.0303E-03     239.419E-03    -115.546E-03    -123.932E-03    -111.829E-03     228.982E-03    -117.212E-03     120.211E-03     31.3073E+06    -57.2966E+06    -135.157E+06    -58.8399E+06    -133.614E+06     31.3073E+06    -7.29275E+06         43.7429
            1134     6.24781E-03     5.37054E-03         1.70892         1.67752        -6.01683         1.70871        -6.01662         1.67752     70.6623E-03     239.984E-03    -115.551E-03    -124.473E-03    -114.957E-03     230.824E-03    -115.907E-03     112.992E-03     25.4876E+06    -58.3808E+06    -168.854E+06    -59.3915E+06    -167.843E+06     25.4876E+06    -6.23623E+06         42.9661
            1135     5.36710E-03     5.44435E-03         1.69126         1.67592        -5.99186         1.69114        -5.99174         1.67592     50.3695E-03     237.892E-03    -113.903E-03    -124.012E-03    -116.551E-03     230.431E-03    -113.903E-03     101.601E-03     11.7037E+06    -61.6984E+06    -192.060E+06    -62.1204E+06    -191.638E+06     11.7037E+06    -4.87880E+06         42.1375
            1136     4.48683E-03     5.51931E-03         1.69000         1.66854        -5.98013         1.68276        -5.98008         1.67572     22.8951E-03     232.646E-03    -111.378E-03    -121.277E-03    -115.688E-03     227.057E-03    -111.378E-03     86.9162E-03    -8.65744E+06    -66.1340E+06    -210.065E+06    -66.4079E+06    -209.791E+06    -8.65744E+06    -4.28987E+06         41.3131
            1137     3.60068E-03     5.58954E-03         1.69807         1.66325        -5.97926         1.68548        -5.97909         1.67567     51.6361E-03     225.416E-03    -108.613E-03    -116.799E-03    -112.945E-03     221.561E-03    -108.613E-03     70.7884E-03    -32.4058E+06    -71.3667E+06    -226.901E+06    -71.5276E+06    -226.740E+06    -32.4058E+06    -3.91579E+06         40.5943
            1138     2.70812E-03     5.64697E-03         1.68971         1.66892        -5.96976         1.68318        -5.96957         1.67526     63.6934E-03     217.621E-03    -105.891E-03    -111.733E-03    -109.432E-03     215.320E-03    -105.891E-03     53.4597E-03    -54.1682E+06    -77.4735E+06    -242.115E+06    -77.5451E+06    -242.044E+06    -54.1682E+06    -2.85564E+06         40.0247
            1139     1.81130E-03     5.69189E-03         1.68284         1.65881        -5.94906         1.65930        -5.94843         1.68173     108.549E-03     210.142E-03    -103.536E-03    -106.613E-03    -105.510E-03     209.039E-03    -103.536E-03     35.6727E-03    -72.5768E+06    -84.7639E+06    -255.565E+06    -84.7862E+06    -255.543E+06    -72.5768E+06    -1.32768E+06         39.5963
            1140     907.572E-06     5.71986E-03         1.71201         1.66824        -5.98042         1.68840        -5.97881         1.69024    -25.5721E-03     204.622E-03    -101.726E-03    -102.896E-03    -102.422E-03     204.252E-03    -101.830E-03     19.5873E-03    -87.3918E+06    -93.3807E+06    -266.708E+06    -91.5760E+06    -266.628E+06    -89.2761E+06     205.114E+03         39.3185
            1141     15.0113E-03     4.09389E-03         1.83392         1.71698        -6.08676         1.80994        -6.06913         1.72334    -732.985E-03     297.405E-03    -126.295E-03    -171.224E-03    -140.597E-03     266.777E-03    -126.295E-03     224.215E-03     116.737E+06     101.192E+06    -7.58867E+06    -6.72160E+06     115.870E+06     101.192E+06     9.01392E+06         59.7058
            1142     14.1150E-03     3.91190E-03         1.91269         1.71187        -6.24147         1.90461        -6.23338         1.71187    -465.156E-03     296.518E-03    -125.549E-03    -171.085E-03    -138.796E-03     264.229E-03    -125.549E-03     234.240E-03     104.414E+06     91.1761E+06    -19.7605E+06    -18.2769E+06     102.930E+06     91.1761E+06     11.4296E+06         57.1949
            1143     13.2543E-03     3.81225E-03         1.91041         1.69637        -6.28081         1.90866        -6.27906         1.69637    -166.410E-03     267.450E-03    -121.034E-03    -146.452E-03    -120.331E-03     245.530E-03    -125.236E-03     183.930E-03     95.2584E+06     87.8207E+06    -27.5454E+06    -26.2720E+06     93.1939E+06     88.6119E+06     11.3430E+06         54.2062
            1144     12.3602E-03     3.77920E-03         1.85347         1.68185        -6.22884         1.85325        -6.22863         1.68185    -2.10018E-03     243.470E-03    -111.846E-03    -131.645E-03    -96.9064E-03     222.922E-03    -126.037E-03     167.185E-03     89.6123E+06     84.8955E+06    -31.5253E+06    -31.0522E+06     88.1081E+06     85.9266E+06     6.58082E+06         51.3914
            1145     11.4434E-03     3.78356E-03         1.79361         1.67057        -6.15729         1.79340        -6.15708         1.67057     59.0386E-03     233.266E-03    -105.276E-03    -128.003E-03    -87.2703E-03     215.261E-03    -128.003E-03     151.892E-03     89.5867E+06     75.1392E+06    -36.3179E+06    -36.1263E+06     89.1552E+06     75.3792E+06     1.76122E+06         49.0705
            1146     10.5384E-03     3.80500E-03         1.74987         1.66254        -6.09796         1.74944        -6.09754         1.66254     102.274E-03     234.590E-03    -104.007E-03    -130.575E-03    -87.3889E-03     217.972E-03    -130.575E-03     146.255E-03     88.7636E+06     63.2713E+06    -40.9384E+06    -40.8567E+06     88.6820E+06     63.2713E+06    -955.731E+03         47.2614
            1147     9.62847E-03     3.84472E-03         1.73076         1.65632        -6.06590         1.73033        -6.06547         1.65632     108.746E-03     240.284E-03    -106.969E-03    -133.348E-03    -91.2997E-03     224.615E-03    -133.348E-03     144.091E-03     69.7713E+06     32.5327E+06    -47.1900E+06    -45.9088E+06     45.3084E+06     55.7144E+06    -5.44200E+06         45.9784
            1148     8.72967E-03     3.89644E-03         1.71609         1.65082        -6.04160         1.71576        -6.04127         1.65082     98.1766E-03     249.396E-03    -113.367E-03    -136.056E-03    -98.3217E-03     234.352E-03    -136.056E-03     144.544E-03     48.5446E+06    -18.6273E+06    -60.9930E+06    -51.1210E+06    -28.4994E+06     48.5446E+06    -11.5342E+06         45.2154
            1149     7.83943E-03     3.94996E-03         1.68948         1.64663        -6.00197         1.68916        -6.00166         1.64663     97.3954E-03     258.504E-03    -120.120E-03    -138.414E-03    -105.911E-03     244.295E-03    -138.414E-03     143.807E-03     41.9072E+06    -44.8561E+06    -95.7641E+06    -53.5647E+06    -87.0555E+06     41.9072E+06    -17.1592E+06         44.8967
            1150     6.95712E-03     4.01788E-03         1.66526         1.64025        -5.96235         1.66028        -5.96209         1.64497     84.6118E-03     266.701E-03    -126.438E-03    -140.328E-03    -113.288E-03     253.550E-03    -140.328E-03     141.274E-03     34.3319E+06    -49.5064E+06    -147.164E+06    -55.6336E+06    -141.037E+06     34.3319E+06    -22.6143E+06         44.8430
            1151     6.07719E-03     4.08578E-03         1.65790         1.64045        -5.95305         1.65294        -5.95281         1.64517     78.0867E-03     274.177E-03    -131.590E-03    -142.645E-03    -120.709E-03     262.294E-03    -141.642E-03     136.832E-03     20.2121E+06    -53.3923E+06    -183.963E+06    -57.3486E+06    -180.007E+06     20.2121E+06    -21.2923E+06         44.8565
            1152     5.20860E-03     4.15829E-03         1.66345         1.64477        -5.96106         1.66331        -5.96093         1.64477     57.5610E-03     279.472E-03    -134.932E-03    -144.576E-03    -127.108E-03     269.345E-03    -142.274E-03     128.075E-03    -641.807E+03    -57.5475E+06    -203.056E+06    -59.4232E+06    -201.180E+06    -641.807E+03    -15.4341E+06         44.8095
            1153     4.34035E-03     4.23662E-03         1.67207         1.64205        -5.96119         1.67200        -5.96113         1.64205     41.4312E-03     282.472E-03    -137.505E-03    -144.977E-03    -132.162E-03     274.431E-03    -142.278E-03     115.162E-03    -22.9252E+06    -63.1813E+06    -218.943E+06    -63.9277E+06    -218.197E+06    -22.9252E+06    -10.3458E+06         44.6510
            1154     3.47518E-03     4.30878E-03         1.66765         1.63528        -5.94180         1.66532        -5.94164         1.63744     65.8509E-03     283.560E-03    -139.138E-03    -144.427E-03    -136.005E-03     277.734E-03    -141.734E-03     98.3377E-03    -44.4429E+06    -69.4739E+06    -233.942E+06    -69.7384E+06    -233.678E+06    -44.4429E+06    -5.56210E+06         44.4056
            1155     2.61044E-03     4.37231E-03         1.64905         1.62553        -5.90860         1.63983        -5.90845         1.63460     32.0418E-03     282.469E-03    -139.477E-03    -142.999E-03    -138.023E-03     278.843E-03    -140.828E-03     77.2404E-03    -62.4006E+06    -78.2949E+06    -248.213E+06    -78.3628E+06    -248.145E+06    -62.4006E+06    -1.31493E+06         44.1223
            1156     1.74192E-03     4.42433E-03         1.64742         1.62169        -5.89982         1.63366        -5.89939         1.63503     50.0932E-03     280.218E-03    -139.124E-03    -141.088E-03    -138.534E-03     278.402E-03    -139.862E-03     53.8561E-03    -75.9466E+06    -85.7284E+06    -258.767E+06    -85.7641E+06    -258.731E+06    -75.9466E+06     1.45202E+06         43.8458
            1157     871.809E-06     4.45685E-03         1.66167         1.61360        -5.89662         1.65208        -5.89347         1.62004    -135.809E-03     278.318E-03    -138.804E-03    -139.501E-03    -138.524E-03     277.682E-03    -139.146E-03     30.4875E-03    -87.5857E+06    -91.5094E+06    -266.763E+06    -91.1648E+06    -266.686E+06    -88.0068E+06     2.68419E+06         43.6377
            1158     14.8648E-03     2.77431E-03         1.93426         1.68836        -6.34554         1.90953        -6.32081         1.68836    -818.506E-03     305.642E-03    -133.061E-03    -172.664E-03    -139.135E-03     272.114E-03    -133.061E-03     239.361E-03     115.077E+06     102.952E+06    -14.0008E+06    -12.7339E+06     113.810E+06     102.952E+06     12.3659E+06         59.1087
            1159     14.0195E-03     2.56008E-03         1.92338         1.66956        -6.41391         1.91871        -6.40925         1.66956    -264.594E-03     289.131E-03    -125.133E-03    -164.131E-03    -133.057E-03     265.959E-03    -133.035E-03     192.386E-03     105.290E+06     94.1823E+06    -18.3810E+06    -17.2825E+06     103.174E+06     95.2004E+06     10.8897E+06         56.5256
            1160     13.1319E-03     2.54399E-03         1.83461         1.65338        -6.30638         1.83429        -6.30606         1.65338     26.6543E-03     252.025E-03    -112.849E-03    -139.241E-03    -101.679E-03     235.664E-03    -134.050E-03     151.046E-03     99.7369E+06     92.6256E+06    -19.6233E+06    -19.2586E+06     97.5629E+06     94.4349E+06     5.99486E+06         53.6684
            1161     12.2104E-03     2.52639E-03         1.76796         1.64190        -6.19704         1.76740        -6.19649         1.64190     116.454E-03     240.216E-03    -103.708E-03    -136.510E-03    -87.4622E-03     223.970E-03    -136.510E-03     144.311E-03     97.9475E+06     87.4203E+06    -24.7228E+06    -24.5149E+06     96.9484E+06     88.2115E+06     1.78513E+06         51.0544
            1162     11.3025E-03     2.53113E-03         1.71518         1.63401        -6.10631         1.71444        -6.10557         1.63401     146.168E-03     237.469E-03    -97.5422E-03    -139.932E-03    -83.6319E-03     223.559E-03    -139.932E-03     131.933E-03     95.4179E+06     67.1214E+06    -30.3936E+06    -30.2474E+06     95.2716E+06     67.1214E+06    -3.46123E+06         48.8842
            1163     10.3827E-03     2.55084E-03         1.69036         1.62852        -6.05357         1.68978        -6.05299         1.62852     128.673E-03     241.417E-03    -97.4012E-03    -144.038E-03    -84.8426E-03     228.858E-03    -144.038E-03     126.274E-03     88.2022E+06     39.2879E+06    -36.0243E+06    -35.7444E+06     87.9222E+06     39.2879E+06    -5.49734E+06         47.1877
            1164     9.47405E-03     2.57990E-03         1.68513         1.62359        -6.02683         1.68473        -6.02643         1.62359     100.680E-03     250.613E-03    -102.131E-03    -148.540E-03    -90.5154E-03     238.997E-03    -148.540E-03     124.064E-03     56.1735E+06     6.54590E+06    -43.0620E+06    -40.9442E+06     42.6284E+06     17.9732E+06    -9.75533E+06         45.9997
            1165     8.57021E-03     2.61243E-03         1.66985         1.61881        -5.99305         1.66955        -5.99275         1.61881     91.1179E-03     262.600E-03    -109.374E-03    -153.296E-03    -98.4160E-03     251.642E-03    -153.296E-03     123.965E-03     19.7881E+06    -24.2991E+06    -64.2732E+06    -45.5163E+06    -30.0182E+06     6.75029E+06    -19.5693E+06         45.3557
            1166     7.67459E-03     2.65691E-03         1.64478         1.61535        -5.95285         1.64435        -5.95242         1.61535     108.265E-03     275.897E-03    -117.861E-03    -158.102E-03    -107.452E-03     265.488E-03    -158.102E-03     124.222E-03     5.04592E+06    -37.8068E+06    -105.796E+06    -48.0458E+06    -90.7432E+06     232.440E+03    -27.5705E+06         45.2777
            1167     6.78772E-03     2.70600E-03         1.62277         1.60793        -5.91433         1.61585        -5.91400         1.61452     89.0097E-03     290.323E-03    -127.614E-03    -162.794E-03    -117.805E-03     280.513E-03    -162.794E-03     124.323E-03    -3.97972E+06    -43.7123E+06    -161.742E+06    -51.4409E+06    -152.687E+06    -5.30689E+06    -30.7157E+06         45.7116
            1168     5.91532E-03     2.75928E-03         1.62120         1.60897        -5.90533         1.61453        -5.90524         1.61556     40.0523E-03     304.348E-03    -137.231E-03    -167.181E-03    -128.297E-03     295.414E-03    -167.181E-03     122.153E-03    -15.3364E+06    -51.0820E+06    -205.272E+06    -56.5889E+06    -199.765E+06    -15.3364E+06    -27.9620E+06         46.4574
            1169     5.04604E-03     2.82017E-03         1.63585         1.61502        -5.91647         1.63581        -5.91643         1.61502     24.7388E-03     317.963E-03    -146.830E-03    -171.166E-03    -139.081E-03     310.214E-03    -171.166E-03     116.776E-03    -31.4313E+06    -59.5462E+06    -223.425E+06    -62.0009E+06    -220.971E+06    -31.4313E+06    -18.9444E+06         47.2482
            1170     4.19067E-03     2.88322E-03         1.63548         1.60814        -5.90433         1.63108        -5.90429         1.61249     33.4976E-03     331.394E-03    -156.803E-03    -174.598E-03    -150.436E-03     325.027E-03    -174.598E-03     108.544E-03    -47.1746E+06    -67.6351E+06    -234.960E+06    -68.3251E+06    -234.270E+06    -47.1746E+06    -8.99682E+06         47.8792
            1171     3.34341E-03     2.94508E-03         1.62024         1.60473        -5.88137         1.61350        -5.88114         1.61124     71.6296E-03     342.944E-03    -165.621E-03    -177.331E-03    -160.849E-03     338.171E-03    -177.331E-03     95.9745E-03    -61.2585E+06    -75.0689E+06    -245.669E+06    -75.1805E+06    -245.558E+06    -61.2585E+06    -1.66928E+06         48.2711
            1172     2.50226E-03     3.00177E-03         1.61507         1.60374        -5.86790         1.60578        -5.86768         1.61281     35.6122E-03     351.865E-03    -172.517E-03    -179.347E-03    -169.431E-03     348.780E-03    -179.347E-03     78.0773E-03     -70.244E+06    -79.1233E+06    -252.593E+06    -79.1479E+06    -252.568E+06     -70.244E+06     1.80574E+06         48.4560
            1173     1.66624E-03     3.04978E-03         1.62606         1.60472        -5.87673         1.61695        -5.87662         1.61372     15.2827E-03     358.250E-03    -177.559E-03    -180.664E-03    -175.980E-03     356.671E-03    -180.664E-03     55.7423E-03    -77.7854E+06    -83.4850E+06    -258.239E+06    -83.5384E+06    -258.186E+06    -77.7854E+06     2.96514E+06         48.5083
            1174     832.130E-06     3.07868E-03         1.64221         1.58623        -5.87857         1.60399        -5.87646         1.62234    -114.268E-03     361.884E-03    -180.343E-03    -181.516E-03    -179.804E-03     361.338E-03    -181.509E-03     31.3957E-03    -83.2787E+06    -86.5312E+06    -262.794E+06    -85.8662E+06    -262.734E+06    -84.0037E+06     2.67014E+06         48.4983
            1175     14.8013E-03     1.32808E-03         1.98782         1.64306        -6.75719         1.96758        -6.73695         1.64306    -632.969E-03     333.811E-03    -137.449E-03    -196.452E-03    -169.836E-03     309.305E-03    -139.559E-03     211.443E-03     123.866E+06     114.819E+06    -3.49780E+06    -931.074E+03     117.838E+06     118.281E+06     11.7893E+06         58.9271
            1176     13.9399E-03     1.29388E-03         1.80053         1.62512        -6.46704         1.79981        -6.46632         1.62512    -27.0683E-03     270.935E-03    -121.228E-03    -149.864E-03    -122.525E-03     261.740E-03    -139.372E-03     115.891E-03     113.293E+06     107.624E+06    -2.19783E+06    -1.64091E+06     109.738E+06     110.622E+06     4.28228E+06         56.4807
            1177     13.0113E-03     1.27497E-03         1.69842         1.61579        -6.24893         1.69820        -6.24870         1.61579     77.0453E-03     244.424E-03    -103.186E-03    -141.323E-03    -95.6838E-03     236.922E-03    -141.323E-03     93.4496E-03     105.087E+06     100.977E+06    -7.36345E+06    -7.23444E+06     103.535E+06     102.400E+06     3.31638E+06         53.8508
            1178     12.1107E-03     1.26256E-03         1.66645         1.61064        -6.13654         1.66590        -6.13600         1.61064     115.587E-03     239.308E-03    -94.7224E-03    -144.620E-03    -88.1042E-03     232.690E-03    -144.620E-03     84.0996E-03     105.119E+06     84.4746E+06    -12.9289E+06    -12.8794E+06     105.069E+06     84.4746E+06    -226.699E+03         51.4617
            1179     11.1884E-03     1.26980E-03         1.65338         1.60671        -6.06642         1.65281        -6.06586         1.60671     107.626E-03     239.544E-03    -90.7318E-03    -148.777E-03    -85.2457E-03     234.058E-03    -148.777E-03     76.6043E-03     99.5688E+06     46.6962E+06    -20.9246E+06    -20.7046E+06     99.3488E+06     46.6962E+06    -4.39714E+06         49.4342
            1180     10.2752E-03     1.28039E-03         1.63933         1.60341        -6.01458         1.63910        -6.01436         1.60341     63.3300E-03     246.444E-03    -92.6721E-03    -153.764E-03    -87.7357E-03     241.508E-03    -153.764E-03     73.4222E-03     83.6542E+06     5.25696E+06    -29.9511E+06    -26.6616E+06     83.3036E+06     2.31816E+06    -4.65168E+06         47.8407
            1181     9.36170E-03     1.29298E-03         1.62532         1.60061        -5.97045         1.62498        -5.97037         1.60088     45.3393E-03     257.118E-03    -97.8558E-03    -159.357E-03    -93.3407E-03     252.603E-03    -159.357E-03     71.8659E-03     46.0691E+06    -21.2751E+06    -51.6867E+06    -31.8483E+06     44.7009E+06    -39.7453E+06    -7.00455E+06         46.7327
            1182     8.45621E-03     1.31197E-03         1.61796         1.59868        -5.93737         1.61760        -5.93728         1.59895     45.2613E-03     270.415E-03    -105.047E-03    -165.504E-03    -100.837E-03     266.205E-03    -165.504E-03     70.9615E-03    -2.14807E+06    -40.6182E+06    -81.3361E+06    -36.4339E+06    -23.3968E+06    -64.2716E+06    -17.2119E+06         46.1497
            1183     7.55738E-03     1.33383E-03         1.62135         1.59679        -5.92047         1.62107        -5.92019         1.59679     58.2768E-03     286.625E-03    -114.578E-03    -172.144E-03    -110.659E-03     282.707E-03    -172.144E-03     71.0859E-03    -32.0379E+06    -62.5554E+06    -118.008E+06    -42.5680E+06    -99.3563E+06    -70.6775E+06    -23.4546E+06         46.1361
            1184     6.67144E-03     1.35981E-03         1.62323         1.59206        -5.90673         1.62109        -5.90645         1.59392     54.4051E-03     305.128E-03    -126.092E-03    -179.066E-03    -122.390E-03     301.426E-03    -179.066E-03     71.7353E-03    -43.3764E+06    -69.6416E+06    -172.384E+06    -51.1600E+06    -167.126E+06    -67.1158E+06    -22.3426E+06         46.7277
            1185     5.79189E-03     1.39108E-03         1.61035         1.58945        -5.88064         1.60843        -5.88059         1.59131     10.2851E-03     325.030E-03    -138.956E-03    -186.052E-03    -135.531E-03     321.605E-03    -186.052E-03     71.3069E-03    -51.6655E+06    -68.0360E+06    -222.490E+06    -61.2529E+06    -219.578E+06    -61.3613E+06    -19.3785E+06         47.8577
            1186     4.93066E-03     1.42584E-03         1.59943         1.58529        -5.85576         1.59442        -5.85566         1.59021     28.1524E-03     346.052E-03    -153.131E-03    -192.855E-03    -150.122E-03     343.043E-03    -192.855E-03     69.5339E-03    -60.4376E+06    -70.3895E+06    -245.168E+06    -69.7473E+06    -243.944E+06    -62.3040E+06    -11.6040E+06         49.2454
            1187     4.07888E-03     1.46139E-03         1.59575         1.57639        -5.84345         1.58057        -5.84333         1.59145     55.2197E-03     367.389E-03    -168.044E-03    -199.263E-03    -165.538E-03     364.883E-03    -199.263E-03     65.5939E-03    -67.4271E+06    -75.3830E+06    -250.381E+06    -75.6201E+06    -250.144E+06    -67.4271E+06    -3.62609E+06         50.5049
            1188     3.24201E-03     1.49773E-03         1.59535         1.58394        -5.84897         1.58489        -5.84873         1.59415     76.3803E-03     387.840E-03    -182.693E-03    -205.058E-03    -180.768E-03     385.915E-03    -205.058E-03     58.7990E-03    -72.2298E+06    -78.6334E+06    -253.246E+06    -78.6609E+06    -253.218E+06    -72.2298E+06    -15.1148E+03         51.4278
            1189     2.41802E-03     1.53325E-03         1.59789         1.59531        -5.85537         1.59753        -5.85508         1.59538     27.6956E-03     406.192E-03    -196.140E-03    -209.957E-03    -194.859E-03     404.912E-03    -209.957E-03     49.1098E-03    -75.1751E+06    -79.4177E+06    -254.909E+06    -79.4435E+06    -254.883E+06    -75.1751E+06     2.03508E+06         52.0330
            1190     1.60558E-03     1.56079E-03         1.59997         1.59268        -5.85153         1.59773        -5.85138         1.59477     857.398E-06     420.836E-03    -207.104E-03    -213.666E-03    -206.427E-03     420.159E-03    -213.666E-03     36.3099E-03    -76.8756E+06    -79.9651E+06    -255.585E+06    -79.9993E+06    -255.551E+06    -76.8756E+06     2.37541E+06         52.4034
            1191     801.854E-06     1.58329E-03         1.65043         1.53947        -5.84492         1.54272        -5.84428         1.64654    -56.5154E-03     430.247E-03    -213.866E-03    -216.352E-03    -214.002E-03     430.011E-03    -215.981E-03     20.9195E-03    -78.8383E+06    -80.6545E+06    -256.539E+06    -80.4101E+06    -256.479E+06    -79.1421E+06     1.53865E+06         52.5989
            1192     889.507E-06     70.7327E-03         1.42408     3.55497E-03        -2.11432         1.40853        -2.11113     15.9152E-03    -26.1484E-03     236.253E-03    -117.633E-03    -118.638E-03    -118.603E-03     236.250E-03    -117.666E-03    -736.022E-06    -119.255E+06    -122.875E+06    -316.413E+06    -122.596E+06    -316.386E+06    -119.560E+06    -657.392E+03         39.4451
            1193     1.77795E-03     70.7326E-03     709.029E-03     689.124E-03        -2.07902     689.114E-03        -2.07716     707.184E-03     115.289E-03     236.342E-03    -118.148E-03    -118.210E-03    -118.148E-03     236.341E-03    -118.210E-03    -246.954E-06    -106.380E+06    -116.987E+06    -307.878E+06    -117.003E+06    -307.862E+06    -106.380E+06     500.253E+03         39.6054
            1194     2.66579E-03     70.7299E-03     707.669E-03     688.304E-03        -2.07180     694.010E-03        -2.07127     701.437E-03     67.6159E-03     236.366E-03    -118.086E-03    -118.293E-03    -118.086E-03     236.365E-03    -118.293E-03     258.351E-06    -88.7621E+06    -110.758E+06    -296.273E+06    -110.773E+06    -296.258E+06    -88.7621E+06     294.256E+03         39.8870
            1195     3.55585E-03     70.7292E-03     708.117E-03     691.176E-03        -2.07662     698.148E-03        -2.07545     699.977E-03     105.499E-03     236.369E-03    -118.010E-03    -118.374E-03    -118.008E-03     236.366E-03    -118.374E-03     1.57025E-03    -67.9122E+06    -102.459E+06    -280.714E+06    -102.474E+06    -280.699E+06    -67.9122E+06     317.462E+03         40.3038
            1196     4.44280E-03     70.7303E-03     702.919E-03     691.453E-03        -2.07304     693.580E-03        -2.07141     699.165E-03    -168.929E-06     236.168E-03    -117.753E-03    -118.439E-03    -117.735E-03     236.149E-03    -118.439E-03     4.61598E-03    -48.6867E+06    -93.7377E+06    -263.983E+06    -93.7435E+06    -263.978E+06    -48.6867E+06    -200.025E+03         40.8643
            1197     5.33246E-03     70.7350E-03     696.106E-03     667.902E-03        -2.04657     667.045E-03        -2.04571     696.106E-03    -43.8499E-03     235.769E-03    -117.385E-03    -118.412E-03    -117.325E-03     235.709E-03    -118.412E-03     8.89541E-03    -34.6467E+06    -85.1854E+06    -232.556E+06    -85.1878E+06    -232.554E+06    -34.6467E+06    -337.369E+03         41.5866
            1198     6.22251E-03     70.7434E-03     691.009E-03     655.999E-03        -2.02816     655.733E-03        -2.02790     691.009E-03    -9.26955E-03     235.583E-03    -117.255E-03    -118.354E-03    -117.120E-03     235.448E-03    -118.354E-03     13.5471E-03    -24.0046E+06    -77.2499E+06    -192.209E+06    -77.2557E+06    -192.203E+06    -24.0046E+06    -499.229E+03         42.4814
            1199     7.11159E-03     70.7588E-03     686.320E-03     655.924E-03        -2.02045     655.706E-03        -2.02023     686.320E-03    -23.1378E-03     235.421E-03    -117.145E-03    -118.320E-03    -116.844E-03     235.121E-03    -118.320E-03     20.1045E-03    -13.7064E+06    -69.5329E+06    -154.086E+06    -69.5432E+06    -154.075E+06    -13.7064E+06    -918.464E+03         43.5762
            1200     7.99933E-03     70.7820E-03     681.431E-03     635.068E-03        -1.99405     634.935E-03        -1.99391     681.431E-03    -9.47976E-03     235.225E-03    -116.993E-03    -118.267E-03    -116.394E-03     234.626E-03    -118.267E-03     28.6644E-03    -4.04030E+06    -63.0156E+06    -106.800E+06    -63.0349E+06    -106.781E+06    -4.04030E+06    -358.981E+03         44.9201
            1201     8.89009E-03     70.8168E-03     675.141E-03     612.186E-03        -1.95992     611.929E-03        -1.95967     675.141E-03     6.74133E-03     234.835E-03    -116.645E-03    -118.189E-03    -115.649E-03     233.839E-03    -118.189E-03     37.1433E-03     6.92852E+06    -37.1263E+06    -66.8961E+06    -56.7966E+06    -47.2258E+06     6.92852E+06     48.8740E+03         46.5464
            1202     9.77975E-03     70.8593E-03     667.933E-03     596.404E-03        -1.93419     595.541E-03        -1.93333     667.933E-03     82.6881E-03     234.825E-03    -116.725E-03    -118.093E-03    -114.965E-03     233.041E-03    -118.070E-03     49.2853E-03     44.1324E+06     5.47197E+06    -50.3245E+06    -50.3118E+06     30.5141E+06     19.0776E+06     144.208E+03         48.4811
            1203     10.6701E-03     70.9208E-03     660.181E-03     580.328E-03        -1.90989     579.609E-03        -1.90917     660.181E-03     53.7060E-03     235.546E-03    -117.516E-03    -118.065E-03    -114.400E-03     232.374E-03    -118.010E-03     66.0627E-03     83.6226E+06     34.4526E+06    -43.9608E+06    -43.9558E+06     83.6177E+06     34.4526E+06    -307.366E+03         50.6538
            1204     11.5590E-03     71.0092E-03     651.535E-03     555.771E-03        -1.87316     555.689E-03        -1.87308     651.535E-03     10.9137E-03     237.469E-03    -117.971E-03    -119.534E-03    -114.011E-03     231.969E-03    -117.994E-03     87.0989E-03     94.5165E+06     57.2742E+06    -37.4334E+06    -37.4304E+06     94.5134E+06     57.2742E+06    -450.571E+03         52.7890
            1205     12.4485E-03     71.1232E-03     641.512E-03     526.010E-03        -1.82910     525.928E-03        -1.82901     641.512E-03     22.6343E-03     241.566E-03    -118.058E-03    -123.534E-03    -114.449E-03     232.481E-03    -118.058E-03     113.037E-03     98.1465E+06     84.5520E+06    -29.0770E+06    -29.0744E+06     98.1439E+06     84.5520E+06    -131.743E+03         54.5592
            1206     13.3397E-03     71.2747E-03     630.575E-03     503.371E-03        -1.79009     503.076E-03        -1.78979     630.575E-03    -28.4091E-03     242.292E-03    -118.136E-03    -124.253E-03    -114.976E-03     233.015E-03    -118.136E-03     114.570E-03     101.421E+06     100.364E+06    -20.0560E+06    -20.0479E+06     100.823E+06     100.954E+06    -221.815E+03         56.1126
            1207     14.2268E-03     71.3930E-03     618.988E-03     482.995E-03        -1.74821     482.700E-03        -1.74792     618.988E-03    -26.8001E-03     248.716E-03    -118.068E-03    -130.715E-03    -115.888E-03     233.889E-03    -118.068E-03     142.481E-03     109.419E+06     102.752E+06    -12.3002E+06    -12.2813E+06     108.810E+06     103.342E+06    -769.557E+03         58.0481
            1208     15.1191E-03     71.6181E-03     607.299E-03     460.879E-03        -1.70913     460.779E-03        -1.70903     607.299E-03    -10.8522E-03     245.702E-03    -117.304E-03    -128.480E-03    -116.389E-03     234.288E-03    -117.982E-03     105.260E-03     117.536E+06     104.334E+06    -5.31448E+06    -5.28866E+06     117.510E+06     104.334E+06    -659.730E+03         60.2696
            1209     887.993E-06     71.9986E-03         1.48990    -141.700E-03        -1.98310         1.48440        -1.98112    -138.179E-03    -31.4236E-03     236.728E-03    -118.078E-03    -118.673E-03    -118.595E-03     236.725E-03    -118.153E-03    -1.23148E-03    -117.411E+06    -122.365E+06    -315.332E+06    -121.645E+06    -315.327E+06    -118.137E+06    -956.994E+03         39.4595
            1210     1.77706E-03     71.9977E-03     696.432E-03     673.020E-03        -2.00538     691.952E-03        -2.00442     676.542E-03     85.7900E-03     236.517E-03    -118.142E-03    -118.398E-03    -118.141E-03     236.517E-03    -118.398E-03    -642.283E-06    -106.259E+06    -117.415E+06    -308.529E+06    -117.423E+06    -308.522E+06    -106.259E+06    -367.265E+03         39.6141
            1211     2.66659E-03     71.9961E-03     684.789E-03     672.380E-03        -1.98889     677.016E-03        -1.98868     679.944E-03     38.8637E-03     236.412E-03    -118.027E-03    -118.403E-03    -118.026E-03     236.411E-03    -118.403E-03     401.806E-06    -88.0542E+06    -109.939E+06    -295.942E+06    -109.951E+06    -295.931E+06    -88.0542E+06    -1.27541E+03         39.8886
            1212     3.55347E-03     71.9952E-03     677.609E-03     663.277E-03        -1.97248     662.692E-03        -1.97190     677.609E-03     68.3922E-03     236.246E-03    -117.845E-03    -118.424E-03    -117.840E-03     236.241E-03    -118.424E-03     2.29440E-03    -68.0938E+06    -102.020E+06    -281.448E+06    -102.031E+06    -281.437E+06    -68.0938E+06       27.13E+03         40.3013
            1213     4.44408E-03     71.9959E-03     673.911E-03     657.341E-03        -1.96344     655.919E-03        -1.96202     673.911E-03    -20.4366E-03     236.005E-03    -117.596E-03    -118.447E-03    -117.575E-03     235.984E-03    -118.447E-03     5.08356E-03    -49.5768E+06    -94.1024E+06    -264.534E+06    -94.1083E+06    -264.528E+06    -49.5768E+06     284.428E+03         40.8612
            1214     5.33336E-03     71.9992E-03     672.042E-03     648.856E-03        -1.95419     649.659E-03        -1.95322     670.272E-03    -60.6185E-03     235.831E-03    -117.448E-03    -118.414E-03    -117.389E-03     235.773E-03    -118.414E-03     8.86147E-03    -34.6052E+06    -85.4971E+06    -231.948E+06    -85.5003E+06    -231.945E+06    -34.6052E+06    -51.2507E+03         41.5836
            1215     6.22142E-03     72.0103E-03     668.484E-03     642.661E-03        -1.94134     644.011E-03        -1.94092     666.714E-03    -34.9178E-03     235.573E-03    -117.233E-03    -118.360E-03    -117.104E-03     235.444E-03    -118.360E-03     13.2669E-03    -23.2906E+06    -76.5459E+06    -191.336E+06    -76.5501E+06    -191.331E+06    -23.2906E+06    -454.614E+03         42.4786
            1216     7.11070E-03     72.0229E-03     663.032E-03     635.853E-03        -1.92642     635.428E-03        -1.92599     663.032E-03    -39.0929E-03     235.283E-03    -117.001E-03    -118.318E-03    -116.708E-03     234.990E-03    -118.318E-03     19.8227E-03    -13.6041E+06    -69.9335E+06    -154.143E+06    -69.9461E+06    -154.131E+06    -13.6041E+06    -736.022E+03         43.5727
            1217     8.00160E-03     72.0486E-03     658.631E-03     619.403E-03        -1.90387     619.364E-03        -1.90383     658.631E-03     4.26774E-03     234.941E-03    -116.724E-03    -118.244E-03    -116.132E-03     234.349E-03    -118.244E-03     28.4625E-03    -4.31757E+06    -63.3322E+06    -107.726E+06    -63.3480E+06    -107.710E+06    -4.31757E+06    -704.519E+03         44.9154
            1218     8.88974E-03     72.0810E-03     652.651E-03     590.377E-03        -1.86497     590.206E-03        -1.86480     652.651E-03     25.4037E-03     234.880E-03    -116.721E-03    -118.159E-03    -115.749E-03     233.909E-03    -118.159E-03     36.7128E-03     6.59763E+06    -37.1350E+06    -67.2459E+06    -56.4094E+06    -47.9715E+06     6.59763E+06    -286.691E+03         46.5459
            1219     9.78042E-03     72.1243E-03     644.876E-03     563.645E-03        -1.82677     562.848E-03        -1.82598     644.876E-03     80.4176E-03     235.280E-03    -117.194E-03    -118.093E-03    -115.467E-03     233.530E-03    -118.070E-03     48.8319E-03     44.6302E+06     5.66746E+06    -49.8736E+06    -49.8543E+06     30.8690E+06     19.4093E+06    -342.867E+03         48.4898
            1220     10.6676E-03     72.1896E-03     635.870E-03     541.729E-03        -1.79535     541.089E-03        -1.79471     635.870E-03     47.2245E-03     235.910E-03    -117.781E-03    -118.164E-03    -114.744E-03     232.755E-03    -118.046E-03     65.9355E-03     84.4363E+06     35.4787E+06    -43.2150E+06    -43.2091E+06     84.4304E+06     35.4787E+06    -215.823E+03         50.6670
            1221     11.5582E-03     72.2712E-03     625.909E-03     519.475E-03        -1.76168     519.361E-03        -1.76157     625.909E-03     14.0323E-03     237.536E-03    -118.017E-03    -119.528E-03    -113.928E-03     231.959E-03    -118.040E-03     87.6251E-03     95.2044E+06     58.5288E+06    -35.8735E+06    -35.8677E+06     95.1986E+06     58.5288E+06    -119.846E+03         52.7945
            1222     12.4497E-03     72.3907E-03     615.096E-03     501.981E-03        -1.72739     501.775E-03        -1.72718     615.096E-03     12.4668E-03     241.414E-03    -118.081E-03    -123.327E-03    -114.172E-03     232.259E-03    -118.081E-03     113.486E-03     98.3266E+06     85.0272E+06    -27.7223E+06    -27.7137E+06     98.3180E+06     85.0272E+06    -812.146E+03         54.5534
            1223     13.3381E-03     72.5390E-03     603.683E-03     476.367E-03        -1.68558     476.037E-03        -1.68525     603.683E-03    -38.4796E-03     241.744E-03    -118.126E-03    -123.669E-03    -114.463E-03     232.538E-03    -118.126E-03     113.930E-03     101.143E+06     100.130E+06    -19.7042E+06    -19.6816E+06     100.468E+06     100.782E+06    -1.06659E+06         56.1077
            1224     14.2299E-03     72.6616E-03     591.043E-03     439.771E-03        -1.62799     439.536E-03        -1.62775     591.043E-03    -23.1711E-03     248.638E-03    -118.046E-03    -130.624E-03    -115.818E-03     233.831E-03    -118.046E-03     142.275E-03     108.600E+06     102.790E+06    -12.1058E+06    -12.0723E+06     107.914E+06     103.442E+06     -635.08E+03         58.0513
            1225     15.1195E-03     72.8796E-03     577.863E-03     413.715E-03        -1.58281     413.407E-03        -1.58250     577.863E-03    -25.9273E-03     246.211E-03    -117.389E-03    -128.861E-03    -116.802E-03     234.736E-03    -117.973E-03     106.205E-03     116.208E+06     104.164E+06     -5.4615E+06    -5.43633E+06     116.183E+06     104.164E+06     116.225E+03         60.2775
            1226     888.784E-06     73.2662E-03         1.52362    -240.527E-03        -1.87062         1.51620        -1.86853    -235.191E-03    -51.3100E-03     236.928E-03    -118.240E-03    -118.702E-03    -118.604E-03     236.928E-03    -118.337E-03    -193.664E-06    -115.399E+06    -120.059E+06    -314.192E+06    -119.354E+06    -314.171E+06    -116.124E+06     553.016E+03         39.4641
            1227     1.77665E-03     73.2627E-03     664.269E-03     638.366E-03        -1.89152     657.713E-03        -1.89030     643.702E-03     104.462E-03     236.620E-03    -118.162E-03    -118.475E-03    -118.161E-03     236.619E-03    -118.475E-03    -171.558E-06    -105.778E+06    -116.506E+06    -308.250E+06    -116.510E+06    -308.247E+06    -105.778E+06    -132.764E+03         39.6154
            1228     2.66519E-03     73.2616E-03     657.743E-03     648.504E-03        -1.89595     657.017E-03        -1.89535     648.635E-03     65.4597E-03     236.156E-03    -117.746E-03    -118.422E-03    -117.744E-03     236.155E-03    -118.422E-03     917.344E-06    -87.3929E+06    -110.702E+06    -296.681E+06    -110.709E+06    -296.674E+06    -87.3929E+06     263.907E+03         39.8857
            1229     3.55616E-03     73.2608E-03     653.129E-03     643.413E-03        -1.88547     645.512E-03        -1.88398     649.542E-03     97.6354E-03     236.082E-03    -117.699E-03    -118.395E-03    -117.707E-03     236.077E-03    -118.383E-03     2.38109E-03    -67.5382E+06    -102.630E+06    -282.616E+06    -102.636E+06    -282.610E+06    -67.5382E+06     275.234E+03         40.2990
            1230     4.44397E-03     73.2603E-03     646.660E-03     625.095E-03        -1.86057     623.151E-03        -1.85863     646.660E-03     33.5187E-03     236.276E-03    -117.883E-03    -118.432E-03    -117.877E-03     236.257E-03    -118.419E-03     4.87972E-03    -49.3997E+06    -93.3661E+06    -264.413E+06    -93.3720E+06    -264.407E+06    -49.3997E+06     14.3751E+03         40.8619
            1231     5.33187E-03     73.2668E-03     644.172E-03     619.486E-03        -1.85002     620.658E-03        -1.84943     642.402E-03    -35.3286E-03     235.865E-03    -117.487E-03    -118.422E-03    -117.432E-03     235.809E-03    -118.422E-03     8.56828E-03    -34.1026E+06    -84.4552E+06    -230.784E+06    -84.4604E+06    -230.779E+06    -34.1026E+06    -42.9257E+03         41.5850
            1232     6.22227E-03     73.2735E-03     640.745E-03     617.792E-03        -1.84148     619.207E-03        -1.84112     638.975E-03    -2.27945E-03     235.455E-03    -117.124E-03    -118.363E-03    -116.985E-03     235.315E-03    -118.363E-03     13.6973E-03    -23.3780E+06    -77.0659E+06    -191.512E+06    -77.0731E+06    -191.505E+06    -23.3780E+06    -366.847E+03         42.4799
            1233     7.11134E-03     73.2906E-03     634.756E-03     596.156E-03        -1.81015     595.798E-03        -1.80979     634.756E-03    -30.9240E-03     235.376E-03    -117.098E-03    -118.317E-03    -116.807E-03     235.086E-03    -118.317E-03     19.9568E-03    -13.5215E+06    -69.9383E+06    -153.464E+06    -69.9520E+06    -153.451E+06    -13.5215E+06    -648.835E+03         43.5755
            1234     7.99965E-03     73.3114E-03     628.963E-03     580.007E-03        -1.78667     579.909E-03        -1.78657     628.963E-03    -24.5482E-03     235.101E-03    -116.864E-03    -118.259E-03    -116.308E-03     234.546E-03    -118.259E-03     27.6009E-03    -4.06817E+06    -62.7814E+06    -107.617E+06    -62.8452E+06    -107.553E+06    -4.06817E+06    -936.926E+03         44.9172
            1235     8.89113E-03     73.3478E-03     622.446E-03     565.759E-03        -1.76412     565.708E-03        -1.76407     622.446E-03     1.75011E-03     235.177E-03    -116.979E-03    -118.189E-03    -116.015E-03     234.213E-03    -118.189E-03     36.5078E-03     6.20308E+06    -36.9015E+06    -67.9005E+06    -56.0219E+06    -48.7801E+06     6.20308E+06    -912.317E+03         46.5425
            1236     9.77775E-03     73.3913E-03     614.884E-03     539.795E-03        -1.72750     539.351E-03        -1.72705     614.884E-03     52.8819E-03     235.062E-03    -116.963E-03    -118.097E-03    -115.221E-03     233.319E-03    -118.097E-03     48.7683E-03     43.9376E+06     5.57160E+06    -49.7712E+06    -49.7562E+06     30.5173E+06     18.9768E+06    -696.557E+03         48.4820
            1237     10.6701E-03     73.4538E-03     605.748E-03     510.778E-03        -1.68616     510.302E-03        -1.68568     605.748E-03     30.4432E-03     235.503E-03    -117.353E-03    -118.178E-03    -114.263E-03     232.279E-03    -118.044E-03     66.4215E-03     84.3740E+06     35.7137E+06    -42.7513E+06    -42.7405E+06     84.3632E+06     35.7137E+06    -509.281E+03         50.6613
            1238     11.5588E-03     73.5389E-03     595.212E-03     485.474E-03        -1.64837     485.374E-03        -1.64827     595.212E-03    -812.411E-06     237.792E-03    -118.031E-03    -119.791E-03    -114.166E-03     232.167E-03    -118.031E-03     88.2430E-03     95.5817E+06     59.2126E+06    -34.8727E+06    -34.8610E+06     95.5699E+06     59.2126E+06      -1.518E+03         52.7900
            1239     12.4476E-03     73.6538E-03     583.565E-03     464.558E-03        -1.60999     464.422E-03        -1.60986     583.565E-03    -1.92819E-03     241.586E-03    -118.076E-03    -123.530E-03    -114.198E-03     232.254E-03    -118.076E-03     114.426E-03     99.0389E+06     85.3807E+06    -27.9714E+06    -27.9619E+06     99.0294E+06     85.3807E+06    -216.976E+03         54.5448
            1240     13.3388E-03     73.8078E-03     571.141E-03     437.763E-03        -1.56396     437.317E-03        -1.56352     571.141E-03    -50.6555E-03     241.498E-03    -118.103E-03    -123.446E-03    -114.132E-03     232.183E-03    -118.103E-03     114.282E-03     101.317E+06     99.5752E+06    -21.0186E+06    -20.9947E+06     100.540E+06     100.328E+06    -1.34298E+06         56.1019
            1241     14.2293E-03     73.9208E-03     557.947E-03     417.665E-03        -1.52218     417.308E-03        -1.52182     557.947E-03    -34.2748E-03     249.050E-03    -118.025E-03    -131.066E-03    -116.300E-03     234.284E-03    -118.025E-03     142.031E-03     107.341E+06     101.272E+06    -13.8419E+06    -13.8143E+06     106.560E+06     102.025E+06    -967.050E+03         58.0536
            1242     15.1195E-03     74.1515E-03     544.944E-03     395.645E-03        -1.47589     395.379E-03        -1.47562     544.944E-03    -25.6008E-03     246.767E-03    -117.291E-03    -129.517E-03    -117.335E-03     235.286E-03    -117.991E-03     105.101E-03     115.458E+06     103.183E+06    -6.84693E+06    -6.83523E+06     115.446E+06     103.183E+06     178.148E+03         60.2834
            1243     888.290E-06     74.5312E-03         1.57431    -312.200E-03        -1.79557         1.55846        -1.79432    -297.606E-03    -28.3830E-03     236.292E-03    -117.901E-03    -118.401E-03    -118.358E-03     236.292E-03    -117.944E-03    -249.395E-06    -115.865E+06    -122.481E+06    -316.332E+06    -120.537E+06    -316.306E+06    -117.835E+06     777.937E+03         39.4493
            1244     1.77786E-03     74.5290E-03     628.943E-03     609.912E-03        -1.77994     611.450E-03        -1.77896     626.421E-03     94.2922E-03     236.440E-03    -118.131E-03    -118.322E-03    -118.216E-03     236.439E-03    -118.236E-03     146.453E-06    -104.625E+06    -115.791E+06    -308.159E+06    -115.795E+06    -308.155E+06    -104.625E+06     673.057E+03         39.6105
            1245     2.66669E-03     74.5267E-03     628.329E-03     613.974E-03        -1.78574     619.290E-03        -1.78495     622.220E-03     80.2834E-03     236.462E-03    -117.994E-03    -118.479E-03    -118.139E-03     236.461E-03    -118.333E-03     567.369E-06    -87.3004E+06    -110.234E+06    -297.262E+06    -110.236E+06    -297.259E+06    -87.3004E+06     214.516E+03         39.8884
            1246     3.55459E-03     74.5247E-03     623.958E-03     607.446E-03        -1.77700     609.426E-03        -1.77540     620.371E-03     105.886E-03     236.333E-03    -117.834E-03    -118.513E-03    -117.937E-03     236.328E-03    -118.405E-03     2.03758E-03    -66.8835E+06    -102.240E+06    -282.810E+06    -102.242E+06    -282.808E+06    -66.8835E+06    -3.78552E+03         40.3024
            1247     4.44334E-03     74.5289E-03     617.268E-03     602.819E-03        -1.76512     600.366E-03        -1.76267     617.268E-03     23.1312E-03     236.045E-03    -117.639E-03    -118.452E-03    -117.633E-03     236.027E-03    -118.440E-03     4.86445E-03    -48.4685E+06    -92.6600E+06    -264.108E+06    -92.6647E+06    -264.103E+06    -48.4685E+06     191.593E+03         40.8618
            1248     5.33325E-03     74.5300E-03     613.176E-03     586.981E-03        -1.74230     585.855E-03        -1.74117     613.176E-03    -61.0372E-03     235.777E-03    -117.429E-03    -118.402E-03    -117.370E-03     235.719E-03    -118.402E-03     8.73698E-03    -34.3816E+06    -84.0696E+06    -230.641E+06    -84.0743E+06    -230.637E+06    -34.3816E+06     15.0589E+03         41.5851
            1249     6.22181E-03     74.5404E-03     607.801E-03     568.432E-03        -1.71450     568.102E-03        -1.71417     607.801E-03    -7.84193E-03     235.633E-03    -117.325E-03    -118.353E-03    -117.191E-03     235.499E-03    -118.353E-03     13.5326E-03    -23.3554E+06    -76.1630E+06    -191.073E+06    -76.1708E+06    -191.065E+06    -23.3554E+06    -550.539E+03         42.4830
            1250     7.11117E-03     74.5544E-03     601.231E-03     549.054E-03        -1.68530     548.825E-03        -1.68507     601.231E-03    -17.6320E-03     235.460E-03    -117.187E-03    -118.328E-03    -116.901E-03     235.174E-03    -118.328E-03     19.7026E-03    -13.5591E+06    -68.9463E+06    -153.652E+06    -68.9591E+06    -153.639E+06    -13.5591E+06    -838.204E+03         43.5801
            1251     8.00072E-03     74.5796E-03     593.642E-03     528.815E-03        -1.65533     528.723E-03        -1.65524     593.642E-03    -20.3715E-03     235.493E-03    -117.230E-03    -118.290E-03    -116.660E-03     234.924E-03    -118.290E-03     27.9580E-03    -4.21132E+06    -62.3947E+06    -107.205E+06    -62.4567E+06    -107.143E+06    -4.21132E+06    -855.190E+03         44.9192
            1252     8.88755E-03     74.6113E-03     585.804E-03     521.617E-03        -1.63909     521.438E-03        -1.63891     585.804E-03     11.8104E-03     234.946E-03    -116.717E-03    -118.221E-03    -115.712E-03     233.941E-03    -118.221E-03     37.2113E-03     6.01857E+06    -37.7895E+06    -67.3037E+06    -56.2424E+06    -48.8508E+06     6.01857E+06    -928.272E+03         46.5363
            1253     9.78004E-03     74.6588E-03     578.008E-03     509.297E-03        -1.61779     508.638E-03        -1.61713     578.008E-03     65.5569E-03     234.674E-03    -116.585E-03    -118.091E-03    -114.799E-03     232.887E-03    -118.091E-03     49.4266E-03     44.3129E+06     4.31873E+06     -50.044E+06    -50.0219E+06     30.3243E+06     18.2852E+06    -870.533E+03         48.4720
            1254     10.6683E-03     74.7160E-03     569.407E-03     486.726E-03        -1.58191     486.162E-03        -1.58134     569.407E-03     34.0147E-03     235.682E-03    -117.553E-03    -118.162E-03    -114.497E-03     232.498E-03    -118.035E-03     66.1146E-03       84.49E+06     35.8123E+06    -42.9997E+06    -42.9901E+06     84.4803E+06     35.8123E+06    -987.785E+03         50.6577
            1255     11.5598E-03     74.8070E-03     559.407E-03     459.239E-03        -1.53959     459.139E-03        -1.53949     559.407E-03     204.528E-06     237.612E-03    -118.032E-03    -119.634E-03    -114.101E-03     232.080E-03    -118.032E-03     87.4352E-03     93.6856E+06     58.4830E+06    -36.1399E+06    -36.1291E+06     93.6748E+06     58.4830E+06    -475.297E+03         52.7874
            1256     12.4497E-03     74.9191E-03     547.704E-03     426.455E-03        -1.48934     426.397E-03        -1.48929     547.704E-03     16.6184E-03     241.034E-03    -118.060E-03    -123.020E-03    -113.890E-03     231.904E-03    -118.060E-03     113.072E-03     98.7317E+06     84.6805E+06    -28.6631E+06    -28.6560E+06     98.7247E+06     84.6805E+06     332.066E+03         54.5360
            1257     13.3407E-03     75.0714E-03     534.858E-03     398.464E-03        -1.44211     398.231E-03        -1.44187     534.858E-03    -20.4008E-03     241.744E-03    -118.096E-03    -123.746E-03    -114.529E-03     232.528E-03    -118.096E-03     113.868E-03     102.664E+06     100.409E+06    -20.9858E+06    -20.9770E+06     101.899E+06     101.166E+06    -308.921E+03         56.0948
            1258     14.2293E-03     75.1894E-03     521.509E-03     384.997E-03        -1.40572     384.765E-03        -1.40549     521.509E-03    -21.1538E-03     249.672E-03    -118.059E-03    -131.694E-03    -117.057E-03     235.036E-03    -118.059E-03     141.886E-03     107.974E+06     101.827E+06    -14.1602E+06    -14.1471E+06     107.205E+06     102.583E+06    -1.23507E+06         58.0496
            1259     15.1174E-03     75.4166E-03     508.663E-03     366.422E-03        -1.36495     366.376E-03        -1.36490     508.663E-03    -1.60467E-03     246.333E-03    -116.867E-03    -129.508E-03    -117.052E-03     235.045E-03    -118.036E-03     104.270E-03     114.740E+06     102.455E+06    -7.31696E+06    -7.30813E+06     114.731E+06     102.455E+06    -536.502E+03         60.2782
            1260     889.890E-06     75.7956E-03         1.60955    -393.958E-03        -1.69509         1.60002        -1.69482    -384.699E-03     22.2364E-03     236.071E-03    -117.888E-03    -118.198E-03    -118.198E-03     236.070E-03    -117.888E-03    -596.577E-06    -115.446E+06    -121.899E+06    -317.106E+06    -119.939E+06    -317.096E+06    -117.416E+06    -465.677E+03         39.4418
            1261     1.77786E-03     75.7945E-03     601.900E-03     573.576E-03        -1.66712     574.097E-03        -1.66646     600.723E-03     74.0031E-03     236.374E-03    -118.108E-03    -118.283E-03    -118.236E-03     236.374E-03    -118.155E-03    -478.740E-06    -104.313E+06    -115.673E+06    -309.480E+06    -115.675E+06    -309.477E+06    -104.313E+06     565.120E+03         39.6067
            1262     2.66610E-03     75.7926E-03     588.158E-03     552.889E-03        -1.63777     552.429E-03        -1.63731     588.158E-03     56.3023E-03     236.587E-03    -118.152E-03    -118.453E-03    -118.297E-03     236.586E-03    -118.307E-03     578.003E-06    -86.4992E+06    -109.035E+06    -297.036E+06    -109.035E+06    -297.036E+06    -86.4992E+06     98.5053E+03         39.8883
            1263     3.55428E-03     75.7922E-03     578.838E-03     552.288E-03        -1.62823     551.740E-03        -1.62769     578.838E-03     57.1754E-03     236.372E-03    -117.887E-03    -118.508E-03    -117.977E-03     236.366E-03    -118.413E-03     2.49624E-03    -66.6278E+06    -100.961E+06    -282.653E+06    -100.962E+06    -282.653E+06    -66.6278E+06    -74.9722E+03         40.3023
            1264     4.44415E-03     75.7916E-03     573.964E-03     561.348E-03        -1.63382     559.614E-03        -1.63208     573.964E-03    -29.7904E-03     235.907E-03    -117.519E-03    -118.440E-03    -117.501E-03     235.889E-03    -118.440E-03     4.79322E-03    -48.5128E+06    -92.4414E+06    -264.100E+06    -92.4457E+06    -264.096E+06    -48.5128E+06    -71.7026E+03         40.8604
            1265     5.33306E-03     75.7969E-03     570.727E-03     552.709E-03        -1.61729     551.371E-03        -1.61596     570.727E-03    -86.7884E-03     235.823E-03    -117.476E-03    -118.391E-03    -117.418E-03     235.766E-03    -118.391E-03     8.64467E-03    -34.9089E+06    -83.5220E+06    -230.965E+06    -83.5279E+06    -230.959E+06    -34.9089E+06    -381.840E+03         41.5842
            1266     6.22174E-03     75.8058E-03     566.199E-03     530.814E-03        -1.58895     530.550E-03        -1.58869     566.199E-03    -40.1198E-03     235.735E-03    -117.412E-03    -118.353E-03    -117.273E-03     235.597E-03    -118.353E-03     13.7199E-03    -23.8819E+06    -75.3537E+06    -191.699E+06    -75.3570E+06    -191.696E+06    -23.8819E+06    -471.442E+03         42.4845
            1267     7.11051E-03     75.8208E-03     560.421E-03     518.157E-03        -1.56925     517.984E-03        -1.56908     560.421E-03    -28.2513E-03     235.551E-03    -117.255E-03    -118.336E-03    -116.953E-03     235.249E-03    -118.336E-03     20.2236E-03    -13.1779E+06    -68.7632E+06    -152.751E+06    -68.7740E+06    -152.740E+06    -13.1779E+06    -253.632E+03         43.5834
            1268     7.99972E-03     75.8442E-03     553.941E-03     500.218E-03        -1.54289     500.089E-03        -1.54276     553.941E-03    -18.9693E-03     235.295E-03    -117.023E-03    -118.289E-03    -116.440E-03     234.712E-03    -118.289E-03     28.3300E-03    -3.46104E+06    -62.5678E+06    -106.267E+06    -62.5941E+06    -106.241E+06    -3.46104E+06    -415.255E+03         44.9238
            1269     8.89062E-03     75.8796E-03     546.231E-03     474.614E-03        -1.50899     474.304E-03        -1.50869     546.231E-03     9.07596E-03     234.865E-03    -116.644E-03    -118.212E-03    -115.676E-03     233.896E-03    -118.212E-03     36.5911E-03     6.70768E+06    -37.3651E+06    -67.3253E+06    -56.3280E+06    -48.3624E+06     6.70768E+06    -927.077E+03         46.5417
            1270     9.77963E-03     75.9185E-03     537.694E-03     463.405E-03        -1.48672     462.666E-03        -1.48598     537.694E-03     71.7789E-03     234.887E-03    -116.797E-03    -118.091E-03    -115.019E-03     233.110E-03    -118.091E-03     49.1444E-03     44.7785E+06     4.94409E+06    -50.0497E+06    -50.0155E+06     30.8070E+06     18.8814E+06    -1.40399E+06         48.4768
            1271     10.6698E-03     75.9894E-03     528.978E-03     453.443E-03        -1.46473     452.886E-03        -1.46417     528.978E-03     47.8706E-03     235.987E-03    -117.608E-03    -118.411E-03    -114.803E-03     232.822E-03    -118.051E-03     66.1109E-03     83.6155E+06     34.8875E+06    -43.7463E+06    -43.7303E+06     83.5995E+06     34.8875E+06    -1.24372E+06         50.6649
            1272     11.5571E-03     76.0660E-03     519.269E-03     425.235E-03        -1.42143     425.116E-03        -1.42131     519.269E-03     22.1509E-03     237.791E-03    -118.070E-03    -119.754E-03    -114.308E-03     232.345E-03    -118.070E-03     86.7545E-03     92.6318E+06     57.9593E+06    -36.5270E+06    -36.5144E+06     92.6192E+06     57.9593E+06    -1.14530E+06         52.7984
            1273     12.4484E-03     76.1887E-03     507.845E-03     398.767E-03        -1.37760     398.590E-03        -1.37742     507.845E-03     16.5823E-03     240.912E-03    -118.114E-03    -122.846E-03    -113.977E-03     232.042E-03    -118.114E-03     111.563E-03     97.4377E+06     84.6857E+06    -27.9895E+06    -27.9805E+06     97.3716E+06     84.7428E+06    -415.494E+03         54.5437
            1274     13.3379E-03     76.3315E-03     495.666E-03     381.179E-03        -1.34274     380.951E-03        -1.34252     495.666E-03    -26.0730E-03     241.992E-03    -118.159E-03    -123.931E-03    -114.769E-03     232.829E-03    -118.159E-03     113.878E-03     102.610E+06     101.189E+06    -19.5901E+06    -19.5695E+06     102.292E+06     101.486E+06     706.680E+03         56.0923
            1275     14.2275E-03     76.4622E-03     482.656E-03     349.948E-03        -1.28870     349.758E-03        -1.28851     482.656E-03    -14.1878E-03     249.110E-03    -118.107E-03    -131.052E-03    -116.418E-03     234.475E-03    -118.107E-03     142.032E-03     108.791E+06     103.349E+06    -12.3865E+06    -12.3658E+06     108.531E+06     103.589E+06     158.096E+03         58.0390
            1276     15.1175E-03     76.6778E-03     469.229E-03     316.977E-03        -1.23765     316.826E-03        -1.23749     469.229E-03    -4.24572E-03     245.411E-03    -116.805E-03    -128.618E-03    -116.218E-03     234.242E-03    -118.036E-03     104.533E-03     113.946E+06     102.731E+06    -6.37535E+06    -6.37221E+06     113.943E+06     102.731E+06    -559.171E+03         60.2669
            1277     887.864E-06     77.0612E-03         1.60572    -457.589E-03        -1.58396         1.59956        -1.53356    -501.835E-03     31.7492E-03     236.668E-03    -118.164E-03    -118.518E-03    -118.420E-03     236.666E-03    -118.260E-03    -713.965E-06    -115.251E+06    -120.925E+06    -317.472E+06    -120.239E+06    -317.457E+06    -115.952E+06     532.292E+03         39.4537
            1278     1.77711E-03     77.0598E-03     551.520E-03     522.969E-03        -1.51723     528.908E-03        -1.51643     544.790E-03     59.6374E-03     236.494E-03    -118.097E-03    -118.416E-03    -118.138E-03     236.494E-03    -118.375E-03    -515.195E-06    -103.272E+06    -115.064E+06    -309.535E+06    -115.065E+06    -309.534E+06    -103.272E+06     83.1410E+03         39.6076
            1279     2.66632E-03     77.0584E-03     542.603E-03     509.269E-03        -1.49939     513.980E-03        -1.49854     537.050E-03     68.7649E-03     236.135E-03    -117.801E-03    -118.356E-03    -117.800E-03     236.134E-03    -118.356E-03     466.881E-06    -85.3451E+06    -107.651E+06    -296.711E+06    -107.651E+06    -296.710E+06    -85.3451E+06    -175.326E+03         39.8815
            1280     3.55580E-03     77.0575E-03     531.619E-03     516.310E-03        -1.49883     515.723E-03        -1.49792     531.293E-03     67.0717E-03     236.101E-03    -117.776E-03    -118.351E-03    -117.771E-03     236.096E-03    -118.351E-03     2.35377E-03    -66.1618E+06    -99.6079E+06    -282.743E+06    -99.6083E+06    -282.742E+06    -66.1618E+06    -61.7327E+03         40.2958
            1281     4.44349E-03     77.0576E-03     528.042E-03     512.632E-03        -1.48997     511.763E-03        -1.48878     527.716E-03     27.3609E-03     236.272E-03    -117.915E-03    -118.402E-03    -117.896E-03     236.253E-03    -118.402E-03     4.97181E-03    -48.4432E+06    -91.1160E+06    -263.894E+06    -91.1195E+06    -263.891E+06    -48.4432E+06    -520.447E+03         40.8605
            1282     5.33241E-03     77.0619E-03     523.844E-03     498.835E-03        -1.46789     498.455E-03        -1.46751     523.844E-03    -22.4295E-03     235.803E-03    -117.446E-03    -118.398E-03    -117.388E-03     235.744E-03    -118.398E-03     8.83147E-03    -34.6980E+06    -83.3403E+06    -230.976E+06    -83.3450E+06    -230.971E+06    -34.6980E+06    -601.759E+03         41.5868
            1283     6.22226E-03     77.0715E-03     519.059E-03     486.719E-03        -1.45170     486.663E-03        -1.45165     519.059E-03    -5.73458E-03     235.568E-03    -117.251E-03    -118.350E-03    -117.108E-03     235.424E-03    -118.350E-03     13.9353E-03    -23.5286E+06    -76.1344E+06    -192.253E+06    -76.1358E+06    -192.252E+06    -23.5286E+06    -16.2231E+03         42.4859
            1284     7.11176E-03     77.0863E-03     513.511E-03     472.004E-03        -1.43261     471.741E-03        -1.43234     513.511E-03    -27.7436E-03     235.692E-03    -117.401E-03    -118.333E-03    -117.101E-03     235.391E-03    -118.333E-03     20.2698E-03    -12.2585E+06    -68.6033E+06    -152.505E+06    -68.6099E+06    -152.499E+06    -12.2585E+06     25.9432E+03         43.5871
            1285     8.00004E-03     77.1114E-03     507.500E-03     463.853E-03        -1.41593     463.520E-03        -1.41560     507.500E-03    -36.8595E-03     235.328E-03    -117.051E-03    -118.301E-03    -116.497E-03     234.774E-03    -118.301E-03     27.6160E-03    -2.16793E+06    -61.7700E+06    -105.624E+06    -61.7932E+06    -105.601E+06    -2.16793E+06    -380.568E+03         44.9317
            1286     8.88943E-03     77.1418E-03     500.921E-03     444.802E-03        -1.38846     444.577E-03        -1.38824     500.921E-03     3.89952E-03     235.175E-03    -116.925E-03    -118.240E-03    -115.985E-03     234.235E-03    -118.240E-03     36.0480E-03     7.83804E+06    -36.8318E+06    -66.4921E+06    -55.4781E+06    -47.8459E+06     7.83804E+06    -692.327E+03         46.5533
            1287     9.77771E-03     77.1897E-03     492.994E-03     419.896E-03        -1.35383     419.570E-03        -1.35350     492.994E-03     45.0940E-03     235.150E-03    -116.993E-03    -118.139E-03    -115.245E-03     233.403E-03    -118.139E-03     48.7742E-03     45.2073E+06     5.73320E+06    -48.9181E+06    -48.9024E+06     30.9569E+06     19.9678E+06    -823.969E+03         48.4852
            1288     10.6683E-03     77.2478E-03     483.950E-03     406.439E-03        -1.32680     406.196E-03        -1.32656     483.950E-03     22.9657E-03     235.923E-03    -117.512E-03    -118.441E-03    -114.644E-03     232.706E-03    -118.092E-03     66.5122E-03     83.5666E+06     35.3053E+06    -43.0365E+06    -43.0173E+06     83.5474E+06     35.3053E+06    -1.30547E+06         50.6681
            1289     11.5589E-03     77.3408E-03     474.246E-03     392.827E-03        -1.29947     392.695E-03        -1.29934     474.246E-03     15.9785E-03     237.770E-03    -118.100E-03    -119.707E-03    -114.325E-03     232.387E-03    -118.100E-03     86.4484E-03     93.2106E+06     58.9438E+06    -36.3901E+06    -36.3674E+06     93.1879E+06     58.9438E+06    -1.70835E+06         52.8093
            1290     12.4470E-03     77.4460E-03     463.465E-03     370.850E-03        -1.26372     370.691E-03        -1.26356     463.465E-03     10.3772E-03     241.555E-03    -118.163E-03    -123.439E-03    -114.358E-03     232.473E-03    -118.163E-03     112.720E-03     96.4189E+06     84.9867E+06    -28.9046E+06    -28.8852E+06     96.3424E+06     85.0438E+06    -1.33754E+06         54.5595
            1291     13.3376E-03     77.6049E-03     451.547E-03     343.085E-03        -1.21780     342.665E-03        -1.21738     451.547E-03    -42.2393E-03     242.102E-03    -118.199E-03    -123.936E-03    -114.424E-03     232.590E-03    -118.199E-03     115.858E-03     100.585E+06     99.8674E+06    -20.5793E+06    -20.5541E+06     100.503E+06     99.9246E+06     51.3670E+03         56.0952
            1292     14.2272E-03     77.7218E-03     438.311E-03     317.629E-03        -1.16983     317.227E-03        -1.16943     438.311E-03    -34.7175E-03     248.415E-03    -118.088E-03    -130.328E-03    -115.333E-03     233.420E-03    -118.088E-03     143.203E-03     108.305E+06     102.877E+06    -12.0892E+06    -12.0619E+06     108.278E+06     102.877E+06     987.592E+03         58.0319
            1293     15.1200E-03     77.9465E-03     425.060E-03     295.228E-03        -1.12245     294.777E-03        -1.12200     425.060E-03    -34.7697E-03     245.568E-03    -117.110E-03    -128.500E-03    -116.130E-03     234.068E-03    -117.981E-03     105.184E-03     114.064E+06     103.666E+06    -5.00111E+06    -4.99106E+06     114.054E+06     103.666E+06     289.145E+03         60.2631
            1294     888.812E-06     78.3264E-03         1.56063    -433.286E-03        -1.51678         1.55448        -1.33159    -612.321E-03     47.4603E-03     237.038E-03    -118.169E-03    -118.883E-03    -118.645E-03     237.037E-03    -118.406E-03    -569.287E-06    -116.798E+06    -121.394E+06    -318.074E+06    -120.715E+06    -318.053E+06    -117.499E+06    -48.0529E+03         39.4625
            1295     1.77696E-03     78.3261E-03     492.454E-03     467.876E-03        -1.36062     485.772E-03        -1.35979     473.725E-03     55.9355E-03     236.465E-03    -117.988E-03    -118.495E-03    -117.987E-03     236.464E-03    -118.495E-03    -207.805E-06    -103.003E+06    -115.049E+06    -308.981E+06    -115.051E+06    -308.979E+06    -103.003E+06    -323.168E+03         39.6121
            1296     2.66565E-03     78.3230E-03     505.759E-03     479.954E-03        -1.38800     504.078E-03        -1.38708     480.714E-03     71.0951E-03     236.195E-03    -117.817E-03    -118.403E-03    -117.816E-03     236.194E-03    -118.403E-03     299.677E-06    -85.1610E+06    -107.676E+06    -296.430E+06    -107.677E+06    -296.429E+06    -85.1610E+06    -110.417E+03         39.8840
            1297     3.55496E-03     78.3222E-03     495.816E-03     475.468E-03        -1.37329     485.556E-03        -1.37230     484.738E-03     70.3952E-03     236.051E-03    -117.703E-03    -118.378E-03    -117.699E-03     236.047E-03    -118.378E-03     1.97598E-03    -66.0087E+06    -99.6555E+06    -282.767E+06    -99.6580E+06    -282.764E+06    -66.0087E+06    -214.349E+03         40.2958
            1298     4.44472E-03     78.3243E-03     482.307E-03     455.021E-03        -1.33805     454.056E-03        -1.33676     481.981E-03     33.6174E-03     236.057E-03    -117.706E-03    -118.396E-03    -117.688E-03     236.039E-03    -118.396E-03     4.79312E-03    -48.4843E+06    -91.4766E+06    -264.318E+06    -91.4792E+06    -264.315E+06    -48.4843E+06    -501.439E+03         40.8614
            1299     5.33297E-03     78.3276E-03     475.660E-03     436.382E-03        -1.31179     435.694E-03        -1.31110     475.660E-03    -42.0905E-03     235.982E-03    -117.630E-03    -118.392E-03    -117.576E-03     235.928E-03    -118.392E-03     8.43115E-03    -33.6137E+06    -83.1293E+06    -231.102E+06    -83.1353E+06    -231.096E+06    -33.6137E+06    -484.412E+03         41.5916
            1300     6.22217E-03     78.3357E-03     468.826E-03     426.013E-03        -1.29698     425.641E-03        -1.29661     468.826E-03    -28.9969E-03     235.736E-03    -117.391E-03    -118.369E-03    -117.248E-03     235.593E-03    -118.369E-03     13.8155E-03    -21.9747E+06    -75.2440E+06    -191.628E+06    -75.2488E+06    -191.623E+06    -21.9747E+06    -282.229E+03         42.4886
            1301     7.11017E-03     78.3541E-03     462.455E-03     421.394E-03        -1.29000     421.058E-03        -1.28966     462.455E-03    -35.0373E-03     235.531E-03    -117.224E-03    -118.349E-03    -116.929E-03     235.235E-03    -118.349E-03     20.1624E-03      -11.76E+06     -67.727E+06    -153.335E+06    -67.7313E+06    -153.331E+06      -11.76E+06    -357.416E+03         43.5857
            1302     8.00012E-03     78.3747E-03     456.598E-03     416.070E-03        -1.27519     415.810E-03        -1.27493     456.598E-03    -24.1344E-03     235.545E-03    -117.257E-03    -118.318E-03    -116.690E-03     234.979E-03    -118.318E-03     27.8488E-03    -1.94411E+06    -61.0945E+06    -106.036E+06    -61.1140E+06    -106.017E+06    -1.94411E+06    -89.5020E+03         44.9325
            1303     8.88830E-03     78.4111E-03     450.400E-03     399.628E-03        -1.24861     399.438E-03        -1.24842     450.400E-03     27.7924E-03     235.282E-03    -117.004E-03    -118.267E-03    -116.026E-03     234.304E-03    -118.267E-03     36.7888E-03     8.47413E+06    -37.2318E+06    -65.5390E+06    -55.1599E+06    -47.6109E+06     8.47413E+06    -80.0573E+03         46.5574
            1304     9.77944E-03     78.4515E-03     442.958E-03     377.835E-03        -1.21649     377.437E-03        -1.21609     442.958E-03     47.7389E-03     235.280E-03    -117.102E-03    -118.170E-03    -115.301E-03     233.479E-03    -118.170E-03     49.5417E-03     46.6669E+06     5.79476E+06    -48.5676E+06    -48.5587E+06     31.5631E+06     20.8895E+06    -510.527E+03         48.4846
            1305     10.6679E-03     78.5184E-03     434.356E-03     362.765E-03        -1.18860     362.531E-03        -1.18837     434.356E-03     20.9908E-03     235.695E-03    -117.545E-03    -118.178E-03    -114.323E-03     232.395E-03    -118.101E-03     67.3016E-03     84.7993E+06     36.4446E+06    -42.0770E+06    -42.0700E+06     84.7923E+06     36.4446E+06    -677.580E+03         50.6578
            1306     11.5565E-03     78.6019E-03     425.132E-03     354.453E-03        -1.16656     354.312E-03        -1.16642     425.132E-03     15.7885E-03     237.365E-03    -117.790E-03    -119.607E-03    -113.740E-03     231.766E-03    -118.059E-03     87.9590E-03     92.0742E+06     58.6844E+06    -35.9488E+06    -35.9321E+06     92.0575E+06     58.6844E+06    -664.908E+03         52.8007
            1307     12.4488E-03     78.7162E-03     414.678E-03     329.624E-03        -1.12701     329.499E-03        -1.12688     414.678E-03     16.2583E-03     241.900E-03    -118.109E-03    -123.824E-03    -114.516E-03     232.592E-03    -118.109E-03     114.313E-03     95.8439E+06     84.2652E+06    -29.4299E+06    -29.4078E+06     95.8218E+06     84.2652E+06    -280.530E+03         54.5616
            1308     13.3373E-03     78.8678E-03     402.538E-03     292.724E-03        -1.07179     292.325E-03        -1.07139     402.538E-03    -34.5929E-03     241.873E-03    -118.155E-03    -123.741E-03    -114.276E-03     232.408E-03    -118.155E-03     115.411E-03     100.287E+06     99.0988E+06    -21.9522E+06    -21.9293E+06     100.264E+06     99.0988E+06    -894.697E+03         56.1010
            1309     14.2307E-03     78.9866E-03     389.121E-03     275.452E-03        -1.03176     275.038E-03        -1.03135     389.121E-03    -37.7751E-03     248.161E-03    -118.042E-03    -130.139E-03    -115.284E-03     233.306E-03    -118.042E-03     142.332E-03     107.040E+06     101.497E+06    -13.9995E+06    -13.9691E+06     107.010E+06     101.497E+06    -754.817E+03         58.0366
            1310     15.1199E-03     79.2109E-03     376.451E-03     267.948E-03    -999.409E-03     267.634E-03    -999.095E-03     376.451E-03    -24.2907E-03     245.850E-03    -117.225E-03    -128.704E-03    -116.534E-03     234.404E-03    -117.949E-03     104.625E-03     113.919E+06     102.957E+06    -6.29299E+06    -6.27312E+06     113.899E+06     102.957E+06     107.507E+03         60.2692
            1311     887.643E-06     79.5941E-03         1.54154    -409.480E-03        -1.48075         1.52735        -1.21203    -664.009E-03     113.035E-03     236.656E-03    -117.692E-03    -118.977E-03    -118.835E-03     236.656E-03    -117.833E-03    -460.455E-06    -116.481E+06    -119.878E+06    -317.449E+06    -119.895E+06    -317.432E+06    -116.481E+06    -534.538E+03         39.4590
            1312     1.77733E-03     79.5900E-03     441.215E-03     406.082E-03        -1.20795     418.074E-03        -1.20677     428.038E-03     70.9399E-03     236.593E-03    -118.112E-03    -118.503E-03    -118.227E-03     236.593E-03    -118.388E-03    -161.157E-06    -103.934E+06    -115.484E+06    -309.224E+06    -115.486E+06    -309.222E+06    -103.934E+06    -284.875E+03         39.6191
            1313     2.66654E-03     79.5894E-03     444.891E-03     405.196E-03        -1.21192     424.152E-03        -1.21139     425.399E-03     52.1434E-03     236.599E-03    -118.167E-03    -118.462E-03    -118.192E-03     236.599E-03    -118.437E-03     337.998E-06    -86.2518E+06    -108.939E+06    -296.283E+06    -108.943E+06    -296.278E+06    -86.2518E+06    -82.0532E+03         39.8964
            1314     3.55439E-03     79.5874E-03     434.652E-03     403.170E-03        -1.19503     413.292E-03        -1.19440     423.899E-03     56.1570E-03     236.276E-03    -117.836E-03    -118.470E-03    -117.833E-03     236.273E-03    -118.470E-03     1.76249E-03     -66.973E+06    -100.552E+06    -282.244E+06    -100.558E+06    -282.237E+06     -66.973E+06    -675.998E+03         40.3049
            1315     4.44323E-03     79.5888E-03     420.267E-03     399.219E-03        -1.17590     398.027E-03        -1.17470     420.267E-03    -15.0087E-03     235.808E-03    -117.393E-03    -118.458E-03    -117.376E-03     235.791E-03    -118.458E-03     4.59728E-03    -48.4168E+06    -91.8525E+06    -264.566E+06    -91.8571E+06    -264.562E+06    -48.4168E+06    -753.303E+03         40.8625
            1316     5.33323E-03     79.5932E-03     415.828E-03     393.474E-03        -1.16910     392.377E-03        -1.16800     415.828E-03    -76.0014E-03     235.914E-03    -117.543E-03    -118.407E-03    -117.485E-03     235.856E-03    -118.407E-03     8.71811E-03    -33.0041E+06    -82.4484E+06    -231.600E+06    -82.4550E+06    -231.594E+06    -33.0041E+06    -576.057E+03         41.5897
            1317     6.22073E-03     79.6029E-03     411.702E-03     388.375E-03        -1.16216     387.934E-03        -1.16172     411.702E-03    -46.7705E-03     235.857E-03    -117.493E-03    -118.379E-03    -117.348E-03     235.712E-03    -118.379E-03     14.0048E-03    -21.9330E+06    -74.4761E+06    -192.012E+06    -74.4810E+06    -192.007E+06    -21.9330E+06    -392.986E+03         42.4862
            1318     7.11170E-03     79.6171E-03     407.467E-03     379.161E-03        -1.15111     378.831E-03        -1.15078     407.467E-03    -43.6650E-03     235.436E-03    -117.108E-03    -118.363E-03    -116.801E-03     235.129E-03    -118.363E-03     20.4797E-03    -11.6771E+06    -68.3110E+06    -153.324E+06    -68.3157E+06    -153.320E+06    -11.6771E+06     55.6823E+03         43.5782
            1319     7.99999E-03     79.6433E-03     402.305E-03     361.745E-03        -1.12659     361.539E-03        -1.12639     402.305E-03    -23.2337E-03     235.263E-03    -116.981E-03    -118.310E-03    -116.401E-03     234.683E-03    -118.310E-03     28.2491E-03    -1.69904E+06    -61.7053E+06    -106.736E+06    -61.7325E+06    -106.709E+06    -1.69904E+06     216.989E+03         44.9224
            1320     8.88998E-03     79.6748E-03     396.035E-03     346.695E-03        -1.09931     346.470E-03        -1.09909     396.035E-03     24.2543E-03     235.351E-03    -117.101E-03    -118.248E-03    -116.116E-03     234.366E-03    -118.248E-03     36.9422E-03     9.41999E+06    -35.4243E+06    -66.3035E+06    -54.6544E+06    -47.0735E+06     9.41999E+06     172.635E+03         46.5496
            1321     9.77797E-03     79.7199E-03     389.299E-03     340.801E-03        -1.08311     340.330E-03        -1.08263     389.299E-03     51.2796E-03     234.906E-03    -116.776E-03    -118.140E-03    -114.969E-03     233.098E-03    -118.140E-03     49.5823E-03     46.2471E+06     6.58200E+06    -49.0356E+06    -49.0159E+06     31.8595E+06     20.9499E+06    -258.710E+03         48.4774
            1322     10.6683E-03     79.7830E-03     382.006E-03     326.548E-03        -1.05873     326.281E-03        -1.05846     382.006E-03     27.3451E-03     234.960E-03    -116.871E-03    -118.113E-03    -113.611E-03     231.607E-03    -118.020E-03     67.6588E-03     83.1959E+06     34.4942E+06    -42.9364E+06    -42.9338E+06     83.1933E+06     34.4942E+06    -543.310E+03         50.6475
            1323     11.5617E-03     79.8656E-03     372.870E-03     293.819E-03        -1.01217     293.680E-03        -1.01203     372.870E-03     18.7798E-03     237.667E-03    -117.691E-03    -119.976E-03    -113.965E-03     231.925E-03    -117.960E-03     89.1754E-03     91.6838E+06     57.2171E+06    -35.8046E+06    -35.7980E+06     91.6772E+06     57.2171E+06    -114.883E+03         52.7886
            1324     12.4492E-03     79.9848E-03     361.501E-03     271.632E-03    -972.589E-03     271.416E-03    -972.373E-03     361.501E-03     6.56687E-03     241.806E-03    -118.033E-03    -123.788E-03    -114.603E-03     232.621E-03    -118.033E-03     113.741E-03     96.2525E+06     84.4851E+06    -27.9901E+06    -27.9802E+06     96.1735E+06     84.5542E+06     500.587E+03         54.5554
            1325     13.3399E-03     80.1322E-03     349.723E-03     267.378E-03    -949.316E-03     267.101E-03    -949.040E-03     349.723E-03    -32.0789E-03     241.861E-03    -118.108E-03    -123.792E-03    -114.579E-03     232.648E-03    -118.108E-03     113.969E-03     101.349E+06     100.441E+06    -19.7777E+06    -19.7568E+06     101.259E+06     100.510E+06     292.126E+03         56.1032
            1326     14.2277E-03     80.2516E-03     337.835E-03     251.437E-03    -913.300E-03     251.200E-03    -913.063E-03     337.835E-03    -27.6696E-03     248.684E-03    -118.038E-03    -130.687E-03    -115.971E-03     233.968E-03    -118.038E-03     141.848E-03     107.484E+06     102.342E+06    -13.3170E+06    -13.2908E+06     107.458E+06     102.342E+06    -662.716E+03         58.0430
            1327     15.1193E-03     80.4752E-03     326.154E-03     227.070E-03    -871.600E-03     226.933E-03    -871.463E-03     326.154E-03     3.29536E-03     245.791E-03    -117.120E-03    -128.760E-03    -116.538E-03     234.412E-03    -117.963E-03     105.151E-03     113.447E+06     102.509E+06    -7.25443E+06    -7.23567E+06     113.428E+06     102.509E+06     -846.37E+03         60.2787
            1328     890.362E-06     80.8578E-03         1.51077    -378.772E-03        -1.44865         1.49585        -1.09608    -716.424E-03     116.199E-03     236.432E-03    -117.712E-03    -118.735E-03    -118.734E-03     236.431E-03    -117.712E-03    -841.953E-06    -115.863E+06    -120.784E+06    -317.645E+06    -120.412E+06    -317.635E+06    -116.244E+06     600.774E+03         39.4590
            1329     1.77749E-03     80.8574E-03     380.525E-03     344.911E-03        -1.04699     344.114E-03        -1.04548     379.803E-03     45.0684E-03     236.878E-03    -118.307E-03    -118.598E-03    -118.538E-03     236.877E-03    -118.366E-03    -608.165E-06    -103.376E+06    -115.562E+06    -308.467E+06    -115.576E+06    -308.454E+06    -103.376E+06    -327.098E+03         39.6233
            1330     2.66507E-03     80.8550E-03     363.091E-03     316.375E-03        -1.00282     315.778E-03        -1.00222     363.091E-03     52.1348E-03     236.590E-03    -118.113E-03    -118.505E-03    -118.137E-03     236.589E-03    -118.479E-03     354.178E-06    -86.4708E+06    -108.583E+06    -296.281E+06    -108.598E+06    -296.267E+06    -86.4708E+06    -1.03856E+06         39.9010
            1331     3.55445E-03     80.8545E-03     354.746E-03     326.451E-03        -1.00306     328.115E-03        -1.00222     352.247E-03     63.1192E-03     236.292E-03    -117.823E-03    -118.493E-03    -117.819E-03     236.289E-03    -118.493E-03     2.06113E-03    -66.5097E+06    -100.504E+06    -281.569E+06    -100.509E+06    -281.564E+06    -66.5097E+06    -755.300E+03         40.3102
            1332     4.44364E-03     80.8531E-03     360.053E-03     347.189E-03        -1.02855     356.058E-03        -1.02717     349.796E-03    -7.82454E-03     236.066E-03    -117.609E-03    -118.496E-03    -117.589E-03     236.046E-03    -118.496E-03     4.91403E-03    -47.6150E+06    -91.5318E+06    -263.630E+06    -91.5361E+06    -263.626E+06    -47.6150E+06    -740.610E+03         40.8657
            1333     5.33251E-03     80.8592E-03     366.054E-03     350.128E-03        -1.03936     364.052E-03        -1.03846     351.235E-03    -61.8883E-03     235.649E-03    -117.249E-03    -118.433E-03    -117.187E-03     235.588E-03    -118.433E-03     9.02897E-03    -33.3008E+06    -83.3346E+06    -232.236E+06    -83.3385E+06    -232.232E+06    -33.3008E+06    -573.188E+03         41.5856
            1334     6.22302E-03     80.8685E-03     358.795E-03     343.640E-03        -1.02562     350.549E-03        -1.02547     351.735E-03    -24.8399E-03     235.644E-03    -117.297E-03    -118.367E-03    -117.150E-03     235.496E-03    -118.367E-03     14.0937E-03    -22.1894E+06    -75.8904E+06    -193.008E+06    -75.8925E+06    -193.005E+06    -22.1894E+06     17.0767E+03         42.4779
            1335     7.10977E-03     80.8839E-03     348.734E-03     314.788E-03    -987.255E-03     314.581E-03    -987.047E-03     348.734E-03    -25.4385E-03     235.515E-03    -117.206E-03    -118.349E-03    -116.900E-03     235.209E-03    -118.349E-03     20.4607E-03    -10.9658E+06    -67.9200E+06    -153.747E+06    -67.9291E+06    -153.738E+06    -10.9658E+06     69.4679E+03         43.5681
            1336     8.00059E-03     80.9073E-03     342.730E-03     294.818E-03    -958.615E-03     294.544E-03    -958.341E-03     342.730E-03    -30.1753E-03     235.052E-03    -116.795E-03    -118.292E-03    -116.215E-03     234.472E-03    -118.292E-03     28.2064E-03    -876.723E+03    -60.2873E+06    -106.893E+06    -60.3080E+06    -106.872E+06    -876.723E+03    -48.4025E+03         44.9077
            1337     8.88948E-03     80.9413E-03     336.640E-03     302.057E-03    -955.652E-03     301.832E-03    -955.427E-03     336.640E-03    -6.54342E-03     234.893E-03    -116.701E-03    -118.196E-03    -115.674E-03     233.866E-03    -118.196E-03     37.5960E-03     9.01519E+06    -35.1743E+06    -66.4746E+06    -54.2222E+06    -47.4267E+06     9.01519E+06     369.890E+03         46.5356
            1338     9.77882E-03     80.9865E-03     331.194E-03     298.770E-03    -942.320E-03     298.561E-03    -942.111E-03     331.194E-03     25.2934E-03     234.514E-03    -116.467E-03    -118.061E-03    -114.698E-03     232.745E-03    -118.061E-03     49.2305E-03     46.0642E+06     6.71256E+06    -48.4859E+06    -48.4719E+06     32.0221E+06     20.7407E+06     437.459E+03         48.4786
            1339     10.6719E-03     81.0419E-03     324.463E-03     272.996E-03    -904.191E-03     272.821E-03    -904.017E-03     324.463E-03     7.29712E-03     235.549E-03    -117.118E-03    -118.463E-03    -114.357E-03     232.304E-03    -117.980E-03     66.5663E-03     83.5799E+06     35.4427E+06    -42.7635E+06    -42.7570E+06     83.5734E+06     35.4427E+06     316.259E+03         50.6591
            1340     11.5589E-03     81.1363E-03     315.377E-03     246.504E-03    -866.171E-03     246.351E-03    -866.018E-03     315.377E-03     4.97159E-03     237.820E-03    -117.976E-03    -119.864E-03    -114.383E-03     232.338E-03    -117.976E-03     87.3154E-03     91.8455E+06     57.8704E+06    -36.6012E+06    -36.5937E+06     91.8380E+06     57.8704E+06     188.915E+03         52.7867
            1341     12.4491E-03     81.2475E-03     304.863E-03     238.271E-03    -843.391E-03     237.905E-03    -843.025E-03     304.863E-03    -9.16621E-03     240.904E-03    -118.035E-03    -122.891E-03    -113.914E-03     231.927E-03    -118.035E-03     112.000E-03     95.8884E+06     84.5210E+06    -28.8108E+06    -28.7958E+06     95.6676E+06     84.7269E+06    -600.265E+03         54.5406
            1342     13.3389E-03     81.3994E-03     294.569E-03     237.408E-03    -825.263E-03     237.077E-03    -824.932E-03     294.569E-03    -34.5264E-03     241.671E-03    -118.074E-03    -123.619E-03    -114.294E-03     232.346E-03    -118.074E-03     114.623E-03     100.640E+06     100.250E+06    -20.5688E+06    -20.5501E+06     100.273E+06     100.598E+06    -220.520E+03         56.0938
            1343     14.2300E-03     81.5171E-03     284.035E-03     224.427E-03    -794.390E-03     224.282E-03    -794.245E-03     284.035E-03    -24.1690E-03     249.314E-03    -118.012E-03    -131.325E-03    -116.505E-03     234.495E-03    -118.012E-03     142.778E-03     108.480E+06     103.793E+06    -11.6966E+06    -11.6894E+06     108.330E+06     103.936E+06     207.158E+03         58.0455
            1344     15.1191E-03     81.7406E-03     273.629E-03     204.422E-03    -756.899E-03     204.199E-03    -756.676E-03     273.629E-03    -9.75024E-03     246.126E-03    -117.033E-03    -129.182E-03    -116.854E-03     234.726E-03    -117.961E-03     105.594E-03     113.765E+06     104.574E+06    -4.62298E+06    -4.60712E+06     113.749E+06     104.574E+06    -125.156E+03         60.2903
            1345     887.423E-06     82.1246E-03         1.41111    -277.724E-03        -1.41700         1.40883    -850.994E-03    -841.454E-03     90.7466E-03     236.939E-03    -118.135E-03    -118.821E-03    -118.451E-03     236.938E-03    -118.505E-03    -878.766E-06    -116.903E+06    -120.473E+06    -316.774E+06    -120.097E+06    -316.769E+06    -117.284E+06    -222.010E+03         39.4625
            1346     1.77665E-03     82.1231E-03     304.528E-03     272.080E-03    -861.304E-03     290.027E-03    -859.739E-03     285.016E-03     31.3379E-03     236.554E-03    -117.984E-03    -118.598E-03    -118.101E-03     236.553E-03    -118.480E-03    -420.110E-06    -104.252E+06    -115.840E+06    -308.177E+06    -115.856E+06    -308.161E+06    -104.252E+06    -425.977E+03         39.6171
            1347     2.66622E-03     82.1205E-03     305.248E-03     258.628E-03    -850.183E-03     277.449E-03    -848.896E-03     285.140E-03     55.1675E-03     236.346E-03    -117.929E-03    -118.439E-03    -117.929E-03     236.345E-03    -118.439E-03     548.961E-06    -85.8232E+06    -109.134E+06    -295.910E+06    -109.145E+06    -295.898E+06    -85.8232E+06    -708.206E+03         39.8952
            1348     3.55513E-03     82.1186E-03     300.423E-03     270.589E-03    -855.627E-03     286.051E-03    -854.832E-03     284.165E-03     46.8703E-03     236.270E-03    -117.850E-03    -118.439E-03    -117.846E-03     236.266E-03    -118.439E-03     2.19904E-03    -65.5744E+06    -101.062E+06    -281.486E+06    -101.064E+06    -281.484E+06    -65.5744E+06    -490.132E+03         40.3112
            1349     4.44348E-03     82.1202E-03     300.982E-03     285.701E-03    -872.613E-03     299.284E-03    -870.915E-03     285.701E-03    -4.44226E-03     236.254E-03    -117.814E-03    -118.479E-03    -117.794E-03     236.234E-03    -118.479E-03     4.94848E-03    -46.4406E+06    -92.0817E+06    -263.135E+06    -92.0844E+06    -263.132E+06    -46.4406E+06    -561.678E+03         40.8727
            1350     5.33238E-03     82.1238E-03     304.029E-03     282.523E-03    -869.449E-03     297.864E-03    -868.420E-03     287.660E-03    -61.5435E-03     235.916E-03    -117.493E-03    -118.458E-03    -117.435E-03     235.857E-03    -118.458E-03     8.82320E-03    -32.2255E+06    -83.4817E+06    -232.336E+06    -83.4856E+06    -232.332E+06    -32.2255E+06    -716.441E+03         41.5904
            1351     6.22119E-03     82.1333E-03     294.225E-03     269.353E-03    -846.875E-03     275.957E-03    -846.419E-03     287.165E-03    -34.4074E-03     235.412E-03    -117.043E-03    -118.389E-03    -116.900E-03     235.269E-03    -118.389E-03     13.8577E-03    -21.2485E+06    -74.9532E+06    -193.508E+06    -74.9571E+06    -193.504E+06    -21.2485E+06    -341.584E+03         42.4719
            1352     7.11233E-03     82.1509E-03     287.013E-03     256.272E-03    -827.235E-03     258.913E-03    -826.773E-03     283.910E-03    -30.6722E-03     235.147E-03    -116.858E-03    -118.324E-03    -116.558E-03     234.847E-03    -118.324E-03     20.2397E-03    -10.7726E+06    -67.2654E+06    -154.101E+06    -67.2756E+06    -154.091E+06    -10.7726E+06     55.7840E+03         43.5554
            1353     8.00009E-03     82.1714E-03     282.578E-03     247.503E-03    -810.593E-03     250.367E-03    -810.354E-03     279.475E-03    -25.9234E-03     234.886E-03    -116.673E-03    -118.240E-03    -116.075E-03     234.288E-03    -118.240E-03     28.5477E-03    -1.30954E+06    -60.8085E+06    -107.354E+06    -60.8228E+06    -107.340E+06    -1.30954E+06     145.631E+03         44.8960
            1354     8.89029E-03     82.2076E-03     274.421E-03     239.677E-03    -792.236E-03     239.465E-03    -792.024E-03     274.421E-03    -8.70148E-03     234.394E-03    -116.263E-03    -118.126E-03    -115.249E-03     233.380E-03    -118.126E-03     37.4214E-03     8.64614E+06    -36.5472E+06    -66.7841E+06    -54.8933E+06    -48.4380E+06     8.64614E+06     257.813E+03         46.5300
            1355     9.78247E-03     82.2479E-03     268.503E-03     228.593E-03    -770.435E-03     228.007E-03    -769.848E-03     268.503E-03     32.2332E-03     235.342E-03    -116.916E-03    -118.441E-03    -115.605E-03     233.612E-03    -118.023E-03     48.7543E-03     46.9826E+06     6.82077E+06    -48.7589E+06    -48.7513E+06     32.1731E+06     21.6226E+06     737.397E+03         48.4876
            1356     10.6674E-03     82.3132E-03     261.540E-03     217.639E-03    -747.692E-03     217.063E-03    -747.117E-03     261.540E-03     15.3413E-03     236.548E-03    -117.742E-03    -118.846E-03    -115.425E-03     233.421E-03    -118.036E-03     65.6248E-03     85.0718E+06     37.5265E+06    -42.6177E+06    -42.6023E+06     85.0564E+06     37.5265E+06     1.36062E+06         50.6722
            1357     11.5577E-03     82.3993E-03     254.041E-03     220.772E-03    -740.475E-03     220.644E-03    -740.347E-03     254.041E-03    -722.130E-06     237.017E-03    -117.838E-03    -119.221E-03    -113.448E-03     231.440E-03    -118.034E-03     87.5017E-03     91.7462E+06     58.2628E+06    -36.5129E+06    -36.5029E+06     91.7362E+06     58.2628E+06     1.04669E+06         52.7813
            1358     12.4487E-03     82.5137E-03     246.196E-03     219.039E-03    -727.653E-03     218.743E-03    -727.358E-03     246.196E-03    -9.69999E-03     240.603E-03    -118.027E-03    -122.597E-03    -113.374E-03     231.380E-03    -118.027E-03     113.564E-03     95.8535E+06     83.7890E+06    -28.5774E+06    -28.5600E+06     95.0697E+06     84.5554E+06     68.7125E+03         54.5237
            1359     13.3411E-03     82.6620E-03     237.630E-03     196.917E-03    -691.617E-03     196.559E-03    -691.259E-03     237.630E-03    -33.4260E-03     241.749E-03    -118.050E-03    -123.701E-03    -114.399E-03     232.447E-03    -118.050E-03     114.449E-03     101.401E+06     100.303E+06    -20.3517E+06    -20.3267E+06     100.468E+06     101.211E+06    -879.907E+03         56.0854
            1360     14.2305E-03     82.7855E-03     227.742E-03     179.347E-03    -657.008E-03     179.179E-03    -656.840E-03     227.742E-03    -21.2023E-03     248.999E-03    -117.981E-03    -131.022E-03    -116.300E-03     234.277E-03    -117.981E-03     142.109E-03     107.889E+06     102.859E+06    -13.5352E+06    -13.5238E+06     107.736E+06     103.001E+06    -983.079E+03         58.0486
            1361     15.1195E-03     83.0066E-03     218.250E-03     174.183E-03    -637.260E-03     174.086E-03    -637.163E-03     218.250E-03    -16.2510E-03     246.342E-03    -117.324E-03    -129.100E-03    -117.150E-03     235.004E-03    -117.935E-03     104.807E-03     113.209E+06     103.669E+06    -6.48998E+06    -6.48005E+06     113.199E+06     103.669E+06     2.77449E+03         60.3003
            1362     888.318E-06     83.3904E-03         1.30954    -229.478E-03        -1.32943         1.30038    -636.953E-03    -912.796E-03     147.959E-03     236.757E-03    -118.134E-03    -118.638E-03    -118.267E-03     236.756E-03    -118.503E-03    -38.7515E-06    -117.606E+06    -121.248E+06    -316.193E+06    -121.211E+06    -316.189E+06    -117.648E+06    -389.814E+03         39.4504
            1363     1.77767E-03     83.3880E-03     230.622E-03     193.582E-03    -669.279E-03     221.907E-03    -666.546E-03     199.564E-03     83.1987E-03     236.194E-03    -117.813E-03    -118.401E-03    -117.854E-03     236.193E-03    -118.360E-03    -72.8116E-06    -104.398E+06    -116.278E+06    -307.791E+06    -116.284E+06    -307.785E+06    -104.398E+06    -544.200E+03         39.6048
            1364     2.66620E-03     83.3860E-03     259.072E-03     212.557E-03    -719.203E-03     256.427E-03    -716.558E-03     212.557E-03     81.6118E-03     236.216E-03    -117.929E-03    -118.307E-03    -117.928E-03     236.215E-03    -118.307E-03     713.564E-06    -86.4207E+06    -109.568E+06    -295.151E+06    -109.572E+06    -295.147E+06    -86.4207E+06    -195.412E+03         39.8889
            1365     3.55466E-03     83.3846E-03     253.263E-03     223.335E-03    -725.489E-03     250.725E-03    -722.951E-03     223.335E-03     75.9045E-03     236.370E-03    -118.029E-03    -118.359E-03    -118.024E-03     236.365E-03    -118.359E-03     2.38401E-03    -66.4311E+06    -101.271E+06    -280.771E+06    -101.279E+06    -280.763E+06    -66.4311E+06    -886.390E+03         40.3118
            1366     4.44396E-03     83.3855E-03     232.927E-03     214.445E-03    -694.558E-03     217.689E-03    -690.749E-03     225.874E-03     10.2581E-03     236.323E-03    -117.912E-03    -118.447E-03    -117.893E-03     236.304E-03    -118.447E-03     4.99133E-03    -47.0122E+06    -92.2034E+06    -263.617E+06    -92.2114E+06    -263.609E+06    -47.0122E+06    -960.155E+03         40.8780
            1367     5.33277E-03     83.3899E-03     224.235E-03     197.425E-03    -667.505E-03     197.262E-03    -665.791E-03     222.684E-03    -45.3785E-03     236.136E-03    -117.709E-03    -118.465E-03    -117.648E-03     236.075E-03    -118.465E-03     8.91736E-03    -31.5392E+06    -83.4071E+06    -232.598E+06    -83.4097E+06    -232.595E+06    -31.5392E+06    -338.642E+03         41.5979
            1368     6.22137E-03     83.3993E-03     218.144E-03     192.152E-03    -655.126E-03     191.619E-03    -654.593E-03     218.144E-03    -11.7578E-03     235.493E-03    -117.102E-03    -118.415E-03    -116.965E-03     235.355E-03    -118.415E-03     13.7069E-03    -20.8423E+06    -75.2740E+06    -193.862E+06    -75.2779E+06    -193.858E+06    -20.8423E+06    -65.2036E+03         42.4749
            1369     7.11050E-03     83.4133E-03     219.329E-03     202.663E-03    -666.626E-03     206.199E-03    -665.658E-03     214.825E-03    -46.9761E-03     234.790E-03    -116.497E-03    -118.328E-03    -116.202E-03     234.494E-03    -118.328E-03     19.9638E-03    -10.8403E+06    -68.3016E+06    -154.486E+06    -68.3091E+06    -154.479E+06    -10.8403E+06     480.362E+03         43.5521
            1370     8.00169E-03     83.4395E-03     221.317E-03     206.927E-03    -672.044E-03     214.572E-03    -671.426E-03     213.055E-03    -32.8265E-03     234.640E-03    -116.457E-03    -118.213E-03    -115.898E-03     234.081E-03    -118.213E-03     27.7079E-03    -1.18673E+06    -61.8681E+06    -107.953E+06    -61.8795E+06    -107.942E+06    -1.18673E+06     555.093E+03         44.8945
            1371     8.89150E-03     83.4691E-03     213.810E-03     180.657E-03    -635.244E-03     184.282E-03    -635.110E-03     210.052E-03     11.2549E-03     235.047E-03    -116.923E-03    -118.128E-03    -115.966E-03     234.090E-03    -118.128E-03     36.3167E-03     9.36273E+06    -36.3262E+06    -67.5923E+06     -55.278E+06    -48.6405E+06     9.36273E+06     724.176E+03         46.5291
            1372     9.77869E-03     83.5168E-03     204.506E-03     164.837E-03    -606.322E-03     163.914E-03    -605.399E-03     204.506E-03     48.9453E-03     235.481E-03    -117.015E-03    -118.472E-03    -115.616E-03     233.663E-03    -118.053E-03     49.7633E-03     45.8679E+06     6.60708E+06    -49.8890E+06    -49.8511E+06     31.0172E+06     21.4199E+06     1.33984E+06         48.4762
            1373     10.6683E-03     83.5825E-03     200.283E-03     176.716E-03    -611.438E-03     177.566E-03    -610.624E-03     198.620E-03     33.1063E-03     235.625E-03    -117.185E-03    -118.480E-03    -114.394E-03     232.373E-03    -118.018E-03     66.9043E-03     83.2582E+06     36.6668E+06    -43.8234E+06    -43.8095E+06     83.2444E+06     36.6668E+06     1.20064E+06         50.6586
            1374     11.5590E-03     83.6602E-03     194.847E-03     180.664E-03    -606.124E-03     181.997E-03    -605.794E-03     193.184E-03     15.4907E-03     236.951E-03    -117.778E-03    -119.215E-03    -113.407E-03     231.339E-03    -117.974E-03     87.8134E-03     93.4374E+06     59.4867E+06    -35.6690E+06    -35.6630E+06     93.4313E+06     59.4867E+06     747.633E+03         52.7820
            1375     12.4524E-03     83.7781E-03     186.539E-03     168.082E-03    -579.007E-03     167.689E-03    -578.615E-03     186.539E-03     6.79486E-03     241.216E-03    -117.991E-03    -123.259E-03    -113.995E-03     231.951E-03    -117.991E-03     114.008E-03     97.7075E+06     85.0405E+06    -27.6588E+06    -27.6519E+06     96.8409E+06     85.9003E+06     495.041E+03         54.5337
            1376     13.3383E-03     83.9309E-03     178.683E-03     154.843E-03    -552.955E-03     154.516E-03    -552.628E-03     178.683E-03    -28.9495E-03     242.089E-03    -118.053E-03    -124.063E-03    -114.834E-03     232.860E-03    -118.053E-03     114.032E-03     101.869E+06     100.611E+06    -19.9531E+06    -19.9326E+06     100.780E+06     101.680E+06     140.094E+03         56.0938
            1377     14.2289E-03     84.0472E-03     171.612E-03     147.347E-03    -534.284E-03     148.595E-03    -533.973E-03     170.054E-03    -25.8343E-03     248.975E-03    -118.000E-03    -130.992E-03    -116.229E-03     234.212E-03    -118.000E-03     141.937E-03     107.507E+06     103.327E+06    -13.2852E+06    -13.2644E+06     107.277E+06     103.536E+06     12.4746E+03         58.0523
            1378     15.1207E-03     84.2751E-03     163.872E-03     143.553E-03    -517.704E-03     145.226E-03    -517.632E-03     162.127E-03    -8.58276E-03     246.371E-03    -117.453E-03    -129.002E-03    -117.050E-03     234.915E-03    -117.950E-03     104.581E-03     112.629E+06     103.374E+06    -7.38067E+06    -7.37269E+06     112.621E+06     103.374E+06    -297.016E+03         60.3022
            1379     889.526E-06     84.6568E-03         1.21935    -186.268E-03        -1.24088         1.20958    -499.674E-03    -917.710E-03     136.706E-03     235.982E-03    -117.616E-03    -118.378E-03    -118.376E-03     235.980E-03    -117.616E-03    -436.119E-06    -117.626E+06    -121.351E+06    -315.268E+06    -121.134E+06    -315.257E+06    -117.855E+06    -851.456E+03         39.4304
            1380     1.77733E-03     84.6528E-03     170.731E-03     140.504E-03    -519.274E-03     160.843E-03    -517.283E-03     148.401E-03     33.0080E-03     236.290E-03    -118.005E-03    -118.302E-03    -118.192E-03     236.290E-03    -118.115E-03    -442.286E-06    -104.432E+06    -115.892E+06    -306.787E+06    -115.904E+06    -306.775E+06    -104.432E+06    -912.793E+03         39.5992
            1381     2.66685E-03     84.6514E-03     181.170E-03     149.347E-03    -544.533E-03     173.826E-03    -542.604E-03     154.763E-03     33.3028E-03     236.222E-03    -117.949E-03    -118.292E-03    -118.013E-03     236.222E-03    -118.228E-03     628.454E-06    -86.9770E+06    -108.967E+06    -294.699E+06    -108.980E+06    -294.686E+06    -86.9770E+06    -808.293E+03         39.8864
            1382     3.55577E-03     84.6505E-03     175.073E-03     153.563E-03    -542.312E-03     166.412E-03    -538.991E-03     158.904E-03     66.5731E-03     236.222E-03    -117.936E-03    -118.302E-03    -117.931E-03     236.216E-03    -118.302E-03     2.39858E-03    -66.8539E+06    -100.773E+06    -280.162E+06    -100.790E+06    -280.145E+06    -66.8539E+06    -1.35019E+06         40.3073
            1383     4.44368E-03     84.6513E-03     159.597E-03     139.445E-03    -512.190E-03     135.732E-03    -506.447E-03     157.567E-03     4.28902E-03     236.290E-03    -117.928E-03    -118.397E-03    -117.906E-03     236.267E-03    -118.397E-03     5.32692E-03    -47.2035E+06    -92.0720E+06    -264.373E+06    -92.0790E+06    -264.366E+06    -47.2035E+06    -821.210E+03         40.8734
            1384     5.33231E-03     84.6555E-03     155.351E-03     127.897E-03    -494.847E-03     126.156E-03    -490.627E-03     152.873E-03    -72.7295E-03     236.020E-03    -117.635E-03    -118.423E-03    -117.572E-03     235.958E-03    -118.423E-03     9.17263E-03    -31.4434E+06    -83.6456E+06    -233.903E+06    -83.6474E+06    -233.901E+06    -31.4434E+06     128.510E+03         41.5971
            1385     6.22190E-03     84.6647E-03     156.846E-03     135.071E-03    -502.066E-03     141.093E-03    -500.770E-03     149.529E-03    -13.3930E-03     235.623E-03    -117.265E-03    -118.385E-03    -117.127E-03     235.486E-03    -118.385E-03     13.6968E-03    -20.2875E+06    -75.8580E+06    -194.472E+06    -75.8608E+06    -194.469E+06    -20.2875E+06     526.636E+03         42.4831
            1386     7.11131E-03     84.6791E-03     153.794E-03     133.523E-03    -497.287E-03     138.718E-03    -496.243E-03     147.554E-03    -34.0661E-03     235.138E-03    -116.841E-03    -118.336E-03    -116.549E-03     234.846E-03    -118.336E-03     19.8904E-03    -10.1680E+06    -68.4153E+06    -155.357E+06    -68.4344E+06    -155.338E+06    -10.1680E+06     901.186E+03         43.5660
            1387     8.00053E-03     84.7023E-03     150.184E-03     128.818E-03    -488.415E-03     132.656E-03    -487.094E-03     145.024E-03    -24.1199E-03     235.071E-03    -116.839E-03    -118.262E-03    -116.274E-03     234.506E-03    -118.262E-03     27.8098E-03    -280.666E+03    -61.3350E+06    -108.148E+06    -61.3651E+06    -108.118E+06    -280.666E+03     1.06618E+06         44.9032
            1388     8.88921E-03     84.7373E-03     155.356E-03     125.737E-03    -488.612E-03     138.427E-03    -488.222E-03     142.275E-03     23.1265E-03     235.157E-03    -116.978E-03    -118.187E-03    -115.986E-03     234.164E-03    -118.187E-03     36.9603E-03     9.75975E+06    -36.7999E+06    -67.3013E+06    -54.8012E+06    -49.3000E+06     9.75975E+06     1.26719E+06         46.5238
            1389     9.77892E-03     84.7831E-03     156.621E-03     126.013E-03    -487.249E-03     142.430E-03    -486.774E-03     139.730E-03     31.3141E-03     234.163E-03    -116.119E-03    -118.048E-03    -114.275E-03     232.319E-03    -118.048E-03     49.9879E-03     45.2817E+06     6.21841E+06    -48.5072E+06    -48.4566E+06     29.8213E+06     21.6282E+06     1.54426E+06         48.4525
            1390     10.6721E-03     84.8432E-03     146.574E-03     131.694E-03    -478.593E-03     140.981E-03    -478.116E-03     136.810E-03     13.7377E-03     234.765E-03    -116.672E-03    -118.138E-03    -113.615E-03     231.494E-03    -117.924E-03     66.9626E-03     83.5184E+06     38.0201E+06    -41.9068E+06    -41.8968E+06     83.5084E+06     38.0201E+06     1.01455E+06         50.6397
            1391     11.5617E-03     84.9301E-03     134.714E-03     125.640E-03    -456.196E-03     126.924E-03    -455.285E-03     132.519E-03     23.2802E-03     237.991E-03    -117.903E-03    -120.142E-03    -114.673E-03     232.522E-03    -117.903E-03     87.1723E-03     94.6258E+06     61.4959E+06    -35.0593E+06    -35.0519E+06     94.6184E+06     61.4959E+06     876.723E+03         52.7957
            1392     12.4469E-03     85.0414E-03     127.491E-03     112.834E-03    -430.778E-03     112.971E-03    -429.609E-03     126.186E-03     12.1629E-03     241.908E-03    -118.000E-03    -123.979E-03    -114.799E-03     232.729E-03    -118.000E-03     113.522E-03     98.5008E+06     86.7034E+06    -28.1902E+06    -28.1754E+06     97.9737E+06     87.2157E+06     886.598E+03         54.5621
            1393     13.3414E-03     85.1977E-03     123.739E-03     110.629E-03    -419.544E-03     114.654E-03    -419.020E-03     119.190E-03    -25.3705E-03     241.953E-03    -118.082E-03    -123.943E-03    -114.685E-03     232.695E-03    -118.082E-03     114.070E-03     101.934E+06     100.625E+06    -20.5907E+06    -20.5689E+06     100.603E+06     101.934E+06     422.530E+03         56.1102
            1394     14.2297E-03     85.3130E-03     121.642E-03     110.099E-03    -413.271E-03     119.216E-03    -412.934E-03     112.187E-03    -21.7990E-03     249.140E-03    -118.033E-03    -131.152E-03    -116.497E-03     234.485E-03    -118.033E-03     141.455E-03     108.139E+06     103.692E+06    -12.3241E+06    -12.3082E+06     107.327E+06     104.489E+06     526.705E+03         58.0555
            1395     15.1181E-03     85.5395E-03     120.891E-03     106.123E-03    -402.171E-03     120.645E-03    -401.926E-03     106.123E-03    -6.92541E-03     246.124E-03    -117.039E-03    -129.200E-03    -116.840E-03     234.712E-03    -117.988E-03     104.857E-03     112.991E+06     104.763E+06    -5.47904E+06    -5.47209E+06     112.984E+06     104.763E+06     370.257E+03         60.2991
            1396     888.896E-06     85.9198E-03         1.12296    -127.615E-03        -1.16526         1.11812    -360.812E-03    -927.223E-03     114.446E-03     235.835E-03    -117.529E-03    -118.324E-03    -118.323E-03     235.834E-03    -117.529E-03    -701.601E-06    -115.580E+06    -118.461E+06    -312.736E+06    -117.862E+06    -312.719E+06    -116.196E+06    -978.530E+03         39.4279
            1397     1.77846E-03     85.9195E-03     104.611E-03     85.6554E-03    -365.772E-03     92.9620E-03    -363.015E-03     94.5479E-03     11.5923E-03     236.357E-03    -118.070E-03    -118.309E-03    -118.309E-03     236.357E-03    -118.070E-03    -391.655E-06    -105.086E+06    -114.967E+06    -306.444E+06    -114.992E+06    -306.419E+06    -105.086E+06    -846.745E+03         39.6015
            1398     2.66587E-03     85.9164E-03     88.9487E-03     60.1075E-03    -328.124E-03     57.1181E-03    -325.135E-03     88.9487E-03     15.4950E-03     236.355E-03    -117.994E-03    -118.376E-03    -118.128E-03     236.354E-03    -118.242E-03     245.746E-06    -86.6796E+06    -108.620E+06    -294.441E+06    -108.644E+06    -294.417E+06    -86.6796E+06    -1.43158E+06         39.8863
            1399     3.55490E-03     85.9159E-03     82.6242E-03     57.4045E-03    -319.174E-03     56.7825E-03    -316.619E-03     80.6914E-03     35.0079E-03     236.085E-03    -117.781E-03    -118.316E-03    -117.776E-03     236.081E-03    -118.316E-03     2.24793E-03    -66.0866E+06    -100.754E+06    -280.258E+06    -100.767E+06    -280.246E+06    -66.0866E+06    -1.21690E+06         40.3005
            1400     4.44474E-03     85.9168E-03     94.3229E-03     71.4467E-03    -341.761E-03     83.5394E-03    -337.671E-03     78.1402E-03     3.97947E-03     236.022E-03    -117.684E-03    -118.370E-03    -117.664E-03     236.002E-03    -118.370E-03     4.99325E-03    -46.3468E+06    -92.0711E+06    -264.998E+06    -92.0730E+06    -264.996E+06    -46.3468E+06    -533.849E+03         40.8610
            1401     5.33362E-03     85.9221E-03     99.6107E-03     74.5212E-03    -349.867E-03     91.0831E-03    -346.193E-03     79.3746E-03    -74.7055E-03     235.764E-03    -117.435E-03    -118.363E-03    -117.375E-03     235.704E-03    -118.363E-03     8.85209E-03    -30.8113E+06    -83.1541E+06    -235.023E+06    -83.1560E+06    -235.021E+06    -30.8113E+06     128.136E+03         41.5857
            1402     6.22216E-03     85.9297E-03     91.2787E-03     80.1297E-03    -346.982E-03     89.1389E-03    -345.167E-03     80.4538E-03    -32.2789E-03     235.552E-03    -117.252E-03    -118.319E-03    -117.112E-03     235.411E-03    -118.319E-03     13.8112E-03    -19.6017E+06    -75.0983E+06    -195.294E+06    -75.1068E+06    -195.286E+06    -19.6017E+06     777.321E+03         42.4861
            1403     7.11110E-03     85.9449E-03     89.0420E-03     71.5119E-03    -335.964E-03     78.3354E-03    -333.849E-03     80.1035E-03    -31.3782E-03     235.590E-03    -117.316E-03    -118.307E-03    -117.017E-03     235.291E-03    -118.307E-03     20.1945E-03    -9.33461E+06    -67.6177E+06    -156.249E+06    -67.6419E+06    -156.225E+06    -9.33461E+06     1.11085E+06         43.5832
            1404     8.00028E-03     85.9675E-03     83.7725E-03     61.7627E-03    -321.824E-03     65.0018E-03    -319.260E-03     77.9688E-03    -16.4073E-03     235.408E-03    -117.158E-03    -118.277E-03    -116.544E-03     234.794E-03    -118.277E-03     28.9445E-03     220.833E+03    -60.6453E+06    -108.782E+06    -60.7570E+06    -108.671E+06     220.833E+03     1.60278E+06         44.9160
            1405     8.88947E-03     86.0044E-03     87.2281E-03     67.7010E-03    -330.625E-03     78.5601E-03    -329.895E-03     75.6396E-03     31.8247E-03     234.548E-03    -116.364E-03    -118.187E-03    -115.356E-03     233.541E-03    -118.187E-03     37.3880E-03     10.2523E+06    -37.2222E+06    -67.2438E+06    -54.7624E+06    -49.7036E+06     10.2523E+06     1.58152E+06         46.5264
            1406     9.78114E-03     86.0440E-03     97.1240E-03     74.4236E-03    -345.095E-03     96.1929E-03    -344.164E-03     74.4236E-03     30.8949E-03     234.153E-03    -116.130E-03    -118.029E-03    -114.400E-03     232.423E-03    -118.029E-03     48.4906E-03     46.1800E+06     6.29058E+06    -47.9921E+06    -47.9650E+06     29.7960E+06     22.6475E+06     1.09566E+06         48.4546
            1407     10.6705E-03     86.1089E-03     91.5227E-03     72.8001E-03    -331.169E-03     90.1643E-03    -329.810E-03     72.8001E-03     897.338E-06     235.253E-03    -117.196E-03    -118.114E-03    -114.213E-03     232.093E-03    -117.937E-03     65.7882E-03     84.2725E+06     39.1452E+06    -41.2501E+06    -41.2315E+06     84.2539E+06     39.1452E+06     1.37756E+06         50.6430
            1408     11.5599E-03     86.1963E-03     82.5007E-03     67.7981E-03    -313.913E-03     79.6331E-03    -312.611E-03     69.3632E-03     4.62611E-03     237.851E-03    -117.932E-03    -119.975E-03    -114.548E-03     232.424E-03    -117.932E-03     86.7756E-03     94.8073E+06     62.1393E+06    -35.1674E+06    -35.1426E+06     94.7826E+06     62.1393E+06     1.72015E+06         52.7990
            1409     12.4515E-03     86.3112E-03     87.6822E-03     63.0442E-03    -311.556E-03     84.1758E-03    -309.614E-03     64.6093E-03    -6.02850E-03     241.899E-03    -118.028E-03    -123.927E-03    -114.924E-03     232.896E-03    -118.028E-03     112.534E-03     98.6980E+06     87.3381E+06    -28.3515E+06    -28.3316E+06     98.3960E+06     87.6202E+06     1.44011E+06         54.5666
            1410     13.3369E-03     86.4592E-03     90.7215E-03     59.8554E-03    -305.488E-03     89.2527E-03    -304.019E-03     59.8554E-03    -37.5183E-03     242.050E-03    -118.115E-03    -124.011E-03    -114.780E-03     232.818E-03    -118.115E-03     114.131E-03     102.123E+06     100.584E+06    -20.7997E+06    -20.7613E+06     100.550E+06     102.119E+06     1.08424E+06         56.1151
            1411     14.2286E-03     86.5818E-03     85.2060E-03     54.6704E-03    -289.549E-03     84.4415E-03    -288.784E-03     54.6704E-03    -25.4657E-03     248.840E-03    -118.052E-03    -130.852E-03    -116.146E-03     234.134E-03    -118.052E-03     141.904E-03     108.319E+06     102.408E+06    -13.7738E+06    -13.7441E+06     107.036E+06     103.661E+06     610.414E+03         58.0591
            1412     15.1190E-03     86.8037E-03     86.3018E-03     49.9471E-03    -278.458E-03     85.6237E-03    -277.780E-03     49.9471E-03    -18.0614E-03     245.674E-03    -116.857E-03    -128.919E-03    -116.438E-03     234.318E-03    -117.983E-03     105.168E-03     113.130E+06     104.110E+06    -6.84052E+06    -6.83900E+06     113.128E+06     104.110E+06     265.704E+03         60.3006
            1413     889.128E-06     87.1840E-03     980.125E-03    -110.475E-03        -1.00993     967.811E-03    -209.183E-03    -898.912E-03     100.599E-03     236.327E-03    -117.878E-03    -118.469E-03    -118.393E-03     236.326E-03    -117.953E-03    -678.083E-06    -114.025E+06    -118.268E+06    -312.495E+06    -117.848E+06    -312.487E+06    -114.454E+06     79.9265E+03         39.4434
            1414     1.77720E-03     87.1853E-03     27.2466E-03     9.73022E-03    -178.342E-03     404.859E-06    -169.017E-03     27.2466E-03     42.9995E-03     236.206E-03    -117.927E-03    -118.301E-03    -118.020E-03     236.206E-03    -118.208E-03    -253.760E-06    -103.511E+06    -114.076E+06    -304.944E+06    -114.092E+06    -304.928E+06    -103.511E+06    -406.959E+03         39.6046
            1415     2.66658E-03     87.1825E-03     18.2101E-03    -11.2978E-03    -154.540E-03    -24.1214E-03    -137.752E-03     14.2453E-03     68.1929E-03     236.266E-03    -117.927E-03    -118.355E-03    -118.029E-03     236.265E-03    -118.252E-03     453.068E-06    -86.2746E+06    -108.221E+06    -293.724E+06    -108.234E+06    -293.711E+06    -86.2746E+06    -998.480E+03         39.8846
            1416     3.55537E-03     87.1806E-03     14.5720E-03    -12.6976E-03    -148.868E-03    -15.9105E-03    -136.331E-03     5.24827E-03     57.3582E-03     236.239E-03    -117.896E-03    -118.357E-03    -117.924E-03     236.234E-03    -118.324E-03     2.45437E-03    -66.4820E+06    -100.859E+06    -280.245E+06    -100.861E+06    -280.242E+06    -66.4820E+06    -584.721E+03         40.2959
            1417     4.44342E-03     87.1830E-03     36.0646E-03     4.89572E-03    -181.608E-03     28.5688E-03    -174.112E-03     4.89572E-03     8.22722E-03     235.779E-03    -117.442E-03    -118.368E-03    -117.424E-03     235.761E-03    -118.368E-03     4.81362E-03    -46.9642E+06    -92.4353E+06    -265.444E+06    -92.4381E+06    -265.442E+06    -46.9642E+06    -608.962E+03         40.8507
            1418     5.33297E-03     87.1859E-03     43.8624E-03     9.61767E-03    -195.478E-03     40.8271E-03    -192.443E-03     9.61767E-03    -36.8659E-03     235.392E-03    -117.113E-03    -118.316E-03    -117.052E-03     235.331E-03    -118.316E-03     8.84361E-03    -30.9817E+06    -83.4699E+06    -236.415E+06    -83.4727E+06    -236.412E+06    -30.9817E+06    -56.5342E+03         41.5750
            1419     6.22298E-03     87.1960E-03     20.2630E-03     8.47236E-03    -170.706E-03     13.4927E-03    -167.292E-03     11.8283E-03     1.13234E-03     235.601E-03    -117.367E-03    -118.263E-03    -117.224E-03     235.459E-03    -118.263E-03     13.9769E-03    -19.5253E+06    -74.9815E+06    -196.790E+06    -74.9922E+06    -196.779E+06    -19.5253E+06     969.659E+03         42.4835
            1420     7.11226E-03     87.2097E-03     22.8280E-03     7.59458E-03    -172.792E-03     8.84554E-03    -162.166E-03     10.9506E-03    -31.0315E-03     235.779E-03    -117.537E-03    -118.279E-03    -117.242E-03     235.484E-03    -118.279E-03     20.0517E-03    -8.81553E+06    -67.3754E+06    -156.720E+06    -67.4181E+06    -156.678E+06    -8.81553E+06     1.54475E+06         43.5892
            1421     8.00044E-03     87.2355E-03     34.8607E-03     10.4073E-03    -189.450E-03     26.6654E-03    -181.254E-03     10.4073E-03    -40.5927E-03     235.224E-03    -116.992E-03    -118.258E-03    -116.420E-03     234.652E-03    -118.258E-03     28.0046E-03     898.937E+03    -60.6068E+06    -109.345E+06    -60.7437E+06    -109.208E+06     898.937E+03     1.93908E+06         44.9255
            1422     8.89101E-03     87.2665E-03     29.9171E-03     10.4218E-03    -183.204E-03     28.3102E-03    -181.597E-03     10.4218E-03    -524.342E-06     234.669E-03    -116.491E-03    -118.177E-03    -115.549E-03     233.727E-03    -118.177E-03     36.1086E-03     11.0317E+06    -37.0208E+06    -67.5009E+06    -54.3756E+06    -50.1462E+06     11.0317E+06     2.10467E+06         46.5403
            1423     9.77953E-03     87.3112E-03     25.4091E-03     9.44500E-03    -175.176E-03     20.7394E-03    -170.506E-03     9.44500E-03     23.7656E-03     235.025E-03    -116.961E-03    -118.067E-03    -115.239E-03     233.303E-03    -118.067E-03     48.3946E-03     47.6688E+06     6.73162E+06    -48.6580E+06    -48.5514E+06     30.7945E+06     23.4993E+06     2.09270E+06         48.4769
            1424     10.6686E-03     87.3733E-03     32.7232E-03     7.51086E-03    -174.687E-03     28.5173E-03    -170.481E-03     7.51086E-03     12.2370E-03     235.998E-03    -117.773E-03    -118.268E-03    -114.840E-03     232.826E-03    -118.030E-03     66.0727E-03     83.9996E+06     38.4229E+06    -43.3210E+06    -43.2798E+06     83.9584E+06     38.4229E+06     1.92962E+06         50.6617
            1425     11.5594E-03     87.4610E-03     43.5574E-03     5.32263E-03    -180.809E-03     42.1576E-03    -179.409E-03     5.32263E-03    -178.327E-06     237.601E-03    -118.029E-03    -119.623E-03    -114.196E-03     232.174E-03    -118.029E-03     86.6678E-03     93.4005E+06     60.8380E+06    -36.5105E+06    -36.4731E+06     93.3630E+06     60.8380E+06     2.07362E+06         52.7951
            1426     12.4472E-03     87.5771E-03     56.6885E-03     2.81792E-03    -187.744E-03     53.7726E-03    -184.828E-03     2.81792E-03    -14.7597E-03     240.875E-03    -118.071E-03    -122.819E-03    -113.907E-03     231.963E-03    -118.071E-03     111.704E-03     98.7275E+06     87.1574E+06    -28.7961E+06    -28.7612E+06     98.6927E+06     87.1574E+06     1.88549E+06         54.5491
            1427     13.3402E-03     87.7268E-03     62.2641E-03     237.332E-06    -184.063E-03     59.6323E-03    -181.431E-03     237.332E-06    -45.8702E-03     241.653E-03    -118.103E-03    -123.568E-03    -114.184E-03     232.269E-03    -118.103E-03     115.146E-03     102.411E+06     99.8385E+06    -21.2115E+06    -21.1764E+06     100.218E+06     101.996E+06     1.57809E+06         56.1078
            1428     14.2288E-03     87.8459E-03     57.3745E-03    -3.03863E-03    -171.090E-03     56.5280E-03    -170.243E-03    -3.03863E-03    -27.0805E-03     248.862E-03    -118.020E-03    -130.896E-03    -115.957E-03     233.923E-03    -118.020E-03     143.528E-03     109.199E+06     102.487E+06    -13.0892E+06    -13.0580E+06     107.010E+06     104.645E+06     1.37663E+06         58.0654
            1429     15.1198E-03     88.0695E-03     57.1495E-03    -6.03477E-03    -160.859E-03     56.5589E-03    -160.268E-03    -6.03477E-03    -21.4259E-03     245.866E-03    -117.185E-03    -128.755E-03    -116.649E-03     234.526E-03    -117.950E-03     105.106E-03     114.610E+06     105.607E+06    -5.73742E+06    -5.73007E+06     114.603E+06     105.607E+06     530.330E+03         60.3114
            1430     887.881E-06     88.4517E-03     846.031E-03    -45.6518E-03    -913.859E-03     781.283E-03     1.39301E-03    -896.156E-03     114.179E-03     236.783E-03    -118.023E-03    -118.773E-03    -118.370E-03     236.782E-03    -118.425E-03    -930.436E-06    -112.669E+06    -118.635E+06    -312.535E+06    -117.808E+06    -312.533E+06    -113.498E+06     399.693E+03         39.4585
            1431     1.77742E-03     88.4491E-03     50.6428E-03    -67.3087E-03    -96.8120E-03    -71.3840E-03     18.1892E-03    -60.2833E-03     47.6964E-03     236.139E-03    -117.800E-03    -118.350E-03    -117.800E-03     236.139E-03    -118.350E-03    -321.389E-06    -101.782E+06    -113.179E+06    -303.852E+06    -113.180E+06    -303.851E+06    -101.782E+06     151.544E+03         39.6093
            1432     2.66674E-03     88.4474E-03     34.5021E-03    -52.6490E-03    -98.3788E-03    -60.5159E-03     6.59783E-03    -62.6075E-03     61.6855E-03     236.132E-03    -117.847E-03    -118.302E-03    -117.879E-03     236.132E-03    -118.269E-03     562.042E-06    -86.5165E+06    -107.750E+06    -293.654E+06    -107.751E+06    -293.652E+06    -86.5165E+06     133.818E+03         39.8814
            1433     3.55479E-03     88.4476E-03     24.1873E-03    -47.4701E-03    -91.4096E-03    -50.3072E-03    -3.49602E-03    -60.8892E-03     49.5712E-03     236.015E-03    -117.708E-03    -118.326E-03    -117.736E-03     236.011E-03    -118.293E-03     2.26452E-03    -66.8960E+06    -100.469E+06    -280.395E+06    -100.471E+06    -280.393E+06    -66.8960E+06    -73.9614E+03         40.2906
            1434     4.44468E-03     88.4473E-03     55.7058E-03    -57.1177E-03    -111.353E-03    -59.5222E-03     6.36778E-03    -59.6107E-03    -20.1130E-03     235.712E-03    -117.424E-03    -118.321E-03    -117.405E-03     235.692E-03    -118.321E-03     4.93716E-03    -47.5858E+06    -92.0407E+06    -265.875E+06    -92.0423E+06    -265.874E+06    -47.5858E+06    -438.634E+03         40.8498
            1435     5.33417E-03     88.4510E-03     68.9951E-03    -59.6218E-03    -119.041E-03    -56.6039E-03     6.55822E-03    -59.6218E-03    -63.2240E-03     235.742E-03    -117.480E-03    -118.304E-03    -117.422E-03     235.683E-03    -118.304E-03     8.72780E-03    -31.3245E+06    -83.2889E+06    -237.578E+06    -83.2916E+06    -237.575E+06    -31.3245E+06     21.4848E+03         41.5773
            1436     6.22304E-03     88.4608E-03     30.3786E-03    -48.1415E-03    -92.4623E-03    -44.4781E-03    -6.82880E-03    -58.9183E-03    -16.8407E-03     235.707E-03    -117.455E-03    -118.291E-03    -117.320E-03     235.572E-03    -118.291E-03     13.4928E-03    -19.3959E+06    -74.9673E+06    -198.182E+06    -74.9873E+06    -198.162E+06    -19.3959E+06     1.21935E+06         42.4784
            1437     7.11064E-03     88.4778E-03     24.7071E-03    -44.5619E-03    -91.6692E-03    -40.2798E-03    -13.5565E-03    -57.6877E-03    -48.7101E-03     235.379E-03    -117.138E-03    -118.280E-03    -116.847E-03     235.089E-03    -118.280E-03     19.8652E-03    -8.76636E+06    -67.8122E+06    -157.814E+06    -67.8823E+06    -157.744E+06    -8.76636E+06     2.25827E+06         43.5783
            1438     8.00063E-03     88.4986E-03     45.4128E-03    -52.9559E-03    -103.521E-03    -35.3279E-03    -19.0589E-03    -56.6777E-03    -45.2733E-03     235.287E-03    -117.064E-03    -118.240E-03    -116.485E-03     234.709E-03    -118.240E-03     28.1437E-03     1.15105E+06    -61.0860E+06    -109.969E+06    -61.2765E+06    -109.779E+06     1.15105E+06     2.56145E+06         44.9247
            1439     8.88910E-03     88.5337E-03     35.4694E-03    -43.8321E-03    -101.595E-03    -26.7680E-03    -27.4040E-03    -55.7855E-03     803.878E-06     235.253E-03    -117.059E-03    -118.192E-03    -116.102E-03     234.296E-03    -118.192E-03     36.4523E-03     10.9199E+06    -37.8222E+06    -68.0745E+06    -54.9015E+06    -50.9952E+06     10.9199E+06     2.73568E+06         46.5518
            1440     9.77946E-03     88.5753E-03     19.6687E-03    -35.2088E-03    -92.7040E-03    -22.5501E-03    -30.4809E-03    -55.2130E-03     30.0401E-03     235.366E-03    -117.262E-03    -118.114E-03    -115.481E-03     233.585E-03    -118.114E-03     49.1918E-03     47.3248E+06     6.36076E+06    -48.8347E+06    -48.6194E+06     30.1024E+06     23.3679E+06     3.70361E+06         48.4913
            1441     10.6691E-03     88.6408E-03     18.1226E-03    -30.8633E-03    -92.5341E-03    -12.4836E-03    -37.6774E-03    -55.1140E-03     22.3889E-03     236.257E-03    -117.856E-03    -118.438E-03    -114.977E-03     233.032E-03    -118.093E-03     66.7582E-03     84.7235E+06     39.7694E+06    -42.7689E+06    -42.6382E+06     84.5928E+06     39.7694E+06     3.70376E+06         50.6726
            1442     11.5564E-03     88.7265E-03     30.5131E-03    -33.4076E-03    -99.5449E-03     1.08497E-03    -48.2510E-03    -55.2734E-03     21.9050E-03     237.585E-03    -118.080E-03    -119.549E-03    -113.996E-03     232.031E-03    -118.080E-03     87.5308E-03     92.3404E+06     59.9844E+06    -37.6839E+06    -37.6124E+06     92.2689E+06     59.9844E+06     2.59022E+06         52.7962
            1443     12.4489E-03     88.8420E-03     39.0115E-03    -33.8132E-03    -102.700E-03     5.50185E-03    -46.8346E-03    -56.1688E-03     14.5680E-03     240.426E-03    -118.084E-03    -122.337E-03    -113.281E-03     231.369E-03    -118.084E-03     112.535E-03      97.979E+06     85.8574E+06    -29.8511E+06    -29.8175E+06     97.9454E+06     85.8574E+06     1.93254E+06         54.5441
            1444     13.3395E-03     88.9884E-03     34.5797E-03    -24.7632E-03    -101.451E-03     9.98570E-03    -43.9499E-03    -57.6707E-03    -26.4438E-03     241.084E-03    -118.083E-03    -123.004E-03    -113.662E-03     231.742E-03    -118.083E-03     114.664E-03     103.746E+06     100.733E+06    -20.7447E+06    -20.7272E+06     101.479E+06     102.983E+06     1.27645E+06         56.1090
            1445     14.2315E-03     89.1149E-03     34.4502E-03    -21.3747E-03    -99.5644E-03     23.0588E-03    -49.9331E-03    -59.6145E-03    -16.3786E-03     248.638E-03    -117.988E-03    -130.702E-03    -115.954E-03     233.890E-03    -117.988E-03     142.565E-03     109.517E+06     103.296E+06    -12.9978E+06    -12.9862E+06     107.256E+06     105.546E+06     914.924E+03         58.0753
            1446     15.1204E-03     89.3330E-03     38.3709E-03    -21.8618E-03    -97.5754E-03     36.7359E-03    -57.1917E-03    -60.6104E-03    -10.5730E-03     246.210E-03    -117.442E-03    -128.856E-03    -117.163E-03     235.010E-03    -117.935E-03     104.391E-03     115.384E+06     106.051E+06    -6.08306E+06    -6.07442E+06     115.376E+06     106.051E+06     789.904E+03         60.3247
            1447     888.545E-06     89.7167E-03     754.740E-03     66.9963E-03    -901.287E-03     587.367E-03     234.370E-03    -901.287E-03     96.6695E-03     236.559E-03    -117.902E-03    -118.669E-03    -118.342E-03     236.559E-03    -118.229E-03    -286.159E-06    -113.295E+06    -117.081E+06    -312.703E+06    -116.255E+06    -312.699E+06    -114.124E+06     253.431E+03         39.4606
            1448     1.77744E-03     89.7141E-03     195.480E-03    -127.828E-03    -150.200E-03    -123.594E-03     191.245E-03    -150.200E-03     65.6249E-03     236.583E-03    -117.987E-03    -118.606E-03    -118.246E-03     236.583E-03    -118.347E-03    -399.346E-06    -102.195E+06    -112.309E+06    -304.715E+06    -112.314E+06    -304.710E+06    -102.195E+06     759.562E+03         39.6133
            1449     2.66566E-03     89.7136E-03     170.694E-03    -116.287E-03    -139.209E-03    -113.771E-03     168.178E-03    -139.209E-03     28.0536E-03     236.046E-03    -117.718E-03    -118.342E-03    -117.717E-03     236.046E-03    -118.342E-03     431.292E-06    -85.3571E+06    -106.577E+06    -293.665E+06    -106.580E+06    -293.661E+06    -85.3571E+06     531.899E+03         39.8808
            1450     3.55575E-03     89.7119E-03     158.714E-03    -112.929E-03    -132.326E-03    -111.598E-03     157.383E-03    -132.326E-03     19.9527E-03     235.695E-03    -117.428E-03    -118.283E-03    -117.424E-03     235.691E-03    -118.283E-03     1.91995E-03    -66.6749E+06    -99.4406E+06    -280.631E+06    -99.4463E+06    -280.625E+06    -66.6749E+06     556.214E+03         40.2901
            1451     4.44475E-03     89.7117E-03     180.434E-03    -120.883E-03    -144.265E-03    -130.610E-03     175.777E-03    -129.882E-03    -26.6744E-03     236.052E-03    -117.773E-03    -118.317E-03    -117.756E-03     236.036E-03    -118.317E-03     4.52672E-03    -46.9107E+06    -91.2847E+06    -266.044E+06    -91.2904E+06    -266.038E+06    -46.9107E+06     483.057E+03         40.8556
            1452     5.33279E-03     89.7172E-03     187.030E-03    -122.490E-03    -145.545E-03    -132.361E-03     181.756E-03    -130.399E-03    -71.4971E-03     236.123E-03    -117.802E-03    -118.365E-03    -117.744E-03     236.066E-03    -118.365E-03     8.64302E-03    -30.7319E+06    -83.0977E+06    -238.584E+06    -83.1056E+06    -238.576E+06    -30.7319E+06     767.734E+03         41.5830
            1453     6.22076E-03     89.7271E-03     154.255E-03    -102.158E-03    -129.793E-03    -100.328E-03     151.662E-03    -129.030E-03    -21.1929E-03     235.404E-03    -117.095E-03    -118.344E-03    -116.956E-03     235.265E-03    -118.344E-03     13.7073E-03    -19.2841E+06    -75.5042E+06    -199.939E+06    -75.5492E+06    -199.894E+06    -19.2841E+06     2.04277E+06         42.4731
            1454     7.11254E-03     89.7404E-03     133.458E-03    -87.1965E-03    -124.978E-03    -79.5594E-03     125.821E-03    -124.978E-03    -46.3784E-03     235.051E-03    -116.809E-03    -118.278E-03    -116.505E-03     234.747E-03    -118.278E-03     20.2890E-03    -8.54018E+06    -68.1946E+06    -159.416E+06    -68.2940E+06    -159.317E+06    -8.54018E+06     2.90451E+06         43.5656
            1455     8.00158E-03     89.7658E-03     133.440E-03    -91.0402E-03    -121.300E-03    -83.7629E-03     126.163E-03    -121.300E-03    -36.7620E-03     235.313E-03    -117.109E-03    -118.216E-03    -116.524E-03     234.728E-03    -118.216E-03     28.3540E-03     1.05829E+06    -61.4664E+06    -111.447E+06    -61.8057E+06    -111.107E+06     1.05829E+06     3.37383E+06         44.9176
            1456     8.89080E-03     89.7993E-03     123.588E-03    -83.2280E-03    -119.020E-03    -82.1382E-03     122.499E-03    -119.020E-03     17.0717E-03     235.507E-03    -117.315E-03    -118.187E-03    -116.337E-03     234.528E-03    -118.187E-03     36.8433E-03     11.3619E+06    -37.7214E+06    -69.1101E+06    -55.7894E+06    -51.0421E+06     11.3619E+06     3.56861E+06         46.5517
            1457     9.77878E-03     89.8418E-03     110.446E-03    -71.3049E-03    -116.939E-03    -63.5871E-03     102.728E-03    -116.939E-03     43.3147E-03     235.499E-03    -117.375E-03    -118.125E-03    -115.562E-03     233.686E-03    -118.125E-03     49.7081E-03     45.1951E+06     5.98145E+06    -49.7458E+06    -49.5010E+06     27.7106E+06     23.2212E+06     3.95296E+06         48.4891
            1458     10.6676E-03     89.9074E-03     99.1521E-03    -58.8717E-03    -114.778E-03    -48.6700E-03     88.9504E-03    -114.778E-03     10.1598E-03     235.748E-03    -117.593E-03    -118.187E-03    -114.372E-03     232.415E-03    -118.075E-03     67.6547E-03     82.3153E+06     38.2635E+06    -43.3752E+06    -43.1594E+06     82.0995E+06     38.2635E+06     5.16543E+06         50.6646
            1459     11.5595E-03     89.9922E-03     94.7428E-03    -53.4651E-03    -113.323E-03    -41.8308E-03     83.1084E-03    -113.323E-03    -4.83902E-03     237.284E-03    -117.917E-03    -119.412E-03    -113.707E-03     231.696E-03    -118.033E-03     87.9257E-03     95.3671E+06     61.9601E+06    -35.8472E+06    -35.7013E+06     95.2212E+06     61.9601E+06     3.91956E+06         52.7953
            1460     12.4492E-03     90.1045E-03     88.6712E-03    -44.9578E-03    -112.984E-03    -33.2131E-03     76.9265E-03    -112.984E-03    -2.31865E-03     241.094E-03    -118.062E-03    -123.032E-03    -114.005E-03     232.067E-03    -118.062E-03     112.507E-03     100.113E+06     87.6859E+06    -28.0086E+06    -27.9791E+06     99.3379E+06     88.4314E+06     1.82129E+06         54.5575
            1461     13.3390E-03     90.2561E-03     76.3603E-03    -27.8833E-03    -113.071E-03    -24.5163E-03     72.9932E-03    -113.071E-03    -32.2053E-03     241.664E-03    -118.105E-03    -123.594E-03    -114.345E-03     232.415E-03    -118.105E-03     114.202E-03     104.705E+06     102.554E+06    -20.2586E+06    -20.2204E+06     102.868E+06     104.353E+06     1.98370E+06         56.1233
            1462     14.2290E-03     90.3753E-03     71.1032E-03    -15.8979E-03    -113.339E-03    -8.41008E-03     63.6154E-03    -113.339E-03    -20.8452E-03     248.688E-03    -118.025E-03    -130.722E-03    -115.938E-03     233.904E-03    -118.025E-03     142.354E-03     109.604E+06     105.114E+06    -13.3240E+06    -13.2937E+06     108.520E+06     106.167E+06     1.51889E+06         58.0821
            1463     15.1194E-03     90.6040E-03     64.0476E-03    -4.91394E-03    -112.365E-03     15.3261E-03     43.8075E-03    -112.365E-03    -5.62990E-03     245.999E-03    -117.216E-03    -128.864E-03    -116.784E-03     234.654E-03    -117.953E-03     104.472E-03     114.734E+06     105.515E+06    -7.10336E+06    -7.09766E+06     114.728E+06     105.515E+06     275.972E+03         60.3294
            1464     890.000E-06     90.9825E-03     667.797E-03     114.638E-03    -832.986E-03     388.258E-03     394.178E-03    -832.986E-03     22.6045E-03     236.321E-03    -117.672E-03    -118.661E-03    -118.489E-03     236.320E-03    -117.842E-03    -745.757E-06    -113.979E+06    -117.614E+06    -313.821E+06    -117.202E+06    -313.809E+06    -114.403E+06    -46.8319E+03         39.4513
            1465     1.77682E-03     90.9812E-03     355.169E-03    -193.144E-03    -216.251E-03    -190.520E-03     352.545E-03    -216.251E-03     66.9885E-03     236.382E-03    -117.905E-03    -118.493E-03    -118.164E-03     236.382E-03    -118.234E-03    -90.7300E-06    -102.614E+06    -112.853E+06    -305.935E+06    -112.863E+06    -305.925E+06    -102.614E+06     285.428E+03         39.6067
            1466     2.66611E-03     90.9776E-03     341.953E-03    -194.569E-03    -207.366E-03    -193.213E-03     340.596E-03    -207.366E-03     34.3399E-03     236.107E-03    -117.801E-03    -118.324E-03    -117.847E-03     236.106E-03    -118.276E-03     771.836E-06    -84.8098E+06    -106.690E+06    -294.154E+06    -106.705E+06    -294.139E+06    -84.8098E+06     1.28704E+06         39.8837
            1467     3.55528E-03     90.9761E-03     340.814E-03    -195.288E-03    -203.507E-03    -191.830E-03     337.356E-03    -203.507E-03     54.3457E-03     236.122E-03    -117.789E-03    -118.350E-03    -117.833E-03     236.118E-03    -118.302E-03     2.15537E-03    -65.8211E+06    -99.3369E+06    -280.644E+06    -99.3535E+06    -280.627E+06    -65.8211E+06     1.33172E+06         40.2996
            1468     4.44390E-03     90.9784E-03     323.417E-03    -179.924E-03    -199.663E-03    -175.020E-03     318.513E-03    -199.663E-03     17.8536E-03     236.124E-03    -117.791E-03    -118.377E-03    -117.770E-03     236.104E-03    -118.377E-03     4.96209E-03    -47.0038E+06    -91.5523E+06    -266.669E+06    -91.5709E+06    -266.650E+06    -47.0038E+06     1.54191E+06         40.8606
            1469     5.33272E-03     90.9830E-03     302.264E-03    -162.454E-03    -194.615E-03    -160.776E-03     300.585E-03    -194.615E-03    -45.6593E-03     235.714E-03    -117.374E-03    -118.389E-03    -117.311E-03     235.651E-03    -118.389E-03     9.14119E-03    -30.4357E+06    -83.9420E+06    -240.113E+06    -83.9725E+06    -240.083E+06    -30.4357E+06     2.02819E+06         41.5824
            1470     6.22364E-03     90.9911E-03     300.862E-03    -162.754E-03    -190.231E-03    -162.389E-03     300.497E-03    -190.231E-03     312.766E-06     235.480E-03    -117.174E-03    -118.337E-03    -117.039E-03     235.345E-03    -118.337E-03     13.5682E-03    -18.4410E+06    -75.4640E+06    -202.214E+06    -75.5224E+06    -202.156E+06    -18.4410E+06     2.60643E+06         42.4752
            1471     7.11124E-03     91.0059E-03     294.732E-03    -158.193E-03    -187.020E-03    -155.725E-03     292.264E-03    -187.020E-03    -28.8321E-03     235.401E-03    -117.142E-03    -118.297E-03    -116.848E-03     235.107E-03    -118.297E-03     19.9173E-03    -7.92555E+06    -67.7404E+06    -161.144E+06    -67.9177E+06    -160.967E+06    -7.92555E+06     3.73062E+06         43.5676
            1472     8.00034E-03     91.0317E-03     272.020E-03    -138.628E-03    -183.622E-03    -136.395E-03     269.786E-03    -183.622E-03    -35.0182E-03     235.192E-03    -116.964E-03    -118.246E-03    -116.399E-03     234.627E-03    -118.246E-03     27.8965E-03     2.04893E+06    -61.0953E+06    -112.398E+06    -61.5833E+06    -111.910E+06     2.04893E+06     4.41264E+06         44.9108
            1473     8.88992E-03     91.0640E-03     253.110E-03    -123.357E-03    -179.803E-03    -122.826E-03     252.580E-03    -179.803E-03    -13.5163E-03     235.079E-03    -116.890E-03    -118.184E-03    -115.901E-03     234.091E-03    -118.184E-03     36.8912E-03     12.2905E+06    -37.3271E+06    -69.9413E+06    -55.6766E+06    -51.5918E+06     12.2905E+06     4.58866E+06         46.5399
            1474     9.77927E-03     91.1108E-03     242.068E-03    -114.788E-03    -176.266E-03    -112.811E-03     240.091E-03    -176.266E-03     8.86306E-03     234.967E-03    -116.886E-03    -118.080E-03    -115.053E-03     233.134E-03    -118.080E-03     49.9997E-03     43.6075E+06     6.11205E+06    -50.3233E+06    -49.9025E+06     25.7472E+06     23.5515E+06     4.67074E+06         48.4759
            1475     10.6701E-03     91.1699E-03     230.310E-03    -101.982E-03    -173.218E-03    -98.1247E-03     226.452E-03    -173.218E-03    -8.22512E-03     235.395E-03    -117.315E-03    -118.094E-03    -114.081E-03     232.061E-03    -117.995E-03     67.5931E-03     81.2974E+06     38.1846E+06    -42.6148E+06    -42.4400E+06     81.1226E+06     38.1846E+06     4.29657E+06         50.6513
            1476     11.5601E-03     91.2588E-03     214.085E-03    -85.4716E-03    -170.636E-03    -82.3720E-03     210.985E-03    -170.636E-03    -19.2109E-03     237.322E-03    -117.835E-03    -119.523E-03    -113.811E-03     231.726E-03    -117.951E-03     88.0181E-03     97.0191E+06     62.8845E+06    -34.7247E+06    -34.5719E+06     96.8663E+06     62.8845E+06     4.05509E+06         52.7939
            1477     12.4492E-03     91.3714E-03     194.644E-03    -66.7703E-03    -168.538E-03    -63.2401E-03     191.114E-03    -168.538E-03    -12.5986E-03     241.682E-03    -118.020E-03    -123.700E-03    -114.559E-03     232.540E-03    -118.020E-03     113.351E-03     102.039E+06     90.0699E+06    -27.5351E+06    -27.4169E+06     101.029E+06     90.9614E+06     3.68803E+06         54.5709
            1478     13.3390E-03     91.5211E-03     171.838E-03    -43.4377E-03    -166.164E-03    -40.4982E-03     168.899E-03    -166.164E-03    -29.5959E-03     242.577E-03    -118.109E-03    -124.540E-03    -115.191E-03     233.229E-03    -118.109E-03     115.032E-03     105.715E+06     103.643E+06    -20.2031E+06    -20.0987E+06     103.538E+06     105.715E+06     3.47840E+06         56.1337
            1479     14.2285E-03     91.6428E-03     154.343E-03    -24.8700E-03    -163.661E-03    -24.1598E-03     153.633E-03    -163.661E-03    -14.9445E-03     249.112E-03    -118.055E-03    -131.121E-03    -116.220E-03     234.211E-03    -118.055E-03     142.883E-03     111.771E+06     106.116E+06    -12.7036E+06    -12.6384E+06     110.525E+06     107.296E+06     2.57864E+06         58.0820
            1480     15.1196E-03     91.8662E-03     138.325E-03    -6.95550E-03    -160.337E-03    -5.46888E-03     136.838E-03    -160.337E-03    -3.61895E-03     245.764E-03    -117.027E-03    -128.821E-03    -116.386E-03     234.279E-03    -117.977E-03     105.209E-03     116.045E+06     106.740E+06    -5.88298E+06    -5.87134E+06     116.033E+06     106.740E+06     346.096E+03         60.3270
            1481     887.011E-06     92.2470E-03     598.821E-03     105.689E-03    -728.009E-03     196.912E-03     499.873E-03    -720.283E-03     12.5344E-03     236.302E-03    -117.572E-03    -118.742E-03    -118.445E-03     236.300E-03    -117.867E-03    -604.469E-06    -114.702E+06    -119.197E+06    -314.601E+06    -118.677E+06    -314.576E+06    -115.247E+06     273.210E+03         39.4413
            1482     1.77875E-03     92.2459E-03     508.755E-03    -259.296E-03    -275.826E-03    -269.723E-03     506.901E-03    -263.544E-03     54.9579E-03     235.835E-03    -117.711E-03    -118.143E-03    -117.711E-03     235.834E-03    -118.143E-03    -558.657E-06    -103.104E+06    -115.189E+06    -307.358E+06    -115.208E+06    -307.339E+06    -103.104E+06     597.248E+03         39.6012
            1483     2.66749E-03     92.2425E-03     502.506E-03    -261.668E-03    -269.489E-03    -264.387E-03     500.669E-03    -264.934E-03     49.8657E-03     236.236E-03    -118.022E-03    -118.239E-03    -118.100E-03     236.235E-03    -118.159E-03     644.539E-06    -85.5250E+06    -107.943E+06    -295.757E+06    -107.957E+06    -295.744E+06    -85.5250E+06     1.22109E+06         39.8872
            1484     3.55503E-03     92.2432E-03     487.263E-03    -251.826E-03    -262.976E-03    -248.192E-03     483.629E-03    -262.976E-03     62.3537E-03     236.414E-03    -118.070E-03    -118.371E-03    -118.145E-03     236.409E-03    -118.291E-03     2.52118E-03    -65.7076E+06    -100.081E+06    -281.568E+06    -100.118E+06    -281.531E+06    -65.7076E+06     2.04800E+06         40.3059
            1485     4.44372E-03     92.2432E-03     463.671E-03    -233.078E-03    -258.123E-03    -227.454E-03     458.047E-03    -258.123E-03     11.8746E-03     235.919E-03    -117.575E-03    -118.381E-03    -117.555E-03     235.898E-03    -118.381E-03     5.04105E-03    -47.1182E+06    -92.2016E+06    -267.555E+06    -92.2454E+06    -267.511E+06    -47.1182E+06     2.44910E+06         40.8618
            1486     5.33398E-03     92.2481E-03     443.088E-03    -219.600E-03    -252.364E-03    -217.474E-03     440.962E-03    -252.364E-03    -50.2477E-03     235.618E-03    -117.292E-03    -118.366E-03    -117.232E-03     235.559E-03    -118.366E-03     8.83570E-03    -30.1473E+06    -83.4695E+06    -240.993E+06    -83.5259E+06    -240.937E+06    -30.1473E+06     2.85184E+06         41.5823
            1487     6.22150E-03     92.2569E-03     436.395E-03    -217.846E-03    -247.752E-03    -217.628E-03     436.177E-03    -247.752E-03    -10.3556E-03     235.760E-03    -117.463E-03    -118.333E-03    -117.324E-03     235.622E-03    -118.333E-03     13.6943E-03    -17.9520E+06    -75.5668E+06    -204.270E+06    -75.6563E+06    -204.180E+06    -17.9520E+06     3.30737E+06         42.4816
            1488     7.11102E-03     92.2732E-03     431.805E-03    -215.864E-03    -244.475E-03    -214.768E-03     430.709E-03    -244.475E-03    -46.1842E-03     235.522E-03    -117.246E-03    -118.319E-03    -116.943E-03     235.219E-03    -118.319E-03     20.2792E-03    -8.11107E+06    -68.0028E+06    -163.928E+06    -68.2258E+06    -163.705E+06    -8.11107E+06     4.27277E+06         43.5733
            1489     8.00086E-03     92.2956E-03     417.375E-03    -202.985E-03    -241.501E-03    -202.036E-03     416.426E-03    -241.501E-03    -29.4942E-03     235.017E-03    -116.776E-03    -118.260E-03    -116.173E-03     234.415E-03    -118.260E-03     28.7195E-03     2.33592E+06    -60.2970E+06    -114.464E+06    -61.0131E+06    -113.748E+06     2.33592E+06     5.39856E+06         44.9059
            1490     8.88989E-03     92.3318E-03     392.193E-03    -178.960E-03    -237.826E-03    -178.425E-03     391.658E-03    -237.826E-03    -7.58710E-03     234.704E-03    -116.537E-03    -118.165E-03    -115.522E-03     233.688E-03    -118.165E-03     37.4717E-03     13.0612E+06    -37.0086E+06    -70.4496E+06    -54.7628E+06    -52.6954E+06     13.0612E+06     6.11420E+06         46.5304
            1491     9.78103E-03     92.3730E-03     365.575E-03    -155.255E-03    -233.261E-03    -154.097E-03     364.417E-03    -233.261E-03     11.9070E-03     234.627E-03    -116.598E-03    -118.037E-03    -114.826E-03     232.855E-03    -118.037E-03     49.1815E-03     45.4186E+06     6.97929E+06    -49.5175E+06    -48.7953E+06     26.6535E+06     25.0221E+06     5.44007E+06         48.4695
            1492     10.6702E-03     92.4384E-03     339.943E-03    -132.369E-03    -228.289E-03    -131.199E-03     338.773E-03    -228.289E-03     3.30593E-03     235.352E-03    -117.310E-03    -118.057E-03    -114.194E-03     232.137E-03    -117.958E-03     66.3538E-03     82.5961E+06     40.3779E+06    -42.8175E+06    -42.6832E+06     82.4617E+06     40.3779E+06     3.81983E+06         50.6490
            1493     11.5601E-03     92.5215E-03     318.478E-03    -112.312E-03    -223.361E-03    -110.409E-03     316.575E-03    -223.361E-03     12.7980E-03     237.318E-03    -117.876E-03    -119.462E-03    -113.888E-03     231.787E-03    -117.920E-03     87.4320E-03     95.4661E+06     62.9800E+06    -36.1990E+06    -36.0579E+06     95.3251E+06     62.9800E+06     4.05224E+06         52.7940
            1494     12.4519E-03     92.6381E-03     300.497E-03    -95.8031E-03    -218.947E-03    -93.9961E-03     298.690E-03    -218.947E-03     16.2389E-03     241.604E-03    -117.990E-03    -123.674E-03    -114.602E-03     232.532E-03    -117.990E-03     112.951E-03     101.056E+06     89.6882E+06    -29.3501E+06    -29.1340E+06     100.694E+06     89.8342E+06     5.21689E+06         54.5700
            1495     13.3399E-03     92.7888E-03     274.202E-03    -70.8978E-03    -214.544E-03    -70.4621E-03     273.766E-03    -214.544E-03    -18.0466E-03     242.473E-03    -118.091E-03    -124.481E-03    -115.272E-03     233.265E-03    -118.091E-03     114.132E-03     106.099E+06     104.336E+06    -21.9723E+06    -21.8105E+06     104.732E+06     105.541E+06     4.06885E+06         56.1316
            1496     14.2292E-03     92.9077E-03     244.265E-03    -44.1055E-03    -209.954E-03    -43.9242E-03     244.084E-03    -209.954E-03    -9.81730E-03     248.974E-03    -118.044E-03    -130.988E-03    -116.270E-03     234.256E-03    -118.044E-03     141.909E-03     113.274E+06     106.366E+06    -13.1986E+06    -13.1539E+06     112.170E+06     107.425E+06     2.02613E+06         58.0800
            1497     15.1190E-03     93.1308E-03     221.999E-03    -22.5447E-03    -204.519E-03    -22.2755E-03     221.730E-03    -204.519E-03    -3.05422E-03     245.776E-03    -117.083E-03    -128.770E-03    -116.466E-03     234.363E-03    -117.973E-03     105.732E-03     117.852E+06     107.413E+06    -5.36078E+06    -5.34113E+06     117.832E+06     107.413E+06     1.14438E+06         60.3254
            1498     890.237E-06     93.5137E-03     623.211E-03     18.6643E-03    -627.151E-03     13.6911E-03     613.017E-03    -611.983E-03     58.1280E-03     235.878E-03    -117.359E-03    -118.535E-03    -118.409E-03     235.877E-03    -117.484E-03    -293.603E-06    -116.162E+06    -119.072E+06    -316.109E+06    -118.974E+06    -316.087E+06    -116.282E+06     1.04965E+06         39.4370
            1499     1.77692E-03     93.5087E-03     645.685E-03    -306.020E-03    -334.398E-03    -332.547E-03     643.834E-03    -306.020E-03     69.8039E-03     236.400E-03    -117.903E-03    -118.521E-03    -118.326E-03     236.399E-03    -118.097E-03    -482.705E-06    -103.696E+06    -115.170E+06    -308.563E+06    -115.190E+06    -308.543E+06    -103.696E+06     1.68999E+06         39.6073
            1500     2.66619E-03     93.5098E-03     642.823E-03    -312.731E-03    -327.516E-03    -324.537E-03     641.419E-03    -314.306E-03     46.0538E-03     236.278E-03    -117.879E-03    -118.427E-03    -118.051E-03     236.278E-03    -118.254E-03     195.099E-06    -86.0053E+06    -109.107E+06    -297.426E+06    -109.132E+06    -297.401E+06    -86.0053E+06     1.74549E+06         39.8881
            1501     3.55555E-03     93.5083E-03     618.746E-03    -302.082E-03    -314.320E-03    -300.953E-03     617.617E-03    -314.320E-03     38.3083E-03     235.854E-03    -117.567E-03    -118.318E-03    -117.595E-03     235.850E-03    -118.286E-03     2.03173E-03    -67.5298E+06    -101.354E+06    -284.059E+06    -101.397E+06    -284.016E+06    -67.5298E+06     2.31539E+06         40.2991
            1502     4.44459E-03     93.5089E-03     601.491E-03    -291.286E-03    -310.491E-03    -288.362E-03     598.567E-03    -310.491E-03    -7.37494E-03     235.894E-03    -117.616E-03    -118.320E-03    -117.595E-03     235.873E-03    -118.320E-03     5.13078E-03    -47.5935E+06    -92.6759E+06    -268.615E+06    -92.7353E+06    -268.556E+06    -47.5935E+06     2.90537E+06         40.8587
            1503     5.33260E-03     93.5124E-03     591.303E-03    -287.361E-03    -306.711E-03    -285.473E-03     589.415E-03    -306.711E-03    -43.1715E-03     235.857E-03    -117.550E-03    -118.339E-03    -117.486E-03     235.792E-03    -118.339E-03     9.23017E-03    -30.6743E+06    -84.2791E+06    -242.835E+06    -84.3613E+06    -242.753E+06    -30.6743E+06     3.47494E+06         41.5841
            1504     6.22308E-03     93.5233E-03     571.432E-03    -271.765E-03    -303.096E-03    -271.529E-03     571.196E-03    -303.096E-03     927.483E-06     235.585E-03    -117.289E-03    -118.321E-03    -117.139E-03     235.435E-03    -118.321E-03     14.2924E-03    -18.0688E+06    -75.9346E+06    -206.153E+06    -76.0724E+06    -206.016E+06    -18.0688E+06     4.11973E+06         42.4828
            1505     7.11186E-03     93.5374E-03     548.394E-03    -254.106E-03    -298.656E-03    -253.162E-03     547.451E-03    -298.656E-03    -40.0829E-03     235.358E-03    -117.101E-03    -118.289E-03    -116.801E-03     235.058E-03    -118.289E-03     20.2936E-03    -7.91305E+06    -68.1190E+06    -165.956E+06    -68.3546E+06    -165.720E+06    -7.91305E+06     4.66126E+06         43.5743
            1506     8.00065E-03     93.5620E-03     529.131E-03    -238.998E-03    -293.689E-03    -238.218E-03     528.351E-03    -293.689E-03    -26.7279E-03     234.931E-03    -116.732E-03    -118.222E-03    -116.145E-03     234.344E-03    -118.222E-03     28.3104E-03     1.94625E+06    -60.3985E+06    -116.922E+06    -61.2394E+06    -116.082E+06     1.94625E+06     5.73122E+06         44.9087
            1507     8.89158E-03     93.5945E-03     510.531E-03    -223.007E-03    -288.611E-03    -222.938E-03     510.462E-03    -288.611E-03     13.0658E-03     234.852E-03    -116.720E-03    -118.142E-03    -115.715E-03     233.848E-03    -118.142E-03     37.2840E-03     13.2878E+06    -38.0343E+06    -70.6194E+06    -54.1492E+06    -54.5045E+06     13.2878E+06     6.36153E+06         46.5350
            1508     9.77937E-03     93.6410E-03     482.224E-03    -198.026E-03    -283.105E-03    -197.348E-03     481.547E-03    -283.105E-03     32.5544E-03     234.964E-03    -116.934E-03    -118.044E-03    -115.207E-03     233.236E-03    -118.044E-03     48.6652E-03     47.5494E+06     6.56754E+06    -48.5443E+06    -47.7532E+06     27.1317E+06     26.1942E+06     6.08083E+06         48.4755
            1509     10.6698E-03     93.7006E-03     446.127E-03    -165.409E-03    -276.797E-03    -164.565E-03     445.283E-03    -276.797E-03     12.6424E-03     235.433E-03    -117.425E-03    -118.051E-03    -114.348E-03     232.297E-03    -117.991E-03     65.5247E-03     84.0703E+06     42.1086E+06    -42.8240E+06    -42.5129E+06     83.7592E+06     42.1086E+06     5.96477E+06         50.6546
            1510     11.5608E-03     93.7886E-03     418.885E-03    -140.325E-03    -270.185E-03    -139.343E-03     417.903E-03    -270.185E-03     12.3642E-03     237.521E-03    -117.930E-03    -119.614E-03    -114.137E-03     232.087E-03    -117.974E-03     86.7228E-03     94.6005E+06     63.9867E+06    -36.9701E+06    -36.7172E+06     94.3476E+06     63.9867E+06     5.66175E+06         52.7912
            1511     12.4481E-03     93.9020E-03     394.987E-03    -120.172E-03    -264.048E-03    -118.763E-03     393.577E-03    -264.048E-03     641.466E-06     241.549E-03    -118.033E-03    -123.561E-03    -114.526E-03     232.514E-03    -118.033E-03     112.615E-03     99.7717E+06     89.1999E+06    -29.1164E+06    -28.8622E+06     99.5174E+06     89.1999E+06     5.62179E+06         54.5559
            1512     13.3391E-03     94.0563E-03     369.709E-03    -98.3415E-03    -258.026E-03    -97.5986E-03     368.966E-03    -258.026E-03    -33.9059E-03     241.603E-03    -118.093E-03    -123.594E-03    -114.401E-03     232.410E-03    -118.093E-03     113.728E-03     107.231E+06     105.864E+06    -20.0778E+06    -19.8958E+06     106.875E+06     106.039E+06     4.35252E+06         56.1186
            1513     14.2291E-03     94.1731E-03     340.360E-03    -73.1972E-03    -251.987E-03    -72.6938E-03     339.857E-03    -251.987E-03    -25.9355E-03     248.646E-03    -118.014E-03    -130.675E-03    -115.859E-03     233.829E-03    -118.014E-03     142.146E-03     114.516E+06     108.000E+06    -12.9601E+06    -12.8996E+06     114.281E+06     108.175E+06     2.31949E+06         58.0750
            1514     15.1200E-03     94.3961E-03     306.800E-03    -43.8720E-03    -245.078E-03    -43.2944E-03     306.222E-03    -245.078E-03    -5.89447E-03     246.255E-03    -117.278E-03    -129.055E-03    -116.837E-03     234.707E-03    -117.947E-03     106.444E-03     118.854E+06     108.070E+06    -6.93025E+06    -6.90725E+06     118.831E+06     108.070E+06     1.61695E+06         60.3243
            1515     889.090E-06     94.7762E-03     758.229E-03    -174.175E-03    -545.394E-03    -180.279E-03     756.891E-03    -537.952E-03     52.0613E-03     235.974E-03    -117.444E-03    -118.547E-03    -118.420E-03     235.973E-03    -117.570E-03    -784.952E-06    -115.446E+06    -119.819E+06    -318.015E+06    -119.336E+06    -318.002E+06    -115.943E+06     1.57844E+06         39.4390
            1516     1.77858E-03     94.7776E-03     754.174E-03    -352.645E-03    -376.954E-03    -367.595E-03     753.026E-03    -360.857E-03     53.4995E-03     236.498E-03    -117.951E-03    -118.568E-03    -118.374E-03     236.498E-03    -118.144E-03    -11.9454E-06    -104.126E+06    -115.692E+06    -310.519E+06    -115.719E+06    -310.493E+06    -104.126E+06     2.09441E+06         39.6050
            1517     2.66537E-03     94.7737E-03     747.288E-03    -355.423E-03    -371.222E-03    -363.197E-03     746.406E-03    -362.567E-03     14.9921E-03     236.211E-03    -117.816E-03    -118.420E-03    -117.955E-03     236.210E-03    -118.280E-03     684.308E-06    -87.7561E+06    -110.147E+06    -299.769E+06    -110.191E+06    -299.725E+06    -87.7561E+06     2.81664E+06         39.8830
            1518     3.55504E-03     94.7726E-03     739.292E-03    -353.898E-03    -361.546E-03    -352.888E-03     738.282E-03    -361.546E-03     24.9648E-03     235.655E-03    -117.409E-03    -118.273E-03    -117.404E-03     235.650E-03    -118.273E-03     2.18549E-03    -67.9766E+06    -101.923E+06    -285.731E+06    -101.969E+06    -285.685E+06    -67.9766E+06     2.65158E+06         40.2945
            1519     4.44500E-03     94.7736E-03     731.174E-03    -347.482E-03    -359.168E-03    -345.601E-03     729.293E-03    -359.168E-03    -7.16667E-03     235.757E-03    -117.525E-03    -118.276E-03    -117.502E-03     235.735E-03    -118.276E-03     5.28879E-03    -48.5375E+06    -93.5687E+06    -270.497E+06    -93.6464E+06    -270.419E+06    -48.5375E+06     3.42331E+06         40.8579
            1520     5.33410E-03     94.7797E-03     707.295E-03    -330.237E-03    -355.781E-03    -329.127E-03     706.185E-03    -355.781E-03    -45.8710E-03     235.836E-03    -117.580E-03    -118.299E-03    -117.519E-03     235.775E-03    -118.299E-03     9.06254E-03    -31.3731E+06    -85.2982E+06    -244.821E+06    -85.4217E+06    -244.698E+06    -31.3731E+06      4.3744E+06         41.5858
            1521     6.22213E-03     94.7867E-03     681.035E-03    -309.927E-03    -350.973E-03    -309.885E-03     680.993E-03    -350.973E-03     5.65822E-03     235.514E-03    -117.243E-03    -118.289E-03    -117.095E-03     235.365E-03    -118.289E-03     14.1168E-03    -18.5220E+06    -76.9260E+06    -207.618E+06    -77.0971E+06    -207.446E+06    -18.5220E+06     4.62468E+06         42.4831
            1522     7.11172E-03     94.8053E-03     661.695E-03    -294.715E-03    -345.395E-03    -294.414E-03     661.394E-03    -345.395E-03    -17.0880E-03     235.279E-03    -117.044E-03    -118.254E-03    -116.749E-03     234.984E-03    -118.254E-03     20.1551E-03    -8.25152E+06    -69.1230E+06    -167.170E+06    -69.3752E+06    -166.918E+06    -8.25152E+06     4.87443E+06         43.5779
            1523     8.00160E-03     94.8253E-03     637.149E-03    -274.863E-03    -339.407E-03    -274.553E-03     636.839E-03    -339.407E-03    -15.3435E-03     235.334E-03    -117.153E-03    -118.210E-03    -116.582E-03     234.763E-03    -118.210E-03     27.9218E-03     1.50755E+06    -61.1378E+06    -118.749E+06    -61.8243E+06    -118.063E+06     1.50755E+06     5.41580E+06         44.9182
            1524     8.88978E-03     94.8617E-03     608.534E-03    -251.659E-03    -332.876E-03    -251.599E-03     608.475E-03    -332.876E-03     9.08570E-03     235.219E-03    -117.064E-03    -118.170E-03    -116.083E-03     234.238E-03    -118.170E-03     36.8939E-03     12.3076E+06    -38.8176E+06    -72.4924E+06    -54.9706E+06    -56.3395E+06     12.3076E+06     6.17075E+06         46.5413
            1525     9.78061E-03     94.9053E-03     581.012E-03    -229.373E-03    -325.921E-03    -229.238E-03     580.876E-03    -325.921E-03     13.9501E-03     234.880E-03    -116.808E-03    -118.084E-03    -115.116E-03     233.188E-03    -118.084E-03     48.1253E-03     45.7942E+06     5.72481E+06    -49.7700E+06    -48.8437E+06     25.4018E+06     25.1909E+06     7.04331E+06         48.4783
            1526     10.6693E-03     94.9675E-03     555.198E-03    -208.244E-03    -318.907E-03    -208.112E-03     555.066E-03    -318.907E-03     10.2217E-03     235.623E-03    -117.404E-03    -118.259E-03    -114.462E-03     232.452E-03    -118.031E-03     65.8058E-03     83.0353E+06     41.6725E+06    -42.6589E+06    -42.1666E+06     82.5429E+06     41.6725E+06     7.78194E+06         50.6572
            1527     11.5580E-03     95.0525E-03     525.329E-03    -182.586E-03    -312.026E-03    -182.444E-03     525.187E-03    -312.026E-03     10.3028E-03     237.967E-03    -118.024E-03    -119.955E-03    -114.383E-03     232.396E-03    -118.024E-03     87.8969E-03     95.0449E+06     63.6567E+06    -37.1535E+06    -36.6863E+06     94.5777E+06     63.6567E+06     7.77393E+06         52.7843
            1528     12.4498E-03     95.1703E-03     486.862E-03    -148.229E-03    -305.004E-03    -147.676E-03     486.309E-03    -305.004E-03    -10.4590E-03     241.249E-03    -118.072E-03    -123.208E-03    -114.090E-03     232.131E-03    -118.072E-03     113.073E-03     100.972E+06     89.5230E+06    -30.2530E+06    -29.9314E+06     100.651E+06     89.5230E+06     6.33446E+06         54.5393
            1529     13.3390E-03     95.3194E-03     450.970E-03    -117.290E-03    -297.322E-03    -116.714E-03     450.394E-03    -297.322E-03    -33.5373E-03     240.885E-03    -118.086E-03    -122.873E-03    -113.598E-03     231.610E-03    -118.086E-03     114.055E-03     108.551E+06     106.716E+06    -21.1560E+06    -21.0000E+06     108.395E+06     106.716E+06     4.37087E+06         56.1042
            1530     14.2316E-03     95.4373E-03     421.371E-03    -93.8968E-03    -289.489E-03    -93.2992E-03     420.774E-03    -289.489E-03    -32.3028E-03     248.726E-03    -117.985E-03    -130.766E-03    -115.915E-03     233.875E-03    -117.985E-03     142.612E-03     116.365E+06     109.868E+06    -13.3194E+06    -13.2218E+06     116.267E+06     109.868E+06     3.38203E+06         58.0680
            1531     15.1208E-03     95.6633E-03     385.249E-03    -64.4524E-03    -281.012E-03    -63.7019E-03     384.499E-03    -281.012E-03    -5.44867E-03     246.658E-03    -117.352E-03    -129.365E-03    -117.320E-03     235.197E-03    -117.936E-03     105.399E-03     121.131E+06     110.129E+06    -6.14177E+06    -6.09872E+06     121.088E+06     110.129E+06     2.05554E+06         60.3220
            1532     888.012E-06     96.0423E-03     902.781E-03    -334.054E-03    -519.000E-03    -404.054E-03     902.196E-03    -448.415E-03     46.7051E-03     236.544E-03    -117.875E-03    -118.686E-03    -118.297E-03     236.544E-03    -118.264E-03    -541.231E-06    -118.670E+06    -122.733E+06    -321.697E+06    -122.263E+06    -321.670E+06    -119.166E+06     2.03904E+06         39.4435
            1533     1.77674E-03     96.0410E-03     869.880E-03    -402.968E-03    -421.505E-03    -402.343E-03     869.254E-03    -421.505E-03     44.9390E-03     235.762E-03    -117.566E-03    -118.216E-03    -117.566E-03     235.762E-03    -118.216E-03     62.3276E-06    -106.160E+06    -117.591E+06    -313.214E+06    -117.628E+06    -313.176E+06    -106.160E+06     2.46493E+06         39.5920
            1534     2.66778E-03     96.0401E-03     846.153E-03    -392.829E-03    -413.171E-03    -392.341E-03     845.665E-03    -413.171E-03    -5.24137E-03     235.771E-03    -117.649E-03    -118.144E-03    -117.679E-03     235.770E-03    -118.113E-03     753.055E-06    -89.3086E+06    -110.796E+06    -301.603E+06    -110.833E+06    -301.566E+06    -89.3086E+06     2.45429E+06         39.8746
            1535     3.55586E-03     96.0367E-03     836.490E-03    -387.948E-03    -407.117E-03    -386.776E-03     835.318E-03    -407.117E-03     20.1023E-03     236.182E-03    -117.899E-03    -118.307E-03    -118.026E-03     236.177E-03    -118.174E-03     2.44570E-03    -70.1636E+06    -103.082E+06    -287.497E+06    -103.159E+06    -287.420E+06    -70.1636E+06     3.61787E+06         40.2991
            1536     4.44415E-03     96.0390E-03     827.440E-03    -379.484E-03    -402.162E-03    -377.513E-03     825.468E-03    -402.162E-03    -3.48207E-03     235.951E-03    -117.604E-03    -118.387E-03    -117.686E-03     235.932E-03    -118.285E-03     5.02477E-03    -50.4675E+06    -95.2313E+06    -272.633E+06    -95.3461E+06    -272.519E+06    -50.4675E+06     4.49432E+06         40.8652
            1537     5.33348E-03     96.0438E-03     809.306E-03    -367.909E-03    -397.316E-03    -366.810E-03     808.208E-03    -397.316E-03    -46.8178E-03     235.683E-03    -117.415E-03    -118.316E-03    -117.358E-03     235.626E-03    -118.316E-03     8.71158E-03    -31.9889E+06    -86.1508E+06    -246.255E+06    -86.2929E+06    -246.113E+06    -31.9889E+06     4.72335E+06         41.5910
            1538     6.22306E-03     96.0539E-03     781.131E-03    -347.533E-03    -391.899E-03    -347.470E-03     781.068E-03    -391.899E-03    -4.82768E-03     235.631E-03    -117.371E-03    -118.301E-03    -117.236E-03     235.496E-03    -118.301E-03     13.4641E-03    -19.1897E+06    -77.5354E+06    -208.984E+06    -77.7189E+06    -208.800E+06    -19.1897E+06     4.87078E+06         42.4883
            1539     7.11243E-03     96.0681E-03     752.481E-03    -323.980E-03    -385.359E-03    -323.699E-03     752.200E-03    -385.359E-03    -28.2869E-03     235.437E-03    -117.195E-03    -118.283E-03    -116.915E-03     235.157E-03    -118.283E-03     19.4955E-03    -9.13232E+06    -70.0175E+06    -168.431E+06    -70.2982E+06    -168.150E+06    -9.13232E+06     5.09729E+06         43.5837
            1540     8.00083E-03     96.0935E-03     733.516E-03    -308.226E-03    -378.306E-03    -307.925E-03     733.215E-03    -378.306E-03    -10.8740E-03     235.459E-03    -117.244E-03    -118.249E-03    -116.678E-03     234.893E-03    -118.249E-03     27.8109E-03    -208.989E+03    -63.2812E+06    -120.845E+06    -63.8805E+06    -120.245E+06    -208.989E+03     5.35417E+06         44.9203
            1541     8.88982E-03     96.1266E-03     705.779E-03    -286.577E-03    -371.112E-03    -286.508E-03     705.711E-03    -371.112E-03     7.47270E-03     235.065E-03    -116.880E-03    -118.199E-03    -115.886E-03     234.070E-03    -118.199E-03     37.0718E-03     10.5560E+06    -40.5123E+06    -74.8299E+06    -56.7737E+06    -58.5685E+06     10.5560E+06     6.18522E+06         46.5344
            1542     9.77812E-03     96.1713E-03     669.807E-03    -257.940E-03    -363.331E-03    -257.667E-03     669.534E-03    -363.331E-03     15.0499E-03     234.790E-03    -116.702E-03    -118.095E-03    -114.924E-03     233.012E-03    -118.095E-03     49.2264E-03     43.8220E+06     5.05025E+06    -50.8508E+06    -49.7530E+06     23.3556E+06     24.4188E+06     7.73766E+06         48.4710
            1543     10.6696E-03     96.2317E-03     643.935E-03    -238.063E-03    -355.331E-03    -237.790E-03     643.662E-03    -355.331E-03     20.1425E-03     235.794E-03    -117.509E-03    -118.308E-03    -114.557E-03     232.561E-03    -118.027E-03     66.5964E-03     80.1538E+06     38.6127E+06    -45.1033E+06    -44.3886E+06     79.4391E+06     38.6127E+06     9.31748E+06         50.6516
            1544     11.5604E-03     96.3202E-03     612.585E-03    -212.086E-03    -347.474E-03    -212.010E-03     612.508E-03    -347.474E-03     11.6111E-03     237.684E-03    -118.003E-03    -119.675E-03    -114.020E-03     232.029E-03    -118.003E-03     88.3754E-03     95.3396E+06     60.7044E+06    -38.6833E+06    -37.9628E+06     94.6191E+06     60.7044E+06     9.75150E+06         52.7716
            1545     12.4474E-03     96.4349E-03     572.296E-03    -177.376E-03    -339.314E-03    -177.165E-03     572.085E-03    -339.314E-03    -2.47757E-03     240.706E-03    -118.030E-03    -122.694E-03    -113.505E-03     231.517E-03    -118.030E-03     113.426E-03     104.549E+06     89.8290E+06    -31.4691E+06    -31.0357E+06     104.115E+06     89.8290E+06     7.36636E+06         54.5276
            1546     13.3408E-03     96.5821E-03     533.807E-03    -143.780E-03    -330.418E-03    -143.591E-03     533.617E-03    -330.418E-03    -13.6848E-03     241.480E-03    -118.057E-03    -123.514E-03    -114.202E-03     232.168E-03    -118.057E-03     114.498E-03     111.145E+06     107.661E+06    -23.6005E+06    -23.4586E+06     111.003E+06     107.661E+06     4.22223E+06         56.1008
            1547     14.2300E-03     96.7037E-03     497.869E-03    -112.302E-03    -321.137E-03    -112.046E-03     497.613E-03    -321.137E-03    -15.8128E-03     249.431E-03    -117.997E-03    -131.495E-03    -116.745E-03     234.681E-03    -117.997E-03     142.575E-03     117.760E+06     110.043E+06    -14.4981E+06    -14.4283E+06     117.690E+06     110.043E+06     2.88506E+06         58.0663
            1548     15.1189E-03     96.9302E-03     462.180E-03    -83.6072E-03    -311.173E-03    -83.1683E-03     461.741E-03    -311.173E-03    -1.09724E-03     245.913E-03    -116.743E-03    -129.262E-03    -116.758E-03     234.613E-03    -117.947E-03     104.586E-03     122.907E+06     109.522E+06    -6.69677E+06    -6.65700E+06     122.867E+06     109.522E+06     1.98092E+06         60.3208
            1549     888.735E-06     97.3078E-03     980.378E-03    -302.779E-03    -605.356E-03    -598.023E-03     979.850E-03    -309.583E-03     35.5778E-03     236.337E-03    -117.919E-03    -118.433E-03    -118.168E-03     236.336E-03    -118.183E-03    -272.290E-06    -122.234E+06    -125.439E+06    -324.796E+06    -125.101E+06    -324.765E+06    -122.604E+06     184.038E+03         39.4470
            1550     1.77820E-03     97.3059E-03     958.766E-03    -435.174E-03    -450.978E-03    -434.772E-03     957.354E-03    -449.968E-03     78.7661E-03     235.859E-03    -117.708E-03    -118.177E-03    -117.719E-03     235.858E-03    -118.166E-03    -475.376E-06    -108.753E+06    -119.405E+06    -316.260E+06    -119.447E+06    -316.218E+06    -108.753E+06     1.88939E+06         39.5932
            1551     2.66691E-03     97.3030E-03     951.674E-03    -431.145E-03    -450.088E-03    -435.286E-03     950.331E-03    -444.604E-03     62.0796E-03     235.788E-03    -117.658E-03    -118.156E-03    -117.699E-03     235.787E-03    -118.114E-03     181.407E-06    -91.8869E+06    -113.595E+06    -303.601E+06    -113.648E+06    -303.547E+06    -91.8869E+06     2.93710E+06         39.8743
            1552     3.55616E-03     97.3043E-03     941.658E-03    -425.943E-03    -445.976E-03    -429.135E-03     940.376E-03    -441.502E-03     59.6151E-03     236.097E-03    -117.820E-03    -118.298E-03    -117.948E-03     236.093E-03    -118.165E-03     2.07798E-03    -73.8175E+06    -106.663E+06    -290.111E+06    -106.739E+06    -290.035E+06    -73.8175E+06     3.64527E+06         40.3003
            1553     4.44415E-03     97.3042E-03     918.234E-03    -410.216E-03    -437.123E-03    -408.393E-03     916.410E-03    -437.123E-03     219.744E-06     236.163E-03    -117.806E-03    -118.391E-03    -117.887E-03     236.142E-03    -118.290E-03     5.04162E-03    -52.5143E+06    -97.0282E+06    -275.124E+06    -97.1359E+06    -275.016E+06    -52.5143E+06     4.29158E+06         40.8697
            1554     5.33329E-03     97.3084E-03     899.425E-03    -398.276E-03    -431.534E-03    -397.358E-03     898.507E-03    -431.534E-03    -45.0185E-03     235.950E-03    -117.632E-03    -118.355E-03    -117.570E-03     235.888E-03    -118.355E-03     9.08632E-03    -33.6270E+06    -87.7752E+06    -247.983E+06    -87.9349E+06    -247.823E+06    -33.6270E+06     4.96965E+06         41.5964
            1555     6.22202E-03     97.3194E-03     878.400E-03    -383.433E-03    -425.890E-03    -383.341E-03     878.308E-03    -425.890E-03    -11.2134E-03     235.807E-03    -117.480E-03    -118.359E-03    -117.350E-03     235.676E-03    -118.359E-03     13.3713E-03    -21.0798E+06    -79.4865E+06    -210.533E+06    -79.7145E+06    -210.305E+06    -21.0798E+06     5.37554E+06         42.4920
            1556     7.11023E-03     97.3339E-03     843.490E-03    -356.949E-03    -419.321E-03    -356.685E-03     843.225E-03    -419.321E-03    -32.0792E-03     235.603E-03    -117.299E-03    -118.347E-03    -117.011E-03     235.315E-03    -118.347E-03     19.6669E-03    -10.8075E+06    -71.5656E+06    -169.936E+06    -71.8931E+06    -169.609E+06    -10.8075E+06     5.55118E+06         43.5823
            1557     7.99999E-03     97.3583E-03     807.470E-03    -329.107E-03    -411.404E-03    -328.876E-03     807.239E-03    -411.404E-03    -9.86292E-03     235.004E-03    -116.750E-03    -118.289E-03    -116.171E-03     234.424E-03    -118.289E-03     28.1888E-03    -1.10309E+06    -63.7469E+06    -122.299E+06    -64.4701E+06    -121.576E+06    -1.10309E+06     5.86752E+06         44.9100
            1558     8.88991E-03     97.3926E-03     780.186E-03    -308.179E-03    -402.862E-03    -308.071E-03     780.079E-03    -402.862E-03    -1.46508E-03     234.411E-03    -116.246E-03    -118.178E-03    -115.252E-03     233.416E-03    -118.178E-03     36.9943E-03     8.41394E+06    -42.5153E+06    -77.4292E+06    -58.5470E+06    -61.3975E+06     8.41394E+06     6.86486E+06         46.5204
            1559     9.78197E-03     97.4347E-03     755.712E-03    -290.054E-03    -394.387E-03    -289.588E-03     755.245E-03    -394.387E-03     17.9705E-03     234.799E-03    -116.769E-03    -118.040E-03    -114.929E-03     232.959E-03    -118.040E-03     50.0133E-03     38.8205E+06     1.17732E+06    -54.5775E+06    -53.1662E+06     18.0450E+06     20.5415E+06     8.89593E+06         48.4593
            1560     10.6695E-03     97.5003E-03     716.602E-03    -257.601E-03    -385.652E-03    -257.098E-03     716.098E-03    -385.652E-03     17.2792E-03     235.765E-03    -117.694E-03    -118.095E-03    -114.534E-03     232.478E-03    -117.968E-03     67.2863E-03     77.9874E+06     35.2759E+06    -47.5023E+06    -46.6188E+06     77.1039E+06     35.2759E+06     10.4656E+06         50.6413
            1561     11.5578E-03     97.5835E-03     673.631E-03    -221.966E-03    -376.143E-03    -221.629E-03     673.294E-03    -376.143E-03     8.29545E-03     237.050E-03    -117.919E-03    -119.106E-03    -113.434E-03     231.378E-03    -117.919E-03     88.3178E-03     96.7962E+06     58.9086E+06    -39.1756E+06    -38.5027E+06     96.1233E+06     58.9086E+06     9.27393E+06         52.7649
            1562     12.4531E-03     97.6995E-03     641.898E-03    -196.416E-03    -366.351E-03    -195.978E-03     641.461E-03    -366.351E-03     2.86061E-03     240.925E-03    -117.956E-03    -122.979E-03    -113.793E-03     231.739E-03    -117.956E-03     113.557E-03     106.751E+06     91.0171E+06    -29.4602E+06    -29.0580E+06     106.349E+06     91.0171E+06     7.13618E+06         54.5293
            1563     13.3408E-03     97.8475E-03     605.161E-03    -167.554E-03    -356.420E-03    -167.333E-03     604.940E-03    -356.420E-03    -12.8148E-03     242.674E-03    -118.044E-03    -124.712E-03    -115.416E-03     233.379E-03    -118.044E-03     114.804E-03     114.602E+06     109.576E+06    -21.3145E+06    -21.0228E+06     114.311E+06     109.576E+06     6.06545E+06         56.1057
            1564     14.2289E-03     97.9725E-03     565.747E-03    -133.594E-03    -346.177E-03    -133.500E-03     565.653E-03    -346.177E-03    -6.43280E-03     249.316E-03    -118.011E-03    -131.354E-03    -116.548E-03     234.510E-03    -118.011E-03     142.653E-03     119.805E+06     109.866E+06    -15.1259E+06    -14.9724E+06     119.652E+06     109.866E+06     3.91241E+06         58.0693
            1565     15.1194E-03     98.1930E-03     528.094E-03    -102.619E-03    -335.193E-03    -102.230E-03     527.705E-03    -335.193E-03     7.46362E-03     245.286E-03    -116.795E-03    -128.578E-03    -116.069E-03     233.922E-03    -117.940E-03     104.951E-03     124.591E+06     109.597E+06    -8.18317E+06    -8.15409E+06     124.562E+06     109.597E+06     920.543E+03         60.3251
            1566     889.126E-06     98.5730E-03         1.04442    -134.353E-03    -808.363E-03    -802.177E-03         1.04381    -139.928E-03    -28.0856E-03     236.303E-03    -117.670E-03    -118.649E-03    -118.640E-03     236.301E-03    -117.677E-03    -1.12905E-03    -123.387E+06    -127.057E+06    -326.276E+06    -126.702E+06    -326.261E+06    -123.757E+06    -506.566E+03         39.4553
            1567     1.77736E-03     98.5706E-03         1.03431    -463.789E-03    -471.109E-03    -464.264E-03         1.03304    -469.364E-03     20.8949E-03     236.391E-03    -118.169E-03    -118.253E-03    -118.179E-03     236.390E-03    -118.242E-03    -1.11166E-03    -112.210E+06    -122.990E+06    -319.895E+06    -123.018E+06    -319.868E+06    -112.210E+06     1.31701E+06         39.6086
            1568     2.66590E-03     98.5686E-03         1.02915    -462.443E-03    -474.119E-03    -467.029E-03         1.02752    -467.901E-03     14.8547E-03     236.168E-03    -117.887E-03    -118.307E-03    -117.897E-03     236.167E-03    -118.296E-03     294.772E-06      -94.05E+06    -116.214E+06    -306.633E+06    -116.278E+06    -306.570E+06      -94.05E+06     3.32772E+06         39.8814
            1569     3.55486E-03     98.5689E-03         1.01749    -455.700E-03    -471.304E-03    -459.519E-03         1.01684    -466.830E-03     28.8819E-03     235.801E-03    -117.528E-03    -118.288E-03    -117.524E-03     235.798E-03    -118.288E-03     2.11045E-03    -74.1333E+06    -108.552E+06    -291.965E+06    -108.619E+06    -291.899E+06    -74.1333E+06     3.46735E+06         40.2954
            1570     4.44524E-03     98.5704E-03     997.971E-03    -444.576E-03    -463.922E-03    -443.662E-03     997.056E-03    -463.922E-03    -14.3728E-03     235.993E-03    -117.702E-03    -118.321E-03    -117.682E-03     235.973E-03    -118.321E-03     4.90454E-03    -53.5945E+06    -99.6417E+06    -277.500E+06    -99.7274E+06    -277.415E+06    -53.5945E+06     3.83060E+06         40.8635
            1571     5.33295E-03     98.5754E-03     968.770E-03    -420.707E-03    -458.765E-03    -420.017E-03     968.079E-03    -458.765E-03    -40.0735E-03     236.015E-03    -117.690E-03    -118.362E-03    -117.626E-03     235.951E-03    -118.362E-03     9.21145E-03    -35.8189E+06    -90.0134E+06    -249.947E+06    -90.1631E+06    -249.797E+06    -35.8189E+06     4.78577E+06         41.5919
            1572     6.22180E-03     98.5847E-03     940.130E-03    -397.689E-03    -451.841E-03    -397.649E-03     940.090E-03    -451.841E-03    -11.2550E-03     235.707E-03    -117.374E-03    -118.356E-03    -117.219E-03     235.552E-03    -118.356E-03     14.4879E-03    -23.5742E+06    -80.9688E+06    -212.488E+06    -81.1672E+06    -212.290E+06    -23.5742E+06     4.97882E+06         42.4841
            1573     7.11163E-03     98.6002E-03     916.706E-03    -382.939E-03    -444.384E-03    -382.810E-03     916.578E-03    -444.384E-03    -22.1491E-03     235.451E-03    -117.151E-03    -118.321E-03    -116.838E-03     235.138E-03    -118.321E-03     20.7143E-03    -12.9295E+06    -72.3317E+06    -171.703E+06    -72.6815E+06    -171.353E+06    -12.9295E+06     5.54270E+06         43.5709
            1574     8.00033E-03     98.6231E-03     885.770E-03    -362.716E-03    -436.795E-03    -362.549E-03     885.602E-03    -436.795E-03    -2.97322E-03     234.805E-03    -116.572E-03    -118.252E-03    -115.990E-03     234.224E-03    -118.252E-03     28.2352E-03    -2.55121E+06    -64.1106E+06    -124.088E+06    -64.9794E+06    -123.219E+06    -2.55121E+06     6.55201E+06         44.9018
            1575     8.89106E-03     98.6563E-03     852.080E-03    -333.829E-03    -428.504E-03    -333.689E-03     851.940E-03    -428.504E-03     5.51526E-03     234.519E-03    -116.369E-03    -118.147E-03    -115.378E-03     233.529E-03    -118.147E-03     36.9448E-03     6.79813E+06    -44.4446E+06    -79.2894E+06    -58.7204E+06    -65.0136E+06     6.79813E+06     8.11281E+06         46.5173
            1576     9.77916E-03     98.7011E-03     817.077E-03    -306.391E-03    -419.430E-03    -306.172E-03     816.858E-03    -419.430E-03     8.60996E-03     234.688E-03    -116.674E-03    -118.012E-03    -114.858E-03     232.873E-03    -118.012E-03     49.6848E-03     35.4431E+06    -1.56494E+06    -54.9197E+06    -52.7492E+06     13.2056E+06     18.5020E+06     9.92654E+06         48.4527
            1577     10.6709E-03     98.7658E-03     769.325E-03    -269.942E-03    -409.519E-03    -269.560E-03     768.943E-03    -409.519E-03    -6.33240E-03     235.246E-03    -117.338E-03    -117.936E-03    -114.131E-03     232.024E-03    -117.921E-03     66.5327E-03     77.3208E+06     35.0729E+06    -46.4916E+06    -45.7043E+06     76.5335E+06     35.0729E+06     9.54538E+06         50.6374
            1578     11.5633E-03     98.8483E-03     726.698E-03    -234.663E-03    -398.718E-03    -233.987E-03     726.022E-03    -398.718E-03     7.41649E-03     237.221E-03    -117.885E-03    -119.325E-03    -113.941E-03     231.839E-03    -117.886E-03     86.2348E-03     98.9750E+06     60.5675E+06    -38.2022E+06    -37.7105E+06     98.4833E+06     60.5675E+06     7.98498E+06         52.7765
            1579     12.4497E-03     98.9626E-03     694.241E-03    -208.165E-03    -387.702E-03    -207.235E-03     693.312E-03    -387.702E-03    -115.860E-06     241.575E-03    -117.976E-03    -123.591E-03    -114.597E-03     232.580E-03    -117.976E-03     112.312E-03     106.872E+06     90.6639E+06    -30.7814E+06    -30.3680E+06     106.458E+06     90.6639E+06     7.41829E+06         54.5410
            1580     13.3396E-03     99.1177E-03     659.765E-03    -180.585E-03    -376.653E-03    -180.090E-03     659.270E-03    -376.653E-03    -25.6441E-03     242.107E-03    -118.066E-03    -124.077E-03    -114.796E-03     232.826E-03    -118.066E-03     114.476E-03     115.656E+06     108.701E+06    -23.1888E+06    -22.8488E+06     115.316E+06     108.701E+06     6.66532E+06         56.1056
            1581     14.2294E-03     99.2368E-03     620.237E-03    -151.198E-03    -365.472E-03    -150.902E-03     619.941E-03    -365.472E-03    -15.0013E-03     248.370E-03    -117.996E-03    -130.361E-03    -115.625E-03     233.633E-03    -117.996E-03     141.888E-03     123.721E+06     112.503E+06    -13.5992E+06    -13.4215E+06     123.543E+06     112.503E+06     4.54810E+06         58.0706
            1582     15.1221E-03     99.4564E-03     572.703E-03    -113.650E-03    -353.606E-03    -113.084E-03     572.137E-03    -353.606E-03    -5.79080E-03     245.792E-03    -117.325E-03    -128.471E-03    -116.507E-03     234.427E-03    -117.923E-03     104.993E-03     128.029E+06     113.397E+06    -5.39792E+06    -5.34436E+06     127.975E+06     113.397E+06     1.62830E+06         60.3328
            1583     888.190E-06     99.8387E-03         1.11525     36.9598E-03        -1.03471        -1.03151         1.11316     35.8536E-03    -29.9251E-03     236.583E-03    -117.887E-03    -118.712E-03    -118.692E-03     236.581E-03    -117.905E-03    -1.05488E-03    -126.866E+06    -131.385E+06    -329.053E+06    -131.190E+06    -329.026E+06    -127.088E+06     2.00991E+06         39.4598
            1584     1.77717E-03     99.8362E-03         1.11878    -496.882E-03    -506.861E-03    -503.643E-03         1.11738    -498.707E-03     26.2160E-03     236.515E-03    -118.178E-03    -118.361E-03    -118.177E-03     236.514E-03    -118.361E-03    -580.010E-06    -114.367E+06    -126.498E+06    -321.661E+06    -126.511E+06    -321.648E+06    -114.367E+06     1.24173E+06         39.6149
            1585     2.66603E-03     99.8346E-03         1.08102    -479.081E-03    -497.635E-03    -478.816E-03         1.08002    -496.900E-03    -9.56958E-03     236.152E-03    -117.806E-03    -118.364E-03    -117.805E-03     236.152E-03    -118.364E-03     571.343E-06    -96.1439E+06    -118.781E+06    -309.774E+06    -118.819E+06    -309.736E+06    -96.1439E+06     2.15742E+06         39.8836
            1586     3.55527E-03     99.8332E-03         1.04551    -453.486E-03    -489.303E-03    -452.679E-03         1.04471    -489.303E-03     34.5193E-03     235.937E-03    -117.607E-03    -118.341E-03    -117.600E-03     235.930E-03    -118.341E-03     2.73298E-03    -74.2051E+06    -109.471E+06    -293.975E+06    -109.551E+06    -293.896E+06    -74.2051E+06     3.74376E+06         40.2912
            1587     4.44323E-03     99.8354E-03         1.03375    -447.853E-03    -481.359E-03    -447.522E-03         1.03342    -481.359E-03     7.11789E-03     235.952E-03    -117.625E-03    -118.365E-03    -117.601E-03     235.928E-03    -118.365E-03     5.59770E-03    -53.8592E+06    -100.421E+06    -278.658E+06    -100.504E+06    -278.575E+06    -53.8592E+06     3.77041E+06         40.8553
            1588     5.33335E-03     99.8406E-03         1.02246    -439.282E-03    -475.029E-03    -439.195E-03         1.02237    -475.029E-03    -17.4401E-03     235.744E-03    -117.427E-03    -118.362E-03    -117.367E-03     235.684E-03    -118.362E-03     8.94367E-03    -38.0439E+06    -90.8765E+06    -251.608E+06    -90.9581E+06    -251.526E+06    -38.0439E+06     3.51742E+06         41.5806
            1589     6.22303E-03     99.8494E-03     997.996E-03    -418.710E-03    -468.568E-03    -418.706E-03     997.993E-03    -468.568E-03    -2.67084E-03     235.418E-03    -117.127E-03    -118.312E-03    -116.981E-03     235.272E-03    -118.312E-03     13.9717E-03    -26.1876E+06    -81.3649E+06    -214.035E+06    -81.4716E+06    -213.928E+06    -26.1876E+06     3.69039E+06         42.4682
            1590     7.11152E-03     99.8664E-03     968.865E-03    -398.728E-03    -461.250E-03    -398.557E-03     968.695E-03    -461.250E-03    -22.0611E-03     234.984E-03    -116.757E-03    -118.246E-03    -116.459E-03     234.685E-03    -118.246E-03     20.2178E-03    -15.4648E+06    -72.6835E+06    -174.463E+06    -72.9438E+06    -174.203E+06    -15.4648E+06     4.70654E+06         43.5569
            1591     8.00159E-03     99.8877E-03     942.391E-03    -382.348E-03    -453.601E-03    -382.044E-03     942.087E-03    -453.601E-03    -2.68273E-03     235.053E-03    -116.892E-03    -118.180E-03    -116.315E-03     234.476E-03    -118.180E-03     28.0963E-03    -4.86347E+06    -64.6393E+06    -126.788E+06    -65.5486E+06    -125.879E+06    -4.86347E+06     6.47658E+06         44.9035
            1592     8.89036E-03     99.9209E-03     909.631E-03    -356.351E-03    -445.479E-03    -356.128E-03     909.407E-03    -445.479E-03     31.0997E-03     235.069E-03    -116.938E-03    -118.131E-03    -115.956E-03     234.087E-03    -118.131E-03     36.8685E-03     5.64773E+06    -47.5282E+06    -78.7916E+06    -58.0040E+06    -68.3158E+06     5.64773E+06     7.59728E+06         46.5313
            1593     9.78110E-03     99.9669E-03     863.401E-03    -319.037E-03    -436.096E-03    -318.867E-03     863.230E-03    -436.096E-03     24.3267E-03     234.768E-03    -116.728E-03    -118.031E-03    -114.946E-03     232.985E-03    -118.031E-03     49.2209E-03     35.0726E+06    -4.27334E+06    -52.1072E+06    -50.0850E+06     10.3817E+06     18.3954E+06     8.77930E+06         48.4608
            1594     10.6705E-03     100.028E-03     822.098E-03    -288.250E-03    -425.610E-03    -288.021E-03     821.869E-03    -425.610E-03     5.33718E-03     235.573E-03    -117.401E-03    -118.196E-03    -114.504E-03     232.442E-03    -117.963E-03     65.7138E-03     78.0670E+06     36.8984E+06    -44.6464E+06    -43.8376E+06     77.2582E+06     36.8984E+06     9.64751E+06         50.6434
            1595     11.5579E-03     100.116E-03     788.876E-03    -260.411E-03    -414.753E-03    -259.939E-03     788.404E-03    -414.753E-03     17.4872E-03     237.650E-03    -117.960E-03    -119.708E-03    -114.422E-03     232.366E-03    -117.962E-03     85.5021E-03     99.0893E+06     60.4579E+06    -39.7159E+06    -38.9617E+06     98.3351E+06     60.4579E+06     10.0005E+06         52.7891
            1596     12.4489E-03     100.229E-03     744.256E-03    -221.189E-03    -403.408E-03    -220.376E-03     743.443E-03    -403.408E-03    -5.63203E-03     241.510E-03    -118.038E-03    -123.462E-03    -114.270E-03     232.317E-03    -118.038E-03     113.312E-03     107.784E+06     89.1834E+06    -32.3270E+06    -31.7190E+06     107.176E+06     89.1834E+06     9.04549E+06         54.5450
            1597     13.3388E-03     100.383E-03     700.407E-03    -187.128E-03    -391.311E-03    -186.499E-03     699.778E-03    -391.311E-03    -16.0474E-03     241.493E-03    -118.085E-03    -123.387E-03    -113.964E-03     232.070E-03    -118.085E-03     114.929E-03     117.874E+06     109.806E+06    -22.1292E+06    -21.8882E+06     117.633E+06     109.806E+06     5.29811E+06         56.0997
            1598     14.2319E-03     100.499E-03     663.918E-03    -163.318E-03    -379.021E-03    -162.827E-03     663.427E-03    -379.021E-03    -9.13211E-03     248.295E-03    -117.994E-03    -130.241E-03    -115.656E-03     233.710E-03    -117.994E-03     141.089E-03     125.601E+06     113.836E+06    -12.9593E+06    -12.8775E+06     125.519E+06     113.836E+06     3.28660E+06         58.0683
            1599     15.1193E-03     100.725E-03     619.998E-03    -129.914E-03    -366.447E-03    -129.366E-03     619.450E-03    -366.447E-03    -11.4404E-03     245.733E-03    -116.940E-03    -128.784E-03    -116.509E-03     234.445E-03    -117.927E-03     104.662E-03     130.697E+06     114.309E+06    -5.70536E+06    -5.64532E+06     130.637E+06     114.309E+06     2.73669E+06         60.3356
            1600     889.132E-06     101.104E-03         1.11978     218.321E-03        -1.20314        -1.19601         1.11661     214.362E-03     37.6862E-03     236.353E-03    -118.071E-03    -118.296E-03    -118.282E-03     236.353E-03    -118.084E-03    -345.845E-06    -130.158E+06    -134.285E+06    -331.273E+06    -133.360E+06    -331.238E+06    -131.118E+06     399.852E+03         39.4461
            1601     1.77734E-03     101.102E-03         1.12717    -488.008E-03    -507.925E-03    -500.635E-03         1.12456    -492.687E-03     103.832E-03     236.266E-03    -118.032E-03    -118.251E-03    -118.042E-03     236.265E-03    -118.241E-03    -367.473E-06    -116.403E+06    -128.246E+06    -322.667E+06    -128.278E+06    -322.635E+06    -116.403E+06     1.08898E+06         39.6044
            1602     2.66616E-03     101.099E-03         1.12002    -483.226E-03    -513.606E-03    -500.731E-03         1.11950    -495.587E-03     43.1294E-03     236.085E-03    -117.842E-03    -118.263E-03    -117.841E-03     236.085E-03    -118.263E-03     718.687E-06    -97.9879E+06    -121.113E+06    -310.738E+06    -121.142E+06    -310.709E+06    -97.9879E+06     1.33875E+06         39.8788
            1603     3.55526E-03     101.098E-03         1.09876    -469.217E-03    -506.054E-03    -479.796E-03         1.09790    -494.612E-03     64.7928E-03     236.053E-03    -117.788E-03    -118.288E-03    -117.779E-03     236.044E-03    -118.288E-03     3.03849E-03    -77.2525E+06    -111.710E+06    -296.650E+06    -111.751E+06    -296.609E+06    -77.2525E+06     1.85969E+06         40.2870
            1604     4.44493E-03     101.101E-03         1.07356    -458.033E-03    -490.900E-03    -458.515E-03         1.07280    -489.659E-03     6.15295E-03     235.983E-03    -117.678E-03    -118.348E-03    -117.653E-03     235.958E-03    -118.348E-03     5.80166E-03    -56.4384E+06    -101.580E+06    -280.177E+06    -101.641E+06    -280.116E+06    -56.4384E+06     3.03837E+06         40.8467
            1605     5.33296E-03     101.105E-03         1.05688    -446.379E-03    -483.456E-03    -446.041E-03         1.05654    -483.456E-03    -28.1037E-03     235.728E-03    -117.421E-03    -118.347E-03    -117.358E-03     235.665E-03    -118.347E-03     9.11372E-03    -40.2622E+06    -91.8244E+06    -251.166E+06    -91.8709E+06    -251.119E+06    -40.2622E+06     2.61842E+06         41.5701
            1606     6.22144E-03     101.115E-03         1.04380    -435.274E-03    -477.372E-03    -435.200E-03         1.04372    -477.372E-03    -8.45831E-03     235.203E-03    -116.937E-03    -118.282E-03    -116.794E-03     235.059E-03    -118.282E-03     13.9278E-03    -29.2037E+06    -82.6944E+06    -214.834E+06    -82.7458E+06    -214.782E+06    -29.2037E+06     2.29870E+06         42.4604
            1607     7.11228E-03     101.129E-03         1.01493    -414.379E-03    -470.884E-03    -414.187E-03         1.01473    -470.884E-03    -27.7505E-03     234.949E-03    -116.763E-03    -118.209E-03    -116.471E-03     234.657E-03    -118.209E-03     19.9747E-03    -19.1507E+06    -74.3824E+06    -177.565E+06    -74.4998E+06    -177.448E+06    -19.1507E+06     3.14410E+06         43.5559
            1608     8.00221E-03     101.153E-03     976.053E-03    -386.342E-03    -463.172E-03    -386.144E-03     975.855E-03    -463.172E-03    -4.21368E-03     235.253E-03    -117.127E-03    -118.159E-03    -116.552E-03     234.678E-03    -118.159E-03     28.0625E-03    -8.61325E+06    -65.7052E+06    -130.616E+06    -66.2889E+06    -130.032E+06    -8.61325E+06     4.95751E+06         44.9121
            1609     8.89029E-03     101.189E-03     935.524E-03    -353.509E-03    -454.007E-03    -353.267E-03     935.281E-03    -454.007E-03     13.6495E-03     235.399E-03    -117.257E-03    -118.166E-03    -116.335E-03     234.454E-03    -118.143E-03     36.2825E-03     2.60935E+06    -48.6584E+06    -81.5098E+06    -59.2081E+06    -70.9600E+06     2.60935E+06     6.56803E+06         46.5468
            1610     9.77934E-03     101.228E-03     897.811E-03    -326.865E-03    -443.814E-03    -326.603E-03     897.549E-03    -443.814E-03     14.9871E-03     235.115E-03    -117.021E-03    -118.100E-03    -115.328E-03     233.398E-03    -118.076E-03     48.2946E-03     31.5400E+06    -7.20253E+06    -55.2149E+06    -53.5152E+06     7.49530E+06     15.1425E+06     8.50848E+06         48.4718
            1611     10.6688E-03     101.298E-03     868.101E-03    -307.821E-03    -433.453E-03    -307.693E-03     867.973E-03    -433.453E-03     22.7836E-03     235.608E-03    -117.378E-03    -118.243E-03    -114.354E-03     232.350E-03    -118.010E-03     66.7880E-03     74.5063E+06     31.5755E+06    -49.3129E+06    -48.2780E+06     73.4715E+06     31.5755E+06     11.2157E+06         50.6423
            1612     11.5597E-03     101.380E-03     831.986E-03    -278.216E-03    -422.899E-03    -277.865E-03     831.635E-03    -422.899E-03     33.1023E-03     237.479E-03    -117.919E-03    -119.564E-03    -113.980E-03     231.957E-03    -117.982E-03     87.4649E-03     99.9036E+06     56.6120E+06    -41.9204E+06    -41.0758E+06     99.0590E+06     56.6120E+06     10.4860E+06         52.7849
            1613     12.4493E-03     101.495E-03     787.537E-03    -239.857E-03    -411.508E-03    -239.292E-03     786.972E-03    -411.508E-03     4.08725E-03     241.059E-03    -118.031E-03    -123.035E-03    -113.789E-03     231.813E-03    -118.031E-03     113.605E-03     111.235E+06     89.1845E+06    -31.6926E+06    -31.2531E+06     110.796E+06     89.1845E+06     7.36036E+06         54.5452
            1614     13.3411E-03     101.646E-03     737.773E-03    -202.104E-03    -399.182E-03    -201.723E-03     737.392E-03    -399.182E-03    -7.40293E-03     241.839E-03    -118.074E-03    -123.753E-03    -114.284E-03     232.371E-03    -118.074E-03     115.364E-03     120.768E+06     111.042E+06    -21.8853E+06    -21.6691E+06     120.551E+06     111.042E+06     5.13787E+06         56.0994
            1615     14.2281E-03     101.767E-03     687.713E-03    -166.321E-03    -386.191E-03    -166.036E-03     687.428E-03    -386.191E-03    -2.09711E-03     248.737E-03    -118.006E-03    -130.673E-03    -116.058E-03     234.122E-03    -118.006E-03     141.504E-03     126.440E+06     113.916E+06    -14.0505E+06    -13.9364E+06     126.326E+06     113.916E+06     3.72783E+06         58.0661
            1616     15.1210E-03     101.987E-03     645.394E-03    -138.335E-03    -372.811E-03    -137.917E-03     644.976E-03    -372.811E-03     4.16792E-03     245.259E-03    -116.673E-03    -128.581E-03    -116.067E-03     234.009E-03    -117.937E-03     104.471E-03     132.176E+06     113.809E+06    -7.21177E+06    -7.15211E+06     132.117E+06     113.809E+06     2.81184E+06         60.3352
            1617     888.607E-06     102.370E-03         1.15434     333.327E-03        -1.34800        -1.33262         1.11749     354.791E-03    -46.9302E-03     236.106E-03    -117.605E-03    -118.511E-03    -118.388E-03     236.106E-03    -117.728E-03    -549.291E-06    -130.440E+06    -135.437E+06    -330.550E+06    -134.720E+06    -330.528E+06    -131.178E+06    -349.468E+03         39.4231
            1618     1.77792E-03     102.367E-03         1.11091    -474.774E-03    -494.589E-03    -480.658E-03         1.10898    -486.770E-03     39.8342E-03     236.037E-03    -117.887E-03    -118.170E-03    -117.950E-03     236.036E-03    -118.107E-03    -718.755E-06    -120.044E+06    -130.066E+06    -324.425E+06    -130.097E+06    -324.395E+06    -120.044E+06    -43.0855E+03         39.5890
            1619     2.66715E-03     102.364E-03         1.13254    -487.181E-03    -506.025E-03    -504.733E-03         1.13207    -488.006E-03    -22.6760E-03     236.182E-03    -117.980E-03    -118.233E-03    -118.033E-03     236.182E-03    -118.179E-03     412.042E-06    -100.877E+06    -122.633E+06    -311.399E+06    -122.666E+06    -311.365E+06    -100.877E+06     690.375E+03         39.8721
            1620     3.55532E-03     102.364E-03         1.13106    -485.696E-03    -502.890E-03    -496.754E-03         1.13067    -491.448E-03     11.7647E-03     236.021E-03    -117.804E-03    -118.253E-03    -117.797E-03     236.014E-03    -118.253E-03     2.71640E-03    -81.0680E+06    -114.889E+06    -297.352E+06    -114.900E+06    -297.341E+06    -81.0680E+06     491.577E+03         40.2803
            1621     4.44364E-03     102.366E-03         1.10398    -471.798E-03    -491.565E-03    -472.540E-03         1.10348    -490.324E-03     3.12337E-03     235.670E-03    -117.422E-03    -118.294E-03    -117.395E-03     235.643E-03    -118.294E-03     5.85640E-03    -61.3687E+06    -104.947E+06    -281.359E+06    -104.975E+06    -281.331E+06    -61.3687E+06     591.719E+03         40.8350
            1622     5.33339E-03     102.371E-03         1.07700    -449.431E-03    -485.493E-03    -449.063E-03         1.07663    -485.493E-03    -8.20722E-03     235.414E-03    -117.197E-03    -118.259E-03    -117.126E-03     235.343E-03    -118.259E-03     9.73917E-03    -44.3118E+06    -93.9129E+06    -250.995E+06    -93.9413E+06    -250.966E+06    -44.3118E+06     677.362E+03         41.5612
            1623     6.22350E-03     102.379E-03         1.05246    -427.637E-03    -478.764E-03    -427.450E-03         1.05227    -478.764E-03     9.10239E-03     235.433E-03    -117.246E-03    -118.210E-03    -117.100E-03     235.287E-03    -118.210E-03     14.1703E-03    -32.6429E+06    -84.3479E+06    -215.131E+06    -84.3542E+06    -215.125E+06    -32.6429E+06     482.165E+03         42.4658
            1624     7.11224E-03     102.394E-03         1.03463    -414.427E-03    -471.471E-03    -414.303E-03         1.03451    -471.471E-03    -8.56206E-03     235.615E-03    -117.436E-03    -118.202E-03    -117.135E-03     235.315E-03    -118.202E-03     20.2043E-03    -22.5387E+06    -75.5021E+06    -179.155E+06    -75.5355E+06    -179.122E+06    -22.5387E+06     1.04287E+06         43.5718
            1625     7.99977E-03     102.420E-03         1.00755    -395.790E-03    -464.017E-03    -395.726E-03         1.00749    -464.017E-03     5.58890E-03     235.471E-03    -117.307E-03    -118.198E-03    -116.745E-03     234.909E-03    -118.198E-03     27.8687E-03    -13.2405E+06    -67.8135E+06    -134.616E+06    -68.0235E+06    -134.406E+06    -13.2405E+06     2.81024E+06         44.9210
            1626     8.89100E-03     102.452E-03     964.897E-03    -362.589E-03    -455.486E-03    -362.461E-03     964.769E-03    -455.486E-03     3.88959E-03     235.189E-03    -117.013E-03    -118.201E-03    -116.078E-03     234.230E-03    -118.177E-03     36.3852E-03    -1.91255E+06    -51.3221E+06    -85.1718E+06    -61.0021E+06    -75.4918E+06    -1.91255E+06     5.64877E+06         46.5466
            1627     9.77826E-03     102.500E-03     926.021E-03    -334.630E-03    -445.733E-03    -334.500E-03     925.891E-03    -445.733E-03     3.98316E-03     234.932E-03    -116.830E-03    -118.111E-03    -115.096E-03     233.175E-03    -118.088E-03     48.9493E-03     24.8579E+06    -10.4075E+06    -56.5947E+06    -54.3677E+06     950.387E+03     11.2730E+06     9.69971E+06         48.4721
            1628     10.6695E-03     102.555E-03     887.064E-03    -304.454E-03    -435.186E-03    -304.399E-03     887.009E-03    -435.186E-03     10.7348E-03     235.277E-03    -117.273E-03    -118.019E-03    -113.955E-03     231.921E-03    -117.981E-03     67.6118E-03     71.7197E+06     27.2415E+06    -49.2745E+06    -47.9930E+06     70.4382E+06     27.2415E+06     12.0327E+06         50.6372
            1629     11.5600E-03     102.650E-03     845.850E-03    -273.131E-03    -423.804E-03    -272.782E-03     845.500E-03    -423.804E-03     26.6988E-03     237.229E-03    -117.871E-03    -119.365E-03    -113.761E-03     231.688E-03    -117.934E-03     87.7511E-03     104.270E+06     54.8024E+06    -41.6232E+06    -40.9595E+06     103.607E+06     54.8024E+06     9.38219E+06         52.7794
            1630     12.4497E-03     102.756E-03     811.468E-03    -251.766E-03    -412.019E-03    -251.312E-03     811.015E-03    -412.019E-03     10.1365E-03     241.441E-03    -118.020E-03    -123.418E-03    -114.401E-03     232.424E-03    -118.020E-03     112.379E-03     114.926E+06     89.5833E+06    -33.6023E+06    -33.3545E+06     114.678E+06     89.5833E+06     5.92456E+06         54.5524
            1631     13.3396E-03     102.912E-03     770.580E-03    -219.638E-03    -399.973E-03    -219.504E-03     770.446E-03    -399.973E-03    -15.2812E-03     241.711E-03    -118.090E-03    -123.605E-03    -114.292E-03     232.398E-03    -118.090E-03     114.503E-03     121.245E+06     110.092E+06    -25.3050E+06    -25.1338E+06     121.073E+06     110.092E+06     4.89354E+06         56.1048
            1632     14.2315E-03     103.032E-03     715.908E-03    -174.356E-03    -386.994E-03    -174.273E-03     715.824E-03    -386.994E-03    -9.62475E-03     248.115E-03    -118.006E-03    -130.072E-03    -115.394E-03     233.437E-03    -118.006E-03     141.547E-03     126.502E+06     113.588E+06    -16.3181E+06    -16.1951E+06     126.379E+06     113.588E+06     4.00161E+06         58.0633
            1633     15.1196E-03     103.253E-03     662.042E-03    -136.105E-03    -373.081E-03    -135.932E-03     661.870E-03    -373.081E-03     2.10137E-03     245.397E-03    -116.931E-03    -128.479E-03    -116.161E-03     234.071E-03    -117.923E-03     104.980E-03     134.997E+06     115.160E+06    -8.04254E+06    -7.98972E+06     134.944E+06     115.160E+06     2.19244E+06         60.3330
            1634     888.732E-06     103.633E-03         1.28822     339.906E-03        -1.48502        -1.47392         1.16488     452.154E-03    -77.0237E-03     235.834E-03    -117.445E-03    -118.403E-03    -118.279E-03     235.833E-03    -117.567E-03    -842.064E-06    -133.267E+06    -139.887E+06    -331.397E+06    -138.666E+06    -331.364E+06    -134.521E+06     1.07220E+06         39.4029
            1635     1.77788E-03     103.632E-03         1.14314    -483.486E-03    -510.275E-03    -486.755E-03         1.14168    -505.546E-03     38.8289E-03     236.088E-03    -117.911E-03    -118.201E-03    -118.078E-03     236.087E-03    -118.033E-03    -202.018E-06    -122.005E+06    -133.756E+06    -324.311E+06    -133.781E+06    -324.286E+06    -122.005E+06     653.811E+03         39.5753
            1636     2.66575E-03     103.630E-03         1.11665    -468.513E-03    -496.093E-03    -467.737E-03         1.11587    -496.093E-03    -1.56954E-03     236.234E-03    -118.030E-03    -118.235E-03    -118.099E-03     236.233E-03    -118.164E-03     644.972E-06    -105.023E+06    -126.742E+06    -311.794E+06    -126.786E+06    -311.749E+06    -105.023E+06    -901.999E+03         39.8628
            1637     3.55519E-03     103.629E-03         1.10765    -462.235E-03    -488.077E-03    -461.817E-03         1.10723    -488.077E-03     15.1120E-03     235.898E-03    -117.686E-03    -118.238E-03    -117.680E-03     235.892E-03    -118.238E-03     2.54301E-03    -84.0755E+06    -116.622E+06    -295.886E+06    -116.674E+06    -295.834E+06    -84.0755E+06    -1.52753E+06         40.2737
            1638     4.44506E-03     103.630E-03         1.09899    -457.019E-03    -482.239E-03    -456.886E-03         1.09886    -482.239E-03     1.73835E-03     235.479E-03    -117.268E-03    -118.251E-03    -117.245E-03     235.456E-03    -118.251E-03     5.39652E-03    -64.8549E+06    -106.195E+06    -279.957E+06    -106.253E+06    -279.899E+06    -64.8549E+06    -2.70026E+06         40.8301
            1639     5.33467E-03     103.635E-03         1.08037    -447.671E-03    -477.172E-03    -447.508E-03         1.08021    -477.172E-03     196.090E-06     235.350E-03    -117.188E-03    -118.201E-03    -117.126E-03     235.289E-03    -118.201E-03     8.96845E-03    -50.0216E+06    -95.9677E+06    -252.182E+06    -96.0734E+06    -252.077E+06    -50.0216E+06    -3.29702E+06         41.5593
            1640     6.22310E-03     103.645E-03         1.05476    -425.114E-03    -471.295E-03    -424.981E-03         1.05463    -471.295E-03     12.4702E-03     235.702E-03    -117.551E-03    -118.180E-03    -117.410E-03     235.561E-03    -118.180E-03     13.8404E-03    -37.3721E+06    -85.4545E+06    -215.818E+06    -85.5684E+06    -215.704E+06    -37.3721E+06    -2.87344E+06         42.4695
            1641     7.11103E-03     103.661E-03         1.03197    -405.422E-03    -464.177E-03    -405.375E-03         1.03193    -464.177E-03     1.41103E-03     235.799E-03    -117.623E-03    -118.205E-03    -117.316E-03     235.492E-03    -118.205E-03     20.4283E-03    -26.3830E+06    -76.3847E+06    -180.725E+06    -76.4480E+06    -180.661E+06    -26.3830E+06    -1.83182E+06         43.5762
            1642     8.00138E-03     103.685E-03         1.01015    -391.027E-03    -456.647E-03    -390.899E-03         1.01003    -456.647E-03    -4.74132E-03     235.385E-03    -117.212E-03    -118.204E-03    -116.610E-03     234.782E-03    -118.204E-03     28.7425E-03    -16.9383E+06    -68.3880E+06    -138.581E+06    -68.4624E+06    -138.507E+06    -16.9383E+06     351.919E+03         44.9168
            1643     8.88777E-03     103.720E-03     981.385E-03    -370.025E-03    -448.753E-03    -369.787E-03     981.148E-03    -448.753E-03     9.92035E-03     234.794E-03    -116.659E-03    -118.155E-03    -115.651E-03     233.786E-03    -118.155E-03     37.3289E-03    -5.96512E+06    -54.4164E+06    -88.0451E+06    -61.0927E+06    -81.3688E+06    -5.96512E+06     4.30861E+06         46.5378
            1644     9.78158E-03     103.760E-03     947.459E-03    -344.700E-03    -440.055E-03    -344.445E-03     947.205E-03    -440.055E-03     32.8699E-03     234.815E-03    -116.774E-03    -118.048E-03    -115.021E-03     233.062E-03    -118.048E-03     48.9650E-03     18.4079E+06    -14.7899E+06    -56.5021E+06    -54.0627E+06    -6.50488E+06     7.68345E+06     8.46262E+06         48.4753
            1645     10.6697E-03     103.826E-03     901.132E-03    -306.341E-03    -430.032E-03    -306.193E-03     900.984E-03    -430.032E-03     14.2320E-03     235.529E-03    -117.555E-03    -117.998E-03    -114.382E-03     232.319E-03    -117.960E-03     66.2799E-03     69.2843E+06     25.7356E+06    -47.8160E+06    -46.6787E+06     68.1470E+06     25.7356E+06     11.1071E+06         50.6491
            1646     11.5600E-03     103.909E-03     854.219E-03    -273.284E-03    -418.646E-03    -272.841E-03     853.776E-03    -418.646E-03     25.9425E-03     237.404E-03    -117.900E-03    -119.527E-03    -113.947E-03     231.863E-03    -117.940E-03     87.5255E-03     108.781E+06     54.0074E+06    -41.2085E+06    -40.4435E+06     108.016E+06     54.0074E+06     10.4701E+06         52.7849
            1647     12.4499E-03     104.029E-03     814.191E-03    -248.191E-03    -406.591E-03    -247.636E-03     813.637E-03    -406.591E-03     13.5277E-03     241.384E-03    -118.038E-03    -123.328E-03    -114.311E-03     232.368E-03    -118.038E-03     112.542E-03     118.212E+06     88.9337E+06    -33.9120E+06    -33.5756E+06     117.876E+06     88.9337E+06     6.91002E+06         54.5527
            1648     13.3377E-03     104.175E-03     775.602E-03    -219.318E-03    -394.157E-03    -219.120E-03     775.404E-03    -394.157E-03    -9.48030E-03     241.393E-03    -118.102E-03    -123.226E-03    -113.907E-03     232.074E-03    -118.102E-03     114.577E-03     121.556E+06     110.727E+06    -24.4390E+06    -24.2854E+06     121.402E+06     110.727E+06     4.66213E+06         56.0999
            1649     14.2293E-03     104.295E-03     738.562E-03    -190.831E-03    -381.256E-03    -190.613E-03     738.344E-03    -381.256E-03    -8.00143E-03     247.998E-03    -117.998E-03    -129.938E-03    -115.126E-03     233.186E-03    -117.998E-03     142.397E-03     127.532E+06     114.910E+06    -15.1549E+06    -15.0636E+06     127.441E+06     114.910E+06     3.32904E+06         58.0518
            1650     15.1229E-03     104.519E-03     693.617E-03    -154.931E-03    -367.982E-03    -154.762E-03     693.447E-03    -367.982E-03    -10.4734E-03     245.382E-03    -116.941E-03    -128.464E-03    -116.194E-03     234.078E-03    -117.908E-03     104.413E-03     137.763E+06     117.140E+06    -6.64424E+06    -6.60782E+06     137.727E+06     117.140E+06     1.69966E+06         60.3211
            1651     889.778E-06     104.898E-03         1.39375     312.817E-03        -1.54745        -1.54552         1.12104     583.593E-03     16.2941E-03     235.713E-03    -117.570E-03    -118.157E-03    -117.761E-03     235.711E-03    -117.965E-03    -957.962E-06    -137.584E+06    -142.870E+06    -332.934E+06    -141.660E+06    -332.890E+06    -138.837E+06    -317.295E+03         39.3900
            1652     1.77793E-03     104.896E-03         1.12613    -467.772E-03    -499.284E-03    -483.444E-03         1.12431    -481.796E-03     99.9670E-03     236.046E-03    -117.948E-03    -118.123E-03    -118.075E-03     236.046E-03    -117.994E-03    -22.1040E-06    -122.905E+06    -135.043E+06    -323.607E+06    -135.091E+06    -323.559E+06    -122.905E+06    -522.203E+03         39.5610
            1653     2.66730E-03     104.896E-03         1.10408    -451.220E-03    -487.621E-03    -459.314E-03         1.10353    -478.983E-03     56.6348E-03     236.072E-03    -117.962E-03    -118.139E-03    -117.978E-03     236.071E-03    -118.122E-03     886.781E-06    -104.816E+06    -127.089E+06    -307.908E+06    -127.148E+06    -307.849E+06    -104.816E+06    -2.48964E+06         39.8498
            1654     3.55533E-03     104.894E-03         1.09067    -446.565E-03    -472.429E-03    -446.067E-03         1.09017    -472.429E-03     50.8248E-03     235.962E-03    -117.796E-03    -118.190E-03    -117.790E-03     235.957E-03    -118.190E-03     2.43347E-03    -86.9773E+06    -118.193E+06    -293.506E+06    -118.330E+06    -293.369E+06    -86.9773E+06    -4.61232E+06         40.2687
            1655     4.44401E-03     104.895E-03         1.08219    -442.592E-03    -466.670E-03    -442.251E-03         1.08185    -466.670E-03     7.87300E-03     235.871E-03    -117.658E-03    -118.250E-03    -117.637E-03     235.850E-03    -118.250E-03     5.11839E-03    -69.1678E+06    -107.672E+06    -277.163E+06    -107.938E+06    -276.897E+06    -69.1678E+06    -6.22335E+06         40.8337
            1656     5.33267E-03     104.900E-03         1.06959    -438.160E-03    -462.148E-03    -438.056E-03         1.06949    -462.148E-03    -12.9114E-03     235.699E-03    -117.485E-03    -118.255E-03    -117.425E-03     235.639E-03    -118.255E-03     8.87998E-03    -54.6935E+06    -96.6628E+06    -250.455E+06    -97.1208E+06    -249.997E+06    -54.6935E+06    -7.89682E+06         41.5616
            1657     6.22233E-03     104.911E-03         1.05255    -427.644E-03    -457.850E-03    -427.617E-03         1.05252    -457.850E-03    -2.82732E-03     235.419E-03    -117.226E-03    -118.224E-03    -117.077E-03     235.269E-03    -118.224E-03     14.1753E-03    -43.1309E+06    -86.5970E+06    -217.088E+06    -87.0636E+06    -216.622E+06    -43.1309E+06    -7.48606E+06         42.4588
            1658     7.11227E-03     104.927E-03         1.02281    -400.910E-03    -452.282E-03    -400.776E-03         1.02267    -452.282E-03    -19.7478E-03     235.224E-03    -117.065E-03    -118.189E-03    -116.753E-03     234.912E-03    -118.189E-03     20.6875E-03    -31.4174E+06    -77.5297E+06    -183.277E+06    -77.8726E+06    -182.934E+06    -31.4174E+06    -5.59459E+06         43.5554
            1659     7.99983E-03     104.950E-03     988.181E-03    -370.924E-03    -444.684E-03    -370.706E-03     987.963E-03    -444.684E-03    -22.3217E-03     234.839E-03    -116.739E-03    -118.135E-03    -116.133E-03     234.233E-03    -118.135E-03     28.7475E-03    -21.0944E+06    -69.1624E+06    -142.831E+06    -69.3415E+06    -142.652E+06    -21.0944E+06    -2.89285E+06         44.9001
            1660     8.89335E-03     104.983E-03     961.664E-03    -348.214E-03    -435.789E-03    -347.999E-03     961.449E-03    -435.789E-03    -997.925E-06     235.019E-03    -116.956E-03    -118.082E-03    -115.941E-03     234.004E-03    -118.082E-03     37.5058E-03    -10.5388E+06    -58.3165E+06    -91.6342E+06    -61.5265E+06    -88.4242E+06    -10.5388E+06     1.57192E+06         46.5335
            1661     9.77836E-03     105.027E-03     933.838E-03    -329.799E-03    -426.406E-03    -329.499E-03     933.538E-03    -426.406E-03     29.4130E-03     235.509E-03    -117.497E-03    -118.027E-03    -115.751E-03     233.762E-03    -118.027E-03     48.9771E-03     13.3983E+06    -20.0596E+06    -58.2691E+06    -55.1014E+06    -13.3656E+06     3.53649E+06     6.78136E+06         48.4855
            1662     10.6691E-03     105.090E-03     905.060E-03    -313.064E-03    -416.822E-03    -312.849E-03     904.845E-03    -416.822E-03     15.2935E-03     235.767E-03    -117.728E-03    -118.098E-03    -114.713E-03     232.638E-03    -117.983E-03     65.5717E-03     65.8102E+06     21.3962E+06    -50.4225E+06    -49.4278E+06     64.8155E+06     21.3962E+06     10.1961E+06         50.6666
            1663     11.5587E-03     105.176E-03     866.950E-03    -283.818E-03    -406.611E-03    -283.180E-03     866.312E-03    -406.611E-03     30.4863E-03     237.380E-03    -117.929E-03    -119.502E-03    -113.837E-03     231.755E-03    -117.968E-03     87.9561E-03     111.015E+06     49.7809E+06    -42.2145E+06    -41.5702E+06     110.371E+06     49.7809E+06     9.58140E+06         52.7892
            1664     12.4481E-03     105.294E-03     819.784E-03    -247.318E-03    -395.141E-03    -246.475E-03     818.940E-03    -395.141E-03     15.7506E-03     240.423E-03    -118.029E-03    -122.387E-03    -113.272E-03     231.308E-03    -118.029E-03     112.979E-03     120.882E+06     87.2558E+06    -32.3027E+06    -31.9989E+06     120.578E+06     87.2558E+06     6.61541E+06         54.5383
            1665     13.3425E-03     105.439E-03     778.484E-03    -216.631E-03    -382.771E-03    -216.326E-03     778.179E-03    -382.771E-03    -11.6537E-03     241.166E-03    -118.061E-03    -123.040E-03    -113.729E-03     231.854E-03    -118.061E-03     114.490E-03     123.231E+06     112.291E+06    -22.2424E+06    -22.0917E+06     123.080E+06     112.291E+06     4.55903E+06         56.0791
            1666     14.2320E-03     105.563E-03     743.592E-03    -193.794E-03    -370.049E-03    -193.467E-03     743.265E-03    -370.049E-03    -12.2183E-03     248.602E-03    -117.980E-03    -130.557E-03    -115.776E-03     233.821E-03    -117.980E-03     142.598E-03     129.873E+06     116.909E+06    -13.6720E+06    -13.5958E+06     129.797E+06     116.909E+06     2.96861E+06         58.0301
            1667     15.1194E-03     105.781E-03     715.030E-03    -173.308E-03    -357.516E-03    -172.545E-03     714.267E-03    -357.516E-03    -1.28630E-03     245.037E-03    -116.597E-03    -128.434E-03    -115.889E-03     233.794E-03    -117.897E-03     104.572E-03     139.251E+06     117.614E+06    -6.91819E+06    -6.88785E+06     139.221E+06     117.614E+06     2.04211E+06         60.3000
            1668     888.215E-06     106.162E-03         1.44276     299.536E-03        -1.56268        -1.56197         1.05330     688.287E-03     30.3294E-03     236.131E-03    -117.796E-03    -118.348E-03    -117.903E-03     236.131E-03    -118.240E-03    -524.735E-06    -136.202E+06    -141.948E+06    -329.212E+06    -140.482E+06    -329.187E+06    -137.693E+06    -1.25439E+06         39.3880
            1669     1.77773E-03     106.162E-03         1.08551    -442.415E-03    -463.422E-03    -462.747E-03         1.08484    -442.415E-03     44.5699E-03     236.030E-03    -117.921E-03    -118.135E-03    -117.934E-03     236.030E-03    -118.121E-03    -297.123E-06    -124.712E+06    -135.737E+06    -321.314E+06    -135.815E+06    -321.236E+06    -124.712E+06    -3.48044E+06         39.5509
            1670     2.66621E-03     106.160E-03         1.08759    -443.798E-03    -460.948E-03    -455.646E-03         1.08717    -448.676E-03    -1.66736E-03     235.876E-03    -117.770E-03    -118.135E-03    -117.770E-03     235.875E-03    -118.135E-03     445.470E-06    -107.408E+06    -128.070E+06    -304.707E+06    -128.201E+06    -304.576E+06    -107.408E+06    -4.55985E+06         39.8394
            1671     3.55582E-03     106.160E-03         1.06798    -433.053E-03    -447.855E-03    -431.979E-03         1.06690    -447.855E-03     37.1104E-03     236.028E-03    -117.883E-03    -118.174E-03    -117.878E-03     236.023E-03    -118.174E-03     2.37107E-03    -89.0094E+06    -118.912E+06    -287.280E+06    -119.261E+06    -286.930E+06    -89.0094E+06    -7.04342E+06         40.2639
            1672     4.44444E-03     106.160E-03         1.06034    -428.519E-03    -444.182E-03    -427.628E-03         1.05945    -444.182E-03     30.0865E-03     236.049E-03    -117.837E-03    -118.251E-03    -117.813E-03     236.026E-03    -118.251E-03     5.40205E-03    -73.0547E+06    -108.492E+06    -272.067E+06    -109.206E+06    -271.353E+06    -73.0547E+06    -10.4433E+06         40.8327
            1673     5.33321E-03     106.166E-03         1.04880    -424.280E-03    -441.011E-03    -424.105E-03         1.04863    -441.011E-03    -4.18426E-03     235.671E-03    -117.451E-03    -118.264E-03    -117.380E-03     235.600E-03    -118.264E-03     9.73220E-03    -59.6675E+06    -98.2276E+06    -247.022E+06    -99.2903E+06    -245.959E+06    -59.6675E+06    -12.2164E+06         41.5569
            1674     6.22198E-03     106.174E-03         1.02609    -409.250E-03    -437.371E-03    -409.098E-03         1.02594    -437.371E-03     22.1899E-03     235.252E-03    -117.062E-03    -118.218E-03    -116.901E-03     235.091E-03    -118.218E-03     14.8077E-03    -48.2221E+06    -88.3215E+06    -217.038E+06    -89.6255E+06    -215.734E+06    -48.2221E+06    -12.4650E+06         42.4458
            1675     7.11124E-03     106.192E-03     999.001E-03    -387.966E-03    -432.224E-03    -387.766E-03     998.801E-03    -432.224E-03    -107.441E-06     234.783E-03    -116.655E-03    -118.150E-03    -116.340E-03     234.468E-03    -118.150E-03     20.7698E-03    -37.0722E+06    -78.7345E+06    -186.774E+06    -79.8931E+06    -185.616E+06    -37.0722E+06    -10.7190E+06         43.5388
            1676     8.00305E-03     106.215E-03     969.295E-03    -360.405E-03    -425.313E-03    -360.028E-03     968.917E-03    -425.313E-03     11.2023E-03     234.960E-03    -116.881E-03    -118.107E-03    -116.318E-03     234.378E-03    -118.088E-03     28.2723E-03    -26.3306E+06    -69.9105E+06    -147.505E+06    -70.7396E+06    -146.675E+06    -26.3306E+06    -7.47967E+06         44.8892
            1677     8.88909E-03     106.249E-03     943.573E-03    -337.155E-03    -417.032E-03    -336.886E-03     943.303E-03    -417.032E-03     17.5947E-03     235.339E-03    -117.256E-03    -118.084E-03    -116.277E-03     234.341E-03    -118.065E-03     37.1731E-03    -16.0757E+06    -61.9623E+06    -96.9684E+06    -62.3922E+06    -96.5385E+06    -16.0757E+06    -2.84670E+06         46.5280
            1678     9.78117E-03     106.296E-03     914.899E-03    -315.875E-03    -408.049E-03    -315.742E-03     914.766E-03    -408.049E-03     13.9459E-03     235.437E-03    -117.420E-03    -118.021E-03    -115.661E-03     233.678E-03    -118.021E-03     49.1548E-03     3.86431E+06    -26.8305E+06    -60.3965E+06      -54.81E+06    -25.4513E+06    -3.10136E+06     4.52390E+06         48.4812
            1679     10.6687E-03     106.355E-03     885.935E-03    -295.901E-03    -398.557E-03    -295.719E-03     885.753E-03    -398.557E-03     5.50505E-03     235.890E-03    -117.776E-03    -118.180E-03    -114.796E-03     232.692E-03    -117.961E-03     66.2546E-03     62.8641E+06     16.0473E+06    -48.6793E+06    -47.7769E+06     61.9617E+06     16.0473E+06     9.32210E+06         50.6672
            1680     11.5585E-03     106.443E-03     856.209E-03    -274.587E-03    -388.471E-03    -274.204E-03     855.826E-03    -388.471E-03     13.9157E-03     236.996E-03    -117.939E-03    -119.113E-03    -113.458E-03     231.340E-03    -117.939E-03     88.1990E-03     115.193E+06     46.8048E+06    -41.7004E+06    -41.2470E+06     114.739E+06     46.8048E+06     8.27072E+06         52.7892
            1681     12.4512E-03     106.556E-03     822.721E-03    -251.018E-03    -377.649E-03    -250.506E-03     822.210E-03    -377.649E-03     14.6379E-03     240.475E-03    -118.008E-03    -122.467E-03    -113.377E-03     231.385E-03    -118.008E-03     112.854E-03     123.692E+06     86.5019E+06    -33.8302E+06    -33.6103E+06     123.472E+06     86.5019E+06     5.69209E+06         54.5252
            1682     13.3396E-03     106.704E-03     787.784E-03    -222.217E-03    -366.202E-03    -222.007E-03     787.575E-03    -366.202E-03    -5.54485E-03     241.193E-03    -118.055E-03    -123.094E-03    -113.947E-03     232.046E-03    -118.055E-03     113.435E-03     124.395E+06     111.480E+06    -25.2388E+06    -25.1265E+06     124.282E+06     111.480E+06     3.95322E+06         56.0546
            1683     14.2299E-03     106.827E-03     750.252E-03    -191.694E-03    -353.998E-03    -191.539E-03     750.097E-03    -353.998E-03    -2.70865E-03     247.906E-03    -117.968E-03    -129.897E-03    -115.042E-03     233.051E-03    -117.968E-03     142.167E-03     129.537E+06     115.713E+06    -17.0638E+06    -17.0006E+06     129.474E+06     115.713E+06     2.95707E+06         58.0038
            1684     15.1234E-03     107.047E-03     716.575E-03    -169.762E-03    -341.645E-03    -168.981E-03     715.793E-03    -341.645E-03     23.9113E-03     245.093E-03    -116.814E-03    -128.257E-03    -115.718E-03     233.604E-03    -117.864E-03     105.455E-03     141.251E+06     118.419E+06    -8.57528E+06    -8.55032E+06     141.226E+06     118.419E+06     1.59802E+06         60.2769
            1685     889.033E-06     107.428E-03         1.48647     336.316E-03        -1.61480        -1.60582         1.08291     730.901E-03     33.1600E-03     236.415E-03    -117.597E-03    -118.833E-03    -118.659E-03     236.415E-03    -117.770E-03    -397.879E-06    -137.257E+06    -143.233E+06    -325.035E+06    -141.756E+06    -325.021E+06    -138.747E+06    -1.40238E+06         39.3838
            1686     1.77711E-03     107.427E-03         1.05479    -407.770E-03    -440.365E-03    -415.795E-03         1.05457    -432.119E-03     23.2870E-03     235.973E-03    -117.795E-03    -118.201E-03    -117.795E-03     235.973E-03    -118.201E-03     74.3420E-06    -126.926E+06    -137.710E+06    -314.046E+06    -137.810E+06    -313.946E+06    -126.926E+06    -3.78353E+06         39.5432
            1687     2.66656E-03     107.425E-03         1.03764    -405.337E-03    -428.901E-03    -408.574E-03         1.03724    -425.267E-03    -5.54416E-03     235.891E-03    -117.762E-03    -118.154E-03    -117.763E-03     235.890E-03    -118.152E-03     1.02975E-03    -111.519E+06    -130.591E+06    -299.809E+06    -130.949E+06    -299.451E+06    -111.519E+06    -7.23464E+06         39.8315
            1688     3.55523E-03     107.425E-03         1.03968    -411.732E-03    -422.324E-03    -411.824E-03         1.03874    -421.297E-03     28.6402E-03     235.922E-03    -117.784E-03    -118.169E-03    -117.780E-03     235.915E-03    -118.167E-03     2.92331E-03    -93.0596E+06    -119.953E+06    -279.634E+06    -120.719E+06    -278.868E+06    -93.0596E+06    -10.6028E+06         40.2546
            1689     4.44369E-03     107.426E-03         1.02287    -398.392E-03    -419.130E-03    -398.375E-03         1.02183    -418.103E-03     10.1496E-03     235.761E-03    -117.589E-03    -118.212E-03    -117.566E-03     235.738E-03    -118.212E-03     5.39706E-03    -76.3694E+06    -109.744E+06    -264.039E+06    -111.236E+06    -262.547E+06    -76.3694E+06    -14.6137E+06         40.8224
            1690     5.33339E-03     107.430E-03     996.814E-03    -384.135E-03    -413.521E-03    -383.678E-03     996.357E-03    -413.521E-03    -16.4117E-03     235.439E-03    -117.287E-03    -118.196E-03    -117.214E-03     235.367E-03    -118.196E-03     9.73622E-03    -63.2198E+06    -98.8672E+06    -242.933E+06    -101.198E+06    -240.602E+06    -63.2198E+06    -17.6760E+06         41.5480
            1691     6.22289E-03     107.441E-03     972.087E-03    -369.824E-03    -408.029E-03    -369.657E-03     971.920E-03    -408.029E-03     22.2227E-03     235.217E-03    -117.096E-03    -118.151E-03    -116.937E-03     235.058E-03    -118.151E-03     14.7782E-03    -52.1319E+06    -88.1938E+06    -216.016E+06    -90.9171E+06    -213.292E+06    -52.1319E+06    -18.2014E+06         42.4439
            1692     7.11257E-03     107.455E-03     956.442E-03    -361.366E-03    -402.284E-03    -361.255E-03     956.332E-03    -402.284E-03     15.6136E-03     235.204E-03    -117.109E-03    -118.120E-03    -116.801E-03     234.896E-03    -118.120E-03     20.5266E-03    -42.1090E+06    -78.8098E+06    -189.687E+06    -81.5363E+06    -186.961E+06    -42.1090E+06    -16.8443E+06         43.5444
            1693     8.00053E-03     107.480E-03     948.730E-03    -355.327E-03    -396.756E-03    -355.048E-03     948.452E-03    -396.756E-03     26.0034E-03     235.377E-03    -117.276E-03    -118.120E-03    -116.705E-03     234.786E-03    -118.101E-03     28.4988E-03    -32.4595E+06    -70.1766E+06    -153.411E+06    -72.5676E+06    -151.020E+06    -32.4595E+06    -13.5445E+06         44.8902
            1694     8.89109E-03     107.516E-03     927.237E-03    -334.466E-03    -390.756E-03    -334.051E-03     926.822E-03    -390.756E-03     32.5445E-03     235.184E-03    -117.078E-03    -118.107E-03    -116.107E-03     234.194E-03    -118.088E-03     37.0606E-03    -22.3801E+06    -62.0557E+06    -106.591E+06    -64.1058E+06    -104.541E+06    -22.3801E+06    -8.60997E+06         46.5155
            1695     9.77882E-03     107.558E-03     899.000E-03    -313.198E-03    -383.622E-03    -312.803E-03     898.605E-03    -383.622E-03     36.9808E-03     234.892E-03    -116.876E-03    -118.014E-03    -115.102E-03     233.118E-03    -118.014E-03     49.1759E-03    -7.54569E+06    -30.9895E+06      -65.56E+06    -55.0223E+06    -39.4018E+06    -9.67109E+06    -766.293E+03         48.4568
            1696     10.6700E-03     107.625E-03     864.450E-03    -285.028E-03    -375.237E-03    -284.754E-03     864.177E-03    -375.237E-03     19.0966E-03     235.504E-03    -117.417E-03    -118.112E-03    -114.431E-03     232.307E-03    -117.901E-03     66.2790E-03     56.4349E+06     8.83700E+06    -47.2522E+06    -46.7413E+06     55.0810E+06     9.67991E+06     6.96777E+06         50.6495
            1697     11.5600E-03     107.705E-03     830.100E-03    -259.901E-03    -365.614E-03    -259.663E-03     829.862E-03    -365.614E-03     16.7322E-03     237.080E-03    -117.874E-03    -119.229E-03    -113.790E-03     231.642E-03    -117.874E-03     86.6444E-03     118.167E+06     42.8990E+06    -40.2217E+06    -39.7056E+06     117.651E+06     42.8990E+06     8.92511E+06         52.7886
            1698     12.4498E-03     107.821E-03     801.680E-03    -240.367E-03    -355.132E-03    -240.135E-03     801.449E-03    -355.132E-03     18.1864E-03     240.662E-03    -117.983E-03    -122.653E-03    -113.488E-03     231.497E-03    -117.983E-03     113.022E-03     126.417E+06     84.3310E+06    -34.3743E+06    -33.9873E+06     126.030E+06     84.3310E+06     7.41553E+06         54.5199
            1699     13.3396E-03     107.974E-03     772.634E-03    -215.714E-03    -344.116E-03    -215.630E-03     772.550E-03    -344.116E-03     7.65412E-03     240.887E-03    -118.033E-03    -122.826E-03    -113.398E-03     231.459E-03    -118.033E-03     114.903E-03     126.976E+06     110.333E+06    -27.7719E+06    -27.5653E+06     126.770E+06     110.333E+06     4.60289E+06         56.0323
            1700     14.2323E-03     108.086E-03     746.135E-03    -196.990E-03    -332.655E-03    -196.927E-03     746.072E-03    -332.655E-03     10.3295E-03     247.847E-03    -117.933E-03    -129.929E-03    -114.873E-03     232.791E-03    -117.933E-03     143.075E-03     132.188E+06     116.750E+06    -18.0585E+06    -18.0164E+06     132.146E+06     116.750E+06     1.62053E+06         57.9751
            1701     15.1235E-03     108.314E-03     711.962E-03    -176.338E-03    -321.400E-03    -176.186E-03     711.811E-03    -321.400E-03     10.7055E-03     245.268E-03    -116.735E-03    -128.556E-03    -115.831E-03     233.636E-03    -117.828E-03     105.446E-03     142.987E+06     120.100E+06    -8.29785E+06    -8.28518E+06     142.974E+06     120.100E+06     62.0530E+03         60.2488
            1702     887.919E-06     108.693E-03         1.48449     338.223E-03        -1.61570        -1.59992         1.03551     771.415E-03     49.6513E-03     236.022E-03    -117.284E-03    -118.750E-03    -118.627E-03     236.021E-03    -117.408E-03    -377.608E-06    -137.652E+06    -143.095E+06    -322.072E+06    -142.098E+06    -322.048E+06    -138.673E+06    -1.81370E+06         39.3627
            1703     1.77793E-03     108.691E-03     989.932E-03    -370.442E-03    -404.162E-03    -370.229E-03     989.719E-03    -404.162E-03     14.2029E-03     235.885E-03    -117.788E-03    -118.119E-03    -117.862E-03     235.884E-03    -118.045E-03     180.480E-06    -127.351E+06    -136.716E+06    -305.870E+06    -136.875E+06    -305.712E+06    -127.351E+06    -4.63589E+06         39.5274
            1704     2.66672E-03     108.690E-03     980.705E-03    -373.380E-03    -393.421E-03    -373.726E-03     980.213E-03    -392.583E-03     43.4048E-03     235.799E-03    -117.773E-03    -118.055E-03    -117.774E-03     235.797E-03    -118.053E-03     1.51638E-03    -112.942E+06    -129.618E+06    -288.224E+06    -130.339E+06    -287.502E+06    -112.942E+06    -9.87207E+06         39.8157
            1705     3.55523E-03     108.691E-03     985.201E-03    -380.408E-03    -390.454E-03    -381.772E-03     984.699E-03    -388.589E-03     45.8111E-03     235.563E-03    -117.535E-03    -118.065E-03    -117.528E-03     235.554E-03    -118.063E-03     3.45162E-03    -96.4528E+06    -120.897E+06    -271.649E+06    -122.352E+06    -270.193E+06    -96.4528E+06    -14.4485E+06         40.2371
            1706     4.44519E-03     108.690E-03     955.149E-03    -356.322E-03    -385.898E-03    -356.847E-03     954.647E-03    -384.870E-03     8.12437E-03     235.543E-03    -117.500E-03    -118.092E-03    -117.470E-03     235.514E-03    -118.092E-03     6.20970E-03    -78.6533E+06    -110.333E+06    -254.339E+06    -112.786E+06    -251.887E+06    -78.6533E+06    -18.2491E+06         40.8105
            1707     5.33341E-03     108.696E-03     931.062E-03    -343.140E-03    -378.877E-03    -342.642E-03     930.563E-03    -378.877E-03     6.54354E-03     235.565E-03    -117.503E-03    -118.110E-03    -117.431E-03     235.493E-03    -118.110E-03     9.83839E-03    -65.3415E+06    -99.8986E+06    -235.671E+06    -103.915E+06    -231.655E+06    -65.3415E+06    -22.6212E+06         41.5469
            1708     6.22290E-03     108.705E-03     923.662E-03    -344.060E-03    -373.450E-03    -343.928E-03     923.530E-03    -373.450E-03     12.3411E-03     235.428E-03    -117.343E-03    -118.114E-03    -117.189E-03     235.274E-03    -118.114E-03     14.4817E-03    -56.3115E+06    -90.1763E+06    -214.962E+06    -95.0213E+06    -210.117E+06    -56.3115E+06    -23.8182E+06         42.4519
            1709     7.11154E-03     108.722E-03     920.366E-03    -342.360E-03    -369.211E-03    -342.278E-03     920.284E-03    -369.211E-03     9.24452E-03     235.675E-03    -117.562E-03    -118.130E-03    -117.247E-03     235.360E-03    -118.130E-03     20.7661E-03    -46.9294E+06    -80.3064E+06    -191.145E+06    -85.4983E+06    -185.953E+06    -46.9294E+06    -23.0574E+06         43.5528
            1710     8.00063E-03     108.746E-03     909.214E-03    -331.951E-03    -365.040E-03    -331.719E-03     908.981E-03    -365.040E-03    -131.852E-06     235.457E-03    -117.341E-03    -118.137E-03    -116.745E-03     234.861E-03    -118.137E-03     28.6478E-03    -37.8043E+06    -70.1848E+06    -159.596E+06    -75.7410E+06    -154.040E+06    -37.8043E+06    -21.1608E+06         44.8870
            1711     8.88920E-03     108.780E-03     882.081E-03    -308.110E-03    -359.720E-03    -307.767E-03     881.738E-03    -359.720E-03     5.77996E-03     234.732E-03    -116.648E-03    -118.099E-03    -115.660E-03     233.745E-03    -118.099E-03     36.9699E-03    -27.3820E+06    -59.6419E+06    -117.000E+06    -65.2429E+06    -111.399E+06    -27.3820E+06    -16.4699E+06         46.4991
            1712     9.78010E-03     108.825E-03     859.627E-03    -291.846E-03    -353.125E-03    -291.435E-03     859.216E-03    -353.125E-03     40.9302E-03     234.465E-03    -116.480E-03    -117.981E-03    -114.674E-03     232.658E-03    -117.981E-03     49.5011E-03    -15.5487E+06    -36.1944E+06    -72.4689E+06    -55.5030E+06    -53.1602E+06    -15.5487E+06    -8.28082E+06         48.4308
            1713     10.6699E-03     108.886E-03     841.143E-03    -279.164E-03    -345.887E-03    -278.880E-03     840.859E-03    -345.887E-03     16.5889E-03     235.444E-03    -117.173E-03    -118.268E-03    -114.308E-03     232.135E-03    -117.824E-03     67.3924E-03     47.1924E+06    -3.69790E+06    -47.9109E+06    -47.0349E+06     42.1360E+06     482.590E+03     2.15270E+06         50.6242
            1714     11.5597E-03     108.975E-03     812.975E-03    -258.290E-03    -337.900E-03    -257.911E-03     812.597E-03    -337.900E-03     20.4850E-03     237.358E-03    -117.791E-03    -119.556E-03    -114.105E-03     231.907E-03    -117.791E-03     86.9556E-03     114.508E+06     33.0491E+06    -40.3491E+06    -39.8317E+06     113.991E+06     33.0491E+06     8.79642E+06         52.7802
            1715     12.4489E-03     109.083E-03     778.334E-03    -231.590E-03    -328.711E-03    -231.042E-03     777.786E-03    -328.711E-03     6.63999E-03     240.050E-03    -117.926E-03    -122.083E-03    -112.949E-03     230.916E-03    -117.926E-03     112.537E-03     128.655E+06     80.7078E+06    -31.8785E+06    -31.3476E+06     128.124E+06     80.7078E+06     8.97045E+06         54.5171
            1716     13.3442E-03     109.235E-03     747.594E-03    -206.255E-03    -318.605E-03    -205.984E-03     747.322E-03    -318.605E-03    -10.1896E-03     240.353E-03    -117.976E-03    -122.358E-03    -112.916E-03     230.911E-03    -117.976E-03     114.761E-03     133.370E+06     114.004E+06    -21.3166E+06    -21.0762E+06     133.130E+06     114.004E+06     5.21435E+06         56.0137
            1717     14.2332E-03     109.354E-03     724.928E-03    -192.239E-03    -308.101E-03    -192.070E-03     724.760E-03    -308.101E-03    -3.53227E-03     248.063E-03    -117.884E-03    -130.199E-03    -115.373E-03     233.237E-03    -117.884E-03     142.206E-03     137.224E+06     121.195E+06    -12.7395E+06    -12.6922E+06     137.176E+06     121.195E+06     1.70879E+06         57.9414
            1718     15.1227E-03     109.577E-03     701.532E-03    -180.017E-03    -298.058E-03    -179.729E-03     701.244E-03    -298.058E-03    -1.20517E-03     244.529E-03    -116.000E-03    -128.550E-03    -115.312E-03     233.072E-03    -117.780E-03     105.470E-03     143.250E+06     121.415E+06    -6.31096E+06    -6.29730E+06     143.237E+06     121.415E+06     308.896E+03         60.2081
            1719     890.457E-06     109.959E-03         1.45691     292.545E-03        -1.53231        -1.52467     932.811E-03     809.000E-03     19.1944E-03     235.420E-03    -117.223E-03    -118.212E-03    -117.702E-03     235.420E-03    -117.732E-03    -171.490E-06    -138.275E+06    -141.510E+06    -314.219E+06    -140.182E+06    -314.098E+06    -139.724E+06    -3.77490E+06         39.3323
            1720     1.77781E-03     109.956E-03     936.678E-03    -348.274E-03    -365.914E-03    -355.761E-03     935.896E-03    -357.645E-03    -40.1011E-03     235.737E-03    -117.777E-03    -117.987E-03    -117.957E-03     235.737E-03    -117.806E-03     227.153E-06    -129.320E+06    -136.143E+06    -296.751E+06    -136.415E+06    -296.216E+06    -129.582E+06    -8.08511E+06         39.5015
            1721     2.66668E-03     109.955E-03     911.615E-03    -335.595E-03    -355.825E-03    -336.735E-03     911.221E-03    -354.290E-03     24.7484E-03     235.372E-03    -117.529E-03    -117.882E-03    -117.526E-03     235.369E-03    -117.882E-03     1.73223E-03    -112.225E+06    -127.517E+06    -275.665E+06    -128.740E+06    -274.442E+06    -112.225E+06    -12.9336E+06         39.7917
            1722     3.55654E-03     109.954E-03     879.043E-03    -315.590E-03    -348.266E-03    -315.945E-03     878.559E-03    -347.427E-03     42.1121E-03     235.236E-03    -117.383E-03    -117.889E-03    -117.375E-03     235.226E-03    -117.887E-03     3.60634E-03    -94.2845E+06    -118.309E+06    -260.832E+06    -120.608E+06    -258.533E+06    -94.2845E+06    -17.6069E+06         40.2179
            1723     4.44523E-03     109.956E-03     879.125E-03    -316.488E-03    -344.075E-03    -319.034E-03     878.788E-03    -341.192E-03     12.7686E-03     235.513E-03    -117.612E-03    -117.941E-03    -117.582E-03     235.480E-03    -117.939E-03     6.49459E-03    -77.5502E+06    -107.897E+06    -244.333E+06    -111.518E+06    -240.713E+06    -77.5502E+06    -21.6524E+06         40.8009
            1724     5.33440E-03     109.962E-03     885.464E-03    -324.555E-03    -341.278E-03    -327.587E-03     885.138E-03    -337.920E-03     7.81553E-03     235.808E-03    -117.778E-03    -118.071E-03    -117.750E-03     235.734E-03    -118.025E-03     10.0756E-03    -62.6633E+06    -97.7961E+06    -226.242E+06    -102.814E+06    -221.224E+06    -62.6633E+06    -24.7229E+06         41.5486
            1725     6.22250E-03     109.970E-03     882.318E-03    -325.285E-03    -336.467E-03    -325.566E-03     882.123E-03    -335.992E-03     19.3979E-03     235.913E-03    -117.788E-03    -118.146E-03    -117.670E-03     235.749E-03    -118.100E-03     14.9091E-03    -55.0382E+06    -88.3030E+06    -210.384E+06    -95.3845E+06    -203.303E+06    -55.0382E+06    -28.1966E+06         42.4568
            1726     7.11144E-03     109.987E-03     869.959E-03    -314.870E-03    -333.550E-03    -314.587E-03     869.676E-03    -333.550E-03     29.2122E-03     235.491E-03    -117.379E-03    -118.133E-03    -117.044E-03     235.156E-03    -118.133E-03     21.4521E-03    -48.7051E+06    -77.0587E+06    -190.210E+06    -86.1680E+06    -181.101E+06    -48.7051E+06    -30.4509E+06         43.5478
            1727     8.00007E-03     110.011E-03     846.685E-03    -296.099E-03    -329.705E-03    -295.646E-03     846.232E-03    -329.705E-03     17.5518E-03     234.986E-03    -116.917E-03    -118.101E-03    -116.281E-03     234.350E-03    -118.101E-03     29.5127E-03    -40.6407E+06    -65.8154E+06    -164.096E+06    -75.7200E+06    -154.192E+06    -40.6407E+06    -29.3940E+06         44.8730
            1728     8.89004E-03     110.045E-03     829.871E-03    -283.884E-03    -324.715E-03    -283.354E-03     829.341E-03    -324.715E-03     18.5829E-03     234.630E-03    -116.613E-03    -118.026E-03    -115.567E-03     233.584E-03    -118.026E-03     38.0652E-03    -32.5641E+06    -55.9518E+06    -128.094E+06    -66.2239E+06    -117.822E+06    -32.5641E+06    -24.8462E+06         46.4883
            1729     9.78033E-03     110.087E-03     814.143E-03    -273.343E-03    -319.216E-03    -272.871E-03     813.671E-03    -319.216E-03     41.5225E-03     234.722E-03    -116.790E-03    -117.916E-03    -114.983E-03     232.915E-03    -117.916E-03     49.6739E-03    -22.9174E+06    -41.0377E+06    -83.3570E+06    -57.2941E+06    -67.1006E+06    -22.9174E+06    -16.6605E+06         48.4227
            1730     10.6711E-03     110.152E-03     794.705E-03    -256.498E-03    -312.977E-03    -256.242E-03     794.449E-03    -312.977E-03     10.4445E-03     235.257E-03    -117.154E-03    -118.106E-03    -114.170E-03     231.937E-03    -117.769E-03     67.3696E-03     33.7971E+06    -15.3294E+06    -52.0739E+06    -48.4906E+06     23.6889E+06    -8.80458E+06    -4.53069E+06         50.6047
            1731     11.5608E-03     110.240E-03     774.270E-03    -244.025E-03    -305.863E-03    -243.559E-03     773.804E-03    -305.863E-03     19.2404E-03     236.532E-03    -117.427E-03    -119.097E-03    -113.301E-03     230.997E-03    -117.687E-03     87.4477E-03     106.785E+06     23.6415E+06    -40.1172E+06    -39.8508E+06     106.519E+06     23.6415E+06     4.91680E+06         52.7616
            1732     12.4524E-03     110.348E-03     754.075E-03    -234.230E-03    -298.133E-03    -233.569E-03     753.415E-03    -298.133E-03     21.4497E-03     240.230E-03    -117.824E-03    -122.378E-03    -113.432E-03     231.284E-03    -117.824E-03     111.712E-03     131.800E+06     76.4269E+06    -30.6637E+06    -30.3586E+06     131.495E+06     76.4269E+06     6.44819E+06         54.5136
            1733     13.3406E-03     110.495E-03     733.257E-03    -213.898E-03    -289.913E-03    -213.469E-03     732.828E-03    -289.913E-03     8.71907E-03     240.890E-03    -117.953E-03    -122.935E-03    -113.590E-03     231.544E-03    -117.953E-03     114.617E-03     137.750E+06     115.554E+06    -21.1204E+06    -20.9621E+06     137.591E+06     115.554E+06     4.98517E+06         55.9968
            1734     14.2327E-03     110.622E-03     701.297E-03    -187.772E-03    -280.781E-03    -187.470E-03     700.996E-03    -280.781E-03     7.19228E-03     247.044E-03    -117.867E-03    -129.185E-03    -114.360E-03     232.218E-03    -117.867E-03     142.098E-03     139.781E+06     123.674E+06    -13.0735E+06    -12.9941E+06     139.702E+06     123.674E+06     3.30157E+06         57.8954
            1735     15.1255E-03     110.837E-03     674.241E-03    -168.883E-03    -271.444E-03    -168.325E-03     673.683E-03    -271.444E-03     17.8743E-03     243.137E-03    -115.629E-03    -127.525E-03    -114.102E-03     231.793E-03    -117.707E-03     105.021E-03     143.658E+06     123.500E+06    -5.80916E+06    -5.78654E+06     143.635E+06     123.500E+06     1.74550E+06         60.1471
            1736     888.327E-06     111.221E-03         1.39711     257.897E-03        -1.42356        -1.42096     828.119E-03     824.292E-03     63.9542E-03     235.149E-03    -116.970E-03    -118.194E-03    -117.459E-03     235.149E-03    -117.705E-03     235.405E-06    -138.284E+06    -140.940E+06    -300.859E+06    -140.842E+06    -300.528E+06    -138.712E+06    -6.65792E+06         39.3021
            1737     1.77854E-03     111.222E-03     836.519E-03    -298.490E-03    -310.325E-03    -307.018E-03     835.063E-03    -300.341E-03     132.919E-06     235.023E-03    -117.328E-03    -117.715E-03    -117.434E-03     235.023E-03    -117.608E-03     581.005E-06    -126.543E+06    -134.429E+06    -282.413E+06    -135.221E+06    -281.358E+06    -126.806E+06    -11.8736E+06         39.4715
            1738     2.66778E-03     111.218E-03     812.261E-03    -282.728E-03    -306.772E-03    -288.400E-03     811.290E-03    -300.129E-03     42.6049E-03     235.073E-03    -117.407E-03    -117.695E-03    -117.461E-03     235.071E-03    -117.639E-03     1.77918E-03    -109.786E+06    -125.491E+06    -264.035E+06    -127.683E+06    -261.843E+06    -109.786E+06    -16.7763E+06         39.7688
            1739     3.55693E-03     111.218E-03     805.480E-03    -272.787E-03    -312.775E-03    -287.379E-03     804.277E-03    -296.980E-03     62.2306E-03     235.267E-03    -117.518E-03    -117.780E-03    -117.565E-03     235.255E-03    -117.721E-03     3.92539E-03    -90.8171E+06    -114.878E+06    -248.914E+06    -118.431E+06    -245.361E+06    -90.8171E+06    -21.1133E+06         40.2014
            1740     4.44578E-03     111.221E-03     821.783E-03    -287.691E-03    -312.508E-03    -302.815E-03     820.733E-03    -296.333E-03     24.7740E-03     235.491E-03    -117.691E-03    -117.833E-03    -117.660E-03     235.458E-03    -117.831E-03     6.66342E-03    -74.6083E+06    -103.444E+06    -233.528E+06    -108.866E+06    -228.106E+06    -74.6083E+06    -25.6166E+06         40.7848
            1741     5.33456E-03     111.227E-03     824.610E-03    -293.228E-03    -303.818E-03    -299.868E-03     824.448E-03    -297.016E-03    -11.9676E-03     235.582E-03    -117.648E-03    -117.972E-03    -117.608E-03     235.496E-03    -117.926E-03     10.6809E-03    -60.3947E+06    -91.8321E+06    -218.678E+06    -98.6533E+06    -211.857E+06    -60.3947E+06    -28.3666E+06         41.5320
            1742     6.22308E-03     111.238E-03     808.490E-03    -282.309E-03    -296.428E-03    -282.644E-03     808.350E-03    -295.952E-03     19.4961E-03     235.652E-03    -117.625E-03    -118.043E-03    -117.485E-03     235.466E-03    -117.997E-03     15.9718E-03    -50.1508E+06    -79.7879E+06    -201.362E+06     -88.824E+06    -192.326E+06    -50.1508E+06    -31.4573E+06         42.4412
            1743     7.11126E-03     111.253E-03     789.138E-03    -268.689E-03    -292.916E-03    -268.396E-03     788.845E-03    -292.916E-03     22.9080E-03     235.193E-03    -117.194E-03    -118.017E-03    -116.832E-03     234.831E-03    -118.017E-03     22.2640E-03    -45.6329E+06    -69.6757E+06    -183.890E+06    -81.8461E+06    -171.719E+06    -45.6329E+06    -35.1435E+06         43.5345
            1744     8.00219E-03     111.277E-03     775.648E-03    -262.713E-03    -289.089E-03    -262.438E-03     775.373E-03    -289.089E-03     14.8231E-03     234.641E-03    -116.713E-03    -117.969E-03    -116.063E-03     233.991E-03    -117.969E-03     29.8976E-03    -41.4569E+06    -61.0768E+06    -166.299E+06    -75.4550E+06    -151.921E+06    -41.4569E+06    -35.8914E+06         44.8665
            1745     8.89233E-03     111.309E-03     773.485E-03    -264.889E-03    -285.454E-03    -264.424E-03     773.021E-03    -285.454E-03     34.9203E-03     234.944E-03    -117.042E-03    -117.914E-03    -116.000E-03     233.902E-03    -117.914E-03     38.0271E-03    -35.3141E+06    -51.4748E+06    -137.655E+06    -67.3442E+06    -121.785E+06    -35.3141E+06    -33.1200E+06         46.4905
            1746     9.78072E-03     111.354E-03     764.750E-03    -257.375E-03    -281.813E-03    -256.818E-03     764.194E-03    -281.813E-03     46.1470E-03     235.383E-03    -117.480E-03    -117.871E-03    -115.673E-03     233.576E-03    -117.871E-03     49.7731E-03    -26.1807E+06    -38.9625E+06    -97.9400E+06    -57.8112E+06    -79.0913E+06    -26.1807E+06    -26.0162E+06         48.4281
            1747     10.6688E-03     111.416E-03     742.083E-03    -236.178E-03    -277.029E-03    -235.977E-03     741.882E-03    -277.029E-03     17.7951E-03     235.002E-03    -117.239E-03    -117.762E-03    -113.998E-03     231.760E-03    -117.762E-03     66.5961E-03     19.3199E+06    -19.2158E+06    -58.9020E+06    -47.6212E+06     2.66168E+06    -13.8385E+06    -13.2456E+06         50.5974
            1748     11.5622E-03     111.501E-03     723.052E-03    -220.550E-03    -270.844E-03    -220.301E-03     722.803E-03    -270.844E-03     18.1982E-03     235.913E-03    -117.284E-03    -118.637E-03    -112.800E-03     230.439E-03    -117.647E-03     86.7323E-03     94.8995E+06     16.8465E+06    -39.4262E+06    -39.0263E+06     94.4996E+06     16.8465E+06     112.107E+03         52.7451
            1749     12.4526E-03     111.615E-03     711.782E-03    -214.073E-03    -263.850E-03    -213.727E-03     711.436E-03    -263.850E-03     33.2014E-03     240.101E-03    -117.739E-03    -122.358E-03    -113.418E-03     231.160E-03    -117.739E-03     111.695E-03     132.823E+06     68.7677E+06    -33.7379E+06    -33.5407E+06     132.626E+06     68.7677E+06     5.57444E+06         54.4981
            1750     13.3426E-03     111.763E-03     699.546E-03    -204.584E-03    -256.597E-03    -204.273E-03     699.234E-03    -256.597E-03     32.2164E-03     240.599E-03    -117.875E-03    -122.767E-03    -113.359E-03     231.191E-03    -117.875E-03     115.001E-03     139.122E+06     110.981E+06    -27.5328E+06    -27.3680E+06     138.957E+06     110.981E+06     5.21464E+06         55.9608
            1751     14.2339E-03     111.881E-03     681.680E-03    -194.841E-03    -248.990E-03    -194.626E-03     681.465E-03    -248.990E-03     21.2633E-03     246.165E-03    -117.788E-03    -128.444E-03    -113.314E-03     231.036E-03    -117.788E-03     143.163E-03     141.595E+06     124.364E+06    -18.3433E+06    -18.2590E+06     141.511E+06     124.364E+06     3.44728E+06         57.8258
            1752     15.1268E-03     112.101E-03     666.181E-03    -185.140E-03    -241.779E-03    -184.704E-03     665.744E-03    -241.779E-03     29.2391E-03     242.026E-03    -115.120E-03    -126.966E-03    -112.945E-03     230.456E-03    -117.571E-03     105.716E-03     145.059E+06     125.348E+06    -8.94667E+06    -8.92548E+06     145.038E+06     125.348E+06     1.28456E+06         60.0574
            1753     889.386E-06     112.486E-03         1.28948     234.305E-03        -1.29597        -1.28749     696.937E-03     818.361E-03     115.256E-03     234.772E-03    -116.768E-03    -118.017E-03    -117.791E-03     234.771E-03    -116.994E-03     234.864E-06    -126.512E+06    -129.773E+06    -283.020E+06    -129.926E+06    -282.560E+06    -126.820E+06    -7.88505E+06         39.2706
            1754     1.77906E-03     112.483E-03     706.301E-03    -232.120E-03    -242.274E-03    -235.382E-03     701.260E-03    -233.971E-03    -40.7596E-03     234.605E-03    -117.143E-03    -117.479E-03    -117.199E-03     234.604E-03    -117.423E-03     693.983E-06    -115.019E+06    -124.336E+06    -266.702E+06    -125.563E+06    -265.475E+06    -115.019E+06    -12.8207E+06         39.4446
            1755     2.66852E-03     112.484E-03     728.381E-03    -236.287E-03    -263.907E-03    -260.698E-03     727.024E-03    -238.138E-03     16.8734E-03     234.919E-03    -117.408E-03    -117.536E-03    -117.479E-03     234.916E-03    -117.462E-03     1.76125E-03    -102.470E+06    -117.535E+06    -248.946E+06    -120.367E+06    -246.114E+06    -102.470E+06    -18.5954E+06         39.7455
            1756     3.55709E-03     112.482E-03     757.318E-03    -246.513E-03    -284.743E-03    -283.502E-03     756.076E-03    -246.513E-03     48.9563E-03     235.050E-03    -117.439E-03    -117.644E-03    -117.497E-03     235.035E-03    -117.570E-03     4.28833E-03    -88.0118E+06    -109.171E+06    -235.735E+06    -114.011E+06    -230.895E+06    -88.0118E+06    -24.0923E+06         40.1758
            1757     4.44611E-03     112.487E-03     748.593E-03    -250.918E-03    -271.274E-03    -268.622E-03     747.650E-03    -252.627E-03     31.7047E-03     235.055E-03    -117.424E-03    -117.667E-03    -117.379E-03     235.011E-03    -117.667E-03     7.67077E-03    -72.8831E+06    -98.6296E+06    -221.393E+06    -105.987E+06    -214.035E+06    -72.8831E+06    -28.7740E+06         40.7503
            1758     5.33490E-03     112.491E-03     731.344E-03    -247.631E-03    -257.200E-03    -250.951E-03     731.220E-03    -253.757E-03     4.15934E-03     235.059E-03    -117.363E-03    -117.736E-03    -117.259E-03     234.955E-03    -117.736E-03     11.7876E-03    -60.0174E+06    -86.7956E+06    -210.232E+06    -97.0075E+06    -200.020E+06    -60.0174E+06    -33.7667E+06         41.4900
            1759     6.22479E-03     112.503E-03     723.497E-03    -240.130E-03    -252.244E-03    -239.976E-03     723.343E-03    -252.244E-03     23.4395E-03     234.918E-03    -117.153E-03    -117.780E-03    -116.953E-03     234.717E-03    -117.780E-03     16.6453E-03    -48.3740E+06    -74.9273E+06    -194.213E+06    -87.3127E+06    -181.828E+06    -48.3740E+06    -36.0158E+06         42.4046
            1760     7.11479E-03     112.518E-03     717.628E-03    -235.246E-03    -249.859E-03    -235.108E-03     717.490E-03    -249.859E-03     11.8653E-03     234.978E-03    -117.180E-03    -117.793E-03    -116.816E-03     234.614E-03    -117.793E-03     22.3650E-03    -40.5523E+06    -64.8533E+06    -176.229E+06    -79.5112E+06    -161.571E+06    -40.5523E+06    -37.4881E+06         43.5181
            1761     8.00264E-03     112.541E-03     715.292E-03    -236.788E-03    -249.386E-03    -238.445E-03     715.186E-03    -247.623E-03     3.35319E-03     235.241E-03    -117.321E-03    -117.947E-03    -116.796E-03     234.582E-03    -117.814E-03     30.1225E-03    -37.2833E+06    -54.7965E+06    -163.079E+06    -72.8148E+06    -145.061E+06    -37.2833E+06    -40.1382E+06         44.8666
            1762     8.89135E-03     112.575E-03     707.583E-03    -233.998E-03    -247.306E-03    -235.570E-03     707.392E-03    -245.542E-03     19.5807E-03     235.221E-03    -117.279E-03    -117.965E-03    -116.343E-03     234.152E-03    -117.831E-03     38.5264E-03    -33.8577E+06    -44.9510E+06    -142.195E+06    -65.8922E+06    -121.254E+06    -33.8577E+06    -39.8392E+06         46.4885
            1763     9.78055E-03     112.621E-03     692.702E-03    -221.396E-03    -242.648E-03    -221.193E-03     692.500E-03    -242.648E-03     22.3328E-03     235.092E-03    -117.280E-03    -117.797E-03    -115.422E-03     233.234E-03    -117.797E-03     50.4266E-03    -26.4781E+06    -34.9939E+06    -111.359E+06    -57.6112E+06    -87.3394E+06    -27.8810E+06    -35.3354E+06         48.4192
            1764     10.6719E-03     112.680E-03     682.807E-03    -213.047E-03    -238.676E-03    -212.984E-03     682.744E-03    -238.676E-03     9.63487E-03     235.297E-03    -117.379E-03    -117.913E-03    -114.352E-03     232.047E-03    -117.691E-03     66.8509E-03     2.94492E+06    -23.5682E+06    -70.2612E+06    -49.1556E+06    -20.3507E+06    -21.3781E+06    -22.6130E+06         50.5890
            1765     11.5604E-03     112.764E-03     676.025E-03    -205.135E-03    -233.897E-03    -204.885E-03     675.775E-03    -233.897E-03     22.2545E-03     236.250E-03    -117.472E-03    -118.788E-03    -113.089E-03     230.653E-03    -117.574E-03     87.5861E-03     74.7905E+06     84.1909E+03    -44.3899E+06    -42.9402E+06     73.3408E+06     84.1909E+03    -3.28810E+06         52.7343
            1766     12.4521E-03     112.878E-03     663.640E-03    -189.904E-03    -228.049E-03    -189.596E-03     663.332E-03    -228.049E-03     29.1443E-03     239.409E-03    -117.605E-03    -121.812E-03    -112.592E-03     230.190E-03    -117.605E-03     113.215E-03     131.028E+06     50.6017E+06    -37.0644E+06    -36.8093E+06     130.773E+06     50.6017E+06     6.49212E+06         54.4669
            1767     13.3445E-03     113.025E-03     652.720E-03    -181.736E-03    -221.658E-03    -181.590E-03     652.574E-03    -221.658E-03     12.6082E-03     239.235E-03    -117.704E-03    -121.575E-03    -112.221E-03     229.880E-03    -117.704E-03     114.081E-03     141.797E+06     103.111E+06    -28.6261E+06    -28.4567E+06     141.627E+06     103.111E+06     4.95382E+06         55.8914
            1768     14.2371E-03     113.144E-03     656.595E-03    -191.971E-03    -216.413E-03    -192.667E-03     656.521E-03    -215.642E-03     3.15600E-03     244.949E-03    -117.603E-03    -127.432E-03    -112.257E-03     229.773E-03    -117.603E-03     142.409E-03     143.665E+06     124.576E+06    -18.2826E+06    -18.2290E+06     143.612E+06     124.576E+06     2.04335E+06         57.7173
            1769     15.1316E-03     113.359E-03     654.311E-03    -194.877E-03    -211.597E-03    -195.486E-03     654.150E-03    -210.826E-03     12.7350E-03     240.745E-03    -114.323E-03    -126.516E-03    -111.705E-03     228.955E-03    -117.343E-03     106.153E-03     146.764E+06     128.257E+06    -7.94297E+06    -7.92904E+06     146.750E+06     128.257E+06    -239.703E+03         59.9222
            1770     889.960E-06     113.748E-03         1.16745     226.522E-03        -1.15603        -1.14608     632.620E-03     751.397E-03     57.1162E-03     234.180E-03    -116.624E-03    -117.568E-03    -117.568E-03     234.179E-03    -116.624E-03    -89.4521E-06    -117.356E+06    -120.196E+06    -262.792E+06    -120.373E+06    -262.307E+06    -117.663E+06    -7.51189E+06         39.2308
            1771     1.77887E-03     113.748E-03     649.394E-03    -195.649E-03    -212.756E-03    -205.649E-03     644.915E-03    -198.277E-03    -82.7226E-03     234.402E-03    -117.106E-03    -117.320E-03    -117.237E-03     234.401E-03    -117.188E-03     918.930E-06    -107.160E+06    -114.534E+06    -249.698E+06    -116.051E+06    -248.181E+06    -107.160E+06    -13.6826E+06         39.4075
            1772     2.66825E-03     113.747E-03     665.201E-03    -194.443E-03    -230.896E-03    -221.566E-03     664.613E-03    -203.185E-03    -11.1496E-03     234.396E-03    -117.130E-03    -117.300E-03    -117.139E-03     234.389E-03    -117.283E-03     2.76875E-03    -91.9450E+06    -105.693E+06    -232.713E+06    -108.851E+06    -229.555E+06    -91.9450E+06    -19.3833E+06         39.7035
            1773     3.55795E-03     113.747E-03     655.522E-03    -191.270E-03    -229.450E-03    -213.395E-03     655.212E-03    -207.015E-03     15.6829E-03     234.489E-03    -117.152E-03    -117.367E-03    -117.149E-03     234.470E-03    -117.350E-03     5.00499E-03    -76.9271E+06    -96.1676E+06    -219.923E+06    -101.569E+06    -214.521E+06    -76.9271E+06    -25.0847E+06         40.1296
            1774     4.44777E-03     113.750E-03     637.703E-03    -196.700E-03    -212.530E-03    -201.900E-03     637.547E-03    -207.174E-03     10.8568E-03     234.365E-03    -116.993E-03    -117.401E-03    -116.940E-03     234.312E-03    -117.401E-03     8.32091E-03    -63.7195E+06    -86.4411E+06    -207.353E+06    -94.8749E+06    -198.919E+06    -63.7195E+06    -30.5574E+06         40.6979
            1775     5.33755E-03     113.757E-03     635.553E-03    -201.629E-03    -206.018E-03    -201.454E-03     635.378E-03    -206.018E-03     12.4897E-03     234.409E-03    -116.988E-03    -117.452E-03    -116.872E-03     234.293E-03    -117.452E-03     12.5830E-03    -50.9645E+06    -76.4512E+06    -196.638E+06    -88.2019E+06    -184.887E+06    -50.9645E+06    -35.6215E+06         41.4323
            1776     6.22604E-03     113.766E-03     639.456E-03    -202.888E-03    -206.306E-03    -203.780E-03     639.150E-03    -205.109E-03     30.6436E-03     234.652E-03    -117.091E-03    -117.571E-03    -116.941E-03     234.433E-03    -117.502E-03     17.3187E-03    -42.5542E+06    -67.3440E+06    -186.163E+06    -82.4879E+06    -171.019E+06    -42.5542E+06    -39.4707E+06         42.3527
            1777     7.11516E-03     113.784E-03     643.398E-03    -202.859E-03    -208.817E-03    -206.674E-03     642.896E-03    -204.499E-03     37.0096E-03     235.039E-03    -117.314E-03    -117.719E-03    -117.090E-03     234.654E-03    -117.558E-03     23.0407E-03    -35.6773E+06    -57.0952E+06    -170.708E+06    -75.0398E+06    -152.763E+06    -35.6773E+06    -41.3721E+06         43.4788
            1778     8.00495E-03     113.808E-03     649.631E-03    -203.765E-03    -211.929E-03    -210.922E-03     648.961E-03    -204.103E-03     42.2881E-03     235.313E-03    -117.471E-03    -117.859E-03    -117.001E-03     234.618E-03    -117.634E-03     30.9293E-03    -31.4286E+06    -47.3354E+06    -156.422E+06    -68.2247E+06    -135.532E+06    -31.4286E+06    -42.7539E+06         44.8315
            1779     8.89295E-03     113.842E-03     644.738E-03    -199.014E-03    -209.957E-03    -204.906E-03     644.019E-03    -203.347E-03     43.6444E-03     234.947E-03    -117.170E-03    -117.797E-03    -116.168E-03     233.812E-03    -117.664E-03     39.7027E-03    -30.9401E+06    -38.6616E+06    -141.554E+06    -63.0047E+06    -117.211E+06    -30.9401E+06    -43.6176E+06         46.4437
            1780     9.78325E-03     113.883E-03     635.146E-03    -189.873E-03    -207.004E-03    -194.318E-03     634.111E-03    -201.524E-03     44.6455E-03     234.818E-03    -117.157E-03    -117.667E-03    -115.252E-03     232.868E-03    -117.622E-03     51.6407E-03    -28.0797E+06    -31.7970E+06    -119.976E+06    -58.4264E+06    -91.9436E+06    -29.4826E+06    -41.1356E+06         48.3655
            1781     10.6721E-03     113.946E-03     631.148E-03    -187.391E-03    -203.058E-03    -190.948E-03     630.471E-03    -198.824E-03     26.5912E-03     235.256E-03    -117.407E-03    -117.858E-03    -114.388E-03     231.903E-03    -117.524E-03     67.9474E-03    -11.2189E+06    -27.6841E+06    -83.4449E+06    -52.7582E+06    -42.1689E+06    -27.4208E+06    -30.5110E+06         50.5475
            1782     11.5630E-03     114.027E-03     626.073E-03    -187.059E-03    -196.692E-03    -187.884E-03     625.742E-03    -195.536E-03     26.7657E-03     236.378E-03    -117.377E-03    -119.014E-03    -113.253E-03     230.616E-03    -117.377E-03     88.8830E-03     50.7197E+06    -15.7852E+06    -49.3824E+06    -43.2183E+06     44.5555E+06    -15.7852E+06    -11.7929E+06         52.7087
            1783     12.4552E-03     114.139E-03     620.574E-03    -179.518E-03    -193.871E-03    -181.571E-03     620.209E-03    -191.453E-03     31.2231E-03     239.258E-03    -117.335E-03    -121.921E-03    -112.423E-03     229.760E-03    -117.335E-03     114.871E-03     122.824E+06     28.5190E+06    -32.8708E+06    -32.4769E+06     122.430E+06     28.5190E+06     3.64341E+06         54.4181
            1784     13.3458E-03     114.290E-03     621.504E-03    -172.716E-03    -195.129E-03    -180.324E-03     621.140E-03    -187.157E-03     19.5033E-03     238.215E-03    -117.426E-03    -120.774E-03    -111.312E-03     228.752E-03    -117.426E-03     114.313E-03     148.182E+06     92.0128E+06    -23.8380E+06    -23.6216E+06     147.966E+06     92.0128E+06     4.96723E+06         55.7850
            1785     14.2397E-03     114.400E-03     624.849E-03    -176.184E-03    -192.044E-03    -184.717E-03     624.390E-03    -183.052E-03     21.6204E-03     243.350E-03    -117.335E-03    -126.040E-03    -110.725E-03     228.035E-03    -117.335E-03     142.166E-03     147.755E+06     125.321E+06    -14.9168E+06    -14.9095E+06     147.748E+06     125.321E+06     420.073E+03         57.5519
            1786     15.1354E-03     114.620E-03     620.319E-03    -174.636E-03    -186.699E-03    -181.623E-03     620.143E-03    -179.537E-03     5.68148E-03     238.627E-03    -113.103E-03    -125.598E-03    -109.689E-03     226.618E-03    -117.002E-03     106.937E-03     146.657E+06     130.375E+06    -5.96755E+06    -5.95453E+06     146.644E+06     130.375E+06    -115.032E+03         59.7173
            1787     889.881E-06     115.012E-03         1.07053     212.631E-03        -1.03954        -1.03408     598.416E-03     679.288E-03     65.7261E-03     233.525E-03    -116.516E-03    -117.022E-03    -116.940E-03     233.523E-03    -116.597E-03     729.542E-06    -99.7967E+06    -102.259E+06    -243.447E+06    -102.386E+06    -242.812E+06    -100.306E+06    -8.60478E+06         39.1646
            1788     1.77978E-03     115.011E-03     596.572E-03    -163.031E-03    -189.224E-03    -174.808E-03     595.712E-03    -176.587E-03    -35.7869E-03     233.491E-03    -116.635E-03    -116.881E-03    -116.709E-03     233.488E-03    -116.805E-03     1.60447E-03    -91.2748E+06    -96.3463E+06    -230.044E+06    -98.2862E+06    -228.104E+06    -91.2748E+06    -15.4737E+06         39.3356
            1789     2.66998E-03     115.011E-03     565.124E-03    -142.903E-03    -180.361E-03    -150.438E-03     564.768E-03    -172.470E-03     14.8948E-03     233.453E-03    -116.642E-03    -116.845E-03    -116.629E-03     233.440E-03    -116.845E-03     3.93502E-03    -77.8831E+06    -89.8859E+06    -215.984E+06    -93.6191E+06    -212.250E+06    -77.8831E+06    -21.1584E+06         39.6245
            1790     3.55972E-03     115.012E-03     537.384E-03    -135.421E-03    -165.009E-03    -135.018E-03     536.981E-03    -165.009E-03     31.0794E-03     233.648E-03    -116.761E-03    -116.909E-03    -116.731E-03     233.618E-03    -116.909E-03     6.32725E-03    -62.2336E+06    -80.9615E+06    -204.352E+06    -86.9208E+06    -198.393E+06    -62.2336E+06    -26.2450E+06         40.0500
            1791     4.44881E-03     115.014E-03     542.412E-03    -147.273E-03    -161.326E-03    -148.397E-03     542.194E-03    -159.984E-03     21.6682E-03     233.779E-03    -116.758E-03    -117.034E-03    -116.746E-03     233.714E-03    -116.982E-03     9.27576E-03    -50.5967E+06    -72.2692E+06    -192.155E+06    -80.8082E+06    -183.616E+06    -50.5967E+06    -30.6757E+06         40.6213
            1792     5.33892E-03     115.019E-03     555.546E-03    -156.601E-03    -161.782E-03    -159.594E-03     555.409E-03    -158.652E-03     12.1113E-03     233.920E-03    -116.792E-03    -117.144E-03    -116.737E-03     233.788E-03    -117.067E-03     13.4028E-03    -40.1343E+06    -64.1457E+06    -181.217E+06    -75.7192E+06    -169.644E+06    -40.1343E+06    -34.8039E+06         41.3535
            1793     6.22936E-03     115.032E-03     561.668E-03    -158.577E-03    -167.120E-03    -166.601E-03     561.439E-03    -158.867E-03     16.0354E-03     234.277E-03    -117.034E-03    -117.245E-03    -116.889E-03     234.040E-03    -117.152E-03     18.0691E-03    -32.4679E+06    -54.8688E+06    -172.866E+06    -70.2326E+06    -157.503E+06    -32.4679E+06    -39.5886E+06         42.2666
            1794     7.11803E-03     115.048E-03     565.959E-03    -159.533E-03    -171.508E-03    -170.993E-03     565.444E-03    -159.533E-03     20.6301E-03     234.593E-03    -117.185E-03    -117.402E-03    -116.890E-03     234.137E-03    -117.241E-03     24.9074E-03    -28.3728E+06    -46.9854E+06    -162.252E+06    -65.8370E+06    -143.400E+06    -28.3728E+06    -42.5379E+06         43.3801
            1795     8.00558E-03     115.073E-03     559.592E-03    -155.362E-03    -168.054E-03    -163.080E-03     558.856E-03    -159.600E-03     17.8246E-03     234.600E-03    -117.144E-03    -117.468E-03    -116.517E-03     233.819E-03    -117.313E-03     32.8591E-03    -24.8392E+06    -39.3815E+06    -149.193E+06    -61.5502E+06    -127.025E+06    -24.8392E+06    -43.9824E+06         44.7213
            1796     8.89659E-03     115.104E-03     558.450E-03    -154.495E-03    -165.678E-03    -160.504E-03     557.514E-03    -158.733E-03     38.5146E-03     234.387E-03    -117.006E-03    -117.395E-03    -115.847E-03     233.167E-03    -117.333E-03     41.0671E-03    -24.6817E+06    -32.7299E+06    -137.394E+06    -57.9424E+06    -112.181E+06    -24.6817E+06    -44.6882E+06         46.3269
            1797     9.78523E-03     115.149E-03     577.627E-03    -157.957E-03    -174.587E-03    -173.082E-03     576.122E-03    -157.957E-03     66.1895E-03     234.280E-03    -116.935E-03    -117.334E-03    -114.860E-03     232.161E-03    -117.289E-03     53.7474E-03    -23.7619E+06    -27.2147E+06    -120.361E+06    -54.4236E+06    -92.3717E+06    -24.5424E+06    -42.7109E+06         48.2442
            1798     10.6761E-03     115.207E-03     587.857E-03    -157.601E-03    -183.022E-03    -182.025E-03     586.860E-03    -157.601E-03     31.9072E-03     235.012E-03    -117.014E-03    -117.996E-03    -114.139E-03     231.328E-03    -117.187E-03     71.1199E-03    -11.6759E+06    -25.8582E+06    -90.8088E+06    -48.9191E+06    -53.8290E+06    -25.5949E+06    -37.6463E+06         50.4431
            1799     11.5670E-03     115.289E-03     579.242E-03    -156.713E-03    -176.751E-03    -176.396E-03     578.886E-03    -156.713E-03     15.2454E-03     236.945E-03    -117.065E-03    -119.904E-03    -113.890E-03     230.931E-03    -117.065E-03     91.2319E-03     31.3566E+06    -21.6558E+06    -55.5706E+06    -40.6813E+06     16.4673E+06    -21.6558E+06    -24.4627E+06         52.6276
            1800     12.4565E-03     115.403E-03     573.189E-03    -154.680E-03    -170.822E-03    -170.458E-03     572.826E-03    -154.680E-03     30.5359E-03     238.558E-03    -116.925E-03    -121.657E-03    -112.053E-03     228.955E-03    -116.925E-03     115.261E-03     103.345E+06     5.81371E+06    -31.8795E+06    -30.2437E+06     101.709E+06     5.81371E+06    -5.89468E+06         54.3144
            1801     13.3514E-03     115.549E-03     575.658E-03    -152.331E-03    -174.939E-03    -174.318E-03     575.037E-03    -152.331E-03     38.6910E-03     236.339E-03    -116.712E-03    -119.593E-03    -109.504E-03     226.443E-03    -116.904E-03     116.471E-03     149.390E+06     69.6718E+06    -20.4593E+06    -20.2475E+06     149.178E+06     69.6718E+06     3.28225E+06         55.6198
            1802     14.2451E-03     115.661E-03     576.514E-03    -149.780E-03    -172.643E-03    -171.897E-03     575.767E-03    -149.780E-03     45.1859E-03     241.783E-03    -116.641E-03    -125.101E-03    -108.920E-03     225.795E-03    -116.834E-03     145.072E-03     153.079E+06     122.684E+06    -13.0032E+06    -12.9168E+06     152.992E+06     122.684E+06     2.88040E+06         57.3189
            1803     15.1439E-03     115.871E-03     584.667E-03    -147.620E-03    -176.800E-03    -176.218E-03     584.085E-03    -147.620E-03     28.0706E-03     236.140E-03    -111.467E-03    -124.687E-03    -107.298E-03     223.733E-03    -116.450E-03     109.292E-03     147.191E+06     132.700E+06    -7.55026E+06    -7.51290E+06     147.154E+06     132.700E+06     1.64521E+06         59.4353
            1804     890.252E-06     116.273E-03     924.281E-03     201.224E-03    -896.525E-03    -883.089E-03     506.091E-03     605.978E-03     63.1841E-03     232.058E-03    -115.854E-03    -116.219E-03    -115.986E-03     232.056E-03    -116.085E-03     1.37180E-03    -79.0661E+06    -81.0489E+06    -221.319E+06    -81.2744E+06    -220.585E+06    -79.5750E+06    -9.37541E+06         39.0396
            1805     1.78123E-03     116.273E-03     469.814E-03    -103.032E-03    -136.370E-03    -103.742E-03     465.778E-03    -131.624E-03    -46.0382E-03     232.091E-03    -115.963E-03    -116.151E-03    -116.035E-03     232.086E-03    -116.074E-03     2.46968E-03    -73.2658E+06    -77.5820E+06    -210.853E+06    -79.6435E+06    -208.791E+06    -73.2658E+06    -16.0082E+06         39.2071
            1806     2.67155E-03     116.273E-03     446.392E-03    -88.0248E-03    -121.757E-03    -89.1256E-03     445.311E-03    -119.575E-03     25.3796E-03     232.070E-03    -115.915E-03    -116.185E-03    -115.963E-03     232.052E-03    -116.119E-03     4.65939E-03    -62.2309E+06    -71.8342E+06    -197.134E+06    -75.7302E+06    -193.238E+06    -62.2309E+06    -21.5177E+06         39.4904
            1807     3.56218E-03     116.274E-03     461.519E-03    -99.5018E-03    -119.538E-03    -104.553E-03     460.378E-03    -113.345E-03     45.1066E-03     232.076E-03    -115.924E-03    -116.175E-03    -115.875E-03     232.028E-03    -116.175E-03     7.93403E-03    -48.4372E+06    -65.3410E+06    -188.519E+06    -71.3370E+06    -182.523E+06    -48.4372E+06    -26.3556E+06         39.9078
            1808     4.45297E-03     116.277E-03     473.495E-03    -108.591E-03    -121.786E-03    -116.853E-03     472.507E-03    -112.536E-03     35.6647E-03     232.695E-03    -116.188E-03    -116.517E-03    -116.337E-03     232.592E-03    -116.265E-03     11.7590E-03    -36.8205E+06    -57.2204E+06    -178.746E+06    -65.4570E+06    -170.510E+06    -36.8205E+06    -30.4081E+06         40.4747
            1809     5.34205E-03     116.284E-03     479.002E-03    -113.708E-03    -125.945E-03    -125.671E-03     478.728E-03    -113.708E-03     12.7805E-03     233.142E-03    -116.403E-03    -116.749E-03    -116.548E-03     232.940E-03    -116.403E-03     16.4003E-03    -28.4308E+06    -48.9011E+06    -165.867E+06    -59.9887E+06    -154.779E+06    -28.4308E+06    -34.0779E+06         41.2000
            1810     6.23061E-03     116.295E-03     489.438E-03    -115.406E-03    -131.527E-03    -130.921E-03     488.832E-03    -115.406E-03     23.8619E-03     233.184E-03    -116.501E-03    -116.685E-03    -116.297E-03     232.829E-03    -116.534E-03     21.7711E-03    -20.7080E+06    -42.4413E+06    -158.585E+06    -56.2303E+06    -144.796E+06    -20.7080E+06    -37.4863E+06         42.0951
            1811     7.12102E-03     116.312E-03     490.880E-03    -116.763E-03    -130.951E-03    -130.354E-03     490.283E-03    -116.763E-03     18.1303E-03     233.116E-03    -116.462E-03    -116.654E-03    -115.910E-03     232.507E-03    -116.597E-03     28.6485E-03    -17.4211E+06    -36.0965E+06    -149.708E+06    -53.3219E+06    -132.483E+06    -17.4211E+06    -40.4725E+06         43.1834
            1812     8.01275E-03     116.337E-03     484.066E-03    -113.003E-03    -130.103E-03    -125.552E-03     483.752E-03    -117.241E-03     299.707E-06     233.354E-03    -116.523E-03    -116.831E-03    -115.714E-03     232.339E-03    -116.625E-03     37.2731E-03    -16.3986E+06    -29.9951E+06    -139.216E+06    -50.8803E+06    -118.331E+06    -16.3986E+06    -42.9114E+06         44.5064
            1813     8.90051E-03     116.369E-03     489.949E-03    -113.079E-03    -135.295E-03    -130.517E-03     489.409E-03    -117.317E-03     22.4008E-03     233.490E-03    -116.555E-03    -116.934E-03    -115.327E-03     231.974E-03    -116.645E-03     45.6866E-03    -16.4247E+06    -25.1846E+06    -129.828E+06    -48.6199E+06    -106.392E+06    -16.4247E+06    -43.5117E+06         46.1102
            1814     9.79200E-03     116.411E-03     500.514E-03    -117.691E-03    -140.860E-03    -140.132E-03     499.786E-03    -117.691E-03     38.5802E-03     233.449E-03    -116.344E-03    -117.086E-03    -114.359E-03     230.986E-03    -116.608E-03     57.8980E-03    -15.9311E+06    -20.3222E+06    -115.310E+06    -45.6588E+06    -88.0490E+06    -17.8557E+06    -43.4031E+06         48.0348
            1815     10.6839E-03     116.469E-03     511.552E-03    -118.178E-03    -149.414E-03    -149.058E-03     511.196E-03    -118.178E-03     11.7949E-03     235.035E-03    -116.368E-03    -118.650E-03    -114.262E-03     230.820E-03    -116.541E-03     76.0876E-03    -7.41695E+06    -20.7668E+06    -93.1111E+06    -42.8076E+06    -57.7205E+06    -20.7668E+06    -41.0646E+06         50.2428
            1816     11.5725E-03     116.556E-03     526.136E-03    -118.482E-03    -159.122E-03    -158.818E-03     525.832E-03    -118.482E-03     13.8874E-03     236.865E-03    -116.456E-03    -120.425E-03    -113.734E-03     230.175E-03    -116.456E-03     96.2448E-03     19.3504E+06    -21.7482E+06    -62.2239E+06    -39.4152E+06    -3.45830E+06    -21.7482E+06    -31.9519E+06         52.4259
            1817     12.4633E-03     116.664E-03     531.141E-03    -118.440E-03    -164.422E-03    -164.047E-03     530.766E-03    -118.440E-03     30.5105E-03     237.542E-03    -116.225E-03    -121.352E-03    -111.030E-03     227.221E-03    -116.225E-03     119.165E-03     82.6912E+06    -13.1928E+06    -38.4665E+06    -33.5950E+06     77.8196E+06    -13.1928E+06    -17.1805E+06         54.0959
            1818     13.3585E-03     116.803E-03     528.160E-03    -118.052E-03    -161.383E-03    -160.948E-03     527.725E-03    -118.052E-03     31.1147E-03     234.862E-03    -115.867E-03    -118.988E-03    -108.075E-03     224.142E-03    -116.060E-03     120.850E-03     138.640E+06     36.8643E+06    -25.5430E+06    -25.1393E+06     138.236E+06     36.8643E+06    -2.98563E+06         55.3715
            1819     14.2582E-03     116.917E-03     529.908E-03    -117.108E-03    -158.722E-03    -158.343E-03     529.528E-03    -117.108E-03     28.5837E-03     239.360E-03    -115.757E-03    -123.568E-03    -106.519E-03     222.504E-03    -115.950E-03     148.463E-03     152.925E+06     106.167E+06    -15.8080E+06    -15.6862E+06     152.804E+06     106.167E+06     3.83331E+06         57.0176
            1820     15.1566E-03     117.124E-03     544.903E-03    -116.641E-03    -169.236E-03    -168.741E-03     544.408E-03    -116.641E-03     33.2943E-03     232.757E-03    -109.647E-03    -123.104E-03    -104.273E-03     219.820E-03    -115.542E-03     111.962E-03     149.637E+06     134.892E+06    -6.95321E+06    -6.86918E+06     149.553E+06     134.892E+06     3.22243E+06         59.0911
            1821     892.119E-06     117.532E-03     742.369E-03     172.299E-03    -691.982E-03    -662.564E-03     365.900E-03     519.350E-03     70.4586E-03     229.391E-03    -114.608E-03    -114.798E-03    -114.644E-03     229.387E-03    -114.757E-03     1.99431E-03    -61.4543E+06    -63.9894E+06    -199.633E+06    -64.3663E+06    -198.997E+06    -61.7134E+06    -8.04371E+06         38.8057
            1822     1.78323E-03     117.532E-03     363.090E-03    -51.3575E-03    -89.5837E-03    -58.4636E-03     349.634E-03    -69.0212E-03    -89.4392E-03     229.597E-03    -114.755E-03    -114.863E-03    -114.827E-03     229.581E-03    -114.774E-03     4.36590E-03    -53.4110E+06    -58.6684E+06    -189.141E+06    -60.7219E+06    -187.088E+06    -53.4110E+06    -15.8076E+06         38.9708
            1823     2.67430E-03     117.532E-03     363.351E-03    -55.3670E-03    -76.2593E-03    -64.3366E-03     362.152E-03    -66.0907E-03     12.7310E-03     229.709E-03    -114.707E-03    -115.021E-03    -114.831E-03     229.669E-03    -114.857E-03     7.04349E-03    -44.8915E+06    -52.7368E+06    -179.584E+06    -56.5753E+06    -175.746E+06    -44.8915E+06    -21.5292E+06         39.2474
            1824     3.56631E-03     117.533E-03     380.030E-03    -66.7082E-03    -75.3268E-03    -74.4056E-03     379.109E-03    -66.7082E-03     29.6366E-03     229.668E-03    -114.664E-03    -115.022E-03    -114.670E-03     229.576E-03    -114.923E-03     10.7702E-03    -34.3650E+06    -47.0630E+06    -172.302E+06    -52.5920E+06    -166.773E+06    -34.3650E+06    -25.6656E+06         39.6459
            1825     4.45756E-03     117.538E-03     387.002E-03    -68.5753E-03    -79.9260E-03    -79.0953E-03     386.172E-03    -68.5753E-03     25.4802E-03     229.858E-03    -114.697E-03    -115.174E-03    -114.695E-03     229.658E-03    -114.975E-03     16.0514E-03    -24.1417E+06    -40.6775E+06    -165.038E+06    -48.3885E+06    -157.327E+06    -24.1417E+06    -29.8155E+06         40.1853
            1826     5.34848E-03     117.545E-03     394.210E-03    -70.4181E-03    -83.5545E-03    -83.0829E-03     393.739E-03    -70.4181E-03     22.7395E-03     230.269E-03    -114.885E-03    -115.389E-03    -114.870E-03     229.900E-03    -115.035E-03     22.0443E-03    -17.9560E+06    -35.1266E+06    -153.329E+06    -44.9410E+06    -143.515E+06    -17.9560E+06    -32.5324E+06         40.8843
            1827     6.24058E-03     117.557E-03     400.532E-03    -71.9506E-03    -85.5563E-03    -84.5209E-03     399.497E-03    -71.9506E-03     44.5406E-03     230.587E-03    -115.126E-03    -115.462E-03    -114.840E-03     229.964E-03    -115.126E-03     28.8850E-03    -11.7128E+06    -30.8387E+06    -145.544E+06    -42.4236E+06    -133.959E+06    -11.7128E+06    -34.4881E+06         41.7560
            1828     7.13080E-03     117.574E-03     407.023E-03    -73.1782E-03    -89.1875E-03    -88.4624E-03     406.298E-03    -73.1782E-03     30.0587E-03     230.901E-03    -115.107E-03    -115.794E-03    -114.729E-03     229.914E-03    -115.185E-03     36.3877E-03    -8.91714E+06    -26.1901E+06    -136.319E+06    -40.8620E+06    -121.647E+06    -8.91714E+06    -37.1661E+06         42.8237
            1829     8.02083E-03     117.597E-03     427.458E-03    -75.1365E-03    -109.215E-03    -108.680E-03     426.923E-03    -75.1365E-03     24.8051E-03     231.150E-03    -115.141E-03    -116.005E-03    -114.396E-03     229.619E-03    -115.219E-03     45.3423E-03    -8.63513E+06    -22.2352E+06    -126.740E+06    -40.0544E+06    -108.920E+06    -8.63513E+06    -39.2001E+06         44.1284
            1830     8.91395E-03     117.633E-03     446.488E-03    -78.2429E-03    -125.840E-03    -124.730E-03     445.377E-03    -78.2429E-03     46.3320E-03     231.729E-03    -115.250E-03    -116.473E-03    -114.326E-03     229.582E-03    -115.250E-03     54.1115E-03    -9.44091E+06    -17.9411E+06    -119.431E+06    -38.9964E+06    -98.3752E+06    -9.44091E+06    -41.0258E+06         45.7294
            1831     9.80393E-03     117.670E-03     441.919E-03    -80.8490E-03    -117.331E-03    -116.471E-03     441.058E-03    -80.8490E-03     36.8409E-03     233.087E-03    -115.290E-03    -117.790E-03    -114.552E-03     229.849E-03    -115.290E-03     66.3235E-03    -10.9649E+06    -13.9627E+06    -107.602E+06    -39.1043E+06    -81.1269E+06    -12.2990E+06    -42.2718E+06         47.6641
            1832     10.6935E-03     117.734E-03     434.742E-03    -81.8445E-03    -109.611E-03    -109.439E-03     434.570E-03    -81.8445E-03     15.2451E-03     234.511E-03    -115.315E-03    -119.185E-03    -113.810E-03     229.135E-03    -115.315E-03     85.5860E-03    -6.12181E+06    -15.4308E+06    -90.1956E+06    -38.6321E+06    -57.6853E+06    -15.4308E+06    -40.5848E+06         49.8620
            1833     11.5854E-03     117.818E-03     454.492E-03    -82.4408E-03    -128.815E-03    -128.377E-03     454.054E-03    -82.4408E-03     25.9081E-03     235.022E-03    -115.213E-03    -119.817E-03    -111.734E-03     226.938E-03    -115.213E-03     105.254E-03     12.5253E+06    -19.3367E+06    -65.0095E+06    -36.2942E+06    -16.1900E+06    -19.3367E+06    -34.4706E+06         52.0281
            1834     12.4807E-03     117.923E-03     481.353E-03    -83.7488E-03    -152.807E-03    -152.263E-03     480.808E-03    -83.7488E-03     23.3039E-03     236.691E-03    -114.929E-03    -121.787E-03    -109.777E-03     224.681E-03    -114.929E-03     128.167E-03     66.4646E+06    -18.2217E+06    -41.3829E+06    -32.8901E+06     57.9718E+06    -18.2217E+06    -23.3428E+06         53.7159
            1835     13.3756E-03     118.060E-03     490.802E-03    -85.4621E-03    -158.467E-03    -158.157E-03     490.492E-03    -85.4621E-03     17.1821E-03     235.048E-03    -114.678E-03    -120.384E-03    -107.991E-03     222.655E-03    -114.678E-03     129.833E-03     124.244E+06     13.2466E+06    -27.2911E+06    -26.1589E+06     123.112E+06     13.2466E+06    -9.99836E+06         55.0232
            1836     14.2710E-03     118.169E-03     496.024E-03    -86.7410E-03    -157.082E-03    -156.840E-03     495.782E-03    -86.7410E-03     23.3392E-03     237.864E-03    -114.501E-03    -123.372E-03    -104.691E-03     219.184E-03    -114.501E-03     155.693E-03     147.371E+06     79.7149E+06    -17.6210E+06    -17.5062E+06     147.256E+06     79.7149E+06    -711.569E+03         56.6750
            1837     15.1785E-03     118.370E-03     503.700E-03    -88.1277E-03    -160.465E-03    -159.910E-03     503.145E-03    -88.1277E-03     32.2597E-03     228.893E-03    -107.180E-03    -121.731E-03    -100.594E-03     214.655E-03    -114.078E-03     117.389E-03     148.424E+06     128.766E+06    -8.33511E+06    -8.25595E+06     148.345E+06     128.766E+06     2.76999E+06         58.7507
            1838     893.227E-06     118.788E-03     607.494E-03     113.211E-03    -498.110E-03    -478.558E-03     237.711E-03     463.442E-03     31.5083E-03     224.797E-03    -112.188E-03    -112.622E-03    -112.555E-03     224.785E-03    -112.244E-03     3.43295E-03    -38.8065E+06    -42.8702E+06    -179.690E+06    -40.3130E+06    -179.132E+06    -41.9215E+06    -7.60339E+06         38.3765
            1839     1.78720E-03     118.787E-03     292.221E-03    -14.8940E-03    -56.6648E-03    -44.9235E-03     280.479E-03    -14.8940E-03    -82.9807E-03     224.638E-03    -112.264E-03    -112.393E-03    -112.232E-03     224.594E-03    -112.382E-03     7.14313E-03    -35.6931E+06    -41.2148E+06    -167.019E+06    -40.8357E+06    -165.188E+06    -37.9036E+06    -14.7829E+06         38.5307
            1840     2.68131E-03     118.787E-03     299.614E-03    -26.3782E-03    -51.0727E-03    -50.2481E-03     298.789E-03    -26.3782E-03     5.32209E-03     224.805E-03    -112.319E-03    -112.499E-03    -112.305E-03     224.692E-03    -112.401E-03     11.6375E-03    -31.4603E+06    -36.4668E+06    -162.775E+06    -40.1109E+06    -159.131E+06    -31.4603E+06    -20.8996E+06         38.7948
            1841     3.57341E-03     118.789E-03     291.334E-03    -25.8220E-03    -39.1566E-03    -33.9286E-03     290.997E-03    -30.7122E-03     10.4613E-03     225.008E-03    -112.368E-03    -112.650E-03    -112.323E-03     224.765E-03    -112.451E-03     17.2125E-03    -25.7790E+06    -32.7605E+06    -157.400E+06    -38.1501E+06    -152.011E+06    -25.7790E+06    -25.2870E+06         39.1730
            1842     4.46740E-03     118.792E-03     290.247E-03    -22.3752E-03    -33.9256E-03    -25.4781E-03     289.908E-03    -30.4838E-03     12.2614E-03     224.903E-03    -112.271E-03    -112.640E-03    -111.982E-03     224.459E-03    -112.485E-03     23.7070E-03    -17.9698E+06    -29.2134E+06    -150.653E+06    -36.1819E+06    -143.684E+06    -17.9698E+06    -28.1352E+06         39.6776
            1843     5.36240E-03     118.802E-03     302.940E-03    -26.8855E-03    -38.3408E-03    -34.5027E-03     302.321E-03    -30.1039E-03     24.4794E-03     225.030E-03    -112.337E-03    -112.696E-03    -111.830E-03     224.314E-03    -112.487E-03     30.4159E-03    -10.7774E+06    -24.7666E+06    -142.711E+06    -33.3242E+06    -134.154E+06    -10.7774E+06    -30.5368E+06         40.3347
            1844     6.25473E-03     118.813E-03     317.501E-03    -31.2152E-03    -47.4129E-03    -46.8707E-03     316.959E-03    -31.2152E-03     19.6203E-03     225.671E-03    -112.507E-03    -113.167E-03    -112.040E-03     224.544E-03    -112.507E-03     38.2127E-03    -5.30336E+06    -19.9882E+06    -134.156E+06    -30.1692E+06    -123.975E+06    -5.30336E+06    -32.4453E+06         41.1708
            1845     7.14905E-03     118.830E-03     335.693E-03    -33.6147E-03    -62.6697E-03    -62.4118E-03     335.435E-03    -33.6147E-03     5.07925E-03     226.655E-03    -112.575E-03    -114.079E-03    -112.348E-03     224.924E-03    -112.575E-03     47.6691E-03    -56.1908E+03    -15.5199E+06    -124.182E+06    -27.6066E+06    -112.095E+06    -56.1908E+03    -34.0451E+06         42.2149
            1846     8.04185E-03     118.856E-03     362.274E-03    -37.3880E-03    -85.8159E-03    -85.4245E-03     361.882E-03    -37.3880E-03     10.0012E-03     227.632E-03    -112.662E-03    -114.972E-03    -112.465E-03     225.125E-03    -112.662E-03     57.7043E-03     1.40444E+06    -12.6294E+06    -115.943E+06    -26.4065E+06    -102.166E+06     1.40444E+06    -34.9189E+06         43.5030
            1847     8.93396E-03     118.888E-03     375.730E-03    -41.8084E-03    -96.7147E-03    -95.4651E-03     374.481E-03    -41.8084E-03     15.1162E-03     229.108E-03    -112.762E-03    -116.353E-03    -112.839E-03     225.594E-03    -112.762E-03     68.4344E-03     409.325E+03    -10.8917E+06    -106.898E+06    -27.3245E+06    -90.4656E+06     409.325E+03    -35.7869E+06         45.0889
            1848     9.82574E-03     118.936E-03     380.061E-03    -45.4799E-03    -95.5485E-03    -94.5369E-03     379.049E-03    -45.4799E-03     12.4638E-03     231.296E-03    -112.891E-03    -118.418E-03    -113.389E-03     226.267E-03    -112.891E-03     82.1944E-03    -3.05429E+06    -8.48174E+06    -95.1246E+06    -29.3778E+06    -73.9302E+06    -3.35256E+06    -36.8202E+06         47.0126
            1849     10.7172E-03     118.992E-03     390.146E-03    -48.3119E-03    -101.690E-03    -101.281E-03     389.736E-03    -48.3119E-03    -549.560E-06     232.430E-03    -112.962E-03    -119.478E-03    -111.892E-03     224.844E-03    -112.962E-03     101.117E-03    -3.47478E+06    -7.67997E+06    -81.1714E+06    -31.5292E+06    -53.1170E+06    -7.67997E+06    -36.7690E+06         49.2047
            1850     11.6121E-03     119.078E-03     398.574E-03    -50.7465E-03    -108.990E-03    -108.147E-03     397.730E-03    -50.7465E-03     15.6761E-03     233.442E-03    -112.839E-03    -120.622E-03    -109.710E-03     222.530E-03    -112.839E-03     121.537E-03     10.5137E+06    -16.2773E+06    -63.6337E+06    -31.9980E+06    -21.1221E+06    -16.2773E+06    -35.0269E+06         51.3984
            1851     12.5071E-03     119.177E-03     414.549E-03    -52.8944E-03    -120.503E-03    -119.846E-03     413.892E-03    -52.8944E-03     14.0603E-03     236.652E-03    -112.580E-03    -124.106E-03    -108.765E-03     221.312E-03    -112.580E-03     144.608E-03     55.6616E+06    -15.9737E+06    -41.2737E+06    -28.7386E+06     43.1265E+06    -15.9737E+06    -26.8264E+06         53.1826
            1852     13.4051E-03     119.318E-03     439.346E-03    -55.4175E-03    -141.577E-03    -141.133E-03     438.902E-03    -55.4175E-03     10.6046E-03     235.352E-03    -112.345E-03    -123.026E-03    -107.558E-03     219.884E-03    -112.345E-03     144.934E-03     111.063E+06     5.86467E+06    -26.3689E+06    -24.2588E+06     108.952E+06     5.86467E+06    -14.8556E+06         54.6416
            1853     14.3046E-03     119.418E-03     457.114E-03    -58.3678E-03    -156.577E-03    -156.188E-03     456.725E-03    -58.3678E-03     26.1659E-03     237.799E-03    -112.164E-03    -125.679E-03    -104.256E-03     216.376E-03    -112.164E-03     167.639E-03     138.924E+06     56.8019E+06    -18.2026E+06    -17.8861E+06     138.607E+06     56.8019E+06    -5.27329E+06         56.4345
            1854     15.2089E-03     119.610E-03     468.445E-03    -61.8927E-03    -165.720E-03    -165.249E-03     467.974E-03    -61.8927E-03     23.4993E-03     226.537E-03    -104.946E-03    -121.679E-03    -98.9402E-03     210.688E-03    -111.835E-03     124.664E-03     143.473E+06     115.775E+06    -9.29546E+06    -9.26599E+06     143.443E+06     115.775E+06     648.003E+03         58.6178
            1855     897.158E-06     120.035E-03     451.014E-03     102.411E-03    -324.302E-03    -316.913E-03     188.483E-03     357.554E-03     10.1534E-03     216.290E-03    -107.894E-03    -108.405E-03    -108.314E-03     216.254E-03    -107.950E-03     5.73320E-03    -26.6220E+06    -30.0451E+06    -158.175E+06    -27.4337E+06    -157.445E+06    -29.9642E+06    -9.18278E+06         37.6401
            1856     1.79431E-03     120.035E-03     224.548E-03     16.7859E-03    -13.2241E-03    -6.16967E-03     219.114E-03     15.1654E-03    -47.6295E-03     216.150E-03    -108.007E-03    -108.154E-03    -107.935E-03     216.029E-03    -108.105E-03     11.7205E-03    -25.6276E+06    -29.3415E+06    -148.162E+06    -28.1642E+06    -146.324E+06    -28.6430E+06    -14.3818E+06         37.7819
            1857     2.69134E-03     120.034E-03     235.707E-03     6.29349E-03    -17.8209E-03    -14.9558E-03     232.842E-03     6.29349E-03    -10.9753E-03     216.244E-03    -108.045E-03    -108.205E-03    -107.868E-03     215.970E-03    -108.108E-03     18.0740E-03    -20.2972E+06    -22.7979E+06    -145.773E+06    -25.6904E+06    -142.075E+06    -21.1020E+06    -20.8570E+06         38.0308
            1858     3.59034E-03     120.036E-03     217.394E-03     11.8423E-03    -3.04735E-03     6.35308E-03     216.639E-03     3.19611E-03    -337.677E-06     216.591E-03    -108.125E-03    -108.471E-03    -107.930E-03     216.069E-03    -108.144E-03     25.3695E-03    -13.0812E+06    -16.5261E+06    -142.915E+06    -22.0103E+06    -137.431E+06    -13.0812E+06    -25.6921E+06         38.3901
            1859     4.48682E-03     120.040E-03     207.538E-03     16.9190E-03     4.89827E-03     18.3822E-03     205.919E-03     5.05444E-03     21.3294E-03     216.981E-03    -108.193E-03    -108.795E-03    -107.879E-03     216.065E-03    -108.193E-03     33.6238E-03    -5.72127E+06    -11.9243E+06    -139.689E+06    -18.3868E+06    -133.226E+06    -5.72127E+06    -27.9593E+06         38.8661
            1860     5.38281E-03     120.048E-03     223.903E-03     9.16041E-03    -8.41416E-03    -2.22855E-03     220.936E-03     5.94209E-03     43.5544E-03     217.369E-03    -108.222E-03    -109.150E-03    -107.679E-03     215.898E-03    -108.222E-03     42.6971E-03     784.229E+03    -8.53155E+06    -131.326E+06    -16.1461E+06    -123.712E+06     784.229E+03    -29.4678E+06         39.4849
            1861     6.28185E-03     120.060E-03     248.073E-03     3.43336E-03    -28.4595E-03    -27.0510E-03     246.664E-03     3.43336E-03     19.3389E-03     218.247E-03    -108.257E-03    -109.995E-03    -107.816E-03     216.069E-03    -108.257E-03     52.2863E-03     6.37387E+06    -5.02266E+06    -123.818E+06    -13.9592E+06    -114.882E+06     6.37387E+06    -31.2571E+06         40.2796
            1862     7.17777E-03     120.080E-03     271.080E-03    -780.838E-06    -42.9900E-03    -41.2081E-03     269.298E-03    -780.838E-06     22.3019E-03     219.584E-03    -108.324E-03    -111.262E-03    -108.102E-03     216.424E-03    -108.324E-03     63.2508E-03     11.0808E+06    -2.04847E+06    -114.824E+06    -11.8881E+06    -104.984E+06     11.0808E+06    -31.6793E+06         41.2860
            1863     8.07475E-03     120.105E-03     289.792E-03    -5.19000E-03    -53.6019E-03    -51.4633E-03     287.653E-03    -5.19000E-03     31.1831E-03     221.670E-03    -108.440E-03    -113.228E-03    -108.766E-03     217.208E-03    -108.440E-03     75.5616E-03     13.2414E+06    -927.366E+03    -107.705E+06    -11.2550E+06    -97.3771E+06     13.2414E+06    -31.4339E+06         42.5458
            1864     8.97005E-03     120.142E-03     302.826E-03    -9.33064E-03    -61.2103E-03    -59.4666E-03     301.083E-03    -9.33064E-03     13.8132E-03     224.212E-03    -108.597E-03    -115.622E-03    -109.480E-03     218.070E-03    -108.597E-03     89.2792E-03     13.4817E+06     637.596E+03    -96.2816E+06    -10.4797E+06    -85.1643E+06     13.4817E+06    -30.5235E+06         44.1030
            1865     9.86542E-03     120.187E-03     323.399E-03    -13.4416E-03    -77.0421E-03    -75.2274E-03     321.584E-03    -13.4416E-03     19.8309E-03     226.946E-03    -108.775E-03    -118.192E-03    -109.744E-03     218.498E-03    -108.775E-03     105.334E-03     11.5545E+06     1.36380E+06    -82.0141E+06    -11.2504E+06    -69.2915E+06     11.4462E+06    -29.2218E+06         46.0175
            1866     10.7601E-03     120.249E-03     350.396E-03    -17.9647E-03    -96.1535E-03    -95.2802E-03     349.523E-03    -17.9647E-03     9.50249E-03     229.880E-03    -108.912E-03    -120.982E-03    -109.624E-03     218.522E-03    -108.912E-03     123.108E-03     8.61922E+06     3.65422E+06    -65.4086E+06    -13.9317E+06    -47.0527E+06     7.84923E+06    -28.8504E+06         48.2658
            1867     11.6575E-03     120.325E-03     360.057E-03    -22.1916E-03    -98.5022E-03    -97.7367E-03     359.292E-03    -22.1916E-03     14.4190E-03     233.056E-03    -108.938E-03    -124.128E-03    -109.015E-03     217.944E-03    -108.938E-03     143.009E-03     13.6006E+06     115.941E+03    -47.2808E+06    -17.7192E+06    -15.9610E+06     115.941E+03    -29.3586E+06         50.5907
            1868     12.5557E-03     120.436E-03     362.248E-03    -25.2186E-03    -96.8892E-03    -95.3076E-03     360.667E-03    -25.2186E-03     35.5351E-03     237.041E-03    -108.858E-03    -128.206E-03    -108.295E-03     217.130E-03    -108.858E-03     165.225E-03     48.1610E+06    -6.85293E+06    -34.9098E+06    -21.2673E+06     34.5185E+06    -6.85293E+06    -25.8356E+06         52.6144
            1869     13.4536E-03     120.566E-03     388.178E-03    -28.1049E-03    -118.478E-03    -116.711E-03     386.411E-03    -28.1049E-03     41.5910E-03     236.369E-03    -108.799E-03    -127.593E-03    -108.180E-03     216.955E-03    -108.799E-03     162.891E-03     101.931E+06     5.35417E+06    -24.1024E+06    -21.1358E+06     98.9648E+06     5.35417E+06    -16.9940E+06         54.4371
            1870     14.3516E-03     120.670E-03     423.958E-03    -32.0482E-03    -150.760E-03    -149.899E-03     423.096E-03    -32.0482E-03     38.8785E-03     238.775E-03    -108.789E-03    -130.038E-03    -106.207E-03     214.944E-03    -108.789E-03     179.045E-03     127.120E+06     35.6610E+06    -16.5443E+06    -15.8610E+06     126.437E+06     35.6610E+06    -8.81584E+06         56.6150
            1871     15.2574E-03     120.849E-03     445.466E-03    -37.3850E-03    -171.241E-03    -170.691E-03     444.916E-03    -37.3850E-03     27.8974E-03     228.706E-03    -105.688E-03    -123.145E-03    -103.477E-03     212.192E-03    -108.843E-03     127.329E-03     134.200E+06     95.6970E+06    -7.28736E+06    -7.08411E+06     133.997E+06     95.6970E+06    -2.23500E+06         59.0525
            1872     903.400E-06     121.269E-03     313.087E-03     100.833E-03    -194.717E-03    -188.306E-03     149.629E-03     257.880E-03     39.0826E-03     202.830E-03    -100.983E-03    -101.851E-03    -101.777E-03     202.756E-03    -100.983E-03     8.60603E-03    -10.8985E+06    -13.1525E+06    -135.940E+06    -13.2215E+06    -134.866E+06    -11.9038E+06    -10.8561E+06         36.5085
            1873     1.80677E-03     121.268E-03     154.254E-03     38.8710E-03     23.6102E-03     46.5042E-03     132.980E-03     37.2505E-03    -19.7451E-03     202.934E-03    -101.396E-03    -101.541E-03    -101.288E-03     202.681E-03    -101.396E-03     16.7350E-03    -9.04619E+06    -11.3741E+06    -129.643E+06    -11.5545E+06    -127.216E+06    -11.2931E+06    -16.5151E+06         36.6450
            1874     2.71029E-03     121.269E-03     156.556E-03     41.3106E-03     18.9443E-03     51.7513E-03     123.749E-03     41.3106E-03     3.89427E-03     203.339E-03    -101.425E-03    -101.916E-03    -101.327E-03     202.751E-03    -101.425E-03     25.8378E-03    -6.19867E+06    -9.77961E+06    -128.726E+06    -10.7670E+06    -124.432E+06    -9.50476E+06    -22.3225E+06         36.8808
            1875     3.61181E-03     121.270E-03     142.469E-03     46.5987E-03     22.8943E-03     40.6180E-03     128.502E-03     42.8427E-03     15.3431E-03     203.983E-03    -101.506E-03    -102.479E-03    -101.382E-03     202.886E-03    -101.506E-03     35.4484E-03    -3.08129E+06    -6.16952E+06    -130.327E+06    -9.99374E+06    -124.606E+06    -4.97723E+06    -26.2033E+06         37.2200
            1876     4.51557E-03     121.275E-03     145.995E-03     45.0664E-03     19.1989E-03     27.3198E-03     141.630E-03     41.3104E-03     36.5555E-03     204.671E-03    -101.584E-03    -103.093E-03    -101.299E-03     202.878E-03    -101.584E-03     45.7612E-03     779.036E+03    -1.93921E+06    -129.736E+06    -8.25505E+06    -123.102E+06     461.260E+03    -28.2995E+06         37.6689
            1877     5.41994E-03     121.282E-03     167.854E-03     38.2469E-03     8.01794E-03     15.5430E-03     160.329E-03     38.2469E-03     64.9584E-03     205.659E-03    -101.636E-03    -104.028E-03    -101.227E-03     202.858E-03    -101.636E-03     57.5098E-03     5.34509E+06     1.34459E+06    -122.282E+06    -6.04284E+06    -114.895E+06     5.34509E+06    -29.2028E+06         38.2545
            1878     6.32073E-03     121.297E-03     186.040E-03     34.2400E-03    -3.77612E-03    -165.695E-06     182.429E-03     34.2400E-03     39.3894E-03     207.226E-03    -101.705E-03    -105.522E-03    -101.358E-03     203.061E-03    -101.705E-03     70.3174E-03     10.6734E+06      2.5747E+06    -116.051E+06    -5.30737E+06    -108.169E+06     10.6734E+06    -29.5266E+06         39.0158
            1879     7.22423E-03     121.315E-03     199.908E-03     29.8337E-03    -13.4145E-03    -9.49473E-03     195.989E-03     29.8337E-03     46.0288E-03     209.573E-03    -101.811E-03    -107.765E-03    -101.906E-03     203.715E-03    -101.811E-03     83.9749E-03     15.0550E+06     2.82716E+06    -108.412E+06    -5.18257E+06    -100.403E+06     15.0550E+06    -28.6944E+06         39.9960
            1880     8.12600E-03     121.344E-03     214.317E-03     25.7868E-03    -20.2945E-03    -15.9794E-03     210.002E-03     25.7868E-03     55.5747E-03     212.754E-03    -101.987E-03    -110.771E-03    -102.796E-03     204.779E-03    -101.987E-03     98.9292E-03     19.3600E+06     3.11330E+06    -101.203E+06    -4.98624E+06    -93.1039E+06     19.3600E+06    -27.8672E+06         41.2422
            1881     9.02747E-03     121.382E-03     241.646E-03     21.4679E-03    -39.9256E-03    -37.9916E-03     239.712E-03     21.4679E-03     45.3279E-03     216.514E-03    -102.218E-03    -114.303E-03    -103.929E-03     206.139E-03    -102.218E-03     114.067E-03     20.4414E+06     1.58175E+06    -90.6482E+06    -6.50417E+06    -82.5623E+06     20.4414E+06    -26.0061E+06         42.8098
            1882     9.92802E-03     121.430E-03     274.988E-03     16.1553E-03    -64.9411E-03    -62.5286E-03     272.575E-03     16.1553E-03     56.3279E-03     221.164E-03    -102.523E-03    -118.652E-03    -105.369E-03     207.882E-03    -102.523E-03     130.690E-03     22.1188E+06    -932.916E+03    -75.1274E+06    -8.77555E+06    -67.2847E+06     22.1188E+06    -22.6621E+06         44.7829
            1883     10.8289E-03     121.494E-03     294.618E-03     10.6271E-03    -75.1337E-03    -73.9880E-03     293.472E-03     10.6271E-03     36.2545E-03     227.466E-03    -102.904E-03    -124.570E-03    -107.880E-03     210.776E-03    -102.904E-03     148.862E-03     21.4154E+06    -698.419E+03    -54.9731E+06    -11.6188E+06    -43.7359E+06     21.0986E+06    -20.5052E+06         47.1771
            1884     11.7231E-03     121.577E-03     308.762E-03     5.56775E-03    -86.3099E-03    -85.8209E-03     308.273E-03     5.56775E-03     26.3187E-03     233.720E-03    -103.378E-03    -130.345E-03    -110.091E-03     213.465E-03    -103.378E-03     166.335E-03     23.4013E+06     8.59949E+06    -34.4260E+06    -15.1652E+06    -8.94896E+06     21.6891E+06    -19.7673E+06         49.7609
            1885     12.6204E-03     121.681E-03     329.719E-03     910.062E-06    -99.4114E-03    -97.6456E-03     327.954E-03     910.062E-06     50.2318E-03     239.261E-03    -103.817E-03    -135.452E-03    -111.139E-03     214.949E-03    -103.817E-03     184.307E-03     51.8155E+06     12.2906E+06    -26.9298E+06    -18.3893E+06     38.1904E+06     17.3753E+06    -20.1214E+06         52.2064
            1886     13.5202E-03     121.820E-03     354.543E-03    -3.77686E-03    -112.927E-03    -111.016E-03     352.631E-03    -3.77686E-03     54.8656E-03     239.183E-03    -104.285E-03    -134.910E-03    -112.653E-03     216.926E-03    -104.285E-03     176.176E-03     96.6776E+06     23.5702E+06    -20.6719E+06    -17.7601E+06     93.7658E+06     23.5702E+06    -16.8313E+06         54.6211
            1887     14.4132E-03     121.921E-03     378.517E-03    -8.66938E-03    -128.630E-03    -127.723E-03     377.610E-03    -8.66938E-03     42.1468E-03     243.185E-03    -104.844E-03    -138.353E-03    -114.315E-03     219.147E-03    -104.844E-03     184.029E-03     115.736E+06     37.7393E+06    -15.0383E+06    -13.9895E+06     114.687E+06     37.7393E+06    -11.4285E+06         57.4024
            1888     15.3109E-03     122.092E-03     398.272E-03    -14.1710E-03    -145.515E-03    -144.847E-03     397.604E-03    -14.1710E-03     31.9064E-03     240.861E-03    -105.769E-03    -135.131E-03    -119.610E-03     225.340E-03    -105.769E-03     122.459E-03     124.711E+06     84.8043E+06    -8.58295E+06    -8.21681E+06     124.345E+06     84.8043E+06    -5.00368E+06         60.2132
            1889     911.630E-06     122.485E-03     242.383E-03     68.5391E-03    -114.855E-03    -76.3088E-03     47.5110E-03     224.864E-03     40.2939E-03     184.054E-03    -91.5456E-03    -92.5120E-03    -92.3638E-03     183.906E-03    -91.5456E-03     11.7154E-03     128.034E+03    -4.10909E+06    -113.809E+06    -2.17170E+06    -112.677E+06    -2.94138E+06    -9.63167E+06         34.9375
            1890     1.82323E-03     122.482E-03     109.035E-03     75.7497E-03     16.7722E-03     86.1768E-03     38.6604E-03     76.7202E-03     712.153E-06     184.498E-03    -91.9909E-03    -92.5085E-03    -92.0203E-03     184.010E-03    -91.9909E-03     21.9887E-03    -1.56433E+06    -6.85663E+06    -109.675E+06    -4.39043E+06    -106.849E+06    -6.85663E+06    -17.0516E+06         35.0755
            1891     2.73485E-03     122.483E-03     104.808E-03     77.3064E-03     25.5755E-03     83.6653E-03     44.2880E-03     79.7366E-03     1.50269E-03     185.160E-03    -92.0597E-03    -93.1002E-03    -91.9872E-03     184.047E-03    -92.0597E-03     34.0505E-03    -2.80458E+06    -8.52452E+06    -112.035E+06    -7.23148E+06    -107.608E+06    -8.52452E+06    -21.4433E+06         35.3011
            1892     3.64730E-03     122.485E-03     101.466E-03     76.3184E-03     30.4379E-03     56.4712E-03     73.9729E-03     77.7781E-03     49.7485E-06     186.317E-03    -92.1615E-03    -94.1556E-03    -92.1308E-03     184.292E-03    -92.1615E-03     46.5024E-03    -3.72192E+06    -8.41546E+06    -118.361E+06    -9.61642E+06    -112.466E+06    -8.41546E+06    -25.2546E+06         35.6209
            1893     4.55780E-03     122.490E-03     107.606E-03     71.5242E-03     28.0820E-03     34.6087E-03     101.079E-03     71.5242E-03     16.5574E-03     187.694E-03    -92.2841E-03    -95.4135E-03    -92.1210E-03     184.401E-03    -92.2841E-03     59.4730E-03    -2.66206E+06    -5.64068E+06    -119.922E+06    -9.89662E+06    -112.841E+06    -5.48740E+06    -27.8447E+06         36.0512
            1894     5.46737E-03     122.499E-03     118.020E-03     65.5253E-03     23.0822E-03     35.6209E-03     105.482E-03     65.5253E-03     55.8426E-03     189.410E-03    -92.3883E-03    -97.0186E-03    -91.9795E-03     184.371E-03    -92.3883E-03     73.8583E-03    -43.4749E+03    -2.69492E+06    -116.719E+06    -9.17255E+06    -109.480E+06    -804.706E+03    -27.8952E+06         36.6225
            1895     6.38086E-03     122.513E-03     126.836E-03     61.2005E-03     21.1120E-03     31.2016E-03     116.746E-03     61.2005E-03     43.8995E-03     192.208E-03    -92.5170E-03    -99.6901E-03    -92.4201E-03     184.938E-03    -92.5170E-03     89.6630E-03     4.96615E+06    -3.99957E+06    -110.845E+06    -10.4275E+06    -104.417E+06     4.96615E+06    -25.3206E+06         37.3848
            1896     7.29035E-03     122.534E-03     140.468E-03     56.9233E-03     12.6381E-03     15.3964E-03     137.709E-03     56.9233E-03     29.6380E-03     196.272E-03    -92.7387E-03    -103.554E-03    -93.6606E-03     186.379E-03    -92.7387E-03     105.876E-03     11.1136E+06    -8.23567E+06    -103.862E+06    -14.0975E+06    -98.0001E+06     11.1136E+06    -22.8505E+06         38.3992
            1897     8.19958E-03     122.565E-03     163.108E-03     52.1054E-03    -1.92620E-03     930.708E-06     160.251E-03     52.1054E-03     35.0023E-03     201.730E-03    -93.0972E-03    -108.638E-03    -95.7147E-03     188.806E-03    -93.0972E-03     122.848E-03     17.5992E+06    -13.4304E+06    -96.4432E+06    -18.6834E+06    -91.1902E+06     17.5992E+06    -19.9862E+06         39.7218
            1898     9.10741E-03     122.607E-03     190.411E-03     46.8096E-03    -19.1857E-03    -17.9819E-03     189.207E-03     46.8096E-03     27.1462E-03     208.162E-03    -93.6247E-03    -114.509E-03    -98.8110E-03     192.464E-03    -93.6247E-03     138.085E-03     21.6594E+06    -18.9468E+06    -86.3390E+06    -23.6544E+06    -81.6313E+06     21.6594E+06    -16.9165E+06         41.4250
            1899     10.0127E-03     122.659E-03     212.158E-03     41.1740E-03    -35.2934E-03    -34.1299E-03     210.994E-03     41.1740E-03     30.9064E-03     215.979E-03    -94.3673E-03    -121.608E-03    -102.974E-03     197.345E-03    -94.3673E-03     153.625E-03     26.3373E+06    -20.0129E+06    -70.7692E+06    -27.0863E+06    -63.6959E+06     26.3373E+06    -16.3337E+06         43.5870
            1900     10.9128E-03     122.730E-03     233.772E-03     35.5545E-03    -51.2396E-03    -50.2100E-03     232.742E-03     35.5545E-03     11.8853E-03     225.087E-03    -95.3010E-03    -129.801E-03    -107.912E-03     203.198E-03    -95.3010E-03     170.445E-03     28.2699E+06    -17.7800E+06    -53.5787E+06    -27.6001E+06    -43.7586E+06     28.2699E+06    -15.2814E+06         46.2176
            1901     11.8125E-03     122.823E-03     266.823E-03     29.6776E-03    -76.0693E-03    -75.2975E-03     266.051E-03     29.6776E-03     11.1423E-03     234.835E-03    -96.4794E-03    -138.360E-03    -113.788E-03     210.262E-03    -96.4794E-03     185.025E-03     38.0455E+06     7.07592E+06    -38.3119E+06    -27.0640E+06    -4.17191E+06     38.0455E+06    -12.8972E+06         49.1511
            1902     12.7031E-03     122.931E-03     301.549E-03     23.3338E-03    -100.456E-03    -99.4007E-03     300.494E-03     23.3338E-03     40.8871E-03     244.633E-03    -97.8431E-03    -146.795E-03    -119.867E-03     217.706E-03    -97.8431E-03     198.102E-03     65.9271E+06     37.4826E+06    -28.8173E+06    -25.2404E+06     52.7773E+06     47.0554E+06    -15.6452E+06         52.1364
            1903     13.5893E-03     123.074E-03     322.595E-03     16.9815E-03    -109.291E-03    -107.799E-03     321.103E-03     16.9815E-03     48.0830E-03     246.468E-03    -99.4027E-03    -147.062E-03    -124.656E-03     224.062E-03    -99.4027E-03     180.779E-03     95.1404E+06     57.2258E+06    -23.5795E+06    -20.6781E+06     92.2391E+06     57.2258E+06    -18.0673E+06         55.2524
            1904     14.4759E-03     123.174E-03     333.916E-03     11.2941E-03    -111.547E-03    -110.525E-03     332.894E-03     11.2941E-03     34.4672E-03     255.011E-03    -101.178E-03    -153.935E-03    -132.208E-03     233.283E-03    -101.178E-03     182.308E-03     107.320E+06     65.7657E+06    -15.2759E+06    -13.6035E+06     105.647E+06     65.7657E+06    -13.8024E+06         58.6773
            1905     15.3479E-03     123.368E-03     354.785E-03     5.64902E-03    -127.278E-03    -126.876E-03     354.384E-03     5.64902E-03    -4.09902E-03     261.978E-03    -103.478E-03    -158.628E-03    -145.054E-03     248.404E-03    -103.478E-03     117.024E-03     116.785E+06     92.1343E+06    -6.89931E+06    -6.36015E+06     115.661E+06     92.7191E+06    -6.53272E+06         61.8673
            1906     923.522E-06     123.673E-03     207.289E-03     56.6591E-03    -78.0244E-03     15.2928E-03    -21.2516E-03     191.883E-03    -31.6792E-03     160.192E-03    -79.9653E-03    -80.2291E-03    -79.9734E-03     159.937E-03    -79.9653E-03     14.4838E-03    -708.037E+03    -4.37085E+06    -93.1327E+06    -1.94465E+06    -91.8961E+06    -4.37085E+06    -9.50118E+06         32.9620
            1907     1.84584E-03     123.672E-03     118.657E-03     99.3371E-03    -26.9311E-03     102.034E-03    -14.2216E-03     103.251E-03    -62.0022E-03     161.160E-03    -80.0659E-03    -81.0936E-03    -80.2715E-03     160.338E-03    -80.0659E-03     27.0225E-03    -1.84100E+06    -7.55202E+06    -91.1560E+06    -4.50660E+06    -88.4904E+06    -7.55202E+06    -14.9554E+06         33.1029
            1908     2.76824E-03     123.672E-03     99.6376E-03     89.5852E-03     7.92384E-03     79.8367E-03     17.6724E-03     99.6376E-03    -41.1735E-03     162.411E-03    -80.2367E-03    -82.1732E-03    -80.3751E-03     160.613E-03    -80.2367E-03     40.8247E-03    -3.82937E+06    -10.2244E+06    -98.3525E+06    -7.97307E+06    -94.2088E+06    -10.2244E+06    -19.3218E+06         33.3319
            1909     3.68993E-03     123.675E-03     94.6561E-03     87.6969E-03     19.6282E-03     73.6905E-03     34.4550E-03     93.8357E-03    -27.0714E-03     163.730E-03    -80.3556E-03    -83.3731E-03    -80.0867E-03     160.444E-03    -80.3556E-03     55.4135E-03    -6.47635E+06    -12.7873E+06    -106.521E+06    -11.5682E+06    -101.429E+06    -12.7873E+06    -21.9057E+06         33.6604
            1910     4.61208E-03     123.682E-03     94.1573E-03     86.4914E-03     21.4887E-03     68.2025E-03     44.6727E-03     89.2623E-03    -8.50559E-03     165.882E-03    -80.4393E-03    -85.4454E-03    -80.0838E-03     160.521E-03    -80.4393E-03     71.4329E-03    -11.9354E+06    -15.9022E+06    -110.923E+06    -17.7504E+06    -105.396E+06    -15.6137E+06    -22.5854E+06         34.1026
            1911     5.53540E-03     123.689E-03     94.6238E-03     75.9882E-03     29.0942E-03     60.8937E-03     53.5617E-03     85.2508E-03     18.5369E-03     169.526E-03    -80.6227E-03    -88.8934E-03    -80.8301E-03     161.463E-03    -80.6227E-03     88.7121E-03    -14.0315E+06    -21.7991E+06    -112.455E+06    -25.8704E+06    -107.622E+06    -14.7927E+06    -20.1555E+06         34.7060
            1912     6.45441E-03     123.706E-03     93.6823E-03     69.3179E-03     35.6853E-03     53.5647E-03     63.6525E-03     81.4683E-03     29.0955E-03     174.543E-03    -80.9700E-03    -93.5731E-03    -82.2947E-03     163.264E-03    -80.9700E-03     106.539E-03    -8.65950E+06    -31.1022E+06    -108.358E+06    -34.3803E+06    -105.080E+06    -8.65950E+06    -15.2003E+06         35.5520
            1913     7.37491E-03     123.732E-03     104.569E-03     71.4413E-03     25.3091E-03     32.8061E-03     91.4134E-03     77.1000E-03     25.9200E-03     181.206E-03    -81.5019E-03    -99.7283E-03    -85.0154E-03     166.493E-03    -81.5019E-03     124.271E-03     2.10083E+06    -39.0772E+06    -100.670E+06    -41.5242E+06    -98.2229E+06     2.10083E+06    -10.8338E+06         36.7109
            1914     8.29231E-03     123.766E-03     130.603E-03     71.5163E-03     3.36712E-03     10.1004E-03     123.869E-03     71.5163E-03     45.4888E-03     190.152E-03    -82.2922E-03    -107.857E-03    -89.6795E-03     171.975E-03    -82.2922E-03     142.059E-03     12.5948E+06    -45.0632E+06    -92.3658E+06    -47.0821E+06    -90.3469E+06     12.5948E+06    -8.41547E+06         38.2462
            1915     9.20410E-03     123.817E-03     149.222E-03     65.4927E-03    -7.06898E-03    -3.16299E-03     145.316E-03     65.4927E-03     30.8811E-03     200.621E-03    -83.4418E-03    -117.148E-03    -96.2290E-03     179.702E-03    -83.4418E-03     157.258E-03     20.7079E+06    -45.5333E+06    -81.6484E+06    -48.0238E+06    -79.1579E+06     20.7079E+06    -8.65360E+06         40.2294
            1916     10.1095E-03     123.877E-03     160.689E-03     59.7544E-03    -14.2262E-03    -13.6773E-03     160.140E-03     59.7544E-03     15.0277E-03     212.509E-03    -84.9907E-03    -127.524E-03    -104.153E-03     189.138E-03    -84.9907E-03     171.853E-03     28.4576E+06    -38.0489E+06    -65.7888E+06    -45.8191E+06    -58.0187E+06     28.4576E+06    -9.84826E+06         42.7039
            1917     11.0101E-03     123.963E-03     190.922E-03     53.9242E-03    -37.0798E-03    -36.2340E-03     190.076E-03     53.9242E-03     4.52703E-03     225.113E-03    -86.8789E-03    -138.252E-03    -112.965E-03     199.826E-03    -86.8789E-03     184.880E-03     32.1882E+06    -27.3418E+06    -55.9589E+06    -43.4665E+06    -39.8342E+06     32.1882E+06    -12.4887E+06         45.6588
            1918     11.9018E-03     124.060E-03     230.546E-03     47.5022E-03    -63.9551E-03    -62.4872E-03     229.079E-03     47.5022E-03     16.1836E-03     238.325E-03    -89.1328E-03    -149.163E-03    -122.885E-03     212.046E-03    -89.1328E-03     194.833E-03     45.5010E+06     11.1738E+06    -45.8250E+06    -36.9041E+06     2.25295E+06     45.5010E+06    -14.2799E+06         48.9823
            1919     12.7863E-03     124.194E-03     258.475E-03     40.8889E-03    -81.7687E-03    -80.1650E-03     256.871E-03     40.8889E-03     43.0632E-03     251.693E-03    -91.7577E-03    -159.906E-03    -133.454E-03     225.241E-03    -91.7577E-03     201.682E-03     77.6763E+06     57.6536E+06    -30.5328E+06    -27.4049E+06     67.2812E+06     64.9209E+06    -16.8504E+06         52.4877
            1920     13.6607E-03     124.339E-03     281.239E-03     34.2638E-03    -99.5967E-03    -98.3730E-03     280.016E-03     34.2638E-03     38.3565E-03     259.628E-03    -94.8020E-03    -164.819E-03    -144.523E-03     239.332E-03    -94.8020E-03     178.650E-03     97.9264E+06     79.5699E+06    -22.3108E+06    -18.5818E+06     94.1974E+06     79.5699E+06    -20.5530E+06         56.2117
            1921     14.5185E-03     124.454E-03     308.543E-03     27.5379E-03    -117.839E-03    -117.028E-03     307.731E-03     27.5379E-03     19.6901E-03     274.069E-03    -98.1942E-03    -176.079E-03    -156.834E-03     254.825E-03    -98.1942E-03     180.873E-03     96.7256E+06     80.3881E+06    -14.1404E+06    -11.7186E+06     94.3038E+06     80.3881E+06    -14.5842E+06         60.1566
            1922     15.3694E-03     124.674E-03     342.009E-03     20.3912E-03    -139.162E-03    -138.864E-03     341.711E-03     20.3912E-03    -13.2474E-03     283.789E-03    -102.028E-03    -182.044E-03    -169.791E-03     271.536E-03    -102.028E-03     118.648E-03     108.660E+06     95.3209E+06    -8.00738E+06    -7.52573E+06     105.576E+06     97.9236E+06    -6.14976E+06         63.6006
            1923     935.100E-06     124.829E-03     181.078E-03     62.2295E-03    -75.9274E-03     45.2615E-03    -47.1018E-03     169.220E-03    -11.6672E-03     133.102E-03    -66.2275E-03    -66.8742E-03    -66.4934E-03     132.721E-03    -66.2275E-03     15.8829E-03    -7.73237E+06    -11.0806E+06    -76.2858E+06    -10.9354E+06    -75.3186E+06    -8.84477E+06    -6.19038E+06         30.8034
            1924     1.87196E-03     124.831E-03     124.551E-03     98.9004E-03    -47.5678E-03     105.208E-03    -36.1735E-03     106.850E-03    -31.3433E-03     134.261E-03    -66.4575E-03    -67.8008E-03    -66.6072E-03     133.067E-03    -66.4575E-03     29.8419E-03    -12.2991E+06    -17.1915E+06    -75.2512E+06    -15.4696E+06    -72.9713E+06    -16.3009E+06    -11.3201E+06         30.9653
            1925     2.80610E-03     124.833E-03     117.929E-03     99.0188E-03    -39.3496E-03     107.714E-03    -36.7561E-03     106.641E-03     7.20927E-03     135.789E-03    -66.5861E-03    -69.2021E-03    -66.5744E-03     133.161E-03    -66.5861E-03     44.9778E-03    -19.3150E+06    -26.6678E+06    -88.7479E+06    -22.5301E+06    -85.5328E+06    -26.6678E+06    -14.4803E+06         31.2416
            1926     3.74128E-03     124.835E-03     111.094E-03     93.9999E-03    -23.2544E-03     95.1492E-03    -18.8719E-03     105.562E-03     31.3305E-03     137.697E-03    -66.6621E-03    -71.0343E-03    -66.2462E-03     132.909E-03    -66.6621E-03     61.4211E-03    -29.6378E+06    -35.9640E+06    -100.199E+06    -32.0990E+06    -97.7374E+06    -35.9640E+06    -11.9512E+06         31.6455
            1927     4.67763E-03     124.840E-03     102.546E-03     86.3974E-03    -3.44989E-03     83.4598E-03    -425.045E-06     102.458E-03     18.6379E-03     141.322E-03    -66.7975E-03    -74.5302E-03    -66.8303E-03     133.622E-03    -66.7975E-03     79.0710E-03    -38.6523E+06    -46.3205E+06     -108.07E+06    -47.0576E+06    -105.385E+06    -40.6002E+06    -6.42722E+06         32.1775
            1928     5.61047E-03     124.852E-03     99.0323E-03     81.9562E-03     7.32271E-03     78.7638E-03     10.5151E-03     99.0323E-03     18.9641E-03     147.494E-03    -67.1987E-03    -80.2952E-03    -68.9837E-03     136.183E-03    -67.1987E-03     98.0447E-03    -36.9953E+06    -60.8019E+06    -113.229E+06    -63.8798E+06    -110.152E+06    -36.9953E+06    -1.88540E+06         32.8816
            1929     6.54318E-03     124.873E-03     95.7693E-03     76.1415E-03     20.2965E-03     70.0116E-03     26.4264E-03     95.7693E-03     32.7873E-03     155.830E-03    -67.9486E-03    -87.8813E-03    -72.6360E-03     140.585E-03    -67.9486E-03     117.414E-03    -24.6569E+06    -71.3668E+06    -110.044E+06    -74.7553E+06    -106.655E+06    -24.6569E+06     438.278E+03         33.8713
            1930     7.47073E-03     124.903E-03     94.4692E-03     76.3902E-03     19.1120E-03     48.6515E-03     49.6602E-03     91.6597E-03     48.8572E-03     166.584E-03    -69.0720E-03    -97.4998E-03    -78.3739E-03     147.458E-03    -69.0720E-03     136.506E-03    -8.42175E+06    -75.1410E+06    -100.223E+06    -77.3388E+06    -98.0248E+06    -8.42175E+06     365.345E+03         35.2546
            1931     8.39190E-03     124.950E-03     102.475E-03     75.9874E-03     11.7145E-03     26.8312E-03     77.0680E-03     86.2780E-03     54.2936E-03     179.539E-03    -70.6127E-03    -108.908E-03    -86.3469E-03     156.977E-03    -70.6127E-03     154.667E-03     7.09149E+06    -69.6887E+06    -88.0326E+06    -72.2028E+06    -85.5184E+06     7.09149E+06    -3.25890E+06         37.0887
            1932     9.30709E-03     125.010E-03     112.718E-03     73.4593E-03     4.75922E-03     8.22495E-03     102.502E-03     80.2098E-03     24.2627E-03     194.490E-03    -72.6908E-03    -121.798E-03    -96.8427E-03     169.534E-03    -72.6908E-03     170.419E-03     18.8847E+06    -57.0177E+06    -78.5267E+06    -62.8572E+06    -72.6872E+06     18.8847E+06    -8.46374E+06         39.4089
            1933     10.2120E-03     125.091E-03     131.688E-03     73.7026E-03    -14.8011E-03    -13.9045E-03     130.791E-03     73.7026E-03     19.3988E-03     211.245E-03    -75.3382E-03    -135.911E-03    -109.604E-03     184.937E-03    -75.3382E-03     183.700E-03     28.8822E+06    -41.1310E+06    -64.2672E+06    -51.5799E+06    -53.8182E+06     28.8822E+06    -10.3793E+06         42.2319
            1934     11.1052E-03     125.187E-03     160.793E-03     66.9165E-03    -32.3238E-03    -31.4621E-03     159.932E-03     66.9165E-03     17.2013E-03     229.029E-03    -78.5251E-03    -150.499E-03    -123.701E-03     202.231E-03    -78.5251E-03     194.391E-03     39.1887E+06    -18.8559E+06    -49.4700E+06    -39.9122E+06    -28.4137E+06     39.1887E+06    -13.7435E+06         45.5521
            1935     11.9859E-03     125.312E-03     186.984E-03     60.3378E-03    -44.9441E-03    -43.5026E-03     185.542E-03     60.3378E-03     26.7838E-03     246.455E-03    -82.2342E-03    -164.180E-03    -137.759E-03     220.034E-03    -82.2342E-03     201.387E-03     52.9024E+06     22.1532E+06    -38.0544E+06    -29.1206E+06     13.2194E+06     52.9024E+06    -19.6411E+06         49.2731
            1936     12.8549E-03     125.456E-03     216.030E-03     53.8963E-03    -65.5142E-03    -63.9202E-03     214.437E-03     53.8963E-03     36.2889E-03     263.371E-03    -86.3814E-03    -176.964E-03    -151.782E-03     238.189E-03    -86.3814E-03     204.282E-03     84.3242E+06     66.5447E+06    -24.3129E+06    -19.7225E+06     74.2340E+06     72.0445E+06    -19.9190E+06         53.1903
            1937     13.7113E-03     125.631E-03     249.175E-03     46.9187E-03    -93.1795E-03    -92.6292E-03     248.625E-03     46.9187E-03     24.3456E-03     276.098E-03    -90.9737E-03    -185.127E-03    -166.350E-03     257.321E-03    -90.9737E-03     179.829E-03     97.4933E+06     83.2236E+06    -18.3058E+06    -15.5240E+06     94.7116E+06     83.2236E+06    -16.6673E+06         57.2972
            1938     14.5510E-03     125.766E-03     283.539E-03     39.4060E-03    -117.950E-03    -117.280E-03     282.869E-03     39.4060E-03     22.2452E-03     293.963E-03    -95.8876E-03    -198.167E-03    -179.837E-03     275.633E-03    -95.8876E-03     185.013E-03     86.2531E+06     79.6958E+06    -16.5685E+06    -14.1566E+06     83.2012E+06     80.3359E+06    -13.2661E+06         61.5100
            1939     15.3813E-03     126.003E-03     314.692E-03     31.5880E-03    -136.608E-03    -136.280E-03     314.364E-03     31.5880E-03     12.2281E-03     302.909E-03    -101.033E-03    -201.982E-03    -189.869E-03     290.797E-03    -101.033E-03     127.171E-03     106.807E+06     91.5961E+06    -7.98539E+06    -6.91907E+06     94.4569E+06     102.880E+06    -7.92435E+06         65.0402
            1940     950.533E-06     125.956E-03     167.085E-03     109.074E-03    -108.205E-03     86.0745E-03    -79.8533E-03     161.734E-03    -8.31378E-03     104.819E-03    -51.8977E-03    -52.9201E-03    -52.4168E-03     104.315E-03    -51.8977E-03     16.4289E-03    -29.8108E+06    -36.3756E+06    -66.0440E+06    -32.3090E+06    -65.0848E+06    -34.8366E+06    -750.918E+03         28.8003
            1941     1.89758E-03     125.957E-03     133.305E-03     108.732E-03    -72.5621E-03     115.051E-03    -67.6857E-03     122.109E-03     10.0149E-03     105.663E-03    -52.1441E-03    -53.5179E-03    -51.9673E-03     104.113E-03    -52.1441E-03     30.1784E-03    -38.4888E+06     -47.151E+06    -68.5618E+06    -41.6096E+06    -65.6349E+06    -46.9572E+06    -2.64867E+06         29.0186
            1942     2.84834E-03     125.958E-03     130.836E-03     107.060E-03    -65.4492E-03     114.683E-03    -61.7847E-03     119.548E-03     5.09839E-03     107.074E-03    -52.0986E-03    -54.9733E-03    -51.5552E-03     103.655E-03    -52.0986E-03     45.5875E-03    -53.1321E+06    -62.4004E+06    -90.7160E+06    -58.1798E+06    -85.6682E+06    -62.4004E+06     664.728E+03         29.3888
            1943     3.79797E-03     125.961E-03     125.355E-03     106.704E-03    -63.8275E-03     109.333E-03    -58.8066E-03     117.705E-03     22.2131E-03     110.700E-03    -52.1722E-03    -58.5295E-03    -52.3626E-03     104.533E-03    -52.1722E-03     62.5747E-03    -69.7130E+06    -74.9954E+06    -114.333E+06    -78.8881E+06    -105.316E+06    -74.8374E+06     7.62598E+06         29.9218
            1944     4.74500E-03     125.969E-03     116.955E-03     97.3434E-03    -45.3024E-03     94.9682E-03    -40.7217E-03     114.750E-03     17.7050E-03     116.967E-03    -52.6082E-03    -64.3530E-03    -54.4907E-03     107.105E-03    -52.6082E-03     81.4687E-03    -70.4472E+06    -82.3389E+06    -126.855E+06    -94.7348E+06    -113.682E+06    -71.2244E+06     14.4277E+06         30.6249
            1945     5.69150E-03     125.986E-03     110.836E-03     89.1702E-03    -25.4859E-03     85.3843E-03    -21.7000E-03     110.836E-03     36.3730E-03     126.045E-03    -53.4828E-03    -72.5593E-03    -58.4706E-03     111.956E-03    -53.4828E-03     101.492E-03    -52.6414E+06    -87.9076E+06    -125.236E+06    -101.478E+06    -111.665E+06    -52.6414E+06     15.4828E+06         31.5135
            1946     6.63183E-03     126.012E-03     106.513E-03     79.2404E-03    -7.90282E-03     71.5875E-03    -249.969E-06     106.513E-03     42.1980E-03     138.265E-03    -54.8421E-03    -83.4367E-03    -65.1065E-03     119.935E-03    -54.8421E-03     121.808E-03    -30.2878E+06    -89.3898E+06    -112.716E+06    -99.2001E+06    -102.906E+06    -30.2878E+06     10.6200E+06         32.6699
            1947     7.56523E-03     126.056E-03     101.221E-03     65.6420E-03     8.75643E-03     50.5816E-03     23.8168E-03     101.221E-03     44.9941E-03     153.258E-03    -56.7448E-03    -96.5180E-03    -74.1672E-03     130.907E-03    -56.7448E-03     142.409E-03    -11.0946E+06    -84.0824E+06    -95.9476E+06    -90.1538E+06    -89.8761E+06    -11.0946E+06     1.91568E+06         34.2474
            1948     8.49110E-03     126.114E-03     95.3362E-03     57.1857E-03     19.9536E-03     38.1114E-03     39.0280E-03     95.3362E-03     24.7118E-03     170.818E-03    -59.2474E-03    -111.567E-03    -85.8888E-03     145.140E-03    -59.2474E-03     162.300E-03     5.22030E+06    -68.7906E+06    -83.6965E+06    -77.0634E+06    -75.4237E+06     5.22030E+06    -7.03579E+06         36.3384
            1949     9.40497E-03     126.196E-03     93.9416E-03     65.4226E-03     15.1010E-03     21.7680E-03     63.3028E-03     89.3944E-03     13.7287E-03     190.745E-03    -62.4378E-03    -128.307E-03    -100.724E-03     163.162E-03    -62.4378E-03     179.250E-03     18.0173E+06    -50.3029E+06    -77.4887E+06    -63.7813E+06    -64.0103E+06     18.0173E+06    -13.3205E+06         38.9562
            1950     10.3057E-03     126.297E-03     107.318E-03     77.5383E-03    -8.56229E-03    -6.97323E-03     100.457E-03     82.8103E-03     22.8308E-03     212.670E-03    -66.3345E-03    -146.329E-03    -118.122E-03     184.463E-03    -66.3345E-03     193.106E-03     27.5530E+06    -30.3196E+06    -68.7921E+06    -51.1081E+06    -48.0035E+06     27.5530E+06    -18.7814E+06         42.0976
            1951     11.1902E-03     126.423E-03     130.502E-03     75.6706E-03    -26.2685E-03    -25.5499E-03     129.784E-03     75.6706E-03     14.9519E-03     235.517E-03    -70.9105E-03    -164.590E-03    -136.486E-03     207.413E-03    -70.9105E-03     204.387E-03     39.6721E+06    -2.14223E+06    -53.7726E+06    -37.8140E+06    -18.1008E+06     39.6721E+06    -23.0005E+06         45.7607
            1952     12.0596E-03     126.570E-03     155.832E-03     68.7344E-03    -38.3301E-03    -36.8985E-03     154.400E-03     68.7344E-03     25.3483E-03     258.014E-03    -76.1122E-03    -181.901E-03    -154.775E-03     230.888E-03    -76.1122E-03     211.484E-03     54.4726E+06     34.4491E+06    -38.3276E+06    -27.4556E+06     23.5770E+06     54.4726E+06    -24.4466E+06         49.8378
            1953     12.9135E-03     126.743E-03     185.762E-03     61.9556E-03    -57.6893E-03    -55.5592E-03     183.632E-03     61.9556E-03     40.5053E-03     279.750E-03    -81.8122E-03    -197.955E-03    -172.366E-03     254.161E-03    -81.8122E-03     214.964E-03     80.0738E+06     67.1831E+06    -26.6321E+06    -21.8881E+06     71.7528E+06     70.7600E+06    -19.6080E+06         54.0555
            1954     13.7509E-03     126.944E-03     219.564E-03     54.9141E-03    -81.2504E-03    -79.0838E-03     217.397E-03     54.9141E-03     45.6403E-03     293.471E-03    -87.8584E-03    -205.621E-03    -186.351E-03     274.200E-03    -87.8584E-03     190.038E-03     91.9693E+06     79.7717E+06    -19.6471E+06    -17.9957E+06     89.1437E+06     80.9460E+06    -12.9454E+06         58.3485
            1955     14.5775E-03     127.100E-03     252.174E-03     47.5660E-03    -105.333E-03    -103.407E-03     250.248E-03     47.5660E-03     48.3953E-03     311.508E-03    -94.0180E-03    -217.517E-03    -198.439E-03     292.430E-03    -94.0180E-03     195.849E-03     84.9554E+06     81.3634E+06    -14.3652E+06    -12.6638E+06     81.3715E+06     83.2459E+06    -11.4550E+06         62.6252
            1956     15.3952E-03     127.361E-03     275.291E-03     39.9149E-03    -123.217E-03    -122.563E-03     274.637E-03     39.9149E-03     16.2276E-03     319.755E-03    -100.190E-03    -219.641E-03    -206.948E-03     307.062E-03    -100.190E-03     136.669E-03     104.578E+06     86.5340E+06    -8.26696E+06    -7.06481E+06     85.3318E+06     104.578E+06    -8.80092E+06         66.1388
            1957     961.446E-06     127.051E-03     174.620E-03     130.516E-03    -144.563E-03     106.494E-03    -115.190E-03     169.268E-03     10.6742E-03     77.2280E-03    -38.3003E-03    -38.9244E-03    -38.2623E-03     76.6648E-03    -38.3993E-03     15.0858E-03    -55.4191E+06    -74.2684E+06    -82.7886E+06    -69.8655E+06    -65.6401E+06    -76.9706E+06     3.13846E+06         27.1233
            1958     1.92613E-03     127.051E-03     139.990E-03     116.565E-03    -98.1375E-03     117.451E-03    -92.7702E-03     133.737E-03    -9.19394E-03     77.4516E-03    -38.0534E-03    -39.3959E-03    -37.5498E-03     75.7045E-03    -38.1524E-03     27.3714E-03    -63.3623E+06    -93.8737E+06    -101.754E+06    -86.9549E+06    -74.4754E+06    -97.5594E+06     11.2765E+06         27.4016
            1959     2.88879E-03     127.050E-03     127.392E-03     110.549E-03    -82.7627E-03     107.432E-03    -78.7449E-03     126.490E-03    -23.1876E-03     80.0528E-03    -38.1059E-03    -41.9567E-03    -38.0190E-03     76.1151E-03    -38.1059E-03     42.3079E-03    -79.3535E+06    -104.506E+06    -126.812E+06    -105.627E+06    -100.538E+06    -104.506E+06     22.4280E+06         27.8651
            1960     3.85129E-03     127.056E-03     124.535E-03     113.834E-03    -86.4261E-03     114.225E-03    -84.6112E-03     122.330E-03     5.66093E-03     85.7544E-03    -38.4902E-03    -47.2899E-03    -40.1052E-03     78.5697E-03    -38.4902E-03     59.4953E-03    -89.1963E+06    -100.533E+06    -148.207E+06    -120.222E+06    -117.340E+06    -100.375E+06     28.8638E+06         28.5291
            1961     4.81107E-03     127.068E-03     122.669E-03     111.838E-03    -81.3021E-03     111.505E-03    -78.7638E-03     120.464E-03     12.2291E-03     94.8915E-03    -39.3949E-03    -55.4945E-03    -44.2258E-03     83.6228E-03    -39.3949E-03     78.7847E-03    -83.2967E+06     -94.241E+06    -148.214E+06    -124.071E+06    -118.233E+06    -83.4471E+06     26.6982E+06         29.4100
            1962     5.76515E-03     127.091E-03     116.888E-03     85.5195E-03    -43.3348E-03     84.1165E-03    -41.9318E-03     116.888E-03     19.2560E-03     107.422E-03    -40.8729E-03    -66.5409E-03    -50.6688E-03     91.5502E-03    -40.8729E-03     99.9347E-03    -58.3769E+06    -91.5737E+06    -131.318E+06    -116.039E+06    -106.852E+06    -58.3769E+06     19.1075E+06         30.5174
            1963     6.71267E-03     127.133E-03     110.748E-03     65.3931E-03    -11.4242E-03     62.0596E-03    -8.09073E-03     110.748E-03     17.6416E-03     123.023E-03    -42.9450E-03    -80.0909E-03    -59.6208E-03     102.552E-03    -42.9450E-03     122.137E-03    -32.9371E+06    -85.9155E+06    -108.346E+06    -101.324E+06    -92.9372E+06    -32.9371E+06     8.20049E+06         31.8759
            1964     7.65180E-03     127.189E-03     104.447E-03     61.0633E-03    -2.73562E-03     57.3563E-03     971.397E-06     104.447E-03     13.5662E-03     141.855E-03    -45.6485E-03    -96.2199E-03    -71.5477E-03     117.183E-03    -45.6485E-03     145.038E-03    -11.7130E+06    -72.4591E+06    -89.6880E+06    -86.3190E+06    -75.8281E+06    -11.7130E+06    -2.88929E+06         33.6106
            1965     8.57853E-03     127.269E-03     99.1742E-03     60.0414E-03     1.01970E-03     52.1270E-03     8.93417E-03     99.1742E-03     19.2817E-03     164.379E-03    -49.1096E-03    -115.258E-03    -87.1401E-03     136.261E-03    -49.1096E-03     168.113E-03     3.78664E+06    -55.1196E+06    -82.7306E+06    -74.5228E+06    -63.3273E+06     3.78664E+06    -12.0076E+06         35.8885
            1966     9.49146E-03     127.373E-03     93.7910E-03     66.4820E-03     589.837E-06     27.4549E-03     39.6169E-03     93.7910E-03     47.9359E-03     189.357E-03    -53.3829E-03    -135.966E-03    -105.947E-03     159.338E-03    -53.3829E-03     188.177E-03     15.1440E+06    -37.6474E+06    -79.4749E+06    -63.4130E+06    -53.7094E+06     15.1440E+06    -20.0665E+06         38.7493
            1967     10.3869E-03     127.504E-03     91.4679E-03     77.4160E-03    -5.55679E-03     210.457E-06     75.8281E-03     87.2886E-03     36.1591E-03     216.037E-03    -58.4565E-03    -157.591E-03    -126.846E-03     185.292E-03    -58.4565E-03     205.219E-03     26.4748E+06    -14.9138E+06     -72.469E+06    -51.1459E+06    -36.2368E+06     26.4748E+06    -27.7131E+06         42.1616
            1968     11.2653E-03     127.660E-03     110.381E-03     80.0617E-03    -21.6075E-03    -20.4507E-03     109.225E-03     80.0617E-03     19.7652E-03     243.428E-03    -64.2700E-03    -179.161E-03    -148.761E-03     213.028E-03    -64.2700E-03     218.182E-03     36.7432E+06     8.37922E+06    -60.5407E+06    -40.5328E+06    -11.6287E+06     36.7432E+06    -30.6684E+06         46.1122
            1969     12.1253E-03     127.841E-03     139.826E-03     72.5021E-03    -42.8185E-03    -41.6267E-03     138.634E-03     72.5021E-03     22.6497E-03     270.965E-03    -70.7570E-03    -200.224E-03    -170.910E-03     241.651E-03    -70.7570E-03     227.463E-03     49.8764E+06     35.0128E+06    -44.2792E+06    -32.4298E+06     23.1634E+06     49.8764E+06    -26.6532E+06         50.4753
            1970     12.9645E-03     128.050E-03     157.748E-03     65.0787E-03    -49.5757E-03    -47.8799E-03     156.053E-03     65.0787E-03     32.8937E-03     296.165E-03    -77.7619E-03    -218.415E-03    -190.747E-03     268.498E-03    -77.7619E-03     231.926E-03     71.7958E+06     59.5394E+06    -29.5082E+06    -24.8007E+06     63.4139E+06     63.2138E+06    -19.5915E+06         54.9090
            1971     13.7891E-03     128.277E-03     179.869E-03     58.0459E-03    -61.4080E-03    -59.3102E-03     177.771E-03     58.0459E-03     42.5979E-03     310.772E-03    -85.0660E-03    -225.683E-03    -204.968E-03     290.057E-03    -85.0660E-03     204.397E-03     88.0382E+06     77.3400E+06    -19.1192E+06    -16.9812E+06     84.7260E+06     78.5142E+06    -14.4769E+06         59.2820
            1972     14.6019E-03     128.451E-03     208.499E-03     50.9255E-03    -82.5461E-03    -81.0121E-03     206.965E-03     50.9255E-03     36.5382E-03     328.349E-03    -92.3487E-03    -236.005E-03    -216.025E-03     308.368E-03    -92.3487E-03     207.320E-03     87.4680E+06     82.4588E+06    -11.8556E+06    -10.0429E+06     81.5881E+06     86.5260E+06    -12.0506E+06         63.5427
            1973     15.4070E-03     128.738E-03     240.150E-03     43.5331E-03    -101.204E-03    -100.806E-03     239.752E-03     43.5331E-03     1.58680E-03     334.117E-03    -99.4504E-03    -234.835E-03    -221.782E-03     321.064E-03    -99.4504E-03     143.091E-03     105.173E+06     75.9067E+06    -5.44218E+06    -4.35276E+06     74.8173E+06     105.173E+06    -7.23381E+06         67.0232
            1974     974.537E-06     128.115E-03     166.103E-03     101.646E-03    -127.419E-03     99.4500E-03    -112.640E-03     153.520E-03     21.3345E-03     51.9019E-03    -25.6947E-03    -26.2048E-03    -25.5361E-03     51.3399E-03    -25.8014E-03     12.2479E-03    -79.9697E+06    -135.621E+06    -148.072E+06    -139.767E+06    -86.2688E+06    -137.626E+06     17.5110E+06         25.7349
            1975     1.94972E-03     128.115E-03     146.212E-03     118.087E-03    -117.884E-03     128.209E-03    -108.681E-03     126.887E-03    -33.5445E-03     53.0764E-03    -25.5813E-03    -27.4937E-03    -25.5786E-03     51.2603E-03    -25.6803E-03     23.0815E-03    -84.6135E+06    -149.744E+06    -170.743E+06    -155.774E+06    -96.5935E+06    -152.733E+06     27.7442E+06         26.0462
            1976     2.92506E-03     128.116E-03     133.255E-03     118.208E-03    -112.307E-03     122.231E-03    -109.588E-03     126.513E-03    -1.82485E-03     57.4965E-03    -26.0276E-03    -31.4804E-03    -27.3207E-03     53.3369E-03    -26.0276E-03     36.9716E-03    -99.5033E+06    -146.435E+06    -179.717E+06    -159.998E+06    -119.222E+06    -146.435E+06     33.2939E+06         26.5691
            1977     3.89707E-03     128.124E-03     122.995E-03     105.265E-03    -88.2915E-03     100.721E-03    -83.7476E-03     122.995E-03    -7.38744E-03     65.3781E-03    -26.9404E-03    -38.4653E-03    -30.8733E-03     57.7861E-03    -26.9404E-03     53.7083E-03    -101.316E+06    -120.772E+06    -169.349E+06    -147.187E+06    -123.479E+06    -120.772E+06     30.7438E+06         27.3272
            1978     4.86500E-03     128.144E-03     118.073E-03     102.316E-03    -77.3286E-03     97.8860E-03    -72.8986E-03     118.073E-03    -9.10678E-03     76.9591E-03    -28.4133E-03    -48.5611E-03    -36.6704E-03     65.0684E-03    -28.4133E-03     73.2992E-03    -88.0019E+06    -99.3443E+06    -144.541E+06    -127.827E+06    -114.159E+06    -89.9009E+06     22.0535E+06         28.3458
            1979     5.82611E-03     128.178E-03     113.877E-03     92.7491E-03    -60.0360E-03     90.0624E-03    -57.3493E-03     113.877E-03     23.9330E-03     91.9790E-03    -30.4617E-03    -61.5252E-03    -44.7222E-03     75.1760E-03    -30.4617E-03     95.7151E-03    -62.4172E+06    -90.1497E+06    -117.680E+06    -109.936E+06    -97.8942E+06    -62.4172E+06     12.0587E+06         29.6497
            1980     6.77964E-03     128.231E-03     109.210E-03     76.4840E-03    -35.4315E-03     72.7748E-03    -31.7223E-03     109.210E-03     33.0165E-03     110.302E-03    -33.1352E-03    -77.1744E-03    -55.3749E-03     88.5023E-03    -33.1352E-03     120.123E-03    -38.1974E+06    -78.6137E+06    -98.1309E+06    -96.0452E+06    -80.6995E+06    -38.1974E+06     2.19697E+06         31.2247
            1981     7.72229E-03     128.308E-03     104.392E-03     69.1151E-03    -20.9572E-03     67.2957E-03    -19.1378E-03     104.392E-03     11.7052E-03     132.776E-03    -36.5273E-03    -96.2485E-03    -69.7166E-03     106.244E-03    -36.5273E-03     146.529E-03    -16.0984E+06    -59.4950E+06    -87.8320E+06    -85.1565E+06    -62.1706E+06    -16.0984E+06    -7.69021E+06         33.1441
            1982     8.65175E-03     128.412E-03     99.6508E-03     62.2777E-03    -12.8889E-03     53.9712E-03    -4.58246E-03     99.6508E-03     22.3936E-03     159.562E-03    -40.7400E-03    -118.791E-03    -88.0974E-03     128.868E-03    -40.7400E-03     174.281E-03     1.66109E+06    -40.3797E+06    -83.0784E+06    -72.9785E+06    -50.4796E+06     1.66109E+06    -17.5048E+06         35.6011
            1983     9.56343E-03     128.546E-03     93.9171E-03     57.4386E-03    -5.08090E-03     29.7134E-03     22.6444E-03     93.9171E-03     50.8699E-03     189.104E-03    -45.8371E-03    -143.246E-03    -110.029E-03     155.887E-03    -45.8371E-03     199.180E-03     15.7671E+06    -20.5161E+06    -78.7551E+06    -59.5629E+06    -39.7084E+06     15.7671E+06    -27.2673E+06         38.6630
            1984     10.4570E-03     128.709E-03     87.2983E-03     64.9511E-03    -5.08853E-03     5.37826E-03     54.7773E-03     87.0053E-03     28.6950E-03     220.112E-03    -51.8176E-03    -168.302E-03    -134.182E-03     185.993E-03    -51.8176E-03     219.703E-03     27.7522E+06    -1.56612E+06    -71.4351E+06    -47.9100E+06    -25.0912E+06     27.7522E+06    -32.9633E+06         42.2892
            1985     11.3300E-03     128.902E-03     92.1842E-03     73.7102E-03    -19.6095E-03    -18.0524E-03     85.0257E-03     79.3116E-03     18.2389E-03     252.142E-03    -58.6062E-03    -193.539E-03    -159.687E-03     218.290E-03    -58.6062E-03     235.884E-03     35.3694E+06     10.1626E+06    -61.7872E+06    -41.2144E+06    -10.4102E+06     35.3694E+06    -32.0580E+06         46.4603
            1986     12.1806E-03     129.122E-03     116.388E-03     71.2480E-03    -36.8101E-03    -36.0161E-03     115.594E-03     71.2480E-03     17.2950E-03     283.561E-03    -66.1170E-03    -217.467E-03    -184.731E-03     250.825E-03    -66.1170E-03     247.405E-03     46.4077E+06     31.8459E+06    -49.9664E+06    -37.1511E+06     19.3741E+06     46.0642E+06    -28.3981E+06         51.0408
            1987     13.0128E-03     129.371E-03     143.797E-03     63.2536E-03    -49.4846E-03    -49.0285E-03     143.341E-03     63.2536E-03     16.8270E-03     311.397E-03    -74.1543E-03    -237.260E-03    -206.827E-03     280.964E-03    -74.1543E-03     250.846E-03     67.3678E+06     52.7227E+06    -37.9519E+06    -30.8253E+06     57.4231E+06     55.5407E+06    -25.6368E+06         55.6195
            1988     13.8262E-03     129.628E-03     163.026E-03     55.5526E-03    -60.9238E-03    -59.8078E-03     161.910E-03     55.5526E-03     30.8726E-03     327.297E-03    -82.5435E-03    -244.730E-03    -222.387E-03     304.954E-03    -82.5435E-03     219.042E-03     86.9719E+06     70.6547E+06    -25.8455E+06    -21.2462E+06     78.4811E+06     74.5463E+06    -20.9903E+06         60.0215
            1989     14.6220E-03     129.831E-03     180.313E-03     48.2624E-03    -64.8941E-03    -63.9237E-03     179.343E-03     48.2624E-03     28.2264E-03     344.066E-03    -90.8353E-03    -253.204E-03    -232.158E-03     323.020E-03    -90.8353E-03     218.972E-03     86.8822E+06     76.3324E+06    -16.3032E+06    -13.6894E+06     74.6607E+06     85.9402E+06    -14.0925E+06         64.2496
            1990     15.4137E-03     130.128E-03     210.439E-03     41.2897E-03    -80.7866E-03    -80.4031E-03     210.055E-03     41.2897E-03     13.3081E-03     348.164E-03    -98.7510E-03    -249.498E-03    -235.686E-03     334.353E-03    -98.7510E-03     153.481E-03     103.900E+06     64.2072E+06    -9.57632E+06    -8.24548E+06     62.8764E+06     103.900E+06    -8.00910E+06         67.6920
            1991     985.993E-06     129.156E-03     162.720E-03     89.0808E-03    -125.501E-03     125.216E-03    -103.033E-03     104.116E-03     31.9447E-03     30.9193E-03    -14.9988E-03    -15.9215E-03    -15.3881E-03     30.3938E-03    -15.0065E-03     9.03608E-03    -115.871E+06    -227.504E+06    -239.806E+06    -230.916E+06    -121.282E+06    -230.982E+06     21.5270E+06         24.5685
            1992     1.96991E-03     129.155E-03     151.261E-03     113.250E-03    -139.029E-03     138.105E-03    -132.035E-03     119.411E-03    -26.2699E-03     34.6767E-03    -15.6926E-03    -18.9858E-03    -17.1306E-03     32.8214E-03    -15.6926E-03     18.9890E-03    -109.826E+06    -205.024E+06    -222.193E+06    -212.268E+06    -118.030E+06    -206.745E+06     26.4646E+06         24.9050
            1993     2.95174E-03     129.159E-03     127.707E-03     104.143E-03    -104.536E-03     108.988E-03    -103.541E-03     121.866E-03    -1.91217E-03     41.2563E-03    -16.7876E-03    -24.4708E-03    -20.2251E-03     37.0106E-03    -16.7876E-03     31.9588E-03    -116.967E+06    -176.053E+06    -196.367E+06    -187.011E+06    -124.940E+06    -177.436E+06     20.6725E+06         25.4762
            1994     3.93048E-03     129.174E-03     116.276E-03     93.7726E-03    -80.7574E-03     89.9120E-03    -76.8967E-03     116.276E-03    -22.0777E-03     50.9379E-03    -18.3171E-03    -32.6248E-03    -24.9917E-03     43.3048E-03    -18.3171E-03     47.9518E-03    -114.421E+06    -145.134E+06    -166.479E+06    -160.092E+06    -120.808E+06    -145.134E+06     10.7174E+06         26.3031
            1995     4.90354E-03     129.202E-03     110.417E-03     90.8035E-03    -70.0181E-03     86.7187E-03    -65.9333E-03     110.417E-03    -15.9156E-03     63.7852E-03    -20.3141E-03    -43.4740E-03    -31.4299E-03     51.7410E-03    -20.3141E-03     67.6056E-03    -99.5646E+06    -116.706E+06    -139.713E+06    -134.797E+06    -108.813E+06    -112.373E+06     4.20066E+06         27.4178
            1996     5.87069E-03     129.249E-03     106.684E-03     96.6716E-03    -73.8264E-03     93.9595E-03    -71.1144E-03     106.684E-03     31.0510E-03     80.0685E-03    -22.8104E-03    -57.2597E-03    -40.0863E-03     62.8952E-03    -22.8104E-03     90.7901E-03    -74.6726E+06    -91.5829E+06    -116.999E+06    -113.906E+06    -89.6878E+06    -79.6605E+06    -942.745E+03         28.8726
            1997     6.82851E-03     129.317E-03     104.152E-03     95.4457E-03    -69.5603E-03     90.5177E-03    -64.6322E-03     104.152E-03     21.6375E-03     100.676E-03    -25.9212E-03    -74.7622E-03    -52.0685E-03     77.9820E-03    -25.9212E-03     117.709E-03    -47.5312E+06    -66.6380E+06    -98.5476E+06    -94.7408E+06    -69.9970E+06    -47.9789E+06    -7.72628E+06         30.6459
            1998     7.77490E-03     129.414E-03     100.409E-03     73.2337E-03    -41.6319E-03     67.0275E-03    -35.4257E-03     100.409E-03    -20.9491E-03     125.880E-03    -29.7758E-03    -96.1177E-03    -67.8795E-03     97.6414E-03    -29.7758E-03     147.884E-03    -19.0774E+06    -44.2607E+06    -83.5801E+06    -76.2660E+06    -51.5748E+06    -19.0774E+06    -14.1991E+06         32.7600
            1999     8.70609E-03     129.543E-03     94.5893E-03     48.1137E-03    -12.8862E-03     42.6814E-03    -7.45398E-03     94.5893E-03    -5.25213E-03     155.775E-03    -34.4520E-03    -121.322E-03    -88.0150E-03     122.468E-03    -34.4520E-03     180.136E-03     3.97909E+06    -23.3749E+06    -75.7041E+06    -62.5436E+06    -36.5354E+06     3.97909E+06    -22.0731E+06         35.3831
            2000     9.62093E-03     129.711E-03     87.8110E-03     38.9445E-03     1.97554E-03     30.5064E-03     10.4136E-03     87.8110E-03     27.7684E-03     188.737E-03    -40.0373E-03    -148.676E-03    -112.127E-03     152.188E-03    -40.0373E-03     209.534E-03     19.1854E+06    -5.78403E+06    -73.6796E+06    -54.9026E+06    -24.5611E+06     19.1854E+06    -30.1265E+06         38.5944
            2001     10.5130E-03     129.912E-03     80.7423E-03     48.8174E-03     1.13078E-03     13.6199E-03     36.3283E-03     80.7423E-03     21.8635E-03     223.612E-03    -46.5775E-03    -177.010E-03    -139.209E-03     185.811E-03    -46.5775E-03     233.993E-03     27.2947E+06     1.95423E+06    -72.4873E+06    -50.9830E+06    -19.5501E+06     27.2947E+06    -33.5976E+06         42.3595
            2002     11.3833E-03     130.144E-03     81.0619E-03     63.3446E-03    -13.2183E-03    -10.9618E-03     69.0799E-03     73.0702E-03     16.3660E-03     259.961E-03    -54.0346E-03    -205.921E-03    -168.059E-03     222.098E-03    -54.0346E-03     254.329E-03     35.1883E+06     9.32657E+06    -65.0879E+06    -44.5142E+06    -11.2472E+06     35.1883E+06    -32.7987E+06         46.6582
            2003     12.2303E-03     130.412E-03     97.5351E-03     64.8270E-03    -32.0394E-03    -31.0357E-03     96.5314E-03     64.8270E-03     20.1587E-03     294.969E-03    -62.2994E-03    -232.682E-03    -196.346E-03     258.634E-03    -62.2994E-03     266.906E-03     49.3761E+06     36.7506E+06    -49.4829E+06    -33.7795E+06     21.4216E+06     49.0017E+06    -32.0940E+06         51.3559
            2004     13.0536E-03     130.698E-03     123.834E-03     56.4156E-03    -45.5737E-03    -44.9199E-03     123.181E-03     56.4156E-03     15.0154E-03     325.462E-03    -71.1441E-03    -254.323E-03    -220.972E-03     292.110E-03    -71.1441E-03     269.644E-03     66.1499E+06     55.6108E+06    -32.5037E+06    -23.2404E+06       53.28E+06     59.2174E+06    -27.5750E+06         55.9985
            2005     13.8538E-03     131.003E-03     143.686E-03     48.3976E-03    -54.4123E-03    -53.6125E-03     142.886E-03     48.3976E-03     18.1690E-03     340.945E-03    -80.3272E-03    -260.638E-03    -235.989E-03     316.296E-03    -80.3272E-03     235.863E-03     82.1464E+06     65.5725E+06    -22.0816E+06    -17.3698E+06     69.9364E+06     73.0707E+06    -19.9668E+06         60.4092
            2006     14.6436E-03     131.220E-03     163.052E-03     40.9835E-03    -61.1914E-03    -59.5881E-03     161.449E-03     40.9835E-03     33.8234E-03     356.012E-03    -89.3450E-03    -266.678E-03    -243.990E-03     333.325E-03    -89.3450E-03     232.236E-03     87.7502E+06     67.9944E+06    -17.4832E+06    -14.0331E+06     67.0620E+06     85.2326E+06    -15.0076E+06         64.6274
            2007     15.4321E-03     131.540E-03     185.573E-03     33.9200E-03    -78.6840E-03    -77.4248E-03     184.314E-03     33.9200E-03     22.8905E-03     363.189E-03    -97.9533E-03    -265.268E-03    -250.271E-03     348.192E-03    -97.9533E-03     168.326E-03     105.384E+06     50.6823E+06    -9.74847E+06    -7.58460E+06     48.5184E+06     105.384E+06    -9.42526E+06         68.0409
            2008     992.255E-06     130.176E-03     165.575E-03     99.9074E-03    -164.957E-03     123.555E-03    -135.302E-03     112.273E-03    -8.60018E-03     18.0721E-03    -8.55930E-03    -9.51366E-03    -9.12849E-03     17.6974E-03    -8.56983E-03     5.81755E-03    -139.371E+06    -270.326E+06    -276.578E+06    -271.421E+06    -141.050E+06    -273.804E+06    -157.532E+03         23.7278
            2009     1.98322E-03     130.181E-03     128.690E-03     94.8213E-03    -115.681E-03     105.209E-03    -112.643E-03     115.264E-03    -8.74600E-03     22.6995E-03    -9.46228E-03    -13.2371E-03    -11.6355E-03     21.0979E-03    -9.46228E-03     14.4030E-03    -120.383E+06    -242.009E+06    -246.793E+06    -241.523E+06    -123.051E+06    -244.611E+06    -1.45209E+06         24.0814
            2010     2.96956E-03     130.190E-03     115.481E-03     95.9262E-03    -100.978E-03     99.0984E-03    -99.3826E-03     110.713E-03     8.50514E-03     30.7403E-03    -10.8455E-03    -19.8939E-03    -15.7653E-03     26.6117E-03    -10.8455E-03     27.4881E-03    -113.456E+06    -213.989E+06    -223.321E+06    -210.900E+06    -116.907E+06    -222.959E+06    -9.30237E+06         24.6868
            2011     3.95104E-03     130.212E-03     112.501E-03     96.7349E-03    -95.8883E-03     100.131E-03    -94.5171E-03     107.733E-03     26.6864E-03     41.7722E-03    -12.7451E-03    -29.0266E-03    -21.3021E-03     34.0477E-03    -12.7451E-03     44.0344E-03    -102.790E+06    -186.431E+06    -196.136E+06    -181.890E+06    -109.668E+06    -193.798E+06    -19.6614E+06         25.5634
            2012     4.92747E-03     130.249E-03     104.577E-03     84.4859E-03    -73.5388E-03     83.3675E-03    -72.4204E-03     104.577E-03     24.8827E-03     55.5971E-03    -15.1560E-03    -40.4348E-03    -28.3254E-03     43.4877E-03    -15.1560E-03     63.7013E-03    -92.5368E+06    -150.121E+06    -164.247E+06    -151.029E+06    -105.094E+06    -150.782E+06    -24.4417E+06         26.7447
            2013     5.89721E-03     130.306E-03     100.057E-03     76.0820E-03    -65.1364E-03     73.7817E-03    -62.8361E-03     100.057E-03     31.7705E-03     72.9129E-03    -18.0346E-03    -54.8696E-03    -37.5888E-03     55.6321E-03    -18.0346E-03     87.3825E-03    -70.9150E+06    -103.617E+06    -133.863E+06    -119.316E+06    -85.4627E+06    -103.617E+06    -23.9436E+06         28.2941
            2014     6.85844E-03     130.391E-03     95.6135E-03     79.2778E-03    -68.2927E-03     71.9070E-03    -60.9219E-03     95.6135E-03     25.0902E-03     94.4558E-03    -21.4620E-03    -72.9970E-03    -49.8913E-03     71.3501E-03    -21.4620E-03     115.497E-03    -46.2738E+06    -63.2882E+06    -108.312E+06    -93.4734E+06    -63.1335E+06    -61.2671E+06    -25.0195E+06         30.1998
            2015     7.80725E-03     130.509E-03     90.6956E-03     64.7316E-03    -50.2098E-03     55.2162E-03    -40.6944E-03     90.6956E-03    -9.18865E-03     121.173E-03    -25.5672E-03    -95.5970E-03    -66.2590E-03     91.8346E-03    -25.5672E-03     148.291E-03    -22.2877E+06    -34.5924E+06    -90.6545E+06    -75.1678E+06    -45.9275E+06    -26.4392E+06    -26.0418E+06         32.4549
            2016     8.74214E-03     130.665E-03     84.4838E-03     44.5929E-03    -23.6229E-03     37.1267E-03    -16.1568E-03     84.4838E-03     2.70602E-03     153.188E-03    -30.4802E-03    -122.718E-03    -87.5309E-03     118.001E-03    -30.4802E-03     184.008E-03     2.33875E+06    -11.2411E+06    -76.2169E+06    -60.8947E+06    -25.7336E+06     1.50898E+06    -27.6429E+06         35.1902
            2017     9.65638E-03     130.866E-03     77.4847E-03     35.3859E-03    -8.12226E-03     23.2048E-03     4.05881E-03     77.4847E-03     35.6878E-03     188.125E-03    -36.3302E-03    -151.811E-03    -112.798E-03     149.112E-03    -36.3302E-03     216.536E-03     22.5646E+06     2.43394E+06    -67.1031E+06    -48.9011E+06    -15.7680E+06     22.5646E+06    -30.2455E+06         38.4740
            2018     10.5517E-03     131.105E-03     70.1686E-03     42.4193E-03    -3.65225E-03     12.5834E-03     26.1837E-03     70.1686E-03     40.5688E-03     226.024E-03    -43.1695E-03    -182.839E-03    -142.085E-03     185.270E-03    -43.1695E-03     244.735E-03     37.6352E+06     6.87741E+06    -59.9595E+06    -38.0341E+06    -15.0480E+06     37.6352E+06    -30.6675E+06         42.2694
            2019     11.4212E-03     131.386E-03     68.9937E-03     53.8020E-03    -12.5959E-03    -5.96162E-03     53.7787E-03     62.3826E-03     28.0597E-03     265.504E-03    -50.9913E-03    -214.492E-03    -173.944E-03     224.957E-03    -50.9913E-03     266.636E-03     48.7236E+06     18.6223E+06    -51.8816E+06    -27.8391E+06    -5.42024E+06     48.7236E+06    -32.8935E+06         46.5446
            2020     12.2654E-03     131.698E-03     84.7831E-03     52.9766E-03    -29.9939E-03    -28.6909E-03     82.6397E-03     53.8171E-03     22.5766E-03     303.007E-03    -59.7089E-03    -243.278E-03    -204.608E-03     264.337E-03    -59.7089E-03     279.902E-03     59.1054E+06     39.5401E+06    -39.2677E+06    -21.4600E+06     21.7634E+06     59.0744E+06    -31.3850E+06         51.1767
            2021     13.0824E-03     132.040E-03     104.996E-03     45.1332E-03    -37.8499E-03    -36.6357E-03     103.781E-03     45.1332E-03     18.9296E-03     333.804E-03    -69.0242E-03    -264.777E-03    -229.006E-03     298.032E-03    -69.0242E-03     283.477E-03     67.3278E+06     54.2155E+06    -29.8896E+06    -21.4384E+06     45.7953E+06     67.2968E+06    -24.7936E+06         55.7674
            2022     13.8836E-03     132.377E-03     122.733E-03     37.1901E-03    -45.1012E-03    -44.4920E-03     122.124E-03     37.1901E-03     12.9518E-03     349.359E-03    -78.6023E-03    -270.777E-03    -243.950E-03     322.531E-03    -78.6023E-03     249.792E-03     82.5135E+06     66.2290E+06    -24.2365E+06    -18.9795E+06     63.4897E+06     79.9959E+06    -20.4244E+06         60.1946
            2023     14.6674E-03     132.629E-03     146.919E-03     29.5866E-03    -65.0656E-03    -62.8437E-03     144.697E-03     29.5866E-03     39.1817E-03     365.122E-03    -88.1354E-03    -276.995E-03    -254.286E-03     342.413E-03    -88.1354E-03     236.705E-03     96.9028E+06     60.7980E+06    -14.8636E+06    -11.0702E+06     59.5222E+06     94.3852E+06    -14.9137E+06         64.4478
            2024     15.4456E-03     132.951E-03     165.862E-03     22.1587E-03    -79.9680E-03    -77.6620E-03     163.556E-03     22.1587E-03     13.0195E-03     374.241E-03    -97.3861E-03    -276.862E-03    -262.222E-03     359.601E-03    -97.3861E-03     175.215E-03     117.153E+06     36.2324E+06    -7.32441E+06    -4.64572E+06     33.5537E+06     117.153E+06    -9.20488E+06         67.8615
            2025     993.317E-06     131.191E-03     136.435E-03     97.3944E-03    -159.369E-03     106.207E-03    -141.506E-03     109.760E-03    -42.3644E-03     15.0987E-03    -7.22961E-03    -7.86911E-03    -7.67647E-03     14.9383E-03    -7.26185E-03     3.28261E-03    -125.822E+06    -229.238E+06    -237.057E+06    -234.827E+06    -128.052E+06    -229.238E+06    -15.0671E+06         23.4525
            2026     1.98507E-03     131.196E-03     110.678E-03     88.4910E-03    -119.606E-03     91.4407E-03    -116.501E-03     104.623E-03     12.4411E-03     18.6809E-03    -7.96453E-03    -10.7149E-03    -9.78081E-03     17.7468E-03    -7.96453E-03     9.52856E-03    -103.949E+06    -217.785E+06    -230.875E+06    -224.369E+06    -109.574E+06    -218.666E+06    -24.1488E+06         23.7809
            2027     2.97529E-03     131.212E-03     104.777E-03     91.9912E-03    -113.402E-03     93.1290E-03    -109.772E-03     100.010E-03     15.2614E-03     25.5328E-03    -9.11351E-03    -16.4166E-03    -13.3946E-03     22.5107E-03    -9.11351E-03     21.1662E-03    -85.8398E+06    -204.645E+06    -228.141E+06    -208.766E+06    -97.6273E+06    -212.233E+06    -35.7972E+06         24.3494
            2028     3.96044E-03     131.241E-03     102.734E-03     91.6479E-03    -107.808E-03     92.5717E-03    -103.742E-03     97.7453E-03    -6.82913E-03     36.1615E-03    -10.8088E-03    -25.3551E-03    -18.7848E-03     29.5912E-03    -10.8088E-03     37.7811E-03    -71.0323E+06    -188.477E+06    -217.474E+06    -190.153E+06    -90.9864E+06    -195.844E+06    -47.4632E+06         25.1992
            2029     4.93873E-03     131.289E-03     94.9797E-03     82.2669E-03    -92.3961E-03     79.5352E-03    -89.4430E-03     94.7584E-03    -11.5770E-03     50.8344E-03    -13.1386E-03    -37.6975E-03    -26.4347E-03     39.5716E-03    -13.1386E-03     58.9467E-03    -63.1438E+06    -164.082E+06    -199.373E+06    -167.250E+06    -94.6052E+06    -164.743E+06    -56.2929E+06         26.3833
            2030     5.90896E-03     131.360E-03     90.0246E-03     68.7218E-03    -74.3420E-03     64.1608E-03    -69.7811E-03     90.0246E-03    -10.3684E-03     69.5221E-03    -16.0355E-03    -53.4855E-03    -36.6134E-03     52.6500E-03    -16.0355E-03     84.6221E-03    -44.6421E+06    -133.853E+06    -174.565E+06    -137.441E+06    -81.7658E+06    -133.853E+06    -58.5777E+06         27.9594
            2031     6.86895E-03     131.460E-03     84.6084E-03     63.6399E-03    -64.7655E-03     56.4797E-03    -57.6054E-03     84.6084E-03     16.7120E-03     92.1568E-03    -19.6304E-03    -72.5292E-03    -49.6577E-03     69.2853E-03    -19.6304E-03     113.898E-03    -28.0919E+06    -91.2283E+06    -141.709E+06    -105.465E+06    -64.3366E+06    -91.2283E+06    -52.5367E+06         29.9227
            2032     7.81953E-03     131.595E-03     78.8188E-03     47.6391E-03    -42.1790E-03     42.9488E-03    -37.4887E-03     78.8188E-03     18.2032E-03     119.862E-03    -24.0054E-03    -95.8410E-03    -66.6975E-03     90.7180E-03    -24.0054E-03     147.452E-03    -15.3319E+06    -39.8157E+06    -109.488E+06    -77.5589E+06    -47.2605E+06    -39.8157E+06    -43.8531E+06         32.2562
            2033     8.75297E-03     131.781E-03     71.9198E-03     31.8328E-03    -17.2208E-03     25.3119E-03    -10.6999E-03     71.9198E-03     6.06351E-03     152.198E-03    -29.1418E-03    -123.058E-03    -87.9325E-03     117.073E-03    -29.1418E-03     183.627E-03     5.73850E+06    -6.70545E+06    -81.5028E+06    -56.9390E+06    -24.1560E+06    -1.37474E+06    -36.8388E+06         35.0284
            2034     9.67061E-03     132.011E-03     64.1930E-03     27.7835E-03    -5.84230E-03     17.5199E-03     4.42130E-03     64.1930E-03     16.7943E-03     187.817E-03    -35.1638E-03    -152.666E-03    -113.492E-03     148.643E-03    -35.1638E-03     217.128E-03     27.2400E+06     6.40868E+06    -65.7038E+06    -45.0620E+06    -14.2331E+06     27.2400E+06    -32.0766E+06         38.2731
            2035     10.5648E-03     132.291E-03     56.1584E-03     34.0713E-03    -6.47176E-03     8.45289E-03     19.1466E-03     56.1584E-03     31.6808E-03     227.480E-03    -42.1647E-03    -185.295E-03    -144.260E-03     186.444E-03    -42.1647E-03     246.752E-03     44.5906E+06     13.0643E+06    -61.9244E+06    -38.9799E+06    -9.88015E+06     44.5906E+06    -33.5434E+06         41.9508
            2036     11.4340E-03     132.618E-03     52.7339E-03     41.9465E-03    -12.1962E-03    -5.49329E-03     40.2944E-03     47.6831E-03     28.1768E-03     267.664E-03    -50.1959E-03    -217.435E-03    -176.933E-03     227.162E-03    -50.1959E-03     268.001E-03     56.9907E+06     26.0356E+06    -59.5978E+06    -35.2561E+06     1.69396E+06     56.9907E+06    -37.3946E+06         46.0092
            2037     12.2746E-03     132.982E-03     69.6541E-03     38.1561E-03    -22.4554E-03    -16.8863E-03     63.2446E-03     38.9966E-03     36.3657E-03     304.600E-03    -59.0837E-03    -245.473E-03    -206.673E-03     265.800E-03    -59.0837E-03     281.463E-03     68.0633E+06     34.3778E+06    -50.0568E+06    -29.0822E+06     13.4031E+06     68.0633E+06    -34.5613E+06         50.3389
            2038     13.0957E-03     133.369E-03     94.6857E-03     30.3804E-03    -36.7076E-03    -31.1360E-03     89.1141E-03     30.3804E-03     26.1199E-03     333.410E-03    -68.4326E-03    -264.944E-03    -229.225E-03     297.691E-03    -68.4326E-03     283.134E-03     81.4690E+06     46.4714E+06    -27.4169E+06    -14.6384E+06     33.6928E+06     81.4690E+06    -24.9318E+06         54.7296
            2039     13.8972E-03     133.747E-03     114.892E-03     21.8433E-03    -49.9760E-03    -48.9601E-03     113.876E-03     21.8433E-03     7.31207E-03     350.272E-03    -77.9807E-03    -272.279E-03    -244.960E-03     322.954E-03    -77.9807E-03     253.103E-03     97.9032E+06     61.6832E+06    -7.65158E+06    -2.90581E+06     56.9375E+06     97.9032E+06    -14.1389E+06         59.1751
            2040     14.6764E-03     134.049E-03     133.724E-03     13.5448E-03    -60.0206E-03    -58.6047E-03     132.308E-03     13.5448E-03     27.8588E-03     371.996E-03    -87.5857E-03    -284.407E-03    -261.114E-03     348.704E-03    -87.5857E-03     242.724E-03     94.6844E+06     53.9711E+06    -2.16061E+06    -187.182E+03     51.9977E+06     94.6844E+06    -5.66677E+06         63.4892
            2041     15.4395E-03     134.382E-03     150.675E-03     6.13599E-03    -67.9815E-03    -66.5055E-03     149.199E-03     6.13599E-03     2.52537E-03     379.971E-03    -97.1809E-03    -282.785E-03    -267.835E-03     365.021E-03    -97.1809E-03     183.215E-03     123.623E+06     32.8300E+06    -5.80108E+06    -1.64607E+06     28.6750E+06     123.623E+06    -1.23112E+06         66.9787
            2042     990.787E-06     132.207E-03     102.995E-03     71.0351E-03    -122.169E-03     85.9213E-03    -111.963E-03     77.9037E-03     3.22296E-03     20.8287E-03    -10.1043E-03    -10.7246E-03    -10.5727E-03     20.7915E-03    -10.2190E-03     961.214E-06    -96.2283E+06    -164.750E+06    -174.309E+06    -170.390E+06    -100.147E+06    -164.750E+06    -15.3825E+06         23.8294
            2043     1.98015E-03     132.214E-03     95.0077E-03     80.6328E-03    -119.334E-03     86.4547E-03    -112.632E-03     82.4840E-03    -16.8703E-03     23.8347E-03    -10.9322E-03    -12.8990E-03    -12.6177E-03     23.5534E-03    -10.9322E-03     4.52946E-03    -71.6765E+06    -148.824E+06    -173.256E+06    -162.432E+06    -82.5014E+06    -148.824E+06    -30.2658E+06         24.1265
            2044     2.96673E-03     132.234E-03     86.2760E-03     75.7920E-03    -104.210E-03     76.2087E-03    -100.246E-03     81.8947E-03    -23.8046E-03     28.5168E-03    -12.0246E-03    -16.4916E-03    -15.2904E-03     27.3155E-03    -12.0246E-03     12.2150E-03    -51.4157E+06    -134.103E+06    -173.434E+06    -153.811E+06    -71.0382E+06    -134.103E+06    -44.3235E+06         24.6259
            2045     3.95140E-03     132.269E-03     83.1641E-03     73.8378E-03    -94.6952E-03     72.9104E-03    -89.9379E-03     79.3341E-03    -22.5459E-03     36.0543E-03    -13.3896E-03    -22.6742E-03    -19.2596E-03     32.6397E-03    -13.3896E-03     25.4898E-03    -38.9458E+06    -127.489E+06    -177.474E+06    -148.856E+06    -67.5639E+06    -127.489E+06    -55.7513E+06         25.3713
            2046     4.93185E-03     132.326E-03     76.5443E-03     69.0273E-03    -84.4550E-03     65.3825E-03    -80.5889E-03     76.3230E-03    -11.8840E-03     48.5141E-03    -15.2353E-03    -33.2824E-03    -25.8876E-03     41.1192E-03    -15.2353E-03     45.6348E-03    -29.8405E+06    -121.648E+06    -185.455E+06    -144.513E+06    -70.7819E+06    -121.648E+06    -68.0004E+06         26.4513
            2047     5.90314E-03     132.410E-03     72.1449E-03     58.4130E-03    -72.7203E-03     55.1141E-03    -69.4214E-03     72.1449E-03    -35.8415E-03     66.4303E-03    -17.7204E-03    -48.7040E-03    -35.6986E-03     53.4249E-03    -17.7204E-03     72.2312E-03    -15.6660E+06    -116.314E+06    -189.252E+06    -136.764E+06    -68.1536E+06    -116.314E+06    -79.4543E+06         27.9587
            2048     6.86499E-03     132.525E-03     66.9923E-03     53.6850E-03    -61.2201E-03     49.1622E-03    -56.6973E-03     66.9923E-03    -38.4157E-03     90.2821E-03    -21.0446E-03    -69.2299E-03    -49.5604E-03     70.6125E-03    -21.0446E-03     104.609E-03    -9.56789E+06    -99.8844E+06    -178.895E+06    -121.984E+06    -66.4786E+06    -99.8844E+06    -79.5493E+06         29.9107
            2049     7.80939E-03     132.684E-03     61.6103E-03     44.1131E-03    -42.1328E-03     40.8604E-03    -38.3229E-03     61.0531E-03    -29.5469E-03     120.100E-03    -25.3747E-03    -94.7203E-03    -68.1304E-03     93.5107E-03    -25.3747E-03     141.378E-03    -1.56782E+06    -65.5033E+06    -152.946E+06    -100.389E+06    -54.1254E+06    -65.5033E+06    -71.7195E+06         32.2498
            2050     8.74066E-03     132.889E-03     54.7523E-03     33.1290E-03    -19.1622E-03     28.2717E-03    -13.7477E-03     54.1951E-03    -24.6793E-03     153.315E-03    -30.7214E-03    -122.591E-03    -90.3058E-03     121.030E-03    -30.7214E-03     177.186E-03     10.8128E+06    -23.7106E+06    -119.448E+06    -75.8238E+06    -36.3870E+06    -20.1355E+06    -59.9089E+06         34.9461
            2051     9.65295E-03     133.151E-03     46.5842E-03     24.5281E-03    -4.41970E-03     15.9868E-03     4.12155E-03     46.5842E-03    -10.3967E-03     189.685E-03    -37.0301E-03    -152.636E-03    -116.884E-03     153.933E-03    -37.0301E-03     209.012E-03     23.8388E+06     5.35444E+06    -85.6418E+06    -52.6611E+06    -25.1377E+06     21.3503E+06    -43.9358E+06         38.0068
            2052     10.5445E-03     133.466E-03     40.1333E-03     24.6133E-03    -8.72747E-03     1.56119E-03     16.2606E-03     38.1973E-03     21.9972E-03     228.719E-03    -44.3330E-03    -184.341E-03    -147.250E-03     191.628E-03    -44.3330E-03     235.694E-03     52.0348E+06     17.0242E+06    -59.2274E+06    -35.7189E+06    -6.48422E+06     52.0348E+06    -34.2988E+06         41.4034
            2053     11.4080E-03     133.841E-03     38.8420E-03     28.1600E-03    -9.04615E-03    -1.59966E-03     30.1154E-03     29.4402E-03     29.9733E-03     265.590E-03    -52.5675E-03    -212.989E-03    -176.437E-03     229.038E-03    -52.5675E-03     253.764E-03     76.9566E+06     24.7680E+06    -43.3445E+06    -25.1234E+06     6.54686E+06     76.9566E+06    -29.2437E+06         45.0680
            2054     12.2522E-03     134.245E-03     55.3087E-03     20.7210E-03    -14.9936E-03    -8.36298E-03     48.6781E-03     20.7210E-03     38.3460E-03     298.631E-03    -61.3634E-03    -237.239E-03    -201.971E-03     263.363E-03    -61.3634E-03     265.437E-03     91.3876E+06     35.9509E+06    -37.2950E+06    -19.6483E+06     18.3042E+06     91.3876E+06    -28.8481E+06         48.9315
            2055     13.0736E-03     134.681E-03     82.1448E-03     11.4804E-03    -35.5360E-03    -29.8028E-03     76.4116E-03     11.4804E-03     24.3669E-03     323.855E-03    -70.3187E-03    -253.510E-03    -220.762E-03     291.106E-03    -70.3187E-03     266.767E-03     91.7003E+06     39.7743E+06    -37.8588E+06    -18.9566E+06     20.8721E+06     91.7003E+06    -31.3348E+06         52.9973
            2056     13.8801E-03     135.096E-03     104.257E-03     1.99748E-03    -46.9834E-03    -46.4935E-03     103.767E-03     1.99748E-03    -2.93154E-03     340.525E-03    -79.2855E-03    -261.239E-03    -234.305E-03     313.590E-03    -79.2855E-03     247.930E-03     100.900E+06     41.5874E+06    -28.2629E+06    -16.8966E+06     30.2211E+06     100.900E+06    -20.7778E+06         57.3584
            2057     14.6744E-03     135.456E-03     119.980E-03    -6.72598E-03    -49.4296E-03    -48.9764E-03     119.527E-03    -6.72598E-03     12.8631E-03     365.777E-03    -88.1595E-03    -277.618E-03    -251.583E-03     339.741E-03    -88.1595E-03     253.181E-03     93.8267E+06     38.9730E+06    -12.8089E+06    -10.3385E+06     36.5025E+06     93.8267E+06    -5.15218E+06         61.7349
            2058     15.4436E-03     135.840E-03     135.513E-03    -13.7538E-03    -50.0090E-03    -49.5147E-03     135.019E-03    -13.7538E-03     7.05831E-03     378.429E-03    -97.2385E-03    -281.195E-03    -263.744E-03     360.978E-03    -97.2385E-03     197.930E-03     126.967E+06     28.4273E+06    -8.11047E+06    -4.92056E+06     25.2374E+06     126.967E+06     3.55959E+06         65.4070
            2059     984.079E-06     133.231E-03     95.7877E-03     33.2575E-03    -85.2718E-03     78.1162E-03    -60.7574E-03     26.4146E-03    -41.0269E-03     35.2873E-03    -17.2701E-03    -18.0174E-03    -17.9016E-03     35.2645E-03    -17.3631E-03    -1.69745E-03    -61.9533E+06    -98.2848E+06    -109.316E+06    -101.212E+06    -70.0574E+06    -98.2848E+06    -15.1872E+06         24.7277
            2060     1.96638E-03     133.243E-03     69.1956E-03     53.3602E-03    -76.3326E-03     59.4938E-03    -66.6309E-03     53.3602E-03    -13.7200E-03     38.4333E-03    -18.2534E-03    -20.1768E-03    -20.1105E-03     38.3670E-03    -18.2534E-03    -1.85695E-03    -37.3186E+06    -85.3512E+06    -112.567E+06    -97.3948E+06    -52.4912E+06    -85.3512E+06    -29.5215E+06         25.0324
            2061     2.94586E-03     133.267E-03     71.2507E-03     56.4238E-03    -85.8629E-03     69.0990E-03    -83.7112E-03     56.4238E-03    -14.7398E-03     42.4802E-03    -19.4882E-03    -22.9900E-03    -22.7835E-03     42.2738E-03    -19.4882E-03     763.571E-06    -22.4744E+06    -74.3208E+06    -117.733E+06    -95.2131E+06    -44.9939E+06    -74.3208E+06    -39.9496E+06         25.5176
            2062     3.92294E-03     133.305E-03     65.8791E-03     53.8788E-03    -80.6199E-03     59.2048E-03    -77.8782E-03     57.8115E-03    -3.98638E-03     47.8570E-03    -20.9583E-03    -26.8992E-03    -26.1406E-03     47.0983E-03    -20.9583E-03     7.93903E-03    -11.8718E+06    -66.2429E+06    -123.860E+06    -93.1537E+06    -42.5785E+06    -66.2429E+06    -49.6387E+06         26.2051
            2063     4.89588E-03     133.368E-03     54.6712E-03     43.5648E-03    -62.9795E-03     35.7916E-03    -55.2063E-03     54.6712E-03    -11.0723E-03     55.6252E-03    -22.7205E-03    -32.9073E-03    -30.5858E-03     53.3037E-03    -22.7205E-03     21.1895E-03    -1.03626E+06    -59.3139E+06    -133.321E+06    -91.9429E+06    -42.4147E+06    -59.3139E+06    -61.1618E+06         27.1943
            2064     5.86534E-03     133.460E-03     53.8711E-03     37.1161E-03    -57.9790E-03     30.2249E-03    -46.2281E-03     49.0114E-03    -49.2401E-03     68.0385E-03    -24.9187E-03    -43.1182E-03    -37.6551E-03     62.5754E-03    -24.9187E-03     42.2433E-03     4.50164E+06    -54.4613E+06    -145.528E+06    -95.7398E+06    -45.2862E+06    -54.4613E+06    -70.6307E+06         28.5914
            2065     6.82396E-03     133.592E-03     48.0709E-03     31.8773E-03    -46.9264E-03     27.2593E-03    -37.4487E-03     43.2112E-03    -40.1612E-03     87.8171E-03    -27.7906E-03    -60.0204E-03    -49.4681E-03     77.2648E-03    -27.7906E-03     72.0315E-03     3.77364E+06    -57.5595E+06    -159.969E+06    -103.154E+06    -53.0414E+06    -57.5595E+06    -77.9009E+06         30.4003
            2066     7.77277E-03     133.768E-03     37.9815E-03     30.7759E-03    -33.4252E-03     26.9928E-03    -29.0849E-03     37.4243E-03    -21.6067E-03     115.379E-03    -31.6672E-03    -83.7038E-03    -66.7271E-03     98.4019E-03    -31.6672E-03     108.485E-03     11.1020E+06    -53.7859E+06    -164.107E+06    -103.191E+06    -49.8141E+06    -53.7859E+06    -83.1151E+06         32.5492
            2067     8.69828E-03     134.003E-03     33.5430E-03     31.2602E-03    -28.5797E-03     30.9532E-03    -26.5207E-03     31.7909E-03    -15.7475E-03     149.093E-03    -36.7923E-03    -112.312E-03    -89.6507E-03     126.431E-03    -36.7923E-03     145.381E-03     13.0056E+06    -30.0765E+06    -154.197E+06    -93.8625E+06    -47.3286E+06    -30.0765E+06    -79.8957E+06         34.9975
            2068     9.60343E-03     134.288E-03     26.4098E-03     18.2029E-03    -15.7781E-03     12.9594E-03    -9.33971E-03     25.2149E-03    -6.98315E-03     187.869E-03    -43.1579E-03    -144.694E-03    -118.091E-03     161.265E-03    -43.1579E-03     179.164E-03     16.5341E+06    -7.74658E+06    -133.224E+06    -77.8083E+06    -43.6327E+06    -2.99528E+06    -70.3539E+06         37.7296
            2069     10.4797E-03     134.645E-03     24.0030E-03     10.6297E-03    -9.02157E-03    -2.07300E-03     10.8268E-03     16.8573E-03     9.00539E-03     225.783E-03    -50.7006E-03    -175.028E-03    -146.659E-03     197.414E-03    -50.7006E-03     204.576E-03     41.3164E+06     8.14203E+06    -101.624E+06    -59.3394E+06    -25.4288E+06     32.6030E+06    -56.4998E+06         40.6972
            2070     11.3387E-03     135.044E-03     32.2460E-03     7.93292E-03    -9.64799E-03    -3.45162E-03     26.3395E-03     7.64312E-03     13.2209E-03     258.875E-03    -59.0568E-03    -199.798E-03    -171.468E-03     230.545E-03    -59.0568E-03     219.988E-03     76.0581E+06     17.7327E+06    -73.9400E+06    -44.8746E+06    -11.3327E+06     76.0581E+06    -42.2934E+06         43.8419
            2071     12.1773E-03     135.490E-03     50.1844E-03    -2.21836E-03    -15.9291E-03    -13.9877E-03     48.2430E-03    -2.21836E-03     10.1797E-03     285.885E-03    -67.5880E-03    -218.292E-03    -190.647E-03     258.240E-03    -67.5880E-03     228.896E-03     101.897E+06     30.3633E+06    -52.8407E+06    -36.0502E+06     13.5728E+06     101.897E+06    -31.4095E+06         47.1342
            2072     13.0049E-03     135.954E-03     65.9742E-03    -4.76430E-03    -30.5513E-03    -21.6082E-03     64.7739E-03    -12.5070E-03     8.87064E-03     303.154E-03    -75.8668E-03    -227.292E-03    -201.019E-03     276.881E-03    -75.8668E-03     229.702E-03     112.838E+06     37.7911E+06    -48.4832E+06    -34.7653E+06     24.0731E+06     112.838E+06    -23.8639E+06         50.6691
            2073     13.8286E-03     136.407E-03     78.7800E-03    -6.88614E-03    -39.9179E-03    -24.4469E-03     78.3944E-03    -21.9715E-03    -2.65291E-03     313.846E-03    -83.5862E-03    -230.272E-03    -205.927E-03     289.500E-03    -83.5862E-03     224.665E-03     118.984E+06     31.0750E+06    -46.7338E+06    -31.5080E+06     15.8492E+06     118.984E+06    -23.0546E+06         54.6938
            2074     14.6381E-03     136.818E-03     95.6384E-03    -13.8297E-03    -45.7194E-03    -28.5794E-03     94.9206E-03    -30.2519E-03     1.34436E-03     337.379E-03    -90.6488E-03    -246.763E-03    -218.276E-03     308.892E-03    -90.6488E-03     250.660E-03      103.39E+06     13.8328E+06    -34.1056E+06    -26.0250E+06     5.75225E+06      103.39E+06    -14.5157E+06         59.1105
            2075     15.4474E-03     137.244E-03     113.637E-03    -23.3086E-03    -46.3685E-03    -31.8359E-03     112.819E-03    -37.0227E-03     9.14987E-03     363.355E-03    -98.0145E-03    -265.382E-03    -243.212E-03     341.185E-03    -98.0145E-03     220.148E-03     135.017E+06     17.3466E+06    -15.1444E+06    -13.1043E+06     15.3065E+06     135.017E+06    -1.29293E+06         62.9631
            2076     972.953E-06     134.277E-03     72.4279E-03     11.6000E-03    -53.3743E-03     54.2605E-03    -21.4954E-03    -2.11161E-03    -1.11112E-03     59.4966E-03    -29.3567E-03    -30.1330E-03    -29.9199E-03     59.4126E-03    -29.4858E-03    -5.04310E-03    -15.0204E+06    -32.1327E+06    -54.1106E+06    -29.9097E+06    -39.2214E+06    -32.1327E+06    -14.7451E+06         25.9417
            2077     1.94272E-03     134.292E-03     54.8381E-03     27.8711E-03    -51.7494E-03     36.8209E-03    -33.7322E-03     27.8711E-03    -14.9077E-03     63.1663E-03    -30.4169E-03    -32.7393E-03    -32.5203E-03     62.9473E-03    -30.4169E-03    -8.91784E-03    -3.89238E+06    -31.4594E+06    -56.8188E+06    -33.5629E+06    -27.1483E+06    -31.4594E+06    -23.9719E+06         26.2774
            2078     2.91061E-03     134.319E-03     60.2295E-03     29.9423E-03    -66.7316E-03     34.4536E-03    -40.9557E-03     29.9423E-03    -47.9501E-03     68.8584E-03    -32.0451E-03    -36.8091E-03    -36.4385E-03     68.4878E-03    -32.0451E-03    -11.8887E-03     2.06019E+06    -23.2174E+06    -63.2248E+06    -37.3483E+06    -23.8163E+06    -23.2174E+06    -30.8839E+06         26.8078
            2079     3.87245E-03     134.364E-03     46.9280E-03     26.2501E-03    -60.9442E-03     27.6145E-03    -44.3185E-03     28.9378E-03    -46.9890E-03     75.2671E-03    -34.1433E-03    -41.1241E-03    -40.6074E-03     74.7504E-03    -34.1433E-03    -12.8853E-03     10.2079E+06    -10.6466E+06    -70.0735E+06    -40.1160E+06    -19.7496E+06    -10.6466E+06    -38.3026E+06         27.5450
            2080     4.83032E-03     134.429E-03     34.7158E-03     21.5996E-03    -52.1758E-03     22.7070E-03    -44.7453E-03     26.1779E-03    -40.5667E-03     81.6289E-03    -36.4956E-03    -45.1448E-03    -44.5005E-03     80.9846E-03    -36.4956E-03    -9.84732E-03     17.3283E+06    -6.48893E+06    -79.2311E+06    -44.8398E+06    -19.6712E+06    -3.88060E+06    -45.0524E+06         28.5461
            2081     5.78258E-03     134.526E-03     33.0878E-03     20.2334E-03    -52.0789E-03     18.6532E-03    -40.1599E-03     22.7490E-03    -52.0241E-03     89.9540E-03    -39.1538E-03    -50.8016E-03    -49.6358E-03     88.7882E-03    -39.1538E-03    -1.21252E-03     17.8183E+06    -7.89541E+06    -89.6980E+06    -52.0298E+06    -25.7517E+06    -1.99367E+06    -48.6573E+06         29.8661
            2082     6.73074E-03     134.664E-03     28.3463E-03     14.1969E-03    -37.6738E-03     16.7277E-03    -30.8812E-03     19.0228E-03    -17.3359E-03     102.249E-03    -42.3615E-03    -59.8829E-03    -57.3841E-03     99.7507E-03    -42.3615E-03     13.7943E-03     21.0286E+06    -4.74165E+06    -100.018E+06    -56.9385E+06    -28.2137E+06     1.42117E+06    -55.3387E+06         31.4558
            2083     7.66280E-03     134.856E-03     19.3537E-03     9.43490E-03    -28.2567E-03     12.7192E-03    -27.0773E-03     14.8899E-03     3.66908E-03     119.491E-03    -46.3611E-03    -73.1392E-03    -68.3185E-03     114.671E-03    -46.3611E-03     34.9137E-03     25.7775E+06    -2.13341E+06    -111.711E+06    -62.6395E+06    -29.9204E+06     4.49285E+06    -63.3083E+06         33.2469
            2084     8.58655E-03     135.106E-03     21.3684E-03     7.88227E-03    -34.4539E-03    -2.65680E-03    -11.6828E-03     9.13636E-03     779.653E-06     143.777E-03    -51.4281E-03    -92.3784E-03    -84.7505E-03     136.149E-03    -51.4281E-03     59.7002E-03     24.6872E+06    -3.36796E+06    -122.875E+06    -71.1136E+06    -36.7121E+06     6.26994E+06    -66.7056E+06         35.2590
            2085     9.48346E-03     135.428E-03     26.6944E-03    -707.467E-06    -32.6173E-03    -11.2193E-03     3.55386E-03     1.03504E-03    -16.4180E-03     172.897E-03    -57.7064E-03    -115.201E-03    -105.035E-03     162.732E-03    -57.7064E-03     84.8140E-03     25.2980E+06    -5.27619E+06    -131.695E+06    -79.3447E+06    -40.5853E+06     8.25722E+06    -69.0155E+06         37.5034
            2086     10.3575E-03     135.808E-03     25.7755E-03    -10.0391E-03    -19.8861E-03    -10.5813E-03     15.0180E-03    -8.58639E-03    -27.3139E-03     201.331E-03    -65.0048E-03    -136.297E-03    -124.503E-03     189.537E-03    -65.0048E-03     106.145E-03     31.6335E+06     3.03021E+06    -131.203E+06    -81.4337E+06    -38.0253E+06     22.9201E+06    -67.9946E+06         39.9325
            2087     11.2083E-03     136.240E-03     40.0735E-03    -14.5730E-03    -22.4981E-03    -13.5317E-03     35.6596E-03    -19.1255E-03    -23.9835E-03     226.775E-03    -72.8214E-03    -153.948E-03    -141.316E-03     214.143E-03    -72.8214E-03     123.712E-03     54.8306E+06     12.4074E+06    -117.296E+06    -74.1037E+06    -30.7847E+06     54.8306E+06    -60.7129E+06         42.4556
            2088     12.0429E-03     136.708E-03     49.3737E-03    -15.8654E-03    -33.0878E-03    -14.9292E-03     45.3595E-03    -30.0097E-03    -19.1465E-03     246.593E-03    -80.4646E-03    -166.111E-03    -152.698E-03     233.180E-03    -80.4646E-03     138.760E-03     84.4876E+06     16.3960E+06    -90.8121E+06    -57.8925E+06    -16.5236E+06     84.4876E+06    -47.6037E+06         45.0074
            2089     12.8728E-03     137.188E-03     49.9026E-03    -14.2369E-03    -40.6804E-03    -14.4878E-03     49.6766E-03    -40.2036E-03    -4.98770E-03     255.976E-03    -87.2737E-03    -168.682E-03    -154.171E-03     241.465E-03    -87.2737E-03     151.126E-03     114.458E+06     24.3324E+06    -56.2662E+06    -34.7187E+06     2.78503E+06     114.458E+06    -26.8269E+06         47.7978
            2090     13.7052E-03     137.658E-03     57.2376E-03    -10.3780E-03    -48.9750E-03    -10.0205E-03     56.8801E-03    -48.9750E-03    -8.13431E-03     261.545E-03    -92.8145E-03    -168.732E-03    -152.223E-03     245.036E-03    -92.8145E-03     164.521E-03     139.619E+06     30.4625E+06    -32.7419E+06    -20.5019E+06     18.2225E+06     139.619E+06    -11.8737E+06         51.2937
            2091     14.5683E-03     138.088E-03     68.3105E-03    -7.90166E-03    -56.4896E-03    -7.47246E-03     67.8813E-03    -56.4896E-03    -6.13748E-03     281.588E-03    -97.3306E-03    -184.288E-03    -161.939E-03     259.239E-03    -97.3306E-03     197.852E-03     135.357E+06     18.9498E+06    -31.8926E+06    -10.5566E+06    -2.38624E+06     135.357E+06    -9.70965E+06         55.4673
            2092     15.4137E-03     138.576E-03     86.5080E-03    -14.4999E-03    -62.8013E-03    -12.6196E-03     84.6277E-03    -62.8013E-03     14.9651E-03     303.779E-03    -101.526E-03    -202.344E-03    -177.903E-03     279.337E-03    -101.526E-03     211.635E-03     128.722E+06     19.2519E+06    -31.1652E+06    -12.8802E+06     966.833E+03     128.722E+06    -8.75333E+06         59.3068
            2093     955.426E-06     135.352E-03     61.8888E-03     7.72889E-03    -61.3231E-03     25.2348E-03     8.91831E-03    -25.8584E-03    -28.5380E-03     94.0511E-03    -46.4658E-03    -47.5744E-03    -47.2922E-03     93.8979E-03    -46.5948E-03    -8.86293E-03     46.0211E+06     38.0309E+06    -16.6414E+06     40.8537E+06    -13.1247E+06     39.6816E+06    -10.8575E+06         27.1344
            2094     1.91109E-03     135.373E-03     49.8640E-03     707.608E-06    -35.2575E-03     7.77389E-03     6.83253E-03     707.608E-06    -49.1049E-03     98.9503E-03    -47.9411E-03    -50.9862E-03    -50.5598E-03     98.5239E-03    -47.9411E-03    -15.6469E-03     43.5781E+06     30.7012E+06    -17.0669E+06     32.2458E+06    -9.08762E+06     34.0542E+06    -14.6537E+06         27.5019
            2095     2.85872E-03     135.407E-03     40.6109E-03     1.74225E-03    -34.0378E-03     2.67402E-03     3.89909E-03     1.74225E-03    -32.4071E-03     107.140E-03    -50.1768E-03    -56.9518E-03    -56.0930E-03     106.282E-03    -50.1768E-03    -23.4873E-03     43.2437E+06     29.9263E+06    -20.7582E+06     23.0682E+06    -8.26880E+06     37.6124E+06    -17.7600E+06         28.0868
            2096     3.80012E-03     135.460E-03     32.3025E-03     865.521E-06    -37.9736E-03     480.243E-06    -6.15133E-03     865.521E-06    -7.38897E-03     117.212E-03    -53.1913E-03    -63.9940E-03    -62.5513E-03     115.769E-03    -53.1913E-03    -32.0259E-03     46.0715E+06     31.6022E+06    -23.6392E+06     14.9310E+06    -5.86791E+06     44.9715E+06    -20.0657E+06         28.8945
            2097     4.73405E-03     135.530E-03     26.7614E-03    -268.360E-06    -46.1596E-03     1.62249E-03    -21.0207E-03    -268.360E-06     22.0011E-03     129.287E-03    -56.9541E-03    -72.3168E-03    -70.0481E-03     127.019E-03    -56.9541E-03    -41.7971E-03     53.5760E+06     27.0558E+06    -26.2644E+06     6.81537E+06    -5.70047E+06     53.2526E+06    -21.0000E+06         29.9556
            2098     5.65972E-03     135.633E-03     23.4788E-03    -3.09454E-03    -47.6878E-03    -6.45645E-03    -18.3776E-03    -2.46950E-03    -11.1642E-03     142.358E-03    -61.4764E-03    -80.8906E-03    -77.4158E-03     138.883E-03    -61.4764E-03    -52.8103E-03     60.5907E+06     21.8523E+06    -32.9597E+06     269.689E+03    -11.3772E+06     60.5907E+06    -23.0214E+06         31.2718
            2099     6.56972E-03     135.777E-03     20.6306E-03    -6.77433E-03    -45.8255E-03    -6.34700E-03    -19.4729E-03    -6.14929E-03    -38.5602E-03     155.053E-03    -66.6433E-03    -88.4193E-03    -83.2046E-03     149.838E-03    -66.6433E-03    -63.7740E-03     66.5603E+06     21.2734E+06    -37.3959E+06    -6.46924E+06    -9.65325E+06     66.5603E+06    -26.5850E+06         32.7366
            2100     7.47368E-03     135.969E-03     26.4678E-03    -12.4973E-03    -50.9127E-03    -10.8694E-03    -14.7934E-03    -11.2793E-03    -47.8042E-03     167.944E-03    -72.5212E-03    -95.4575E-03    -87.7064E-03     160.193E-03    -72.5212E-03    -74.3669E-03     69.9041E+06     18.0442E+06    -44.0017E+06    -16.5015E+06    -9.45599E+06     69.9041E+06    -28.5371E+06         34.2535
            2101     8.35481E-03     136.224E-03     34.6221E-03    -20.0658E-03    -56.2326E-03    -24.2648E-03     1.43638E-03    -18.8479E-03    -55.5987E-03     179.673E-03    -79.1485E-03    -100.570E-03    -90.0855E-03     169.188E-03    -79.1485E-03    -80.3588E-03     70.9680E+06     12.2020E+06    -52.5274E+06    -24.3312E+06    -15.9943E+06     70.9680E+06    -28.8758E+06         35.8319
            2102     9.21892E-03     136.548E-03     45.0318E-03    -28.4818E-03    -54.4324E-03    -29.5840E-03     20.1835E-03    -28.4818E-03    -59.6013E-03     187.159E-03    -84.3188E-03    -102.875E-03    -88.7066E-03     174.919E-03    -86.2471E-03    -77.6575E-03     75.0620E+06     10.2062E+06    -54.4914E+06    -26.7324E+06    -17.5528E+06     75.0620E+06    -29.8154E+06         37.5121
            2103     10.0711E-03     136.931E-03     57.7393E-03    -39.3106E-03    -47.7870E-03    -32.6582E-03     42.6105E-03    -39.3106E-03    -66.8826E-03     191.154E-03    -82.4258E-03    -108.739E-03    -85.3307E-03     178.699E-03    -93.3789E-03    -65.3944E-03     82.4101E+06     9.36189E+06    -54.4226E+06    -27.3299E+06    -17.7309E+06     82.4101E+06    -30.3512E+06         39.3169
            2104     10.9120E-03     137.373E-03     57.5398E-03    -35.2989E-03    -51.5184E-03    -24.7687E-03     45.9192E-03    -50.4279E-03    -58.6933E-03     192.205E-03    -74.7205E-03    -117.487E-03    -80.9298E-03     180.961E-03    -100.034E-03    -44.2148E-03     91.0920E+06     11.0523E+06    -53.1682E+06    -26.4797E+06    -15.6362E+06     91.0920E+06    -30.9086E+06         41.1842
            2105     11.7558E-03     137.844E-03     49.3822E-03    -23.2200E-03    -60.6631E-03    -14.9831E-03     41.1453E-03    -60.6631E-03    -42.2056E-03     188.150E-03    -64.0874E-03    -124.043E-03    -73.9881E-03     179.564E-03    -105.557E-03    -13.5240E-03     97.4728E+06     6.75148E+06    -51.5282E+06    -26.8834E+06    -17.8933E+06     97.4728E+06    -27.9064E+06         43.0340
            2106     12.6029E-03     138.343E-03     49.9867E-03    -18.6636E-03    -69.7760E-03    -14.8049E-03     46.1280E-03    -69.7760E-03    -24.3481E-03     179.222E-03    -53.7442E-03    -125.510E-03    -63.2342E-03     172.502E-03    -109.299E-03     19.3216E-03     109.770E+06     8.75954E+06    -48.6777E+06    -26.9669E+06    -12.9513E+06     109.770E+06    -26.6252E+06         45.1805
            2107     13.4937E-03     138.802E-03     54.2721E-03    -10.7329E-03    -77.6951E-03    -8.55400E-03     52.0932E-03    -77.6951E-03    -16.4665E-03     183.846E-03    -57.3147E-03    -126.580E-03    -64.9052E-03     176.503E-03    -111.647E-03     38.1012E-03     132.841E+06     17.4908E+06    -42.2533E+06    -21.9618E+06    -2.80069E+06     132.841E+06    -13.8428E+06         48.1123
            2108     14.3623E-03     139.279E-03     60.3936E-03    -3.75074E-03    -84.3773E-03    -2.11640E-03     58.7593E-03    -84.3773E-03    -11.9976E-03     192.774E-03    -58.9253E-03    -133.902E-03    -70.3185E-03     183.651E-03    -113.385E-03     53.1454E-03     144.506E+06     25.8369E+06    -33.5874E+06    -7.53436E+06    -216.149E+03     144.506E+06    -3.89464E+06         51.7254
            2109     15.2332E-03     139.755E-03     65.3112E-03    -384.019E-06    -89.1896E-03     7.16074E-03     57.7664E-03    -89.1896E-03     16.5823E-03     175.818E-03    -39.3403E-03    -136.588E-03    -47.6272E-03     160.667E-03    -113.151E-03     85.3750E-03     101.520E+06     21.8946E+06    -38.3716E+06    -3.62052E+06     5.29525E+06     83.3683E+06    -8.14367E+06         55.2223


