********************************************************************************
Field Output Report, written Tue May  6 08:12:42 2025

Source 1
---------

   ODB: D:/AISI_1020/Vel_40/aisi_1020_2a_24_red_1500_cal_30_vel_40_fric_025.odb
   Step: Step-1
   Frame: Increment   2477519: Step Time =   0.3171

Loc 1 : Nodal values from source 1

Output sorted by column "Node Label".

Field Output reported at nodes for region: DIE_2A_24_D0_36-1.Region_1
   Computation algorithm: EXTRAPOLATE_COMPUTE_AVERAGE
   Averaged at nodes
   Averaging regions: ODB_REGIONS

      Node Label     COORD.COOR1     COORD.COOR2
                          @Loc 1          @Loc 1
-------------------------------------------------
               1     18.4810E-03     154.436E-03


Field Output reported at nodes for region: DIE_2A_24_D0_36-1.Region_2
   Computation algorithm: EXTRAPOLATE_COMPUTE_AVERAGE
   Averaged at nodes
   Averaging regions: ODB_REGIONS

      Node Label     COORD.COOR1     COORD.COOR2
                          @Loc 1          @Loc 1
-------------------------------------------------
               1     18.4810E-03     154.436E-03


Field Output reported at nodes for part: WIRE_1-1
   Computation algorithm: EXTRAPOLATE_COMPUTE_AVERAGE
   Averaged at nodes
   Averaging regions: ODB_REGIONS

      Node Label     COORD.COOR1     COORD.COOR2    ER.Max. Prin    ER.Mid. Prin    ER.Min. Prin         ER.ER11         ER.ER22         ER.ER33         ER.ER12    PE.Max. Prin    PE.Mid. Prin    PE.Min. Prin         PE.PE11         PE.PE22         PE.PE33         PE.PE12     S.Max. Prin     S.Mid. Prin     S.Min. Prin           S.S11           S.S22           S.S33           S.S12            TEMP
                          @Loc 1          @Loc 1          @Loc 1          @Loc 1          @Loc 1          @Loc 1          @Loc 1          @Loc 1          @Loc 1          @Loc 1          @Loc 1          @Loc 1          @Loc 1          @Loc 1          @Loc 1          @Loc 1          @Loc 1          @Loc 1          @Loc 1          @Loc 1          @Loc 1          @Loc 1          @Loc 1          @Loc 1
-----------------------------------------------------------------------------------------------------------------------------------------------------------------------------------------------------------------------------------------------------------------------------------------------------------------------------------------------------------------------------------------------------------------
               1     15.1984E-03     77.9578E-03         3.02407         1.58297        -6.69445         1.57032        -6.68179         3.02407     646.499E-03     340.468E-03    -170.034E-03    -170.434E-03    -168.621E-03     338.758E-03    -170.137E-03     58.9981E-03     119.837E+06     117.500E+06    -3.63944E+06    -3.63792E+06     119.836E+06     117.500E+06    -28.1227E+03         65.0215
               2    -1.47528E-06     76.7843E-03         7.80325         7.24426        -16.8069         1.13379        -10.6087         7.71561        -21.0880     340.392E-03    -168.710E-03    -171.683E-03    -170.510E-03     340.391E-03    -169.880E-03     1.20408E-03    -167.233E+06    -167.892E+06    -362.720E+06    -167.523E+06    -362.716E+06    -167.607E+06     758.474E+03         49.0823
               3     1.64833E-06    -69.3889E-18         15.9274        -6.83243        -7.84328        -7.67759         15.7617        -6.83243         3.95540     549.121E-03    -274.551E-03    -274.570E-03    -274.528E-03     549.097E-03    -274.570E-03     8.80045E-03    -91.5826E+06    -92.5590E+06    -280.664E+06    -92.6320E+06    -280.591E+06    -91.5826E+06     3.70566E+06         59.5464
               4     14.9150E-03    -69.3889E-18         7.02528    -922.704E-03        -4.91797    -913.367E-03         7.01594        -4.91797     544.510E-03     467.488E-03    -182.871E-03    -284.617E-03    -268.655E-03     451.526E-03    -182.871E-03     216.797E-03     145.115E+06     129.550E+06     13.9078E+06     13.9933E+06     129.465E+06     145.115E+06     3.14269E+06         64.8957
               5     15.3098E-03     155.732E-03         6.62937        -1.31284        -2.80178        -1.31449        -2.80013         6.62937    -99.1779E-03     274.085E-03    -110.174E-03    -163.911E-03    -109.789E-03     273.699E-03    -163.911E-03    -24.3389E-03     72.5535E+06     43.1157E+06    -46.7554E+06    -44.2293E+06     40.5896E+06     72.5535E+06    -14.8540E+06         65.7271
               6     6.82248E-06     151.717E-03         8.40344         8.13180        -6.03520         8.13057        -6.03398         8.40344     263.904E-03     304.251E-03    -151.299E-03    -152.952E-03    -152.539E-03     303.837E-03    -151.299E-03    -27.4811E-03     78.3790E+06     74.9107E+06    -11.5347E+06     74.5907E+06    -11.2147E+06     78.3790E+06    -5.24973E+06         41.7434
               7     14.3544E-03     77.8847E-03         3.08495         1.69001        -6.83910         1.68120        -6.83030         3.08495     527.960E-03     346.094E-03    -170.070E-03    -176.025E-03    -169.541E-03     339.662E-03    -170.121E-03     105.815E-03     114.401E+06     111.804E+06    -6.55623E+06    -6.55409E+06     114.399E+06     111.804E+06     215.300E+03         64.0713
               8     13.5097E-03     77.6800E-03         3.20889         1.93876        -7.17512         1.91227        -7.14863         3.20889     874.786E-03     346.283E-03    -170.116E-03    -176.167E-03    -168.847E-03     338.963E-03    -170.116E-03     118.407E-03     105.159E+06     100.310E+06    -12.7989E+06    -12.7936E+06     101.733E+06     103.731E+06    -99.2928E+03         61.9966
               9     12.6633E-03     77.5769E-03         3.32911         2.16735        -7.50114         2.13967        -7.47346         3.32911     401.829E-03     341.966E-03    -170.135E-03    -171.831E-03    -167.529E-03     337.664E-03    -170.135E-03     93.2210E-03     97.5029E+06     90.3878E+06    -20.6386E+06    -20.6327E+06     90.3819E+06     97.5029E+06    -211.374E+03         59.7974
              10     11.8206E-03     77.4487E-03         3.44331         2.37567        -7.80449         2.35541        -7.78423         3.44331     317.617E-03     342.064E-03    -170.134E-03    -171.930E-03    -167.545E-03     337.679E-03    -170.134E-03     94.2163E-03     87.4801E+06     83.3814E+06    -29.7361E+06    -29.7304E+06     83.3757E+06     87.4801E+06     226.922E+03         57.8413
              11     10.9742E-03     77.3433E-03         3.55506         2.62427        -8.14137         2.56508        -8.08217         3.55506    -380.655E-03     340.909E-03    -170.113E-03    -170.796E-03    -167.210E-03     337.331E-03    -170.121E-03     85.2730E-03     78.8663E+06     73.9981E+06    -38.6667E+06    -38.6599E+06     78.4551E+06     74.4025E+06    -117.394E+03         56.2973
              12     10.1305E-03     77.2392E-03         3.66294         2.81890        -8.41574         2.76884        -8.36568         3.66294    -559.037E-03     340.322E-03    -169.885E-03    -170.437E-03    -166.908E-03     337.064E-03    -170.156E-03     81.2413E-03     74.2800E+06     66.2251E+06    -48.2968E+06    -48.2926E+06     74.2758E+06     66.2251E+06    -474.921E+03         55.1435
              13     9.28350E-03     77.1487E-03         3.76738         2.97928        -8.65574         2.96312        -8.63958         3.76738    -46.2298E-03     339.940E-03    -169.632E-03    -170.307E-03    -166.944E-03     337.177E-03    -170.233E-03     74.7608E-03     62.3578E+06     54.5861E+06    -58.5966E+06    -58.5933E+06     58.1739E+06     58.7667E+06    -524.085E+03         54.2647
              14     8.44050E-03     77.0645E-03         3.86852         3.14831        -8.90821         3.13941        -8.89931         3.86852    -395.771E-03     340.080E-03    -169.701E-03    -170.379E-03    -167.528E-03     337.833E-03    -170.305E-03     67.4190E-03     41.9278E+06     5.17550E+06    -69.0667E+06    -69.0577E+06     5.16647E+06     41.9278E+06    -576.407E+03         53.5397
              15     7.59494E-03     76.9885E-03         3.96576         3.32733        -9.16897         3.32445        -9.16610         3.96576     312.973E-03     340.116E-03    -169.773E-03    -170.342E-03    -168.069E-03     338.411E-03    -170.342E-03     58.6739E-03     20.6419E+06    -59.8385E+06    -82.2450E+06    -80.1966E+06    -61.8869E+06     20.6419E+06    -214.700E+03         52.8822
              16     6.75205E-03     76.9286E-03         4.05662         3.51750        -9.43145         3.51301        -9.42696         4.05662     35.7008E-03     339.840E-03    -169.497E-03    -170.343E-03    -168.304E-03     338.647E-03    -170.343E-03     48.9997E-03     403.069E+03    -91.0627E+06    -111.607E+06    -91.1169E+06    -111.553E+06     403.069E+03     570.417E+03         52.2482
              17     5.90828E-03     76.8796E-03         4.13783         3.73475        -9.70645         3.71205        -9.68376         4.13783     529.075E-03     339.475E-03    -169.121E-03    -170.353E-03    -168.361E-03     338.714E-03    -170.353E-03     38.9763E-03    -20.7982E+06    -102.268E+06    -157.175E+06    -102.300E+06    -157.143E+06    -20.7982E+06     410.755E+03         51.6276
              18     5.06226E-03     76.8464E-03         4.20639         3.92756        -9.94350         3.89943        -9.91537         4.20639     306.605E-03     339.585E-03    -169.204E-03    -170.381E-03    -168.777E-03     339.149E-03    -170.371E-03     29.4551E-03    -43.4446E+06    -113.689E+06    -202.284E+06    -113.728E+06    -202.245E+06    -43.4446E+06    -488.077E+03         51.0322
              19     4.22007E-03     76.8194E-03         4.26077         4.07431        -10.1271         4.06229        -10.1150         4.26077    -92.8699E-03     339.662E-03    -169.254E-03    -170.408E-03    -169.043E-03     339.442E-03    -170.398E-03     20.7032E-03    -65.8662E+06    -124.629E+06    -246.941E+06    -124.655E+06    -246.914E+06    -65.8662E+06    -534.563E+03         50.4832
              20     3.37477E-03     76.8025E-03         4.30203         4.20207        -10.2807         4.17773        -10.2564         4.30203    -376.872E-03     339.837E-03    -169.398E-03    -170.439E-03    -169.302E-03     339.742E-03    -170.439E-03     13.6860E-03    -90.5539E+06    -136.818E+06    -287.151E+06    -136.826E+06    -287.143E+06    -90.5539E+06     130.807E+03         50.0035
              21     2.53002E-03     76.7945E-03         4.51157         4.29437        -10.5764         4.27021        -10.3719         4.33129        -3.08963     340.435E-03    -169.862E-03    -170.573E-03    -169.968E-03     340.395E-03    -170.427E-03     8.79086E-03    -116.535E+06    -148.241E+06    -319.053E+06    -148.265E+06    -319.029E+06    -116.535E+06     1.08448E+06         49.6126
              22     1.68802E-03     76.7883E-03         4.76866         4.35785        -10.8735         4.30069        -10.4055         4.35785     560.832E-03     340.566E-03    -170.010E-03    -170.556E-03    -170.222E-03     340.553E-03    -170.331E-03     4.56675E-03    -140.535E+06    -157.414E+06    -344.312E+06    -157.436E+06    -344.291E+06    -140.535E+06     746.505E+03         49.3243
              23     844.006E-06     76.7854E-03         6.31861         5.80859        -13.8672         2.70074        -10.4850         6.04426        -7.61933     340.412E-03    -169.358E-03    -171.054E-03    -170.335E-03     340.409E-03    -170.074E-03     1.87794E-03    -159.552E+06    -164.889E+06    -358.561E+06    -164.706E+06    -358.557E+06    -159.739E+06     292.710E+03         49.1447
              24    -497.861E-09     75.3841E-03         8.04084         7.86732        -17.6763         1.65940        -11.3807         7.95320        -22.0444     339.072E-03    -168.489E-03    -170.583E-03    -169.413E-03     339.072E-03    -169.659E-03     139.661E-06    -164.330E+06    -165.863E+06    -361.538E+06    -165.491E+06    -361.537E+06    -164.704E+06    -152.682E+03         49.0818
              25     2.08070E-06     73.9787E-03         7.69539         6.86837        -16.3584         2.44704        -11.9371         7.69539        -18.0631     339.259E-03    -168.775E-03    -170.483E-03    -169.698E-03     339.257E-03    -169.559E-03     1.59621E-03    -163.825E+06    -166.723E+06    -363.343E+06    -164.987E+06    -363.340E+06    -165.564E+06    -797.606E+03         49.0896
              26    -3.41599E-06     72.5805E-03         7.33097         5.17103        -14.2861         3.36344        -12.4785         7.33097        -10.5174     339.712E-03    -169.423E-03    -170.289E-03    -169.420E-03     339.709E-03    -170.289E-03     518.316E-06    -163.049E+06    -165.826E+06    -363.325E+06    -163.063E+06    -363.312E+06    -165.826E+06     560.273E+03         49.1074
              27     3.26909E-06     71.1723E-03         6.98080         4.67554        -13.4007         4.32728        -13.0525         6.98080        -1.34299     341.128E-03    -170.236E-03    -170.892E-03    -170.805E-03     341.124E-03    -170.318E-03     1.11853E-03    -161.062E+06    -163.161E+06    -361.268E+06    -162.137E+06    -361.255E+06    -162.100E+06     574.880E+03         49.1290
              28    -2.28430E-06     69.7710E-03         6.91181         5.49786        -14.1688         5.36281        -13.5063         6.38432         6.61638     342.166E-03    -170.324E-03    -171.842E-03    -170.892E-03     342.160E-03    -171.268E-03     446.382E-06    -163.534E+06    -166.076E+06    -365.092E+06    -164.613E+06    -365.074E+06    -165.015E+06    -1.73883E+06         49.1452
              29     676.217E-09     68.3610E-03         7.64680         5.71241        -15.0692         6.25417        -13.6765         5.71241         10.8744     341.427E-03    -169.468E-03    -171.960E-03    -171.012E-03     341.424E-03    -170.412E-03    -588.421E-06    -164.710E+06    -167.382E+06    -367.509E+06    -165.941E+06    -367.469E+06    -166.191E+06      296.02E+03         49.1546
              30     1.95639E-06     66.9562E-03         8.28462         4.91734        -14.8072         6.96624        -13.4888         4.91734         10.6498     340.000E-03    -169.009E-03    -170.991E-03    -170.990E-03     339.999E-03    -169.009E-03     1.22268E-03    -165.187E+06    -166.513E+06    -367.258E+06    -166.553E+06    -367.218E+06    -165.187E+06     278.289E+03         49.1627
              31    -1.21304E-06     65.5544E-03         8.24768         3.77920        -13.6263         7.69027        -13.0689         3.77920         6.10909     339.844E-03    -169.599E-03    -170.246E-03    -170.245E-03     339.844E-03    -169.599E-03     1.10235E-03    -166.684E+06    -166.937E+06    -366.847E+06    -166.861E+06    -366.804E+06    -166.803E+06     359.452E+03         49.1743
              32     1.58185E-06     64.1528E-03         8.47275         2.64021        -12.5881         8.27575        -12.3911         2.64021        -1.07515     341.707E-03    -170.725E-03    -170.982E-03    -170.937E-03     341.706E-03    -170.769E-03     1.07485E-03    -164.479E+06    -166.600E+06    -365.701E+06    -166.529E+06    -365.654E+06    -164.598E+06     206.782E+03         49.1874
              33    -1.62483E-06     62.7410E-03         9.50300         1.43690        -12.2109         8.65924        -11.3671         1.43690        -7.89160     341.514E-03    -168.996E-03    -172.518E-03    -172.473E-03     341.513E-03    -169.041E-03    -750.022E-06    -163.340E+06    -167.663E+06    -366.988E+06    -165.378E+06    -366.953E+06    -165.661E+06    -204.104E+03         49.1973
              34     7.47060E-06     61.3393E-03         10.6136     7.73725E-03        -11.9002         8.71750        -10.0042     7.73725E-03        -12.3731     339.807E-03    -167.733E-03    -172.074E-03    -171.199E-03     339.796E-03    -168.596E-03     2.16998E-03    -160.457E+06    -162.998E+06    -363.216E+06    -160.694E+06    -363.200E+06    -162.777E+06     854.035E+03         49.2041
              35    -8.93428E-06     59.9376E-03         10.5737        -1.22671        -10.4773         8.19733        -8.10097        -1.22671        -13.3149     340.153E-03    -169.245E-03    -170.908E-03    -169.230E-03     340.138E-03    -170.908E-03     982.182E-06    -161.009E+06    -161.867E+06    -361.702E+06    -161.875E+06    -361.694E+06    -161.009E+06    -1.18839E+06         49.2117
              36     7.57838E-06     58.5311E-03         9.04976        -2.22107        -7.76376         7.24108        -5.95507        -2.22107        -10.3853     341.148E-03    -168.731E-03    -172.417E-03    -171.606E-03     341.138E-03    -169.532E-03     178.048E-06    -164.495E+06    -166.536E+06    -364.922E+06    -165.147E+06    -364.907E+06    -165.899E+06      85.484E+03         49.2209
              37    -2.73186E-06     57.1256E-03         6.60923        -2.83689        -4.72379         5.91345        -3.87700        -2.98789        -5.04009     341.016E-03    -168.218E-03    -172.798E-03    -171.097E-03     341.010E-03    -169.913E-03     2.16250E-03    -162.246E+06    -165.497E+06    -364.722E+06    -164.108E+06    -364.708E+06    -163.650E+06     145.140E+03         49.2288
              38    -98.3913E-09     55.7240E-03         4.60152        -2.25275        -3.16777         4.14899        -1.80021        -3.16777     917.955E-03     341.013E-03    -169.192E-03    -171.821E-03    -170.126E-03     341.012E-03    -170.887E-03     70.1481E-06    -161.506E+06    -165.976E+06    -365.892E+06    -163.359E+06    -365.886E+06    -164.128E+06    -781.519E+03         49.2344
              39     1.65349E-06     54.3147E-03         4.40603        -2.08775        -3.06526         2.19455     123.734E-03        -3.06526         5.66695     340.581E-03    -169.551E-03    -171.030E-03    -171.030E-03     340.580E-03    -169.551E-03     715.839E-06    -161.072E+06    -165.708E+06    -366.381E+06    -163.090E+06    -366.377E+06    -163.695E+06     636.136E+03         49.2392
              40    -702.320E-09     52.9144E-03         5.06555        -2.78730        -3.02706     147.340E-03         2.13091        -3.02706         7.27690     340.007E-03    -168.662E-03    -171.345E-03    -169.205E-03     340.005E-03    -170.800E-03     1.86842E-03    -159.605E+06    -164.250E+06    -366.128E+06    -161.634E+06    -366.114E+06    -162.237E+06    -376.205E+03         49.2450
              41    -2.92622E-06     51.5101E-03         5.51054        -2.93219        -3.18909        -1.96226         4.30996        -2.95844         5.38101     341.190E-03    -169.475E-03    -171.715E-03    -169.472E-03     341.188E-03    -171.715E-03     840.410E-06    -159.766E+06    -162.968E+06    -367.077E+06    -159.778E+06    -367.066E+06    -162.968E+06    -647.086E+03         49.2528
              42     2.75378E-06     50.1018E-03         6.42427        -3.13699        -3.89147        -3.66326         6.19606        -3.13699     999.584E-03     340.645E-03    -169.275E-03    -171.370E-03    -171.267E-03     340.644E-03    -169.378E-03    -393.569E-06    -161.440E+06    -164.610E+06    -369.361E+06    -164.041E+06    -369.359E+06    -162.011E+06     99.7323E+03         49.2618
              43     647.518E-09     48.7026E-03         8.29698        -3.58253        -5.24671        -4.76974         7.82002        -3.58253        -4.47224     339.416E-03    -168.188E-03    -171.228E-03    -170.179E-03     339.414E-03    -169.235E-03     1.35402E-03    -162.648E+06    -167.324E+06    -370.735E+06    -165.247E+06    -370.734E+06    -164.725E+06    -71.7369E+03         49.2720
              44    -2.42868E-06     47.2992E-03         10.4996        -4.18116        -6.67242        -5.46024         9.28742        -4.18116        -8.75702     340.397E-03    -169.309E-03    -171.088E-03    -170.039E-03     340.396E-03    -170.356E-03     467.333E-06    -163.282E+06    -166.822E+06    -368.776E+06    -164.750E+06    -368.770E+06    -165.359E+06     941.479E+03         49.2854
              45     3.68780E-06     45.8908E-03         11.8550        -5.07985        -7.16630        -5.67021         10.3589        -5.07985        -10.2385     340.721E-03    -169.925E-03    -170.796E-03    -170.792E-03     340.717E-03    -169.925E-03     1.27152E-03    -162.127E+06    -164.697E+06    -366.244E+06    -163.595E+06    -366.238E+06    -163.234E+06     667.352E+03         49.3006
              46    -3.46368E-06     44.4909E-03         12.2673        -5.73404        -6.79031        -5.39735         11.1951        -6.05476        -8.56505     341.343E-03    -170.437E-03    -170.907E-03    -170.571E-03     341.339E-03    -170.768E-03     1.50500E-03    -159.978E+06    -162.442E+06    -364.099E+06    -161.336E+06    -364.099E+06    -161.085E+06    -194.383E+03         49.3138
              47     2.92614E-06     43.0822E-03         12.0904        -5.28416        -6.82918        -4.93421         11.7404        -6.82918        -3.93561     341.665E-03    -169.731E-03    -171.934E-03    -171.603E-03     341.665E-03    -170.062E-03    -241.649E-06    -160.319E+06     -164.28E+06    -366.406E+06    -161.684E+06    -366.399E+06    -162.923E+06    -997.759E+03         49.3235
              48     212.123E-09     41.6764E-03         11.7970        -4.48113        -7.40728        -4.29996         11.6158        -7.40728         1.86539     339.857E-03    -168.085E-03    -171.772E-03    -169.954E-03     339.854E-03    -169.900E-03     1.76771E-03    -160.541E+06    -164.533E+06    -368.256E+06    -161.947E+06    -368.240E+06    -163.144E+06     133.807E+03         49.3310
              49    -3.25393E-06     40.2770E-03         11.9689        -4.21675        -7.58958        -3.45584         11.2080        -7.58958         6.56009     340.109E-03    -168.672E-03    -171.437E-03    -169.619E-03     340.105E-03    -170.487E-03     659.207E-06    -159.250E+06    -162.018E+06    -366.111E+06    -160.655E+06    -366.095E+06    -160.629E+06     194.005E+03         49.3386
              50     4.84413E-06     38.8703E-03         11.6458        -3.92241        -7.33014        -2.60619         10.3295        -7.33014         8.62846     341.465E-03    -169.509E-03    -171.956E-03    -171.952E-03     341.461E-03    -169.509E-03     758.052E-06    -160.053E+06    -164.625E+06    -367.539E+06    -163.253E+06    -367.532E+06    -161.432E+06    -1.01753E+06         49.3462
              51    -2.27867E-06     37.4643E-03         9.98427        -2.73859        -6.84527        -1.71969         8.96537        -6.84527         6.82300     340.868E-03    -169.565E-03    -171.303E-03    -171.058E-03     340.865E-03    -169.807E-03     1.01679E-03    -162.569E+06    -167.457E+06    -370.535E+06    -165.765E+06    -370.533E+06    -164.264E+06    -591.653E+03         49.3511
              52     1.85671E-06     36.0629E-03         7.96056        -1.05238        -6.18499    -723.116E-03         7.63130        -6.18499         1.65579     340.015E-03    -169.691E-03    -170.324E-03    -170.081E-03     340.014E-03    -169.933E-03     38.2875E-06    -164.345E+06    -166.884E+06    -370.463E+06    -165.198E+06    -370.454E+06    -166.040E+06     483.835E+03         49.3521
              53    -1.17824E-06     34.6573E-03         7.39172    -938.180E-03        -5.50571     325.823E-03         6.12772        -5.50571        -4.86773     341.025E-03    -169.928E-03    -171.097E-03    -171.096E-03     341.024E-03    -169.928E-03     1.52308E-03    -162.363E+06    -165.099E+06    -367.272E+06    -165.107E+06    -367.264E+06    -162.363E+06     828.501E+03         49.3517
              54     2.52058E-06     33.2515E-03         8.63888        -2.72755        -4.81666         1.41972         4.49161        -4.81666        -10.7509     341.520E-03    -170.008E-03    -171.512E-03    -171.511E-03     341.519E-03    -170.008E-03     543.658E-06    -161.460E+06    -166.107E+06    -365.495E+06    -163.352E+06    -365.495E+06    -164.215E+06    -54.8360E+03         49.3534
              55    -1.31853E-06     31.8473E-03         9.73225        -3.74829        -4.54480         2.59316         2.87854        -4.03255        -13.9159     339.979E-03    -169.302E-03    -170.677E-03    -170.026E-03     339.977E-03    -169.951E-03     1.08894E-03    -162.621E+06    -166.337E+06    -364.673E+06    -163.582E+06    -364.673E+06    -165.377E+06     123.509E+03         49.3588
              56     241.428E-09     30.4426E-03         9.21177        -3.16351        -4.40537         3.77350         1.03290        -3.16351        -13.2103     339.241E-03    -169.142E-03    -170.099E-03    -169.448E-03     339.239E-03    -169.791E-03     1.46787E-03    -163.790E+06    -164.780E+06    -364.894E+06    -164.760E+06    -364.885E+06    -163.819E+06    -797.446E+03         49.3662
              57     287.067E-09     29.0423E-03         7.44789        -2.16625        -3.45405         4.82721    -833.370E-03        -2.16625        -8.90302     340.114E-03    -169.596E-03    -170.518E-03    -170.515E-03     340.111E-03    -169.596E-03     1.97813E-03    -163.196E+06    -164.623E+06    -364.397E+06    -163.218E+06    -364.376E+06    -164.623E+06     181.263E+03         49.3697
              58     740.239E-09     27.6362E-03         6.24577        -1.15433        -2.97425         5.64690        -2.37538        -1.15433        -1.95919     340.213E-03    -169.779E-03    -170.434E-03    -170.388E-03     340.208E-03    -169.820E-03     715.043E-06    -161.394E+06    -162.825E+06    -361.385E+06    -161.440E+06    -361.372E+06    -162.793E+06     894.544E+03         49.3615
              59    -804.143E-09     26.2362E-03         6.95702    -134.406E-03        -4.59747         6.11489        -3.75535    -134.406E-03         5.39467     339.678E-03    -169.782E-03    -169.897E-03    -169.777E-03     339.674E-03    -169.897E-03     534.205E-06    -161.252E+06    -162.034E+06    -359.426E+06    -161.289E+06    -359.421E+06    -162.001E+06     428.033E+03         49.3324
              60     682.340E-09     24.8309E-03         8.47056         1.00099        -7.10681         6.27373        -4.90999         1.00099         10.7879     341.370E-03    -169.106E-03    -172.263E-03    -172.186E-03     341.366E-03    -169.180E-03     793.794E-06    -161.582E+06    -163.551E+06    -359.107E+06    -162.808E+06    -359.101E+06    -162.332E+06     272.069E+03         49.2695
              61     4.53578E-06     23.4231E-03         8.96123         2.07522        -8.56288         6.25258        -5.85423         2.07522         12.6637     339.477E-03    -167.060E-03    -172.417E-03    -170.140E-03     339.474E-03    -169.334E-03     457.823E-06    -162.216E+06    -164.354E+06    -358.310E+06    -163.442E+06    -358.305E+06    -163.134E+06    -1.03809E+06         49.1517
              62    -8.38988E-06     22.0271E-03         8.01552         2.91794        -8.46854         6.07705        -6.53008         2.91794         10.4944     336.633E-03    -167.027E-03    -169.605E-03    -167.328E-03     336.629E-03    -169.301E-03     44.1791E-06    -164.688E+06    -166.118E+06    -358.294E+06    -164.701E+06    -358.281E+06    -166.118E+06     262.067E+03         48.9469
              63     8.88923E-06     20.6251E-03         6.38195         3.42844        -7.31501         5.69448        -6.62754         3.42844         5.30376     336.901E-03    -167.453E-03    -169.447E-03    -169.443E-03     336.896E-03    -167.453E-03     268.335E-06    -165.040E+06    -165.584E+06    -357.482E+06    -165.050E+06    -357.473E+06    -165.584E+06     596.499E+03         48.6096
              64    -6.03724E-06     19.2274E-03         5.38166         3.42147        -6.32346         5.11156        -6.05337         3.42147        -1.11543     333.405E-03    -164.895E-03    -168.510E-03    -166.580E-03     333.401E-03    -166.820E-03     253.251E-06    -162.643E+06    -163.667E+06    -355.391E+06    -163.636E+06    -355.390E+06    -162.675E+06    -380.743E+03         48.0908
              65     2.78506E-06     17.8370E-03         5.65780         2.97901        -6.21011         4.37812        -4.93044         2.97901        -6.87171     326.119E-03    -161.069E-03    -165.050E-03    -163.121E-03     326.116E-03    -162.995E-03    -2.37562E-03    -164.624E+06    -165.806E+06    -357.057E+06    -165.806E+06    -357.057E+06    -164.624E+06    -101.153E+03         47.3548
              66     727.980E-09     16.4569E-03         6.35538         2.29016        -6.26729         3.53393        -3.44583         2.29016        -10.3920     313.798E-03    -155.784E-03    -158.014E-03    -157.833E-03     313.792E-03    -155.959E-03    -3.07388E-03    -165.069E+06    -165.356E+06    -356.600E+06    -165.263E+06    -356.597E+06    -165.165E+06     514.389E+03         46.4006
              67    -1.02429E-06     15.1042E-03         6.43903         1.43471        -5.57332         2.61106        -1.74535         1.43471        -11.1334     297.084E-03    -148.032E-03    -149.052E-03    -148.862E-03     297.070E-03    -148.208E-03    -4.93947E-03    -166.550E+06    -166.887E+06    -356.916E+06    -166.560E+06    -356.906E+06    -166.887E+06     1.36727E+06         45.2848
              68     2.48203E-06     13.7683E-03         5.81140     491.183E-03        -4.12023         1.55587     135.294E-03     491.183E-03        -9.72866     277.007E-03    -137.661E-03    -139.346E-03    -139.321E-03     276.981E-03    -137.661E-03    -6.45257E-03    -167.444E+06    -169.828E+06    -357.744E+06    -169.626E+06    -357.705E+06    -167.685E+06    -922.771E+03         44.1342
              69    -981.460E-09     12.4669E-03         5.16081    -477.147E-03        -2.61745     386.847E-03         2.15651    -477.147E-03        -7.33522     251.742E-03    -125.296E-03    -126.446E-03    -126.401E-03     251.698E-03    -125.296E-03    -8.09479E-03    -161.102E+06    -167.689E+06    -353.617E+06    -163.331E+06    -353.531E+06    -165.546E+06     545.217E+03         43.1428
              70     1.44696E-06     11.2010E-03         5.35034        -1.43950        -1.95361    -827.114E-03         4.22384        -1.43950        -4.88229     225.543E-03    -112.532E-03    -113.010E-03    -112.948E-03     225.480E-03    -112.532E-03    -9.18709E-03    -162.093E+06    -171.266E+06    -351.934E+06    -166.904E+06    -351.851E+06    -166.537E+06     692.327E+03         42.5419
              71    -1.13515E-06     9.96637E-03         6.61754        -2.32044        -2.45568        -2.02683         6.32206        -2.45381        -2.92048     206.076E-03    -102.679E-03    -103.398E-03    -103.352E-03     206.031E-03    -102.679E-03    -7.29312E-03    -170.354E+06    -180.770E+06    -351.479E+06    -175.124E+06    -351.438E+06    -176.042E+06    -538.803E+03         42.5492
              72     2.03847E-06     8.74840E-03         8.44672        -3.20124        -3.50820        -3.14337         8.38885        -3.50820        -1.27254     202.500E-03    -100.927E-03    -101.573E-03    -101.561E-03     202.488E-03    -100.927E-03    -2.89064E-03    -169.769E+06    -180.647E+06    -343.767E+06    -175.035E+06    -343.692E+06    -175.456E+06     3.29605E+06         43.3263
              73    -1.77159E-06     7.52587E-03         10.2650        -4.12532        -4.49776        -4.10184         10.2415        -4.49776     620.079E-03     225.075E-03    -112.460E-03    -112.615E-03    -112.590E-03     225.050E-03    -112.460E-03     4.10093E-03    -157.492E+06    -166.126E+06    -334.374E+06    -162.747E+06    -334.310E+06    -160.935E+06     1.93360E+06         44.9611
              74     1.98293E-06     6.25213E-03         12.0295        -5.04210        -5.41497        -4.85679         11.8442        -5.41497         3.26083     280.263E-03    -139.580E-03    -140.683E-03    -140.589E-03     280.169E-03    -139.580E-03     12.3803E-03    -141.125E+06    -144.947E+06    -325.470E+06    -141.583E+06    -325.390E+06    -144.568E+06     2.37947E+06         47.4623
              75     35.1898E-09     4.88444E-03         13.7694        -5.98782        -6.33081        -5.59780         13.2104        -6.16183         6.47214     362.284E-03    -180.456E-03    -181.828E-03    -181.655E-03     362.111E-03    -180.456E-03     19.4070E-03    -122.389E+06    -123.245E+06    -309.456E+06    -123.345E+06    -309.356E+06    -122.389E+06     4.12623E+06         50.7100
              76     769.156E-09     3.37862E-03         15.2099        -6.58652        -7.28683        -6.46147         14.3845        -6.58652         8.45848     451.549E-03    -225.293E-03    -226.256E-03    -225.464E-03     451.390E-03    -225.926E-03     20.2435E-03    -106.112E+06    -106.899E+06    -294.481E+06    -106.611E+06    -294.459E+06    -106.422E+06     1.31775E+06         54.3651
              77    -1.65202E-06     1.73544E-03         15.8697        -6.77285        -7.80962        -7.29694         15.3571        -6.77285         6.39797     521.938E-03    -260.648E-03    -261.290E-03    -260.583E-03     521.873E-03    -261.290E-03     13.2832E-03    -96.4596E+06    -97.2585E+06    -285.352E+06    -96.9845E+06    -285.315E+06    -96.7703E+06     1.73353E+06         57.8909
              78     753.045E-06    -69.3889E-18         16.0545        -7.08780        -7.69052        -7.59652         15.9605        -7.08780         1.25069     544.965E-03    -271.423E-03    -273.541E-03    -271.362E-03     544.903E-03    -273.541E-03     13.3650E-03    -91.1759E+06    -93.1235E+06    -280.145E+06    -93.1772E+06    -280.091E+06    -91.1759E+06     3.11512E+06         59.4361
              79     1.51431E-03    -69.3889E-18         15.9278        -7.23839        -7.43690        -7.32234         15.9145        -7.33961    -411.465E-03     532.724E-03    -262.236E-03    -270.488E-03    -262.103E-03     532.591E-03    -270.488E-03     20.3892E-03    -89.5743E+06    -93.4640E+06    -279.122E+06    -93.4813E+06    -279.105E+06    -89.5743E+06     1.38839E+06         59.1242
              80     2.28563E-03    -69.3889E-18         15.6513        -7.13978        -7.30830        -7.13755         15.6491        -7.30830     267.586E-03     514.147E-03    -248.509E-03    -265.638E-03    -248.275E-03     513.912E-03    -265.638E-03     26.4067E-03    -85.4597E+06    -92.4217E+06    -276.451E+06    -92.4422E+06    -276.431E+06    -85.4597E+06     1.48954E+06         58.6354
              81     3.06763E-03    -69.3889E-18         15.4456        -6.99455        -7.24889        -6.99448         15.4456        -7.24889    -21.5984E-03     491.655E-03    -232.231E-03    -259.424E-03    -231.877E-03     491.301E-03    -259.424E-03     31.9015E-03    -79.8166E+06    -91.9606E+06    -273.084E+06    -92.0170E+06    -273.028E+06    -79.8166E+06     3.16367E+06         57.9912
              82     3.86634E-03    -69.3889E-18         15.1049        -6.72219        -7.17159        -6.72200         15.1047        -7.17159     112.021E-03     466.576E-03    -214.342E-03    -252.234E-03    -213.886E-03     466.120E-03    -252.234E-03     35.1348E-03    -72.2652E+06    -90.9902E+06    -268.263E+06    -91.0327E+06    -268.221E+06    -72.2652E+06     1.04795E+06         57.2318
              83     4.67906E-03    -69.3889E-18         14.7333        -6.43741        -7.07140        -6.43723         14.7331        -7.07140     66.0263E-03     440.194E-03    -195.903E-03    -244.291E-03    -195.357E-03     439.647E-03    -244.291E-03     37.2173E-03    -67.5612E+06    -87.3138E+06    -239.256E+06    -87.3221E+06    -239.248E+06    -67.5612E+06    -1.09769E+06         56.4125
              84     5.50873E-03    -69.3889E-18         14.2674        -6.09555        -6.95276        -6.09544         14.2673        -6.95276     43.8809E-03     413.973E-03    -178.097E-03    -235.876E-03    -177.512E-03     413.388E-03    -235.876E-03     37.1917E-03    -67.5397E+06    -81.9433E+06    -185.534E+06    -82.1859E+06    -185.292E+06    -67.5397E+06    -3.40575E+06         55.6006
              85     6.35438E-03    -69.3889E-18         13.7418        -5.73149        -6.81687        -5.73139         13.7417        -6.81687     66.9254E-03     389.273E-03    -161.934E-03    -227.338E-03    -161.358E-03     388.696E-03    -227.338E-03     35.6224E-03    -65.0914E+06    -71.1935E+06    -125.321E+06    -73.6090E+06    -122.568E+06    -65.4297E+06     -8.7351E+06         54.8759
              86     7.21207E-03    -69.3889E-18         13.1609        -5.33218        -6.66605        -5.33213         13.1608        -6.66605     43.9822E-03     367.189E-03    -148.239E-03    -218.950E-03    -147.637E-03     366.587E-03    -218.950E-03     35.1787E-03    -31.9445E+06    -59.9300E+06    -75.1347E+06    -61.0170E+06    -46.0622E+06    -59.9300E+06    -11.5581E+06         54.3338
              87     8.07931E-03    -69.3889E-18         12.5396        -4.89772        -6.50109        -4.89766         12.5395        -6.50109     61.8963E-03     348.893E-03    -137.855E-03    -211.038E-03    -137.186E-03     348.225E-03    -211.038E-03     36.0188E-03     24.3744E+06    -44.7018E+06    -49.3815E+06    -47.7477E+06     22.7405E+06    -44.7018E+06    -9.76439E+06         54.0857
              88     8.95625E-03    -69.3889E-18         11.8778        -4.42460        -6.32262        -4.42456         11.8778        -6.32262     46.6888E-03     334.884E-03    -131.008E-03    -203.876E-03    -130.333E-03     334.209E-03    -203.876E-03     35.4462E-03     58.3643E+06    -18.0993E+06    -37.6911E+06    -37.3265E+06     57.9997E+06    -18.0993E+06    -5.18673E+06         54.2515
              89     9.83667E-03    -69.3889E-18         11.1586        -3.91140        -6.13099        -3.91138         11.1586        -6.13099     26.0181E-03     324.216E-03    -126.722E-03    -197.495E-03    -126.003E-03     323.498E-03    -197.495E-03     35.9016E-03     72.2781E+06     7.34106E+06    -30.3044E+06    -30.2421E+06     72.2158E+06     7.34106E+06    -2.52428E+06         54.9394
              90     10.7177E-03    -69.3889E-18         10.3906        -3.37938        -5.92721        -3.37937         10.3906        -5.92721     14.0511E-03     316.362E-03    -124.463E-03    -191.900E-03    -123.583E-03     315.483E-03    -191.900E-03     39.2767E-03     81.7321E+06     36.2528E+06    -22.8009E+06    -22.7589E+06     81.6900E+06     36.2528E+06    -2.06252E+06         56.2073
              91     11.6011E-03    -69.3889E-18         9.57660        -2.81980        -5.71282        -2.81978         9.57659        -5.71282     1.54489E-03     314.756E-03    -127.545E-03    -187.211E-03    -126.581E-03     313.791E-03    -187.211E-03     41.2656E-03     85.5881E+06     66.6729E+06    -16.6828E+06    -16.5776E+06     82.1445E+06     70.0113E+06     1.22430E+06         58.0060
              92     12.4870E-03    -69.3889E-18         8.75061        -2.23546        -5.48959        -2.23545         8.75060        -5.48959    -1.01390E-03     323.559E-03    -139.927E-03    -183.632E-03    -138.278E-03     321.910E-03    -183.632E-03     54.1056E-03     90.0327E+06     82.0238E+06    -13.8817E+06    -13.7297E+06     81.8718E+06     90.0327E+06     3.79021E+06         60.1397
              93     13.3229E-03    -69.3889E-18         7.94049        -1.63350        -5.25987        -1.63337         7.94036        -5.25987    -36.7300E-03     342.401E-03    -160.936E-03    -181.465E-03    -157.029E-03     338.494E-03    -181.465E-03     86.8453E-03     101.421E+06     93.1824E+06    -11.1575E+06    -10.8459E+06     92.8708E+06     101.421E+06     5.43886E+06         62.2976
              94     14.1663E-03    -69.3889E-18         7.28219        -1.12489        -5.03083        -1.12009         7.27740        -5.03083     224.690E-03     410.762E-03    -178.066E-03    -232.696E-03    -218.220E-03     400.043E-03    -181.823E-03     161.855E-03     126.640E+06     115.290E+06     2.21421E+06     2.50812E+06     114.996E+06     126.640E+06     5.28828E+06         64.1173
              95     15.0357E-03     1.71997E-03         6.69989    -868.615E-03        -4.83380    -850.332E-03         6.68161        -4.83380     713.862E-03     425.366E-03    -180.275E-03    -245.090E-03    -229.205E-03     409.481E-03    -180.275E-03     203.574E-03     131.189E+06     123.280E+06     308.382E+03     583.565E+03     123.005E+06     131.189E+06     5.45596E+06         64.6989
              96     15.1281E-03     3.07723E-03         6.17158    -796.999E-03        -4.59609    -773.441E-03         6.14802        -4.59609     807.387E-03     365.238E-03    -175.600E-03    -189.638E-03    -177.096E-03     352.792E-03    -175.696E-03     163.350E-03     120.476E+06     117.304E+06    -9.35296E+06    -9.02448E+06     120.021E+06     117.431E+06     6.37257E+06         64.6995
              97     15.1683E-03     4.46569E-03         5.86208    -801.859E-03        -4.22098    -783.004E-03         5.84323        -4.22098     707.783E-03     354.298E-03    -172.171E-03    -182.127E-03    -176.576E-03     348.843E-03    -172.267E-03     99.8739E-03     119.298E+06     113.140E+06    -5.84320E+06    -5.74565E+06     119.200E+06     113.140E+06     2.79175E+06         65.1633
              98     15.1913E-03     5.89804E-03         5.62671    -881.417E-03        -3.71836    -862.743E-03         5.60803        -3.71836     695.951E-03     365.568E-03    -170.236E-03    -195.332E-03    -193.361E-03     363.597E-03    -170.236E-03     66.3465E-03     117.929E+06     113.340E+06    -3.68251E+06    -3.64856E+06     117.895E+06     113.340E+06    -1.10232E+06         65.6296
              99     15.1964E-03     7.35266E-03         5.39445        -1.01495        -3.10580    -996.450E-03         5.37595        -3.10580     687.519E-03     375.334E-03    -169.383E-03    -205.952E-03    -204.091E-03     373.473E-03    -169.383E-03     65.4755E-03     118.595E+06     116.341E+06    -2.80587E+06    -2.77265E+06     117.785E+06     117.118E+06    -1.62490E+06         65.9234
             100     15.1974E-03     8.83509E-03         5.15603        -1.16637        -2.41058        -1.15117         5.14083        -2.41058     617.660E-03     380.018E-03    -169.115E-03    -210.902E-03    -208.885E-03     378.000E-03    -169.115E-03     68.5615E-03     117.609E+06     116.804E+06    -3.59846E+06    -3.59510E+06     116.800E+06     117.609E+06     175.132E+03         66.0018
             101     15.1990E-03     10.2848E-03         4.87619        -1.26813        -1.72953        -1.31690         4.86628        -1.67084     490.012E-03     380.013E-03    -169.078E-03    -210.934E-03    -208.557E-03     377.635E-03    -169.078E-03     74.8094E-03     119.060E+06     118.991E+06    -3.11371E+06    -3.10880E+06     118.987E+06     119.060E+06     774.066E+03         65.8835
             102     15.1978E-03     11.7606E-03         4.58027    -923.118E-03        -1.47812        -1.47311         4.57526    -923.118E-03     342.301E-03     380.463E-03    -169.088E-03    -211.375E-03    -208.811E-03     377.899E-03    -169.088E-03     77.6609E-03     120.716E+06     120.296E+06    -3.88996E+06    -3.88729E+06     120.672E+06     120.337E+06     521.332E+03         65.6160
             103     15.1978E-03     13.2172E-03         4.28802    -202.030E-03        -1.62107        -1.61896         4.28591    -202.030E-03     216.612E-03     378.520E-03    -169.185E-03    -209.336E-03    -206.467E-03     375.651E-03    -169.185E-03     81.9275E-03     121.368E+06     120.451E+06    -3.40991E+06    -3.40862E+06     120.828E+06     120.989E+06    -102.647E+03         65.2564
             104     15.1973E-03     14.6760E-03         4.00280     458.648E-03        -1.75155        -1.75081         4.00205     458.648E-03     127.670E-03     374.161E-03    -169.307E-03    -204.854E-03    -201.882E-03     371.189E-03    -169.307E-03     82.7536E-03     121.306E+06     119.800E+06    -3.61091E+06    -3.60890E+06     120.766E+06     120.339E+06    -499.464E+03         64.8697
             105     15.1981E-03     16.1194E-03         3.73211         1.03173        -1.85132        -1.85099         3.73178         1.03173     84.4869E-03     367.291E-03    -169.501E-03    -197.790E-03    -194.765E-03     364.266E-03    -169.501E-03     82.4632E-03     122.032E+06     120.923E+06    -2.71371E+06    -2.71137E+06     121.888E+06     121.065E+06     26.6019E+03         64.5146
             106     15.1969E-03     17.5574E-03         3.48122         1.49765        -1.92200        -1.92171         3.48093         1.49765     79.1935E-03     359.283E-03    -169.728E-03    -189.555E-03    -186.534E-03     356.262E-03    -169.728E-03     81.2136E-03     120.450E+06     119.481E+06    -4.00160E+06    -3.99980E+06     120.307E+06     119.623E+06     105.131E+03         64.2367
             107     15.1983E-03     18.9694E-03         3.26102         1.84273        -1.95191        -1.95146         3.26057         1.84273     96.2642E-03     352.022E-03    -169.905E-03    -182.117E-03    -179.433E-03     349.338E-03    -169.905E-03     75.4386E-03     119.487E+06     118.656E+06    -3.99647E+06    -3.98996E+06     119.481E+06     118.656E+06    -779.495E+03         64.0579
             108     15.1975E-03     20.3814E-03         3.08197         2.05410        -1.94721        -1.94654         3.08130         2.05410     116.299E-03     346.111E-03    -170.041E-03    -176.070E-03    -173.810E-03     343.851E-03    -170.041E-03     68.5466E-03     120.288E+06     118.534E+06    -2.67764E+06    -2.66085E+06     120.271E+06     118.534E+06     218.570E+03         63.9702
             109     15.1986E-03     21.7864E-03         2.93549         2.12197        -1.91551        -1.91448         2.93445         2.12197     140.380E-03     342.711E-03    -170.153E-03    -172.558E-03    -170.487E-03     340.640E-03    -170.153E-03     65.1948E-03     120.252E+06     117.046E+06    -4.35405E+06    -4.34226E+06     120.240E+06     117.046E+06     568.494E+03         63.9467
             110     15.1958E-03     23.1907E-03         2.82845         2.04770        -1.85221        -1.85040         2.82664         2.04770     181.748E-03     341.271E-03    -170.223E-03    -171.049E-03    -169.169E-03     339.392E-03    -170.223E-03     61.9264E-03     120.120E+06     117.523E+06    -3.22371E+06    -3.22155E+06     120.118E+06     117.523E+06    -516.849E+03         63.9567
             111     15.1984E-03     24.5901E-03         2.76315         1.84161        -1.75762        -1.75460         2.76013         1.84161     231.724E-03     339.729E-03    -169.455E-03    -170.274E-03    -167.752E-03     337.969E-03    -170.217E-03     59.7655E-03     119.097E+06     117.232E+06    -2.97061E+06    -2.96774E+06     119.094E+06     117.232E+06    -587.781E+03         63.9782
             112     15.1986E-03     25.9952E-03         2.73824         1.51747        -1.62934        -1.62475         2.73365         1.51747     281.442E-03     339.235E-03    -169.066E-03    -170.169E-03    -167.291E-03     337.460E-03    -170.169E-03     59.9575E-03     118.261E+06     116.888E+06    -3.26496E+06    -3.25996E+06     118.256E+06     116.888E+06     123.008E+03         64.0017
             113     15.1991E-03     27.4001E-03         2.75206         1.08810        -1.47382        -1.46698         2.74522         1.08810     337.707E-03     340.293E-03    -169.799E-03    -170.495E-03    -168.354E-03     338.494E-03    -170.140E-03     60.5003E-03     118.557E+06     117.473E+06    -3.73635E+06    -3.73301E+06     118.554E+06     117.473E+06     385.396E+03         64.0251
             114     15.1981E-03     28.8031E-03         2.80038     570.415E-03        -1.31352        -1.30422         2.79108     570.415E-03     389.941E-03     340.674E-03    -170.133E-03    -170.541E-03    -168.817E-03     338.950E-03    -170.133E-03     59.2669E-03     118.491E+06     117.795E+06    -3.57185E+06    -3.57135E+06     118.229E+06     118.057E+06    -224.211E+03         64.0495
             115     15.1995E-03     30.2084E-03         2.87131    -8.75381E-03        -1.13888        -1.12746         2.85988    -8.75381E-03     426.943E-03     340.187E-03    -169.991E-03    -170.196E-03    -168.302E-03     338.444E-03    -170.142E-03     59.5212E-03     118.226E+06     117.433E+06    -2.65367E+06    -2.65320E+06     117.433E+06     118.226E+06    -125.860E+03         64.0746
             116     15.1981E-03     31.6154E-03         2.97037    -593.040E-03    -987.027E-03    -947.195E-03         2.95720    -619.695E-03     454.186E-03     340.470E-03    -170.012E-03    -170.457E-03    -168.544E-03     338.707E-03    -170.163E-03     59.8998E-03     117.752E+06     116.638E+06    -3.23531E+06    -3.23155E+06     116.634E+06     117.752E+06     510.952E+03         64.0992
             117     15.1978E-03     33.0156E-03         3.09252    -786.234E-03        -1.23471    -772.280E-03         3.07856        -1.23471     464.443E-03     340.535E-03    -170.052E-03    -170.483E-03    -168.674E-03     338.863E-03    -170.189E-03     58.3587E-03     117.713E+06     115.832E+06    -3.89489E+06    -3.89007E+06     115.828E+06     117.713E+06     218.292E+03         64.1217
             118     15.1981E-03     34.4229E-03         3.20840    -617.445E-03        -1.82871    -603.670E-03         3.19462        -1.82871     458.307E-03     340.115E-03    -169.925E-03    -170.191E-03    -168.187E-03     338.378E-03    -170.191E-03     59.4180E-03     117.127E+06     114.462E+06    -3.63030E+06    -3.62913E+06     114.461E+06     117.127E+06    -320.694E+03         64.1424
             119     15.1986E-03     35.8275E-03         3.31406    -468.623E-03        -2.37703    -455.096E-03         3.30054        -2.37703     451.587E-03     339.967E-03    -169.795E-03    -170.172E-03    -168.043E-03     338.216E-03    -170.172E-03     59.6459E-03     116.628E+06     113.233E+06    -2.97409E+06    -2.97380E+06     113.232E+06     116.628E+06    -175.641E+03         64.1626
             120     15.1986E-03     37.2282E-03         3.39887    -328.405E-03        -2.85541    -315.122E-03         3.38559        -2.85541     444.223E-03     339.898E-03    -169.735E-03    -170.162E-03    -168.041E-03     338.203E-03    -170.162E-03     58.6827E-03     116.973E+06     113.101E+06    -3.44363E+06    -3.44269E+06     113.100E+06     116.973E+06    -316.505E+03         64.1834
             121     15.1988E-03     38.6358E-03         3.43123    -210.085E-03        -3.24417    -197.497E-03         3.41864        -3.24417     427.409E-03     340.333E-03    -169.972E-03    -170.361E-03    -168.436E-03     338.586E-03    -170.150E-03     59.6121E-03     117.633E+06     113.497E+06    -3.01474E+06    -3.01331E+06     113.495E+06     117.633E+06    -4.52705E+03         64.2057
             122     15.1987E-03     40.0393E-03         3.40441    -101.326E-03        -3.52620    -88.7877E-03         3.39187        -3.52620     418.374E-03     340.664E-03    -170.146E-03    -170.518E-03    -168.785E-03     338.931E-03    -170.146E-03     59.4094E-03     117.689E+06     114.043E+06    -3.36420E+06    -3.36300E+06     114.042E+06     117.689E+06     30.3775E+03         64.2283
             123     15.1983E-03     41.4450E-03         3.31823    -9.11397E-03        -3.68658     4.82239E-03         3.30429        -3.68658     429.273E-03     340.265E-03    -169.949E-03    -170.316E-03    -168.417E-03     338.573E-03    -170.156E-03     58.6759E-03     116.907E+06     113.197E+06    -3.76684E+06    -3.76444E+06     113.195E+06     116.907E+06    -502.353E+03         64.2503
             124     15.1990E-03     42.8469E-03         3.17003     54.7974E-03        -3.71651     71.2555E-03         3.15357        -3.71651     450.639E-03     339.550E-03    -169.394E-03    -170.155E-03    -167.668E-03     337.823E-03    -170.155E-03     59.1812E-03     116.756E+06     111.298E+06    -3.16381E+06    -3.16188E+06     111.296E+06     116.756E+06    -302.263E+03         64.2731
             125     15.1994E-03     44.2536E-03         2.95475     111.009E-03        -3.61570     131.379E-03         2.93438        -3.61570     477.912E-03     339.757E-03    -169.592E-03    -170.165E-03    -167.850E-03     337.997E-03    -170.146E-03     59.7870E-03     117.101E+06     111.188E+06    -3.40570E+06    -3.40555E+06     111.187E+06     117.101E+06     117.167E+03         64.2975
             126     15.1984E-03     45.6546E-03         2.64634     152.568E-03        -3.39279     178.845E-03         2.62006        -3.39279     506.239E-03     340.419E-03    -170.130E-03    -170.289E-03    -168.549E-03     338.679E-03    -170.130E-03     59.5162E-03     117.220E+06     112.087E+06    -3.60024E+06    -3.60008E+06     112.086E+06     117.220E+06     120.371E+03         64.3235
             127     15.1998E-03     47.0612E-03         2.25952     182.415E-03        -3.05864     220.641E-03         2.22129        -3.05864     550.668E-03     340.262E-03    -170.004E-03    -170.257E-03    -168.413E-03     338.530E-03    -170.118E-03     59.3515E-03     117.537E+06     112.191E+06    -2.78918E+06    -2.78648E+06     112.189E+06     117.537E+06    -358.538E+03         64.3507
             128     15.1990E-03     48.4656E-03         1.82203     182.561E-03        -2.62293     242.865E-03         1.76173        -2.62293     606.201E-03     340.604E-03    -170.002E-03    -170.602E-03    -168.759E-03     338.875E-03    -170.116E-03     59.3504E-03     117.335E+06     110.868E+06    -3.51642E+06    -3.51249E+06     110.864E+06     117.335E+06    -659.080E+03         64.3786
             129     15.1988E-03     49.8690E-03         1.33533     154.715E-03        -2.09855     253.660E-03         1.23639        -2.09855     633.897E-03     340.473E-03    -169.855E-03    -170.618E-03    -168.663E-03     338.794E-03    -170.132E-03     58.4674E-03     118.171E+06     111.477E+06    -3.02647E+06    -3.01764E+06     111.468E+06     118.171E+06     387.669E+03         64.4066
             130     15.1993E-03     51.2766E-03     853.775E-03     58.7134E-03        -1.50430     289.415E-03     623.073E-03        -1.50430     642.019E-03     340.305E-03    -169.865E-03    -170.439E-03    -168.385E-03     338.527E-03    -170.142E-03     60.1060E-03     117.771E+06     112.701E+06    -3.57161E+06    -3.56379E+06     112.693E+06     117.771E+06     536.538E+03         64.4350
             131     15.1983E-03     52.6795E-03     552.792E-03    -277.434E-03    -870.660E-03     338.895E-03    -71.2634E-03    -862.934E-03     650.806E-03     340.816E-03    -170.141E-03    -170.675E-03    -168.928E-03     339.069E-03    -170.141E-03     59.6235E-03     117.252E+06     113.222E+06    -2.94596E+06    -2.94359E+06     113.219E+06     117.252E+06     228.208E+03         64.4627
             132     15.1987E-03     54.0848E-03     477.218E-03    -194.588E-03    -905.800E-03     386.808E-03    -815.389E-03    -194.588E-03     652.614E-03     340.212E-03    -169.817E-03    -170.396E-03    -168.391E-03     338.551E-03    -170.160E-03     58.1296E-03     116.955E+06     113.995E+06    -3.19965E+06    -3.19750E+06     113.993E+06     116.955E+06     374.281E+03         64.4883
             133     15.1985E-03     55.4872E-03     648.507E-03     332.814E-03        -1.63870     445.842E-03        -1.58630     483.083E-03     647.401E-03     339.846E-03    -169.677E-03    -170.170E-03    -167.958E-03     338.128E-03    -170.170E-03     59.0813E-03     116.739E+06     113.978E+06    -4.11403E+06    -4.11397E+06     113.978E+06     116.739E+06    -28.9173E+03         64.5125
             134     15.1987E-03     56.8948E-03         1.15148     547.925E-03        -2.40836     512.226E-03        -2.37266         1.15148     637.959E-03     340.193E-03    -170.008E-03    -170.185E-03    -168.256E-03     338.413E-03    -170.157E-03     60.1494E-03     117.234E+06     113.794E+06    -3.25127E+06    -3.24926E+06     113.792E+06     117.234E+06    -396.417E+03         64.5378
             135     15.1989E-03     58.2963E-03         1.79245     618.411E-03        -3.19350     593.548E-03        -3.16864         1.79245     605.991E-03     340.535E-03    -170.143E-03    -170.392E-03    -168.619E-03     338.762E-03    -170.143E-03     60.0714E-03     118.160E+06     114.535E+06    -2.87636E+06    -2.86440E+06     114.523E+06     118.160E+06     420.065E+03         64.5659
             136     15.1988E-03     59.7035E-03         2.38850     721.229E-03        -3.99621     704.541E-03        -3.97952         2.38850     554.107E-03     340.631E-03    -170.150E-03    -170.481E-03    -168.749E-03     338.899E-03    -170.150E-03     59.4013E-03     117.996E+06     115.389E+06    -3.68649E+06    -3.67576E+06     115.378E+06     117.996E+06     973.164E+03         64.5963
             137     15.1981E-03     61.1078E-03         2.92426     847.060E-03        -4.78658     835.044E-03        -4.77456         2.92426     517.188E-03     340.184E-03    -169.901E-03    -170.283E-03    -168.304E-03     338.477E-03    -170.174E-03     58.9005E-03     117.093E+06     115.744E+06    -3.30947E+06    -3.30274E+06     115.737E+06     117.093E+06    -377.074E+03         64.6256
             138     15.1986E-03     62.5084E-03         3.38602     970.152E-03        -5.50888     960.849E-03        -5.49957         3.38602     488.277E-03     339.475E-03    -169.305E-03    -170.169E-03    -167.645E-03     337.814E-03    -170.169E-03     58.0343E-03     116.699E+06     115.754E+06    -3.20245E+06    -3.19512E+06     115.752E+06     116.694E+06    -874.715E+03         64.6534
             139     15.1995E-03     63.9138E-03         3.76328         1.08604        -6.17422         1.07917        -6.16735         3.76328     443.724E-03     339.744E-03    -169.552E-03    -170.192E-03    -167.884E-03     338.027E-03    -170.143E-03     59.0382E-03     117.443E+06     116.627E+06    -3.55533E+06    -3.55231E+06     116.628E+06     117.438E+06     29.5511E+03         64.6823
             140     15.1986E-03     65.3201E-03         4.05390         1.22387        -6.78535         1.21849        -6.77997         4.05390     414.504E-03     340.388E-03    -170.140E-03    -170.249E-03    -168.515E-03     338.655E-03    -170.140E-03     59.4010E-03     118.852E+06     117.813E+06    -2.96743E+06    -2.96464E+06     118.038E+06     118.625E+06     52.8446E+03         64.7128
             141     15.1989E-03     66.7225E-03         4.25889         1.36532        -7.30889         1.36036        -7.30394         4.25889     414.480E-03     340.063E-03    -169.855E-03    -170.208E-03    -168.196E-03     338.343E-03    -170.147E-03     59.1363E-03     118.182E+06     117.169E+06    -3.27529E+06     -3.2728E+06     117.394E+06     117.955E+06     21.7137E+03         64.7432
             142     15.1991E-03     68.1277E-03         4.37693         1.48993        -7.70091         1.48477        -7.69576         4.37693     435.199E-03     340.120E-03    -169.835E-03    -170.285E-03    -168.233E-03     338.360E-03    -170.127E-03     59.8150E-03     118.191E+06     116.393E+06    -3.91922E+06    -3.91672E+06     117.402E+06     117.180E+06     549.702E+03         64.7744
             143     15.1993E-03     69.5319E-03         4.40523         1.58379        -7.94750         1.57809        -7.94179         4.40523     466.229E-03     340.507E-03    -170.112E-03    -170.395E-03    -168.637E-03     338.749E-03    -170.112E-03     59.8304E-03     119.536E+06     118.103E+06    -3.44845E+06    -3.44720E+06     119.534E+06     118.103E+06     350.086E+03         64.8075
             144     15.1990E-03     70.9386E-03         4.34419         1.64622        -8.06611         1.63991        -8.05981         4.34419     494.597E-03     340.296E-03    -170.041E-03    -170.256E-03    -168.453E-03     338.585E-03    -170.131E-03     59.0222E-03     119.555E+06     118.149E+06    -2.86984E+06    -2.86908E+06     119.554E+06     118.149E+06    -114.840E+03         64.8415
             145     15.1986E-03     72.3386E-03         4.20283         1.69194        -8.05100         1.68448        -8.04354         4.20283     538.067E-03     339.512E-03    -169.363E-03    -170.149E-03    -167.686E-03     337.836E-03    -170.149E-03     58.3168E-03     119.332E+06     117.194E+06    -3.74075E+06    -3.73939E+06     119.330E+06     117.194E+06    -408.940E+03         64.8749
             146     15.1997E-03     73.7448E-03         3.99235         1.70564        -7.89646         1.69670        -7.88752         3.99235     585.113E-03     339.471E-03    -169.344E-03    -170.127E-03    -167.600E-03     337.727E-03    -170.127E-03     59.4597E-03     120.322E+06     117.861E+06    -3.04111E+06    -3.03869E+06     120.319E+06     117.861E+06    -535.449E+03         64.9096
             147     15.1995E-03     75.1466E-03         3.72098         1.69522        -7.61177         1.68471        -7.60126         3.72098     624.335E-03     340.602E-03    -170.003E-03    -170.599E-03    -168.741E-03     338.831E-03    -170.090E-03     60.0663E-03     120.741E+06     118.460E+06    -3.21229E+06    -3.20365E+06     120.732E+06     118.460E+06     328.523E+03         64.9475
             148     15.1993E-03     76.5573E-03         3.39547         1.65664        -7.20781         1.64475        -7.19592         3.39547     648.648E-03     341.013E-03    -170.103E-03    -170.910E-03    -169.158E-03     339.261E-03    -170.103E-03     59.7830E-03     120.478E+06     118.072E+06    -3.55587E+06    -3.54808E+06     120.470E+06     118.072E+06     424.293E+03         64.9856
             149     15.1992E-03     79.3626E-03         2.61901         1.47783        -6.07247         1.46468        -6.05931         2.61901     629.307E-03     339.959E-03    -169.811E-03    -170.148E-03    -168.087E-03     338.236E-03    -170.148E-03     59.1550E-03     120.549E+06     117.602E+06    -3.29873E+06    -3.29663E+06     120.547E+06     117.602E+06     502.082E+03         65.0561
             150     15.1987E-03     80.7702E-03         2.19075         1.34203        -5.35122         1.32887        -5.33806         2.19075     592.930E-03     339.829E-03    -169.690E-03    -170.139E-03    -167.922E-03     338.062E-03    -170.139E-03     59.9159E-03     121.402E+06     117.224E+06    -3.37326E+06    -3.37182E+06     121.400E+06     117.224E+06     301.613E+03         65.0920
             151     15.1995E-03     82.1672E-03         1.74650         1.18316        -4.55219         1.17070        -4.53972         1.74650     534.113E-03     339.885E-03    -169.762E-03    -170.123E-03    -168.084E-03     338.207E-03    -170.123E-03     58.3883E-03     122.140E+06     116.880E+06    -3.31666E+06    -3.31657E+06     122.140E+06     116.880E+06     74.5087E+03         65.1295
             152     15.1988E-03     83.5775E-03         1.29303         1.00417        -3.69432     991.938E-03        -3.68209         1.29303     477.708E-03     340.062E-03    -169.935E-03    -170.127E-03    -168.219E-03     338.345E-03    -170.127E-03     59.0629E-03     123.387E+06     116.988E+06    -3.06978E+06    -3.06783E+06     123.385E+06     116.988E+06    -269.453E+03         65.1669
             153     15.1989E-03     84.9802E-03     883.530E-03     759.248E-03        -2.78686     793.692E-03        -2.77435     836.576E-03     421.871E-03     340.197E-03    -170.073E-03    -170.124E-03    -168.271E-03     338.396E-03    -170.124E-03     60.5284E-03     123.466E+06     116.664E+06    -3.22996E+06    -3.22806E+06     123.464E+06     116.664E+06    -393.317E+03         65.2046
             154     15.1995E-03     86.3838E-03     607.818E-03     381.672E-03        -1.85815     593.966E-03        -1.84430     381.672E-03     363.788E-03     340.354E-03    -170.093E-03    -170.261E-03    -168.517E-03     338.617E-03    -170.099E-03     59.4608E-03     122.967E+06     116.422E+06    -3.19867E+06    -3.19820E+06     122.966E+06     116.422E+06    -216.773E+03         65.2458
             155     15.1993E-03     87.7888E-03     412.031E-03    -69.3889E-03    -938.407E-03     389.755E-03    -916.131E-03    -69.3889E-03     319.139E-03     340.483E-03    -170.101E-03    -170.382E-03    -168.714E-03     338.816E-03    -170.101E-03     58.2781E-03     122.401E+06     116.329E+06    -3.16119E+06    -3.16025E+06     122.400E+06     116.329E+06     10.7655E+03         65.2901
             156     15.1987E-03     89.1938E-03     404.711E-03    -131.019E-03    -604.669E-03     178.268E-03     1.20148E-03    -510.446E-03     285.630E-03     340.076E-03    -169.825E-03    -170.251E-03    -168.246E-03     338.379E-03    -170.133E-03     58.7345E-03     121.681E+06     115.542E+06    -3.83105E+06    -3.83037E+06     121.680E+06     115.542E+06     69.2528E+03         65.3339
             157     15.1989E-03     90.5989E-03     928.804E-03    -54.4789E-03    -931.162E-03    -27.5209E-03     901.846E-03    -931.162E-03     260.129E-03     339.626E-03    -169.488E-03    -170.137E-03    -167.746E-03     337.884E-03    -170.137E-03     59.4546E-03     121.777E+06     115.490E+06    -3.30300E+06    -3.30185E+06     121.776E+06     115.490E+06    -352.910E+03         65.3747
             158     15.1995E-03     91.9985E-03         1.78515    -239.816E-03        -1.32446    -232.405E-03         1.77773        -1.32446     230.662E-03     339.976E-03    -169.758E-03    -170.218E-03    -168.128E-03     338.228E-03    -170.100E-03     59.6130E-03     121.375E+06     115.424E+06    -3.96308E+06    -3.96176E+06     121.374E+06     115.424E+06    -392.667E+03         65.4168
             159     15.1998E-03     93.4092E-03         2.60511    -424.682E-03        -1.68872    -421.566E-03         2.60200        -1.68872     185.594E-03     340.287E-03    -170.084E-03    -170.203E-03    -168.475E-03     338.560E-03    -170.085E-03     59.2865E-03     120.309E+06     116.504E+06    -2.88045E+06    -2.87189E+06     120.300E+06     116.504E+06    -851.628E+03         65.4641
             160     15.1994E-03     94.8078E-03         3.36199    -606.215E-03        -2.02379    -605.025E-03         3.36080        -2.02379     130.324E-03     340.327E-03    -170.098E-03    -170.229E-03    -168.536E-03     338.635E-03    -170.099E-03     58.6743E-03     118.846E+06     116.497E+06    -2.85129E+06    -2.83952E+06     118.834E+06     116.497E+06    -237.464E+03         65.5142
             161     15.1991E-03     96.2166E-03         4.04364    -778.196E-03        -2.32418    -777.862E-03         4.04330        -2.32418     71.2942E-03     340.407E-03    -170.114E-03    -170.293E-03    -168.571E-03     338.685E-03    -170.114E-03     59.2054E-03     118.838E+06     116.359E+06    -3.82125E+06    -3.81604E+06     118.833E+06     116.359E+06     148.899E+03         65.5627
             162     15.1992E-03     97.6210E-03         4.64680    -929.372E-03        -2.58063    -929.332E-03         4.64676        -2.58063     18.7396E-03     340.463E-03    -170.123E-03    -170.340E-03    -168.538E-03     338.661E-03    -170.123E-03     60.5737E-03     118.769E+06     117.024E+06    -2.85932E+06    -2.84936E+06     118.759E+06     117.024E+06     389.770E+03         65.6085
             163     15.1991E-03     99.0253E-03         5.15470        -1.06130        -2.78739        -1.06122         5.15462        -2.78739    -33.6954E-03     340.387E-03    -170.089E-03    -170.298E-03    -168.496E-03     338.627E-03    -170.131E-03     59.8408E-03     118.224E+06     116.749E+06    -4.03985E+06    -4.03151E+06     118.216E+06     116.749E+06     664.909E+03         65.6530
             164     15.1989E-03     100.430E-03         5.53196        -1.14518        -2.94285        -1.14493         5.53170        -2.94285    -80.6838E-03     339.738E-03    -169.594E-03    -170.144E-03    -167.877E-03     338.021E-03    -170.144E-03     59.0434E-03     118.447E+06     117.332E+06    -3.35355E+06    -3.34377E+06     118.238E+06     117.531E+06    -805.278E+03         65.6975
             165     15.1998E-03     101.831E-03         5.78668        -1.20006        -3.04721        -1.19973         5.78636        -3.04721    -95.5170E-03     339.125E-03    -169.003E-03    -170.122E-03    -167.291E-03     337.413E-03    -170.122E-03     58.8897E-03     118.285E+06     117.390E+06    -2.38704E+06    -2.36596E+06     118.065E+06     117.588E+06     68.0097E+03         65.7446
             166     15.2005E-03     103.235E-03         5.95192        -1.24950        -3.09830        -1.24925         5.95166        -3.09830    -85.4802E-03     339.836E-03    -169.464E-03    -170.372E-03    -168.036E-03     338.111E-03    -170.075E-03     59.1850E-03     120.999E+06     118.272E+06    -3.99189E+06    -3.98031E+06     120.987E+06     118.272E+06     955.292E+03         65.7976
             167     15.1999E-03     104.640E-03         6.03760        -1.28695        -3.09296        -1.28674         6.03738        -3.09296    -79.8959E-03     340.635E-03    -170.069E-03    -170.566E-03    -168.815E-03     338.884E-03    -170.069E-03     59.7322E-03     124.050E+06     120.526E+06    -3.32633E+06    -3.32505E+06     124.049E+06     120.526E+06     380.683E+03         65.8550
             168     15.1998E-03     106.049E-03         6.01513        -1.29702        -3.03246        -1.29681         6.01491        -3.03246    -79.7534E-03     340.096E-03    -169.794E-03    -170.301E-03    -168.229E-03     338.330E-03    -170.101E-03     59.9078E-03     124.374E+06     121.181E+06    -2.60871E+06    -2.60705E+06     124.372E+06     121.181E+06     455.687E+03         65.9124
             169     15.1998E-03     107.446E-03         5.88202        -1.27539        -2.91910        -1.27526         5.88190        -2.91910    -57.4370E-03     340.015E-03    -169.787E-03    -170.227E-03    -168.175E-03     338.269E-03    -170.094E-03     59.5693E-03     124.328E+06     120.795E+06    -4.48609E+06    -4.48466E+06     124.327E+06     120.795E+06     428.459E+03         65.9674
             170     15.2005E-03     108.855E-03         5.67183        -1.24669        -2.75623        -1.24666         5.67181        -2.75623    -24.6662E-03     340.368E-03    -170.073E-03    -170.295E-03    -168.557E-03     338.630E-03    -170.073E-03     59.4846E-03     126.336E+06     123.024E+06    -3.49055E+06    -3.48374E+06     126.329E+06     123.024E+06     852.113E+03         66.0210
             171     15.2002E-03     110.259E-03         5.39144        -1.21028        -2.54972        -1.21028         5.39143        -2.54972     486.084E-06     339.622E-03    -169.463E-03    -170.158E-03    -167.835E-03     337.905E-03    -170.070E-03     59.0260E-03     128.916E+06     124.392E+06    -2.85878E+06    -2.85250E+06     128.910E+06     124.392E+06     486.955E+03         66.0753
             172     15.2017E-03     111.657E-03         5.02752        -1.15334        -2.30697        -1.15332         5.02750        -2.30697     19.2181E-03     339.188E-03    -169.145E-03    -170.043E-03    -167.472E-03     337.515E-03    -170.043E-03     58.2289E-03     130.086E+06     124.388E+06    -3.75804E+06    -3.75776E+06     130.085E+06     124.388E+06     -147.16E+03         66.1331
             173     15.2011E-03     113.066E-03         4.58331        -1.08301        -2.03472        -1.08298         4.58329        -2.03472     24.7975E-03     340.174E-03    -169.713E-03    -170.461E-03    -168.394E-03     338.399E-03    -170.005E-03     60.0726E-03     132.808E+06     126.077E+06    -3.32644E+06    -3.30635E+06     132.788E+06     126.077E+06     1.16934E+06         66.1931
             174     15.2018E-03     114.471E-03         4.07780    -993.025E-03        -1.73539    -992.990E-03         4.07777        -1.73539     26.1678E-03     340.428E-03    -169.983E-03    -170.445E-03    -168.620E-03     338.603E-03    -169.983E-03     60.9564E-03     137.636E+06     127.903E+06    -3.97478E+06    -3.94649E+06     137.608E+06     127.903E+06     1.94972E+06         66.2495
             175     15.2022E-03     115.875E-03         3.53012    -891.389E-03        -1.41316    -891.354E-03         3.53009        -1.41316     24.5759E-03     339.339E-03    -169.370E-03    -169.969E-03    -167.580E-03     337.544E-03    -169.963E-03     60.3329E-03     140.245E+06     129.431E+06    -3.50174E+06    -3.49354E+06     140.237E+06     129.431E+06     782.157E+03         66.3022
             176     15.2039E-03     117.276E-03         2.96022    -787.871E-03        -1.07725    -787.847E-03         2.96020        -1.07725     1.11440E-03     338.708E-03    -168.806E-03    -169.902E-03    -167.029E-03     336.930E-03    -169.902E-03     59.9611E-03     139.837E+06     129.222E+06    -3.53711E+06    -3.53631E+06     139.836E+06     129.222E+06     251.295E+03         66.3567
             177     15.2046E-03     118.678E-03         2.35391    -652.254E-03    -751.717E-03    -664.260E-03         2.35359    -739.388E-03    -49.4445E-03     338.927E-03    -169.119E-03    -169.808E-03    -167.397E-03     337.205E-03    -169.808E-03     59.0449E-03     143.344E+06     130.386E+06    -3.41162E+06    -3.40616E+06     143.339E+06     130.386E+06     830.540E+03         66.4129
             178     15.2063E-03     120.080E-03         1.70800    -409.874E-03    -531.308E-03    -529.813E-03         1.70651    -409.874E-03    -106.588E-03     338.654E-03    -168.940E-03    -169.713E-03    -167.231E-03     336.944E-03    -169.713E-03     58.8080E-03     147.474E+06     131.641E+06    -4.03094E+06    -4.02409E+06     147.467E+06     131.641E+06     1.00063E+06         66.4718
             179     15.2082E-03     121.484E-03         1.04758    -94.0294E-03    -385.693E-03    -379.989E-03         1.04187    -94.0294E-03    -161.653E-03     338.212E-03    -168.595E-03    -169.618E-03    -166.788E-03     336.406E-03    -169.618E-03     60.3948E-03     150.136E+06     133.367E+06    -3.93684E+06    -3.93155E+06     150.131E+06     133.367E+06     899.853E+03         66.5395
             180     15.2096E-03     122.886E-03     529.208E-03     83.5064E-03    -255.368E-03    -213.565E-03     368.925E-03     201.987E-03    -228.827E-03     338.874E-03    -169.079E-03    -169.795E-03    -167.539E-03     337.054E-03    -169.515E-03     60.7073E-03     151.832E+06     135.070E+06    -4.08909E+06    -4.08590E+06     151.828E+06     135.070E+06     408.545E+03         66.6092
             181     15.2101E-03     124.289E-03     469.517E-03     104.703E-03    -457.009E-03    -33.0868E-03    -319.219E-03     469.517E-03    -303.544E-03     338.194E-03    -168.484E-03    -169.710E-03    -167.030E-03     336.460E-03    -169.430E-03     59.1897E-03     151.979E+06     136.334E+06    -2.97125E+06    -2.96111E+06     151.969E+06     136.334E+06     794.494E+03         66.6638
             182     15.2139E-03     125.689E-03     701.056E-03     203.474E-03        -1.04917     174.364E-03        -1.02006     701.056E-03    -356.495E-03     336.266E-03    -166.947E-03    -169.319E-03    -165.169E-03     334.488E-03    -169.319E-03     59.7028E-03     152.718E+06     137.940E+06    -4.45772E+06    -4.44739E+06     152.707E+06     137.940E+06     727.694E+03         66.6988
             183     15.2161E-03     127.086E-03     892.055E-03     403.462E-03        -1.72742     385.272E-03        -1.70924     892.055E-03    -386.136E-03     335.917E-03    -166.768E-03    -169.148E-03    -165.004E-03     334.152E-03    -169.148E-03     59.4470E-03     155.274E+06     142.042E+06    -3.82126E+06    -3.81079E+06     155.263E+06     142.042E+06     744.647E+03         66.7035
             184     15.2191E-03     128.486E-03         1.04138     611.318E-03        -2.38528     597.087E-03        -2.37105         1.04138    -408.909E-03     333.642E-03    -164.688E-03    -168.954E-03    -162.961E-03     331.914E-03    -168.954E-03     58.5687E-03     155.995E+06     145.222E+06    -4.18019E+06    -4.16749E+06     155.982E+06     145.222E+06     441.711E+03         66.6346
             185     15.2267E-03     129.875E-03         1.14882     816.779E-03        -3.00684     803.794E-03        -2.99386         1.14882    -444.438E-03     328.025E-03    -159.423E-03    -168.603E-03    -157.514E-03     326.116E-03    -168.603E-03     60.8362E-03     153.205E+06     146.741E+06    -4.21411E+06    -4.20771E+06     153.199E+06     146.741E+06     91.3685E+03         66.4619
             186     15.2393E-03     131.256E-03         1.21804         1.01702        -3.58785         1.00321        -3.57404         1.21804    -503.500E-03     321.488E-03    -153.639E-03    -167.849E-03    -151.396E-03     319.245E-03    -167.849E-03     65.0609E-03     152.223E+06     150.389E+06    -3.89566E+06    -3.88703E+06     151.850E+06     150.753E+06    -72.6029E+03         66.2388
             187     15.2628E-03     132.625E-03         1.28908         1.19497        -4.12358         1.21312        -4.10931         1.25666    -551.450E-03     316.849E-03    -150.268E-03    -166.582E-03    -147.760E-03     314.342E-03    -166.582E-03     68.2596E-03     152.558E+06     147.862E+06    -3.93321E+06    -3.92716E+06     147.856E+06     152.558E+06    -308.201E+03         66.1273
             188     15.2852E-03     133.995E-03         1.43024         1.26980        -4.61002         1.41701        -4.59679         1.26980    -563.811E-03     318.580E-03    -153.552E-03    -165.028E-03    -151.159E-03     316.187E-03    -165.028E-03     66.9889E-03     152.035E+06     145.376E+06    -3.25346E+06    -3.22076E+06     145.344E+06     152.035E+06     1.86188E+06         66.3526
             189     15.3032E-03     135.374E-03         1.62703         1.26068        -5.07955         1.61597        -5.06848         1.26068    -542.531E-03     330.316E-03    -160.144E-03    -170.172E-03    -164.665E-03     328.313E-03    -163.648E-03     62.8228E-03     153.794E+06     143.808E+06    -6.26816E+06    -6.23063E+06     143.771E+06     153.794E+06     883.998E+03         67.2222
             190     15.3053E-03     136.784E-03         1.83490         1.23514        -5.58413         1.82538        -5.57461         1.23514    -530.662E-03     348.929E-03    -162.742E-03    -186.187E-03    -184.466E-03     347.208E-03    -162.742E-03     60.5513E-03     153.253E+06     138.128E+06    -5.49253E+06    -5.48167E+06     138.117E+06     153.253E+06    -1.24668E+06         68.7383
             191     15.3052E-03     138.227E-03         2.04706         1.20866        -6.09682         2.03826        -6.08801         1.20866    -534.690E-03     364.447E-03    -162.250E-03    -202.197E-03    -200.338E-03     362.588E-03    -162.250E-03     64.7353E-03     145.358E+06     132.867E+06    -3.05048E+06    -3.04096E+06     132.857E+06     145.358E+06    -1.13717E+06         70.3503
             192     15.3057E-03     139.674E-03         2.24168         1.20469        -6.56594         2.23462        -6.55887         1.20469    -495.619E-03     373.927E-03    -161.960E-03    -211.968E-03    -210.120E-03     372.080E-03    -161.960E-03     65.5494E-03     136.328E+06     124.064E+06    -4.59498E+06    -4.42308E+06     123.893E+06     136.328E+06    -3.80820E+06         71.6390
             193     15.3053E-03     141.129E-03         2.40050         1.24231        -6.97516         2.39548        -6.97014         1.24231    -431.907E-03     381.048E-03    -161.751E-03    -219.297E-03    -217.546E-03     379.297E-03    -161.751E-03     64.7221E-03     130.679E+06     112.110E+06    -2.27821E+06    -2.11037E+06     111.942E+06     130.679E+06    -3.05290E+06         72.5783
             194     15.3058E-03     142.607E-03         2.51681         1.33699        -7.31599         2.51344        -7.31262         1.33699    -360.138E-03     386.926E-03    -161.579E-03    -225.347E-03    -223.412E-03     384.991E-03    -161.579E-03     68.7280E-03     122.442E+06     99.3327E+06    -5.90092E+06    -5.65618E+06     99.0879E+06     122.442E+06    -3.43144E+06         73.2731
             195     15.3056E-03     144.082E-03         2.55684         1.50745        -7.59529         2.55476        -7.59320         1.50745    -289.527E-03     391.106E-03    -161.472E-03    -229.634E-03    -227.696E-03     389.168E-03    -161.472E-03     69.2602E-03     123.518E+06     88.4635E+06    -1.63060E+06    -1.38599E+06     88.2189E+06     123.518E+06    -3.77403E+06         73.6968
             196     15.3063E-03     145.556E-03         2.50914         1.77792        -7.75108         2.50731        -7.74925         1.77792    -273.658E-03     392.907E-03    -161.439E-03    -231.468E-03    -229.692E-03     391.131E-03    -161.439E-03     66.4725E-03     125.510E+06     71.8944E+06    -6.78381E+06    -6.01573E+06     71.1263E+06     125.510E+06    -5.82183E+06         73.7869
             197     15.3064E-03     147.044E-03         2.43504         2.08489        -7.71192         2.34524        -7.70878         2.17156    -348.230E-03     393.534E-03    -161.421E-03    -232.112E-03    -230.399E-03     391.820E-03    -161.421E-03     65.3815E-03     129.049E+06     46.7323E+06    -2.52411E+06    -1.62504E+06     45.8332E+06     129.049E+06    -6.59237E+06         73.6825
             198     15.3085E-03     148.512E-03         2.70276         2.03400        -7.48259         2.02790        -7.47649         2.70276    -475.035E-03     394.655E-03    -161.368E-03    -233.287E-03    -231.746E-03     393.114E-03    -161.368E-03     61.9872E-03     136.415E+06     30.4289E+06    -4.21798E+06    -4.04102E+06     30.2519E+06     136.415E+06    -2.04675E+06         73.3134
             199     15.3090E-03     150.005E-03         3.37879         1.58581        -6.97722         1.57710        -6.96851         3.37879    -543.970E-03     392.217E-03    -161.366E-03    -230.851E-03    -229.678E-03     391.044E-03    -161.366E-03     53.9271E-03     148.427E+06     28.6041E+06    -4.12417E+06    -1.84827E+06     26.3282E+06     148.427E+06     1.18200E+06         72.5033
             200     15.3127E-03     151.464E-03         4.19350     945.887E-03        -6.13472     937.139E-03        -6.12598         4.19350    -497.374E-03     384.723E-03    -161.435E-03    -223.288E-03    -222.441E-03     383.876E-03    -161.435E-03     45.1400E-03     153.480E+06     26.4176E+06    -7.57560E+06    -4.52244E+06     23.3644E+06     153.480E+06    -2.53569E+06         71.3629
             201     15.3137E-03     152.931E-03         5.12474     106.053E-03        -4.99758     99.8829E-03        -4.99141         5.12474    -354.407E-03     378.804E-03    -161.424E-03    -217.380E-03    -216.512E-03     377.936E-03    -161.424E-03     45.1419E-03     160.267E+06     42.1117E+06    -3.01772E+06     6.08454E+06     33.0094E+06     160.267E+06     3.02372E+06         69.7888
             202     15.3180E-03     154.398E-03         6.12271    -830.346E-03        -3.57965    -833.362E-03        -3.57664         6.12271    -181.988E-03     325.714E-03    -135.779E-03    -189.935E-03    -162.343E-03     324.989E-03    -162.647E-03     12.9217E-03     124.298E+06     52.6712E+06    -8.02406E+06     1.51863E+06     43.1285E+06     124.298E+06     442.705E+03         67.2827
             203     14.3350E-03     155.611E-03         6.81394        -1.13880        -2.93033        -1.19326        -2.87588         6.81394     412.056E-03     264.764E-03    -99.2571E-03    -165.507E-03    -97.4394E-03     262.946E-03    -165.507E-03    -45.4354E-03     84.6108E+06     8.05513E+06    -51.9788E+06    -36.1225E+06    -7.80117E+06     84.6108E+06    -10.1422E+06         61.2812
             204     13.3932E-03     155.363E-03         7.15341    -764.745E-03        -3.17710    -872.341E-03        -3.06950         7.15341     993.679E-03     248.306E-03    -79.3953E-03    -168.911E-03    -74.4864E-03     243.397E-03    -168.911E-03    -78.0276E-03     124.700E+06     5.64926E+06    -39.3079E+06    -23.0818E+06    -10.5768E+06     124.700E+06    -9.50398E+06         54.1502
             205     12.4792E-03     155.072E-03         7.44510    -337.865E-03        -3.41105    -491.820E-03        -3.25710         7.44510         1.33397     238.639E-03    -65.9125E-03    -172.726E-03    -57.8807E-03     230.607E-03    -172.726E-03    -97.0550E-03     143.977E+06     16.7656E+06     -26.964E+06    -14.7095E+06     4.51112E+06     143.977E+06    -12.6635E+06         50.0772
             206     11.5659E-03     154.755E-03         7.70378     111.840E-03        -3.63710    -120.397E-03        -3.40486         7.70378         1.80678     239.129E-03    -62.2734E-03    -176.856E-03    -50.5822E-03     227.438E-03    -176.856E-03    -115.911E-03     141.751E+06     3.98328E+06    -22.7345E+06    -7.28946E+06    -11.4618E+06     141.751E+06    -12.0957E+06         48.0191
             207     10.6684E-03     154.434E-03         7.92517     603.589E-03        -3.84935     316.351E-03        -3.56211         7.92517         2.18773     250.370E-03    -69.5848E-03    -180.786E-03    -53.4796E-03     234.265E-03    -180.786E-03    -139.742E-03     146.467E+06     6.30194E+06    -13.4535E+06    -3.75804E+06    -3.39356E+06     146.467E+06    -9.37090E+06         47.1111
             208     9.78734E-03     154.097E-03         8.09844         1.16818        -4.05627     801.650E-03        -3.68974         8.09844         2.66642     267.616E-03    -83.8362E-03    -183.780E-03    -62.5227E-03     246.303E-03    -183.780E-03    -167.562E-03     145.445E+06     6.95242E+06    -12.8621E+06    -1.25440E+06    -4.65525E+06     145.445E+06    -9.59669E+06         46.8569
             209     8.93248E-03     153.763E-03         8.21919         1.82308        -4.27930         1.39883        -3.85506         8.21919         3.10159     286.886E-03    -101.507E-03    -185.379E-03    -74.6674E-03     260.047E-03    -185.379E-03    -196.964E-03     141.631E+06     9.85772E+06    -14.3080E+06     1.69958E+06    -6.14982E+06     141.631E+06    -10.7399E+06         46.8912
             210     8.09556E-03     153.435E-03         8.28707         2.55184        -4.48364         2.07109        -4.00289         8.28707         3.54899     306.258E-03    -120.969E-03    -185.288E-03    -89.8568E-03     275.145E-03    -185.288E-03    -222.024E-03     136.352E+06     12.4168E+06    -13.0781E+06     4.72513E+06    -5.38637E+06     136.352E+06    -11.2689E+06         46.9554
             211     7.28318E-03     153.118E-03         8.31369         3.33593        -4.69180         2.83096        -4.18683         8.31369         3.88893     321.438E-03    -137.864E-03    -183.574E-03    -104.941E-03     288.515E-03    -183.574E-03    -236.938E-03     132.954E+06     18.4408E+06    -12.7540E+06     10.6169E+06    -4.93013E+06     132.954E+06    -12.5847E+06         46.8918
             212     6.48515E-03     152.832E-03         8.31823         4.14217        -4.92029         3.64677        -4.42489         8.31823         4.12019     331.524E-03    -150.861E-03    -180.663E-03    -119.413E-03     300.075E-03    -180.663E-03    -238.006E-03     129.565E+06     22.6213E+06    -11.8745E+06     17.7600E+06    -7.01322E+06     129.565E+06    -11.9774E+06         46.6369
             213     5.68598E-03     152.570E-03         8.31186         4.92778        -5.13120         4.47366        -4.67708         8.31186         4.15667     338.343E-03    -161.589E-03    -176.754E-03    -133.234E-03     309.988E-03    -176.754E-03    -231.112E-03     124.560E+06     31.3832E+06    -9.16659E+06     27.0973E+06    -4.88064E+06     124.560E+06    -12.1271E+06         46.1845
             214     4.89262E-03     152.343E-03         8.30284         5.69652        -5.35108         5.32231        -4.97687         8.30284         3.99270     340.612E-03    -168.005E-03    -172.607E-03    -144.822E-03     316.808E-03    -171.985E-03    -214.496E-03     117.015E+06     40.1599E+06    -7.47261E+06     36.6502E+06    -3.96292E+06     117.015E+06    -12.4307E+06         45.5437
             215     4.10138E-03     152.149E-03         8.29912         6.42476        -5.58774         6.12979        -5.29277         8.29912         3.68730     336.592E-03    -166.848E-03    -169.744E-03    -152.294E-03     319.142E-03    -166.848E-03    -183.883E-03     110.089E+06     48.2442E+06    -8.10570E+06     45.5031E+06    -5.36456E+06     110.089E+06    -11.5734E+06         44.7488
             216     3.29799E-03     151.993E-03         8.29946         7.07427        -5.78781         6.86875        -5.58230         8.29946         3.21464     327.933E-03    -161.982E-03    -165.951E-03    -154.554E-03     316.537E-03    -161.982E-03    -147.338E-03     100.149E+06     54.8732E+06    -7.46830E+06     53.5525E+06    -6.14753E+06     100.149E+06    -8.94817E+06         43.8818
             217     2.48541E-03     151.868E-03         8.30283         7.58633        -5.94582         7.45479        -5.81428         8.30283         2.60541     318.974E-03    -157.850E-03    -161.124E-03    -154.484E-03     312.334E-03    -157.850E-03    -110.824E-03     91.3617E+06     63.5857E+06     -3.3851E+06     62.3264E+06    -2.12576E+06     91.3617E+06    -9.09398E+06         43.0558
             218     1.66149E-03     151.787E-03         8.30617         7.96038        -6.04892         7.89170        -5.98023         8.30617         1.94156     310.869E-03    -154.579E-03    -156.290E-03    -152.889E-03     307.600E-03    -154.711E-03    -76.3014E-03     86.1703E+06     70.2692E+06    -4.52632E+06     69.0850E+06    -3.34212E+06     86.1703E+06    -9.26936E+06         42.3742
             219     827.691E-06     151.721E-03         8.35493         8.12515        -6.05410         8.09828        -6.02723         8.35493     993.668E-03     305.408E-03    -152.225E-03    -153.183E-03    -151.869E-03     304.226E-03    -152.357E-03    -43.6222E-03     80.9634E+06     73.3043E+06    -8.35359E+06     72.6747E+06    -7.72405E+06     80.9634E+06    -6.84700E+06         41.9120
             220    -4.94873E-06     150.340E-03         6.93435         6.68606        -4.42264         6.79720        -4.42132         6.82188     23.4045E-03     251.121E-03    -124.782E-03    -126.339E-03    -125.385E-03     250.898E-03    -125.513E-03    -16.8677E-03     28.4906E+06     21.9629E+06    -31.6741E+06     23.0898E+06    -28.0075E+06     23.6971E+06    -9.03045E+06         39.7360
             221     3.89402E-06     149.141E-03         4.54688         4.40535        -1.99187         4.53977        -1.98476         4.40535    -356.122E-03     169.840E-03    -84.1670E-03    -85.6734E-03    -84.9262E-03     169.824E-03    -84.8976E-03    -3.22428E-03    -57.2346E+06    -84.1323E+06    -95.9080E+06    -82.4276E+06    -70.7150E+06    -84.1323E+06    -12.6172E+06         35.6510
             222    -2.36478E-06     147.980E-03         3.09295         2.95586    -782.693E-03         2.95167    -749.445E-03         3.06389    -626.888E-03     126.147E-03    -62.3655E-03    -63.7815E-03    -63.1001E-03     126.106E-03    -63.0058E-03     3.58673E-03    -120.621E+06    -185.639E+06    -191.363E+06    -187.691E+06    -124.292E+06    -185.639E+06    -15.4787E+06         32.3960
             223     1.11702E-06     146.870E-03         2.19167         2.01254    -247.696E-03         1.96594    -129.990E-03         2.12057    -942.889E-03     109.299E-03    -53.9491E-03    -55.3502E-03    -54.5385E-03     109.128E-03    -54.5894E-03     10.1903E-03    -177.388E+06    -282.859E+06    -287.957E+06    -285.313E+06    -180.032E+06    -282.859E+06    -16.1257E+06         30.9890
             224     42.7091E-09     145.758E-03         1.79734         1.45041    -290.350E-03         1.38428     122.708E-03         1.45041        -1.57941     117.907E-03    -58.2585E-03    -59.6482E-03    -58.7200E-03     117.607E-03    -58.8875E-03     14.5352E-03    -224.861E+06    -365.571E+06    -368.207E+06    -365.438E+06    -225.729E+06    -367.471E+06    -9.86639E+06         31.3003
             225    -1.57773E-06     144.624E-03         1.95092         1.17803        -1.11296     778.949E-03     59.0025E-03         1.17803        -2.94176     146.257E-03    -72.1716E-03    -74.0858E-03    -73.1353E-03     145.936E-03    -72.8006E-03     16.7292E-03    -238.940E+06    -342.829E+06    -347.721E+06    -341.783E+06    -239.985E+06    -347.721E+06     1.79339E+06         32.9274
             226     3.62180E-06     143.444E-03         2.74284         1.07930        -2.62206     276.622E-03    -155.846E-03         1.07930        -5.34449     185.448E-03    -91.9770E-03    -93.4706E-03    -93.1855E-03     185.163E-03    -91.9770E-03     17.7544E-03    -191.910E+06    -220.522E+06    -242.422E+06    -222.064E+06    -212.150E+06    -220.639E+06     11.1746E+06         35.3769
             227    -3.39867E-06     142.219E-03         4.44345     960.822E-03        -4.83606     22.6738E-03    -415.284E-03     960.822E-03        -9.26897     224.826E-03    -111.878E-03    -112.948E-03    -111.885E-03     224.625E-03    -112.740E-03     16.1292E-03    -133.375E+06    -139.198E+06    -189.084E+06    -139.155E+06    -186.180E+06    -136.322E+06     2.56529E+06         38.1209
             228     1.72623E-06     140.940E-03         6.86030     990.207E-03        -7.88978    -272.485E-03    -756.988E-03     990.207E-03        -14.7417     258.122E-03    -128.596E-03    -129.526E-03    -128.460E-03     257.986E-03    -129.526E-03     14.5138E-03    -119.281E+06    -123.128E+06    -194.455E+06    -119.759E+06    -193.978E+06    -123.128E+06    -5.16614E+06         40.7167
             229    -1.99028E-06     139.627E-03         9.55077         1.07532        -11.0943    -417.529E-03        -1.12604         1.07532        -20.6325     282.398E-03    -141.111E-03    -141.287E-03    -141.012E-03     282.299E-03    -141.287E-03     12.6894E-03    -110.357E+06    -112.425E+06    -211.409E+06    -111.656E+06    -211.279E+06    -111.256E+06    -3.59967E+06         42.8923
             230     1.74989E-06     138.289E-03         11.7868     934.646E-03        -13.4763    -112.172E-03        -1.57734     934.646E-03        -25.2170     299.155E-03    -148.714E-03    -150.442E-03    -150.270E-03     299.093E-03    -148.823E-03     10.5750E-03    -103.900E+06    -105.316E+06    -232.119E+06    -105.293E+06    -231.895E+06    -104.147E+06    -5.30778E+06         44.5432
             231     965.029E-09     136.932E-03         12.3850     773.762E-03        -14.1782     259.541E-03        -2.05278     773.762E-03        -26.4598     309.654E-03    -153.787E-03    -155.866E-03    -155.816E-03     309.603E-03    -153.787E-03     9.60924E-03    -116.111E+06    -118.071E+06    -255.831E+06    -116.330E+06    -255.612E+06    -118.071E+06    -5.47902E+06         45.6886
             232    -238.369E-09     135.563E-03         10.7296     638.965E-03        -12.4894     591.095E-03        -2.35084     638.965E-03        -23.0218     314.577E-03    -156.710E-03    -157.866E-03    -157.836E-03     314.547E-03    -156.710E-03     7.43863E-03    -125.995E+06    -128.454E+06    -275.958E+06    -126.839E+06    -275.859E+06    -127.709E+06    -3.56890E+06         46.4227
             233     1.41720E-06     134.199E-03         7.12131     368.906E-03        -8.63470         1.00594        -2.51933     368.906E-03        -15.2920     318.242E-03    -158.304E-03    -159.939E-03    -159.920E-03     318.224E-03    -158.304E-03     5.93511E-03    -135.715E+06    -137.168E+06    -289.604E+06    -136.535E+06    -289.530E+06    -136.423E+06    -3.23710E+06         46.8706
             234     168.416E-09     132.819E-03         3.03152     269.394E-03        -4.47241         1.17013        -2.61102     269.394E-03        -4.88204     321.446E-03    -159.864E-03    -161.583E-03    -161.570E-03     321.434E-03    -159.864E-03     4.88632E-03    -151.982E+06    -152.832E+06    -303.548E+06    -152.201E+06    -303.472E+06    -152.690E+06    -3.27834E+06         47.1511
             235     1.15916E-06     131.441E-03         3.22407     410.861E-03        -4.71239         1.13522        -2.62354     410.861E-03         6.09174     323.099E-03    -161.000E-03    -162.099E-03    -161.770E-03     323.089E-03    -161.319E-03     4.50981E-03    -162.255E+06    -162.777E+06    -321.103E+06    -162.812E+06    -321.069E+06    -162.255E+06    -2.31806E+06         47.3572
             236    -1.69892E-06     130.060E-03         6.98286     598.776E-03        -8.57570         1.18455        -2.77740     598.776E-03         15.0276     324.699E-03    -161.522E-03    -163.177E-03    -162.852E-03     324.692E-03    -161.840E-03     3.04687E-03    -175.401E+06    -176.184E+06    -334.641E+06    -175.822E+06    -334.600E+06    -175.804E+06    -2.53777E+06         47.5438
             237     3.97224E-06     128.678E-03         9.13568     971.341E-03        -10.9919         1.13870        -2.99490     971.341E-03         19.6969     327.139E-03    -162.366E-03    -164.774E-03    -164.769E-03     327.135E-03    -162.366E-03     2.70992E-03    -182.977E+06    -184.858E+06    -346.212E+06    -183.037E+06    -346.152E+06    -184.858E+06    -3.13563E+06         47.7294
             238    -2.16766E-06     127.291E-03         8.80626         1.32086        -10.8053     944.998E-03        -2.94399         1.32086         19.2218     330.359E-03    -163.702E-03    -166.656E-03    -164.768E-03     330.352E-03    -165.585E-03     3.57772E-03    -186.277E+06    -190.481E+06    -361.114E+06    -189.052E+06    -361.065E+06    -187.755E+06    -2.85225E+06         47.9176
             239    -983.182E-09     125.897E-03         6.23750         1.22492        -8.01079     874.589E-03        -2.64788         1.22492         13.7802     333.521E-03    -165.273E-03    -168.248E-03    -166.363E-03     333.519E-03    -167.155E-03     1.69685E-03    -191.811E+06    -198.231E+06    -372.445E+06    -194.552E+06    -372.429E+06    -195.505E+06    -867.264E+03         48.1023
             240     2.79707E-06     124.502E-03         2.63980     900.846E-03        -3.89844     867.660E-03        -2.12630     900.846E-03         4.86738     335.018E-03    -166.532E-03    -168.486E-03    -168.484E-03     335.016E-03    -166.532E-03     1.83755E-03    -187.054E+06    -193.728E+06    -372.891E+06    -190.037E+06    -372.888E+06    -190.748E+06     770.087E+03         48.2667
             241    -1.29930E-06     123.105E-03         2.78446     375.646E-03        -3.24051     904.768E-03        -1.36082     375.646E-03        -4.69468     336.198E-03    -166.956E-03    -169.242E-03    -169.240E-03     336.196E-03    -166.956E-03     1.69369E-03    -183.850E+06    -188.626E+06    -372.754E+06    -186.836E+06    -372.748E+06    -185.647E+06    -59.9132E+03         48.3990
             242     3.69340E-06     121.707E-03         6.57394    -570.845E-03        -5.94101         1.15884    -525.904E-03    -570.845E-03        -12.3829     337.233E-03    -167.713E-03    -169.520E-03    -169.518E-03     337.231E-03    -167.713E-03     1.19120E-03    -183.139E+06    -185.282E+06    -375.239E+06    -183.488E+06    -375.235E+06    -184.935E+06    -540.256E+03         48.4984
             243    -3.03826E-06     120.306E-03         9.17976        -1.55926        -7.31520         1.33659     527.970E-03        -1.55926        -16.4605     337.334E-03    -168.363E-03    -168.971E-03    -168.970E-03     337.332E-03    -168.363E-03     1.03766E-03    -176.433E+06    -179.058E+06    -371.667E+06    -179.073E+06    -371.652E+06    -176.433E+06     1.21381E+06         48.5727
             244     3.45287E-06     118.907E-03         9.49350        -2.44240        -6.46558         1.24931         1.77862        -2.44240        -15.9332     338.074E-03    -168.589E-03    -169.486E-03    -169.484E-03     338.072E-03    -168.589E-03     1.33120E-03    -173.510E+06    -180.020E+06    -370.468E+06    -175.856E+06    -370.401E+06    -177.742E+06    -1.06598E+06         48.6349
             245    -2.36200E-06     117.505E-03         8.03833        -2.77767        -4.59962         1.00889         2.95646        -3.30432        -11.8972     338.879E-03    -169.043E-03    -169.836E-03    -169.834E-03     338.876E-03    -169.043E-03     1.09584E-03    -176.469E+06    -182.884E+06    -373.690E+06    -178.802E+06    -373.540E+06    -180.700E+06     817.542E+03         48.6895
             246     2.60131E-06     116.103E-03         6.27413        -1.59834        -3.74744     456.966E-03         4.21882        -3.74744        -6.47109     339.339E-03    -168.809E-03    -170.530E-03    -170.529E-03     339.338E-03    -168.809E-03     547.011E-06    -171.496E+06    -173.718E+06    -368.073E+06    -173.808E+06    -367.943E+06    -171.534E+06     1.32026E+06         48.7311
             247     104.031E-09     114.700E-03         5.65229    -753.519E-03        -3.77423    -446.659E-03         5.34543        -3.77423        -1.56005     339.919E-03    -168.950E-03    -170.968E-03    -170.548E-03     339.918E-03    -169.370E-03     1.55321E-03    -169.591E+06    -170.581E+06    -363.608E+06    -169.637E+06    -363.561E+06    -170.581E+06    -547.294E+03         48.7577
             248    -814.863E-09     113.296E-03         6.13007        -1.42972        -3.61795        -1.42027         6.12062        -3.61795     533.247E-03     339.679E-03    -169.473E-03    -170.206E-03    -169.786E-03     339.679E-03    -169.893E-03     362.547E-06    -169.567E+06    -170.869E+06    -363.221E+06    -169.582E+06    -363.206E+06    -170.869E+06     1.21202E+06         48.7760
             249     1.34786E-06     111.893E-03         6.99884        -2.38227        -3.28679        -2.43034         6.93236        -3.17224    -861.127E-03     339.424E-03    -169.029E-03    -170.395E-03    -170.394E-03     339.422E-03    -169.029E-03     853.058E-06    -166.972E+06    -168.296E+06    -362.075E+06    -167.952E+06    -362.069E+06    -167.322E+06    -770.114E+03         48.7947
             250     448.811E-09     110.492E-03         8.15280        -2.73879        -4.04882        -3.49465         7.59863        -2.73879        -4.68861     339.701E-03    -168.789E-03    -170.912E-03    -170.910E-03     339.698E-03    -168.789E-03     111.018E-06    -165.895E+06    -169.878E+06    -359.755E+06    -166.937E+06    -359.688E+06    -168.904E+06     1.64459E+06         48.8151
             251     1.32675E-06     109.089E-03         9.91771        -2.54382        -6.03740        -4.39578         8.27608        -2.54382        -9.58223     340.059E-03    -169.071E-03    -170.988E-03    -170.985E-03     340.057E-03    -169.071E-03     241.102E-06    -159.379E+06    -166.950E+06    -353.506E+06    -164.014E+06    -353.434E+06    -162.388E+06     1.37140E+06         48.8375
             252     162.927E-09     107.683E-03         11.6647        -2.41733        -7.69871        -5.13018         9.09613        -2.41733        -13.1321     340.518E-03    -169.422E-03    -171.096E-03    -171.094E-03     340.516E-03    -169.422E-03     1.78104E-03    -160.626E+06    -170.494E+06    -356.678E+06    -165.214E+06    -356.653E+06    -165.931E+06    -2.20661E+06         48.8634
             253     1.18269E-06     106.276E-03         12.1388        -2.35761        -8.33233        -5.74616         9.55259        -2.35761        -13.5832     340.278E-03    -169.720E-03    -170.558E-03    -170.547E-03     340.277E-03    -169.730E-03     1.56344E-03    -162.442E+06    -173.000E+06    -357.964E+06    -167.816E+06    -357.842E+06    -167.747E+06     1.99194E+06         48.8865
             254    -1.12932E-06     104.880E-03         11.4054        -2.26576        -7.72137        -6.05287         9.73692        -2.26576        -10.6019     340.905E-03    -170.425E-03    -170.480E-03    -170.468E-03     340.903E-03    -170.435E-03     409.391E-06    -157.815E+06    -167.928E+06    -351.715E+06    -163.260E+06    -351.523E+06    -162.675E+06     300.654E+03         48.9001
             255     1.15546E-06     103.469E-03         10.2142        -2.03212        -6.67864        -6.17322         9.70879        -2.03212        -4.46697     341.496E-03    -170.236E-03    -171.261E-03    -171.259E-03     341.495E-03    -170.236E-03     457.819E-06    -160.021E+06    -168.873E+06    -354.008E+06    -164.116E+06    -353.905E+06    -164.881E+06    -1.53651E+06         48.9057
             256     551.422E-09     102.061E-03         9.70944        -1.76721        -6.66535        -6.34641         9.39050        -1.76721         2.84916     340.283E-03    -169.173E-03    -171.109E-03    -170.152E-03     340.281E-03    -170.129E-03     1.92556E-03    -160.539E+06    -168.841E+06    -356.823E+06    -164.579E+06    -356.775E+06    -164.849E+06    -389.304E+03         48.9078
             257    -2.20560E-06     100.666E-03         10.2081        -1.41988        -7.62004        -6.44522         9.03329        -1.41988         8.61646     340.166E-03    -168.814E-03    -171.353E-03    -170.395E-03     340.164E-03    -169.769E-03    -342.033E-06    -165.965E+06    -171.581E+06    -357.204E+06    -167.342E+06    -357.133E+06    -170.274E+06     252.381E+03         48.9101
             258     4.89401E-06     99.2563E-03         10.3109        -1.01869        -8.16525        -6.38181         8.52749        -1.01869         10.9078     340.013E-03    -168.429E-03    -171.584E-03    -171.582E-03     340.011E-03    -168.429E-03    -186.314E-06    -165.569E+06    -167.854E+06    -354.860E+06    -167.922E+06    -354.792E+06    -165.569E+06     392.796E+03         48.9168
             259    -2.22363E-06     97.8542E-03         8.87072    -703.537E-03        -7.35816        -6.15166         7.66422    -703.537E-03         8.27669     338.987E-03    -168.625E-03    -170.362E-03    -170.195E-03     338.986E-03    -168.790E-03     1.62883E-03    -161.633E+06    -164.064E+06    -354.353E+06    -164.091E+06    -354.326E+06    -161.633E+06    -1.14045E+06         48.9338
             260     1.96805E-06     96.4530E-03         7.15264    -491.297E-03        -5.97902        -5.58440         6.75802    -491.297E-03         1.16586     340.809E-03    -169.823E-03    -170.985E-03    -170.818E-03     340.807E-03    -169.989E-03     1.74228E-03    -162.785E+06    -168.390E+06    -357.085E+06    -164.239E+06    -357.083E+06    -166.938E+06     284.406E+03         48.9577
             261    -326.741E-09     95.0455E-03         7.62627    -630.483E-03        -6.43487        -4.64413         5.83553    -630.483E-03        -8.17571     342.606E-03    -170.378E-03    -172.228E-03    -172.226E-03     342.605E-03    -170.378E-03     927.651E-06    -162.694E+06    -169.209E+06    -358.033E+06    -165.058E+06    -358.031E+06    -166.847E+06     230.945E+03         48.9748
             262     1.79914E-06     93.6373E-03         10.4858        -1.15427        -9.08500        -3.57783         4.97865        -1.15427        -17.3893     340.745E-03    -169.791E-03    -170.954E-03    -170.643E-03     340.745E-03    -170.101E-03     250.905E-06    -163.524E+06    -168.994E+06    -355.086E+06    -165.891E+06    -355.082E+06    -166.632E+06     911.793E+03         48.9802
             263    -2.35098E-06     92.2379E-03         13.2936        -1.78732        -11.3831        -2.37310         4.28353        -1.78732        -23.7122     339.222E-03    -169.316E-03    -169.906E-03    -169.316E-03     339.222E-03    -169.906E-03     466.467E-06    -161.748E+06    -171.079E+06    -354.298E+06    -167.988E+06    -354.280E+06    -164.856E+06    -586.615E+03         48.9811
             264     1.95836E-06     90.8330E-03         13.9001        -2.43322        -11.4984    -973.442E-03         3.37518        -2.43322        -24.9974     340.280E-03    -169.241E-03    -171.039E-03    -170.760E-03     340.280E-03    -169.520E-03     334.029E-06    -161.267E+06    -174.515E+06    -359.447E+06    -167.504E+06    -359.433E+06    -168.292E+06    -1.29610E+06         48.9843
             265     530.423E-09     89.4300E-03         11.8085        -2.81365        -9.31396     299.022E-03         2.19557        -2.81365        -21.0188     341.073E-03    -169.675E-03    -171.398E-03    -171.194E-03     341.073E-03    -169.879E-03     791.761E-06    -159.166E+06    -171.271E+06    -359.788E+06    -164.251E+06    -359.784E+06    -166.192E+06     498.499E+03         48.9934
             266    -807.121E-09     88.0227E-03         7.50194        -2.62902        -5.34613         1.23273     923.078E-03        -2.62902        -12.7819     340.717E-03    -169.989E-03    -170.729E-03    -170.525E-03     340.717E-03    -170.192E-03     685.495E-06    -161.637E+06    -170.333E+06    -361.872E+06    -166.732E+06    -361.856E+06    -165.254E+06    -404.994E+03         49.0088
             267     1.67939E-06     86.6188E-03         3.62313        -1.98226        -2.30738         1.83739    -504.299E-03        -1.99961        -2.82540     340.249E-03    -169.258E-03    -170.991E-03    -170.990E-03     340.248E-03    -169.258E-03     970.000E-06    -162.963E+06    -169.854E+06    -361.533E+06    -166.298E+06    -361.472E+06    -166.579E+06     1.10372E+06         49.0272
             268     385.456E-09     85.2157E-03         3.38441    -814.524E-03        -3.50690         1.97122        -2.07635    -831.870E-03         5.34097     340.700E-03    -169.298E-03    -171.401E-03    -171.401E-03     340.699E-03    -169.298E-03     1.19800E-03    -158.225E+06    -165.393E+06    -358.005E+06    -161.585E+06    -357.920E+06    -162.119E+06     258.078E+03         49.0424
             269     1.10763E-06     83.8120E-03         4.41709     890.568E-03        -6.39695         1.70093        -3.68079     890.568E-03         9.37888     341.224E-03    -169.896E-03    -171.328E-03    -170.802E-03     341.223E-03    -170.421E-03     894.058E-06    -161.300E+06    -168.624E+06    -362.631E+06    -164.769E+06    -362.592E+06    -165.194E+06    -1.42921E+06         49.0517
             270    -1.94579E-06     82.4038E-03         3.94628         2.08497        -7.34145         1.35011        -5.30698         2.64667         8.22420     340.273E-03    -169.583E-03    -170.689E-03    -170.164E-03     340.272E-03    -170.109E-03     297.766E-06    -163.750E+06    -169.421E+06    -363.577E+06    -167.189E+06    -363.568E+06    -165.991E+06     1.27463E+06         49.0584
             271     2.90737E-06     81.0032E-03         4.39829         1.58820        -7.47535     949.457E-03        -6.83660         4.39829         2.11913     340.106E-03    -169.714E-03    -170.392E-03    -170.292E-03     340.103E-03    -169.811E-03     1.32921E-03    -161.200E+06    -165.483E+06    -360.126E+06    -163.250E+06    -360.118E+06    -163.441E+06     299.084E+03         49.0672
             272    -3.03998E-06     79.5992E-03         6.05080         2.01457        -9.64680     653.738E-03        -8.28597         6.05080        -6.64740     341.705E-03    -170.359E-03    -171.347E-03    -171.247E-03     341.703E-03    -170.456E-03     771.592E-06    -162.738E+06    -166.735E+06    -360.478E+06    -164.783E+06    -360.475E+06    -164.693E+06    -789.123E+03         49.0774
             273     4.52320E-06     78.1901E-03         7.10878         4.84960        -13.6668     763.511E-03        -9.58067         7.10878        -15.2658     342.173E-03    -169.740E-03    -172.433E-03    -172.431E-03     342.171E-03    -169.740E-03     554.701E-06    -166.356E+06    -168.597E+06    -362.432E+06    -166.646E+06    -362.427E+06    -168.312E+06     311.962E+03         49.0829
             274     14.3541E-03     76.4748E-03         3.46253         1.78426        -7.38364         1.77679        -7.37616         3.46253     493.954E-03     345.853E-03    -170.086E-03    -175.767E-03    -169.432E-03     339.519E-03    -170.086E-03     105.268E-03     113.837E+06     111.634E+06    -7.09799E+06    -7.08166E+06     113.821E+06     111.634E+06    -367.711E+03         64.0431
             275     13.5099E-03     76.2795E-03         3.59847         2.06066        -7.76248         2.03967        -7.74149         3.59847     796.355E-03     345.773E-03    -170.091E-03    -175.682E-03    -168.406E-03     338.497E-03    -170.091E-03     118.335E-03     103.933E+06     99.6402E+06    -13.7981E+06    -13.7856E+06     100.628E+06     102.932E+06    -513.726E+03         61.9857
             276     12.6649E-03     76.1714E-03         3.73096         2.32192        -8.12853         2.29802        -8.10463         3.73096     318.434E-03     341.775E-03    -170.129E-03    -171.646E-03    -167.317E-03     337.446E-03    -170.129E-03     93.5939E-03     96.8308E+06     89.7380E+06    -21.5867E+06    -21.5849E+06     89.7362E+06     96.8308E+06     260.967E+03         59.8027
             277     11.8182E-03     76.0448E-03         3.85746         2.57242        -8.47947         2.55567        -8.46272         3.85746     218.061E-03     341.932E-03    -170.144E-03    -171.788E-03    -167.390E-03     337.534E-03    -170.144E-03     94.4296E-03     87.5418E+06     83.5447E+06    -30.0611E+06    -30.0551E+06     83.5387E+06     87.5418E+06     692.280E+03         57.8547
             278     10.9754E-03     75.9378E-03         3.98023         2.86576        -8.86901         2.81219        -8.81545         3.98023    -468.649E-03     340.809E-03    -170.135E-03    -170.674E-03    -167.051E-03     337.194E-03    -170.143E-03     85.6746E-03     79.0492E+06     74.0736E+06    -38.6358E+06    -38.6303E+06     78.8476E+06     74.2697E+06     738.973E+03         56.3111
             279     10.1284E-03     75.8379E-03         4.09769         3.10654        -9.20137         3.06064        -9.15547         4.09769    -656.610E-03     340.290E-03    -169.939E-03    -170.351E-03    -166.886E-03     337.075E-03    -170.189E-03     80.7002E-03     74.4012E+06     66.2569E+06    -47.9441E+06    -47.9414E+06     74.3984E+06     66.2569E+06    -63.3961E+03         55.1537
             280     9.28451E-03     75.7433E-03         4.21043         3.30439        -9.48952         3.29119        -9.47633         4.21043    -133.322E-03     340.270E-03    -169.870E-03    -170.400E-03    -167.306E-03     337.561E-03    -170.255E-03     74.0785E-03     62.9937E+06     55.0618E+06    -57.8648E+06    -57.8580E+06     58.4198E+06     59.6289E+06    -830.479E+03         54.2710
             281     8.43976E-03     75.6582E-03         4.31833         3.51291        -9.78849         3.50432        -9.77990         4.31833    -483.369E-03     340.174E-03    -169.799E-03    -170.374E-03    -167.670E-03     337.970E-03    -170.300E-03     66.7992E-03     42.0953E+06     4.02874E+06    -68.8389E+06    -68.8213E+06     4.01116E+06     42.0953E+06    -566.100E+03         53.5433
             282     7.59654E-03     75.5858E-03         4.41998         3.72786        -10.0886         3.72633        -10.0871         4.41998     191.622E-03     339.704E-03    -169.354E-03    -170.350E-03    -167.651E-03     338.001E-03    -170.350E-03     58.6116E-03     20.0348E+06    -60.8752E+06    -82.3857E+06    -80.1390E+06    -63.1219E+06     20.0348E+06    -309.525E+03         52.8847
             283     6.75083E-03     75.5222E-03         4.51213         3.95743        -10.3902         3.95377        -10.3865         4.51213    -47.7649E-03     339.405E-03    -168.995E-03    -170.410E-03    -167.808E-03     338.218E-03    -170.410E-03     48.7610E-03    -478.260E+03    -91.4488E+06    -112.745E+06    -91.4957E+06    -112.698E+06    -478.260E+03    -327.987E+03         52.2516
             284     5.90583E-03     75.4775E-03         4.59118         4.19464        -10.6809         4.17855        -10.6648         4.59118     394.062E-03     339.730E-03    -169.277E-03    -170.453E-03    -168.516E-03     338.969E-03    -170.453E-03     39.0875E-03    -20.5845E+06    -102.096E+06    -156.517E+06    -102.113E+06    -156.500E+06    -20.5845E+06    -26.4356E+03         51.6336
             285     5.06371E-03     75.4393E-03         4.65438         4.40050        -10.9258         4.38136        -10.9067         4.65438     243.055E-03     340.214E-03    -169.781E-03    -170.433E-03    -169.336E-03     339.759E-03    -170.423E-03     30.0838E-03    -43.3999E+06    -113.200E+06    -201.468E+06    -113.233E+06    -201.435E+06    -43.3999E+06    -474.521E+03         51.0411
             286     4.21954E-03     75.4153E-03         4.70292         4.52853        -11.0857         4.52146        -11.0786         4.70292    -160.787E-03     340.189E-03    -169.690E-03    -170.499E-03    -169.612E-03     339.958E-03    -170.346E-03     21.3093E-03    -67.1486E+06    -125.755E+06    -248.900E+06    -125.779E+06    -248.876E+06    -67.1486E+06    -577.479E+03         50.4938
             287     3.37543E-03     75.4010E-03         4.73989         4.64173        -11.2175         4.62886        -11.2046         4.73989    -351.467E-03     340.065E-03    -169.624E-03    -170.441E-03    -169.713E-03     339.965E-03    -170.252E-03     13.8488E-03    -91.3071E+06    -138.164E+06    -288.507E+06    -138.172E+06    -288.499E+06    -91.3071E+06     205.529E+03         50.0138
             288     2.53210E-03     75.3879E-03         4.92091         4.74559        -11.4904         4.68963        -11.2838         4.77028        -3.12042     340.104E-03    -169.793E-03    -170.311E-03    -169.949E-03     340.068E-03    -170.119E-03     8.25433E-03    -116.077E+06    -148.188E+06    -319.162E+06    -148.224E+06    -319.126E+06    -116.077E+06     477.631E+03         49.6205
             289     1.68795E-03     75.3846E-03         5.25301         4.79611        -11.8760         4.75340        -11.3764         4.79611     662.903E-03     339.981E-03    -169.799E-03    -170.182E-03    -170.060E-03     339.970E-03    -169.910E-03     4.49902E-03    -139.532E+06    -156.439E+06    -343.878E+06    -156.475E+06    -343.842E+06    -139.532E+06     379.223E+03         49.3288
             290     844.502E-06     75.3820E-03         6.73036         6.33733        -14.8671         3.23560        -11.4153         6.38027        -7.83163     339.443E-03    -169.134E-03    -170.308E-03    -169.720E-03     339.440E-03    -169.720E-03     1.54084E-03    -157.609E+06    -163.270E+06    -357.637E+06    -163.089E+06    -357.632E+06    -157.796E+06     101.167E+03         49.1458
             291     14.3563E-03     75.0741E-03         3.79359         1.83583        -7.80651         1.82942        -7.80010         3.79359     462.380E-03     345.465E-03    -170.043E-03    -175.422E-03    -169.005E-03     339.091E-03    -170.086E-03     105.552E-03     113.780E+06     111.956E+06    -6.75667E+06    -6.72988E+06     113.666E+06     112.043E+06     94.3098E+03         64.0129
             292     13.5091E-03     74.8745E-03         3.94027         2.13990        -8.22295         2.12228        -8.20534         3.94027     743.809E-03     345.841E-03    -170.105E-03    -175.737E-03    -168.373E-03     338.477E-03    -170.105E-03     119.211E-03     102.659E+06     98.6857E+06    -14.7128E+06    -14.6840E+06     99.2538E+06     102.062E+06      402.33E+03         61.9740
             293     12.6641E-03     74.7679E-03         4.08351         2.43686        -8.63228         2.41572        -8.61115         4.08351     267.543E-03     342.138E-03    -170.138E-03    -172.000E-03    -167.622E-03     337.760E-03    -170.138E-03     94.2471E-03     96.5994E+06     89.2905E+06    -22.2906E+06    -22.2843E+06     89.2841E+06     96.5994E+06     456.064E+03         59.8090
             294     11.8201E-03     74.6412E-03         4.22038         2.72794        -9.02999         2.71389        -9.01594         4.22038     149.381E-03     341.893E-03    -170.144E-03    -171.748E-03    -167.415E-03     337.559E-03    -170.144E-03     93.6765E-03     88.1724E+06     83.2912E+06    -30.0310E+06    -30.0289E+06     83.2892E+06     88.1724E+06     305.467E+03         57.8707
             295     10.9727E-03     74.5337E-03         4.35226         3.06131        -9.46580         3.01303        -9.41752         4.35226    -523.895E-03     340.682E-03    -170.137E-03    -170.545E-03    -167.046E-03     337.183E-03    -170.137E-03     84.2625E-03     79.6030E+06     73.6833E+06    -38.6464E+06    -38.6294E+06     78.7246E+06     74.5448E+06    -152.372E+03         56.3274
             296     10.1300E-03     74.4333E-03         4.47764         3.34242        -9.84669         3.30040        -9.80467         4.47764    -711.619E-03     340.524E-03    -170.166E-03    -170.358E-03    -167.190E-03     337.355E-03    -170.166E-03     80.1895E-03     75.7436E+06     67.1920E+06    -47.0918E+06    -47.0758E+06     75.7276E+06     67.1920E+06    -717.951E+03         55.1655
             297     9.28516E-03     74.3379E-03         4.59670         3.58218        -10.1880         3.57171        -10.1775         4.59670    -166.267E-03     340.129E-03    -169.833E-03    -170.297E-03    -167.182E-03     337.402E-03    -170.220E-03     74.2982E-03     63.1545E+06     54.5499E+06    -56.7507E+06    -56.7434E+06     58.0359E+06     59.6612E+06    -245.924E+03         54.2775
             298     8.44072E-03     74.2548E-03         4.70853         3.83767        -10.5392         3.83010        -10.5316         4.70853    -528.128E-03     339.824E-03    -169.534E-03    -170.290E-03    -167.308E-03     337.598E-03    -170.290E-03     67.1034E-03     41.9750E+06     2.53213E+06    -67.5566E+06    -67.5443E+06     2.51989E+06     41.9750E+06     171.076E+03         53.5462
             299     7.59504E-03     74.1802E-03         4.81163         4.08415        -10.8672         4.08292        -10.8659         4.81163     100.862E-03     339.669E-03    -169.305E-03    -170.364E-03    -167.614E-03     337.978E-03    -170.364E-03     58.3235E-03     21.1838E+06    -60.5835E+06    -80.8809E+06    -78.6463E+06    -62.8181E+06     21.1838E+06     162.110E+03         52.8866
             300     6.75101E-03     74.1207E-03         4.90354         4.33601        -11.1885         4.33112        -11.1836         4.90354    -170.747E-03     339.409E-03    -168.985E-03    -170.424E-03    -167.835E-03     338.259E-03    -170.424E-03     48.0406E-03     301.327E+03    -89.8434E+06    -112.350E+06    -89.9355E+06    -112.257E+06     301.327E+03    -706.497E+03         52.2543
             301     5.90683E-03     74.0711E-03         4.98184         4.57692        -11.4834         4.56196        -11.4684         4.98184     254.983E-03     339.589E-03    -169.112E-03    -170.477E-03    -168.367E-03     338.844E-03    -170.477E-03     38.6347E-03    -20.9412E+06    -101.679E+06    -157.798E+06    -101.714E+06    -157.763E+06    -20.9412E+06    -1.10139E+06         51.6379
             302     5.06191E-03     74.0345E-03         5.04412         4.79099        -11.7395         4.77163        -11.7201         5.04412     80.0228E-03     339.960E-03    -169.465E-03    -170.495E-03    -169.019E-03     339.514E-03    -170.495E-03     29.8156E-03    -43.2350E+06    -113.816E+06    -202.057E+06    -113.824E+06    -202.050E+06    -43.2350E+06    -145.994E+03         51.0474
             303     4.21817E-03     74.0109E-03         5.09159         4.92291        -11.9090         4.91158        -11.8976         5.09159    -206.390E-03     340.584E-03    -170.012E-03    -170.572E-03    -169.926E-03     340.350E-03    -170.425E-03     21.4546E-03    -67.0930E+06    -125.841E+06    -249.582E+06    -125.846E+06    -249.576E+06    -67.0930E+06     290.750E+03         50.5020
             304     3.37664E-03     73.9933E-03         5.14248         5.04124        -12.0683         5.03480        -12.0446         5.12525    -513.611E-03     340.768E-03    -170.206E-03    -170.562E-03    -170.455E-03     340.661E-03    -170.206E-03     14.5060E-03    -91.4329E+06    -136.881E+06    -289.178E+06    -136.896E+06    -289.163E+06    -91.4329E+06    -59.9004E+03         50.0233
             305     2.53293E-03     73.9874E-03         5.24387         5.14493        -12.2488         5.08270        -12.0931         5.15042        -2.95879     340.069E-03    -169.808E-03    -170.261E-03    -170.107E-03     340.026E-03    -169.919E-03     8.94815E-03    -115.391E+06     -146.99E+06    -318.906E+06    -147.016E+06    -318.880E+06    -115.391E+06    -429.718E+03         49.6302
             306     1.68852E-03     73.9795E-03         5.48747         5.15754        -12.4919         5.17940        -12.1838         5.15754     262.454E-03     339.340E-03    -169.451E-03    -169.890E-03    -169.619E-03     339.329E-03    -169.710E-03     4.29046E-03    -139.603E+06    -156.401E+06    -344.007E+06    -156.421E+06    -343.987E+06    -139.603E+06    -150.048E+03         49.3377
             307     844.129E-06     73.9816E-03         6.67763         6.01041        -14.5111         3.88045        -12.1274         6.42391        -6.63826     339.165E-03    -169.057E-03    -170.107E-03    -169.564E-03     339.162E-03    -169.598E-03     1.94325E-03    -157.858E+06    -163.759E+06    -358.650E+06    -162.895E+06    -358.644E+06    -158.727E+06    -209.893E+03         49.1539
             308     14.3523E-03     73.6675E-03         4.06948         1.86014        -8.10776         1.85484        -8.10246         4.06948     423.707E-03     345.410E-03    -169.741E-03    -175.669E-03    -168.834E-03     338.966E-03    -170.132E-03     105.960E-03     112.517E+06     110.939E+06    -6.77767E+06    -6.76569E+06     112.157E+06     111.286E+06     129.358E+03         63.9831
             309     13.5091E-03     73.4723E-03         4.22443         2.19333        -8.55816         2.17881        -8.54364         4.22443     681.769E-03     346.685E-03    -170.140E-03    -176.546E-03    -169.155E-03     339.295E-03    -170.140E-03     119.301E-03     102.670E+06     99.1643E+06    -13.4293E+06    -13.4123E+06     99.1473E+06     102.670E+06     774.639E+03         61.9638
             310     12.6637E-03     73.3621E-03         4.37500         2.53445        -9.01701         2.51578        -8.99835         4.37500     206.089E-03     342.483E-03    -170.136E-03    -172.346E-03    -168.042E-03     338.178E-03    -170.136E-03     93.4691E-03     97.6871E+06     89.5192E+06    -20.2229E+06    -20.2156E+06     89.5120E+06     97.6871E+06     545.777E+03         59.8180
             311     11.8193E-03     73.2358E-03         4.51812         2.86566        -9.46284         2.85308        -9.45026         4.51812     94.2560E-03     342.031E-03    -170.120E-03    -171.911E-03    -167.607E-03     337.727E-03    -170.120E-03     93.3879E-03     89.1011E+06     82.8398E+06    -28.3086E+06    -28.3071E+06     82.8384E+06     89.1011E+06     291.152E+03         57.8889
             312     10.9769E-03     73.1311E-03         4.65511         3.22203        -9.92907         3.17852        -9.88555         4.65511    -545.724E-03     340.780E-03    -170.100E-03    -170.679E-03    -167.147E-03     337.247E-03    -170.100E-03     84.6951E-03     81.3744E+06     75.0022E+06    -36.8466E+06    -36.8213E+06     80.0973E+06     76.2539E+06     48.6340E+03         56.3455
             313     10.1298E-03     73.0282E-03         4.78497         3.53089        -10.3441         3.49285        -10.3060         4.78497    -740.484E-03     340.245E-03    -169.976E-03    -170.269E-03    -166.875E-03     337.009E-03    -170.134E-03     80.9774E-03     75.7914E+06     67.2892E+06    -46.8249E+06    -46.7994E+06     75.7659E+06     67.2892E+06    -153.767E+03         55.1786
             314     9.28508E-03     72.9344E-03         4.90782         3.79522        -10.7144         3.78686        -10.7061         4.90782    -185.664E-03     339.949E-03    -169.733E-03    -170.215E-03    -166.984E-03     337.193E-03    -170.209E-03     74.6433E-03     62.1089E+06     53.2861E+06    -57.8549E+06    -57.8476E+06     56.6604E+06     58.7272E+06    -102.927E+03         54.2855
             315     8.43937E-03     72.8507E-03         5.02313         4.07147        -11.0900         4.06437        -11.0829         5.02313    -586.372E-03     339.793E-03    -169.501E-03    -170.291E-03    -167.279E-03     337.570E-03    -170.291E-03     67.0383E-03     41.6820E+06     2.14352E+06    -68.3928E+06    -68.3851E+06     2.13579E+06     41.6820E+06    -148.899E+03         53.5507
             316     7.59608E-03     72.7754E-03         5.12950         4.34087        -11.4438         4.33912        -11.4421         5.12950     12.3808E-03     339.704E-03    -169.339E-03    -170.365E-03    -167.663E-03     338.027E-03    -170.365E-03     58.0809E-03     21.4120E+06    -60.0919E+06    -81.1046E+06    -78.5790E+06    -62.6176E+06     21.4120E+06    -237.957E+03         52.8895
             317     6.75146E-03     72.7165E-03         5.22446         4.61232        -11.7848         4.60466        -11.7771         5.22446    -303.543E-03     339.750E-03    -169.351E-03    -170.399E-03    -168.190E-03     338.589E-03    -170.399E-03     48.3510E-03     1.07665E+06    -89.2025E+06    -111.776E+06    -89.3441E+06    -111.634E+06     1.07665E+06    -157.381E+03         52.2570
             318     5.90710E-03     72.6665E-03         5.30683         4.85399        -12.0862         4.83584        -12.0680         5.30683     151.720E-03     339.671E-03    -169.260E-03    -170.412E-03    -168.522E-03     338.934E-03    -170.412E-03     38.3105E-03    -20.9503E+06    -101.639E+06    -158.474E+06    -101.689E+06    -158.424E+06    -20.9503E+06    -310.943E+03         51.6411
             319     5.06261E-03     72.6321E-03         5.37508         5.07995        -12.3666         5.05320        -12.3399         5.37508    -106.388E-03     339.645E-03    -169.220E-03    -170.425E-03    -168.806E-03     339.231E-03    -170.425E-03     28.7576E-03    -43.6840E+06    -113.725E+06    -203.830E+06    -113.729E+06    -203.826E+06    -43.6840E+06    -403.189E+03         51.0512
             320     4.21915E-03     72.6027E-03         5.42953         5.23400        -12.5691         5.21003        -12.5451         5.42953    -193.097E-03     339.903E-03    -169.463E-03    -170.440E-03    -169.247E-03     339.682E-03    -170.436E-03     20.8459E-03    -66.9237E+06    -124.798E+06    -249.803E+06    -124.805E+06    -249.796E+06    -66.9237E+06    -185.964E+03         50.5072
             321     3.37423E-03     72.5907E-03         5.52646         5.37383        -12.7937         5.37636        -12.7362         5.46647    -781.305E-03     340.315E-03    -169.758E-03    -170.556E-03    -169.817E-03     340.205E-03    -170.389E-03     14.7745E-03    -91.4952E+06    -135.658E+06    -289.126E+06    -135.673E+06    -289.111E+06    -91.4952E+06    -163.931E+03         50.0308
             322     2.53187E-03     72.5792E-03         5.56405         5.45880        -12.8871         5.43167        -12.7854         5.48946        -2.59047     340.517E-03    -169.985E-03    -170.532E-03    -170.229E-03     340.465E-03    -170.236E-03     9.89142E-03    -116.465E+06    -147.110E+06    -319.828E+06    -147.128E+06    -319.810E+06    -116.465E+06    -182.065E+03         49.6411
             323     1.68916E-03     72.5809E-03         5.66776         5.45517        -12.9748         5.54245        -12.8801         5.48583    -453.063E-03     340.115E-03    -169.837E-03    -170.278E-03    -170.066E-03     340.098E-03    -170.032E-03     5.51268E-03    -139.576E+06    -156.383E+06    -344.529E+06    -156.395E+06    -344.518E+06    -139.576E+06     60.6733E+03         49.3520
             324     844.072E-06     72.5766E-03         6.56876         5.32145        -13.7119         4.54318        -12.7663         6.40142        -4.44023     339.753E-03    -169.529E-03    -170.224E-03    -169.637E-03     339.747E-03    -170.111E-03     2.19380E-03    -156.558E+06    -162.622E+06    -358.488E+06    -161.244E+06    -358.477E+06    -157.947E+06     407.797E+03         49.1707
             325     14.3539E-03     72.2682E-03         4.28298         1.86347        -8.28409         1.85916        -8.27977         4.28298     378.451E-03     345.645E-03    -169.755E-03    -175.890E-03    -169.097E-03     339.245E-03    -170.148E-03     105.383E-03     112.194E+06     110.831E+06    -7.04960E+06    -7.04813E+06     111.932E+06     111.091E+06    -289.575E+03         63.9562
             326     13.5079E-03     72.0615E-03         4.44256         2.23514        -8.78046         2.22423        -8.76955         4.44256     594.243E-03     346.836E-03    -170.142E-03    -176.694E-03    -169.352E-03     339.493E-03    -170.142E-03     118.841E-03     102.727E+06     99.3068E+06    -13.6630E+06    -13.6524E+06     99.3304E+06     102.693E+06    -636.757E+03         61.9549
             327     12.6661E-03     71.9599E-03         4.59601         2.61957        -9.28642         2.60407        -9.27091         4.59601     127.499E-03     342.389E-03    -170.135E-03    -172.254E-03    -167.921E-03     338.056E-03    -170.135E-03     93.6552E-03     97.0257E+06     88.3044E+06    -21.0010E+06    -20.9892E+06     88.2926E+06     97.0257E+06    -219.965E+03         59.8259
             328     11.8201E-03     71.8310E-03         4.74079         2.98435        -9.76621         2.97327        -9.75513         4.74079     35.2586E-03     341.892E-03    -170.133E-03    -171.760E-03    -167.353E-03     337.486E-03    -170.133E-03     94.4381E-03     88.1001E+06     81.7933E+06    -28.7465E+06    -28.7442E+06     81.7910E+06     88.1001E+06     431.649E+03         57.9055
             329     10.9734E-03     71.7262E-03         4.87844         3.35519        -10.2504         3.31572        -10.2109         4.87844    -575.878E-03     340.916E-03    -170.128E-03    -170.788E-03    -167.163E-03     337.291E-03    -170.128E-03     85.8237E-03     80.5599E+06     75.2408E+06    -36.8749E+06    -36.8622E+06     79.8363E+06     75.9518E+06     882.979E+03         56.3631
             330     10.1303E-03     71.6253E-03         5.00924         3.66315        -10.6713         3.62824        -10.6364         5.00924    -772.227E-03     340.645E-03    -169.999E-03    -170.646E-03    -167.212E-03     337.368E-03    -170.156E-03     81.5275E-03     76.1984E+06     68.3293E+06    -46.0941E+06    -46.0734E+06     76.1777E+06     68.3293E+06     1.32958E+06         55.1932
             331     9.28438E-03     71.5303E-03         5.13438         3.92404        -11.0428         3.91716        -11.0359         5.13438    -214.852E-03     340.151E-03    -169.793E-03    -170.358E-03    -167.201E-03     337.408E-03    -170.208E-03     74.5059E-03     62.9760E+06     54.1181E+06    -56.5984E+06    -56.5848E+06     57.3656E+06     59.7149E+06     439.443E+03         54.2958
             332     8.44131E-03     71.4452E-03         5.25333         4.21186        -11.4341         4.20427        -11.4266         5.25333    -664.235E-03     339.801E-03    -169.528E-03    -170.273E-03    -167.326E-03     337.598E-03    -170.273E-03     66.7219E-03     41.5861E+06     2.01231E+06    -67.8298E+06    -67.8232E+06     2.00574E+06     41.5861E+06    -261.295E+03         53.5574
             333     7.59511E-03     71.3730E-03         5.36415         4.49506        -11.8081         4.49196        -11.8050         5.36415    -67.4234E-03     339.622E-03    -169.280E-03    -170.342E-03    -167.607E-03     337.949E-03    -170.342E-03     58.0792E-03     20.3810E+06    -60.8891E+06    -81.5562E+06    -79.1791E+06    -63.2662E+06     20.3810E+06    -445.458E+03         52.8938
             334     6.75097E-03     71.3098E-03         5.46475         4.77824        -12.1689         4.76661        -12.1573         5.46475    -415.870E-03     339.780E-03    -169.405E-03    -170.375E-03    -168.233E-03     338.609E-03    -170.375E-03     48.5184E-03     52.8293E+03    -90.7251E+06    -112.556E+06    -90.8150E+06    -112.466E+06     52.8293E+03     204.732E+03         52.2602
             335     5.90756E-03     71.2632E-03         5.55419         5.03455        -12.4926         5.01055        -12.4685         5.55419     87.9861E-03     339.943E-03    -169.587E-03    -170.357E-03    -168.843E-03     339.200E-03    -170.357E-03     38.5826E-03    -21.1570E+06    -102.012E+06    -157.603E+06    -102.041E+06    -157.574E+06    -21.1570E+06     621.142E+03         51.6443
             336     5.06463E-03     71.2254E-03         5.63074         5.28291        -12.8022         5.24336        -12.7626         5.63074    -283.195E-03     339.544E-03    -169.209E-03    -170.334E-03    -168.775E-03     339.110E-03    -170.334E-03     29.3825E-03    -44.9765E+06    -113.557E+06    -203.989E+06    -113.566E+06    -203.980E+06    -44.9765E+06    -258.318E+03         51.0550
             337     4.21911E-03     71.2026E-03         5.69427         5.46753        -13.0407         5.42215        -12.9953         5.69427    -138.227E-03     339.263E-03    -168.860E-03    -170.403E-03    -168.629E-03     339.032E-03    -170.403E-03     21.3154E-03    -68.2752E+06    -125.141E+06    -250.692E+06    -125.147E+06    -250.686E+06    -68.2752E+06    -690.471E+03         50.5122
             338     3.37482E-03     71.1841E-03         5.83059         5.63640        -13.3335         5.61254        -13.2193         5.74019        -1.06354     339.660E-03    -169.121E-03    -170.539E-03    -169.014E-03     339.553E-03    -170.539E-03     14.3803E-03    -92.0926E+06    -136.813E+06    -289.610E+06    -136.821E+06    -289.602E+06    -92.0926E+06    -167.916E+03         50.0384
             339     2.52937E-03     71.1772E-03         5.86135         5.70512        -13.4112         5.69188        -13.3076         5.77095        -2.12597     340.358E-03    -169.681E-03    -170.677E-03    -169.638E-03     340.315E-03    -170.677E-03     8.87253E-03    -116.977E+06    -147.134E+06    -320.226E+06    -147.145E+06    -320.216E+06    -116.977E+06    -227.176E+03         49.6526
             340     1.68513E-03     71.1725E-03         5.93401         5.70958        -13.4980         5.81314        -13.4430         5.77541        -1.25087     341.164E-03    -170.312E-03    -170.852E-03    -170.411E-03     341.149E-03    -170.739E-03     5.02718E-03    -139.677E+06    -155.770E+06    -345.086E+06    -155.792E+06    -345.064E+06    -139.677E+06    -866.198E+03         49.3681
             341     843.809E-06     71.1757E-03         6.53207         5.22084        -13.5643         5.15889        -13.3438         6.37347        -1.69448     341.356E-03    -170.429E-03    -170.926E-03    -170.823E-03     341.350E-03    -170.526E-03     2.33718E-03    -155.676E+06    -161.724E+06    -358.478E+06    -161.229E+06    -358.454E+06    -156.194E+06    -212.476E+03         49.1907
             342     14.3536E-03     70.8594E-03         4.42533         1.84468        -8.32929         1.84120        -8.32581         4.42533     330.436E-03     345.867E-03    -170.078E-03    -175.789E-03    -169.303E-03     339.426E-03    -170.123E-03     105.835E-03     112.834E+06     111.958E+06    -6.36627E+06    -6.36570E+06     112.834E+06     111.958E+06    -51.3348E+03         63.9300
             343     13.5105E-03     70.6606E-03         4.58518         2.25855        -8.87183         2.25022        -8.86351         4.58518     513.525E-03     346.070E-03    -170.133E-03    -175.937E-03    -168.554E-03     338.687E-03    -170.133E-03     119.054E-03     102.432E+06     98.7161E+06    -14.1746E+06    -14.1640E+06     98.8788E+06     102.258E+06    -371.774E+03         61.9445
             344     12.6620E-03     70.5527E-03         4.73756         2.66634        -9.40384         2.65298        -9.39049         4.73756     64.3180E-03     341.824E-03    -170.174E-03    -171.650E-03    -167.272E-03     337.446E-03    -170.174E-03     94.0477E-03     95.4686E+06     86.4109E+06    -22.3188E+06    -22.2971E+06     86.3892E+06     95.4686E+06    -736.584E+03         59.8306
             345     11.8186E-03     70.4281E-03         4.88124         3.04507        -9.90126         3.03535        -9.89155         4.88124    -25.5281E-03     342.145E-03    -170.191E-03    -171.954E-03    -167.530E-03     337.721E-03    -170.191E-03     94.6461E-03     86.6725E+06     80.4980E+06    -30.2908E+06    -30.2753E+06     80.4826E+06     86.6725E+06    -614.910E+03         57.9198
             346     10.9745E-03     70.3225E-03         5.01766         3.42193        -10.3944         3.38496        -10.3574         5.01766    -621.467E-03     341.307E-03    -170.169E-03    -171.138E-03    -167.571E-03     337.740E-03    -170.169E-03     85.2025E-03     79.3306E+06     74.1861E+06    -38.1833E+06    -38.1776E+06     78.6658E+06     74.8452E+06    -26.1374E+03         56.3804
             347     10.1287E-03     70.2190E-03         5.14790         3.72982        -10.8173         3.69655        -10.7840         5.14790    -825.646E-03     340.914E-03    -170.112E-03    -170.802E-03    -167.536E-03     337.705E-03    -170.169E-03     80.7295E-03     75.8652E+06     68.2410E+06    -46.1515E+06    -46.1418E+06     75.8555E+06     68.2410E+06     759.723E+03         55.2084
             348     9.28620E-03     70.1260E-03         5.27322         3.99384        -11.1954         3.98800        -11.1896         5.27322    -264.594E-03     340.128E-03    -169.771E-03    -170.357E-03    -167.178E-03     337.385E-03    -170.207E-03     74.5491E-03     63.3829E+06     54.9366E+06    -55.8206E+06    -55.7983E+06     58.0530E+06     60.2442E+06     1.30901E+06         54.3068
             349     8.43946E-03     70.0416E-03         5.39344         4.28141        -11.5886         4.27257        -11.5798         5.39344    -742.795E-03     339.805E-03    -169.530E-03    -170.275E-03    -167.283E-03     337.558E-03    -170.275E-03     67.3841E-03     41.9016E+06     2.89227E+06    -67.3336E+06    -67.2989E+06     2.85761E+06     41.9016E+06     1.13904E+06         53.5646
             350     7.59670E-03     69.9679E-03         5.50739         4.56038        -11.9602         4.55565        -11.9554         5.50739    -151.465E-03     339.938E-03    -169.609E-03    -170.328E-03    -167.911E-03     338.240E-03    -170.328E-03     58.5196E-03     19.9991E+06    -60.7018E+06    -81.5657E+06    -79.3171E+06    -62.9504E+06     19.9991E+06     462.734E+03         52.8988
             351     6.75182E-03     69.9069E-03         5.61311         4.85282        -12.3392         4.83679        -12.3231         5.61311    -531.447E-03     339.702E-03    -169.359E-03    -170.344E-03    -168.185E-03     338.528E-03    -170.344E-03     48.5748E-03    -1.29623E+06    -90.7071E+06    -113.823E+06    -90.7164E+06    -113.813E+06    -1.29623E+06     106.559E+03         52.2644
             352     5.90737E-03     69.8562E-03         5.70828         5.13554        -12.7000         5.10535        -12.6698         5.70828     20.6493E-03     339.381E-03    -169.009E-03    -170.372E-03    -168.255E-03     338.627E-03    -170.372E-03     38.8508E-03    -21.7690E+06    -101.459E+06    -157.514E+06    -101.465E+06    -157.508E+06    -21.7690E+06     194.224E+03         51.6487
             353     5.06239E-03     69.8232E-03         5.78970         5.41380        -13.0472         5.36227        -12.9957         5.78970    -421.893E-03     339.515E-03    -169.096E-03    -170.419E-03    -168.648E-03     339.067E-03    -170.419E-03     29.8434E-03    -43.9733E+06    -112.527E+06    -203.531E+06    -112.539E+06    -203.519E+06    -43.9733E+06     374.415E+03         51.0607
             354     4.21895E-03     69.7977E-03         5.85695         5.62940        -13.3211         5.56010        -13.2518         5.85695    -49.8857E-03     339.798E-03    -169.334E-03    -170.465E-03    -169.094E-03     339.559E-03    -170.465E-03     21.7476E-03    -67.4767E+06    -124.195E+06    -250.709E+06    -124.202E+06    -250.702E+06    -67.4767E+06     336.881E+03         50.5200
             355     3.37434E-03     69.7820E-03         6.01595         5.81214        -13.6503         5.74516        -13.4757         5.90834        -1.24519     339.891E-03    -169.365E-03    -170.526E-03    -169.260E-03     339.786E-03    -170.526E-03     14.1147E-03    -91.7301E+06    -135.725E+06    -289.718E+06    -135.731E+06    -289.712E+06    -91.7301E+06    -525.694E+03         50.0482
             356     2.53075E-03     69.7721E-03         6.05517         5.88960        -13.7420         5.83924        -13.5840         5.94756        -1.66747     340.146E-03    -169.481E-03    -170.666E-03    -169.447E-03     340.112E-03    -170.666E-03     7.98494E-03    -116.475E+06    -146.145E+06    -320.685E+06    -146.152E+06    -320.678E+06    -116.475E+06    -810.444E+03         49.6643
             357     1.68683E-03     69.7685E-03         6.22462         5.90508        -13.9165         5.97490        -13.7247         5.96304        -1.90385     340.969E-03    -170.098E-03    -170.870E-03    -170.089E-03     340.959E-03    -170.870E-03     3.96216E-03    -140.179E+06    -155.457E+06    -345.396E+06    -155.477E+06    -345.376E+06    -140.179E+06    -528.341E+03         49.3818
             358     842.024E-06     69.7661E-03         6.69758         5.72903        -14.2036         5.74769        -13.6969         6.17226     712.134E-03     341.853E-03    -170.442E-03    -171.411E-03    -170.725E-03     341.849E-03    -171.124E-03     1.30572E-03    -157.592E+06    -163.022E+06    -361.236E+06    -162.310E+06    -361.208E+06    -158.333E+06    -1.26616E+06         49.2062
             359     14.3551E-03     69.4567E-03         4.48521         1.79609        -8.22953         1.79297        -8.22641         4.48521     308.486E-03     345.464E-03    -170.112E-03    -175.352E-03    -168.919E-03     339.032E-03    -170.112E-03     105.884E-03     112.451E+06     111.335E+06    -7.14995E+06    -7.14876E+06     112.450E+06     111.335E+06     7.73654E+03         63.9027
             360     13.5076E-03     69.2551E-03         4.64175         2.22347        -8.79042         2.21628        -8.78322         4.64175     474.328E-03     345.654E-03    -170.149E-03    -175.504E-03    -168.114E-03     338.263E-03    -170.149E-03     119.163E-03     102.600E+06     97.9372E+06    -13.9905E+06    -13.9882E+06     98.3347E+06     102.200E+06    -191.724E+03         61.9329
             361     12.6646E-03     69.1521E-03         4.79091         2.63614        -9.32959         2.62363        -9.31709         4.79091     26.8513E-03     341.963E-03    -170.201E-03    -171.762E-03    -167.422E-03     337.623E-03    -170.201E-03     93.7634E-03     96.1012E+06     86.8564E+06    -21.1654E+06    -21.1508E+06     86.8418E+06     96.1012E+06    -282.461E+03         59.8353
             362     11.8175E-03     69.0214E-03         4.93276         3.01008        -9.82790         3.00102        -9.81884         4.93276    -68.7825E-03     342.383E-03    -170.198E-03    -172.184E-03    -167.875E-03     338.073E-03    -170.198E-03     93.4815E-03     86.9264E+06     80.8688E+06    -29.4839E+06    -29.4645E+06     80.8494E+06     86.9264E+06    -865.828E+03         57.9345
             363     10.9739E-03     68.9168E-03         5.06822         3.38784        -10.3247         3.35147        -10.2884         5.06822    -659.998E-03     341.347E-03    -170.155E-03    -171.192E-03    -167.682E-03     337.837E-03    -170.155E-03     84.5324E-03     78.6267E+06     73.0972E+06    -38.3793E+06    -38.3726E+06     77.5439E+06     74.1733E+06    -642.957E+03         56.3970
             364     10.1310E-03     68.8148E-03         5.19755         3.72053        -10.7723         3.68737        -10.7392         5.19755    -875.633E-03     340.490E-03    -169.972E-03    -170.518E-03    -167.108E-03     337.271E-03    -170.162E-03     80.8139E-03     73.2431E+06     65.7277E+06    -48.1968E+06    -48.1869E+06     73.2332E+06     65.7277E+06     539.478E+03         55.2219
             365     9.28380E-03     68.7218E-03         5.32086         4.00350        -11.1679         3.99805        -11.1624         5.32086    -313.411E-03     340.002E-03    -169.774E-03    -170.228E-03    -167.012E-03     337.240E-03    -170.228E-03     74.7465E-03     61.3027E+06     53.8597E+06    -58.6745E+06    -58.6489E+06     56.8961E+06     58.2407E+06     1.44948E+06         54.3162
             366     8.44072E-03     68.6377E-03         5.43891         4.29105        -11.5611         4.28113        -11.5511         5.43891    -792.040E-03     339.997E-03    -169.699E-03    -170.299E-03    -167.451E-03     337.750E-03    -170.299E-03     67.4386E-03     41.1615E+06     4.49281E+06    -69.2877E+06    -69.2506E+06     4.45566E+06     41.1615E+06     1.18684E+06         53.5711
             367     7.59462E-03     68.5626E-03         5.55164         4.56667        -11.9332         4.56103        -11.9276         5.55164    -216.515E-03     339.926E-03    -169.574E-03    -170.352E-03    -167.854E-03     338.205E-03    -170.352E-03     58.9120E-03     19.6519E+06    -59.5729E+06    -82.8164E+06    -79.8346E+06    -62.5548E+06     19.6519E+06     647.345E+03         52.9039
             368     6.75212E-03     68.5012E-03         5.65662         4.87021        -12.3242         4.85170        -12.3057         5.65662    -611.155E-03     339.603E-03    -169.217E-03    -170.386E-03    -168.014E-03     338.400E-03    -170.386E-03     49.1805E-03    -1.62045E+06    -90.6853E+06    -113.745E+06    -90.7244E+06    -113.705E+06    -1.62045E+06     318.044E+03         52.2694
             369     5.90702E-03     68.4552E-03         5.75003         5.17371        -12.7045         5.14008        -12.6709         5.75003    -22.6962E-03     339.404E-03    -168.967E-03    -170.437E-03    -168.200E-03     338.637E-03    -170.437E-03     39.1209E-03    -22.6334E+06    -102.332E+06    -158.135E+06    -102.333E+06    -158.134E+06    -22.6334E+06    -44.4436E+03         51.6549
             370     5.06231E-03     68.4175E-03         5.82837         5.46163        -13.0598         5.40458        -13.0028         5.82837    -477.913E-03     339.734E-03    -169.245E-03    -170.489E-03    -168.816E-03     339.304E-03    -170.489E-03     29.1611E-03    -43.9969E+06    -113.917E+06    -204.388E+06    -113.925E+06    -204.380E+06    -43.9969E+06     583.668E+03         51.0689
             371     4.21816E-03     68.3936E-03         5.89106         5.69640        -13.3485         5.61204        -13.2642         5.89106     46.8600E-03     340.131E-03    -169.642E-03    -170.488E-03    -169.421E-03     339.910E-03    -170.488E-03     20.9214E-03    -67.7920E+06    -125.264E+06    -249.554E+06    -125.272E+06    -249.546E+06    -67.7920E+06     615.510E+03         50.5301
             372     3.37530E-03     68.3765E-03         6.05452         5.87083        -13.6727         5.77726        -13.4633         5.93869        -1.27281     340.227E-03    -169.774E-03    -170.454E-03    -169.673E-03     340.127E-03    -170.454E-03     13.8776E-03    -92.8687E+06    -135.921E+06    -289.044E+06    -135.927E+06    -289.038E+06    -92.8687E+06    -232.072E+03         50.0596
             373     2.53095E-03     68.3693E-03         6.10178         5.95260        -13.7844         5.87447        -13.5799         5.97539        -1.34004     340.246E-03    -169.802E-03    -170.444E-03    -169.765E-03     340.209E-03    -170.444E-03     8.41581E-03    -118.052E+06    -146.707E+06    -321.591E+06    -146.713E+06    -321.585E+06    -118.052E+06    -424.923E+03         49.6758
             374     1.68669E-03     68.3631E-03         6.32586         5.97616        -14.0193         5.97120        -13.6875         5.99895        -2.23315     340.464E-03    -169.951E-03    -170.513E-03    -169.938E-03     340.451E-03    -170.513E-03     4.65788E-03    -140.802E+06    -156.394E+06    -346.326E+06    -156.403E+06    -346.317E+06    -140.802E+06    -142.894E+03         49.3925
             375     844.097E-06     68.3618E-03         7.14265         5.85911        -14.7136         6.15293        -13.7239         5.85911         1.98360     341.037E-03    -169.768E-03    -171.268E-03    -170.539E-03     341.033E-03    -170.494E-03     1.09944E-03    -157.599E+06    -163.803E+06    -362.474E+06    -163.090E+06    -362.447E+06    -158.340E+06     193.282E+03         49.2159
             376     14.3538E-03     68.0512E-03         4.45436         1.69858        -7.97468         1.69579        -7.97189         4.45436     282.473E-03     345.406E-03    -169.982E-03    -175.423E-03    -168.897E-03     339.026E-03    -170.128E-03     105.557E-03     112.980E+06     111.171E+06    -6.71608E+06    -6.71433E+06     112.585E+06     111.564E+06     133.085E+03         63.8765
             377     13.5091E-03     67.8554E-03         4.60530         2.11650        -8.52121         2.10988        -8.51459         4.60530     442.142E-03     346.080E-03    -170.150E-03    -175.930E-03    -168.617E-03     338.767E-03    -170.150E-03     118.613E-03     103.820E+06     98.0765E+06    -13.5940E+06    -13.5917E+06     98.9845E+06     102.910E+06    -162.206E+03         61.9233
             378     12.6619E-03     67.7433E-03         4.74998         2.51700        -9.04786         2.50457        -9.03543         4.74998    -2.57698E-03     342.214E-03    -170.170E-03    -172.044E-03    -167.741E-03     337.911E-03    -170.170E-03     93.3914E-03     96.1068E+06     87.1636E+06    -21.9914E+06    -21.9804E+06     87.1526E+06     96.1068E+06    -186.732E+03         59.8417
             379     11.8207E-03     67.6192E-03         4.88907         2.89027        -9.54636         2.88105        -9.53714         4.88907    -93.2955E-03     341.987E-03    -170.167E-03    -171.820E-03    -167.456E-03     337.623E-03    -170.167E-03     94.0578E-03     86.3252E+06     81.0774E+06    -30.2720E+06    -30.2548E+06     81.0603E+06     86.3252E+06    -45.7310E+03         57.9488
             380     10.9750E-03     67.5102E-03         5.02178         3.28192        -10.0616         3.24515        -10.0248         5.02178    -674.545E-03     340.855E-03    -170.160E-03    -170.694E-03    -167.099E-03     337.260E-03    -170.160E-03     85.4251E-03     76.6544E+06     71.1299E+06    -39.5645E+06    -39.5528E+06     75.5048E+06     72.2679E+06     387.300E+03         56.4116
             381     10.1283E-03     67.4127E-03         5.14785         3.62682        -10.5241         3.59301        -10.4903         5.14785    -879.118E-03     340.600E-03    -170.059E-03    -170.540E-03    -167.164E-03     337.357E-03    -170.193E-03     81.1210E-03     71.5127E+06     64.0138E+06    -49.3123E+06    -49.2962E+06     71.4966E+06     64.0138E+06     1.10671E+06         55.2339
             382     9.28503E-03     67.3165E-03         5.26711         3.92151        -10.9273         3.91651        -10.9223         5.26711    -298.320E-03     340.320E-03    -169.917E-03    -170.404E-03    -167.321E-03     337.567E-03    -170.246E-03     74.6654E-03     60.7583E+06     54.1928E+06    -58.5124E+06    -58.4950E+06     57.2879E+06     57.6458E+06     936.045E+03         54.3252
             383     8.43936E-03     67.2330E-03         5.37999         4.22795        -11.3348         4.21817        -11.3250         5.37999    -779.547E-03     340.027E-03    -169.726E-03    -170.302E-03    -167.504E-03     337.806E-03    -170.302E-03     67.0649E-03     40.9800E+06     4.79292E+06    -68.7734E+06    -68.7527E+06     4.77230E+06     40.9800E+06     329.332E+03         53.5777
             384     7.59662E-03     67.1582E-03         5.48565         4.52463        -11.7274         4.51895        -11.7217         5.48565    -251.800E-03     339.506E-03    -169.126E-03    -170.380E-03    -167.435E-03     337.815E-03    -170.380E-03     58.3390E-03     19.8069E+06    -60.2193E+06    -82.8961E+06    -79.9075E+06    -63.2079E+06     19.8069E+06     698.595E+03         52.9091
             385     6.74949E-03     67.0981E-03         5.58197         4.82999        -12.1191         4.81126        -12.1004         5.58197    -642.376E-03     339.444E-03    -168.989E-03    -170.455E-03    -167.810E-03     338.266E-03    -170.455E-03     48.6718E-03    -1.22795E+06    -91.4460E+06    -113.021E+06    -91.5346E+06    -112.933E+06    -1.22795E+06     808.679E+03         52.2747
             386     5.90612E-03     67.0489E-03         5.66641         5.12317        -12.4825         5.09093        -12.4502         5.66641    -79.5656E-03     339.986E-03    -169.503E-03    -170.483E-03    -168.747E-03     339.230E-03    -170.483E-03     38.8469E-03    -23.0216E+06    -103.200E+06    -158.268E+06    -103.212E+06    -158.256E+06    -23.0216E+06     414.242E+03         51.6616
             387     5.06317E-03     67.0139E-03         5.73685         5.39151        -12.8047         5.33794        -12.7512         5.73685    -493.545E-03     340.032E-03    -169.567E-03    -170.465E-03    -169.140E-03     339.605E-03    -170.465E-03     29.1445E-03    -45.2118E+06    -114.639E+06    -204.828E+06    -114.649E+06    -204.818E+06    -45.2118E+06    -165.903E+03         51.0775
             388     4.21932E-03     66.9883E-03         5.79226         5.62295        -13.0773         5.54196        -12.9963         5.79226     46.4054E-03     339.911E-03    -169.456E-03    -170.455E-03    -169.233E-03     339.687E-03    -170.455E-03     20.9947E-03    -67.8966E+06    -125.728E+06    -249.131E+06    -125.740E+06    -249.120E+06    -67.8966E+06    -154.641E+03         50.5401
             389     3.37462E-03     66.9727E-03         5.93842         5.78684        -13.3748         5.69086        -13.1735         5.83313        -1.23128     340.152E-03    -169.707E-03    -170.446E-03    -169.603E-03     340.048E-03    -170.446E-03     14.1995E-03    -92.7481E+06    -137.221E+06    -289.512E+06    -137.225E+06    -289.508E+06    -92.7481E+06     491.363E+03         50.0704
             390     2.53141E-03     66.9643E-03         5.99938         5.85924        -13.5068         5.80219        -13.3096         5.85924        -1.28498     340.542E-03    -170.044E-03    -170.499E-03    -170.137E-03     340.501E-03    -170.364E-03     8.84899E-03    -118.026E+06    -147.918E+06    -321.454E+06    -147.923E+06    -321.449E+06    -118.026E+06     795.298E+03         49.6867
             391     1.68817E-03     66.9598E-03         6.15107         5.88078        -13.6783         5.82994        -13.3572         5.88078        -2.13849     340.452E-03    -170.026E-03    -170.427E-03    -170.244E-03     340.440E-03    -170.196E-03     4.60945E-03    -141.583E+06    -156.645E+06    -346.494E+06    -156.653E+06    -346.486E+06    -141.583E+06     299.387E+03         49.4025
             392     842.979E-06     66.9572E-03         7.32437         5.40530        -14.3521         6.38157        -13.4093         5.40530         1.98992     340.095E-03    -169.454E-03    -170.641E-03    -170.539E-03     340.093E-03    -169.554E-03     1.93250E-03    -158.994E+06    -163.642E+06    -362.862E+06    -163.667E+06    -362.836E+06    -158.994E+06     52.4358E+03         49.2247
             393     14.3533E-03     66.6489E-03         4.33232         1.56232        -7.56784         1.55977        -7.56529         4.33232     237.172E-03     345.845E-03    -169.987E-03    -175.858E-03    -169.393E-03     339.526E-03    -170.133E-03     105.078E-03     112.746E+06     111.519E+06    -6.68580E+06    -6.68441E+06     112.281E+06     111.983E+06     49.5943E+03         63.8523
             394     13.5089E-03     66.4471E-03         4.47492         1.96072        -8.08868         1.95451        -8.08247         4.47492     388.915E-03     346.427E-03    -170.121E-03    -176.306E-03    -169.051E-03     339.172E-03    -170.121E-03     118.252E-03     103.326E+06     97.8077E+06    -14.0286E+06    -14.0194E+06     98.4481E+06     102.676E+06     653.826E+03         61.9151
             395     12.6669E-03     66.3427E-03         4.61207         2.35540        -8.60884         2.34260        -8.59604         4.61207    -30.4332E-03     341.612E-03    -170.147E-03    -171.465E-03    -167.084E-03     337.231E-03    -170.147E-03     94.0081E-03     95.7180E+06     86.9778E+06    -22.1555E+06    -22.1184E+06     86.9407E+06     95.7180E+06     946.537E+03         59.8478
             396     11.8176E-03     66.2126E-03         4.74398         2.73575        -9.11567         2.72567        -9.10559         4.74398    -100.087E-03     341.546E-03    -170.188E-03    -171.358E-03    -166.875E-03     337.063E-03    -170.188E-03     95.1822E-03     85.0265E+06     80.3066E+06    -31.2968E+06    -31.2633E+06     80.2731E+06     85.0265E+06     783.338E+03         57.9620
             397     10.9724E-03     66.1093E-03         4.86873         3.12519        -9.62589         3.08837        -9.58907         4.86873    -647.871E-03     341.100E-03    -170.203E-03    -170.897E-03    -167.299E-03     337.501E-03    -170.203E-03     85.4944E-03     75.3941E+06     70.9444E+06    -40.2369E+06    -40.2278E+06     74.6077E+06     71.7216E+06     806.948E+03         56.4263
             398     10.1293E-03     66.0051E-03         4.98709         3.45825        -10.0708         3.42443        -10.0370         4.98709    -831.249E-03     340.952E-03    -170.217E-03    -170.735E-03    -167.541E-03     337.758E-03    -170.217E-03     80.5549E-03     71.8276E+06     64.9748E+06    -48.3554E+06    -48.3468E+06     71.8191E+06     64.9748E+06     382.108E+03         55.2464
             399     9.28439E-03     65.9131E-03         5.09880         3.75303        -10.4693         3.74831        -10.4645         5.09880    -248.455E-03     340.415E-03    -170.002E-03    -170.413E-03    -167.436E-03     337.682E-03    -170.247E-03     74.4329E-03     61.4624E+06     54.7899E+06    -57.9021E+06    -57.8896E+06     57.9578E+06     58.2820E+06     230.731E+03         54.3344
             400     8.44084E-03     65.8274E-03         5.20333         4.07189        -10.8850         4.06280        -10.8759         5.20333    -736.839E-03     339.889E-03    -169.585E-03    -170.304E-03    -167.359E-03     337.663E-03    -170.304E-03     67.0958E-03     41.1172E+06     4.22512E+06    -69.0459E+06    -69.0240E+06     4.20318E+06     41.1172E+06     592.472E+03         53.5841
             401     7.59452E-03     65.7550E-03         5.29922         4.37789        -11.2794         4.37275        -11.2743         5.29922    -279.884E-03     339.793E-03    -169.424E-03    -170.369E-03    -167.759E-03     338.128E-03    -170.369E-03     57.8924E-03     19.6669E+06    -61.1376E+06    -83.1241E+06    -80.2980E+06    -63.9637E+06     19.6669E+06     977.717E+03         52.9143
             402     6.75168E-03     65.6943E-03         5.38569         4.66815        -11.6518         4.65043        -11.6341         5.38569    -656.801E-03     339.603E-03    -169.199E-03    -170.404E-03    -168.066E-03     338.470E-03    -170.404E-03     47.7246E-03    -912.117E+03    -91.1412E+06    -112.870E+06    -91.2791E+06    -112.732E+06    -912.117E+03     1.07707E+06         52.2800
             403     5.90683E-03     65.6433E-03         5.46234         4.93401        -11.9865         4.90699        -11.9595         5.46234    -186.796E-03     339.388E-03    -168.940E-03    -170.448E-03    -168.207E-03     338.655E-03    -170.448E-03     38.2804E-03    -22.2336E+06    -102.264E+06    -157.399E+06    -102.279E+06    -157.384E+06    -22.2336E+06     398.339E+03         51.6676
             404     5.06256E-03     65.6088E-03         5.52833         5.17418        -12.2781         5.13064        -12.2346         5.52833    -520.014E-03     339.705E-03    -169.208E-03    -170.497E-03    -168.767E-03     339.265E-03    -170.497E-03     29.6488E-03    -45.0708E+06    -113.809E+06    -204.057E+06    -113.817E+06    -204.049E+06    -45.0708E+06    -499.706E+03         51.0844
             405     4.21856E-03     65.5842E-03         5.58104         5.39979        -12.5406         5.33769        -12.4785         5.58104    -91.5670E-03     340.056E-03    -169.529E-03    -170.527E-03    -169.291E-03     339.818E-03    -170.527E-03     21.6672E-03    -68.1419E+06    -126.144E+06    -251.033E+06    -126.154E+06    -251.024E+06    -68.1419E+06    -176.791E+03         50.5485
             406     3.37480E-03     65.5691E-03         5.68840         5.57290        -12.8065         5.48800        -12.6518         5.61858        -1.15439     340.328E-03    -169.810E-03    -170.518E-03    -169.700E-03     340.217E-03    -170.518E-03     14.6909E-03    -92.3301E+06    -137.818E+06    -290.151E+06    -137.822E+06    -290.147E+06    -92.3301E+06     720.572E+03         50.0802
             407     2.53064E-03     65.5585E-03         5.75787         5.63648        -12.9382         5.61568        -12.7960         5.63648        -1.47486     340.633E-03    -170.057E-03    -170.575E-03    -170.147E-03     340.588E-03    -170.441E-03     9.22687E-03    -117.506E+06    -148.417E+06    -320.872E+06    -148.423E+06    -320.867E+06    -117.506E+06     849.067E+03         49.6974
             408     1.68769E-03     65.5551E-03         5.78556         5.64562        -12.9574         5.60922        -12.7843         5.64891        -1.65483     340.648E-03    -170.118E-03    -170.530E-03    -170.358E-03     340.633E-03    -170.275E-03     5.29105E-03    -140.488E+06    -157.401E+06    -346.341E+06    -157.407E+06    -346.335E+06    -140.488E+06     894.272E+03         49.4137
             409     845.544E-06     65.5547E-03         7.03819         4.71559        -13.3050         6.59884        -12.8690         4.71887     719.184E-03     340.209E-03    -169.882E-03    -170.327E-03    -170.322E-03     340.204E-03    -169.882E-03     2.47856E-03    -158.862E+06    -164.007E+06    -361.798E+06    -163.972E+06    -361.774E+06    -158.921E+06     712.390E+03         49.2362
             410     14.3545E-03     65.2419E-03         4.12131         1.40897        -7.03100         1.40627        -7.02830         4.12131     202.546E-03     345.764E-03    -170.132E-03    -175.632E-03    -169.189E-03     339.320E-03    -170.132E-03     105.919E-03     111.662E+06     110.869E+06    -7.17387E+06    -7.17173E+06     110.980E+06     111.549E+06     221.008E+03         63.8281
             411     13.5105E-03     65.0435E-03         4.25100         1.79764        -7.53950         1.79139        -7.53325         4.25100     344.750E-03     346.070E-03    -170.147E-03    -175.923E-03    -168.503E-03     338.650E-03    -170.147E-03     119.502E-03     101.659E+06     96.5671E+06    -14.5624E+06    -14.5532E+06     96.5579E+06     101.659E+06     623.767E+03         61.9054
             412     12.6618E-03     64.9387E-03         4.37449         2.19470        -8.06085         2.18108        -8.04724         4.37449    -47.1479E-03     342.046E-03    -170.185E-03    -171.862E-03    -167.440E-03     337.625E-03    -170.185E-03     94.5875E-03     95.5359E+06     86.3480E+06    -21.4336E+06    -21.3954E+06     86.3097E+06     95.5359E+06     1.67024E+06         59.8534
             413     11.8185E-03     64.8119E-03         4.49239         2.55914        -8.54948         2.54725        -8.53759         4.49239    -76.3169E-03     342.191E-03    -170.192E-03    -172.000E-03    -167.621E-03     337.812E-03    -170.192E-03     94.1120E-03     86.1929E+06     81.0929E+06    -29.6467E+06    -29.5912E+06     81.0375E+06     86.1929E+06     2.15376E+06         57.9775
             414     10.9743E-03     64.7010E-03         4.60340         2.91903        -9.02007         2.88196        -8.98301         4.60340    -574.425E-03     341.074E-03    -170.168E-03    -170.906E-03    -167.427E-03     337.600E-03    -170.173E-03     84.0375E-03     77.0016E+06     73.1098E+06    -38.0590E+06    -38.0330E+06     76.2463E+06     73.8391E+06     835.861E+03         56.4432
             415     10.1292E-03     64.6026E-03         4.70903         3.23014        -9.42951         3.19668        -9.39605         4.70903    -744.529E-03     340.613E-03    -170.148E-03    -170.465E-03    -167.267E-03     337.454E-03    -170.187E-03     80.0811E-03     71.8119E+06     65.9003E+06    -47.1595E+06    -47.1554E+06     71.8078E+06     65.9003E+06    -129.501E+03         55.2594
             416     9.28486E-03     64.5064E-03         4.80849         3.51026        -9.80211         3.50523        -9.79707         4.80849    -185.181E-03     340.129E-03    -169.887E-03    -170.242E-03    -167.183E-03     337.416E-03    -170.234E-03     74.1001E-03     60.9171E+06     54.1890E+06    -57.8020E+06    -57.7922E+06     56.9284E+06     58.1680E+06     344.520E+03         54.3427
             417     8.43928E-03     64.4249E-03         4.90154         3.80702        -10.1903         3.79876        -10.1820         4.90154    -679.835E-03     339.892E-03    -169.591E-03    -170.301E-03    -167.391E-03     337.692E-03    -170.301E-03     66.6925E-03     41.5689E+06     3.81007E+06    -68.6102E+06    -68.5714E+06     3.77125E+06     41.5689E+06       961.4E+03         53.5895
             418     7.59622E-03     64.3493E-03         4.98811         4.08010        -10.5540         4.07585        -10.5498         4.98811    -294.960E-03     339.931E-03    -169.575E-03    -170.356E-03    -167.884E-03     338.240E-03    -170.356E-03     58.4255E-03     20.1336E+06    -60.9120E+06    -83.0309E+06    -79.7115E+06    -64.2314E+06     20.1336E+06     914.809E+03         52.9187
             419     6.75228E-03     64.2882E-03         5.06863         4.34406        -10.8981         4.32894        -10.8830         5.06863    -632.837E-03     339.730E-03    -169.354E-03    -170.376E-03    -168.167E-03     338.543E-03    -170.376E-03     48.8201E-03    -355.949E+03    -90.2667E+06    -112.579E+06    -90.3460E+06    -112.500E+06    -355.949E+03     464.893E+03         52.2847
             420     5.90764E-03     64.2426E-03         5.14276         4.59008        -11.2079         4.56953        -11.1874         5.14276    -265.616E-03     339.243E-03    -168.822E-03    -170.421E-03    -168.066E-03     338.486E-03    -170.421E-03     38.8727E-03    -21.4554E+06    -101.220E+06    -156.019E+06    -101.227E+06    -156.012E+06    -21.4554E+06     303.552E+03         51.6731
             421     5.06162E-03     64.2038E-03         5.20924         4.81509        -11.4819         4.78439        -11.4512         5.20924    -490.416E-03     339.309E-03    -168.793E-03    -170.516E-03    -168.359E-03     338.875E-03    -170.516E-03     29.2722E-03    -44.9349E+06    -113.554E+06    -204.503E+06    -113.562E+06    -204.495E+06    -44.9349E+06     539.021E+03         51.0910
             422     4.21768E-03     64.1798E-03         5.26358         5.04289        -11.7470         5.00439        -11.7085         5.26358    -250.861E-03     340.080E-03    -169.491E-03    -170.590E-03    -169.268E-03     339.858E-03    -170.590E-03     21.0014E-03    -68.2493E+06    -125.411E+06    -251.881E+06    -125.414E+06    -251.877E+06    -68.2493E+06     548.388E+03         50.5564
             423     3.37418E-03     64.1633E-03         5.32342         5.23195        -11.9851         5.15860        -11.8914         5.30304    -996.010E-03     340.510E-03    -169.926E-03    -170.584E-03    -169.820E-03     340.404E-03    -170.584E-03     14.3700E-03    -91.9428E+06    -136.975E+06    -290.448E+06    -136.979E+06    -290.445E+06    -91.9428E+06     272.873E+03         50.0894
             424     2.53115E-03     64.1546E-03         5.38912         5.31465        -12.1444         5.29404        -12.0581         5.32338        -1.77340     340.427E-03    -169.845E-03    -170.582E-03    -169.803E-03     340.385E-03    -170.582E-03     9.01574E-03    -116.973E+06    -147.662E+06    -320.976E+06    -147.673E+06    -320.965E+06    -116.973E+06     700.959E+03         49.7078
             425     1.68633E-03     64.1506E-03         5.38770         5.27954        -12.1023         5.28093        -12.0583         5.34234    -938.357E-03     340.725E-03    -170.020E-03    -170.705E-03    -170.029E-03     340.709E-03    -170.680E-03     5.33043E-03    -140.006E+06    -156.456E+06    -345.564E+06    -156.466E+06    -345.555E+06    -140.006E+06     675.041E+03         49.4253
             426     841.775E-06     64.1492E-03         6.91502         3.93595        -12.2955         6.71570        -12.1590         3.99875        -1.35483     341.393E-03    -170.498E-03    -170.895E-03    -170.625E-03     341.389E-03    -170.764E-03     2.45926E-03    -157.394E+06    -163.586E+06    -361.032E+06    -163.552E+06    -361.007E+06    -157.453E+06     151.734E+03         49.2488
             427     14.3537E-03     63.8390E-03         3.82163         1.27234        -6.41718         1.26885        -6.41369         3.82163     194.289E-03     345.049E-03    -169.866E-03    -175.183E-03    -168.382E-03     338.544E-03    -170.162E-03     106.097E-03     110.911E+06     110.298E+06    -6.68910E+06    -6.68621E+06     110.299E+06     110.907E+06     294.594E+03         63.8034
             428     13.5056E-03     63.6396E-03         3.93146         1.65307        -6.90872         1.64548        -6.90114         3.93146     338.362E-03     346.194E-03    -170.206E-03    -175.988E-03    -168.536E-03     338.742E-03    -170.206E-03     119.489E-03     101.416E+06     95.7104E+06    -13.6541E+06    -13.6499E+06     95.7076E+06     101.415E+06     501.146E+03         61.8956
             429     12.6638E-03     63.5345E-03         4.03432         2.01711        -7.38494         2.00191        -7.36974         4.03432    -21.4168E-03     343.155E-03    -170.210E-03    -172.945E-03    -168.616E-03     338.825E-03    -170.210E-03     93.8214E-03     95.6558E+06     85.0425E+06    -21.6239E+06    -21.6036E+06     85.0221E+06     95.6558E+06     1.19667E+06         59.8602
             430     11.8202E-03     63.4031E-03         4.13303         2.34029        -7.82130         2.32596        -7.80697         4.13303    -16.0097E-03     342.786E-03    -170.153E-03    -172.634E-03    -168.297E-03     338.450E-03    -170.153E-03     93.8479E-03     87.7144E+06     81.5985E+06    -29.1495E+06    -29.1053E+06     81.5542E+06     87.7144E+06     2.01241E+06         57.9939
             431     10.9753E-03     63.3006E-03         4.22588         2.66734        -8.25261         2.62844        -8.21370         4.22588    -480.268E-03     340.819E-03    -170.104E-03    -170.715E-03    -167.185E-03     337.295E-03    -170.109E-03     84.6095E-03     78.4941E+06     73.6009E+06    -36.8811E+06    -36.8369E+06     77.4462E+06     74.6046E+06     1.63446E+06         56.4598
             432     10.1300E-03     63.1957E-03         4.31389         2.95110        -8.62850         2.91693        -8.59433         4.31389    -642.175E-03     340.177E-03    -169.955E-03    -170.222E-03    -166.828E-03     336.974E-03    -170.147E-03     80.5414E-03     72.0474E+06     65.9332E+06    -46.3244E+06    -46.3031E+06     72.0262E+06     65.9332E+06     1.07041E+06         55.2714
             433     9.28483E-03     63.1046E-03         4.39650         3.19139        -8.94779         3.18585        -8.94226         4.39650    -90.2935E-03     339.934E-03    -169.709E-03    -170.225E-03    -166.973E-03     337.198E-03    -170.225E-03     74.4022E-03     60.6481E+06     54.1734E+06    -56.8461E+06    -56.8376E+06     56.3896E+06     58.4233E+06     817.960E+03         54.3502
             434     8.44087E-03     63.0183E-03         4.47554         3.43057        -9.26201         3.42376        -9.25520         4.47554    -586.651E-03     339.845E-03    -169.539E-03    -170.306E-03    -167.302E-03     337.608E-03    -170.306E-03     67.2530E-03     41.3573E+06     2.94533E+06    -67.6973E+06    -67.6596E+06     2.90758E+06     41.3573E+06     932.995E+03         53.5943
             435     7.59548E-03     62.9463E-03         4.55240         3.65680        -9.56770         3.65359        -9.56449         4.55240    -276.404E-03     339.630E-03    -169.239E-03    -170.392E-03    -167.515E-03     337.907E-03    -170.392E-03     58.9466E-03     20.6592E+06    -60.5034E+06    -81.5863E+06    -78.5481E+06    -63.5416E+06     20.6592E+06     1.00402E+06         52.9227
             436     6.74961E-03     62.8839E-03         4.62751         3.88714        -9.87536         3.87516        -9.86338         4.62751    -567.962E-03     339.646E-03    -169.196E-03    -170.451E-03    -167.995E-03     338.446E-03    -170.451E-03     49.0614E-03    -139.255E+03    -89.9544E+06    -112.051E+06    -90.0840E+06    -111.922E+06    -139.255E+03     425.010E+03         52.2893
             437     5.90643E-03     62.8365E-03         4.69937         4.12188        -10.1776         4.10717        -10.1629         4.69937    -298.939E-03     339.878E-03    -169.406E-03    -170.472E-03    -168.652E-03     339.125E-03    -170.472E-03     38.8524E-03    -22.0249E+06    -102.051E+06    -156.778E+06    -102.061E+06    -156.768E+06    -22.0249E+06     587.675E+03         51.6792
             438     5.06380E-03     62.8016E-03         4.76432         4.35160        -10.4607         4.33317        -10.4423         4.76432    -403.437E-03     339.753E-03    -169.265E-03    -170.488E-03    -168.825E-03     339.312E-03    -170.488E-03     29.5921E-03    -45.0132E+06    -113.503E+06    -204.921E+06    -113.517E+06    -204.907E+06    -45.0132E+06     1.07779E+06         51.0987
             439     4.21852E-03     62.7748E-03         4.81836         4.56059        -10.7148         4.54064        -10.6949         4.81836    -337.491E-03     339.878E-03    -169.350E-03    -170.528E-03    -169.121E-03     339.649E-03    -170.528E-03     21.1696E-03    -68.0798E+06    -124.865E+06    -250.973E+06    -124.871E+06    -250.968E+06    -68.0798E+06     753.091E+03         50.5650
             440     3.37475E-03     62.7582E-03         4.86113         4.73520        -10.9250         4.69049        -10.8803         4.86113    -764.653E-03     340.216E-03    -169.653E-03    -170.563E-03    -169.554E-03     340.117E-03    -170.563E-03     13.7696E-03    -91.9121E+06    -136.251E+06    -290.341E+06    -136.256E+06    -290.336E+06    -91.9121E+06     418.582E+03         50.0984
             441     2.53000E-03     62.7509E-03         4.92895         4.85432        -11.1144         4.82410        -11.0451         4.88985        -1.99831     340.463E-03    -169.871E-03    -170.592E-03    -169.835E-03     340.427E-03    -170.592E-03     8.38081E-03    -116.689E+06    -146.969E+06    -321.715E+06    -146.982E+06    -321.703E+06    -116.689E+06     629.779E+03         49.7173
             442     1.68669E-03     62.7457E-03         4.96031         4.85601        -11.1331         4.83204        -11.0701         4.92122    -163.937E-03     340.809E-03    -170.106E-03    -170.704E-03    -170.156E-03     340.798E-03    -170.642E-03     4.35235E-03    -140.241E+06    -155.635E+06    -344.592E+06    -155.654E+06    -344.573E+06    -140.241E+06     999.154E+03         49.4352
             443     843.615E-06     62.7439E-03         7.22293         3.12467        -11.6301         6.70165        -11.1741         3.18988        -3.22157     341.251E-03    -169.592E-03    -171.659E-03    -171.391E-03     341.249E-03    -169.858E-03     771.779E-06    -157.293E+06    -163.400E+06    -360.910E+06    -162.268E+06    -360.881E+06    -158.453E+06     431.985E+03         49.2588
             444     14.3526E-03     62.4383E-03         3.43226         1.14642        -5.73763         1.14167        -5.73287         3.43226     205.642E-03     345.358E-03    -169.742E-03    -175.616E-03    -168.826E-03     339.000E-03    -170.174E-03     104.929E-03     110.326E+06     109.766E+06    -6.86001E+06    -6.85395E+06     109.850E+06     110.236E+06    -73.0151E+03         63.7810
             445     13.5086E-03     62.2351E-03         3.51662         1.49459        -6.18297         1.48470        -6.17309         3.51662     356.787E-03     346.624E-03    -170.186E-03    -176.439E-03    -169.110E-03     339.296E-03    -170.186E-03     118.774E-03     100.971E+06     94.9248E+06    -14.2622E+06    -14.2558E+06     95.0057E+06     100.884E+06     810.383E+03         61.8881
             446     12.6634E-03     62.1257E-03         3.59455         1.80534        -6.58966         1.78797        -6.57228         3.59455     31.7827E-03     342.740E-03    -170.185E-03    -172.555E-03    -168.211E-03     338.396E-03    -170.185E-03     93.8733E-03     95.7805E+06     84.1216E+06    -21.4909E+06    -21.4778E+06     84.1085E+06     95.7805E+06     957.292E+03         59.8662
             447     11.8191E-03     62.0001E-03         3.67054         2.08181        -6.96124         2.06481        -6.94423         3.67054     53.0639E-03     342.396E-03    -170.159E-03    -172.237E-03    -167.855E-03     338.014E-03    -170.159E-03     94.2673E-03     88.2222E+06     80.9685E+06    -28.7421E+06    -28.7268E+06     80.9532E+06     88.2222E+06     1.07119E+06         58.0064
             448     10.9748E-03     61.8941E-03         3.74163         2.36852        -7.33364         2.32593        -7.29105         3.74163    -396.094E-03     340.901E-03    -170.138E-03    -170.763E-03    -167.190E-03     337.327E-03    -170.138E-03     85.2098E-03     78.6502E+06     74.1746E+06    -36.9875E+06    -36.9607E+06     77.0692E+06     75.7288E+06     1.58242E+06         56.4730
             449     10.1299E-03     61.7947E-03         3.80880         2.60550        -7.64584         2.56914        -7.60947         3.80880    -557.285E-03     340.270E-03    -169.984E-03    -170.287E-03    -166.797E-03     336.977E-03    -170.179E-03     81.6974E-03     72.5259E+06     67.2437E+06    -46.1289E+06    -46.0895E+06     72.4865E+06     67.2437E+06     1.99555E+06         55.2823
             450     9.28460E-03     61.6984E-03         3.87201         2.79372        -7.90052         2.78759        -7.89439         3.87201     1.59325E-03     340.029E-03    -169.770E-03    -170.259E-03    -166.956E-03     337.216E-03    -170.259E-03     75.4143E-03     61.0374E+06     54.2336E+06    -56.4687E+06    -56.4341E+06     56.5598E+06     58.6766E+06     1.86281E+06         54.3579
             451     8.43906E-03     61.6157E-03         3.93409         2.98203        -8.15437         2.97675        -8.14909         3.93409    -483.698E-03     339.875E-03    -169.531E-03    -170.344E-03    -167.286E-03     337.630E-03    -170.344E-03     67.3624E-03       40.64E+06     3.02093E+06    -67.9475E+06    -67.9069E+06     2.98038E+06       40.64E+06     1.42349E+06         53.5999
             452     7.59467E-03     61.5410E-03         3.99682         3.16466        -8.40218         3.16232        -8.39985         3.99682    -228.183E-03     339.777E-03    -169.353E-03    -170.424E-03    -167.657E-03     338.081E-03    -170.424E-03     58.4537E-03     19.6910E+06    -60.6152E+06    -81.4998E+06    -79.3341E+06    -62.7810E+06     19.6910E+06     969.652E+03         52.9275
             453     6.75155E-03     61.4805E-03         4.06011         3.36478        -8.66799         3.35512        -8.65834         4.06011    -484.779E-03     339.642E-03    -169.159E-03    -170.482E-03    -167.990E-03     338.472E-03    -170.482E-03     48.4628E-03    -555.589E+03    -90.5771E+06    -112.130E+06    -90.7461E+06    -111.961E+06    -555.589E+03     1.10877E+06         52.2945
             454     5.90625E-03     61.4307E-03         4.12161         3.57951        -8.94502         3.56843        -8.93394         4.12161    -296.253E-03     339.741E-03    -169.213E-03    -170.529E-03    -168.465E-03     338.994E-03    -170.529E-03     38.6886E-03    -21.4679E+06    -102.220E+06    -157.739E+06    -102.266E+06    -157.693E+06    -21.4679E+06     1.09463E+06         51.6853
             455     5.06162E-03     61.3966E-03         4.17740         3.78797        -9.20117         3.77765        -9.19085         4.17740    -290.279E-03     340.238E-03    -169.712E-03    -170.527E-03    -169.264E-03     339.790E-03    -170.527E-03     29.9410E-03    -44.1749E+06    -113.732E+06    -204.418E+06    -113.743E+06    -204.407E+06    -44.1749E+06     936.804E+03         51.1059
             456     4.21908E-03     61.3706E-03         4.22449         3.97277        -9.41865         3.96289        -9.40878         4.22449    -323.475E-03     340.198E-03    -169.710E-03    -170.488E-03    -169.474E-03     339.962E-03    -170.488E-03     21.4982E-03    -68.1116E+06    -125.004E+06    -250.256E+06    -125.010E+06    -250.250E+06    -68.1116E+06     754.346E+03         50.5731
             457     3.37444E-03     61.3545E-03         4.26244         4.12142        -9.59465         4.10260        -9.57583         4.26244    -538.197E-03     340.150E-03    -169.682E-03    -170.468E-03    -169.584E-03     340.052E-03    -170.468E-03     13.7528E-03    -92.2806E+06    -136.205E+06    -290.207E+06    -136.209E+06    -290.203E+06    -92.2806E+06     537.108E+03         50.1069
             458     2.53131E-03     61.3458E-03         4.34672         4.24276        -9.80161         4.21461        -9.71690         4.29016        -2.05261     340.575E-03    -170.093E-03    -170.482E-03    -170.138E-03     340.540E-03    -170.402E-03     8.09682E-03    -116.651E+06    -146.601E+06    -321.844E+06    -146.605E+06    -321.840E+06    -116.651E+06     200.286E+03         49.7257
             459     1.68773E-03     61.3408E-03         4.45018         4.30598        -9.97028         4.26557        -9.79136         4.31167     383.513E-03     340.582E-03    -170.186E-03    -170.396E-03    -170.353E-03     340.572E-03    -170.219E-03     4.17394E-03    -139.328E+06    -155.287E+06    -344.784E+06    -155.298E+06    -344.773E+06    -139.328E+06     471.557E+03         49.4432
             460     844.054E-06     61.3392E-03         7.54991         2.15935        -10.9542         6.48410        -9.89405         2.16504        -4.44568     340.099E-03    -168.916E-03    -171.183E-03    -170.744E-03     340.092E-03    -169.347E-03     2.37039E-03    -155.113E+06    -161.119E+06    -358.684E+06    -159.977E+06    -358.665E+06    -156.273E+06     996.085E+03         49.2660
             461     14.3535E-03     61.0307E-03         2.95683     994.567E-03        -4.97221     988.294E-03        -4.96594         2.95683     204.727E-03     346.160E-03    -170.018E-03    -176.143E-03    -169.631E-03     339.785E-03    -170.154E-03     105.457E-03     110.640E+06     109.261E+06    -7.15107E+06    -7.14526E+06     109.341E+06     110.554E+06     180.608E+03         63.7591
             462     13.5096E-03     60.8309E-03         3.01366         1.29430        -5.34311         1.28096        -5.32976         3.01366     369.060E-03     346.699E-03    -170.138E-03    -176.561E-03    -169.200E-03     339.339E-03    -170.138E-03     119.254E-03     101.587E+06     95.2549E+06    -14.2592E+06    -14.2539E+06     95.3355E+06     101.501E+06     758.653E+03         61.8793
             463     12.6642E-03     60.7227E-03         3.06486         1.56082        -5.68215         1.54006        -5.66140         3.06486     84.1281E-03     341.894E-03    -170.159E-03    -171.735E-03    -167.368E-03     337.526E-03    -170.159E-03     94.0263E-03     95.3631E+06     83.4712E+06    -21.8085E+06    -21.8050E+06     83.4678E+06     95.3631E+06     284.419E+03         59.8694
             464     11.8188E-03     60.5945E-03         3.11510         1.79091        -5.98744         1.77040        -5.96692         3.11510     111.911E-03     341.633E-03    -170.112E-03    -171.521E-03    -167.088E-03     337.276E-03    -170.188E-03     93.8571E-03     86.9126E+06     78.6633E+06    -29.7558E+06    -29.7497E+06     78.6572E+06     86.9126E+06     141.504E+03         58.0163
             465     10.9737E-03     60.4903E-03         3.16125         2.02150        -6.28425         1.97454        -6.23729         3.16125    -309.928E-03     340.790E-03    -170.131E-03    -170.659E-03    -167.021E-03     337.227E-03    -170.207E-03     85.0614E-03     77.9491E+06     73.5461E+06    -37.5793E+06    -37.5678E+06     75.9518E+06     75.5318E+06     835.676E+03         56.4852
             466     10.1284E-03     60.3904E-03         3.20513         2.19591        -6.51412         2.15652        -6.47472         3.20513    -460.386E-03     340.730E-03    -170.197E-03    -170.533E-03    -167.219E-03     337.459E-03    -170.239E-03     81.4733E-03     71.9474E+06     66.8920E+06    -46.4628E+06    -46.4275E+06     71.9121E+06     66.8920E+06     1.91787E+06         55.2937
             467     9.28361E-03     60.2945E-03         3.24660         2.33243        -6.69766         2.32529        -6.69052         3.24660     116.800E-03     340.200E-03    -169.815E-03    -170.385E-03    -167.132E-03     337.431E-03    -170.299E-03     74.8335E-03     61.5767E+06     53.7739E+06    -56.4848E+06    -56.4084E+06     56.3357E+06     58.9385E+06     2.83475E+06         54.3671
             468     8.43985E-03     60.2105E-03         3.28773         2.48459        -6.89615         2.48102        -6.89257         3.28773    -363.809E-03     340.014E-03    -169.642E-03    -170.372E-03    -167.419E-03     337.792E-03    -170.372E-03     67.0613E-03     41.8033E+06     4.85322E+06    -67.8090E+06    -67.7067E+06     4.75087E+06     41.8033E+06     2.56607E+06         53.6067
             469     7.59541E-03     60.1370E-03         3.32928         2.64322        -7.10277         2.64141        -7.10097         3.32928    -147.682E-03     340.015E-03    -169.584E-03    -170.431E-03    -167.894E-03     338.325E-03    -170.431E-03     58.3758E-03     20.1767E+06    -58.6743E+06    -82.0444E+06    -79.0583E+06    -61.6605E+06     20.1767E+06     1.36028E+06         52.9329
             470     6.75019E-03     60.0748E-03         3.37052         2.81918        -7.32149         2.81041        -7.31272         3.37052    -390.296E-03     339.710E-03    -169.236E-03    -170.474E-03    -168.070E-03     338.544E-03    -170.474E-03     48.4078E-03     118.859E+03    -89.8507E+06    -112.821E+06    -89.9294E+06    -112.742E+06     118.859E+03     820.984E+03         52.2993
             471     5.90623E-03     60.0286E-03         3.40992         2.98909        -7.52964         2.97882        -7.51938         3.40992    -242.714E-03     339.766E-03    -169.256E-03    -170.510E-03    -168.518E-03     339.028E-03    -170.510E-03     38.3718E-03    -19.9660E+06    -101.090E+06    -156.883E+06    -101.140E+06    -156.833E+06    -19.9660E+06     1.03039E+06         51.6902
             472     5.06236E-03     59.9898E-03         3.44576         3.14379        -7.71957         3.13687        -7.71265         3.44576    -162.590E-03     339.980E-03    -169.455E-03    -170.525E-03    -169.033E-03     339.558E-03    -170.525E-03     29.0072E-03    -42.0772E+06    -112.357E+06    -204.259E+06    -112.370E+06    -204.246E+06    -42.0772E+06     850.672E+03         51.1113
             473     4.21854E-03     59.9656E-03         3.47674         3.28064        -7.88137         3.27439        -7.87512         3.47674    -207.185E-03     340.159E-03    -169.649E-03    -170.511E-03    -169.425E-03     339.936E-03    -170.511E-03     21.0243E-03    -66.4144E+06    -123.996E+06    -250.517E+06    -124.008E+06    -250.505E+06    -66.4144E+06     1.04288E+06         50.5792
             474     3.37543E-03     59.9506E-03         3.50658         3.40366        -8.02401         3.39854        -8.01196         3.49965    -371.283E-03     340.373E-03    -169.913E-03    -170.461E-03    -169.804E-03     340.265E-03    -170.461E-03     14.6265E-03    -91.6984E+06    -135.781E+06    -289.115E+06    -135.791E+06    -289.105E+06    -91.6984E+06     874.209E+03         50.1137
             475     2.53144E-03     59.9402E-03         3.58572         3.49326        -8.18132         3.46802        -8.08422         3.51386        -1.92473     340.530E-03    -170.090E-03    -170.440E-03    -170.123E-03     340.483E-03    -170.360E-03     9.32768E-03    -116.664E+06    -146.233E+06    -321.517E+06    -146.239E+06    -321.511E+06    -116.664E+06    -247.231E+03         49.7329
             476     1.68828E-03     59.9373E-03         3.76761         3.51735        -8.38465         3.52178        -8.13882         3.51735     542.088E-03     340.406E-03    -170.072E-03    -170.334E-03    -170.172E-03     340.391E-03    -170.219E-03     5.21272E-03    -139.388E+06    -154.523E+06    -345.096E+06    -154.528E+06    -345.091E+06    -139.388E+06    -640.163E+03         49.4505
             477     844.263E-06     59.9360E-03         7.22987         1.14435        -9.49110         5.88183        -8.14306         1.14435        -4.69758     340.199E-03    -169.637E-03    -170.562E-03    -169.661E-03     340.188E-03    -170.526E-03     2.36283E-03    -155.413E+06    -159.969E+06    -358.098E+06    -159.973E+06    -358.094E+06    -155.413E+06    -814.712E+03         49.2735
             478     14.3537E-03     59.6255E-03         2.40628     832.218E-03        -4.13434     823.320E-03        -4.12544         2.40628     202.201E-03     346.005E-03    -170.134E-03    -175.871E-03    -169.458E-03     339.592E-03    -170.134E-03     105.766E-03     111.156E+06     108.892E+06    -6.95354E+06    -6.94713E+06     108.885E+06     111.156E+06     561.085E+03         63.7351
             479     13.5088E-03     59.4252E-03         2.43350         1.07460        -4.42505         1.05539        -4.40583         2.43350     383.449E-03     346.356E-03    -170.129E-03    -176.227E-03    -168.862E-03     338.992E-03    -170.129E-03     119.072E-03     101.683E+06     95.2026E+06    -13.8837E+06    -13.8809E+06     95.1998E+06     101.683E+06     223.832E+03         61.8680
             480     12.6644E-03     59.3196E-03         2.45584         1.28890        -4.68727         1.26262        -4.66099         2.45584     152.466E-03     341.790E-03    -170.167E-03    -171.623E-03    -167.220E-03     337.387E-03    -170.167E-03     94.3190E-03     96.1623E+06     83.9268E+06    -20.8833E+06    -20.8791E+06     83.9225E+06     96.1623E+06     252.632E+03         59.8716
             481     11.8189E-03     59.1910E-03         2.47797         1.46512        -4.91232         1.43749        -4.88469         2.47797     196.615E-03     341.375E-03    -170.136E-03    -171.239E-03    -166.760E-03     336.971E-03    -170.212E-03     94.2542E-03     86.3766E+06     77.5863E+06    -29.1440E+06    -29.1402E+06     77.5824E+06     86.3766E+06     121.049E+03         58.0274
             482     10.9727E-03     59.0876E-03         2.49626         1.63846        -5.12549         1.58463        -5.07166         2.49626    -178.297E-03     340.951E-03    -170.159E-03    -170.791E-03    -167.154E-03     337.389E-03    -170.235E-03     85.0791E-03     76.0014E+06     71.0373E+06    -38.6817E+06    -38.6707E+06     73.9154E+06     73.1123E+06     742.328E+03         56.4992
             483     10.1288E-03     58.9834E-03         2.51323         1.75322        -5.27399         1.70960        -5.23037         2.51323    -317.205E-03     341.070E-03    -170.251E-03    -170.819E-03    -167.607E-03     337.858E-03    -170.251E-03     80.7632E-03     70.5735E+06     65.3522E+06    -47.9698E+06    -47.9440E+06     70.5477E+06     65.3522E+06     1.67160E+06         55.3067
             484     9.28504E-03     58.8912E-03         2.52892         1.83665        -5.38213         1.82622        -5.37169         2.52892     278.658E-03     340.368E-03    -169.973E-03    -170.395E-03    -167.377E-03     337.665E-03    -170.288E-03     74.0217E-03     61.4884E+06     53.4565E+06    -57.3026E+06    -57.2487E+06     55.7348E+06     59.1561E+06     2.12332E+06         54.3772
             485     8.43865E-03     58.8060E-03         2.54423         1.94846        -5.51262         1.94663        -5.51079         2.54423    -219.916E-03     339.954E-03    -169.603E-03    -170.351E-03    -167.399E-03     337.750E-03    -170.351E-03     66.7483E-03     44.0371E+06     6.48862E+06    -66.7869E+06    -66.7126E+06     6.41437E+06     44.0371E+06     1.99386E+06         53.6136
             486     7.59492E-03     58.7308E-03         2.55886         2.07772        -5.66262         2.07583        -5.66073         2.55886    -43.1202E-03     339.865E-03    -169.451E-03    -170.414E-03    -167.796E-03     338.210E-03    -170.414E-03     57.7500E-03     22.9054E+06    -56.0971E+06    -80.8629E+06    -76.9247E+06    -60.0354E+06     22.9054E+06     1.22290E+06         52.9373
             487     6.75116E-03     58.6724E-03         2.57234         2.21596        -5.82008         2.20560        -5.80971         2.57234    -302.565E-03     339.856E-03    -169.415E-03    -170.441E-03    -168.270E-03     338.711E-03    -170.441E-03     47.9998E-03     1.34232E+06    -88.3843E+06    -112.910E+06    -88.4656E+06    -112.829E+06     1.34232E+06     899.395E+03         52.3024
             488     5.90717E-03     58.6209E-03         2.58446         2.33049        -5.94937         2.31772        -5.93660         2.58446    -173.722E-03     339.783E-03    -169.337E-03    -170.446E-03    -168.597E-03     339.043E-03    -170.446E-03     38.4966E-03    -20.0765E+06    -100.229E+06    -156.952E+06    -100.273E+06    -156.908E+06    -20.0765E+06     957.385E+03         51.6931
             489     5.06359E-03     58.5873E-03         2.59475         2.43165        -6.05854         2.42158        -6.04847         2.59475    -115.497E-03     339.611E-03    -169.130E-03    -170.481E-03    -168.695E-03     339.176E-03    -170.481E-03     29.4012E-03    -41.4270E+06    -111.798E+06    -204.681E+06    -111.829E+06    -204.650E+06    -41.4270E+06     1.27483E+06         51.1146
             490     4.21823E-03     58.5609E-03         2.60262         2.51089        -6.14038         2.50036        -6.12986         2.60262    -108.044E-03     339.823E-03    -169.290E-03    -170.533E-03    -169.062E-03     339.595E-03    -170.533E-03     21.2107E-03    -64.9914E+06    -123.805E+06    -250.321E+06    -123.835E+06    -250.291E+06    -64.9914E+06     1.35200E+06         50.5832
             491     3.37396E-03     58.5454E-03         2.64487         2.56694        -6.23733         2.58264        -6.21239         2.60423    -355.700E-03     340.335E-03    -169.794E-03    -170.541E-03    -169.685E-03     340.227E-03    -170.541E-03     14.5594E-03    -90.4442E+06    -134.899E+06    -287.204E+06    -134.910E+06    -287.194E+06    -90.4442E+06     603.200E+03         50.1188
             492     2.53053E-03     58.5362E-03         2.68384         2.60053        -6.30200         2.59821        -6.21636         2.60053        -1.64509     340.541E-03    -170.027E-03    -170.514E-03    -169.983E-03     340.497E-03    -170.514E-03     8.96668E-03    -115.926E+06    -145.579E+06    -320.866E+06    -145.586E+06    -320.859E+06    -115.926E+06    -273.792E+03         49.7392
             493     1.68623E-03     58.5325E-03         2.81493         2.58610        -6.41526         2.63241        -6.23274         2.58610     407.682E-03     340.627E-03    -170.114E-03    -170.513E-03    -170.101E-03     340.614E-03    -170.513E-03     4.67197E-03    -139.283E+06    -155.242E+06    -345.760E+06    -155.248E+06    -345.753E+06    -139.283E+06    -677.907E+03         49.4579
             494     842.825E-06     58.5322E-03         5.99787     176.294E-03        -7.15158         4.97523        -6.12895     176.294E-03        -3.72380     340.948E-03    -169.476E-03    -171.472E-03    -170.910E-03     340.940E-03    -170.030E-03     1.65022E-03    -157.111E+06    -162.871E+06    -359.821E+06    -162.178E+06    -359.812E+06    -157.813E+06    -298.680E+03         49.2821
             495     14.3547E-03     58.2225E-03         1.79395     689.032E-03        -3.27732     675.782E-03        -3.26407         1.79395     221.773E-03     345.798E-03    -170.136E-03    -175.662E-03    -169.196E-03     339.332E-03    -170.136E-03     106.273E-03     111.654E+06     108.603E+06    -6.17013E+06    -6.15992E+06     108.593E+06     111.654E+06     465.954E+03         63.7104
             496     13.5091E-03     58.0207E-03         1.78848     864.123E-03        -3.47217     835.763E-03        -3.44381         1.78848     409.125E-03     346.039E-03    -170.155E-03    -175.884E-03    -168.465E-03     338.621E-03    -170.155E-03     119.466E-03     102.080E+06     94.6691E+06    -13.2483E+06    -13.2412E+06     94.6621E+06     102.080E+06     459.494E+03         61.8570
             497     12.6635E-03     57.9157E-03         1.77904         1.00788        -3.63504     973.371E-03        -3.60053         1.77904     233.998E-03     341.891E-03    -170.205E-03    -171.686E-03    -167.300E-03     337.504E-03    -170.205E-03     94.2141E-03     96.2096E+06     83.2900E+06    -20.6267E+06    -20.6206E+06     83.2840E+06     96.2096E+06     615.307E+03         59.8751
             498     11.8176E-03     57.7886E-03         1.77026         1.12670        -3.77092         1.08608        -3.73031         1.77026     311.226E-03     342.037E-03    -170.223E-03    -171.814E-03    -167.454E-03     337.678E-03    -170.223E-03     93.9172E-03     86.5849E+06     77.2346E+06    -29.1988E+06    -29.1831E+06     77.2189E+06     86.5849E+06     1.12153E+06         58.0408
             499     10.9736E-03     57.6819E-03         1.75786         1.23665        -3.89004         1.17069        -3.82409         1.75786    -6.70123E-03     341.185E-03    -170.213E-03    -170.973E-03    -167.449E-03     337.662E-03    -170.213E-03     84.6566E-03     76.1557E+06     71.5581E+06    -38.5645E+06    -38.5375E+06     73.5242E+06     74.1626E+06     1.62600E+06         56.5155
             500     10.1290E-03     57.5785E-03         1.74491         1.28660        -3.94403         1.23643        -3.89387         1.74491    -153.528E-03     340.795E-03    -170.225E-03    -170.570E-03    -167.385E-03     337.610E-03    -170.225E-03     80.4131E-03     70.5792E+06     66.7849E+06    -47.9194E+06    -47.9010E+06     70.5607E+06     66.7849E+06     1.34832E+06         55.3204
             501     9.28378E-03     57.4862E-03         1.73113         1.32058        -3.97607         1.30235        -3.95784         1.73113     444.384E-03     340.520E-03    -170.217E-03    -170.304E-03    -167.565E-03     337.817E-03    -170.252E-03     74.0380E-03     61.1394E+06     54.1666E+06    -57.8356E+06    -57.8296E+06     55.9618E+06     59.3382E+06     528.750E+03         54.3864
             502     8.44165E-03     57.4009E-03         1.71732         1.37074        -4.02173         1.36906        -4.02005         1.71732    -93.4664E-03     340.015E-03    -169.692E-03    -170.323E-03    -167.542E-03     337.834E-03    -170.292E-03     66.4064E-03     44.0127E+06     6.79577E+06    -67.4173E+06     -67.404E+06     6.78249E+06     44.0127E+06     87.3026E+03         53.6190
             503     7.59566E-03     57.3284E-03         1.70370         1.44186        -4.08477         1.43773        -4.08064         1.70370     45.4411E-03     339.605E-03    -169.254E-03    -170.351E-03    -167.598E-03     337.949E-03    -170.351E-03     57.8013E-03     22.6194E+06    -56.9069E+06    -81.4371E+06    -78.1721E+06    -60.1719E+06     22.6194E+06     518.087E+03         52.9401
             504     6.75135E-03     57.2648E-03         1.69081         1.52010        -4.15399         1.50161        -4.13549         1.69081    -245.137E-03     339.642E-03    -169.249E-03    -170.393E-03    -168.086E-03     338.480E-03    -170.393E-03     48.3081E-03     1.09787E+06    -89.3242E+06    -112.831E+06    -89.4762E+06    -112.679E+06     1.09787E+06     1.09883E+06         52.3039
             505     5.90718E-03     57.2193E-03         1.67980         1.57464        -4.20087         1.55063        -4.17685         1.67980    -119.670E-03     339.483E-03    -169.055E-03    -170.427E-03    -168.311E-03     338.738E-03    -170.427E-03     38.6222E-03    -20.0865E+06    -100.317E+06    -157.214E+06    -100.368E+06    -157.163E+06    -20.0865E+06     1.18590E+06         51.6945
             506     5.06167E-03     57.1812E-03         1.68458         1.61662        -4.24621         1.60540        -4.22021         1.66979    -139.345E-03     339.646E-03    -169.173E-03    -170.473E-03    -168.737E-03     339.210E-03    -170.473E-03     29.3849E-03    -42.1805E+06    -111.797E+06    -204.576E+06    -111.848E+06    -204.525E+06    -42.1805E+06     810.870E+03         51.1166
             507     4.21895E-03     57.1582E-03         1.68759         1.64589        -4.26669         1.64095        -4.23338         1.65923    -44.0244E-03     340.028E-03    -169.528E-03    -170.499E-03    -169.306E-03     339.806E-03    -170.499E-03     20.9324E-03    -64.0933E+06    -122.879E+06    -249.588E+06    -122.914E+06    -249.554E+06    -64.0933E+06     332.351E+03         50.5864
             508     3.37473E-03     57.1401E-03         1.78542         1.63908        -4.35172         1.68908        -4.25982         1.64352    -503.830E-03     340.137E-03    -169.640E-03    -170.497E-03    -169.541E-03     340.038E-03    -170.497E-03     13.7405E-03    -88.7695E+06    -134.339E+06    -287.070E+06    -134.349E+06    -287.061E+06    -88.7695E+06     551.019E+03         50.1232
             509     2.53098E-03     57.1316E-03         1.76642         1.61740        -4.30720         1.66140        -4.20958         1.62479        -1.32691     340.271E-03    -169.746E-03    -170.526E-03    -169.710E-03     340.236E-03    -170.526E-03     8.19159E-03    -114.300E+06    -145.222E+06    -319.663E+06    -145.231E+06    -319.653E+06    -114.300E+06     661.414E+03         49.7447
             510     1.68763E-03     57.1282E-03         1.75251         1.58473        -4.27550         1.68478        -4.21516         1.59212    -18.0938E-03     340.736E-03    -170.115E-03    -170.621E-03    -170.157E-03     340.724E-03    -170.567E-03     4.53836E-03    -138.485E+06    -155.313E+06    -346.029E+06    -155.315E+06    -346.027E+06    -138.485E+06     90.9498E+03         49.4646
             511     843.780E-06     57.1267E-03         4.23566    -634.484E-03        -4.55690         3.84881        -4.09455    -709.982E-03        -2.09840     341.042E-03    -169.301E-03    -171.741E-03    -170.792E-03     341.037E-03    -170.245E-03     2.56327E-03    -156.421E+06    -163.064E+06    -360.990E+06    -162.370E+06    -360.981E+06    -157.123E+06    -82.8477E+03         49.2896
             512     14.3527E-03     56.8151E-03         1.13539     575.647E-03        -2.43334     556.564E-03        -2.41426         1.13539     233.804E-03     345.491E-03    -170.086E-03    -175.404E-03    -168.904E-03     339.065E-03    -170.161E-03     105.974E-03     111.015E+06     107.739E+06    -6.79748E+06    -6.78669E+06     107.729E+06     111.015E+06    -267.704E+03         63.6879
             513     13.5080E-03     56.6191E-03         1.09460     683.006E-03        -2.52596     638.266E-03        -2.48122         1.09460     436.195E-03     346.207E-03    -170.186E-03    -176.021E-03    -168.647E-03     338.833E-03    -170.186E-03     119.176E-03     102.221E+06     94.4253E+06    -13.4345E+06    -13.4189E+06     94.4098E+06     102.221E+06     478.545E+03         61.8482
             514     12.6624E-03     56.5104E-03         1.05048     748.557E-03        -2.57225     698.521E-03        -2.52222         1.05048     316.022E-03     342.328E-03    -170.208E-03    -172.120E-03    -167.835E-03     338.042E-03    -170.208E-03     93.2826E-03     95.5002E+06     82.1574E+06    -21.3818E+06    -21.3718E+06     82.1475E+06     95.5002E+06     1.00179E+06         59.8813
             515     11.8193E-03     56.3838E-03         1.04016     772.229E-03        -2.60993     737.257E-03        -2.54285         1.00805     414.714E-03     342.304E-03    -170.199E-03    -172.105E-03    -167.788E-03     337.987E-03    -170.199E-03     93.6401E-03     86.9214E+06     76.0756E+06    -29.9693E+06    -29.9397E+06     76.0460E+06     86.9214E+06     1.62956E+06         58.0558
             516     10.9749E-03     56.2763E-03         1.01422     793.128E-03        -2.62681     751.312E-03        -2.53356     962.789E-03     159.049E-03     341.287E-03    -170.172E-03    -171.115E-03    -167.565E-03     337.737E-03    -170.172E-03     84.9708E-03     78.2266E+06     72.5168E+06    -37.8676E+06    -37.8320E+06     74.4476E+06     76.2603E+06     1.91258E+06         56.5317
             517     10.1295E-03     56.1762E-03     967.925E-03     769.257E-03        -2.57380     750.407E-03        -2.50483     917.808E-03     1.24907E-03     340.681E-03    -170.165E-03    -170.517E-03    -167.335E-03     337.509E-03    -170.173E-03     80.2618E-03     72.1775E+06     68.3818E+06    -46.3991E+06    -46.3886E+06     72.1670E+06     68.3818E+06     901.212E+03         55.3328
             518     9.28560E-03     56.0793E-03     916.894E-03     744.535E-03        -2.50940     746.995E-03        -2.46769     872.717E-03     604.247E-03     340.116E-03    -169.873E-03    -170.244E-03    -167.189E-03     337.402E-03    -170.213E-03     74.1220E-03     62.2261E+06     55.4185E+06    -55.8174E+06    -55.8121E+06     57.2427E+06     60.3967E+06    -280.383E+03         54.3939
             519     8.43959E-03     55.9970E-03     849.335E-03     720.470E-03        -2.42492     732.925E-03        -2.41768     829.640E-03     40.3740E-03     339.984E-03    -169.687E-03    -170.297E-03    -167.509E-03     337.775E-03    -170.266E-03     66.8665E-03     43.2135E+06     5.97667E+06    -66.8717E+06    -66.8501E+06     5.95499E+06     43.2135E+06    -370.928E+03         53.6225
             520     7.59647E-03     55.9237E-03     808.085E-03     714.076E-03        -2.38167     715.737E-03        -2.36578     790.539E-03     142.295E-03     339.778E-03    -169.459E-03    -170.319E-03    -167.769E-03     338.088E-03    -170.319E-03     58.3614E-03     21.9618E+06    -57.5961E+06    -82.3846E+06    -78.0503E+06    -61.9304E+06     21.9618E+06     535.330E+03         52.9416
             521     6.75142E-03     55.8619E-03     804.107E-03     714.474E-03        -2.37805     709.065E-03        -2.32494     756.410E-03    -195.282E-03     339.327E-03    -168.954E-03    -170.373E-03    -167.790E-03     338.162E-03    -170.373E-03     48.3353E-03     1.85578E+06    -88.8484E+06    -113.061E+06    -88.9924E+06    -112.917E+06     1.85578E+06     1.01557E+06         52.3049
             522     5.90677E-03     55.8138E-03     796.953E-03     707.010E-03        -2.36455     704.528E-03        -2.29276     727.645E-03    -62.6222E-03     339.471E-03    -169.048E-03    -170.424E-03    -168.306E-03     338.730E-03    -170.424E-03     38.4970E-03    -19.2514E+06    -100.566E+06    -156.655E+06    -100.617E+06    -156.605E+06    -19.2514E+06     990.451E+03         51.6958
             523     5.06375E-03     55.7784E-03     810.417E-03     695.453E-03        -2.37575     708.807E-03        -2.28189     703.207E-03    -153.046E-03     339.840E-03    -169.401E-03    -170.439E-03    -168.968E-03     339.407E-03    -170.439E-03     29.3516E-03    -42.5619E+06    -112.299E+06    -203.161E+06    -112.331E+06    -203.128E+06    -42.5619E+06     144.250E+03         51.1189
             524     4.21863E-03     55.7517E-03     855.853E-03     682.335E-03        -2.40993     702.056E-03        -2.25613     682.335E-03     80.9004E-03     340.039E-03    -169.613E-03    -170.426E-03    -169.387E-03     339.813E-03    -170.426E-03     21.0460E-03    -65.6844E+06    -124.121E+06    -250.135E+06    -124.140E+06    -250.117E+06    -65.6844E+06    -445.636E+03         50.5898
             525     3.37579E-03     55.7366E-03         1.07579     661.084E-03        -2.59764     719.646E-03        -2.24149     661.084E-03    -604.485E-03     339.950E-03    -169.529E-03    -170.421E-03    -169.428E-03     339.849E-03    -170.421E-03     13.9981E-03    -88.6828E+06    -134.853E+06    -288.088E+06    -134.865E+06    -288.077E+06    -88.6828E+06     285.278E+03         50.1275
             526     2.53083E-03     55.7281E-03         1.01747     633.479E-03        -2.48350     676.613E-03        -2.15004     640.869E-03    -947.283E-03     340.078E-03    -169.612E-03    -170.466E-03    -169.572E-03     340.038E-03    -170.466E-03     8.76650E-03    -113.501E+06    -145.062E+06    -318.744E+06    -145.072E+06    -318.734E+06    -113.501E+06     800.866E+03         49.7497
             527     1.68618E-03     55.7233E-03     985.380E-03     603.842E-03        -2.41276     691.044E-03        -2.12582     611.232E-03    -541.640E-03     340.641E-03    -170.067E-03    -170.574E-03    -170.107E-03     340.628E-03    -170.520E-03     4.98533E-03    -137.592E+06    -154.428E+06    -345.287E+06    -154.430E+06    -345.285E+06    -137.592E+06     514.382E+03         49.4699
             528     843.531E-06     55.7211E-03         2.90888    -831.366E-03        -2.90540         2.46570        -2.00470        -1.28887    -350.374E-03     340.949E-03    -169.718E-03    -171.231E-03    -170.236E-03     340.946E-03    -170.710E-03     1.70374E-03    -155.076E+06    -162.147E+06    -361.061E+06    -160.839E+06    -361.058E+06    -156.387E+06    -238.387E+03         49.2952
             529     14.3541E-03     55.4146E-03     618.902E-03     313.760E-03        -1.60100     455.676E-03        -1.57283     448.812E-03     236.860E-03     345.614E-03    -169.923E-03    -175.691E-03    -169.051E-03     339.221E-03    -170.170E-03     105.518E-03     110.530E+06     107.315E+06    -7.53764E+06    -7.52416E+06     107.302E+06     110.530E+06     42.2051E+03         63.6681
             530     13.5077E-03     55.2129E-03     609.085E-03     303.698E-03        -1.60467     464.388E-03        -1.52779     371.511E-03     453.730E-03     346.636E-03    -170.173E-03    -176.463E-03    -169.139E-03     339.312E-03    -170.173E-03     118.706E-03     101.020E+06     92.9090E+06    -14.9015E+06    -14.8848E+06     92.8923E+06     101.020E+06     393.487E+03         61.8418
             531     12.6652E-03     55.1053E-03     551.279E-03     268.217E-03        -1.53588     445.896E-03        -1.45371     291.430E-03     381.211E-03     342.447E-03    -170.174E-03    -172.274E-03    -167.994E-03     338.168E-03    -170.174E-03     93.1563E-03     95.3164E+06     81.9053E+06    -22.2628E+06    -22.2544E+06     81.8969E+06     95.3164E+06     855.274E+03         59.8880
             532     11.8189E-03     54.9801E-03     552.895E-03     198.917E-03        -1.49103     400.893E-03        -1.35435     214.235E-03     495.468E-03     342.208E-03    -170.162E-03    -172.046E-03    -167.704E-03     337.866E-03    -170.162E-03     93.8374E-03     87.5717E+06     76.7564E+06    -30.1086E+06    -30.0881E+06     76.7360E+06     87.5717E+06     930.375E+03         58.0696
             533     10.9736E-03     54.8712E-03     526.317E-03     135.017E-03        -1.41721     341.890E-03        -1.23279     135.017E-03     283.380E-03     341.195E-03    -170.138E-03    -171.058E-03    -167.510E-03     337.648E-03    -170.138E-03     84.9285E-03     78.3625E+06     73.1489E+06    -38.0619E+06    -38.0394E+06     74.6591E+06     76.8299E+06     318.991E+03         56.5458
             534     10.1308E-03     54.7703E-03     447.449E-03     56.8804E-03        -1.27325     267.562E-03        -1.09336     56.8804E-03     124.520E-03     340.615E-03    -170.108E-03    -170.507E-03    -167.276E-03     337.416E-03    -170.141E-03     80.5746E-03     72.8587E+06     69.2773E+06    -45.6578E+06    -45.6497E+06     72.8505E+06     69.2773E+06    -191.628E+03         55.3434
             535     9.28507E-03     54.6768E-03     398.902E-03     2.09060E-03        -1.17976     172.081E-03    -931.382E-03    -19.4634E-03     749.814E-03     339.800E-03    -169.609E-03    -170.191E-03    -166.872E-03     337.063E-03    -170.191E-03     74.3878E-03     62.3380E+06     55.6342E+06    -54.9783E+06    -54.9729E+06     57.6776E+06     60.2893E+06    -474.121E+03         54.4000
             536     8.44051E-03     54.5928E-03     306.854E-03    -12.3757E-03        -1.07876     60.7617E-03    -754.450E-03    -90.5946E-03     182.317E-03     339.735E-03    -169.458E-03    -170.277E-03    -167.220E-03     337.497E-03    -170.277E-03     67.2705E-03     43.1320E+06     4.49309E+06    -65.9894E+06    -65.9735E+06     4.47724E+06     43.1320E+06    -66.9333E+03         53.6253
             537     7.59567E-03     54.5174E-03     361.908E-03    -86.2331E-03        -1.06802    -47.5590E-03    -591.618E-03    -153.164E-03     255.713E-03     339.987E-03    -169.645E-03    -170.341E-03    -167.958E-03     338.300E-03    -170.341E-03     58.2749E-03     22.7140E+06    -58.7799E+06    -81.8044E+06    -77.2331E+06    -63.3512E+06     22.7140E+06     907.295E+03         52.9430
             538     6.75194E-03     54.4597E-03     492.345E-03    -195.495E-03        -1.09563    -125.751E-03    -467.265E-03    -205.761E-03    -121.037E-03     339.626E-03    -169.264E-03    -170.362E-03    -168.109E-03     338.471E-03    -170.362E-03     48.2278E-03     2.37746E+06    -88.2405E+06    -113.004E+06    -88.4490E+06    -112.795E+06     2.37746E+06     952.815E+03         52.3063
             539     5.90709E-03     54.4088E-03     569.297E-03    -250.068E-03        -1.11728    -175.726E-03    -372.253E-03    -250.068E-03     12.0346E-03     339.518E-03    -169.134E-03    -170.384E-03    -168.387E-03     338.771E-03    -170.384E-03     38.5934E-03    -18.3164E+06    -99.4372E+06    -155.820E+06    -99.4777E+06    -155.779E+06    -18.3164E+06     396.348E+03         51.6979
             540     5.06236E-03     54.3735E-03     642.635E-03    -288.107E-03        -1.14571    -210.219E-03    -292.860E-03    -288.107E-03    -116.058E-03     339.704E-03    -169.304E-03    -170.400E-03    -168.872E-03     339.272E-03    -170.400E-03     29.3285E-03    -40.9395E+06    -111.079E+06    -202.771E+06    -111.084E+06    -202.765E+06    -40.9395E+06     435.695E+03         51.1219
             541     4.21965E-03     54.3475E-03     799.249E-03    -319.459E-03        -1.26226    -257.397E-03    -205.617E-03    -319.459E-03     240.639E-03     339.667E-03    -169.244E-03    -170.423E-03    -169.015E-03     339.438E-03    -170.423E-03     21.1942E-03    -65.1612E+06    -122.786E+06    -249.569E+06    -122.793E+06    -249.561E+06    -65.1612E+06     326.597E+03         50.5936
             542     3.37431E-03     54.3328E-03         1.15549    -344.316E-03        -1.59174    -291.864E-03    -144.386E-03    -344.316E-03    -598.042E-03     339.944E-03    -169.479E-03    -170.464E-03    -169.374E-03     339.839E-03    -170.464E-03     14.3279E-03    -89.4943E+06    -134.474E+06    -288.772E+06    -134.480E+06    -288.767E+06    -89.4943E+06    -432.789E+03         50.1321
             543     2.53102E-03     54.3241E-03         1.17197    -360.509E-03        -1.59349    -346.271E-03    -75.2433E-03    -360.509E-03    -573.806E-03     340.500E-03    -170.015E-03    -170.485E-03    -170.008E-03     340.456E-03    -170.448E-03     9.12861E-03    -114.626E+06    -145.754E+06    -319.832E+06    -145.757E+06    -319.829E+06    -114.626E+06    -102.846E+03         49.7549
             544     1.68818E-03     54.3184E-03         1.30418    -375.394E-03        -1.71756    -341.484E-03    -71.8956E-03    -375.394E-03    -863.694E-03     340.580E-03    -170.116E-03    -170.464E-03    -170.198E-03     340.567E-03    -170.369E-03     4.58106E-03    -137.270E+06    -154.091E+06    -344.239E+06    -154.092E+06    -344.238E+06    -137.270E+06     270.848E+03         49.4753
             545     843.068E-06     54.3176E-03         3.04037        -1.23648        -2.57544     955.892E-03    -2.20461E-03        -1.72523         1.12854     340.532E-03    -169.794E-03    -170.737E-03    -170.591E-03     340.530E-03    -169.940E-03     1.57088E-03    -154.068E+06    -161.560E+06    -360.826E+06    -160.251E+06    -360.823E+06    -155.380E+06     325.736E+03         49.3002
             546     14.3521E-03     54.0094E-03     413.567E-03    -147.138E-03    -895.443E-03     361.271E-03    -743.688E-03    -246.597E-03     227.684E-03     345.993E-03    -169.978E-03    -176.015E-03    -169.430E-03     339.579E-03    -170.149E-03     105.425E-03     110.771E+06     107.048E+06    -6.55634E+06    -6.54749E+06     107.039E+06     110.771E+06     693.979E+03         63.6490
             547     13.5101E-03     53.8064E-03     470.255E-03    -181.046E-03    -935.619E-03     299.780E-03    -587.043E-03    -359.147E-03     445.795E-03     346.466E-03    -170.148E-03    -176.318E-03    -168.953E-03     339.100E-03    -170.148E-03     118.945E-03     101.322E+06     92.1931E+06    -13.5950E+06    -13.5824E+06     92.1806E+06     101.322E+06     901.367E+03         61.8343
             548     12.6629E-03     53.7029E-03     442.842E-03    -175.988E-03    -937.697E-03     202.109E-03    -398.958E-03    -473.994E-03     424.928E-03     342.489E-03    -170.156E-03    -172.333E-03    -167.973E-03     338.129E-03    -170.156E-03     93.9680E-03     95.4427E+06     81.1903E+06    -21.2629E+06    -21.2527E+06     81.1802E+06     95.4427E+06     919.773E+03         59.8921
             549     11.8199E-03     53.5728E-03     518.590E-03    -244.961E-03    -965.658E-03     77.4042E-03    -184.416E-03    -585.018E-03     544.482E-03     342.563E-03    -170.128E-03    -172.435E-03    -168.098E-03     338.226E-03    -170.128E-03     93.7137E-03     88.0225E+06     78.4757E+06    -28.8732E+06    -28.8659E+06     78.4684E+06     88.0225E+06     208.518E+03         58.0809
             550     10.9765E-03     53.4689E-03     658.564E-03    -389.912E-03    -975.714E-03    -61.4614E-03     51.0419E-03    -696.642E-03     354.395E-03     340.695E-03    -169.982E-03    -170.713E-03    -167.072E-03     337.170E-03    -170.098E-03     84.6043E-03     78.4110E+06     73.6428E+06    -37.3955E+06    -37.3876E+06     76.2242E+06     75.8217E+06    -881.082E+03         56.5583
             551     10.1293E-03     53.3649E-03     709.343E-03    -475.965E-03    -949.687E-03    -222.198E-03     311.673E-03    -805.785E-03     204.194E-03     340.198E-03    -169.998E-03    -170.200E-03    -166.798E-03     336.935E-03    -170.138E-03     81.2678E-03     71.5458E+06     66.9348E+06    -46.5942E+06    -46.5852E+06     71.5368E+06     66.9348E+06    -977.182E+03         55.3530
             552     9.28543E-03     53.2735E-03     858.170E-03    -605.432E-03    -976.091E-03    -401.173E-03     588.910E-03    -911.090E-03     840.425E-03     340.217E-03    -169.956E-03    -170.262E-03    -167.286E-03     337.483E-03    -170.197E-03     74.4193E-03     61.1845E+06     54.9011E+06    -56.6307E+06    -56.6265E+06     56.9186E+06     59.1628E+06    -273.548E+03         54.4061
             553     8.43999E-03     53.1883E-03     943.509E-03    -666.062E-03        -1.00866    -593.150E-03     870.597E-03        -1.00866     284.325E-03     339.806E-03    -169.481E-03    -170.325E-03    -167.331E-03     337.592E-03    -170.261E-03     66.9079E-03     42.5095E+06     3.33051E+06    -67.7012E+06    -67.6995E+06     3.32886E+06     42.5095E+06     182.953E+03         53.6289
             554     7.59546E-03     53.1136E-03         1.17685    -816.516E-03        -1.09572    -770.828E-03         1.13116        -1.09572     337.309E-03     339.593E-03    -169.258E-03    -170.335E-03    -167.590E-03     337.926E-03    -170.335E-03     57.9330E-03     21.8485E+06    -60.5303E+06    -82.2433E+06    -78.4680E+06    -64.3056E+06     21.8485E+06     139.573E+03         52.9451
             555     6.75133E-03     53.0531E-03         1.44996        -1.00654        -1.17853    -922.100E-03         1.35742        -1.17042    -39.5834E-03     339.886E-03    -169.529E-03    -170.357E-03    -168.373E-03     338.730E-03    -170.357E-03     48.2503E-03     1.93013E+06    -88.9155E+06    -112.294E+06    -89.1915E+06    -112.018E+06     1.93013E+06    -60.7252E+03         52.3083
             556     5.90804E-03     53.0063E-03         1.65064        -1.12716        -1.25391        -1.04038         1.54317        -1.23322     93.0137E-03     339.736E-03    -169.396E-03    -170.340E-03    -168.650E-03     338.990E-03    -170.340E-03     38.6296E-03    -18.8891E+06    -100.399E+06    -155.720E+06    -100.406E+06    -155.713E+06    -18.8891E+06    -11.9427E+03         51.7009
             557     5.06407E-03     52.9682E-03         1.81585        -1.22019        -1.31969        -1.13004         1.69183        -1.28582    -26.4001E-03     339.255E-03    -168.890E-03    -170.365E-03    -168.462E-03     338.827E-03    -170.365E-03     29.1209E-03    -41.5435E+06    -111.738E+06    -203.081E+06    -111.741E+06    -203.079E+06    -41.5435E+06     413.229E+03         51.1259
             558     4.21844E-03     52.9448E-03         2.02320        -1.30472        -1.43504        -1.20517         1.81830        -1.32970     362.248E-03     339.447E-03    -169.001E-03    -170.446E-03    -168.776E-03     339.222E-03    -170.446E-03     21.0915E-03    -65.2016E+06    -123.038E+06    -248.840E+06    -123.041E+06    -248.837E+06    -65.2016E+06     552.049E+03         50.5985
             559     3.37465E-03     52.9286E-03         2.36661        -1.36644        -1.71408        -1.27103         1.92356        -1.36644    -528.484E-03     340.236E-03    -169.756E-03    -170.480E-03    -169.649E-03     340.130E-03    -170.480E-03     14.4000E-03    -89.9819E+06    -134.514E+06    -288.516E+06    -134.517E+06    -288.512E+06    -89.9819E+06     226.587E+03         50.1378
             560     2.53092E-03     52.9182E-03         2.49197        -1.39526        -1.81548        -1.33968         2.01617        -1.39526    -359.110E-03     340.638E-03    -170.211E-03    -170.427E-03    -170.207E-03     340.597E-03    -170.390E-03     8.72119E-03    -115.055E+06    -145.117E+06    -320.198E+06    -145.121E+06    -320.193E+06    -115.055E+06    -401.190E+03         49.7612
             561     1.68704E-03     52.9145E-03         2.74785        -1.41609        -2.04273        -1.38556         2.09068        -1.41609    -888.490E-03     340.465E-03    -170.143E-03    -170.322E-03    -170.226E-03     340.453E-03    -170.227E-03     4.64630E-03    -138.424E+06    -154.528E+06    -344.976E+06    -154.531E+06    -344.973E+06    -138.424E+06    -529.312E+03         49.4816
             562     844.978E-06     52.9131E-03         4.07756        -2.10610        -2.69599    -624.507E-03         2.12596        -2.22598         1.67970     340.177E-03    -169.375E-03    -170.802E-03    -169.703E-03     340.174E-03    -170.471E-03     2.45952E-03    -154.457E+06    -161.586E+06    -361.449E+06    -160.278E+06    -361.442E+06    -155.772E+06    -373.141E+03         49.3062
             563     14.3560E-03     52.6042E-03     504.128E-03    -173.478E-03    -935.249E-03     272.073E-03     54.7147E-03    -931.387E-03     217.089E-03     345.903E-03    -170.131E-03    -175.773E-03    -169.382E-03     339.513E-03    -170.131E-03     105.621E-03     111.015E+06     106.562E+06    -6.30263E+06    -6.29775E+06     106.557E+06     111.015E+06     474.907E+03         63.6280
             564     13.5079E-03     52.4038E-03     684.000E-03    -231.580E-03        -1.07604     125.753E-03     326.667E-03        -1.07604     438.266E-03     346.322E-03    -170.129E-03    -176.193E-03    -168.866E-03     338.994E-03    -170.129E-03     118.759E-03     101.273E+06     92.3727E+06    -13.5171E+06    -13.5085E+06     92.3642E+06     101.273E+06     763.085E+03         61.8244
             565     12.6645E-03     52.2978E-03     857.251E-03    -277.069E-03        -1.22221    -46.9006E-03     627.083E-03        -1.22221     455.758E-03     342.516E-03    -170.134E-03    -172.381E-03    -168.034E-03     338.169E-03    -170.134E-03     93.8938E-03     95.1992E+06     81.4424E+06    -20.5932E+06    -20.5832E+06     81.4324E+06     95.1992E+06     434.755E+03         59.8941
             566     11.8201E-03     52.1658E-03         1.10890    -403.786E-03        -1.36363    -246.219E-03     951.331E-03        -1.36363     579.419E-03     342.064E-03    -170.121E-03    -171.944E-03    -167.593E-03     337.714E-03    -170.121E-03     93.8502E-03     87.3638E+06     78.2515E+06    -27.8357E+06    -27.8300E+06     78.2458E+06     87.3638E+06    -121.377E+03         58.0902
             567     10.9745E-03     52.0662E-03         1.47301    -639.483E-03        -1.50364    -472.190E-03         1.30571        -1.50364     418.970E-03     340.835E-03    -169.990E-03    -170.845E-03    -167.164E-03     337.270E-03    -170.106E-03     85.0921E-03     78.7470E+06     73.3880E+06    -36.2311E+06    -36.2209E+06     76.9197E+06     75.2051E+06     137.545E+03         56.5696
             568     10.1299E-03     51.9628E-03         1.75662    -792.706E-03        -1.63914    -717.951E-03         1.68187        -1.63914     278.573E-03     340.548E-03    -169.943E-03    -170.605E-03    -167.183E-03     337.313E-03    -170.130E-03     80.9823E-03     72.0195E+06     66.8363E+06    -46.1392E+06    -46.1273E+06     72.0076E+06     66.8363E+06     91.8800E+03         55.3631
             569     9.28426E-03     51.8667E-03         2.13455        -1.04243        -1.76920    -964.680E-03         2.05680        -1.76920     912.650E-03     340.171E-03    -169.931E-03    -170.240E-03    -167.301E-03     337.476E-03    -170.175E-03     73.8669E-03     61.0818E+06     54.5508E+06    -56.7907E+06    -56.7817E+06     56.1830E+06     59.4405E+06    -401.034E+03         54.4134
             570     8.44181E-03     51.7841E-03         2.44072        -1.22876        -1.89059        -1.20573         2.41769        -1.89059     362.729E-03     339.842E-03    -169.550E-03    -170.292E-03    -167.433E-03     337.660E-03    -170.227E-03     66.4243E-03     42.7704E+06     2.64011E+06    -67.1794E+06    -67.1705E+06     2.63123E+06     42.7704E+06    -264.577E+03         53.6335
             571     7.59655E-03     51.7108E-03         2.76787        -1.44706        -2.00205        -1.42843         2.74923        -2.00205     374.503E-03     339.434E-03    -169.137E-03    -170.297E-03    -167.456E-03     337.753E-03    -170.297E-03     58.2069E-03     21.8834E+06    -60.5284E+06    -81.0454E+06    -77.6231E+06    -63.9507E+06     21.8834E+06    -523.886E+03         52.9482
             572     6.75131E-03     51.6483E-03         3.09072        -1.66856        -2.10226        -1.63541         3.05756        -2.10226     32.8211E-03     339.550E-03    -169.204E-03    -170.346E-03    -168.030E-03     338.376E-03    -170.346E-03     48.5424E-03     1.80694E+06    -88.3364E+06    -112.388E+06    -88.4391E+06    -112.285E+06     1.80694E+06    -490.947E+03         52.3112
             573     5.90754E-03     51.5999E-03         3.37899        -1.86359        -2.18926        -1.82392         3.33932        -2.18926     141.058E-03     339.586E-03    -169.221E-03    -170.365E-03    -168.472E-03     338.837E-03    -170.365E-03     38.7313E-03    -19.5015E+06    -99.9338E+06    -156.638E+06    -99.9357E+06    -156.637E+06    -19.5015E+06     53.1066E+03         51.7045
             574     5.06314E-03     51.5663E-03         3.63055        -2.03721        -2.26193        -1.99420         3.58754        -2.26193     81.9549E-03     339.484E-03    -169.090E-03    -170.394E-03    -168.649E-03     339.043E-03    -170.394E-03     29.5937E-03    -41.6702E+06    -111.537E+06    -203.312E+06    -111.538E+06    -203.311E+06    -41.6702E+06     266.949E+03         51.1310
             575     4.21878E-03     51.5411E-03         3.85515        -2.19188        -2.32603        -2.11324         3.77352        -2.32304     419.924E-03     339.881E-03    -169.468E-03    -170.414E-03    -169.240E-03     339.653E-03    -170.414E-03     21.1797E-03    -65.2970E+06    -123.469E+06    -248.795E+06    -123.471E+06    -248.793E+06    -65.2970E+06     441.346E+03         50.6050
             576     3.37497E-03     51.5230E-03         4.12493        -2.32962        -2.44689        -2.20920         3.93498        -2.37735    -370.413E-03     340.182E-03    -169.806E-03    -170.376E-03    -169.703E-03     340.080E-03    -170.376E-03     14.0996E-03    -90.0724E+06    -134.523E+06    -287.549E+06    -134.529E+06    -287.543E+06    -90.0724E+06    -5.37513E+03         50.1451
             577     2.53174E-03     51.5140E-03         4.26992        -2.38800        -2.52826        -2.28747         4.07057        -2.42944    -313.339E-03     340.103E-03    -169.760E-03    -170.343E-03    -169.720E-03     340.064E-03    -170.343E-03     8.63572E-03    -114.682E+06    -144.723E+06    -319.909E+06    -144.733E+06    -319.899E+06    -114.682E+06    -325.639E+03         49.7686
             578     1.68814E-03     51.5104E-03         4.51646        -2.43384        -2.71151        -2.41807         4.25879        -2.46960    -574.352E-03     340.239E-03    -169.841E-03    -170.398E-03    -169.827E-03     340.225E-03    -170.398E-03     5.14693E-03    -137.963E+06    -154.014E+06    -345.778E+06    -154.020E+06    -345.773E+06    -137.963E+06    -315.458E+03         49.4891
             579     842.610E-06     51.5095E-03         5.14370        -2.70787        -3.04595        -2.24795         4.35883        -2.72100         1.21829     340.806E-03    -169.719E-03    -171.086E-03    -169.714E-03     340.800E-03    -171.086E-03     2.40313E-03    -154.175E+06    -160.471E+06    -362.405E+06    -158.876E+06    -362.399E+06    -155.776E+06    -576.359E+03         49.3139
             580     14.3522E-03     51.1969E-03     934.292E-03     53.3983E-03        -1.58730     175.574E-03     812.116E-03        -1.58730     230.594E-03     345.917E-03    -169.988E-03    -175.929E-03    -169.443E-03     339.569E-03    -170.126E-03     105.546E-03     111.050E+06     105.800E+06    -6.91343E+06    -6.90463E+06     105.791E+06     111.050E+06     395.334E+03         63.6050
             581     13.5101E-03     51.0024E-03         1.30009    -155.723E-03        -1.75982    -58.3149E-03         1.20268        -1.75982     450.192E-03     346.702E-03    -170.105E-03    -176.598E-03    -169.300E-03     339.404E-03    -170.105E-03     118.802E-03     101.524E+06     92.9021E+06    -13.5432E+06    -13.5378E+06     92.8967E+06     101.524E+06     86.5466E+03         61.8134
             582     12.6652E-03     50.8882E-03         1.70417    -398.856E-03        -1.93216    -307.311E-03         1.61263        -1.93216     493.635E-03     341.943E-03    -170.113E-03    -171.830E-03    -167.480E-03     337.593E-03    -170.113E-03     93.8649E-03     95.5843E+06     82.6892E+06    -20.8690E+06    -20.8661E+06     82.6863E+06     95.5843E+06    -356.413E+03         59.8952
             583     11.8192E-03     50.7681E-03         2.12571    -660.513E-03        -2.09855    -581.811E-03         2.04700        -2.09855     636.723E-03     341.672E-03    -170.132E-03    -171.540E-03    -167.189E-03     337.321E-03    -170.132E-03     93.8206E-03     86.8115E+06     77.4359E+06    -29.1712E+06    -29.1684E+06     77.4331E+06     86.8115E+06    -449.110E+03         58.0988
             584     10.9736E-03     50.6575E-03         2.58946    -962.913E-03        -2.26216    -880.135E-03         2.50668        -2.26216     505.121E-03     341.392E-03    -170.109E-03    -171.283E-03    -167.792E-03     337.901E-03    -170.109E-03     84.2970E-03     77.8040E+06     72.8771E+06    -37.1592E+06    -37.1363E+06     75.3941E+06     75.2641E+06    -283.205E+03         56.5813
             585     10.1312E-03     50.5587E-03         3.01388        -1.23168        -2.41937        -1.19242         2.97462        -2.41937     376.436E-03     340.760E-03    -170.021E-03    -170.739E-03    -167.508E-03     337.603E-03    -170.095E-03     80.0968E-03     72.4369E+06     68.7047E+06    -45.3426E+06     -45.316E+06     72.4103E+06     68.7047E+06     250.783E+03         55.3742
             586     9.28696E-03     50.4633E-03         3.48106        -1.55031        -2.56979        -1.49763         3.42838        -2.56979     995.643E-03     339.647E-03    -169.504E-03    -170.143E-03    -166.758E-03     336.900E-03    -170.143E-03     74.4982E-03     61.8901E+06     55.6312E+06    -55.3105E+06    -55.2903E+06     56.8034E+06     60.6978E+06     542.437E+03         54.4216
             587     8.43991E-03     50.3793E-03         3.88078        -1.80534        -2.71132        -1.78683         3.86227        -2.71132     453.345E-03     339.562E-03    -169.327E-03    -170.234E-03    -167.094E-03     337.328E-03    -170.234E-03     67.1647E-03     42.9463E+06     3.19722E+06    -66.2805E+06    -66.2582E+06     3.17497E+06     42.9463E+06    -179.128E+03         53.6389
             588     7.59613E-03     50.3069E-03         4.27439        -2.06323        -2.84302        -2.05159         4.26275        -2.84302     398.820E-03     339.813E-03    -169.508E-03    -170.306E-03    -167.785E-03     338.091E-03    -170.306E-03     58.9654E-03     21.7833E+06    -60.1643E+06    -81.1711E+06    -77.6241E+06    -63.7113E+06     21.7833E+06    -388.036E+03         52.9523
             589     6.75221E-03     50.2442E-03         4.65897        -2.32100        -2.96387        -2.30292         4.64089        -2.96387     89.3431E-03     339.353E-03    -169.001E-03    -170.352E-03    -167.807E-03     338.159E-03    -170.352E-03     48.9037E-03     963.901E+03    -88.9395E+06    -113.148E+06    -88.9421E+06    -113.146E+06     963.901E+03    -183.128E+03         52.3153
             590     5.90670E-03     50.1965E-03         5.00665        -2.54963        -3.07251        -2.53089         4.98791        -3.07251     121.746E-03     339.282E-03    -168.865E-03    -170.416E-03    -168.123E-03     338.540E-03    -170.416E-03     38.4856E-03    -20.0039E+06    -100.419E+06    -157.349E+06    -100.422E+06    -157.346E+06    -20.0039E+06    -182.807E+03         51.7094
             591     5.06230E-03     50.1615E-03         5.32583        -2.76294        -3.16834        -2.74530         5.30819        -3.16834     137.052E-03     340.045E-03    -169.611E-03    -170.434E-03    -169.178E-03     339.612E-03    -170.434E-03     29.3795E-03    -41.8349E+06    -112.072E+06    -203.734E+06    -112.074E+06    -203.733E+06    -41.8349E+06    -58.3570E+03         51.1373
             592     4.21967E-03     50.1354E-03         5.61151        -2.96004        -3.25191        -2.92895         5.58042        -3.25191     346.072E-03     340.258E-03    -169.892E-03    -170.366E-03    -169.663E-03     340.030E-03    -170.366E-03     21.2234E-03    -64.5215E+06    -122.910E+06    -248.309E+06    -122.915E+06    -248.304E+06    -64.5215E+06    -199.098E+03         50.6128
             593     3.37615E-03     50.1196E-03         5.89861        -3.16629        -3.32340        -3.09621         5.82853        -3.32340    -221.535E-03     339.767E-03    -169.450E-03    -170.318E-03    -169.345E-03     339.662E-03    -170.318E-03     14.3031E-03    -89.7784E+06    -134.254E+06    -287.482E+06    -134.269E+06    -287.467E+06    -89.7784E+06    -198.622E+03         50.1537
             594     2.53093E-03     50.1105E-03         6.07297        -3.27504        -3.38691        -3.21483         6.01276        -3.38691    -456.041E-03     339.838E-03    -169.464E-03    -170.374E-03    -169.421E-03     339.795E-03    -170.374E-03     9.01560E-03    -115.232E+06    -145.144E+06    -319.930E+06    -145.164E+06    -319.910E+06    -115.232E+06    -326.322E+03         49.7774
             595     1.68592E-03     50.1070E-03         6.28768        -3.35427        -3.50733        -3.38375         6.24053        -3.43070    -59.9326E-03     340.524E-03    -169.864E-03    -170.660E-03    -170.077E-03     340.510E-03    -170.433E-03     4.69146E-03    -137.825E+06    -153.503E+06    -345.714E+06    -153.514E+06    -345.703E+06    -137.825E+06    -499.591E+03         49.4980
             596     843.451E-06     50.1041E-03         6.45606        -3.29027        -3.74413        -3.59871         6.31063        -3.29027     46.8361E-03     340.769E-03    -169.638E-03    -171.132E-03    -170.858E-03     340.767E-03    -169.908E-03     1.12286E-03    -154.945E+06    -160.845E+06    -363.872E+06    -160.561E+06    -363.870E+06    -155.231E+06    -114.362E+03         49.3229
             597     14.3552E-03     49.7970E-03         1.54375     42.8446E-03        -2.19413     94.1301E-03         1.49247        -2.19413     236.747E-03     346.172E-03    -169.970E-03    -176.202E-03    -169.662E-03     339.771E-03    -170.109E-03     105.470E-03     111.456E+06     105.438E+06    -6.44307E+06    -6.43301E+06     105.428E+06     111.456E+06      352.44E+03         63.5817
             598     13.5096E-03     49.5904E-03         2.06240    -281.294E-03        -2.39003    -226.324E-03         2.00743        -2.39003     452.275E-03     346.370E-03    -170.091E-03    -176.279E-03    -168.952E-03     339.043E-03    -170.091E-03     118.587E-03     102.040E+06     93.8384E+06    -13.3645E+06    -13.3547E+06     93.8285E+06     102.040E+06    -258.364E+03         61.8016
             599     12.6646E-03     49.4918E-03         2.58413    -614.873E-03        -2.58330    -561.690E-03         2.53095        -2.58330     525.778E-03     341.736E-03    -170.117E-03    -171.619E-03    -167.286E-03     337.403E-03    -170.117E-03     93.5185E-03     95.9073E+06     83.1831E+06    -21.2341E+06    -21.2294E+06     83.1784E+06     95.9073E+06    -564.434E+03         59.8956
             600     11.8188E-03     49.3591E-03         3.12030    -966.981E-03        -2.76920    -912.086E-03         3.06540        -2.76920     692.271E-03     342.187E-03    -170.129E-03    -172.058E-03    -167.637E-03     337.766E-03    -170.129E-03     94.6371E-03     87.6776E+06     77.7798E+06    -29.1233E+06    -29.1225E+06     77.7790E+06     87.6776E+06    -263.321E+03         58.1081
             601     10.9770E-03     49.2544E-03         3.66159        -1.32260        -2.95089        -1.26634         3.60532        -2.95089     584.360E-03     341.210E-03    -170.097E-03    -171.113E-03    -167.545E-03     337.641E-03    -170.097E-03     85.1846E-03     77.8074E+06     72.2677E+06    -37.3235E+06    -37.3089E+06     75.0888E+06     74.9717E+06    -792.903E+03         56.5937
             602     10.1305E-03     49.1527E-03         4.17538        -1.65408        -3.12502        -1.62556         4.14685        -3.12502     466.131E-03     340.392E-03    -170.030E-03    -170.363E-03    -167.025E-03     337.137E-03    -170.111E-03     81.2466E-03     70.5728E+06     66.7815E+06    -46.6440E+06    -46.6237E+06     70.5525E+06     66.7815E+06    -577.855E+03         55.3853
             603     9.28489E-03     49.0611E-03         4.71862        -2.02358        -3.29156        -1.98028         4.67532        -3.29156         1.05796     339.896E-03    -169.708E-03    -170.188E-03    -166.908E-03     337.090E-03    -170.182E-03     75.3370E-03     61.2007E+06     55.9104E+06    -56.2651E+06    -56.2486E+06     56.8494E+06     60.2451E+06     664.817E+03         54.4303
             604     8.44053E-03     48.9760E-03         5.20069        -2.34458        -3.44828        -2.32826         5.18437        -3.44828     526.744E-03     339.804E-03    -169.537E-03    -170.267E-03    -167.295E-03     337.555E-03    -170.261E-03     67.3994E-03     43.0544E+06     4.67115E+06    -66.8665E+06    -66.8389E+06     4.64351E+06     43.0544E+06     707.567E+03         53.6457
             605     7.59552E-03     48.9009E-03         5.67062        -2.66290        -3.59283        -2.65517         5.66289        -3.59283     407.561E-03     339.739E-03    -169.409E-03    -170.330E-03    -167.726E-03     338.057E-03    -170.330E-03     58.2170E-03     21.8774E+06    -59.7053E+06    -82.2596E+06    -77.9455E+06    -64.0194E+06     21.8774E+06     71.7313E+03         52.9580
             606     6.75120E-03     48.8406E-03         6.11260        -2.96150        -3.72388        -2.95065         6.10174        -3.72388     113.861E-03     339.439E-03    -169.063E-03    -170.377E-03    -167.896E-03     338.273E-03    -170.377E-03     48.3941E-03     1.37431E+06    -89.5403E+06    -113.186E+06    -89.5420E+06    -113.185E+06     1.37431E+06    -111.790E+03         52.3208
             607     5.90692E-03     48.7934E-03         6.49399        -3.20818        -3.84259        -3.20025         6.48605        -3.84259     45.0009E-03     339.596E-03    -169.187E-03    -170.410E-03    -168.442E-03     338.852E-03    -170.410E-03     38.5636E-03    -20.0947E+06    -101.289E+06    -157.240E+06    -101.291E+06    -157.238E+06    -20.0947E+06    -145.467E+03         51.7156
             608     5.06333E-03     48.7552E-03         6.84833        -3.44012        -3.95012        -3.43408         6.84229        -3.95012     140.335E-03     339.785E-03    -169.368E-03    -170.417E-03    -168.933E-03     339.350E-03    -170.417E-03     29.4465E-03    -42.7148E+06    -112.499E+06    -202.865E+06    -112.519E+06    -202.846E+06    -42.7148E+06    -818.392E+03         51.1445
             609     4.21923E-03     48.7308E-03         7.16717        -3.65415        -4.04632        -3.64617         7.15919        -4.04632     187.133E-03     339.893E-03    -169.473E-03    -170.420E-03    -169.235E-03     339.656E-03    -170.420E-03     21.6722E-03    -65.5283E+06    -123.999E+06    -249.345E+06    -124.022E+06    -249.322E+06    -65.5283E+06    -1.11221E+06         50.6212
             610     3.37475E-03     48.7161E-03         7.48403        -3.88646        -4.12717        -3.86813         7.46570        -4.12717    -133.021E-03     340.222E-03    -169.659E-03    -170.563E-03    -169.729E-03     340.113E-03    -170.384E-03     14.4040E-03    -89.6461E+06    -135.060E+06    -288.342E+06    -135.070E+06    -288.332E+06    -89.6461E+06    -154.125E+03         50.1633
             611     2.53098E-03     48.7077E-03         7.70885        -4.05402        -4.19026        -4.03598         7.69080        -4.19026    -711.389E-03     340.398E-03    -169.837E-03    -170.562E-03    -170.100E-03     340.361E-03    -170.262E-03     8.29921E-03    -115.760E+06    -145.164E+06    -319.291E+06    -145.184E+06    -319.271E+06    -115.760E+06     123.190E+03         49.7880
             612     1.68853E-03     48.7006E-03         7.95196        -4.15483        -4.30963        -4.20318         7.91460        -4.22393     470.241E-03     340.282E-03    -169.869E-03    -170.413E-03    -170.207E-03     340.272E-03    -170.065E-03     4.05472E-03    -139.272E+06    -154.371E+06    -346.633E+06    -154.386E+06    -346.619E+06    -139.272E+06    -106.779E+03         49.5087
             613     845.049E-06     48.7003E-03         8.22311        -3.90630        -4.82408        -4.55456         7.95359        -3.90630        -1.52348     339.785E-03    -168.969E-03    -170.816E-03    -170.190E-03     339.783E-03    -169.592E-03     1.81855E-03    -156.018E+06    -162.965E+06    -364.505E+06    -161.927E+06    -364.504E+06    -157.056E+06    -22.2633E+03         49.3333
             614     14.3543E-03     48.3887E-03         2.09985     15.2668E-03        -2.72871     46.8369E-03         2.06828        -2.72871     219.282E-03     345.939E-03    -170.050E-03    -175.889E-03    -169.325E-03     339.432E-03    -170.106E-03     106.367E-03     111.307E+06     105.490E+06    -6.34357E+06    -6.33400E+06     105.481E+06     111.307E+06    -280.784E+03         63.5580
             615     13.5099E-03     48.1901E-03         2.73084    -393.710E-03        -2.94313    -355.249E-03         2.69238        -2.94313     430.919E-03     346.229E-03    -170.111E-03    -176.118E-03    -168.718E-03     338.829E-03    -170.111E-03     118.965E-03     102.063E+06     93.9721E+06    -13.1603E+06    -13.1455E+06     93.9573E+06     102.063E+06     23.6909E+03         61.7891
             616     12.6640E-03     48.0852E-03         3.36182    -808.334E-03        -3.15282    -771.244E-03         3.32472        -3.15282     532.040E-03     342.320E-03    -170.130E-03    -172.190E-03    -167.852E-03     337.982E-03    -170.130E-03     93.6668E-03     96.4287E+06     83.7178E+06    -20.6049E+06    -20.5966E+06     83.7095E+06     96.4287E+06     56.4075E+03         59.8961
             617     11.8208E-03     47.9561E-03         3.99678        -1.23406        -3.35369        -1.19106         3.95378        -3.35369     716.149E-03     341.971E-03    -170.004E-03    -171.967E-03    -167.381E-03     337.514E-03    -170.133E-03     95.0005E-03     88.2130E+06     78.5558E+06    -28.2399E+06    -28.2358E+06     78.5518E+06     88.2130E+06    -220.719E+03         58.1175
             618     10.9728E-03     47.8488E-03         4.61784        -1.64967        -3.54841        -1.60630         4.57447        -3.54841     628.495E-03     340.474E-03    -170.009E-03    -170.465E-03    -166.719E-03     336.862E-03    -170.143E-03     85.5800E-03     77.3335E+06     72.0147E+06    -37.1307E+06    -37.1277E+06     74.8759E+06     74.4694E+06    -307.263E+03         56.6057
             619     10.1289E-03     47.7505E-03         5.20571        -2.03745        -3.73433        -2.01369         5.18196        -3.73433     529.003E-03     340.579E-03    -170.107E-03    -170.472E-03    -167.133E-03     337.325E-03    -170.191E-03     81.2381E-03     69.9037E+06     66.1159E+06    -46.6306E+06    -46.6285E+06     69.9016E+06     66.1159E+06    -224.974E+03         55.3966
             620     9.28451E-03     47.6553E-03         5.81567        -2.45632        -3.91106        -2.41839         5.77774        -3.91106         1.10327     340.565E-03    -170.126E-03    -170.438E-03    -167.580E-03     337.813E-03    -170.233E-03     74.6774E-03     60.7280E+06     54.7874E+06    -56.6555E+06    -56.6529E+06     55.7085E+06     59.8043E+06    -283.596E+03         54.4400
             621     8.44047E-03     47.5714E-03         6.37573        -2.83966        -4.07536        -2.82482         6.36089        -4.07536     573.012E-03     340.103E-03    -169.828E-03    -170.275E-03    -167.605E-03     337.874E-03    -170.269E-03     67.1839E-03     43.4692E+06     4.64269E+06    -67.3086E+06    -67.2953E+06     4.62937E+06     43.4692E+06     321.865E+03         53.6538
             622     7.59665E-03     47.4967E-03         6.90435        -3.20877        -4.22432        -3.20358         6.89916        -4.22432     388.877E-03     339.627E-03    -169.299E-03    -170.327E-03    -167.617E-03     337.944E-03    -170.327E-03     58.1761E-03     22.5681E+06    -58.8695E+06    -82.4018E+06    -77.9383E+06    -63.3330E+06     22.5681E+06     510.217E+03         52.9648
             623     6.75131E-03     47.4377E-03         7.38342        -3.54247        -4.35713        -3.53541         7.37636        -4.35713     102.203E-03     339.546E-03    -169.175E-03    -170.371E-03    -168.020E-03     338.391E-03    -170.371E-03     48.1977E-03     2.01496E+06    -89.0141E+06    -113.004E+06    -89.0244E+06    -112.994E+06     2.01496E+06    -38.9283E+03         52.3271
             624     5.90753E-03     47.3867E-03         7.79386        -3.81659        -4.47548        -3.81297         7.79024        -4.47548    -37.2361E-03     339.484E-03    -169.080E-03    -170.405E-03    -168.321E-03     338.726E-03    -170.405E-03     38.9778E-03    -19.0513E+06    -99.9925E+06    -156.584E+06    -100.000E+06    -156.576E+06    -19.0513E+06    -430.310E+03         51.7222
             625     5.06327E-03     47.3526E-03         8.16264        -4.06418        -4.58077        -4.06252         8.16098        -4.58077     158.917E-03     339.520E-03    -169.071E-03    -170.449E-03    -168.620E-03     339.069E-03    -170.449E-03     29.9589E-03    -42.1099E+06    -111.334E+06    -202.447E+06    -111.365E+06    -202.416E+06    -42.1099E+06    -532.507E+03         51.1520
             626     4.21776E-03     47.3271E-03         8.48756        -4.28583        -4.67308        -4.28487         8.48660        -4.67308     103.810E-03     339.981E-03    -169.500E-03    -170.481E-03    -169.268E-03     339.749E-03    -170.481E-03     21.2618E-03    -66.2253E+06    -123.663E+06    -249.929E+06    -123.690E+06    -249.902E+06    -66.2253E+06    -519.054E+03         50.6299
             627     3.37466E-03     47.3103E-03         8.78314        -4.49382        -4.75090        -4.49146         8.78078        -4.75090    -12.4321E-03     340.508E-03    -169.906E-03    -170.602E-03    -169.983E-03     340.406E-03    -170.423E-03     14.0469E-03    -90.3834E+06    -135.463E+06    -289.596E+06    -135.466E+06    -289.593E+06    -90.3834E+06    -439.439E+03         50.1736
             628     2.53287E-03     47.3016E-03         9.03332        -4.67894        -4.81308        -4.65686         9.01125        -4.81308    -879.949E-03     340.547E-03    -170.000E-03    -170.547E-03    -170.256E-03     340.503E-03    -170.247E-03     9.17409E-03    -115.939E+06    -146.234E+06    -319.965E+06    -146.240E+06    -319.959E+06    -115.939E+06     400.070E+03         49.7995
             629     1.68840E-03     47.2988E-03         9.35067        -4.80337        -4.98403        -4.81839         9.23012        -4.84846     936.589E-03     340.019E-03    -169.791E-03    -170.228E-03    -169.896E-03     340.003E-03    -170.107E-03     5.44059E-03    -139.009E+06    -154.482E+06    -346.343E+06    -154.489E+06    -346.336E+06    -139.009E+06     851.141E+03         49.5212
             630     843.067E-06     47.2976E-03         10.0355        -4.51884        -5.90004        -5.19391         9.32938        -4.51884        -2.69963     340.039E-03    -169.456E-03    -170.584E-03    -169.818E-03     340.035E-03    -170.218E-03     2.06007E-03    -155.961E+06    -162.236E+06    -363.262E+06    -161.201E+06    -363.258E+06    -157.000E+06     735.642E+03         49.3464
             631     14.3540E-03     46.9850E-03         2.58458    -21.1045E-03        -3.17099    -835.668E-06         2.56431        -3.17099     190.425E-03     345.419E-03    -170.059E-03    -175.360E-03    -168.935E-03     339.051E-03    -170.116E-03     105.321E-03     110.430E+06     105.501E+06    -7.01069E+06    -7.00558E+06     105.496E+06     110.430E+06    -596.511E+03         63.5345
             632     13.5077E-03     46.7856E-03         3.28686    -481.504E-03        -3.39736    -452.906E-03         3.25826        -3.39736     401.270E-03     346.080E-03    -170.132E-03    -175.948E-03    -168.619E-03     338.751E-03    -170.132E-03     118.785E-03     100.832E+06     93.3393E+06    -14.5152E+06    -14.4984E+06     93.3226E+06     100.832E+06    -631.632E+03         61.7768
             633     12.6648E-03     46.6790E-03         3.99199    -948.283E-03        -3.61827    -920.690E-03         3.96440        -3.61827     526.283E-03     342.426E-03    -170.155E-03    -172.271E-03    -167.881E-03     338.036E-03    -170.155E-03     94.3310E-03     96.0380E+06     84.1862E+06    -20.9482E+06    -20.9258E+06     84.1638E+06     96.0380E+06    -538.447E+03         59.8965
             634     11.8189E-03     46.5526E-03         4.70845        -1.43187        -3.82940        -1.39722         4.67379        -3.82940     719.723E-03     341.932E-03    -170.030E-03    -171.902E-03    -167.375E-03     337.534E-03    -170.159E-03     94.3427E-03     87.7747E+06     78.2474E+06    -28.0600E+06    -28.0471E+06     78.2345E+06     87.7747E+06    -495.179E+03         58.1268
             635     10.9748E-03     46.4476E-03         5.40928        -1.90636        -4.03240        -1.87175         5.37467        -4.03240     639.965E-03     340.633E-03    -170.031E-03    -170.602E-03    -166.931E-03     337.096E-03    -170.165E-03     84.7215E-03     77.3149E+06     72.0411E+06    -36.3441E+06    -36.3379E+06     74.3953E+06     74.9545E+06     139.779E+03         56.6188
             636     10.1286E-03     46.3439E-03         6.07494        -2.36221        -4.22449        -2.34318         6.05592        -4.22449     540.755E-03     340.682E-03    -170.118E-03    -170.564E-03    -167.307E-03     337.504E-03    -170.197E-03     80.3028E-03     70.5701E+06     66.9363E+06    -45.5902E+06    -45.5858E+06     70.5657E+06     66.9363E+06     554.058E+03         55.4092
             637     9.28514E-03     46.2504E-03         6.74330        -2.83993        -4.40386        -2.80701         6.71037        -4.40386         1.11174     340.364E-03    -169.928E-03    -170.436E-03    -167.403E-03     337.639E-03    -170.237E-03     74.3159E-03     61.0453E+06     54.2170E+06    -55.8766E+06    -55.8746E+06     55.4883E+06     59.7719E+06     169.637E+03         54.4502
             638     8.44067E-03     46.1663E-03         7.34621        -3.26283        -4.56775        -3.24866         7.33203        -4.56775     587.407E-03     340.002E-03    -169.714E-03    -170.288E-03    -167.475E-03     337.764E-03    -170.288E-03     67.2939E-03     43.3352E+06     3.97457E+06    -66.6381E+06    -66.6337E+06     3.97023E+06     43.3352E+06    -211.154E+03         53.6614
             639     7.59501E-03     46.0937E-03         7.90252        -3.65194        -4.71488        -3.64810         7.89868        -4.71488     352.167E-03     339.841E-03    -169.497E-03    -170.344E-03    -167.802E-03     338.146E-03    -170.344E-03     58.4544E-03     22.2110E+06    -58.9986E+06    -81.9898E+06    -77.6714E+06    -63.3170E+06     22.2110E+06     70.3420E+03         52.9711
             640     6.75206E-03     46.0311E-03         8.40883        -4.00631        -4.84502        -4.00077         8.40329        -4.84502     77.3621E-03     339.499E-03    -169.114E-03    -170.385E-03    -167.933E-03     338.319E-03    -170.385E-03     48.7131E-03     1.90473E+06    -88.6328E+06    -112.322E+06    -88.6459E+06    -112.309E+06     1.90473E+06     6.65574E+03         52.3332
             641     5.90696E-03     45.9853E-03         8.84627        -4.30822        -4.95874        -4.30579         8.84383        -4.95874    -96.7119E-03     339.430E-03    -168.992E-03    -170.438E-03    -168.226E-03     338.665E-03    -170.438E-03     39.1318E-03    -18.8062E+06    -100.260E+06    -156.269E+06    -100.271E+06    -156.259E+06    -18.8062E+06    -283.766E+03         51.7289
             642     5.06144E-03     45.9474E-03         9.21886        -4.56737        -5.05696        -4.56676         9.21824        -5.05696     158.121E-03     339.792E-03    -169.322E-03    -170.471E-03    -168.881E-03     339.352E-03    -170.471E-03     29.5354E-03    -42.3494E+06    -112.315E+06    -202.890E+06    -112.334E+06    -202.871E+06    -42.3494E+06     38.7338E+03         51.1597
             643     4.21983E-03     45.9217E-03         9.53227        -4.78973        -5.14035        -4.78960         9.53215        -5.14035     78.9172E-03     339.990E-03    -169.515E-03    -170.475E-03    -169.287E-03     339.762E-03    -170.475E-03     21.2415E-03    -66.8726E+06    -123.721E+06    -249.336E+06    -123.734E+06    -249.323E+06    -66.8726E+06    -35.2709E+03         50.6389
             644     3.37552E-03     45.9063E-03         9.78946        -4.96400        -5.21109        -4.96388         9.78934        -5.21109     71.5237E-03     340.036E-03    -169.542E-03    -170.494E-03    -169.430E-03     339.924E-03    -170.494E-03     14.7729E-03    -91.4164E+06    -135.346E+06    -290.357E+06    -135.348E+06    -290.355E+06    -91.4164E+06    -135.953E+03         50.1838
             645     2.52944E-03     45.8973E-03         10.0385        -5.13912        -5.27121        -5.11206         10.0114        -5.27121    -881.133E-03     340.362E-03    -169.831E-03    -170.530E-03    -169.785E-03     340.315E-03    -170.530E-03     9.29962E-03    -115.557E+06    -146.109E+06    -320.862E+06    -146.110E+06    -320.861E+06    -115.557E+06     299.075E+03         49.8112
             646     1.68643E-03     45.8945E-03         10.3540        -5.29141        -5.42528        -5.23300         10.1913        -5.32092         1.16171     340.817E-03    -170.142E-03    -170.675E-03    -170.283E-03     340.803E-03    -170.520E-03     4.77211E-03    -138.446E+06    -155.161E+06    -345.816E+06    -155.168E+06    -345.809E+06    -138.446E+06     979.877E+03         49.5344
             647     843.764E-06     45.8942E-03         11.1962        -5.21153        -6.35911        -5.47532         10.3124        -5.21153        -3.04772     340.868E-03    -170.069E-03    -170.799E-03    -170.655E-03     340.864E-03    -170.208E-03     2.01259E-03    -155.893E+06    -162.066E+06    -362.068E+06    -161.521E+06    -362.059E+06    -156.446E+06     1.03497E+06         49.3610
             648     14.3547E-03     45.5819E-03         3.00222    -76.3071E-03        -3.50774    -62.3040E-03         2.98821        -3.50774     174.832E-03     345.658E-03    -170.121E-03    -175.537E-03    -169.212E-03     339.333E-03    -170.121E-03     105.135E-03     110.789E+06     106.182E+06    -6.99651E+06    -6.99583E+06     106.181E+06     110.789E+06    -12.3500E+03         63.5123
             649     13.5101E-03     45.3824E-03         3.75622    -573.290E-03        -3.73789    -550.808E-03         3.73374        -3.73789     382.681E-03     345.877E-03    -170.132E-03    -175.744E-03    -168.446E-03     338.578E-03    -170.132E-03     118.649E-03     101.403E+06     94.7297E+06    -13.8612E+06    -13.8509E+06     94.7194E+06     101.403E+06     -609.19E+03         61.7660
             650     12.6626E-03     45.2745E-03         4.50695        -1.07130        -3.96189        -1.04952         4.48516        -3.96189     505.913E-03     341.850E-03    -170.175E-03    -171.675E-03    -167.289E-03     337.464E-03    -170.175E-03     94.2158E-03     94.8264E+06     83.9133E+06    -21.6346E+06    -21.6038E+06     83.8825E+06     94.8264E+06    -1.58118E+06         59.8975
             651     11.8191E-03     45.1475E-03         5.26114        -1.58401        -4.17581        -1.55607         5.23319        -4.17581     687.019E-03     342.256E-03    -170.189E-03    -172.067E-03    -167.689E-03     337.878E-03    -170.189E-03     94.1907E-03     85.9358E+06     76.9418E+06    -30.0116E+06    -29.9841E+06     76.9143E+06     85.9358E+06    -1.34177E+06         58.1364
             652     10.9740E-03     45.0430E-03         6.00932        -2.10315        -4.37970        -2.07528         5.98146        -4.37970     604.011E-03     341.457E-03    -170.159E-03    -171.298E-03    -167.717E-03     337.876E-03    -170.159E-03     85.3919E-03     76.4278E+06     71.6144E+06    -37.5470E+06    -37.5375E+06     73.7045E+06     74.3282E+06    -111.468E+03         56.6323
             653     10.1308E-03     44.9397E-03         6.73097        -2.61081        -4.57012        -2.59697         6.71714        -4.57012     482.330E-03     340.642E-03    -169.994E-03    -170.648E-03    -167.253E-03     337.415E-03    -170.163E-03     80.8984E-03     70.3368E+06     66.7848E+06    -45.6119E+06    -45.6070E+06     70.3319E+06     66.7848E+06     485.940E+03         55.4219
             654     9.28460E-03     44.8464E-03         7.43774        -3.11978        -4.74512        -3.09375         7.41170        -4.74512         1.04128     339.883E-03    -169.659E-03    -170.224E-03    -166.941E-03     337.165E-03    -170.224E-03     74.1450E-03     61.3364E+06     54.7786E+06    -55.0649E+06    -55.0626E+06     56.2287E+06     59.8840E+06     438.723E+03         54.4597
             655     8.43911E-03     44.7622E-03         8.05562        -3.55750        -4.90361        -3.54513         8.04325        -4.90361     513.238E-03     339.803E-03    -169.496E-03    -170.307E-03    -167.272E-03     337.579E-03    -170.307E-03     67.0421E-03     43.0848E+06     4.21377E+06    -65.9009E+06    -65.8846E+06     4.19739E+06     43.0848E+06     294.435E+03         53.6682
             656     7.59659E-03     44.6876E-03         8.61522        -3.95108        -5.04567        -3.94801         8.61215        -5.04567     270.351E-03     339.732E-03    -169.348E-03    -170.384E-03    -167.654E-03     338.038E-03    -170.384E-03     58.4358E-03     21.7042E+06    -59.0360E+06    -81.7304E+06    -77.1968E+06    -63.5696E+06     21.7042E+06     97.5235E+03         52.9766
             657     6.75047E-03     44.6289E-03         9.12653        -4.31171        -5.17145        -4.30599         9.12081        -5.17145     5.59703E-03     339.701E-03    -169.272E-03    -170.429E-03    -168.096E-03     338.525E-03    -170.429E-03     48.6081E-03     1.59131E+06    -88.3455E+06    -111.793E+06    -88.3769E+06    -111.762E+06     1.59131E+06     329.175E+03         52.3388
             658     5.90627E-03     44.5795E-03         9.57368        -4.62729        -5.28084        -4.62409         9.57047        -5.28084    -155.772E-03     339.853E-03    -169.411E-03    -170.442E-03    -168.659E-03     339.101E-03    -170.442E-03     38.7905E-03    -19.5558E+06    -99.9362E+06    -155.818E+06    -99.9717E+06    -155.782E+06    -19.5558E+06     188.112E+03         51.7355
             659     5.06456E-03     44.5426E-03         9.95040        -4.89538        -5.37399        -4.89484         9.94986        -5.37399     106.707E-03     339.707E-03    -169.250E-03    -170.457E-03    -168.810E-03     339.267E-03    -170.457E-03     29.5735E-03    -41.7077E+06    -111.252E+06    -203.776E+06    -111.275E+06    -203.753E+06    -41.7077E+06    -94.2259E+03         51.1676
             660     4.21776E-03     44.5184E-03         10.2639        -5.11799        -5.45175        -5.11769         10.2636        -5.45175     61.2362E-03     339.665E-03    -169.157E-03    -170.507E-03    -168.924E-03     339.431E-03    -170.507E-03     21.3630E-03    -65.8200E+06    -123.126E+06    -249.555E+06    -123.142E+06    -249.539E+06    -65.8200E+06     655.844E+03         50.6479
             661     3.37341E-03     44.5019E-03         10.4999        -5.27471        -5.51856        -5.27411         10.4993        -5.51856     22.5484E-03     340.047E-03    -169.470E-03    -170.577E-03    -169.363E-03     339.940E-03    -170.577E-03     14.3388E-03    -91.5864E+06    -135.185E+06    -289.292E+06    -135.192E+06    -289.286E+06    -91.5864E+06     488.607E+03         50.1938
             662     2.53123E-03     44.4934E-03         10.7440        -5.44939        -5.57438        -5.43270         10.7273        -5.57438    -746.730E-03     340.528E-03    -169.883E-03    -170.645E-03    -169.843E-03     340.488E-03    -170.645E-03     8.52821E-03    -115.746E+06    -146.008E+06    -321.372E+06    -146.010E+06    -321.370E+06    -115.746E+06    -39.0990E+03         49.8223
             663     1.68684E-03     44.4884E-03         10.9896        -5.60070        -5.65639        -5.52018         10.8777        -5.62497         1.04408     340.987E-03    -170.148E-03    -170.840E-03    -170.292E-03     340.976E-03    -170.685E-03     4.43392E-03    -138.481E+06    -155.474E+06    -345.979E+06    -155.485E+06    -345.968E+06    -138.481E+06     80.9498E+03         49.5466
             664     843.822E-06     44.4884E-03         11.6742        -5.68254        -6.25226        -5.45000         11.0425        -5.85307        -2.54032     341.277E-03    -170.321E-03    -170.955E-03    -170.542E-03     341.272E-03    -170.731E-03     2.23998E-03    -154.765E+06    -161.147E+06    -360.357E+06    -160.603E+06    -360.348E+06    -155.318E+06    -39.1913E+03         49.3739
             665     14.3531E-03     44.1739E-03         3.34099    -145.670E-03        -3.72921    -134.712E-03         3.33003        -3.72921     159.280E-03     345.489E-03    -169.869E-03    -175.620E-03    -168.931E-03     339.076E-03    -170.146E-03     105.833E-03     110.805E+06     106.434E+06    -6.50157E+06    -6.49507E+06     106.427E+06     110.805E+06    -315.037E+03         63.4905
             666     13.5086E-03     43.9795E-03         4.13307    -678.120E-03        -3.95411    -660.864E-03         4.11582        -3.95411     342.459E-03     346.389E-03    -170.158E-03    -176.232E-03    -168.854E-03     339.012E-03    -170.158E-03     119.295E-03     102.023E+06     95.8174E+06    -12.6278E+06    -12.6211E+06     95.8107E+06     102.023E+06    -485.267E+03         61.7553
             667     12.6646E-03     43.8713E-03         4.91126        -1.20154        -4.17092        -1.18497         4.89469        -4.17092     455.160E-03     342.078E-03    -170.186E-03    -171.891E-03    -167.506E-03     337.693E-03    -170.186E-03     94.2477E-03     95.9464E+06     84.9596E+06    -19.8800E+06    -19.8627E+06     84.9423E+06     95.9464E+06    -333.872E+03         59.8993
             668     11.8177E-03     43.7431E-03         5.68620        -1.73264        -4.37687        -1.71171         5.66528        -4.37687     609.945E-03     342.214E-03    -170.193E-03    -172.021E-03    -167.638E-03     337.832E-03    -170.193E-03     94.2381E-03     85.8912E+06     77.1270E+06    -29.0960E+06    -29.0729E+06     77.1039E+06     85.8912E+06    -596.327E+03         58.1463
             669     10.9744E-03     43.6364E-03         6.44395        -2.26256        -4.57109        -2.24158         6.42296        -4.57109     524.881E-03     341.425E-03    -170.160E-03    -171.264E-03    -167.730E-03     337.890E-03    -170.160E-03     84.8173E-03     74.8920E+06     70.0949E+06    -38.3192E+06    -38.3025E+06     72.3065E+06     72.6637E+06    -1.00672E+06         56.6449
             670     10.1291E-03     43.5358E-03         7.16212        -2.77121        -4.75105        -2.76195         7.15286        -4.75105     382.400E-03     340.566E-03    -170.025E-03    -170.541E-03    -167.185E-03     337.354E-03    -170.169E-03     80.7365E-03     69.2012E+06     65.8889E+06    -46.5288E+06    -46.5176E+06     69.1900E+06     65.8889E+06    -649.098E+03         55.4333
             671     9.28516E-03     43.4423E-03         7.84812        -3.26520        -4.91593        -3.24605         7.82898        -4.91593     917.242E-03     340.056E-03    -169.830E-03    -170.227E-03    -167.067E-03     337.294E-03    -170.227E-03     74.7554E-03     60.1669E+06     55.0689E+06    -56.2061E+06    -56.2021E+06     56.1490E+06     59.0829E+06     374.837E+03         54.4683
             672     8.44117E-03     43.3578E-03         8.45435        -3.69585        -5.06567        -3.68522         8.44372        -5.06567     372.980E-03     339.726E-03    -169.418E-03    -170.308E-03    -167.200E-03     337.508E-03    -170.308E-03     66.9300E-03     42.5931E+06     5.03566E+06    -66.8526E+06    -66.8359E+06     5.01887E+06     42.5931E+06     624.063E+03         53.6746
             673     7.59382E-03     43.2844E-03         9.00564        -4.08583        -5.20050        -4.08281         9.00262        -5.20050     145.916E-03     339.533E-03    -169.131E-03    -170.402E-03    -167.459E-03     337.861E-03    -170.402E-03     58.0103E-03     21.5772E+06    -58.7472E+06    -81.7169E+06    -77.5927E+06    -62.8714E+06     21.5772E+06     376.059E+03         52.9818
             674     6.75103E-03     43.2232E-03         9.50757        -4.44053        -5.32084        -4.43291         9.49995        -5.32084    -125.734E-03     339.777E-03    -169.325E-03    -170.452E-03    -168.144E-03     338.596E-03    -170.452E-03     48.7708E-03     257.967E+03    -88.7036E+06    -112.117E+06    -88.7880E+06    -112.033E+06     257.967E+03     275.291E+03         52.3442
             675     5.90811E-03     43.1741E-03         9.95030        -4.75088        -5.42707        -4.74499         9.94441        -5.42707    -238.058E-03     339.776E-03    -169.297E-03    -170.479E-03    -168.520E-03     338.998E-03    -170.479E-03     39.4352E-03    -20.0024E+06    -99.2767E+06    -154.806E+06    -99.3275E+06    -154.756E+06    -20.0024E+06     77.0630E+03         51.7418
             676     5.06123E-03     43.1398E-03         10.3257        -5.01582        -5.51938        -5.01409         10.3239        -5.51938    -9.14342E-03     339.794E-03    -169.275E-03    -170.519E-03    -168.820E-03     339.338E-03    -170.519E-03     30.1251E-03    -41.7117E+06    -110.911E+06    -204.985E+06    -110.935E+06    -204.960E+06    -41.7117E+06     286.458E+03         51.1750
             677     4.21919E-03     43.1135E-03         10.6532        -5.25287        -5.59723        -5.25041         10.6507        -5.59723     46.5655E-03     340.146E-03    -169.609E-03    -170.537E-03    -169.376E-03     339.914E-03    -170.537E-03     21.2696E-03    -64.3856E+06    -122.264E+06    -250.492E+06    -122.280E+06    -250.476E+06    -64.3856E+06     1.16095E+06         50.6565
             678     3.37538E-03     43.0984E-03         10.8964        -5.41960        -5.66388        -5.41405         10.8909        -5.66388    -125.964E-03     340.313E-03    -169.798E-03    -170.515E-03    -169.700E-03     340.216E-03    -170.515E-03     13.7266E-03    -88.6996E+06    -133.475E+06    -286.971E+06    -133.490E+06    -286.955E+06    -88.6996E+06     1.21314E+06         50.2033
             679     2.52999E-03     43.0875E-03         11.1431        -5.59789        -5.71671        -5.58980         11.1350        -5.71671    -500.405E-03     340.339E-03    -169.824E-03    -170.515E-03    -169.788E-03     340.303E-03    -170.515E-03     8.23036E-03    -114.302E+06    -144.830E+06    -320.463E+06    -144.837E+06    -320.456E+06    -114.302E+06     25.7954E+03         49.8321
             680     1.68696E-03     43.0851E-03         11.3055        -5.69622        -5.76367        -5.66139         11.2707        -5.76367     693.652E-03     340.579E-03    -169.981E-03    -170.598E-03    -169.970E-03     340.568E-03    -170.598E-03     4.36826E-03    -137.905E+06    -153.679E+06    -345.637E+06    -153.687E+06    -345.629E+06    -137.905E+06    -1.15698E+06         49.5564
             681     841.978E-06     43.0825E-03         11.6970        -5.47412        -6.30924        -5.26826         11.4911        -6.30924        -1.09884     341.228E-03    -169.928E-03    -171.301E-03    -170.861E-03     341.226E-03    -170.365E-03     1.36418E-03    -154.656E+06    -160.884E+06    -361.336E+06    -159.593E+06    -361.326E+06    -155.958E+06    -1.28809E+06         49.3836
             682     14.3535E-03     42.7748E-03         3.58098    -218.485E-03        -3.82421    -208.877E-03         3.57138        -3.82421     115.412E-03     345.236E-03    -169.786E-03    -175.450E-03    -168.644E-03     338.810E-03    -170.166E-03     105.695E-03     110.891E+06     107.151E+06    -6.41663E+06    -6.40902E+06     107.143E+06     110.891E+06    -478.212E+03         63.4701
             683     13.5072E-03     42.5705E-03         4.40169    -774.390E-03        -4.03503    -761.458E-03         4.38876        -4.03503     255.182E-03     346.541E-03    -170.184E-03    -176.357E-03    -169.004E-03     339.188E-03    -170.184E-03     118.851E-03     101.679E+06     95.8883E+06    -13.7711E+06    -13.7595E+06     95.8766E+06     101.679E+06    -768.041E+03         61.7453
             684     12.6632E-03     42.4682E-03         5.19137        -1.31720        -4.23538        -1.30562         5.17978        -4.23538     370.278E-03     342.790E-03    -170.181E-03    -172.609E-03    -168.317E-03     338.499E-03    -170.181E-03     93.3386E-03     95.9264E+06     85.1867E+06    -21.2309E+06    -21.2179E+06     85.1737E+06     95.9264E+06    -401.179E+03         59.9015
             685     11.8197E-03     42.3387E-03         5.95774        -1.85408        -4.42375        -1.83905         5.94271        -4.42375     506.572E-03     342.133E-03    -170.088E-03    -172.045E-03    -167.629E-03     337.787E-03    -170.158E-03     93.8718E-03     86.6205E+06     77.6713E+06    -28.6435E+06    -28.6354E+06     77.6632E+06     86.6205E+06      52.343E+03         58.1566
             686     10.9744E-03     42.2307E-03         6.68254        -2.36374        -4.59964        -2.34855         6.66735        -4.59964     441.667E-03     340.659E-03    -170.078E-03    -170.582E-03    -166.989E-03     337.137E-03    -170.148E-03     84.5491E-03     75.2912E+06     69.5340E+06    -37.2149E+06    -37.1987E+06     72.2859E+06     72.5231E+06    -124.891E+03         56.6570
             687     10.1300E-03     42.1330E-03         7.35035        -2.83353        -4.76261        -2.82784         7.34466        -4.76261     281.294E-03     340.401E-03    -170.124E-03    -170.277E-03    -167.002E-03     337.193E-03    -170.190E-03     80.6734E-03     68.1100E+06     64.3077E+06    -47.4905E+06    -47.4686E+06     68.0880E+06     64.3077E+06     163.752E+03         55.4437
             688     9.28414E-03     42.0369E-03         7.98873        -3.29140        -4.91244        -3.27656         7.97389        -4.91244     810.253E-03     340.082E-03    -169.820E-03    -170.262E-03    -167.022E-03     337.284E-03    -170.262E-03     75.2464E-03     58.6652E+06     55.0080E+06    -58.3090E+06    -58.2973E+06     56.0305E+06     57.6310E+06     303.244E+03         54.4765
             689     8.43909E-03     41.9536E-03         8.57133        -3.70295        -5.04903        -3.69160         8.55997        -5.04903     249.306E-03     339.905E-03    -169.559E-03    -170.346E-03    -167.301E-03     337.646E-03    -170.346E-03     67.5569E-03     41.7627E+06     5.62487E+06    -68.4016E+06    -68.3925E+06     5.61578E+06     41.7627E+06    -241.147E+03         53.6807
             690     7.59687E-03     41.8807E-03         9.09736        -4.07210        -5.17257        -4.06809         9.09336        -5.17257     12.4812E-03     339.844E-03    -169.417E-03    -170.427E-03    -167.703E-03     338.130E-03    -170.427E-03     58.7955E-03     21.1469E+06    -59.3957E+06    -82.0591E+06    -78.4713E+06    -62.9835E+06     21.1469E+06    -298.428E+03         52.9869
             691     6.75070E-03     41.8185E-03         9.57403        -4.41186        -5.28383        -4.39988         9.56205        -5.28383    -295.787E-03     339.632E-03    -169.150E-03    -170.482E-03    -167.949E-03     338.431E-03    -170.482E-03     49.0709E-03     649.459E+03    -88.6330E+06    -111.412E+06    -88.7436E+06    -111.301E+06     649.459E+03    -400.701E+03         52.3491
             692     5.90451E-03     41.7705E-03         9.98847        -4.70562        -5.38362        -4.69481         9.97767        -5.38362    -371.659E-03     339.779E-03    -169.253E-03    -170.525E-03    -168.500E-03     339.026E-03    -170.525E-03     38.7296E-03    -20.5280E+06    -99.8682E+06    -155.085E+06    -99.8878E+06    -155.066E+06    -20.5280E+06    -79.4475E+03         51.7472
             693     5.06295E-03     41.7341E-03         10.3414        -4.95100        -5.47304        -4.94548         10.3359        -5.47304    -207.084E-03     340.117E-03    -169.573E-03    -170.544E-03    -169.147E-03     339.691E-03    -170.544E-03     29.1037E-03    -41.9753E+06    -110.909E+06    -205.150E+06    -110.920E+06    -205.139E+06    -41.9753E+06      448.54E+03         51.1814
             694     4.21781E-03     41.7086E-03         10.6783        -5.18995        -5.55123        -5.18129         10.6697        -5.55123    -13.8111E-03     340.346E-03    -169.831E-03    -170.515E-03    -169.606E-03     340.121E-03    -170.515E-03     21.1009E-03    -64.1394E+06    -122.872E+06    -250.834E+06    -122.878E+06    -250.827E+06    -64.1394E+06     502.672E+03         50.6638
             695     3.37476E-03     41.6926E-03         10.9627        -5.38495        -5.61821        -5.36362         10.9414        -5.61821    -372.906E-03     340.424E-03    -169.995E-03    -170.429E-03    -169.893E-03     340.323E-03    -170.429E-03     13.9120E-03    -88.4830E+06    -134.231E+06    -285.890E+06    -134.241E+06    -285.880E+06    -88.4830E+06     621.362E+03         50.2112
             696     2.53236E-03     41.6851E-03         11.2207        -5.56781        -5.67449        -5.54803         11.1957        -5.66919    -296.455E-03     340.318E-03    -169.937E-03    -170.381E-03    -169.947E-03     340.282E-03    -170.335E-03     8.18993E-03    -113.520E+06    -143.426E+06    -318.149E+06    -143.433E+06    -318.142E+06    -113.520E+06     172.803E+03         49.8403
             697     1.68712E-03     41.6798E-03         11.3112        -5.62247        -5.72256        -5.60355         11.2869        -5.71726     94.3237E-03     340.402E-03    -169.986E-03    -170.415E-03    -170.163E-03     340.391E-03    -170.228E-03     4.04918E-03    -136.667E+06    -152.607E+06    -345.777E+06    -152.614E+06    -345.771E+06    -136.667E+06    -90.8516E+03         49.5645
             698     845.058E-06     41.6782E-03         11.5254        -5.02210        -6.57638        -4.91499         11.4183        -6.57638     600.748E-03     340.204E-03    -169.095E-03    -171.108E-03    -170.171E-03     340.201E-03    -170.030E-03     1.91882E-03    -153.929E+06    -160.823E+06    -362.947E+06    -159.535E+06    -362.933E+06    -155.231E+06     104.467E+03         49.3914
             699     14.3533E-03     41.3686E-03         3.72333    -286.390E-03        -3.78433    -277.135E-03         3.71408        -3.78433     68.8486E-03     345.708E-03    -170.046E-03    -175.662E-03    -169.202E-03     339.351E-03    -170.149E-03     105.122E-03     110.746E+06     107.867E+06    -7.15834E+06    -7.15505E+06     107.864E+06     110.746E+06    -380.560E+03         63.4518
             700     13.5090E-03     41.1693E-03         4.52811    -841.209E-03        -3.97318    -831.004E-03         4.51791        -3.97318     162.122E-03     346.311E-03    -170.153E-03    -176.158E-03    -168.839E-03     338.992E-03    -170.153E-03     118.693E-03     101.533E+06     96.0164E+06    -14.0609E+06    -14.0532E+06     96.0088E+06     101.533E+06    -337.044E+03         61.7372
             701     12.6642E-03     41.0592E-03         5.29607        -1.37649        -4.15036        -1.36853         5.28811        -4.15036     284.334E-03     342.540E-03    -170.161E-03    -172.379E-03    -168.055E-03     338.217E-03    -170.161E-03     93.6488E-03     95.1008E+06     84.3506E+06    -21.9774E+06    -21.9683E+06     84.3415E+06     95.1008E+06    -465.958E+03         59.9037
             702     11.8205E-03     40.9350E-03         6.02005        -1.88759        -4.31607        -1.87687         6.00933        -4.31607     400.927E-03     342.117E-03    -170.080E-03    -172.037E-03    -167.608E-03     337.759E-03    -170.150E-03     93.9982E-03     86.3361E+06     77.0235E+06    -29.9040E+06    -29.9003E+06     77.0197E+06     86.3361E+06    -211.681E+03         58.1660
             703     10.9741E-03     40.8293E-03         6.68965        -2.36231        -4.46967        -2.35137         6.67870        -4.46967     354.213E-03     340.405E-03    -169.976E-03    -170.429E-03    -166.681E-03     336.837E-03    -170.156E-03     85.0623E-03     75.2787E+06     69.9705E+06    -38.2642E+06    -38.2573E+06     72.2164E+06     73.0260E+06     612.599E+03         56.6691
             704     10.1283E-03     40.7266E-03         7.30475        -2.79708        -4.61143        -2.79379         7.30147        -4.61143     178.876E-03     340.379E-03    -170.086E-03    -170.293E-03    -166.936E-03     337.150E-03    -170.214E-03     80.9090E-03     68.3714E+06     64.7785E+06    -47.2336E+06    -47.2194E+06     68.3573E+06     64.7785E+06     724.630E+03         55.4551
             705     9.28453E-03     40.6345E-03         7.89204        -3.21471        -4.74125        -3.20242         7.87974        -4.74125     712.534E-03     340.063E-03    -169.726E-03    -170.337E-03    -167.040E-03     337.329E-03    -170.289E-03     74.3681E-03     60.4469E+06     56.2952E+06    -55.9646E+06    -55.9543E+06     57.6249E+06     59.1067E+06    -121.136E+03         54.4856
             706     8.43923E-03     40.5486E-03         8.43318        -3.60106        -4.85921        -3.58756         8.41967        -4.85921     142.917E-03     339.674E-03    -169.288E-03    -170.386E-03    -167.064E-03     337.451E-03    -170.386E-03     67.0407E-03     42.8431E+06     6.08647E+06    -65.9698E+06    -65.9523E+06     6.06904E+06     42.8431E+06    -740.157E+03         53.6874
             707     7.59311E-03     40.4753E-03         8.91377        -3.94250        -4.96516        -3.93677         8.90804        -4.96516    -121.523E-03     340.069E-03    -169.593E-03    -170.476E-03    -167.880E-03     338.356E-03    -170.476E-03     58.7692E-03     21.8955E+06    -59.4708E+06    -81.1935E+06    -77.2195E+06    -63.4448E+06     21.8955E+06    -726.204E+03         52.9918
             708     6.75041E-03     40.4148E-03         9.35398        -4.25902        -5.06021        -4.24098         9.33595        -5.06021    -475.816E-03     340.183E-03    -169.695E-03    -170.488E-03    -168.523E-03     339.011E-03    -170.488E-03     48.4937E-03     1.25516E+06    -89.2212E+06    -111.528E+06    -89.2791E+06    -111.470E+06     1.25516E+06    -181.623E+03         52.3532
             709     5.90805E-03     40.3652E-03         9.73083        -4.52826        -5.14551        -4.51111         9.71368        -5.14551    -541.331E-03     339.849E-03    -169.372E-03    -170.477E-03    -168.643E-03     339.120E-03    -170.477E-03     38.1863E-03    -20.6447E+06    -101.098E+06    -155.787E+06    -101.105E+06    -155.779E+06    -20.6447E+06     289.156E+03         51.7511
             710     5.06236E-03     40.3288E-03         10.0482        -4.75266        -5.22197        -4.74084         10.0364        -5.22197    -437.540E-03     339.878E-03    -169.392E-03    -170.486E-03    -168.962E-03     339.448E-03    -170.486E-03     29.2842E-03    -43.1268E+06    -113.115E+06    -204.981E+06    -113.125E+06    -204.971E+06    -43.1268E+06     657.974E+03         51.1855
             711     4.21959E-03     40.3048E-03         10.3475        -4.96858        -5.28920        -4.95089         10.3298        -5.28920    -123.530E-03     340.105E-03    -169.630E-03    -170.475E-03    -169.401E-03     339.876E-03    -170.475E-03     21.2281E-03    -66.4524E+06    -124.585E+06    -248.990E+06    -124.591E+06    -248.984E+06    -66.4524E+06     135.085E+03         50.6685
             712     3.37514E-03     40.2871E-03         10.6138        -5.16001        -5.34762        -5.11491         10.5687        -5.34762    -645.808E-03     340.247E-03    -169.815E-03    -170.432E-03    -169.713E-03     340.145E-03    -170.432E-03     14.0231E-03     -90.886E+06    -134.955E+06    -285.967E+06    -134.963E+06    -285.959E+06     -90.886E+06    -956.654E+03         50.2168
             713     2.53065E-03     40.2808E-03         10.8604        -5.33002        -5.40492        -5.27650         10.7955        -5.39358    -193.733E-03     340.508E-03    -170.113E-03    -170.396E-03    -170.132E-03     340.467E-03    -170.336E-03     8.96453E-03    -115.538E+06    -145.015E+06    -318.698E+06    -145.023E+06    -318.690E+06    -115.538E+06    -264.566E+03         49.8468
             714     1.68886E-03     40.2753E-03         11.0101        -5.39394        -5.47865        -5.34890         10.9191        -5.43270    -493.085E-03     340.380E-03    -169.991E-03    -170.389E-03    -170.177E-03     340.364E-03    -170.187E-03     5.39083E-03    -137.638E+06    -153.427E+06    -345.293E+06    -153.433E+06    -345.287E+06    -137.638E+06     620.178E+03         49.5717
             715     843.801E-06     40.2754E-03         11.5022        -4.79623        -6.55602        -4.38565         11.0570        -6.52141         1.88746     340.111E-03    -169.195E-03    -170.916E-03    -169.807E-03     340.105E-03    -170.298E-03     2.15146E-03    -153.316E+06    -159.539E+06    -361.844E+06    -158.861E+06    -361.832E+06    -154.006E+06     343.035E+03         49.3989
             716     14.3545E-03     39.9643E-03         3.77929    -358.841E-03        -3.61024    -349.250E-03         3.76970        -3.61024     31.9390E-03     346.051E-03    -170.124E-03    -175.927E-03    -169.586E-03     339.710E-03    -170.124E-03     105.294E-03     110.895E+06     108.581E+06    -7.08869E+06    -7.08576E+06     108.578E+06     110.895E+06    -82.4994E+03         63.4341
             717     13.5095E-03     39.7641E-03         4.51513    -868.514E-03        -3.77069    -859.009E-03         4.50563        -3.77069     94.6897E-03     346.231E-03    -170.114E-03    -176.117E-03    -168.796E-03     338.911E-03    -170.114E-03     118.899E-03     100.847E+06     95.9186E+06    -14.4727E+06    -14.4695E+06     95.9154E+06     100.847E+06     33.3807E+03         61.7295
             718     12.6638E-03     39.6568E-03         5.21212        -1.35723        -3.92031        -1.35085         5.20575        -3.92031     222.572E-03     341.657E-03    -170.155E-03    -171.502E-03    -167.118E-03     337.273E-03    -170.155E-03     94.1567E-03     94.6531E+06     84.3372E+06    -21.8152E+06    -21.8133E+06     84.3353E+06     94.6531E+06     341.372E+03         59.9061
             719     11.8176E-03     39.5282E-03         5.86892        -1.82341        -4.06030        -1.81548         5.86100        -4.06030     306.762E-03     341.782E-03    -170.192E-03    -171.590E-03    -167.215E-03     337.407E-03    -170.192E-03     94.0722E-03     85.4710E+06     76.6647E+06    -30.2060E+06    -30.2040E+06     76.6628E+06     85.4710E+06     141.414E+03         58.1755
             720     10.9747E-03     39.4267E-03         6.47837        -2.25975        -4.18860        -2.25149         6.47010        -4.18860     259.755E-03     341.182E-03    -170.085E-03    -171.097E-03    -167.409E-03     337.604E-03    -170.195E-03     85.3072E-03     74.9904E+06     70.9652E+06    -38.3135E+06    -38.3059E+06     72.0557E+06     73.8923E+06    -306.088E+03         56.6825
             721     10.1293E-03     39.3233E-03         7.04026        -2.66255        -4.30539        -2.66066         7.03837        -4.30539     66.6936E-03     340.638E-03    -169.910E-03    -170.728E-03    -167.198E-03     337.414E-03    -170.216E-03     80.8630E-03     69.9333E+06     67.0304E+06    -45.6174E+06    -45.6040E+06     69.9199E+06     67.0304E+06    -853.295E+03         55.4689
             722     9.28426E-03     39.2278E-03         7.56656        -3.04153        -4.41047        -3.03176         7.55679        -4.41047     593.779E-03     340.085E-03    -169.768E-03    -170.317E-03    -167.119E-03     337.389E-03    -170.270E-03     73.8643E-03     61.4758E+06     56.0573E+06    -55.0263E+06    -55.0196E+06     57.8554E+06     59.6710E+06    -617.490E+03         54.4969
             723     8.43975E-03     39.1471E-03         8.04474        -3.38789        -4.50469        -3.37248         8.02934        -4.50469     27.5851E-03     339.972E-03    -169.581E-03    -170.391E-03    -167.464E-03     337.802E-03    -170.338E-03     66.2450E-03     43.0668E+06     6.33672E+06    -66.4470E+06    -66.4197E+06     6.30946E+06     43.0668E+06      79.824E+03         53.6955
             724     7.59544E-03     39.0701E-03         8.46601        -3.69413        -4.58804        -3.68621         8.45810        -4.58804    -252.914E-03     339.898E-03    -169.450E-03    -170.448E-03    -167.874E-03     338.270E-03    -170.396E-03     57.2868E-03     21.2433E+06    -59.4155E+06    -82.5007E+06    -78.6045E+06    -63.3117E+06     21.2433E+06     189.936E+03         52.9971
             725     6.75123E-03     39.0078E-03         8.86004        -3.98857        -4.66107        -3.96497         8.83644        -4.66107    -619.614E-03     339.722E-03    -169.300E-03    -170.422E-03    -168.170E-03     338.592E-03    -170.422E-03     47.6948E-03     895.158E+03    -90.3289E+06    -112.435E+06    -90.3361E+06    -112.428E+06     895.158E+03     376.674E+03         52.3562
             726     5.90645E-03     38.9610E-03         9.18626        -4.22745        -4.72473        -4.20451         9.16332        -4.72473    -689.695E-03     339.563E-03    -169.113E-03    -170.449E-03    -168.368E-03     338.817E-03    -170.449E-03     38.6462E-03    -20.2134E+06    -101.978E+06    -156.043E+06    -101.995E+06    -156.026E+06    -20.2134E+06     954.636E+03         51.7529
             727     5.06279E-03     38.9259E-03         9.46002        -4.42515        -4.77932        -4.40836         9.44324        -4.77932    -601.007E-03     339.670E-03    -169.185E-03    -170.485E-03    -168.733E-03     339.218E-03    -170.485E-03     30.0150E-03    -43.9539E+06    -113.592E+06    -203.521E+06    -113.610E+06    -203.503E+06    -43.9539E+06     566.170E+03         51.1870
             728     4.21810E-03     38.8978E-03         9.69071        -4.58870        -4.82630        -4.56538         9.66740        -4.82630    -238.760E-03     339.933E-03    -169.416E-03    -170.517E-03    -169.176E-03     339.693E-03    -170.517E-03     21.6964E-03    -67.9051E+06    -124.327E+06    -247.183E+06    -124.337E+06    -247.174E+06    -67.9051E+06    -685.456E+03         50.6707
             729     3.37463E-03     38.8855E-03         9.90136        -4.73983        -4.86924        -4.68124         9.84277        -4.86924    -793.218E-03     340.249E-03    -169.713E-03    -170.536E-03    -169.604E-03     340.141E-03    -170.536E-03     14.6093E-03    -91.7141E+06    -134.926E+06    -286.469E+06    -134.941E+06    -286.454E+06    -91.7141E+06    -587.751E+03         50.2201
             730     2.53117E-03     38.8738E-03         10.0924        -4.87359        -4.91531        -4.78696         9.99970        -4.90927    -130.812E-03     340.501E-03    -169.949E-03    -170.552E-03    -169.920E-03     340.457E-03    -170.537E-03     9.02759E-03    -116.476E+06    -145.308E+06    -319.487E+06    -145.330E+06    -319.464E+06    -116.476E+06    -385.179E+03         49.8515
             731     1.68614E-03     38.8728E-03         10.2825        -4.93303        -5.03691        -4.88365         10.1387        -4.94254    -670.187E-03     340.670E-03    -170.084E-03    -170.586E-03    -170.085E-03     340.656E-03    -170.572E-03     5.08833E-03    -139.946E+06    -154.464E+06    -344.927E+06    -154.477E+06    -344.914E+06    -139.946E+06    -640.584E+03         49.5778
             732     842.828E-06     38.8705E-03         11.0263        -4.43959        -6.23179        -3.76693         10.2653        -6.14345         2.53926     341.130E-03    -169.846E-03    -171.284E-03    -171.064E-03     341.124E-03    -170.060E-03     2.29137E-03    -155.246E+06    -161.565E+06    -362.089E+06    -160.879E+06    -362.085E+06    -155.935E+06    -786.978E+03         49.4061
             733     14.3536E-03     38.5577E-03         3.75639    -431.544E-03        -3.31156    -420.610E-03         3.74546        -3.31156     5.03612E-03     345.996E-03    -170.049E-03    -175.947E-03    -169.383E-03     339.521E-03    -170.138E-03     106.277E-03     111.333E+06     108.779E+06    -6.58839E+06    -6.58027E+06     108.771E+06     111.333E+06     564.803E+03         63.4154
             734     13.5095E-03     38.3603E-03         4.38636    -866.084E-03        -3.43840    -856.233E-03         4.37651        -3.43840     36.1142E-03     346.614E-03    -170.130E-03    -176.483E-03    -169.077E-03     339.207E-03    -170.130E-03     119.343E-03     101.529E+06     96.6450E+06    -14.0348E+06    -14.0256E+06     96.6358E+06     101.529E+06     768.814E+03         61.7211
             735     12.6646E-03     38.2535E-03         4.97838        -1.28266        -3.55623        -1.27681         4.97253        -3.55623     155.526E-03     341.651E-03    -170.160E-03    -171.491E-03    -167.174E-03     337.333E-03    -170.160E-03     93.4180E-03     94.7253E+06     84.2236E+06    -21.5360E+06    -21.5332E+06     84.2208E+06     94.7253E+06     383.082E+03         59.9098
             736     11.8187E-03     38.1268E-03         5.54193        -1.69000        -3.66631        -1.68374         5.53567        -3.66631     204.180E-03     341.478E-03    -170.204E-03    -171.274E-03    -166.910E-03     337.114E-03    -170.204E-03     93.9320E-03     85.8330E+06     77.7261E+06    -28.8968E+06    -28.8950E+06     77.7243E+06     85.8330E+06     71.6897E+03         58.1878
             737     10.9721E-03     38.0188E-03         6.07316        -2.07690        -3.76505        -2.07022         6.06648        -3.76505     160.521E-03     341.392E-03    -170.207E-03    -171.185E-03    -167.637E-03     337.844E-03    -170.207E-03     84.9630E-03     76.0835E+06     71.8794E+06    -37.2182E+06    -37.2061E+06     74.0678E+06     73.8830E+06    -912.591E+03         56.6984
             738     10.1301E-03     37.9186E-03         6.56483        -2.43361        -3.85321        -2.43209         6.56331        -3.85321    -46.9593E-03     340.956E-03    -170.008E-03    -170.949E-03    -167.555E-03     337.759E-03    -170.204E-03     80.6044E-03     69.4765E+06     65.8389E+06    -46.6944E+06    -46.6775E+06     69.4595E+06     65.8389E+06    -1.01643E+06         55.4844
             739     9.28448E-03     37.8258E-03         7.01548        -2.76518        -3.93013        -2.75794         7.00824        -3.93013     456.415E-03     340.297E-03    -169.909E-03    -170.388E-03    -167.344E-03     337.576E-03    -170.232E-03     74.2253E-03     59.8037E+06     55.2905E+06    -57.3741E+06    -57.3683E+06     56.7218E+06     58.3666E+06    -143.020E+03         54.5094
             740     8.44033E-03     37.7390E-03         7.42140        -3.06551        -3.99691        -3.04823         7.40412        -3.99691    -101.997E-03     340.379E-03    -170.063E-03    -170.316E-03    -167.912E-03     338.175E-03    -170.263E-03     66.8252E-03     42.0946E+06     5.93246E+06    -68.7837E+06    -68.7672E+06     5.91603E+06     42.0946E+06     585.375E+03         53.7043
             741     7.59746E-03     37.6667E-03         7.76326        -3.31848        -4.05476        -3.30767         7.75245        -4.05476    -401.508E-03     339.938E-03    -169.602E-03    -170.335E-03    -167.982E-03     338.265E-03    -170.282E-03     58.0754E-03     21.0888E+06    -59.3393E+06    -82.8697E+06    -79.3808E+06    -62.8282E+06     21.0888E+06     1.03335E+06         53.0025
             742     6.75178E-03     37.6048E-03         8.09163        -3.57498        -4.10420        -3.54679         8.06344        -4.10420    -742.478E-03     339.073E-03    -168.748E-03    -170.325E-03    -167.619E-03     337.944E-03    -170.325E-03     47.5501E-03     663.002E+03    -90.0507E+06    -111.953E+06    -90.1951E+06    -111.809E+06     663.002E+03     824.028E+03         52.3590
             743     5.90673E-03     37.5572E-03         8.35467        -3.77562        -4.14536        -3.74759         8.32664        -4.14536    -827.438E-03     339.131E-03    -168.728E-03    -170.403E-03    -168.009E-03     338.412E-03    -170.403E-03     37.9284E-03    -20.4421E+06    -101.396E+06    -155.803E+06    -101.427E+06    -155.771E+06    -20.4421E+06     88.7828E+03         51.7540
             744     5.06257E-03     37.5198E-03         8.56013        -3.92149        -4.17941        -3.90393         8.54258        -4.17941    -677.540E-03     339.478E-03    -169.003E-03    -170.476E-03    -168.572E-03     339.047E-03    -170.476E-03     29.2648E-03    -43.2281E+06    -112.356E+06    -201.703E+06    -112.386E+06    -201.673E+06    -43.2281E+06    -543.929E+03         51.1877
             745     4.21834E-03     37.4962E-03         8.72322        -4.02915        -4.21001        -4.00782         8.70189        -4.21001    -356.459E-03     339.704E-03    -169.153E-03    -170.552E-03    -168.927E-03     339.479E-03    -170.552E-03     21.0722E-03    -67.1884E+06    -124.247E+06    -246.717E+06    -124.254E+06    -246.710E+06    -67.1884E+06    -460.824E+03         50.6716
             746     3.37378E-03     37.4779E-03         8.88661        -4.14147        -4.24060        -4.09112         8.83626        -4.24060    -796.845E-03     340.276E-03    -169.664E-03    -170.612E-03    -169.560E-03     340.172E-03    -170.612E-03     14.1897E-03    -91.6674E+06    -135.884E+06    -286.861E+06    -135.906E+06    -286.839E+06    -91.6674E+06    -441.878E+03         50.2219
             747     2.53014E-03     37.4714E-03         9.01220        -4.22986        -4.27499        -4.15200         8.93434        -4.27499    -206.205E-03     340.701E-03    -170.032E-03    -170.669E-03    -170.042E-03     340.664E-03    -170.622E-03     8.24384E-03    -115.703E+06    -146.030E+06    -319.120E+06    -146.064E+06    -319.085E+06    -115.703E+06    -490.439E+03         49.8543
             748     1.68691E-03     37.4667E-03         9.16935        -4.26742        -4.40381        -4.26347         9.06473        -4.30313    -489.541E-03     340.946E-03    -170.290E-03    -170.656E-03    -170.356E-03     340.937E-03    -170.581E-03     4.04733E-03    -139.304E+06    -155.442E+06    -344.886E+06    -155.458E+06    -344.870E+06    -139.304E+06    -420.325E+03         49.5816
             749     843.730E-06     37.4652E-03         9.65322        -3.52548        -5.67950        -3.04354         9.07060        -5.57882         2.02425     340.991E-03    -170.038E-03    -170.953E-03    -170.810E-03     340.987E-03    -170.177E-03     1.86861E-03    -156.772E+06    -163.733E+06    -363.362E+06    -162.887E+06    -363.361E+06    -157.619E+06    -533.892E+03         49.4106
             750     14.3533E-03     37.1571E-03         3.66371    -512.668E-03        -2.90353    -499.413E-03         3.65046        -2.90353    -23.6098E-03     345.576E-03    -169.954E-03    -175.622E-03    -168.894E-03     339.062E-03    -170.167E-03     106.182E-03     110.786E+06     107.832E+06    -6.57180E+06    -6.56393E+06     107.824E+06     110.786E+06     159.528E+03         63.3969
             751     13.5074E-03     36.9514E-03         4.16633    -861.993E-03        -2.99144    -851.621E-03         4.15595        -2.99144    -44.8843E-03     346.379E-03    -170.193E-03    -176.186E-03    -168.690E-03     338.882E-03    -170.193E-03     120.009E-03     101.934E+06     96.7091E+06    -12.7995E+06    -12.7903E+06     96.6999E+06     101.934E+06     551.641E+03         61.7123
             752     12.6641E-03     36.8507E-03         4.63371        -1.19341        -3.07180        -1.18790         4.62820        -3.07180     57.9490E-03     342.613E-03    -170.216E-03    -172.397E-03    -168.000E-03     338.216E-03    -170.216E-03     94.4382E-03     96.1419E+06     85.5870E+06    -19.7366E+06    -19.7338E+06     85.5842E+06     96.1419E+06     408.907E+03         59.9132
             753     11.8185E-03     36.7236E-03         5.08096        -1.51963        -3.14652        -1.51424         5.07557        -3.14652     81.2155E-03     342.552E-03    -170.203E-03    -172.349E-03    -167.921E-03     338.124E-03    -170.203E-03     94.7986E-03     87.7802E+06     79.0458E+06    -27.3940E+06    -27.3915E+06     79.0433E+06     87.7802E+06     408.745E+03         58.2012
             754     10.9754E-03     36.6137E-03         5.50357        -1.83225        -3.21115        -1.82638         5.49770        -3.21115     43.5996E-03     340.985E-03    -170.176E-03    -170.809E-03    -167.275E-03     337.451E-03    -170.176E-03     84.7293E-03     77.2382E+06     71.5769E+06    -36.6960E+06    -36.6623E+06     74.8184E+06     73.9628E+06     697.983E+03         56.7153
             755     10.1282E-03     36.5143E-03         5.89739        -2.12510        -3.26675        -2.12275         5.89504        -3.26675    -178.094E-03     340.862E-03    -170.183E-03    -170.679E-03    -167.513E-03     337.696E-03    -170.183E-03     80.2048E-03     69.1711E+06     64.5590E+06    -47.6223E+06    -47.5880E+06     69.1369E+06     64.5590E+06     814.761E+03         55.4996
             756     9.28548E-03     36.4193E-03         6.24985        -2.38612        -3.31249        -2.38155         6.24527        -3.31249     282.757E-03     340.719E-03    -170.135E-03    -170.584E-03    -167.823E-03     338.013E-03    -170.190E-03     74.0882E-03     59.5400E+06     55.8644E+06    -57.8939E+06    -57.8913E+06     57.1986E+06     58.2032E+06     333.306E+03         54.5213
             757     8.44088E-03     36.3360E-03         6.56633        -2.62888        -3.35015        -2.60835         6.54580        -3.35015    -264.102E-03     339.928E-03    -169.686E-03    -170.241E-03    -167.520E-03     337.735E-03    -170.215E-03     66.6191E-03     42.1707E+06     5.59898E+06    -68.0177E+06    -68.0155E+06     5.59678E+06     42.1707E+06     46.7654E+03         53.7124
             758     7.59535E-03     36.2599E-03         6.81266        -2.81915        -3.38164        -2.80272         6.79623        -3.38164    -589.549E-03     339.497E-03    -169.218E-03    -170.280E-03    -167.532E-03     337.812E-03    -170.280E-03     58.2609E-03     21.5153E+06    -60.1751E+06    -81.6701E+06    -78.5793E+06    -63.2659E+06     21.5153E+06     430.454E+03         53.0074
             759     6.75276E-03     36.2023E-03         7.04639        -3.00530        -3.40861        -2.97204         7.01313        -3.40861    -863.106E-03     339.636E-03    -169.275E-03    -170.360E-03    -168.139E-03     338.451E-03    -170.312E-03     48.8065E-03     1.27677E+06    -88.7940E+06    -110.520E+06    -88.9446E+06    -110.370E+06     1.27677E+06     351.829E+03         52.3621
             760     5.90823E-03     36.1532E-03         7.23055        -3.14386        -3.43244        -3.10920         7.19590        -3.43244    -978.506E-03     339.637E-03    -169.277E-03    -170.360E-03    -168.583E-03     338.894E-03    -170.312E-03     38.3914E-03    -19.3148E+06    -99.7035E+06    -153.857E+06    -99.7280E+06    -153.833E+06    -19.3148E+06    -496.240E+03         51.7565
             761     5.06304E-03     36.1170E-03         7.37350        -3.23806        -3.45457        -3.22180         7.35725        -3.45457    -718.962E-03     339.298E-03    -168.964E-03    -170.334E-03    -168.566E-03     338.900E-03    -170.334E-03     28.0621E-03    -41.0578E+06    -111.082E+06    -201.676E+06    -111.102E+06    -201.656E+06    -41.0578E+06    -676.739E+03         51.1897
             762     4.21872E-03     36.0910E-03         7.49112        -3.31127        -3.47758        -3.29555         7.47541        -3.47758    -513.128E-03     339.342E-03    -168.938E-03    -170.404E-03    -168.732E-03     339.136E-03    -170.404E-03     20.1803E-03    -64.3486E+06    -122.614E+06    -246.486E+06    -122.616E+06    -246.483E+06    -64.3486E+06    -139.241E+03         50.6731
             763     3.37478E-03     36.0752E-03         7.62406        -3.40850        -3.50241        -3.38189         7.59589        -3.50084    -717.552E-03     339.784E-03    -169.290E-03    -170.494E-03    -169.193E-03     339.686E-03    -170.494E-03     13.6950E-03    -89.7123E+06    -134.577E+06    -285.946E+06    -134.593E+06    -285.930E+06    -89.7123E+06    -430.269E+03         50.2230
             764     2.53080E-03     36.0646E-03         7.69755        -3.46103        -3.52823        -3.42614         7.66108        -3.52667    -446.816E-03     340.527E-03    -169.952E-03    -170.575E-03    -169.963E-03     340.490E-03    -170.528E-03     8.30172E-03    -115.156E+06    -145.958E+06    -319.799E+06    -145.988E+06    -319.770E+06    -115.156E+06    -593.609E+03         49.8553
             765     1.68774E-03     36.0626E-03         7.83451        -3.47579        -3.64301        -3.54736         7.80147        -3.53840     135.064E-06     340.928E-03    -170.341E-03    -170.588E-03    -170.521E-03     340.917E-03    -170.396E-03     4.35858E-03    -138.128E+06    -155.677E+06    -344.858E+06    -155.693E+06    -344.842E+06    -138.128E+06     136.675E+03         49.5826
             766     843.885E-06     36.0603E-03         7.98647        -2.29388        -4.96480        -2.21031         7.79830        -4.86018     511.961E-03     340.428E-03    -169.984E-03    -170.444E-03    -170.321E-03     340.426E-03    -170.105E-03     1.34255E-03    -156.654E+06    -163.517E+06    -363.078E+06    -162.677E+06    -363.070E+06    -157.501E+06     485.984E+03         49.4117
             767     14.3532E-03     35.7499E-03         3.51709    -609.571E-03        -2.40369    -592.885E-03         3.50040        -2.40369    -69.4242E-03     345.316E-03    -169.994E-03    -175.322E-03    -168.696E-03     338.880E-03    -170.183E-03     105.869E-03     110.416E+06     107.855E+06    -6.49092E+06    -6.48900E+06     107.853E+06     110.416E+06    -398.534E+03         63.3798
             768     13.5078E-03     35.5520E-03         3.88880    -869.625E-03        -2.44820    -857.106E-03         3.87628        -2.44820    -133.517E-03     345.888E-03    -170.227E-03    -175.661E-03    -168.286E-03     338.513E-03    -170.227E-03     118.998E-03     101.340E+06     96.0282E+06    -13.5548E+06    -13.5525E+06     96.0259E+06     101.340E+06    -185.227E+03         61.7046
             769     12.6597E-03     35.4430E-03         4.22275        -1.11167        -2.48573        -1.10539         4.21646        -2.48573    -38.2989E-03     342.668E-03    -170.259E-03    -172.409E-03    -168.072E-03     338.331E-03    -170.259E-03     93.8217E-03     95.5149E+06     85.9511E+06    -21.2081E+06    -21.2061E+06     85.9491E+06     95.5149E+06     153.050E+03         59.9160
             770     11.8196E-03     35.3153E-03         4.53386        -1.34435        -2.51968        -1.33848         4.52798        -2.51968    -36.7590E-03     343.041E-03    -170.227E-03    -172.814E-03    -168.436E-03     338.663E-03    -170.227E-03     94.3724E-03     87.3022E+06     79.4150E+06    -29.6193E+06    -29.6156E+06     79.4114E+06     87.3022E+06     362.389E+03         58.2118
             771     10.9737E-03     35.2123E-03         4.81928        -1.56289        -2.54560        -1.55594         4.81233        -2.54560    -81.5670E-03     341.515E-03    -170.170E-03    -171.345E-03    -167.773E-03     337.943E-03    -170.170E-03     85.2776E-03     76.8777E+06     72.3928E+06    -37.4663E+06    -37.4376E+06     73.8431E+06     75.3986E+06     1.21832E+06         56.7291
             772     10.1304E-03     35.1083E-03         5.07479        -1.75827        -2.56479        -1.75314         5.06966        -2.56479    -310.593E-03     340.869E-03    -170.060E-03    -170.809E-03    -167.511E-03     337.667E-03    -170.156E-03     80.6356E-03     71.0645E+06     67.3373E+06    -45.1020E+06    -45.0693E+06     70.7978E+06     67.5715E+06     1.45400E+06         55.5122
             773     9.28535E-03     35.0139E-03         5.28952        -1.91861        -2.57745        -1.91587         5.28678        -2.57745     119.566E-03     340.327E-03    -169.913E-03    -170.414E-03    -167.413E-03     337.590E-03    -170.176E-03     74.4875E-03     62.3097E+06     56.8744E+06    -54.3118E+06    -54.3034E+06     58.8800E+06     60.2957E+06     708.632E+03         54.5305
             774     8.44176E-03     34.9309E-03         5.49740        -2.08240        -2.58625        -2.05749         5.47249        -2.58625    -400.654E-03     339.926E-03    -169.657E-03    -170.270E-03    -167.471E-03     337.694E-03    -170.223E-03     67.1705E-03     43.5401E+06     5.84760E+06    -65.5651E+06    -65.5609E+06     5.84335E+06     43.5401E+06     207.803E+03         53.7186
             775     7.59691E-03     34.8589E-03         5.64800        -2.20047        -2.59298        -2.17565         5.62318        -2.59298    -756.817E-03     339.663E-03    -169.364E-03    -170.300E-03    -167.722E-03     338.001E-03    -170.280E-03     57.8304E-03     22.5246E+06    -59.0502E+06    -80.9516E+06    -77.1183E+06    -62.8836E+06     22.5246E+06    -342.182E+03         53.0118
             776     6.74971E-03     34.7961E-03         5.78573        -2.31273        -2.59974        -2.27083         5.74383        -2.59974    -971.277E-03     339.684E-03    -169.342E-03    -170.341E-03    -168.252E-03     338.545E-03    -170.293E-03     47.7977E-03     2.44239E+06    -88.0921E+06    -109.737E+06    -88.1429E+06    -109.686E+06     2.44239E+06    -512.752E+03         52.3656
             777     5.90776E-03     34.7470E-03         5.88664        -2.38752        -2.60958        -2.33942         5.83854        -2.60958        -1.14479     339.736E-03    -169.420E-03    -170.316E-03    -168.733E-03     339.000E-03    -170.267E-03     38.3058E-03    -18.5273E+06    -99.6094E+06    -152.999E+06    -99.6134E+06    -152.995E+06    -18.5273E+06     58.2791E+03         51.7597
             778     5.06559E-03     34.7135E-03         5.96133        -2.42765        -2.62415        -2.40903         5.94271        -2.62415    -758.925E-03     339.602E-03    -169.368E-03    -170.235E-03    -168.938E-03     339.173E-03    -170.235E-03     29.1704E-03    -40.8804E+06    -111.495E+06    -201.549E+06    -111.498E+06    -201.545E+06    -40.8804E+06     199.444E+03         51.1928
             779     4.22051E-03     34.6886E-03         6.05718        -2.48389        -2.64357        -2.46695         6.04024        -2.64357    -689.879E-03     339.388E-03    -169.165E-03    -170.223E-03    -168.941E-03     339.165E-03    -170.223E-03     20.9300E-03    -64.8162E+06    -123.404E+06    -246.231E+06    -123.407E+06    -246.228E+06    -64.8162E+06    -25.3428E+03         50.6758
             780     3.37558E-03     34.6708E-03         6.18067        -2.56769        -2.66541        -2.55498         6.16639        -2.66385    -581.083E-03     339.388E-03    -169.122E-03    -170.266E-03    -169.021E-03     339.287E-03    -170.266E-03     13.9368E-03    -90.0046E+06    -134.132E+06    -284.972E+06    -134.135E+06    -284.969E+06    -90.0046E+06    -23.4776E+03         50.2250
             781     2.53080E-03     34.6621E-03         6.26431        -2.63000        -2.68621        -2.60074         6.23348        -2.68465    -752.162E-03     339.833E-03    -169.483E-03    -170.351E-03    -169.444E-03     339.795E-03    -170.351E-03     8.62578E-03    -116.149E+06    -145.327E+06    -319.830E+06    -145.340E+06    -319.817E+06    -116.149E+06    -224.784E+03         49.8563
             782     1.68672E-03     34.6552E-03         6.47422        -2.64818        -2.87830        -2.71493         6.35136        -2.68868     646.445E-03     340.391E-03    -169.841E-03    -170.550E-03    -169.945E-03     340.379E-03    -170.434E-03     4.48221E-03    -139.725E+06    -154.926E+06    -345.632E+06    -154.940E+06    -345.618E+06    -139.725E+06    -160.477E+03         49.5827
             783     844.098E-06     34.6584E-03         7.04493        -1.80968        -4.28307        -1.26779         6.31342        -4.09344        -1.34107     340.838E-03    -169.936E-03    -170.901E-03    -170.635E-03     340.836E-03    -170.201E-03     2.00000E-03    -155.938E+06    -161.633E+06    -361.365E+06    -161.640E+06    -361.357E+06    -155.938E+06     520.689E+03         49.4114
             784     14.3529E-03     34.3463E-03         3.33949    -713.641E-03        -1.83269    -693.925E-03         3.31977        -1.83269    -100.921E-03     345.703E-03    -170.054E-03    -175.650E-03    -169.147E-03     339.334E-03    -170.187E-03     105.448E-03     110.636E+06     108.607E+06    -7.26026E+06    -7.25567E+06     108.603E+06     110.636E+06    -67.5620E+03         63.3636
             785     13.5073E-03     34.1480E-03         3.56758    -882.140E-03        -1.83150    -867.145E-03         3.55258        -1.83150    -188.702E-03     346.499E-03    -170.190E-03    -176.309E-03    -169.029E-03     339.219E-03    -170.190E-03     118.318E-03     101.299E+06     96.3303E+06    -14.6774E+06    -14.6728E+06     96.3258E+06     101.299E+06     243.816E+03         61.6979
             786     12.6658E-03     34.0384E-03         3.76098        -1.03196        -1.82394        -1.02392         3.75293        -1.82394    -98.1628E-03     342.184E-03    -170.205E-03    -171.979E-03    -167.692E-03     337.896E-03    -170.205E-03     93.1666E-03     95.1564E+06     86.1166E+06    -22.0372E+06    -22.0358E+06     86.1152E+06     95.1564E+06    -61.0124E+03         59.9187
             787     11.8166E-03     33.9108E-03         3.92636        -1.16936        -1.81426        -1.16188         3.91888        -1.81426    -110.319E-03     342.234E-03    -170.200E-03    -172.034E-03    -167.744E-03     337.944E-03    -170.200E-03     93.1947E-03     85.8458E+06     78.6239E+06    -29.6840E+06    -29.6768E+06     78.6168E+06     85.8458E+06    -469.720E+03         58.2198
             788     10.9745E-03     33.8049E-03         4.05625        -1.27832        -1.79876        -1.26910         4.04702        -1.79876    -155.763E-03     341.525E-03    -170.163E-03    -171.362E-03    -167.863E-03     338.025E-03    -170.163E-03     84.4279E-03     76.0362E+06     71.6196E+06    -37.3644E+06    -37.3534E+06     73.3365E+06     74.3083E+06    -607.366E+03         56.7386
             789     10.1302E-03     33.7037E-03         4.15267        -1.35432        -1.78032        -1.34587         4.14423        -1.78032    -379.343E-03     340.726E-03    -170.061E-03    -170.664E-03    -167.325E-03     337.482E-03    -170.158E-03     81.1488E-03     71.1991E+06     67.2539E+06    -45.2399E+06    -45.2297E+06     70.9548E+06     67.4880E+06    -111.556E+03         55.5205
             790     9.28510E-03     33.6110E-03         4.21064        -1.39881        -1.75969        -1.39681         4.20863        -1.75969     20.6178E-03     340.011E-03    -169.781E-03    -170.230E-03    -167.031E-03     337.239E-03    -170.207E-03     74.8821E-03     62.3748E+06     57.1184E+06    -54.7310E+06    -54.7191E+06     59.0896E+06     60.3916E+06     817.962E+03         54.5362
             791     8.43884E-03     33.5255E-03         4.28941        -1.46791        -1.73981        -1.43669         4.25819        -1.73981    -467.831E-03     340.140E-03    -169.853E-03    -170.287E-03    -167.644E-03     337.911E-03    -170.267E-03     67.1567E-03     44.1157E+06     7.26808E+06    -65.3411E+06    -65.3316E+06     7.25861E+06     44.1157E+06     818.936E+03         53.7221
             792     7.59597E-03     33.4531E-03         4.33856        -1.51118        -1.72253        -1.47324         4.30062        -1.72253    -866.279E-03     340.391E-03    -170.088E-03    -170.303E-03    -168.429E-03     338.704E-03    -170.275E-03     58.3724E-03     22.8749E+06    -57.7480E+06    -80.0168E+06    -76.5500E+06    -61.2148E+06     22.8749E+06     347.245E+03         53.0144
             793     6.75553E-03     33.3919E-03         4.39480        -1.56400        -1.70961        -1.50461         4.33540        -1.70961        -1.05679     339.687E-03    -169.436E-03    -170.251E-03    -168.275E-03     338.518E-03    -170.243E-03     48.4023E-03     1.64598E+06    -88.6571E+06    -110.032E+06    -88.8530E+06    -109.836E+06     1.64598E+06     232.334E+03         52.3682
             794     5.90814E-03     33.3446E-03         4.44018        -1.60141        -1.70317        -1.52390         4.36267        -1.70317        -1.29678     339.084E-03    -168.825E-03    -170.259E-03    -168.081E-03     338.340E-03    -170.259E-03     38.4709E-03    -19.8011E+06    -100.899E+06    -153.749E+06    -100.915E+06    -153.733E+06    -19.8011E+06     685.188E+03         51.7625
             795     5.06180E-03     33.3076E-03         4.43694        -1.57989        -1.70452        -1.54710         4.40414        -1.70452    -809.441E-03     339.544E-03    -169.266E-03    -170.278E-03    -168.827E-03     339.105E-03    -170.278E-03     29.5621E-03    -43.0298E+06    -112.587E+06    -200.115E+06    -112.605E+06    -200.097E+06    -43.0298E+06     639.790E+03         51.1960
             796     4.21999E-03     33.2844E-03         4.49187        -1.60983        -1.71455        -1.56894         4.45097        -1.71455    -869.579E-03     340.025E-03    -169.677E-03    -170.347E-03    -169.567E-03     339.790E-03    -170.223E-03     21.5078E-03    -66.1823E+06    -123.567E+06    -245.368E+06    -123.571E+06    -245.364E+06    -66.1823E+06    -118.133E+03         50.6796
             797     3.37618E-03     33.2686E-03         4.57338        -1.66375        -1.73037        -1.62586         4.53549        -1.73037    -482.420E-03     339.809E-03    -169.562E-03    -170.247E-03    -169.581E-03     339.704E-03    -170.123E-03     14.2319E-03    -90.6970E+06    -135.288E+06    -285.490E+06    -135.302E+06    -285.476E+06    -90.6970E+06     242.386E+03         50.2289
             798     2.53238E-03     33.2577E-03         4.72556        -1.72089        -1.82747        -1.66949         4.59613        -1.74944        -1.05816     339.387E-03    -169.275E-03    -170.112E-03    -169.237E-03     339.349E-03    -170.112E-03     8.44530E-03    -116.916E+06    -146.509E+06    -319.014E+06    -146.525E+06    -318.999E+06    -116.916E+06     626.986E+03         49.8596
             799     1.68757E-03     33.2537E-03         5.21346        -1.75403        -2.28497        -1.76077         4.69334        -1.75812         1.12939     339.671E-03    -169.363E-03    -170.308E-03    -169.353E-03     339.660E-03    -170.308E-03     4.29503E-03    -139.921E+06    -155.083E+06    -345.025E+06    -155.088E+06    -345.021E+06    -139.921E+06     32.5794E+03         49.5852
             800     841.818E-06     33.2514E-03         7.11472        -2.24187        -3.73524    -222.575E-03         4.64661        -3.28642        -3.08674     340.817E-03    -169.829E-03    -170.988E-03    -170.580E-03     340.815E-03    -170.236E-03     1.56867E-03    -155.887E+06    -162.701E+06    -360.626E+06    -161.325E+06    -360.625E+06    -157.265E+06    -182.507E+03         49.4132
             801     14.3529E-03     32.9448E-03         3.14594    -819.837E-03        -1.22850    -811.107E-03         3.12410        -1.21539    -114.264E-03     346.257E-03    -170.099E-03    -176.158E-03    -169.718E-03     339.885E-03    -170.167E-03     105.252E-03     111.128E+06     109.066E+06    -6.94897E+06    -6.94197E+06     109.059E+06     111.128E+06     164.890E+03         63.3464
             802     13.5100E-03     32.7388E-03         3.21446    -858.028E-03        -1.20627    -879.476E-03         3.19761        -1.16797    -218.397E-03     346.824E-03    -170.142E-03    -176.682E-03    -169.363E-03     339.505E-03    -170.142E-03     118.716E-03     102.062E+06     96.8499E+06    -13.1662E+06    -13.1605E+06     96.8442E+06     102.062E+06    -71.1401E+03         61.6893
             803     12.6627E-03     32.6371E-03         3.24988    -872.324E-03        -1.18299    -929.319E-03         3.23979        -1.11590    -131.705E-03     342.321E-03    -170.136E-03    -172.185E-03    -167.870E-03     338.007E-03    -170.136E-03     93.4798E-03     95.6946E+06     86.7861E+06    -20.4424E+06    -20.4410E+06     86.7847E+06     95.6946E+06    -178.482E+03         59.9191
             804     11.8211E-03     32.5054E-03         3.25532    -880.057E-03        -1.14541    -951.925E-03         3.24577        -1.06399    -150.207E-03     341.846E-03    -170.066E-03    -171.779E-03    -167.360E-03     337.496E-03    -170.136E-03     93.7968E-03     85.7404E+06     78.7486E+06    -28.4300E+06    -28.4238E+06     78.7424E+06     85.7404E+06    -511.723E+03         58.2256
             805     10.9747E-03     32.4003E-03         3.22725    -868.976E-03        -1.09722    -944.505E-03         3.21466        -1.00910    -189.519E-03     340.684E-03    -170.075E-03    -170.609E-03    -167.019E-03     337.163E-03    -170.144E-03     84.5239E-03     75.7238E+06     71.6703E+06    -36.6457E+06    -36.6337E+06     73.5379E+06     73.8442E+06    -627.042E+03         56.7455
             806     10.1288E-03     32.3005E-03         3.17505    -841.244E-03        -1.04483    -919.174E-03         3.16271    -954.564E-03    -395.396E-03     340.651E-03    -170.174E-03    -170.477E-03    -167.267E-03     337.441E-03    -170.174E-03     80.7156E-03     69.8933E+06     65.9858E+06    -46.7624E+06    -46.7550E+06     69.8860E+06     65.9858E+06    -178.431E+03         55.5259
             807     9.28449E-03     32.2050E-03         3.09300    -799.535E-03    -975.697E-03    -872.817E-03         3.09127    -900.694E-03    -32.2495E-03     340.374E-03    -170.040E-03    -170.335E-03    -167.472E-03     337.674E-03    -170.203E-03     73.9286E-03     60.2790E+06     56.3734E+06    -57.9990E+06    -57.9933E+06     58.3956E+06     58.2511E+06     270.874E+03         54.5396
             808     8.44148E-03     32.1228E-03         3.05493    -776.226E-03    -936.635E-03    -816.459E-03         3.00929    -850.766E-03    -508.017E-03     339.868E-03    -169.618E-03    -170.250E-03    -167.442E-03     337.690E-03    -170.248E-03     66.3933E-03     42.3793E+06     8.46292E+06    -68.3731E+06    -68.3649E+06     8.45472E+06     42.3793E+06     559.247E+03         53.7235
             809     7.59627E-03     32.0457E-03         2.99903    -750.607E-03    -889.568E-03    -766.163E-03         2.93209    -807.064E-03    -944.132E-03     339.628E-03    -169.308E-03    -170.321E-03    -167.613E-03     337.925E-03    -170.312E-03     58.5788E-03     21.1339E+06    -58.1803E+06    -81.4464E+06    -79.0425E+06    -60.5841E+06     21.1339E+06     686.965E+03         53.0144
             810     6.74943E-03     31.9880E-03         2.97444    -739.439E-03    -864.668E-03    -729.488E-03         2.87099    -771.176E-03        -1.11953     339.871E-03    -169.524E-03    -170.346E-03    -168.330E-03     338.662E-03    -170.332E-03     49.3030E-03     356.506E+03    -89.6203E+06    -109.682E+06    -89.7861E+06    -109.516E+06     356.506E+03     766.748E+03         52.3681
             811     5.90795E-03     31.9403E-03         2.97894    -732.287E-03    -865.869E-03    -706.741E-03         2.83097    -743.450E-03        -1.39375     339.872E-03    -169.564E-03    -170.308E-03    -168.811E-03     339.114E-03    -170.303E-03     38.8019E-03    -20.9129E+06    -100.812E+06    -153.580E+06    -100.845E+06    -153.547E+06    -20.9129E+06     516.586E+03         51.7636
             812     5.06490E-03     31.9054E-03         2.88055    -691.414E-03    -795.239E-03    -689.928E-03         2.80722    -723.394E-03    -858.114E-03     339.458E-03    -169.175E-03    -170.284E-03    -168.756E-03     339.040E-03    -170.284E-03     28.8688E-03    -42.8981E+06    -111.647E+06    -198.728E+06    -111.671E+06    -198.704E+06    -42.8981E+06     239.034E+03         51.1987
             813     4.21859E-03     31.8779E-03         2.89495    -683.692E-03    -807.662E-03    -667.167E-03         2.78277    -712.009E-03        -1.01105     339.725E-03    -169.321E-03    -170.404E-03    -169.219E-03     339.499E-03    -170.279E-03     21.1167E-03    -65.6922E+06    -123.398E+06    -244.894E+06    -123.411E+06    -244.881E+06    -65.6922E+06     389.402E+03         50.6836
             814     3.37646E-03     31.8639E-03         2.90022    -693.883E-03    -800.029E-03    -656.510E-03         2.77367    -710.847E-03    -475.051E-03     340.165E-03    -169.802E-03    -170.363E-03    -169.863E-03     340.056E-03    -170.193E-03     14.6970E-03    -90.6569E+06    -136.112E+06    -286.179E+06    -136.133E+06    -286.157E+06    -90.6569E+06     939.165E+03         50.2340
             815     2.53237E-03     31.8555E-03         3.14464    -709.229E-03        -1.03410    -664.319E-03         2.78517    -719.540E-03        -1.24860     339.914E-03    -169.710E-03    -170.204E-03    -169.822E-03     339.869E-03    -170.047E-03     9.04791E-03    -115.127E+06    -146.336E+06    -317.207E+06    -146.349E+06    -317.194E+06    -115.127E+06     763.949E+03         49.8655
             816     1.68781E-03     31.8514E-03         4.04673    -729.431E-03        -1.91679    -710.518E-03         2.84046    -729.431E-03         1.38321     339.636E-03    -169.556E-03    -170.080E-03    -169.653E-03     339.623E-03    -169.970E-03     4.90173E-03    -138.499E+06    -155.661E+06    -343.705E+06    -155.664E+06    -343.701E+06    -138.499E+06     386.793E+03         49.5911
             817     845.321E-06     31.8466E-03         7.18045        -2.24050        -3.51801     919.101E-03         2.88547        -2.38263        -4.00198     339.801E-03    -169.482E-03    -170.319E-03    -169.841E-03     339.796E-03    -169.955E-03     2.38693E-03    -156.303E+06    -163.415E+06    -360.146E+06    -162.038E+06    -360.145E+06    -157.681E+06     313.451E+03         49.4189
             818     14.3542E-03     31.5340E-03         2.94748    -564.156E-03    -972.192E-03    -934.563E-03         2.92318    -577.484E-03    -141.392E-03     346.114E-03    -170.071E-03    -176.043E-03    -169.539E-03     339.685E-03    -170.146E-03     106.073E-03     111.100E+06     109.794E+06    -6.63500E+06    -6.62586E+06     109.886E+06     110.998E+06    -364.728E+03         63.3268
             819     13.5083E-03     31.3390E-03         2.84884    -485.287E-03    -908.658E-03    -889.389E-03         2.82958    -485.287E-03    -262.717E-03     346.798E-03    -170.128E-03    -176.669E-03    -169.309E-03     339.437E-03    -170.128E-03     119.119E-03     101.608E+06     96.4203E+06    -13.7020E+06    -13.6934E+06     96.5135E+06     101.506E+06    -870.942E+03         61.6773
             820     12.6660E-03     31.2280E-03         2.70763    -391.176E-03    -823.612E-03    -810.095E-03         2.69411    -391.176E-03    -175.297E-03     342.442E-03    -170.123E-03    -172.319E-03    -167.967E-03     338.090E-03    -170.123E-03     93.9294E-03     95.4795E+06     86.4145E+06    -21.0847E+06    -21.0826E+06     86.4124E+06     95.4795E+06    -361.086E+03         59.9161
             821     11.8193E-03     31.1040E-03         2.54218    -300.966E-03    -718.430E-03    -705.274E-03         2.52903    -300.966E-03    -195.197E-03     341.837E-03    -170.051E-03    -171.787E-03    -167.332E-03     337.452E-03    -170.120E-03     94.2108E-03     85.8927E+06     79.7659E+06    -29.1756E+06    -29.1715E+06     79.7619E+06     85.8927E+06     110.535E+03         58.2292
             822     10.9736E-03     30.9967E-03         2.36930    -210.757E-03    -612.304E-03    -592.903E-03         2.34990    -210.757E-03    -225.566E-03     340.749E-03    -170.053E-03    -170.695E-03    -167.086E-03     337.209E-03    -170.123E-03     84.7624E-03     75.3004E+06     71.4459E+06    -38.0410E+06    -38.0362E+06     73.7949E+06     72.9467E+06     432.123E+03         56.7515
             823     10.1301E-03     30.8951E-03         2.18947    -122.764E-03    -503.816E-03    -482.873E-03         2.16853    -122.764E-03    -418.660E-03     340.668E-03    -170.106E-03    -170.562E-03    -167.350E-03     337.494E-03    -170.144E-03     80.2639E-03     69.6016E+06     65.1170E+06    -46.8938E+06    -46.8912E+06     69.5990E+06     65.1170E+06     474.547E+03         55.5310
             824     9.28594E-03     30.8005E-03         1.97713    -37.1234E-03    -361.402E-03    -358.510E-03         1.97424    -37.1234E-03    -81.9692E-03     340.100E-03    -169.809E-03    -170.291E-03    -167.190E-03     337.371E-03    -170.181E-03     74.3348E-03     60.3862E+06     56.7151E+06    -56.5103E+06    -56.5073E+06     58.8430E+06     58.2553E+06     415.954E+03         54.5420
             825     8.44067E-03     30.7169E-03         1.87085     42.9469E-03    -318.578E-03    -225.156E-03         1.77743     42.9469E-03    -534.615E-03     339.765E-03    -169.511E-03    -170.253E-03    -167.266E-03     337.517E-03    -170.251E-03     67.3932E-03     42.4352E+06     8.63853E+06    -67.1553E+06    -67.1495E+06     8.63271E+06     42.4352E+06     433.728E+03         53.7231
             826     7.59534E-03     30.6454E-03         1.76311     115.228E-03    -266.112E-03    -99.7466E-03         1.59675     115.228E-03    -974.128E-03     339.661E-03    -169.334E-03    -170.327E-03    -167.659E-03     337.986E-03    -170.327E-03     58.0303E-03     21.5108E+06    -58.1030E+06    -80.5821E+06    -78.2803E+06    -60.4048E+06     21.5108E+06     404.116E+03         53.0123
             827     6.75180E-03     30.5821E-03         1.71633     178.163E-03    -269.869E-03     8.82518E-03         1.43764     178.163E-03        -1.13837     339.461E-03    -169.087E-03    -170.374E-03    -167.973E-03     338.341E-03    -170.368E-03     47.4292E-03     531.019E+03    -89.7905E+06    -108.820E+06    -89.8175E+06    -108.793E+06     531.019E+03     384.447E+03         52.3656
             828     5.90700E-03     30.5336E-03         1.73936     232.075E-03    -341.784E-03     85.1934E-03         1.31238     232.075E-03        -1.41133     339.717E-03    -169.328E-03    -170.389E-03    -168.594E-03     338.977E-03    -170.383E-03     38.5848E-03    -20.7818E+06    -101.204E+06    -152.439E+06    -101.229E+06    -152.413E+06    -20.7818E+06     285.387E+03         51.7617
             829     5.06338E-03     30.5009E-03         1.54975     268.643E-03    -189.397E-03     156.817E-03         1.19432     277.861E-03    -906.616E-03     340.053E-03    -169.600E-03    -170.453E-03    -169.249E-03     339.598E-03    -170.349E-03     30.0819E-03    -43.5519E+06    -113.760E+06    -198.668E+06    -113.778E+06    -198.650E+06    -43.5519E+06     345.557E+03         51.1986
             830     4.22048E-03     30.4762E-03         1.57464     305.975E-03    -251.621E-03     225.866E-03         1.08794     315.193E-03        -1.04989     339.756E-03    -169.342E-03    -170.415E-03    -169.213E-03     339.523E-03    -170.311E-03     21.3961E-03    -66.5801E+06    -125.360E+06    -244.989E+06    -125.371E+06    -244.977E+06    -66.5801E+06     838.580E+03         50.6857
             831     3.37385E-03     30.4586E-03         1.58513     340.977E-03    -289.849E-03     304.866E-03     990.421E-03     340.977E-03    -507.828E-03     339.777E-03    -169.426E-03    -170.351E-03    -169.369E-03     339.674E-03    -170.304E-03     14.0800E-03    -90.0342E+06    -134.939E+06    -284.528E+06    -134.948E+06    -284.519E+06    -90.0342E+06     426.350E+03         50.2380
             832     2.53132E-03     30.4508E-03         1.87768     354.714E-03    -584.738E-03     342.582E-03     950.356E-03     354.714E-03        -1.20102     340.297E-03    -169.908E-03    -170.389E-03    -170.022E-03     340.254E-03    -170.232E-03     8.99781E-03    -114.987E+06    -146.047E+06    -315.978E+06    -146.049E+06    -315.976E+06    -114.987E+06     131.119E+03         49.8710
             833     1.68903E-03     30.4477E-03         2.98263     353.469E-03        -1.69667     381.418E-03     904.542E-03     353.469E-03         1.34863     340.268E-03    -169.985E-03    -170.283E-03    -170.231E-03     340.250E-03    -170.019E-03     5.74751E-03    -138.775E+06    -155.513E+06    -342.778E+06    -155.518E+06    -342.773E+06    -138.775E+06     756.996E+03         49.5979
             834     843.183E-06     30.4455E-03         6.41994        -1.40787        -3.37770         2.10456     937.677E-03        -1.40787        -3.73286     339.645E-03    -169.503E-03    -170.142E-03    -169.805E-03     339.639E-03    -169.834E-03     2.90006E-03    -156.739E+06    -161.787E+06    -359.526E+06    -161.781E+06    -359.518E+06    -156.753E+06     136.506E+03         49.4262
             835     14.3527E-03     30.1333E-03         2.76304     54.7187E-03        -1.08101        -1.05522         2.73724     54.7187E-03    -168.551E-03     345.796E-03    -170.061E-03    -175.735E-03    -169.197E-03     339.333E-03    -170.136E-03     106.124E-03     111.498E+06     110.697E+06    -6.43798E+06    -6.42757E+06     110.788E+06     111.396E+06     -91.904E+03         63.3052
             836     13.5094E-03     29.9293E-03         2.48843     187.986E-03    -910.192E-03    -889.358E-03         2.46759     187.986E-03    -315.355E-03     346.544E-03    -170.138E-03    -176.406E-03    -169.012E-03     339.150E-03    -170.138E-03     119.229E-03     101.290E+06     96.5382E+06    -14.4346E+06    -14.4197E+06     96.6251E+06     101.188E+06    -455.987E+03         61.6634
             837     12.6632E-03     29.8267E-03         2.17655     320.029E-03    -701.252E-03    -682.083E-03         2.15739     320.029E-03    -237.920E-03     342.261E-03    -170.151E-03    -172.111E-03    -167.742E-03     337.892E-03    -170.151E-03     94.0433E-03     94.8906E+06     86.1164E+06    -22.1807E+06    -22.1753E+06     86.1110E+06     94.8906E+06    -547.002E+03         59.9112
             838     11.8193E-03     29.6975E-03         1.85190     445.033E-03    -482.731E-03    -463.518E-03         1.83269     445.033E-03    -247.670E-03     342.261E-03    -170.142E-03    -172.119E-03    -167.726E-03     337.868E-03    -170.142E-03     94.3316E-03     85.4449E+06     79.8549E+06    -30.4102E+06    -30.4042E+06     79.8490E+06     85.4449E+06     415.206E+03         58.2314
             839     10.9760E-03     29.5938E-03         1.55330     567.641E-03    -295.931E-03    -256.857E-03         1.51423     567.641E-03    -264.930E-03     341.184E-03    -170.112E-03    -171.072E-03    -167.506E-03     337.618E-03    -170.112E-03     85.1741E-03     75.4751E+06     70.8556E+06    -39.1749E+06    -39.1697E+06     74.3064E+06      72.019E+06     518.744E+03         56.7567
             840     10.1303E-03     29.4891E-03         1.39425     549.150E-03    -111.714E-03    -56.6994E-03         1.20234     686.055E-03    -450.987E-03     340.399E-03    -170.019E-03    -170.380E-03    -167.001E-03     337.133E-03    -170.132E-03     81.3631E-03     70.2475E+06     64.2683E+06    -47.4985E+06    -47.4941E+06     70.2431E+06     64.2683E+06    -222.285E+03         55.5351
             841     9.28473E-03     29.3981E-03         1.31630     472.198E-03     46.2425E-03     143.345E-03     891.008E-03     800.386E-03    -133.205E-03     340.047E-03    -169.747E-03    -170.300E-03    -167.103E-03     337.298E-03    -170.195E-03     74.5332E-03     60.5946E+06     56.1079E+06    -56.6104E+06    -56.6043E+06     58.6249E+06     58.0715E+06     41.7225E+03         54.5427
             842     8.43896E-03     29.3129E-03         1.31395     621.773E-03    -94.3089E-03     344.953E-03     588.430E-03     908.034E-03    -559.352E-03     340.052E-03    -169.698E-03    -170.354E-03    -167.629E-03     337.878E-03    -170.249E-03     66.2786E-03     42.0732E+06     8.85233E+06    -67.3914E+06    -67.3830E+06     8.84387E+06     42.0732E+06     615.751E+03         53.7205
             843     7.59655E-03     29.2383E-03         1.31558     800.437E-03    -262.431E-03     530.218E-03     316.127E-03         1.00724    -969.762E-03     339.872E-03    -169.585E-03    -170.287E-03    -167.945E-03     338.231E-03    -170.287E-03     57.5375E-03     21.3740E+06    -57.3440E+06    -80.7152E+06    -78.4808E+06    -59.5784E+06     21.3740E+06     636.815E+03         53.0073
             844     6.75279E-03     29.1784E-03         1.35165     932.254E-03    -421.394E-03     700.115E-03     65.8035E-03         1.09659        -1.13012     339.240E-03    -168.917E-03    -170.323E-03    -167.773E-03     338.097E-03    -170.323E-03     47.9002E-03     1.10879E+06    -89.8524E+06    -108.454E+06    -89.8940E+06    -108.412E+06     1.10879E+06     502.997E+03         52.3591
             845     5.90641E-03     29.1330E-03         1.42736         1.06573    -629.366E-03     845.719E-03    -158.031E-03         1.17603        -1.35475     339.078E-03    -168.681E-03    -170.396E-03    -167.949E-03     338.345E-03    -170.396E-03     38.2164E-03    -20.1176E+06    -102.126E+06    -151.533E+06    -102.144E+06    -151.516E+06    -20.1176E+06     668.567E+03         51.7550
             846     5.06152E-03     29.0925E-03         1.35455         1.12587    -622.211E-03     989.198E-03    -375.979E-03         1.24498    -927.531E-03     339.691E-03    -169.140E-03    -170.552E-03    -168.817E-03     339.265E-03    -170.448E-03     29.0698E-03    -43.5246E+06    -113.501E+06    -197.793E+06    -113.512E+06    -197.782E+06    -43.5246E+06     325.158E+03         51.1928
             847     4.21880E-03     29.0719E-03         1.41073         1.20749    -763.826E-03         1.10787    -556.289E-03         1.30281    -955.317E-03     340.210E-03    -169.651E-03    -170.559E-03    -169.549E-03     339.979E-03    -170.429E-03     21.4907E-03    -67.0194E+06    -124.577E+06    -244.539E+06    -124.580E+06    -244.535E+06    -67.0194E+06    -343.477E+03         50.6817
             848     3.37699E-03     29.0556E-03         1.46832         1.29695    -911.313E-03         1.23054    -724.759E-03         1.34817    -576.441E-03     340.128E-03    -169.727E-03    -170.401E-03    -169.641E-03     340.016E-03    -170.375E-03     14.5789E-03    -91.2113E+06    -135.610E+06    -283.980E+06    -135.614E+06    -283.976E+06    -91.2113E+06     31.2559E+03         50.2363
             849     2.53076E-03     29.0470E-03         1.63879         1.34966        -1.13038         1.28757    -815.466E-03         1.38597    -933.338E-03     340.163E-03    -169.834E-03    -170.329E-03    -169.795E-03     340.124E-03    -170.329E-03     8.46220E-03    -117.077E+06    -145.949E+06    -315.611E+06    -145.957E+06    -315.604E+06    -117.077E+06     669.147E+03         49.8714
             850     1.68590E-03     29.0421E-03         2.33584         1.38574        -1.87530         1.40862    -967.159E-03         1.40483     945.423E-03     340.435E-03    -170.022E-03    -170.413E-03    -170.163E-03     340.422E-03    -170.259E-03     4.61276E-03    -138.878E+06    -154.569E+06    -341.637E+06    -154.579E+06    -341.627E+06    -138.878E+06     462.949E+03         49.5999
             851     845.205E-06     29.0419E-03         5.11683    -380.653E-03        -2.90767         3.19316    -984.002E-03    -380.653E-03        -2.48229     340.290E-03    -169.774E-03    -170.515E-03    -170.384E-03     340.285E-03    -169.901E-03     2.53192E-03    -155.552E+06    -161.395E+06    -358.321E+06    -160.697E+06    -358.305E+06    -156.266E+06     150.135E+03         49.4293
             852     14.3553E-03     28.7290E-03         2.60291     652.299E-03        -1.19737        -1.17140         2.57694     652.299E-03    -188.056E-03     345.903E-03    -170.124E-03    -175.779E-03    -169.328E-03     339.451E-03    -170.124E-03     105.943E-03     111.615E+06     110.661E+06    -6.73573E+06    -6.72843E+06     110.871E+06     111.398E+06    -1.54470E+03         63.2835
             853     13.5080E-03     28.5261E-03         2.15633     820.758E-03    -910.736E-03    -889.114E-03         2.13471     820.758E-03    -342.542E-03     345.991E-03    -170.139E-03    -175.852E-03    -168.473E-03     338.612E-03    -170.139E-03     118.958E-03     101.784E+06     96.8202E+06    -13.2752E+06    -13.2606E+06     96.8056E+06     101.784E+06     60.1267E+03         61.6494
             854     12.6643E-03     28.4213E-03         1.73664     955.472E-03    -611.797E-03    -586.369E-03         1.68058     986.102E-03    -268.845E-03     341.916E-03    -170.177E-03    -171.739E-03    -167.403E-03     337.580E-03    -170.177E-03     93.6372E-03     94.3092E+06     85.6981E+06    -21.7378E+06    -21.7146E+06     85.6749E+06     94.3092E+06     617.788E+03         59.9053
             855     11.8188E-03     28.2937E-03         1.49973     892.914E-03    -301.172E-03    -275.701E-03         1.22377         1.14340    -281.406E-03     342.306E-03    -170.185E-03    -172.121E-03    -167.650E-03     337.835E-03    -170.185E-03     95.2749E-03     85.3446E+06     79.7690E+06    -30.3848E+06    -30.3670E+06     80.4905E+06     84.6053E+06     849.139E+03         58.2311
             856     10.9738E-03     28.1863E-03         1.40526     790.975E-03    -102.823E-03     32.2069E-03     765.045E-03         1.29616    -298.660E-03     341.431E-03    -170.163E-03    -171.268E-03    -167.641E-03     337.804E-03    -170.163E-03     85.8832E-03     76.9375E+06     71.9907E+06    -38.4510E+06    -38.4472E+06     76.3508E+06     72.5735E+06    -60.8267E+03         56.7581
             857     10.1291E-03     28.0891E-03         1.44549     718.656E-03    -81.3256E-03     322.658E-03     318.035E-03         1.44212    -474.515E-03     340.889E-03    -170.086E-03    -170.803E-03    -167.503E-03     337.665E-03    -170.162E-03     80.9341E-03     70.8324E+06     64.3491E+06    -47.8453E+06    -47.8385E+06     70.8255E+06     64.3491E+06    -365.851E+03         55.5344
             858     9.28450E-03     27.9903E-03         1.58222     690.354E-03    -199.916E-03     602.527E-03    -112.090E-03         1.58222    -169.175E-03     340.511E-03    -170.056E-03    -170.455E-03    -167.613E-03     337.790E-03    -170.177E-03     74.2137E-03     59.8972E+06     55.0115E+06    -58.3977E+06    -58.3923E+06     57.8648E+06     57.0386E+06    -71.2918E+03         54.5379
             859     8.44301E-03     27.9089E-03         1.71402     971.302E-03    -613.135E-03     875.977E-03    -517.810E-03         1.71402    -575.680E-03     340.086E-03    -169.785E-03    -170.302E-03    -167.715E-03     337.912E-03    -170.197E-03     66.3496E-03     41.0381E+06     9.33220E+06    -69.1308E+06    -69.1205E+06     9.32188E+06     41.0381E+06     54.7995E+03         53.7111
             860     7.59653E-03     27.8339E-03         1.83554         1.26196        -1.01924         1.12885    -886.130E-03         1.83554    -943.242E-03     339.455E-03    -169.208E-03    -170.247E-03    -167.563E-03     337.810E-03    -170.247E-03     57.4855E-03     20.5423E+06    -56.5429E+06    -82.3747E+06    -79.5047E+06    -59.4129E+06     20.5423E+06     426.664E+03         52.9938
             861     6.75028E-03     27.7762E-03         1.94494         1.50563        -1.36998         1.37202        -1.23637         1.94494        -1.12469     339.477E-03    -169.196E-03    -170.281E-03    -168.084E-03     338.365E-03    -170.281E-03     47.2391E-03     756.471E+03    -90.1520E+06    -107.995E+06    -90.2275E+06    -107.919E+06     756.471E+03     601.070E+03         52.3434
             862     5.90858E-03     27.7257E-03         2.04078         1.73093        -1.69566         1.58850        -1.55323         2.04078        -1.25700     339.299E-03    -169.002E-03    -170.298E-03    -168.301E-03     338.598E-03    -170.298E-03     37.3782E-03    -19.9082E+06    -101.099E+06    -150.084E+06    -101.115E+06    -150.067E+06    -19.9082E+06    -74.9128E+03         51.7386
             863     5.06425E-03     27.6930E-03         2.12250         1.85236        -1.90776         1.78526        -1.84066         2.12250    -915.427E-03     338.884E-03    -168.511E-03    -170.373E-03    -168.104E-03     338.477E-03    -170.373E-03     28.4777E-03    -42.8591E+06    -112.165E+06    -196.761E+06    -112.175E+06    -196.751E+06    -42.8591E+06    -221.880E+03         51.1766
             864     4.21742E-03     27.6645E-03         2.19209         1.97601        -2.11002         1.93011        -2.06412         2.19209    -768.509E-03     339.600E-03    -169.101E-03    -170.499E-03    -168.907E-03     339.380E-03    -170.473E-03     20.6516E-03     -67.518E+06    -123.935E+06    -243.533E+06    -123.941E+06    -243.527E+06     -67.518E+06    -49.1471E+03         50.6664
             865     3.37310E-03     27.6511E-03         2.24880         2.12187        -2.32140         2.08362        -2.28315         2.24880    -680.541E-03     340.513E-03    -169.979E-03    -170.534E-03    -169.952E-03     340.411E-03    -170.460E-03     14.0178E-03    -93.0832E+06    -136.621E+06    -285.734E+06    -136.627E+06    -285.728E+06    -93.0832E+06    -87.0012E+03         50.2227
             866     2.53195E-03     27.6424E-03         2.29782         2.20860        -2.45843         2.16132        -2.41114         2.29782    -529.395E-03     340.567E-03    -170.154E-03    -170.413E-03    -170.203E-03     340.527E-03    -170.324E-03     8.54214E-03    -116.614E+06    -146.476E+06    -315.203E+06    -146.487E+06    -315.191E+06    -116.614E+06     725.311E+03         49.8598
             867     1.68914E-03     27.6386E-03         2.51174         2.26303        -2.74095         2.31398        -2.60654         2.32639     326.517E-03     340.260E-03    -169.978E-03    -170.282E-03    -170.062E-03     340.250E-03    -170.188E-03     3.99697E-03    -138.508E+06    -153.738E+06    -339.830E+06    -153.746E+06    -339.821E+06    -138.508E+06     522.827E+03         49.5900
             868     841.828E-06     27.6378E-03         4.47336     587.965E-03        -2.99509         4.07430        -2.59603     587.965E-03    -430.030E-03     340.169E-03    -169.831E-03    -170.338E-03    -170.187E-03     340.165E-03    -169.978E-03     1.50456E-03    -155.407E+06    -160.229E+06    -356.919E+06    -159.538E+06    -356.910E+06    -156.106E+06     236.355E+03         49.4206
             869     14.3529E-03     27.3212E-03         2.47724         1.18500        -1.30876        -1.28646         2.45493         1.18500    -183.785E-03     345.706E-03    -169.967E-03    -175.740E-03    -169.100E-03     339.237E-03    -170.137E-03     106.427E-03     111.389E+06     110.329E+06    -7.12534E+06    -7.11904E+06     111.079E+06     110.633E+06    -321.201E+03         63.2618
             870     13.5102E-03     27.1254E-03         1.96705         1.31304    -939.198E-03    -920.131E-03         1.87882         1.38221    -324.441E-03     346.051E-03    -170.162E-03    -175.889E-03    -168.452E-03     338.614E-03    -170.162E-03     119.732E-03     100.926E+06     95.7461E+06    -14.1300E+06    -14.1156E+06     95.9462E+06     100.712E+06     195.110E+03         61.6341
             871     12.6627E-03     27.0156E-03         1.70040         1.20733    -567.187E-03    -540.555E-03         1.30528         1.57582    -245.223E-03     342.130E-03    -170.206E-03    -171.924E-03    -167.509E-03     337.715E-03    -170.206E-03     94.5935E-03     94.6149E+06     85.7768E+06    -21.2094E+06    -21.1827E+06     85.7500E+06     94.6149E+06     1.16325E+06         59.8966
             872     11.8180E-03     26.8908E-03         1.76111     753.858E-03    -174.898E-03    -147.882E-03     726.842E-03         1.76111    -259.956E-03     342.359E-03    -170.212E-03    -172.147E-03    -167.768E-03     337.980E-03    -170.212E-03     94.1910E-03     86.8652E+06     81.0265E+06    -28.6288E+06    -28.6022E+06     81.7391E+06     86.1259E+06     909.517E+03         58.2256
             873     10.9726E-03     26.7810E-03         1.94020     516.361E-03    -125.686E-03     245.241E-03     145.434E-03         1.94020    -281.573E-03     341.438E-03    -170.170E-03    -171.268E-03    -167.779E-03     337.949E-03    -170.170E-03     84.2447E-03     78.2582E+06     71.1426E+06    -38.0540E+06    -38.0304E+06     77.3111E+06     72.0661E+06     844.359E+03         56.7509
             874     10.1302E-03     26.6814E-03         2.11075     706.301E-03    -507.871E-03     619.620E-03    -421.190E-03         2.11075    -445.775E-03     341.279E-03    -170.136E-03    -171.144E-03    -168.008E-03     338.144E-03    -170.136E-03     79.8863E-03     71.6956E+06     63.0709E+06    -48.1634E+06    -48.1480E+06     71.6801E+06     63.0709E+06     652.849E+03         55.5217
             875     9.28658E-03     26.5877E-03         2.27308     991.568E-03    -975.980E-03     982.711E-03    -967.123E-03         2.27308    -145.296E-03     340.397E-03    -169.833E-03    -170.564E-03    -167.548E-03     337.682E-03    -170.134E-03     74.1963E-03     60.4047E+06     56.1402E+06    -57.6524E+06    -57.6413E+06     59.3010E+06     57.2329E+06    -226.495E+03         54.5179
             876     8.43913E-03     26.5021E-03         2.42440         1.38512        -1.53005         1.34033        -1.48526         2.42440    -523.683E-03     339.817E-03    -169.647E-03    -170.171E-03    -167.469E-03     337.640E-03    -170.171E-03     66.2757E-03     41.4236E+06     9.12465E+06    -68.1235E+06    -68.1078E+06     9.10902E+06     41.4236E+06    -635.020E+03         53.6838
             877     7.59644E-03     26.4322E-03         2.56184         1.73457        -2.01594         1.67574        -1.95711         2.56184    -848.711E-03     339.860E-03    -169.662E-03    -170.199E-03    -168.050E-03     338.248E-03    -170.199E-03     56.9875E-03     20.2847E+06    -57.5551E+06    -81.1110E+06    -79.0642E+06    -59.6020E+06     20.2847E+06    -191.425E+03         52.9614
             878     6.75422E-03     26.3691E-03         2.68314         2.06400        -2.46681         1.99070        -2.39351         2.68314        -1.06699     339.432E-03    -169.242E-03    -170.189E-03    -168.129E-03     338.318E-03    -170.189E-03     47.2689E-03     100.781E+03    -88.8410E+06    -107.174E+06    -89.1874E+06    -106.828E+06     100.781E+03    -541.033E+03         52.3080
             879     5.90811E-03     26.3234E-03         2.78729         2.33279        -2.85109         2.25784        -2.77614         2.78729        -1.14069     339.195E-03    -169.001E-03    -170.194E-03    -168.297E-03     338.491E-03    -170.194E-03     37.4681E-03    -20.0551E+06    -99.3450E+06    -149.198E+06    -99.3706E+06    -149.172E+06    -20.0551E+06    -799.616E+03         51.7020
             880     5.06300E-03     26.2888E-03         2.87504         2.52503        -3.15497         2.48648        -3.11642         2.87504    -911.653E-03     339.348E-03    -169.146E-03    -170.202E-03    -168.743E-03     338.945E-03    -170.202E-03     28.2380E-03    -42.3992E+06    -111.299E+06    -197.588E+06    -111.308E+06    -197.578E+06    -42.3992E+06    -247.446E+03         51.1402
             881     4.22027E-03     26.2627E-03         2.94894         2.68644        -3.41007         2.66157        -3.38520         2.94894    -589.624E-03     339.249E-03    -169.028E-03    -170.221E-03    -168.832E-03     339.053E-03    -170.221E-03     19.3535E-03    -66.1617E+06    -123.505E+06    -243.709E+06    -123.522E+06    -243.691E+06    -66.1617E+06     848.989E+03         50.6311
             882     3.37572E-03     26.2456E-03         3.01552         2.86993        -3.66056         2.83699        -3.61948         3.00738    -792.051E-03     339.407E-03    -169.081E-03    -170.326E-03    -169.050E-03     339.328E-03    -170.278E-03     12.3665E-03    -91.0122E+06    -134.617E+06    -283.623E+06    -134.635E+06    -283.606E+06    -91.0122E+06     633.015E+03         50.1886
             883     2.53067E-03     26.2367E-03         3.06165         2.99829        -3.81560         2.93286        -3.74203         3.05351    -106.177E-03     340.062E-03    -169.665E-03    -170.397E-03    -169.720E-03     340.028E-03    -170.308E-03     8.10803E-03    -116.071E+06    -145.283E+06    -315.454E+06    -145.299E+06    -315.438E+06    -116.071E+06    -597.851E+03         49.8271
             884     1.68657E-03     26.2353E-03         3.24850         3.02837        -4.04417         3.07807        -3.92032         3.07496    -366.241E-03     340.470E-03    -170.065E-03    -170.405E-03    -170.251E-03     340.458E-03    -170.208E-03     4.57976E-03    -137.928E+06    -154.194E+06    -339.375E+06    -154.213E+06    -339.355E+06    -137.928E+06     220.170E+03         49.5590
             885     846.404E-06     26.2336E-03         5.18941         1.47015        -4.44386         4.67918        -3.93363         1.47015         1.71648     340.112E-03    -169.949E-03    -170.163E-03    -170.101E-03     340.108E-03    -170.006E-03     1.67675E-03    -154.340E+06    -159.964E+06    -354.875E+06    -159.599E+06    -354.866E+06    -154.715E+06     873.867E+03         49.3910
             886     14.3536E-03     25.9193E-03         2.41300         1.62617        -1.42939        -1.41308         2.39668         1.62617    -162.172E-03     345.320E-03    -169.637E-03    -175.683E-03    -168.523E-03     338.712E-03    -170.189E-03     107.192E-03     111.439E+06     110.488E+06    -6.49176E+06    -6.47056E+06     111.368E+06     110.538E+06     485.089E+03         63.2395
             887     13.5060E-03     25.7182E-03         2.02205         1.55846    -996.215E-03    -982.026E-03         1.72072         1.84560    -276.904E-03     346.845E-03    -170.219E-03    -176.626E-03    -169.130E-03     339.348E-03    -170.219E-03     119.778E-03     101.188E+06     96.3538E+06    -13.5573E+06    -13.5260E+06     96.5370E+06     100.974E+06     442.278E+03         61.6154
             888     12.6630E-03     25.6147E-03         2.06036         1.05909    -548.609E-03    -526.972E-03         1.03746         2.06036    -184.053E-03     343.094E-03    -170.211E-03    -172.883E-03    -168.536E-03     338.747E-03    -170.211E-03     93.8948E-03     94.9591E+06     86.2995E+06    -21.3116E+06    -21.2942E+06     86.2821E+06     94.9591E+06     136.782E+03         59.8811
             889     11.8191E-03     25.4809E-03         2.26590     472.190E-03    -182.913E-03    -60.7479E-03     350.025E-03         2.26590    -189.818E-03     342.823E-03    -170.158E-03    -172.665E-03    -168.376E-03     338.534E-03    -170.158E-03     93.1922E-03     86.3938E+06     81.1554E+06    -29.6891E+06    -29.6746E+06     81.1409E+06     86.3938E+06     625.905E+03         58.2083
             890     10.9764E-03     25.3803E-03         2.46386     432.547E-03    -365.669E-03     393.042E-03    -326.164E-03         2.46386    -187.547E-03     341.384E-03    -170.093E-03    -171.291E-03    -167.866E-03     337.959E-03    -170.093E-03     83.5294E-03     78.4955E+06     73.6646E+06    -37.3537E+06    -37.3309E+06     77.3238E+06     74.8135E+06     1.27171E+06         56.7255
             891     10.1295E-03     25.2733E-03         2.65250     855.351E-03        -1.00399     831.884E-03    -980.527E-03         2.65250    -320.260E-03     340.906E-03    -170.056E-03    -170.850E-03    -167.749E-03     337.806E-03    -170.056E-03     79.3068E-03     74.2339E+06     66.8379E+06    -45.4706E+06    -45.4574E+06     74.2207E+06     66.8379E+06     829.676E+03         55.4844
             892     9.28554E-03     25.1841E-03         2.83078         1.27233        -1.62565         1.26808        -1.62140         2.83078    -33.8392E-03     340.248E-03    -169.784E-03    -170.465E-03    -167.655E-03     337.694E-03    -170.039E-03     71.9422E-03     62.2344E+06     57.2574E+06    -55.6764E+06    -55.6647E+06     60.9598E+06     58.5204E+06    -208.844E+03         54.4682
             893     8.44268E-03     25.0989E-03         2.99523         1.72942        -2.26668         1.70309        -2.24035         2.99523    -390.117E-03     339.500E-03    -169.357E-03    -170.143E-03    -167.366E-03     337.428E-03    -170.061E-03     64.6819E-03     41.8231E+06     8.79846E+06    -66.3059E+06    -66.2617E+06     8.75418E+06     41.8231E+06    -730.548E+03         53.6236
             894     7.59777E-03     25.0251E-03         3.14276         2.14176        -2.83777         2.11122        -2.80723         3.14276    -698.430E-03     339.365E-03    -169.261E-03    -170.104E-03    -167.675E-03     337.779E-03    -170.104E-03     56.5344E-03     20.7988E+06    -57.1418E+06    -78.9854E+06    -77.0911E+06    -59.0361E+06     20.7988E+06    -851.598E+03         52.8936
             895     6.75212E-03     24.9667E-03         3.27165         2.51747        -3.35209         2.47105        -3.30568         3.27165    -940.127E-03     339.316E-03    -169.208E-03    -170.108E-03    -168.103E-03     338.211E-03    -170.108E-03     47.0484E-03     453.864E+03    -87.9320E+06    -106.370E+06    -88.2313E+06    -106.070E+06     453.864E+03    -748.834E+03         52.2358
             896     5.90829E-03     24.9199E-03         3.38301         2.81374        -3.77344         2.76644        -3.72614         3.38301    -988.622E-03     339.410E-03    -169.334E-03    -170.075E-03    -168.649E-03     338.724E-03    -170.075E-03     36.9990E-03    -20.8228E+06    -100.320E+06    -149.610E+06    -100.340E+06    -149.590E+06    -20.8228E+06    -401.560E+03         51.6284
             897     5.06597E-03     24.8827E-03         3.47796         3.05627        -4.12956         3.02596        -4.09924         3.47796    -878.743E-03     339.545E-03    -169.544E-03    -170.001E-03    -169.154E-03     339.156E-03    -170.001E-03     27.8035E-03    -43.1641E+06    -112.305E+06    -199.207E+06    -112.324E+06    -199.189E+06    -43.1641E+06     443.247E+03         51.0673
             898     4.22168E-03     24.8596E-03         3.55623         3.27097        -4.43922         3.24528        -4.41353         3.55623    -458.599E-03     339.107E-03    -169.180E-03    -169.927E-03    -168.979E-03     338.906E-03    -169.927E-03     19.8667E-03    -65.6840E+06    -123.303E+06    -243.642E+06    -123.338E+06    -243.608E+06    -65.6840E+06     876.381E+03         50.5599
             899     3.37704E-03     24.8436E-03         3.63317         3.48841        -4.74689         3.44209        -4.68269         3.61528    -889.472E-03     338.756E-03    -168.820E-03    -169.936E-03    -168.729E-03     338.665E-03    -169.936E-03     13.1945E-03    -89.4129E+06    -133.521E+06    -280.363E+06    -133.539E+06    -280.345E+06    -89.4129E+06     749.075E+03         50.1195
             900     2.53162E-03     24.8353E-03         3.70486         3.65604        -4.99621         3.55282        -4.84649         3.65836     188.596E-03     339.038E-03    -168.991E-03    -170.046E-03    -168.960E-03     339.007E-03    -170.046E-03     7.46544E-03    -115.532E+06    -144.230E+06    -314.314E+06    -144.250E+06    -314.294E+06    -115.532E+06     234.885E+03         49.7601
             901     1.68785E-03     24.8282E-03         3.99932         3.67826        -5.32129         3.66963        -4.99391         3.68058    -893.289E-03     339.651E-03    -169.289E-03    -170.362E-03    -169.385E-03     339.644E-03    -170.259E-03     3.81157E-03    -138.857E+06    -154.238E+06    -339.924E+06    -154.272E+06    -339.890E+06    -138.857E+06    -214.139E+03         49.4938
             902     841.521E-06     24.8314E-03         6.36732         2.34242        -6.35174         5.02860        -5.01302         2.34242         3.28060     340.681E-03    -169.246E-03    -171.435E-03    -170.888E-03     340.677E-03    -169.790E-03     1.76918E-03    -154.890E+06    -160.898E+06    -354.687E+06    -160.542E+06    -354.669E+06    -155.265E+06     51.3590E+03         49.3274
             903     14.3509E-03     24.5192E-03         2.44895         1.90763        -1.53214        -1.52028         2.38725         1.95747    -145.409E-03     346.033E-03    -169.835E-03    -176.198E-03    -169.283E-03     339.499E-03    -170.216E-03     106.786E-03     111.871E+06     110.680E+06    -6.41076E+06    -6.39294E+06     111.595E+06     110.939E+06     383.304E+03         63.2166
             904     13.5075E-03     24.3106E-03         2.22020         1.60995        -1.04327        -1.03274         1.63014         2.18948    -234.611E-03     347.538E-03    -170.191E-03    -177.347E-03    -170.015E-03     340.206E-03    -170.191E-03     118.348E-03     100.972E+06     96.9132E+06    -13.9185E+06    -13.8788E+06     96.8736E+06     100.972E+06     963.790E+03         61.5924
             905     12.6645E-03     24.2074E-03         2.41527     874.496E-03    -532.704E-03    -519.727E-03     861.518E-03         2.41527    -111.738E-03     343.426E-03    -170.125E-03    -173.301E-03    -169.123E-03     339.247E-03    -170.125E-03     92.0986E-03     94.4068E+06     86.7535E+06    -21.7217E+06    -21.6928E+06     86.7246E+06     94.4068E+06     356.573E+03         59.8534
             906     11.8203E-03     24.0772E-03         2.63100     381.428E-03    -284.611E-03    -2.31734E-03     99.1340E-03         2.63100    -88.2895E-03     342.772E-03    -170.034E-03    -172.738E-03    -168.542E-03     338.576E-03    -170.034E-03     92.2188E-03     85.6175E+06     81.0519E+06    -29.2726E+06    -29.2650E+06     81.0444E+06     85.6175E+06    -168.276E+03         58.1688
             907     10.9751E-03     23.9726E-03         2.83766     508.735E-03    -650.292E-03     502.521E-03    -644.078E-03         2.83766    -45.7108E-03     341.470E-03    -169.937E-03    -171.533E-03    -168.197E-03     338.134E-03    -169.937E-03     82.4441E-03     78.2685E+06     73.3422E+06    -36.9359E+06    -36.9220E+06     77.5420E+06     74.0548E+06    -653.096E+03         56.6686
             908     10.1331E-03     23.8718E-03         3.03395     987.053E-03        -1.36322     982.600E-03        -1.35876         3.03395    -147.343E-03     340.712E-03    -169.871E-03    -170.841E-03    -167.852E-03     337.724E-03    -169.871E-03     77.8606E-03     75.0371E+06     66.9323E+06    -44.8679E+06    -44.8560E+06     75.0252E+06     66.9323E+06    -410.847E+03         55.4075
             909     9.28877E-03     23.7760E-03         3.21895         1.46320        -2.05988         1.45918        -2.05586         3.21895     112.106E-03     339.728E-03    -169.698E-03    -170.030E-03    -167.404E-03     337.249E-03    -169.845E-03     70.8451E-03     62.7775E+06     57.4972E+06    -54.1221E+06    -54.1199E+06     61.3860E+06     58.8865E+06     300.888E+03         54.3718
             910     8.44386E-03     23.6969E-03         3.38955         1.94733        -2.73760         1.92942        -2.71969         3.38955    -220.814E-03     339.286E-03    -169.312E-03    -169.974E-03    -167.395E-03     337.253E-03    -169.857E-03     64.0705E-03     41.9383E+06     9.65169E+06    -64.9562E+06    -64.8647E+06     9.56018E+06     41.9383E+06     521.744E+03         53.5111
             911     7.59782E-03     23.6224E-03         3.54366         2.38172        -3.34241         2.36511        -3.32580         3.54366    -539.968E-03     338.910E-03    -168.987E-03    -169.923E-03    -167.512E-03     337.400E-03    -169.888E-03     55.0072E-03     20.8743E+06    -56.6126E+06    -78.5027E+06    -76.9035E+06    -58.2118E+06     20.8743E+06     72.8194E+03         52.7695
             912     6.75415E-03     23.5624E-03         3.68040         2.78352        -3.90129         2.75296        -3.87073         3.68040    -788.288E-03     338.983E-03    -169.109E-03    -169.874E-03    -168.112E-03     337.986E-03    -169.874E-03     44.6751E-03     55.8875E+03    -89.6733E+06    -106.025E+06    -89.8731E+06    -105.826E+06     55.8875E+03     292.656E+03         52.1049
             913     5.91080E-03     23.5142E-03         3.80021         3.11623        -4.37838         3.08494        -4.34709         3.80021    -840.992E-03     338.851E-03    -169.029E-03    -169.822E-03    -168.398E-03     338.220E-03    -169.822E-03     35.5095E-03    -21.6729E+06    -102.062E+06    -149.622E+06    -102.095E+06    -149.589E+06    -21.6729E+06     817.799E+03         51.4947
             914     5.06543E-03     23.4801E-03         3.90381         3.39652        -4.78407         3.37340        -4.76095         3.90381    -792.389E-03     338.468E-03    -168.668E-03    -169.801E-03    -168.287E-03     338.088E-03    -169.801E-03     27.5057E-03    -44.2012E+06    -113.138E+06    -198.560E+06    -113.187E+06    -198.511E+06    -44.2012E+06     330.187E+03         50.9337
             915     4.22121E-03     23.4556E-03         3.98997         3.65316        -5.14100         3.63004        -5.11788         3.98997    -358.697E-03     338.762E-03    -168.967E-03    -169.794E-03    -168.767E-03     338.558E-03    -169.791E-03     19.9538E-03    -66.9185E+06    -124.401E+06    -242.865E+06    -124.443E+06    -242.824E+06    -66.9185E+06    -81.1080E+03         50.4288
             916     3.37691E-03     23.4424E-03         4.06634         3.89988        -5.47504         3.84323        -5.40863         4.05659    -875.695E-03     339.126E-03    -169.395E-03    -169.731E-03    -169.328E-03     339.036E-03    -169.708E-03     13.2600E-03    -90.8037E+06    -136.057E+06    -280.389E+06    -136.063E+06    -280.384E+06    -90.8037E+06     163.214E+03         49.9921
             917     2.53401E-03     23.4306E-03         4.18183         4.08332        -5.79075         3.99218        -5.62218         4.10440     344.006E-03     338.815E-03    -169.184E-03    -169.631E-03    -169.173E-03     338.784E-03    -169.611E-03     7.36770E-03    -114.917E+06    -145.995E+06    -312.816E+06    -146.003E+06    -312.807E+06    -114.917E+06     725.942E+03         49.6367
             918     1.68781E-03     23.4303E-03         4.48066         4.13669        -6.15789         4.08751        -5.76474         4.13669        -1.01460     338.725E-03    -168.776E-03    -169.950E-03    -169.102E-03     338.720E-03    -169.618E-03     2.97252E-03    -139.375E+06    -154.721E+06    -339.330E+06    -154.739E+06    -339.311E+06    -139.375E+06     197.919E+03         49.3735
             919     843.847E-06     23.4239E-03         6.83159         3.11230        -7.47968         5.18909        -5.83718         3.11230         3.87210     339.221E-03    -167.852E-03    -171.369E-03    -169.723E-03     339.219E-03    -169.496E-03     1.01043E-03    -157.008E+06    -161.804E+06    -354.964E+06    -161.359E+06    -354.950E+06    -157.467E+06     -845.67E+03         49.2090
             920     14.3536E-03     23.1086E-03         2.55538         2.03303        -1.59498        -1.58733         2.41576         2.16500    -119.199E-03     347.474E-03    -170.171E-03    -177.304E-03    -170.886E-03     341.057E-03    -170.171E-03     106.895E-03     111.789E+06     109.925E+06    -7.30541E+06    -7.30237E+06     111.221E+06     110.491E+06    -27.3492E+03         63.1941
             921     13.5104E-03     22.9082E-03         2.39762         1.60024        -1.05744        -1.05060         1.59340         2.39762    -190.367E-03     348.185E-03    -170.059E-03    -178.126E-03    -170.962E-03     341.021E-03    -170.059E-03     117.489E-03     100.728E+06     97.1049E+06    -14.2969E+06    -14.2731E+06     97.0811E+06     100.728E+06     564.309E+03         61.5639
             922     12.6656E-03     22.7983E-03         2.62246     782.079E-03    -509.021E-03    -505.040E-03     778.098E-03         2.62246    -21.5831E-03     343.248E-03    -169.944E-03    -173.304E-03    -169.296E-03     339.240E-03    -169.944E-03     90.3488E-03     94.8261E+06     87.8393E+06    -20.6587E+06    -20.6343E+06     87.8148E+06     94.8261E+06    -19.0049E+03         59.8100
             923     11.8230E-03     22.6737E-03         2.83713     346.211E-03    -329.485E-03     33.8663E-03    -17.1399E-03         2.83713     41.1048E-03     342.724E-03    -169.815E-03    -172.909E-03    -168.948E-03     338.763E-03    -169.815E-03     89.7121E-03     86.2650E+06     81.3912E+06    -28.2444E+06    -28.2387E+06     81.8427E+06     85.8078E+06    -399.840E+03         58.1018
             924     10.9796E-03     22.5672E-03         3.04201     564.867E-03    -794.641E-03     558.898E-03    -788.672E-03         3.04201     107.193E-03     341.307E-03    -169.661E-03    -171.645E-03    -168.479E-03     338.140E-03    -169.661E-03     80.3432E-03     78.6560E+06     71.2980E+06    -37.1087E+06    -37.0927E+06     78.1528E+06     71.7852E+06    -387.736E+03         56.5721
             925     10.1353E-03     22.4649E-03         3.23619         1.06103        -1.52917         1.05973        -1.52788         3.23619     23.7995E-03     340.251E-03    -169.556E-03    -170.695E-03    -167.888E-03     337.445E-03    -169.556E-03     75.4270E-03     73.9036E+06     63.1211E+06    -46.8890E+06    -46.8758E+06     73.8904E+06     63.1211E+06    -438.681E+03         55.2793
             926     9.28989E-03     22.3763E-03         3.41893         1.55514        -2.24490         1.54840        -2.23817         3.41893     238.934E-03     339.137E-03    -169.369E-03    -169.768E-03    -167.298E-03     336.814E-03    -169.516E-03     68.4360E-03     61.5473E+06     56.5605E+06    -57.2551E+06    -57.2525E+06     60.9268E+06     57.1784E+06     215.315E+03         54.2137
             927     8.44482E-03     22.2902E-03         3.58863         2.02961        -2.91959         2.01494        -2.90493         3.58863    -51.9439E-03     338.974E-03    -169.336E-03    -169.638E-03    -167.652E-03     337.135E-03    -169.483E-03     60.8421E-03     40.5116E+06     10.3879E+06    -69.0289E+06    -68.9681E+06     10.3271E+06     40.5116E+06     1.19977E+06         53.3280
             928     7.60306E-03     22.2204E-03         3.74466         2.45197        -3.52480         2.44324        -3.51607         3.74466    -384.293E-03     338.786E-03    -169.227E-03    -169.559E-03    -168.023E-03     337.444E-03    -169.422E-03     51.9033E-03     19.7046E+06    -56.3513E+06    -80.1684E+06    -79.9444E+06    -56.5754E+06     19.7046E+06     1.06641E+06         52.5677
             929     6.75794E-03     22.1581E-03         3.88695         2.85418        -4.09468         2.83493        -4.07542         3.88695    -611.247E-03     337.835E-03    -168.481E-03    -169.354E-03    -167.582E-03     336.936E-03    -169.354E-03     42.3651E-03    -159.219E+03    -89.1149E+06    -105.688E+06    -89.9213E+06    -104.881E+06    -159.219E+03     162.543E+03         51.8905
             930     5.91250E-03     22.1126E-03         4.01445         3.22015        -4.61348         3.19927        -4.59261         4.01445    -715.452E-03     337.349E-03    -168.007E-03    -169.342E-03    -167.453E-03     336.795E-03    -169.342E-03     33.0697E-03    -20.8489E+06    -100.683E+06    -149.424E+06    -100.742E+06    -149.365E+06    -20.8489E+06     99.2126E+03         51.2732
             931     5.06763E-03     22.0784E-03         4.12587         3.53559        -5.06550         3.52105        -5.05096         4.12587    -654.529E-03     337.456E-03    -168.092E-03    -169.363E-03    -167.789E-03     337.153E-03    -169.363E-03     24.2905E-03    -42.3230E+06    -111.944E+06    -197.038E+06    -112.011E+06    -196.972E+06    -42.3230E+06     271.044E+03         50.7102
             932     4.22171E-03     22.0540E-03         4.21955         3.82159        -5.46484         3.80777        -5.45103         4.21955    -297.007E-03     337.787E-03    -168.421E-03    -169.366E-03    -168.274E-03     337.637E-03    -169.362E-03     16.9901E-03    -65.8960E+06    -124.335E+06    -241.909E+06    -124.391E+06    -241.853E+06    -65.8960E+06    -2.09798E+03         50.2069
             933     3.37851E-03     22.0365E-03         4.29535         4.07151        -5.80075         4.02984        -5.75908         4.29535    -718.017E-03     338.104E-03    -168.774E-03    -169.330E-03    -168.731E-03     338.037E-03    -169.306E-03     11.1980E-03    -91.0356E+06    -136.271E+06    -280.574E+06    -136.278E+06    -280.567E+06    -91.0356E+06    -169.744E+03         49.7740
             934     2.53337E-03     22.0312E-03         4.39669         4.28153        -6.12664         4.21303        -6.01412         4.35267     335.382E-03     338.279E-03    -168.957E-03    -169.322E-03    -169.076E-03     338.254E-03    -169.178E-03     6.78204E-03    -115.497E+06    -146.553E+06    -313.228E+06    -146.553E+06    -313.228E+06    -115.497E+06         273.069         49.4234
             935     1.69077E-03     22.0258E-03         4.56576         4.40158        -6.43079         4.30090        -6.16592         4.40158    -785.055E-03     338.210E-03    -168.849E-03    -169.361E-03    -169.296E-03     338.201E-03    -168.905E-03     3.96976E-03    -138.633E+06    -155.476E+06    -338.047E+06    -155.478E+06    -338.044E+06    -138.633E+06     249.890E+03         49.1646
             936     847.271E-06     22.0249E-03         6.34138         3.67243        -7.51448         5.17975        -6.35284         3.67243         3.24782     337.325E-03    -167.832E-03    -169.494E-03    -168.311E-03     337.320E-03    -169.010E-03     1.51057E-03    -157.308E+06    -162.800E+06    -353.507E+06    -162.094E+06    -353.498E+06    -158.023E+06     366.880E+03         49.0030
             937     14.3529E-03     21.7004E-03         2.64193         2.09702        -1.63351        -1.62954         2.49981         2.23517    -79.7891E-03     348.521E-03    -170.057E-03    -178.464E-03    -172.173E-03     342.230E-03    -170.057E-03     107.089E-03     112.069E+06     109.748E+06    -7.36979E+06    -7.34475E+06     111.687E+06     110.105E+06    -180.973E+03         63.1808
             938     13.5118E-03     21.4987E-03         2.45731         1.64679        -1.06611        -1.06234         1.64302         2.45731    -117.448E-03     348.867E-03    -169.858E-03    -179.009E-03    -172.156E-03     342.015E-03    -169.858E-03     114.998E-03     101.199E+06     97.3047E+06    -13.2808E+06    -13.2563E+06     97.6416E+06     100.837E+06    -963.489E+03         61.5382
             939     12.6706E-03     21.3941E-03         2.67056     825.207E-03    -512.077E-03    -507.609E-03     820.738E-03         2.67056     95.6358E-03     343.918E-03    -169.647E-03    -174.271E-03    -170.492E-03     340.139E-03    -169.647E-03     87.9073E-03     94.7476E+06     87.8727E+06    -20.3041E+06    -20.2983E+06     87.8669E+06     94.7476E+06    -647.927E+03         59.7596
             940     11.8264E-03     21.2667E-03         2.87428     369.587E-03    -311.257E-03     30.4210E-03     27.9087E-03         2.87428     159.949E-03     343.177E-03    -169.406E-03    -173.771E-03    -170.143E-03     339.550E-03    -169.406E-03     85.7880E-03     85.7169E+06     81.5193E+06    -28.6930E+06    -28.6913E+06     81.9748E+06     85.2597E+06     21.3367E+03         58.0153
             941     10.9838E-03     21.1620E-03         3.06813     563.548E-03    -753.853E-03     549.956E-03    -740.261E-03         3.06813     242.112E-03     340.919E-03    -169.153E-03    -171.766E-03    -169.000E-03     338.153E-03    -169.153E-03     74.9333E-03     78.2891E+06     71.9945E+06    -37.1101E+06    -37.0944E+06     78.2317E+06     72.0363E+06     1.01753E+06         56.4414
             942     10.1394E-03     21.0630E-03         3.25199         1.04737        -1.47176         1.04054        -1.46493         3.25199     187.633E-03     339.580E-03    -168.961E-03    -170.619E-03    -168.236E-03     337.197E-03    -168.961E-03     69.3337E-03     73.8714E+06     63.4261E+06    -46.6260E+06    -46.5907E+06     73.8360E+06     63.4261E+06     1.55717E+06         55.1013
             943     9.29672E-03     20.9705E-03         3.42530         1.52844        -2.16911         1.51638        -2.15704         3.42530     354.701E-03     338.799E-03    -168.799E-03    -170.000E-03    -168.107E-03     336.907E-03    -168.799E-03     61.7340E-03     61.6803E+06     56.5812E+06    -57.9135E+06    -57.8886E+06     61.4802E+06     56.7564E+06     1.19632E+06         53.9907
             944     8.45319E-03     20.8904E-03         3.58727         1.98440        -2.82293         1.96898        -2.80751         3.58727     118.185E-03     337.833E-03    -168.613E-03    -169.219E-03    -167.704E-03     336.352E-03    -168.648E-03     54.4907E-03     41.6004E+06     11.6303E+06    -68.3271E+06    -68.3196E+06     11.8971E+06     41.3261E+06     434.944E+03         53.0655
             945     7.60697E-03     20.8139E-03         3.73752         2.39492        -3.41624         2.39096        -3.41227         3.73752    -248.112E-03     336.893E-03    -168.262E-03    -168.631E-03    -167.290E-03     335.818E-03    -168.529E-03     46.1028E-03     21.1953E+06    -54.6278E+06    -78.2668E+06    -78.0375E+06    -54.8571E+06     21.1953E+06     69.4488E+03         52.2728
             946     6.76354E-03     20.7599E-03         3.87609         2.78723        -3.97739         2.77778        -3.96795         3.87609    -407.828E-03     336.157E-03    -167.720E-03    -168.437E-03    -167.036E-03     335.462E-03    -168.426E-03     36.9507E-03     1.03240E+06    -88.0817E+06    -104.514E+06    -88.9029E+06    -103.693E+06     1.03240E+06    -201.883E+03         51.5715
             947     5.91741E-03     20.7113E-03         4.00249         3.14793        -4.49181         3.13580        -4.47967         4.00249    -569.725E-03     335.763E-03    -167.404E-03    -168.359E-03    -167.010E-03     335.358E-03    -168.348E-03     27.9007E-03    -20.2145E+06    -100.674E+06    -149.240E+06    -100.701E+06    -149.213E+06    -20.2145E+06    -580.710E+03         50.9383
             948     5.07250E-03     20.6776E-03         4.11573         3.46723        -4.94785         3.46034        -4.94096         4.11573    -439.074E-03     335.676E-03    -167.391E-03    -168.285E-03    -167.191E-03     335.476E-03    -168.285E-03     19.5738E-03    -42.7005E+06    -112.633E+06    -197.203E+06    -112.684E+06    -197.153E+06    -42.7005E+06    -8.00184E+03         50.3663
             949     4.22864E-03     20.6532E-03         4.21315         3.76604        -5.36363         3.76165        -5.35924         4.21315    -223.059E-03     335.410E-03    -167.153E-03    -168.257E-03    -167.060E-03     335.317E-03    -168.257E-03     13.3259E-03    -65.1248E+06    -123.105E+06    -240.364E+06    -123.167E+06    -240.302E+06    -65.1248E+06     490.908E+03         49.8594
             950     3.38087E-03     20.6381E-03         4.29527         4.00117        -5.69815         3.98762        -5.68460         4.29527    -444.722E-03     335.380E-03    -167.081E-03    -168.299E-03    -167.045E-03     335.344E-03    -168.299E-03     8.11482E-03    -90.4668E+06    -134.488E+06    -279.538E+06    -134.506E+06    -279.520E+06    -90.4668E+06     86.2417E+03         49.4268
             951     2.53567E-03     20.6291E-03         4.36513         4.22911        -6.02580         4.19636        -5.98809         4.36016     202.274E-03     336.002E-03    -167.515E-03    -168.486E-03    -167.626E-03     335.989E-03    -168.362E-03     4.77142E-03    -116.635E+06    -146.112E+06    -313.856E+06    -146.113E+06    -313.855E+06    -116.635E+06     52.7351E+03         49.0786
             952     1.68966E-03     20.6254E-03         4.43311         4.35745        -6.23122         4.28704        -6.14808         4.42037    -246.479E-03     336.433E-03    -167.917E-03    -168.516E-03    -168.032E-03     336.425E-03    -168.392E-03     2.65563E-03    -138.500E+06    -155.005E+06    -337.502E+06    -155.007E+06    -337.501E+06    -138.500E+06     336.359E+03         48.8232
             953     842.872E-06     20.6265E-03         5.42554         3.88421        -6.77589         4.96644        -6.37360         3.94101         1.75825     336.684E-03    -167.760E-03    -168.924E-03    -168.751E-03     336.678E-03    -167.927E-03     873.336E-06    -156.649E+06    -162.276E+06    -352.179E+06    -162.010E+06    -352.173E+06    -156.921E+06     427.837E+03         48.6646
             954     14.3577E-03     20.2893E-03         2.71179         2.10209        -1.66681        -1.66529         2.65424         2.15811    -25.8690E-03     350.722E-03    -169.850E-03    -180.872E-03    -174.945E-03     344.795E-03    -169.850E-03     105.651E-03     113.600E+06     111.059E+06    -6.69060E+06    -6.66142E+06     113.571E+06     111.059E+06    -260.876E+03         63.2010
             955     13.5170E-03     20.0907E-03         2.40057         1.78263        -1.11160        -1.10984         1.82061         2.36083    -32.9783E-03     349.825E-03    -169.474E-03    -180.351E-03    -174.180E-03     343.654E-03    -169.474E-03     108.988E-03     101.505E+06     96.4411E+06    -14.7258E+06    -14.6848E+06     98.0639E+06     99.8413E+06    -1.24356E+06         61.5429
             956     12.6742E-03     19.9860E-03         2.55500         1.03450    -580.978E-03    -567.485E-03         1.02101         2.55500     207.402E-03     345.020E-03    -169.087E-03    -175.933E-03    -172.656E-03     341.743E-03    -169.087E-03     81.9574E-03     93.5415E+06     86.6914E+06    -21.9600E+06    -21.9369E+06     86.6683E+06     93.5415E+06    -1.19078E+06         59.7308
             957     11.8360E-03     19.8581E-03         2.74062     456.876E-03    -247.320E-03    -41.3903E-03     250.947E-03         2.74062     263.076E-03     343.788E-03    -168.651E-03    -175.137E-03    -172.123E-03     340.774E-03    -168.651E-03     78.0303E-03     85.1161E+06     80.9598E+06    -29.2417E+06    -29.2377E+06     80.9558E+06     85.1161E+06    -149.134E+03         57.9371
             958     10.9943E-03     19.7589E-03         2.91646     503.400E-03    -525.341E-03     459.552E-03    -481.492E-03         2.91646     355.729E-03     341.021E-03    -168.188E-03    -172.832E-03    -170.707E-03     338.896E-03    -168.188E-03     65.7831E-03     77.5474E+06     71.8357E+06    -37.5006E+06    -37.4778E+06     76.8181E+06     72.5421E+06     1.29400E+06         56.3024
             959     10.1522E-03     19.6591E-03         3.08302     950.355E-03        -1.19386     927.023E-03        -1.17053         3.08302     325.374E-03     339.144E-03    -167.774E-03    -171.371E-03    -169.590E-03     337.364E-03    -167.774E-03     59.7966E-03     74.7233E+06     64.9398E+06    -45.9133E+06    -45.8671E+06     74.6772E+06     64.9398E+06     2.26736E+06         54.8960
             960     9.30827E-03     19.5685E-03         3.23978         1.39819        -1.84861         1.37812        -1.82854         3.23978     450.826E-03     337.415E-03    -167.400E-03    -170.015E-03    -168.652E-03     336.052E-03    -167.400E-03     52.0797E-03     64.7880E+06     58.9875E+06    -54.6130E+06    -54.5865E+06     64.7616E+06     58.9875E+06     1.29610E+06         53.7192
             961     8.46495E-03     19.4873E-03         3.38615         1.83327        -2.46789         1.81335        -2.44797         3.38615     294.364E-03     335.729E-03    -167.038E-03    -168.691E-03    -167.657E-03     334.729E-03    -167.072E-03     44.1734E-03     44.4770E+06     13.0521E+06    -64.7953E+06    -64.7850E+06     14.0641E+06     43.4547E+06     248.551E+03         52.7330
             962     7.62104E-03     19.4188E-03         3.52107         2.22956        -3.03020         2.22844        -3.02908         3.52107    -112.288E-03     333.937E-03    -166.556E-03    -167.381E-03    -166.470E-03     333.283E-03    -166.813E-03     35.3927E-03     22.3018E+06    -53.1287E+06    -76.6546E+06    -76.5054E+06    -53.2779E+06     22.3018E+06     206.816E+03         51.8875
             963     6.77326E-03     19.3587E-03         3.64423         2.60575        -3.56306         2.60307        -3.56038         3.64423    -196.526E-03     333.051E-03    -166.348E-03    -166.703E-03    -166.074E-03     332.665E-03    -166.591E-03     26.6911E-03     1.19637E+06    -86.7099E+06    -104.549E+06    -88.7595E+06    -102.500E+06     1.19637E+06     235.780E+03         51.1429
             964     5.92948E-03     19.3147E-03         3.75641         2.94368        -4.04988         2.93641        -4.04260         3.75641    -424.269E-03     332.250E-03    -165.830E-03    -166.419E-03    -165.642E-03     332.050E-03    -166.409E-03     18.8667E-03    -20.1932E+06    -100.069E+06    -148.535E+06    -100.072E+06    -148.532E+06    -20.1932E+06     350.119E+03         50.4763
             965     5.08240E-03     19.2803E-03         3.85864         3.23290        -4.46966         3.22682        -4.46357         3.85864    -202.516E-03     331.448E-03    -165.139E-03    -166.309E-03    -165.043E-03     331.352E-03    -166.309E-03     12.9159E-03    -43.7130E+06    -111.446E+06    -195.433E+06    -111.464E+06    -195.415E+06    -43.7130E+06    -252.212E+03         49.8801
             966     4.23388E-03     19.2576E-03         3.94846         3.51412        -4.85633         3.50997        -4.85218         3.94846    -131.583E-03     331.427E-03    -165.128E-03    -166.299E-03    -165.086E-03     331.384E-03    -166.299E-03     7.78924E-03    -67.5759E+06    -123.923E+06    -241.121E+06    -123.959E+06    -241.085E+06    -67.5759E+06    -325.081E+03         49.3571
             967     3.38810E-03     19.2427E-03         4.02454         3.73808        -5.16610         3.73004        -5.15806         4.02454    -87.6618E-03     331.564E-03    -165.223E-03    -166.341E-03    -165.210E-03     331.551E-03    -166.341E-03     3.65577E-03    -90.5029E+06    -135.074E+06    -279.151E+06    -135.107E+06    -279.118E+06    -90.5029E+06     728.808E+03         48.9151
             968     2.53981E-03     19.2333E-03         4.08574         3.94778        -5.46421         3.93906        -5.45204         4.08229     58.1731E-03     331.874E-03    -165.437E-03    -166.436E-03    -165.433E-03     331.870E-03    -166.436E-03     760.320E-06    -115.484E+06    -145.482E+06    -312.000E+06    -145.496E+06    -311.986E+06    -115.484E+06     739.639E+03         48.5621
             969     1.69261E-03     19.2289E-03         4.13667         4.06428        -5.65208         4.01827        -5.60261         4.13322     465.009E-03     332.535E-03    -165.965E-03    -166.570E-03    -165.963E-03     332.533E-03    -166.570E-03    -1.17761E-03    -139.127E+06    -154.734E+06    -337.470E+06    -154.738E+06    -337.467E+06    -139.127E+06     92.2953E+03         48.3048
             970     847.782E-06     19.2272E-03         4.77153         3.72860        -5.98455         4.53107        -5.80692         3.79144    -49.5447E-03     333.178E-03    -165.603E-03    -167.575E-03    -166.445E-03     333.175E-03    -166.730E-03    -806.736E-06    -156.028E+06    -161.109E+06    -351.239E+06    -161.096E+06    -351.236E+06    -156.044E+06    -263.129E+03         48.1458
             971     14.3613E-03     18.8711E-03         2.88094         1.93334        -1.70263        -1.70224         2.88056         1.93334     22.5198E-03     355.450E-03    -169.536E-03    -185.914E-03    -180.512E-03     350.048E-03    -169.536E-03     103.805E-03     114.357E+06     111.590E+06    -7.41608E+06     -7.4091E+06     114.350E+06     111.590E+06    -119.746E+03         63.2873
             972     13.5260E-03     18.6816E-03         2.34767         1.88211        -1.19106        -1.19037         2.11988         2.10921     27.0620E-03     353.053E-03    -168.797E-03    -184.255E-03    -179.040E-03     347.838E-03    -168.797E-03     100.866E-03     102.934E+06     98.2026E+06    -14.4251E+06    -14.4003E+06     100.529E+06     100.582E+06    -236.678E+03         61.6161
             973     12.6895E-03     18.5750E-03         2.27780         1.39844    -701.523E-03    -680.824E-03         1.37774         2.27780     297.568E-03     346.780E-03    -168.067E-03    -178.713E-03    -176.154E-03     344.222E-03    -168.067E-03     72.8591E-03     93.0603E+06     86.8751E+06    -22.3709E+06    -22.3462E+06     86.8505E+06     93.0603E+06    -926.334E+03         59.7673
             974     11.8498E-03     18.4499E-03         2.43918     735.448E-03    -259.346E-03    -187.188E-03     663.290E-03         2.43918     364.794E-03     344.217E-03    -167.326E-03    -176.891E-03    -174.705E-03     342.031E-03    -167.326E-03     66.3254E-03     84.3690E+06     79.3396E+06    -30.2929E+06    -30.2757E+06     79.3224E+06     84.3690E+06    -826.542E+03         57.9134
             975     11.0111E-03     18.3532E-03         2.59127     541.555E-03    -276.142E-03     280.364E-03    -14.9510E-03         2.59127     484.163E-03     341.318E-03    -166.545E-03    -174.773E-03    -173.318E-03     339.864E-03    -166.545E-03     54.1394E-03     76.8626E+06     72.0894E+06    -37.6337E+06    -37.6020E+06     75.6071E+06     73.3133E+06    -397.937E+03         56.2016
             976     10.1716E-03     18.2551E-03         2.73479     802.408E-03    -738.885E-03     714.449E-03    -650.926E-03         2.73479     477.132E-03     338.673E-03    -165.772E-03    -172.902E-03    -171.796E-03     337.567E-03    -165.772E-03     46.5706E-03     74.9848E+06     66.6003E+06    -44.9211E+06    -44.8979E+06     74.9616E+06     66.6003E+06     153.360E+03         54.7083
             977     9.33058E-03     18.1703E-03         2.86854         1.18454        -1.30317         1.14758        -1.26622         2.86854     545.144E-03     335.194E-03    -165.057E-03    -170.137E-03    -169.385E-03     334.442E-03    -165.057E-03     38.0431E-03     66.6709E+06     60.5449E+06    -53.7468E+06    -53.7308E+06     66.6549E+06     60.5449E+06     626.031E+03         53.4415
             978     8.48686E-03     18.0882E-03         2.99093         1.60319        -1.88031         1.56966        -1.84678         2.99093     472.107E-03     332.422E-03    -164.435E-03    -167.987E-03    -167.504E-03     331.939E-03    -164.435E-03     29.6550E-03     44.9767E+06     15.1591E+06    -65.1607E+06    -65.1343E+06     16.4237E+06     43.6858E+06     1.07678E+06         52.3677
             979     7.64172E-03     18.0251E-03         3.10113         1.95737        -2.37880         1.95664        -2.37807         3.10113     35.6514E-03     330.126E-03    -163.890E-03    -166.235E-03    -165.970E-03     329.860E-03    -163.890E-03     21.5017E-03     21.7520E+06    -50.8873E+06    -76.6206E+06    -76.4542E+06    -51.0537E+06     21.7520E+06     1.11371E+06         51.4418
             980     6.79728E-03     17.9661E-03         3.20037         2.28902        -2.84613         2.28809        -2.84520         3.20037     19.0036E-03     327.669E-03    -163.360E-03    -164.309E-03    -164.093E-03     327.538E-03    -163.446E-03     14.0496E-03     1.26584E+06    -84.2813E+06    -103.020E+06    -86.7178E+06    -100.583E+06     1.26584E+06     883.033E+03         50.6261
             981     5.94733E-03     17.9237E-03         3.29067         2.58731        -3.27093         2.57895        -3.26257         3.29067    -276.830E-03     325.925E-03    -162.754E-03    -163.172E-03    -162.719E-03     325.876E-03    -163.158E-03     7.14797E-03    -19.9017E+06    -97.9124E+06    -146.526E+06    -97.9308E+06    -146.508E+06    -19.9017E+06     711.999E+03         49.8991
             982     5.09782E-03     17.8925E-03         3.37300         2.84527        -3.63912         2.83072        -3.62457         3.37300    -16.9285E-03     325.224E-03    -162.215E-03    -163.009E-03    -162.202E-03     325.196E-03    -162.994E-03     2.20089E-03    -42.5502E+06    -110.022E+06    -194.208E+06    -110.040E+06    -194.190E+06    -42.5502E+06     1.08092E+06         49.2537
             983     4.24883E-03     17.8680E-03         3.44407         3.10195        -3.98222         3.08291        -3.96318         3.44407    -110.299E-03     324.935E-03    -162.031E-03    -162.905E-03    -162.011E-03     324.916E-03    -162.905E-03    -1.95322E-03    -66.6926E+06    -122.558E+06    -240.405E+06    -122.593E+06    -240.370E+06    -66.6926E+06     911.530E+03         48.6924
             984     3.39797E-03     17.8536E-03         3.50110         3.31241        -4.25930         3.27697        -4.22386         3.50110     161.405E-03     325.029E-03    -162.173E-03    -162.856E-03    -162.151E-03     325.007E-03    -162.856E-03    -4.26121E-03    -89.9015E+06    -134.248E+06    -278.633E+06    -134.285E+06    -278.597E+06    -89.9015E+06     537.278E+03         48.2219
             985     2.54916E-03     17.8444E-03         3.58329         3.46406        -4.52022         3.44468        -4.45804         3.54050    -149.181E-03     325.108E-03    -162.280E-03    -162.828E-03    -162.260E-03     325.088E-03    -162.828E-03    -4.96892E-03    -113.412E+06    -144.589E+06    -310.265E+06    -144.607E+06    -310.248E+06    -113.412E+06     665.134E+03         47.8490
             986     1.69967E-03     17.8391E-03         3.74271         3.56822        -4.81421         3.49230        -4.56984         3.57425         1.03039     325.200E-03    -162.334E-03    -162.866E-03    -162.322E-03     325.188E-03    -162.866E-03    -4.25299E-03    -137.915E+06    -154.251E+06    -335.644E+06    -154.255E+06    -335.641E+06    -137.915E+06     80.0708E+03         47.5787
             987     848.268E-06     17.8377E-03         4.75145         3.28037        -5.57374         3.89990        -4.72821         3.28639        -1.70149     325.721E-03    -161.739E-03    -163.982E-03    -162.761E-03     325.716E-03    -162.955E-03    -2.88925E-03    -157.101E+06    -162.228E+06    -351.847E+06    -162.230E+06    -351.846E+06    -157.101E+06    -276.490E+03         47.4122
             988     14.3669E-03     17.4368E-03         3.15129         1.57050        -1.70288        -1.70267         3.15108         1.57050     55.2798E-03     361.646E-03    -169.137E-03    -192.510E-03    -187.568E-03     356.705E-03    -169.137E-03     102.168E-03     114.551E+06     112.212E+06    -7.32248E+06    -7.32023E+06     114.478E+06     112.283E+06    -199.224E+03         63.4671
             989     13.5405E-03     17.2673E-03         2.51591         1.68784        -1.25740        -1.25694         2.49184         1.71144     65.9514E-03     358.833E-03    -167.909E-03    -190.924E-03    -186.463E-03     354.372E-03    -167.909E-03     94.8146E-03     102.996E+06     99.6275E+06    -14.1378E+06    -14.1346E+06     101.480E+06     101.140E+06    -3.45159E+03         61.7875
             990     12.7078E-03     17.1564E-03         2.12024         1.60610    -838.255E-03    -811.619E-03         1.85240         1.84730     389.053E-03     351.415E-03    -166.642E-03    -184.774E-03    -182.765E-03     349.407E-03    -166.642E-03     65.3724E-03     93.9932E+06     88.7958E+06    -21.1774E+06    -21.1749E+06     88.7933E+06     93.9932E+06     114.894E+03         59.9063
             991     11.8756E-03     17.0452E-03         2.03520         1.20589    -407.740E-03    -372.486E-03         1.22812         1.97772     466.672E-03     346.537E-03    -165.371E-03    -181.166E-03    -179.683E-03     345.054E-03    -165.371E-03     54.9026E-03     84.5195E+06     80.0275E+06    -29.3399E+06    -29.3252E+06     80.0127E+06     84.5195E+06    -924.628E+03         57.9925
             992     11.0388E-03     16.9435E-03         2.09949     892.877E-03    -223.203E-03     41.4674E-03     628.206E-03         2.09949     626.814E-03     341.885E-03    -164.092E-03    -177.793E-03    -176.963E-03     341.055E-03    -164.092E-03     40.7734E-03     76.6573E+06     72.4054E+06    -38.1088E+06    -38.0509E+06     75.7920E+06     73.2128E+06    -2.31726E+06         56.1960
             993     10.2024E-03     16.8542E-03         2.21353     770.787E-03    -276.301E-03     430.418E-03     64.0683E-03         2.21353     669.096E-03     337.580E-03    -162.836E-03    -174.744E-03    -174.226E-03     337.062E-03    -162.836E-03     31.5286E-03     73.4788E+06     65.2363E+06    -46.8297E+06    -46.7819E+06     73.4311E+06     65.2363E+06    -2.00771E+06         54.6001
             994     9.36300E-03     16.7708E-03         2.31831     934.807E-03    -591.429E-03     821.338E-03    -477.960E-03         2.31831     685.971E-03     332.926E-03    -161.640E-03    -171.285E-03    -170.992E-03     332.633E-03    -161.640E-03     22.7790E-03     65.1180E+06     57.6432E+06    -56.6051E+06    -56.5899E+06     65.1028E+06     57.6432E+06    -61.6074E+03         53.2214
             995     8.52042E-03     16.6997E-03         2.41211         1.29069        -1.07204         1.20030    -981.642E-03         2.41211     679.474E-03     328.399E-03    -160.565E-03    -167.834E-03    -167.696E-03     328.261E-03    -160.565E-03     14.0092E-03     45.2447E+06     16.7345E+06    -66.2987E+06    -66.2565E+06     19.3690E+06     42.5680E+06     1.29881E+06         52.0334
             996     7.67553E-03     16.6336E-03         2.49452         1.55047        -1.44198         1.54226        -1.43376         2.49452     199.884E-03     324.342E-03    -159.636E-03    -164.706E-03    -164.650E-03     324.286E-03    -159.636E-03     5.97711E-03     21.5816E+06    -47.5131E+06    -76.2328E+06    -76.0707E+06    -47.6752E+06     21.5816E+06     1.33585E+06         50.9961
             997     6.82658E-03     16.5848E-03         2.56783         1.82329        -1.82204         1.81787        -1.81662         2.56783     209.307E-03     320.794E-03    -158.796E-03    -161.998E-03    -161.887E-03     320.748E-03    -158.861E-03    -1.08655E-03     383.457E+03    -84.6875E+06    -101.725E+06    -87.6249E+06    -98.7877E+06     383.457E+03     1.28372E+06         50.0760
             998     5.97611E-03     16.5440E-03         2.63451         2.07060        -2.17439         2.05430        -2.15809         2.63451    -139.421E-03     318.233E-03    -158.190E-03    -160.043E-03    -159.910E-03     318.164E-03    -158.255E-03    -7.36243E-03    -21.1538E+06    -99.5641E+06    -144.852E+06    -99.6821E+06    -144.734E+06    -21.1538E+06     1.98114E+06         49.2543
             999     5.12475E-03     16.5122E-03         2.69574         2.28691        -2.48336         2.25469        -2.45114         2.69574     118.138E-03     316.543E-03    -157.718E-03    -158.825E-03    -158.646E-03     316.434E-03    -157.788E-03    -11.9519E-03    -43.0310E+06    -111.739E+06    -192.689E+06    -111.821E+06    -192.607E+06    -43.0310E+06     1.99999E+06         48.5258
            1000     4.27130E-03     16.4914E-03         2.74922         2.50563        -2.77412         2.45709        -2.72558         2.74922    -102.022E-03     315.095E-03    -157.174E-03    -157.921E-03    -157.510E-03     314.962E-03    -157.452E-03    -14.2149E-03    -65.4034E+06    -123.118E+06    -237.239E+06    -123.155E+06    -237.202E+06    -65.4034E+06     2.00026E+06         47.8942
            1001     3.41801E-03     16.4761E-03         2.79746         2.69934        -3.02469         2.61347        -2.93351         2.79215     285.666E-03     314.205E-03    -156.852E-03    -157.353E-03    -156.838E-03     314.085E-03    -157.247E-03    -14.0559E-03    -90.6585E+06    -134.739E+06    -276.031E+06    -134.775E+06    -275.995E+06    -90.6585E+06     1.46990E+06         47.3667
            1002     2.56328E-03     16.4672E-03         2.93768         2.79988        -3.28224         2.73959        -3.10708         2.82280    -317.345E-03     313.959E-03    -156.811E-03    -157.148E-03    -156.722E-03     313.870E-03    -157.148E-03    -12.1750E-03    -115.227E+06    -145.884E+06    -309.151E+06    -145.906E+06    -309.130E+06    -115.227E+06     159.886E+03         46.9502
            1003     1.70814E-03     16.4636E-03         3.36409         2.84725        -3.77622         2.79172        -3.20385         2.84725         1.32611     314.019E-03    -156.710E-03    -157.308E-03    -156.891E-03     313.966E-03    -157.075E-03    -9.28177E-03    -137.591E+06    -155.310E+06    -334.620E+06    -155.317E+06    -334.614E+06    -137.591E+06    -56.2904E+03         46.6494
            1004     854.686E-06     16.4600E-03         5.01493         2.57504        -5.18592         3.14341        -3.31440         2.57504        -2.73419     313.948E-03    -156.192E-03    -157.756E-03    -157.433E-03     313.928E-03    -156.495E-03    -5.36911E-03    -157.085E+06    -162.764E+06    -351.283E+06    -162.717E+06    -351.282E+06    -157.133E+06     356.162E+03         46.4644
            1005     14.3745E-03     16.0069E-03         3.45384         1.08323        -1.66306        -1.66259         3.45336         1.08323     93.7226E-03     368.293E-03    -168.679E-03    -199.614E-03    -194.992E-03     363.672E-03    -168.679E-03     100.436E-03     114.823E+06     113.027E+06    -6.80259E+06    -6.79682E+06     114.746E+06     113.098E+06     136.789E+03         63.7481
            1006     13.5500E-03     15.8310E-03         2.90736         1.18183        -1.28304        -1.28227         2.90659         1.18183     109.677E-03     364.981E-03    -166.956E-03    -198.025E-03    -194.019E-03     360.975E-03    -166.956E-03     90.6902E-03     103.229E+06     100.602E+06    -14.0983E+06    -14.0860E+06     101.831E+06     101.988E+06    -314.426E+03         62.0664
            1007     12.7299E-03     15.7351E-03         2.42442         1.27741    -951.300E-03    -918.458E-03         2.39158         1.27741     495.589E-03     358.217E-03    -165.085E-03    -193.131E-03    -191.459E-03     356.544E-03    -165.085E-03     60.5568E-03     95.2219E+06     89.5359E+06    -21.3382E+06    -21.3300E+06     89.5276E+06     95.2219E+06    -549.061E+03         60.1632
            1008     11.9032E-03     15.6266E-03         2.05121         1.24464    -600.043E-03    -563.066E-03         1.88880         1.37007     570.539E-03     352.013E-03    -163.110E-03    -188.902E-03    -187.765E-03     350.876E-03    -163.110E-03     48.6758E-03     85.8981E+06     81.2862E+06    -29.1138E+06    -29.1102E+06     81.3459E+06     85.8348E+06    -106.789E+03         58.2018
            1009     11.0758E-03     15.5371E-03         1.87669         1.12934    -366.680E-03    -222.368E-03         1.40611         1.45560     760.201E-03     344.667E-03    -161.109E-03    -183.558E-03    -183.031E-03     344.140E-03    -161.109E-03     32.6695E-03     78.1476E+06     71.9147E+06    -37.9461E+06    -37.8945E+06     77.8478E+06     72.1629E+06    -380.715E+03         56.3285
            1010     10.2412E-03     15.4523E-03         1.74113     988.779E-03    -143.567E-03     99.9755E-03     951.635E-03         1.53473     843.675E-03     337.676E-03    -159.180E-03    -178.495E-03    -178.270E-03     337.450E-03    -159.180E-03     20.3497E-03     72.6706E+06     61.0685E+06    -48.7164E+06    -48.6647E+06     72.6189E+06     61.0685E+06    -802.801E+03         54.6294
            1011     9.40375E-03     15.3780E-03         1.64566         1.01338    -116.184E-03     413.084E-03     523.489E-03         1.60628     810.373E-03     331.138E-03    -157.350E-03    -173.788E-03    -173.713E-03     331.063E-03    -157.350E-03     9.43378E-03     64.4323E+06     54.2405E+06    -59.1735E+06    -59.1616E+06     64.4205E+06     54.2405E+06    -1.05299E+06         53.1289
            1012     8.56382E-03     15.3109E-03         1.68513         1.09230    -265.488E-03     700.783E-03     140.852E-03         1.67030     874.774E-03     324.849E-03    -155.634E-03    -169.215E-03    -169.175E-03     324.809E-03    -155.634E-03    -822.111E-06     45.1124E+06     16.7270E+06    -68.7438E+06    -68.7046E+06     21.1990E+06     40.6012E+06    -465.839E+03         51.8087
            1013     7.71813E-03     15.2576E-03         1.72731         1.07479    -313.637E-03     965.776E-03    -204.625E-03         1.72731     373.720E-03     318.700E-03    -154.074E-03    -164.626E-03    -164.514E-03     318.588E-03    -154.074E-03    -10.6956E-03     19.9211E+06    -44.6901E+06    -79.2848E+06    -79.1449E+06    -44.8299E+06     19.9211E+06     974.559E+03         50.6349
            1014     6.86878E-03     15.2106E-03         1.77854         1.22654    -544.128E-03         1.18310    -500.688E-03         1.77854     372.928E-03     313.384E-03    -152.684E-03    -160.701E-03    -160.454E-03     313.137E-03    -152.684E-03    -19.0696E-03    -1.46410E+06    -84.3884E+06    -103.490E+06    -90.7857E+06    -97.0925E+06    -1.46410E+06     1.95612E+06         49.5793
            1015     6.01770E-03     15.1754E-03         1.82519         1.43047    -829.617E-03         1.37414    -773.289E-03         1.82519    -15.4464E-03     308.766E-03    -151.488E-03    -157.278E-03    -156.909E-03     308.397E-03    -151.488E-03    -24.4489E-03    -22.9635E+06    -102.260E+06    -143.241E+06    -102.466E+06    -143.035E+06    -22.9635E+06     2.79664E+06         48.6274
            1016     5.16228E-03     15.1481E-03         1.86865         1.60129        -1.07474         1.52430    -997.744E-03         1.86865     200.902E-03     304.643E-03    -150.535E-03    -154.109E-03    -153.674E-03     304.208E-03    -150.535E-03    -27.0382E-03    -45.2179E+06    -113.556E+06    -188.403E+06    -113.706E+06    -188.254E+06    -45.2179E+06     2.96267E+06         47.7780
            1017     4.30509E-03     15.1298E-03         1.90898         1.77548        -1.30642         1.66709        -1.19804         1.90898    -48.5298E-03     301.572E-03    -149.854E-03    -151.717E-03    -151.293E-03     301.147E-03    -149.854E-03    -26.8869E-03    -68.1930E+06    -125.626E+06    -234.463E+06    -125.691E+06    -234.398E+06    -68.1930E+06     2.21185E+06         47.0389
            1018     3.44478E-03     15.1175E-03         2.00807         1.91306        -1.55090         1.78612        -1.36012         1.94423     373.378E-03     299.531E-03    -149.260E-03    -150.271E-03    -149.781E-03     299.185E-03    -149.404E-03    -24.1911E-03    -92.2147E+06    -137.518E+06    -272.850E+06    -137.545E+06    -272.823E+06    -92.2147E+06     1.85953E+06         46.4204
            1019     2.58351E-03     15.1096E-03         2.22320         1.97278        -1.83681         1.88483        -1.49844         1.97278    -293.909E-03     298.505E-03    -148.957E-03    -149.547E-03    -149.157E-03     298.261E-03    -149.104E-03    -20.1979E-03    -118.069E+06    -148.209E+06    -306.056E+06    -148.233E+06    -306.032E+06    -118.069E+06     985.985E+03         45.9313
            1020     1.72333E-03     15.1039E-03         2.86832         1.99316        -2.52578         1.95541        -1.61288         1.99316         1.41185     297.985E-03    -148.736E-03    -149.249E-03    -148.996E-03     297.855E-03    -148.859E-03    -14.6295E-03    -141.576E+06    -157.563E+06    -334.329E+06    -157.573E+06    -334.319E+06    -141.576E+06    -12.6233E+03         45.5776
            1021     862.343E-06     15.1024E-03         4.90869         1.71796        -4.31629         2.28288        -1.69047         1.71796        -2.94244     297.393E-03    -148.264E-03    -149.129E-03    -148.877E-03     297.349E-03    -148.473E-03    -8.13976E-03    -159.142E+06    -164.258E+06    -351.255E+06    -164.095E+06    -351.250E+06    -159.311E+06     649.717E+03         45.3599
            1022     14.3810E-03     14.5584E-03         3.78874     486.448E-03        -1.59880        -1.59779         3.78772     486.448E-03     143.633E-03     374.966E-03    -168.272E-03    -206.694E-03    -202.146E-03     370.418E-03    -168.272E-03     100.875E-03     116.067E+06     113.880E+06    -6.13615E+06    -6.13173E+06     115.794E+06     114.149E+06     29.5390E+03         64.1089
            1023     13.5666E-03     14.3957E-03         3.37205     537.746E-03        -1.29118        -1.28948         3.37036     537.746E-03     172.994E-03     371.548E-03    -166.074E-03    -205.474E-03    -201.561E-03     367.636E-03    -166.074E-03     90.5687E-03     104.611E+06     101.536E+06    -13.2743E+06    -13.2564E+06     102.952E+06     103.177E+06     250.140E+03         62.4345
            1024     12.7462E-03     14.2948E-03         3.02787     587.963E-03        -1.04574        -1.00990         2.99203     587.963E-03     604.670E-03     364.723E-03    -163.635E-03    -201.088E-03    -199.542E-03     363.177E-03    -163.635E-03     59.0010E-03     94.9084E+06     89.2639E+06    -21.9047E+06    -21.8893E+06     89.2486E+06     94.9084E+06    -43.4506E+03         60.5263
            1025     11.9308E-03     14.2022E-03         2.66781     638.249E-03    -784.299E-03    -746.264E-03         2.62978     638.249E-03     650.354E-03     358.321E-03    -160.985E-03    -197.336E-03    -196.321E-03     357.306E-03    -160.985E-03     46.6236E-03     86.0933E+06     81.8150E+06    -30.1026E+06    -30.0993E+06     81.8750E+06     86.0300E+06     352.744E+03         58.5386
            1026     11.1071E-03     14.1202E-03         2.39787     684.172E-03    -609.522E-03    -506.147E-03         2.29449     684.172E-03     867.813E-03     350.120E-03    -158.199E-03    -191.921E-03    -191.494E-03     349.693E-03    -158.199E-03     29.4011E-03     78.2249E+06     72.8710E+06    -38.6833E+06    -38.6668E+06     77.9963E+06     73.0832E+06     1.12532E+06         56.6114
            1027     10.2824E-03     14.0498E-03         2.10528     727.116E-03    -406.757E-03    -290.653E-03         1.98918     727.116E-03     964.903E-03     341.249E-03    -155.398E-03    -185.852E-03    -185.728E-03     341.125E-03    -155.398E-03     14.6431E-03     74.2803E+06     62.5469E+06    -47.2817E+06    -47.2644E+06     74.2631E+06     62.5469E+06     902.856E+03         54.8285
            1028     9.45066E-03     13.9847E-03         1.85663     766.317E-03    -232.476E-03    -77.7613E-03         1.70191     766.317E-03     875.170E-03     332.069E-03    -152.654E-03    -179.415E-03    -179.379E-03     332.033E-03    -152.654E-03     255.252E-06     66.8992E+06     54.9375E+06    -56.4851E+06    -56.4739E+06     66.8879E+06     54.9375E+06    -377.124E+03         53.2174
            1029     8.61232E-03     13.9296E-03         1.77400     707.648E-03    -112.709E-03     116.881E-03         1.44988     802.176E-03     998.838E-03     323.060E-03    -150.024E-03    -173.036E-03    -172.912E-03     322.936E-03    -150.024E-03    -13.3589E-03     44.7299E+06     17.5114E+06    -68.4630E+06    -68.4070E+06     22.7620E+06     39.4233E+06    -117.173E+03         51.7652
            1030     7.77097E-03     13.8842E-03         1.65647     603.258E-03     91.6767E-03     295.386E-03         1.22068     835.342E-03     503.451E-03     314.670E-03    -147.528E-03    -167.142E-03    -166.790E-03     314.318E-03    -147.528E-03    -24.8108E-03     17.8089E+06    -43.1291E+06    -81.6911E+06    -81.4579E+06    -43.3623E+06     17.8089E+06     1.64465E+06         50.4454
            1031     6.92427E-03     13.8491E-03         1.61403     644.156E-03     70.1102E-03     432.790E-03         1.02806     867.449E-03     502.570E-03     306.104E-03    -145.214E-03    -160.889E-03    -160.249E-03     305.463E-03    -145.214E-03    -33.8357E-03    -3.05022E+06    -84.2458E+06    -103.239E+06    -92.7694E+06    -94.7153E+06    -3.05022E+06     2.69090E+06         49.2361
            1032     6.06935E-03     13.8217E-03         1.56834     748.329E-03    -17.0848E-03     560.310E-03     839.575E-03     899.699E-03     114.169E-03     297.784E-03    -143.216E-03    -154.569E-03    -153.692E-03     296.908E-03    -143.216E-03    -39.1743E-03    -24.8164E+06    -103.137E+06    -140.184E+06    -103.428E+06    -139.892E+06    -24.8164E+06     2.80949E+06         48.1286
            1033     5.21030E-03     13.8031E-03         1.54212     837.961E-03    -106.738E-03     667.318E-03     673.953E-03     932.069E-03     259.827E-03     290.853E-03    -141.616E-03    -149.237E-03    -148.257E-03     289.873E-03    -141.616E-03    -40.8539E-03    -47.7641E+06    -114.262E+06    -185.382E+06    -114.445E+06    -185.199E+06    -47.7641E+06     3.59466E+06         47.1286
            1034     4.34555E-03     13.7899E-03         1.52117     931.879E-03    -193.919E-03     779.230E-03     517.112E-03     962.788E-03     28.6531E-03     285.571E-03    -140.402E-03    -145.169E-03    -144.237E-03     284.638E-03    -140.402E-03    -39.3086E-03    -71.1712E+06    -126.058E+06    -229.896E+06    -126.222E+06    -229.732E+06    -71.1712E+06     3.78940E+06         46.2501
            1035     3.47924E-03     13.7814E-03         1.61582     986.362E-03    -348.075E-03     874.192E-03     391.119E-03     988.796E-03     391.108E-03     281.774E-03    -139.504E-03    -142.270E-03    -141.525E-03     281.029E-03    -139.504E-03    -34.7692E-03    -95.0787E+06    -138.152E+06    -268.974E+06    -138.206E+06    -268.920E+06    -95.0787E+06     1.95800E+06         45.5095
            1036     2.61156E-03     13.7745E-03         1.83692         1.00960    -600.197E-03     943.002E-03     293.726E-03         1.00960    -194.040E-03     279.011E-03    -138.881E-03    -140.130E-03    -139.646E-03     278.527E-03    -138.881E-03    -27.8419E-03    -119.516E+06    -149.337E+06    -303.501E+06    -149.352E+06    -303.486E+06    -119.516E+06     1.39973E+06         44.9201
            1037     1.74105E-03     13.7717E-03         2.48544         1.02114        -1.29340         1.00718     184.862E-03         1.02114         1.27323     277.322E-03    -138.434E-03    -138.888E-03    -138.517E-03     277.072E-03    -138.555E-03    -19.6306E-03    -142.450E+06    -158.091E+06    -331.829E+06    -158.119E+06    -331.801E+06    -142.450E+06     1.76853E+06         44.4914
            1038     869.260E-06     13.7707E-03         4.42965     757.331E-03        -3.00287         1.28816     138.618E-03     757.331E-03        -2.53020     276.899E-03    -137.946E-03    -138.953E-03    -138.746E-03     276.813E-03    -138.067E-03    -10.8590E-03    -160.101E+06    -165.648E+06    -350.742E+06    -165.563E+06    -350.706E+06    -160.222E+06     311.983E+03         44.2261
            1039     14.3838E-03     13.1084E-03         4.15056    -199.608E-03        -1.51168        -1.51000         4.14888    -199.608E-03     189.660E-03     379.777E-03    -167.993E-03    -211.784E-03    -207.210E-03     375.204E-03    -167.993E-03     101.761E-03     116.008E+06     113.473E+06    -7.29002E+06    -7.28912E+06     115.737E+06     113.743E+06    -167.809E+03         64.5027
            1040     13.5711E-03     12.9388E-03         3.89264    -198.179E-03        -1.30428        -1.30163         3.88999    -198.179E-03     222.721E-03     377.180E-03    -165.439E-03    -211.742E-03    -207.688E-03     373.127E-03    -165.439E-03     93.3962E-03     104.911E+06     100.719E+06    -14.3994E+06    -14.3881E+06     102.783E+06     102.835E+06     666.159E+03         62.8453
            1041     12.7648E-03     12.8534E-03         3.70073    -194.841E-03        -1.15423        -1.11935         3.66584    -194.841E-03     693.377E-03     370.885E-03    -162.531E-03    -208.354E-03    -206.698E-03     369.229E-03    -162.531E-03     61.7416E-03     94.9844E+06     89.8913E+06    -22.1334E+06    -22.1002E+06     89.8581E+06     94.9844E+06     1.66868E+06         60.9529
            1042     11.9485E-03     12.7636E-03         3.49584    -187.690E-03    -992.294E-03    -956.901E-03         3.46045    -187.690E-03     697.550E-03     364.669E-03    -159.281E-03    -205.387E-03    -204.336E-03     363.618E-03    -159.281E-03     47.8501E-03     85.9853E+06     81.9678E+06    -30.8486E+06    -30.8255E+06     82.7733E+06     85.1566E+06     994.627E+03         58.9683
            1043     11.1370E-03     12.6950E-03         3.36624    -180.851E-03    -912.408E-03    -834.199E-03         3.28803    -180.851E-03     928.666E-03     356.633E-03    -155.750E-03    -200.883E-03    -200.463E-03     356.214E-03    -155.750E-03     29.5870E-03     78.4663E+06     72.7952E+06    -38.5325E+06    -38.5276E+06     78.2493E+06     73.0074E+06    -83.5005E+03         57.0211
            1044     10.3169E-03     12.6378E-03         3.22373    -172.234E-03    -815.063E-03    -730.906E-03         3.13957    -172.234E-03         1.02912     347.243E-03    -152.032E-03    -195.211E-03    -195.094E-03     347.126E-03    -152.032E-03     13.7056E-03     74.5099E+06     62.9808E+06    -46.0737E+06    -46.0671E+06     74.5034E+06     62.9808E+06     29.7897E+03         55.1891
            1045     9.49416E-03     12.5860E-03         3.07678    -162.275E-03    -698.875E-03    -625.919E-03         3.00383    -162.275E-03     909.266E-03     336.032E-03    -148.234E-03    -187.798E-03    -187.758E-03     335.992E-03    -148.234E-03    -2.90015E-03     67.2088E+06     53.7628E+06    -55.9759E+06    -55.9077E+06     67.1405E+06     53.7628E+06     1.62553E+06         53.4979
            1046     8.66475E-03     12.5494E-03         2.97097    -151.193E-03    -612.913E-03    -520.632E-03         2.87868    -151.193E-03         1.07659     324.127E-03    -144.488E-03    -179.639E-03    -179.454E-03     323.942E-03    -144.488E-03    -17.9824E-03     44.3957E+06     18.5884E+06    -68.0532E+06    -67.8188E+06     24.9011E+06     37.8486E+06     3.62385E+06         51.9374
            1047     7.82551E-03     12.5157E-03         2.78656    -139.606E-03    -449.421E-03    -415.728E-03         2.75286    -139.606E-03     595.261E-03     312.224E-03    -140.876E-03    -171.348E-03    -170.803E-03     311.679E-03    -140.876E-03    -31.4679E-03     17.1198E+06    -39.4301E+06    -80.5764E+06    -80.0452E+06    -39.9612E+06     17.1198E+06     3.98667E+06         50.4867
            1048     6.97910E-03     12.4966E-03         2.69729    -125.258E-03    -393.916E-03    -355.956E-03         2.65933    -125.258E-03     593.739E-03     300.044E-03    -137.487E-03    -162.557E-03    -161.566E-03     299.053E-03    -137.487E-03    -42.3698E-03    -3.82314E+06    -82.5724E+06    -100.415E+06    -92.0836E+06    -90.9039E+06    -3.82314E+06     3.59489E+06         49.1301
            1049     6.12556E-03     12.4844E-03         2.60381    -106.253E-03    -343.473E-03    -302.805E-03         2.56314    -106.253E-03     239.859E-03     288.236E-03    -134.469E-03    -153.768E-03    -152.412E-03     286.881E-03    -134.469E-03    -48.5914E-03    -26.1714E+06    -103.305E+06    -137.559E+06    -103.939E+06    -136.925E+06    -26.1714E+06     3.94422E+06         47.8666
            1050     5.26247E-03     12.4773E-03         2.53880    -83.5976E-03    -318.845E-03    -251.475E-03         2.47143    -83.5976E-03     329.795E-03     277.706E-03    -131.925E-03    -145.781E-03    -144.242E-03     276.167E-03    -131.925E-03    -50.7490E-03    -50.2764E+06    -115.898E+06    -183.638E+06    -116.259E+06    -183.278E+06    -50.2764E+06     4.68166E+06         46.7092
            1051     4.39470E-03     12.4731E-03         2.47665    -60.2570E-03    -287.210E-03    -182.257E-03         2.37170    -60.2570E-03     155.096E-03     269.068E-03    -129.872E-03    -139.196E-03    -137.745E-03     267.617E-03    -129.872E-03    -48.4028E-03    -74.3313E+06    -127.407E+06    -224.297E+06    -127.634E+06    -224.070E+06    -74.3313E+06     4.46778E+06         45.6795
            1052     3.52092E-03     12.4706E-03         2.47392    -41.0842E-03    -306.125E-03    -108.558E-03         2.27635    -41.0842E-03     398.261E-03     262.269E-03    -128.291E-03    -133.978E-03    -132.810E-03     261.101E-03    -128.291E-03    -42.6602E-03    -97.9518E+06    -137.845E+06    -263.318E+06    -137.961E+06    -263.202E+06    -97.9518E+06     3.28806E+06         44.8014
            1053     2.64238E-03     12.4697E-03         2.55933    -27.0242E-03    -412.681E-03    -65.0864E-03         2.21174    -27.0242E-03    -52.2745E-03     257.184E-03    -127.181E-03    -130.004E-03    -129.211E-03     256.391E-03    -127.181E-03    -34.4405E-03    -120.737E+06    -148.320E+06    -301.147E+06    -148.379E+06    -301.087E+06    -120.737E+06     2.35953E+06         44.0959
            1054     1.76224E-03     12.4689E-03         2.93688    -23.4661E-03    -816.194E-03    -14.8326E-03         2.13552    -23.4661E-03         1.03145     254.073E-03    -126.469E-03    -127.605E-03    -127.188E-03     253.657E-03    -126.469E-03    -24.4263E-03    -142.430E+06    -158.248E+06    -329.131E+06    -158.275E+06    -329.103E+06    -142.430E+06     1.66552E+06         43.5782
            1055     882.528E-06     12.4676E-03         4.23384    -251.575E-03        -1.90891     198.395E-03         2.12653    -251.575E-03        -1.83900     252.403E-03    -125.745E-03    -126.657E-03    -126.513E-03     252.259E-03    -125.745E-03    -13.6064E-03    -157.093E+06    -165.388E+06    -346.880E+06    -163.225E+06    -346.821E+06    -159.315E+06     964.719E+03         43.2553
            1056     14.3870E-03     11.6467E-03         4.53351    -942.310E-03        -1.42709        -1.42067         4.53076    -945.985E-03     214.687E-03     381.726E-03    -167.839E-03    -213.887E-03    -209.122E-03     376.960E-03    -167.839E-03     102.961E-03     115.345E+06     113.196E+06    -7.24533E+06    -7.23490E+06     115.314E+06     113.217E+06     693.638E+03         64.8694
            1057     13.5792E-03     11.4839E-03         4.45685    -964.041E-03        -1.35804        -1.32363         4.45309    -994.686E-03     242.730E-03     380.501E-03    -165.123E-03    -215.378E-03    -210.900E-03     376.023E-03    -165.123E-03     98.3965E-03     104.153E+06     99.6847E+06    -14.1787E+06    -14.1639E+06     101.608E+06     102.214E+06     979.392E+03         63.2337
            1058     12.7666E-03     11.3960E-03         4.43413    -987.067E-03        -1.34126        -1.26099         4.40466        -1.03787     736.560E-03     375.695E-03    -161.931E-03    -213.764E-03    -211.912E-03     373.843E-03    -161.931E-03     65.9302E-03     96.4371E+06     90.5785E+06    -20.2007E+06    -20.1672E+06     90.5450E+06     96.4371E+06     926.395E+03         61.3738
            1059     11.9656E-03     11.3168E-03         4.40316        -1.01024        -1.31773        -1.22783         4.37458        -1.07155     708.710E-03     370.258E-03    -158.241E-03    -212.017E-03    -210.736E-03     368.977E-03    -158.241E-03     53.5760E-03     88.1079E+06     83.2197E+06    -26.9571E+06    -26.9126E+06     84.0038E+06     87.2793E+06     998.480E+03         59.4197
            1060     11.1535E-03     11.2608E-03         4.42231        -1.04787        -1.32446        -1.21393         4.36451        -1.10061     954.364E-03     362.946E-03    -154.095E-03    -208.851E-03    -208.258E-03     362.354E-03    -154.095E-03     35.6578E-03     79.6883E+06     70.5814E+06    -36.2042E+06    -36.1078E+06     78.8612E+06     71.3121E+06     1.81857E+06         57.4877
            1061     10.3449E-03     11.2118E-03         4.42520        -1.06700        -1.31869        -1.20061         4.36339        -1.12326         1.05383     352.969E-03    -149.619E-03    -203.350E-03    -203.143E-03     352.762E-03    -149.619E-03     19.3118E-03     73.7986E+06     58.8502E+06    -46.8476E+06    -46.6906E+06     73.6416E+06     58.8502E+06     2.67675E+06         55.6469
            1062     9.52802E-03     11.1835E-03         4.40634        -1.06900        -1.29919        -1.18178         4.36049        -1.14057     920.533E-03     341.030E-03    -144.932E-03    -196.098E-03    -196.047E-03     340.979E-03    -144.932E-03     3.10283E-03     64.5813E+06     49.7952E+06    -58.4886E+06    -58.2952E+06     64.3879E+06     49.7952E+06     4.14898E+06         53.9193
            1063     8.70292E-03     11.1607E-03         4.41137        -1.08731        -1.28964        -1.16554         4.35274        -1.15278         1.10770     327.562E-03    -140.137E-03    -187.425E-03    -187.294E-03     327.431E-03    -140.137E-03    -13.2538E-03     42.7875E+06     19.7421E+06    -69.7402E+06    -69.2967E+06     26.6838E+06     35.4023E+06     6.03463E+06         52.2965
            1064     7.87237E-03     11.1512E-03         4.35604        -1.08810        -1.24276        -1.14761         4.33260        -1.15981     663.245E-03     312.120E-03    -135.416E-03    -176.704E-03    -176.238E-03     311.654E-03    -135.416E-03    -28.7471E-03     15.7595E+06    -33.5875E+06    -81.1486E+06    -80.2631E+06    -34.4730E+06     15.7595E+06     5.93868E+06         50.7594
            1065     7.02942E-03     11.1506E-03         4.34469        -1.10027        -1.23264        -1.14787         4.32067        -1.16103     667.926E-03     296.454E-03    -130.945E-03    -165.510E-03    -164.584E-03     295.528E-03    -130.945E-03    -40.6102E-03    -4.37608E+06    -78.8233E+06    -99.9150E+06    -91.7958E+06    -86.9426E+06    -4.37608E+06     5.24892E+06         49.2967
            1066     6.17594E-03     11.1579E-03         4.32713        -1.10401        -1.22278        -1.14880         4.30586        -1.15672     362.585E-03     281.643E-03    -126.832E-03    -154.811E-03    -153.469E-03     280.301E-03    -126.832E-03    -47.9898E-03    -26.0408E+06    -102.686E+06    -136.579E+06    -104.150E+06    -135.115E+06    -26.0408E+06     6.05957E+06         47.9132
            1067     5.31405E-03     11.1681E-03         4.32451        -1.11257        -1.21665        -1.15555         4.29885        -1.14800     403.092E-03     267.592E-03    -123.166E-03    -144.426E-03    -142.847E-03     266.013E-03    -123.166E-03    -50.8099E-03    -50.2099E+06    -115.916E+06    -180.370E+06    -116.664E+06    -179.621E+06    -50.2099E+06     6.61652E+06         46.6281
            1068     4.44080E-03     11.1785E-03         4.31484        -1.11864        -1.20058        -1.15324         4.28535        -1.13650     304.915E-03     255.025E-03    -120.047E-03    -134.979E-03    -133.419E-03     253.466E-03    -120.047E-03    -49.1908E-03    -75.7106E+06    -128.570E+06    -219.824E+06    -129.037E+06    -219.357E+06    -75.7106E+06     6.06164E+06         45.4695
            1069     3.56096E-03     11.1863E-03         4.30167        -1.11414        -1.19326        -1.13515         4.25474        -1.12531     437.755E-03     244.664E-03    -117.526E-03    -127.138E-03    -125.810E-03     243.336E-03    -117.526E-03    -44.2945E-03    -100.958E+06    -140.640E+06    -258.860E+06    -140.938E+06    -258.562E+06    -100.958E+06     5.49806E+06         44.4691
            1070     2.67625E-03     11.1939E-03         4.30182        -1.11624        -1.19454        -1.12303         4.23031        -1.11624     157.530E-03     236.750E-03    -115.560E-03    -121.191E-03    -120.253E-03     235.813E-03    -115.560E-03    -36.3401E-03    -125.359E+06    -151.546E+06    -296.128E+06    -151.706E+06    -295.968E+06    -125.359E+06     4.41908E+06         43.6561
            1071     1.78681E-03     11.1972E-03         4.40468        -1.11469        -1.31575        -1.09822         4.18715        -1.11469     854.007E-03     230.901E-03    -114.067E-03    -116.834E-03    -116.328E-03     230.395E-03    -114.067E-03    -25.9879E-03    -147.535E+06    -160.769E+06    -324.933E+06    -160.824E+06    -324.878E+06    -147.535E+06     1.93615E+06         43.0536
            1072     893.401E-06     11.1994E-03         4.94132        -1.27833        -1.70559    -954.468E-03         4.19020        -1.27833        -1.10867     226.969E-03    -112.983E-03    -113.986E-03    -113.802E-03     226.785E-03    -112.983E-03    -14.8189E-03    -159.622E+06    -167.898E+06    -343.896E+06    -165.721E+06    -343.851E+06    -161.844E+06     529.187E+03         42.6746
            1073     14.3877E-03     10.1998E-03         4.92387        -1.30260        -1.74757        -1.32692         4.91885        -1.71823     233.757E-03     382.562E-03    -167.813E-03    -214.749E-03    -209.754E-03     377.567E-03    -167.813E-03     104.756E-03     114.518E+06     112.699E+06    -5.97647E+06    -5.96349E+06     114.471E+06     112.733E+06     680.144E+03         65.1426
            1074     13.5727E-03     10.0147E-03         5.05318        -1.37377        -1.81493        -1.36743         5.04684        -1.81493     273.563E-03     381.224E-03    -165.068E-03    -216.156E-03    -211.325E-03     376.393E-03    -165.068E-03     102.099E-03     104.695E+06     100.467E+06    -11.9565E+06    -11.9421E+06     102.237E+06     102.910E+06     238.605E+03         63.5268
            1075     12.7747E-03     9.93766E-03         5.21805        -1.46515        -1.90188        -1.44194         5.19485        -1.90188     758.122E-03     376.115E-03    -161.845E-03    -214.270E-03    -212.106E-03     373.951E-03    -161.845E-03     71.1308E-03     95.8530E+06     90.8455E+06    -19.4691E+06    -19.4489E+06     90.8253E+06     95.8530E+06     84.5360E+03         61.7002
            1076     11.9620E-03     9.86403E-03         5.36105        -1.55249        -1.97414        -1.53146         5.34002        -1.97414     712.029E-03     372.915E-03    -158.052E-03    -214.863E-03    -213.090E-03     371.142E-03    -158.052E-03     63.5352E-03     85.8788E+06     82.2696E+06    -28.3118E+06    -28.2359E+06     82.1936E+06     85.8788E+06     1.90862E+06         59.7849
            1077     11.1627E-03     9.81070E-03         5.52403        -1.66051        -2.03680        -1.61854         5.48206        -2.03680     972.127E-03     366.444E-03    -153.676E-03    -212.768E-03    -211.766E-03     365.442E-03    -153.676E-03     47.1278E-03     77.2567E+06     71.2139E+06    -37.0256E+06    -36.8218E+06     76.0084E+06     72.2584E+06     4.66076E+06         57.8890
            1078     10.3531E-03     9.78513E-03         5.65233        -1.73162        -2.08832        -1.68666         5.60737        -2.08832         1.05716     356.845E-03    -148.839E-03    -208.006E-03    -207.460E-03     356.299E-03    -148.839E-03     33.3862E-03     72.5002E+06     60.7254E+06    -46.5901E+06    -46.1343E+06     72.0445E+06     60.7254E+06     7.08048E+06         56.0742
            1079     9.54053E-03     9.76749E-03         5.75266        -1.77751        -2.13102        -1.74612         5.72126        -2.13102     921.396E-03     345.187E-03    -143.642E-03    -201.545E-03    -201.315E-03     344.957E-03    -143.642E-03     18.6940E-03     64.6477E+06     50.5994E+06    -57.5731E+06    -56.9228E+06     63.9973E+06     50.5994E+06     8.38772E+06         54.3604
            1080     8.72551E-03     9.76753E-03         5.85859        -1.84117        -2.16466        -1.80111         5.81853        -2.16466         1.08736     330.252E-03    -138.235E-03    -192.017E-03    -191.909E-03     330.145E-03    -138.235E-03     3.19776E-03     42.6543E+06     21.7496E+06    -69.6887E+06    -68.9144E+06     28.2470E+06     35.3826E+06     8.20678E+06         52.7376
            1081     7.89651E-03     9.78295E-03         5.92073        -1.87729        -2.18916        -1.85894         5.90238        -2.18916     687.037E-03     313.279E-03    -132.840E-03    -180.438E-03    -180.258E-03     313.098E-03    -132.840E-03    -10.0083E-03     15.5022E+06    -28.5191E+06    -82.2069E+06    -80.7854E+06    -29.9406E+06     15.5022E+06     7.82478E+06         51.1865
            1082     7.05746E-03     9.80835E-03         5.99914        -1.94333        -2.20557        -1.92487         5.98068        -2.20557     696.675E-03     296.073E-03    -127.606E-03    -168.466E-03    -168.092E-03     295.698E-03    -127.606E-03    -20.9357E-03    -4.94450E+06    -75.4922E+06    -101.440E+06    -92.3510E+06    -84.5813E+06    -4.94450E+06     7.37848E+06         49.6967
            1083     6.20732E-03     9.83690E-03         6.06517        -1.99982        -2.21555        -1.98374         6.04909        -2.21555     443.628E-03     279.234E-03    -122.634E-03    -156.600E-03    -155.969E-03     278.604E-03    -122.634E-03    -29.4661E-03    -25.8469E+06    -102.152E+06    -136.299E+06    -104.393E+06    -134.058E+06    -25.8469E+06     7.56038E+06         48.2732
            1084     5.34502E-03     9.86970E-03         6.12917        -2.05368        -2.22135        -2.03845         6.11393        -2.22135     431.986E-03     263.186E-03    -117.991E-03    -145.196E-03    -144.355E-03     262.346E-03    -117.991E-03    -34.6157E-03    -48.5331E+06    -115.315E+06    -177.750E+06    -116.571E+06    -176.495E+06    -48.5331E+06     8.56954E+06         46.9359
            1085     4.47427E-03     9.89798E-03         6.19012        -2.10636        -2.22488        -2.09061         6.17437        -2.22488     389.999E-03     247.827E-03    -113.789E-03    -134.038E-03    -133.092E-03     246.881E-03    -113.789E-03    -36.3502E-03    -73.4338E+06    -128.294E+06    -216.698E+06    -129.394E+06    -215.598E+06    -73.4338E+06     9.57009E+06         45.7156
            1086     3.59237E-03     9.92320E-03         6.24416        -2.14642        -2.23694        -2.13709         6.22545        -2.22756     429.325E-03     234.013E-03    -110.168E-03    -123.845E-03    -122.964E-03     233.132E-03    -110.168E-03    -34.3051E-03    -101.073E+06    -142.392E+06    -254.440E+06    -143.203E+06    -253.629E+06    -101.073E+06     9.00163E+06         44.6484
            1087     2.70146E-03     9.94073E-03         6.29513        -2.19881        -2.23824        -2.18668         6.27285        -2.22810     295.821E-03     222.712E-03    -107.199E-03    -115.514E-03    -114.859E-03     222.058E-03    -107.199E-03    -29.0437E-03    -126.812E+06    -155.271E+06    -289.582E+06    -155.647E+06    -289.206E+06    -126.812E+06     6.47455E+06         43.7706
            1088     1.80548E-03     9.95439E-03         6.33434        -2.22579        -2.26722        -2.20373         6.27303        -2.22796     688.981E-03     213.837E-03    -104.927E-03    -108.911E-03    -108.534E-03     213.461E-03    -104.927E-03    -21.3581E-03    -149.356E+06    -164.590E+06    -318.079E+06    -164.709E+06    -317.960E+06    -149.356E+06     3.92093E+06         43.1131
            1089     904.877E-06     9.96272E-03         6.48906        -2.27451        -2.38061        -2.10917         6.28431        -2.34119    -540.037E-03     208.030E-03    -103.326E-03    -104.704E-03    -104.565E-03     207.891E-03    -103.326E-03    -12.0787E-03    -165.511E+06    -174.588E+06    -340.723E+06    -171.801E+06    -340.668E+06    -168.354E+06     1.17974E+06         42.6960
            1090     14.3832E-03     8.73097E-03         5.30521        -1.24187        -2.48012        -1.23413         5.29748        -2.48012     266.096E-03     380.905E-03    -167.911E-03    -212.994E-03    -207.733E-03     375.645E-03    -167.911E-03     104.827E-03     114.884E+06     111.968E+06    -5.59694E+06    -5.59342E+06     114.479E+06     112.370E+06    -211.144E+03         65.2593
            1091     13.5823E-03     8.55755E-03         5.63732        -1.43526        -2.61987        -1.42560         5.62766        -2.61987     331.021E-03     378.119E-03    -165.361E-03    -212.758E-03    -207.147E-03     372.508E-03    -165.361E-03     110.016E-03     104.670E+06     99.9883E+06    -12.2523E+06    -12.2163E+06     102.467E+06     102.155E+06     380.834E+03         63.6439
            1092     12.7596E-03     8.48442E-03         5.98259        -1.65257        -2.74695        -1.63252         5.96254        -2.74695     776.187E-03     373.722E-03    -162.400E-03    -211.321E-03    -208.441E-03     370.841E-03    -162.400E-03     81.4872E-03     92.5728E+06     88.0720E+06    -22.1974E+06    -22.0621E+06     87.9366E+06     92.5728E+06     2.78447E+06         61.8281
            1093     11.9589E-03     8.40267E-03         6.30278        -1.85002        -2.85586        -1.83304         6.28580        -2.85586     731.357E-03     370.517E-03    -158.890E-03    -211.627E-03    -209.049E-03     367.939E-03    -158.890E-03     76.4735E-03     82.9196E+06     79.3578E+06    -31.4800E+06    -31.2815E+06     80.0736E+06     82.0053E+06     4.44040E+06         59.9341
            1094     11.1470E-03     8.36668E-03         6.61268        -2.04641        -2.95106        -2.01617         6.58244        -2.95106     968.148E-03     364.874E-03    -154.819E-03    -210.055E-03    -208.238E-03     363.057E-03    -154.819E-03     63.5123E-03     74.2356E+06     68.8511E+06    -39.8936E+06    -39.6508E+06     73.6789E+06     69.1650E+06     5.22212E+06         58.0691
            1095     10.3398E-03     8.34756E-03         6.87146        -2.20401        -3.03067        -2.17226         6.83971        -3.03067         1.02252     356.487E-03    -150.261E-03    -206.226E-03    -204.833E-03     355.094E-03    -150.261E-03     54.3529E-03     68.8925E+06     59.7290E+06    -48.3240E+06    -47.8430E+06     68.4115E+06     59.7290E+06     7.26349E+06         56.2993
            1096     9.53060E-03     8.34772E-03         7.09454        -2.33944        -3.09679        -2.31666         7.07176        -3.09679     907.905E-03     344.046E-03    -145.365E-03    -198.681E-03    -197.575E-03     342.941E-03    -145.365E-03     45.3660E-03     63.7345E+06     52.8394E+06    -56.5482E+06    -55.6553E+06     62.8417E+06     52.8394E+06     10.1572E+06         54.6448
            1097     8.70895E-03     8.37261E-03         7.29279        -2.46686        -3.14972        -2.43860         7.26453        -3.14972         1.03782     329.536E-03    -140.312E-03    -189.224E-03    -188.354E-03     328.666E-03    -140.312E-03     36.5783E-03     45.2004E+06     25.1474E+06    -66.6542E+06    -65.2680E+06     29.6491E+06     39.3124E+06     11.1297E+06         53.0947
            1098     7.88170E-03     8.41334E-03         7.46184        -2.58308        -3.19086        -2.56826         7.44702        -3.19086     674.737E-03     314.880E-03    -135.170E-03    -179.709E-03    -178.997E-03     314.168E-03    -135.170E-03     28.5626E-03     19.2290E+06    -25.8959E+06    -80.0048E+06    -77.1735E+06    -28.7273E+06     19.2290E+06     10.7150E+06         51.6276
            1099     7.04515E-03     8.46112E-03         7.62291        -2.70554        -3.22206        -2.69215         7.60953        -3.22206     657.249E-03     299.677E-03    -129.954E-03    -169.723E-03    -169.165E-03     299.119E-03    -129.954E-03     19.4558E-03    -1.99019E+06    -72.3082E+06    -100.875E+06    -89.8576E+06    -83.3252E+06    -1.99019E+06     10.1600E+06         50.2264
            1100     6.19800E-03     8.51726E-03         7.77740        -2.82812        -3.24490        -2.81598         7.76526        -3.24490     445.519E-03     283.857E-03    -124.753E-03    -159.104E-03    -158.675E-03     283.427E-03    -124.753E-03     10.2752E-03    -22.3835E+06    -99.2614E+06    -136.594E+06    -102.728E+06    -133.127E+06    -22.3835E+06     9.40624E+06         48.8861
            1101     5.34175E-03     8.56898E-03         7.91085        -2.93260        -3.26154        -2.92322         7.90147        -3.26154     391.626E-03     267.761E-03    -119.673E-03    -148.088E-03    -147.732E-03     267.405E-03    -119.673E-03     2.07381E-03    -43.7718E+06    -113.991E+06    -178.635E+06    -115.669E+06    -176.957E+06    -43.7718E+06     10.2071E+06         47.6182
            1102     4.47390E-03     8.62156E-03         8.02709        -3.02718        -3.27488        -3.01778         8.01768        -3.27488     387.463E-03     251.915E-03    -114.837E-03    -137.078E-03    -136.763E-03     251.601E-03    -114.837E-03    -3.88239E-03    -66.5823E+06    -126.636E+06    -215.024E+06    -128.157E+06    -213.503E+06    -66.5823E+06     11.4330E+06         46.4484
            1103     3.59561E-03     8.66545E-03         8.12957        -3.11862        -3.28635        -3.11113         8.12208        -3.28635     334.850E-03     236.685E-03    -110.409E-03    -126.276E-03    -126.015E-03     236.423E-03    -110.409E-03    -7.56540E-03    -91.8556E+06    -139.227E+06    -247.897E+06    -140.367E+06    -246.757E+06    -91.8556E+06     10.9257E+06         45.4121
            1104     2.70821E-03     8.70010E-03         8.22801        -3.21489        -3.29277        -3.20708         8.22021        -3.29277     311.902E-03     222.820E-03    -106.649E-03    -116.171E-03    -115.962E-03     222.611E-03    -106.649E-03    -8.90823E-03    -120.008E+06    -151.862E+06    -282.577E+06    -152.465E+06    -281.973E+06    -120.008E+06     8.35613E+06         44.5483
            1105     1.81026E-03     8.72627E-03         8.28169        -3.26206        -3.29793        -3.24707         8.26550        -3.29673     466.329E-03     212.085E-03    -103.786E-03    -108.299E-03    -108.173E-03     211.959E-03    -103.786E-03    -7.91652E-03    -146.727E+06    -164.138E+06    -312.591E+06    -164.375E+06    -312.354E+06    -146.727E+06     5.64857E+06         43.8935
            1106     905.831E-06     8.74306E-03         8.36137        -3.22523        -3.40508        -3.18177         8.31671        -3.40388    -92.6202E-03     205.106E-03    -101.760E-03    -103.346E-03    -103.306E-03     205.066E-03    -101.760E-03    -4.93603E-03    -164.425E+06    -175.438E+06    -333.955E+06    -172.706E+06    -333.844E+06    -167.268E+06     4.02839E+06         43.4745
            1107     14.3899E-03     7.28803E-03         5.65208        -1.16548        -3.19337        -1.15603         5.64264        -3.19337     291.135E-03     376.340E-03    -168.365E-03    -207.974E-03    -201.804E-03     370.169E-03    -168.365E-03     110.419E-03     113.475E+06     109.483E+06    -6.55361E+06    -6.52177E+06     113.055E+06     109.871E+06    -228.930E+03         65.1653
            1108     13.5532E-03     7.10622E-03         6.18393        -1.48885        -3.36945        -1.47827         6.17335        -3.36945     356.993E-03     373.292E-03    -166.254E-03    -207.038E-03    -200.106E-03     366.360E-03    -166.254E-03     121.590E-03     101.051E+06     96.0564E+06    -14.3653E+06    -14.2858E+06     98.8422E+06     98.1853E+06     2.44459E+06         63.5152
            1109     12.7525E-03     7.02524E-03         6.69965        -1.81410        -3.53231        -1.79766         6.68321        -3.53231     731.537E-03     367.695E-03    -163.874E-03    -203.820E-03    -199.788E-03     363.662E-03    -163.874E-03     94.7219E-03     91.3512E+06     85.2680E+06    -21.0844E+06    -20.9034E+06     85.0871E+06     91.3512E+06     4.23368E+06         61.6643
            1110     11.9293E-03     6.96159E-03         7.17956        -2.12058        -3.67484        -2.10726         7.16623        -3.67484     696.490E-03     363.800E-03    -161.108E-03    -202.692E-03    -198.602E-03     359.710E-03    -161.108E-03     94.7833E-03     84.0059E+06     77.7901E+06    -28.2267E+06    -27.8287E+06     78.3064E+06     83.0916E+06     6.04726E+06         59.7467
            1111     11.1159E-03     6.92039E-03         7.63019        -2.40783        -3.80068        -2.38754         7.60990        -3.80068     882.136E-03     357.224E-03    -157.977E-03    -199.247E-03    -195.871E-03     353.848E-03    -157.977E-03     85.1185E-03     75.0395E+06     67.6472E+06    -38.3075E+06    -37.6792E+06     73.0640E+06     68.9945E+06     7.91884E+06         57.8857
            1112     10.3001E-03     6.91672E-03         8.02418        -2.65292        -3.90743        -2.63244         8.00369        -3.90743     910.251E-03     347.488E-03    -154.657E-03    -192.831E-03    -189.405E-03     344.063E-03    -154.657E-03     83.3260E-03     67.7261E+06     58.8518E+06    -48.9336E+06    -48.3334E+06     67.1259E+06     58.8518E+06     8.08869E+06         56.1643
            1113     9.47416E-03     6.93762E-03         8.37751        -2.88171        -3.99709        -2.86611         8.36191        -3.99709     825.089E-03     336.960E-03    -151.289E-03    -185.671E-03    -182.008E-03     333.297E-03    -151.289E-03     83.8423E-03     60.2943E+06     53.9947E+06    -59.0686E+06    -58.3747E+06     59.4279E+06     54.1671E+06     8.93467E+06         54.6117
            1114     8.64621E-03     6.98350E-03         8.67972        -3.09048        -4.07089        -3.07211         8.66135        -4.07089     911.150E-03     327.555E-03    -147.806E-03    -179.749E-03    -175.994E-03     323.801E-03    -147.806E-03     82.7485E-03     46.3411E+06     25.8713E+06    -68.7825E+06    -67.4059E+06     26.8784E+06     43.9574E+06     10.8499E+06         53.2184
            1115     7.81219E-03     7.03887E-03         8.95920        -3.29878        -4.12980        -3.28792         8.94834        -4.12980     611.436E-03     318.517E-03    -144.090E-03    -174.427E-03    -170.747E-03     314.838E-03    -144.090E-03     80.0406E-03     26.3914E+06    -27.6975E+06    -79.8048E+06    -76.3855E+06    -31.1167E+06     26.3914E+06     11.3479E+06         51.9529
            1116     6.97446E-03     7.11007E-03         9.20258        -3.48059        -4.17524        -3.47155         9.19354        -4.17524     582.583E-03     308.839E-03    -140.063E-03    -168.775E-03    -165.394E-03     305.457E-03    -140.063E-03     74.5757E-03     7.35348E+06    -71.1171E+06    -99.2158E+06    -86.6757E+06    -83.6572E+06     7.35348E+06     11.0217E+06         50.7794
            1117     6.13236E-03     7.18141E-03         9.43099        -3.65349        -4.20937        -3.64492         9.42242        -4.20937     394.107E-03     297.806E-03    -135.761E-03    -162.045E-03    -159.145E-03     294.906E-03    -135.761E-03     66.4366E-03    -11.3486E+06    -94.0992E+06    -137.527E+06    -97.8461E+06    -133.780E+06    -11.3486E+06     10.1245E+06         49.6730
            1118     5.28197E-03     7.25931E-03         9.62870        -3.80866        -4.23374        -3.80293         9.62297        -4.23374     316.527E-03     285.338E-03    -131.294E-03    -154.043E-03    -151.742E-03     283.037E-03    -131.294E-03     56.4940E-03    -30.5149E+06    -107.841E+06    -180.016E+06    -109.176E+06    -178.681E+06    -30.5149E+06     9.33192E+06         48.6266
            1119     4.42253E-03     7.32929E-03         9.78995        -3.94659        -4.25040        -3.94097         9.78433        -4.25040     342.128E-03     272.273E-03    -126.801E-03    -145.473E-03    -143.791E-03     270.592E-03    -126.801E-03     45.8037E-03    -51.6685E+06    -119.507E+06    -212.532E+06    -120.508E+06    -211.531E+06    -51.6685E+06     9.06735E+06         47.6522
            1120     3.55592E-03     7.39298E-03         9.91765        -4.06360        -4.26057        -4.06090         9.91495        -4.26057     218.962E-03     258.916E-03    -122.465E-03    -136.451E-03    -135.353E-03     257.818E-03    -122.465E-03     34.5858E-03    -75.9650E+06    -130.284E+06    -243.935E+06    -130.979E+06    -243.240E+06    -75.9650E+06     8.19459E+06         46.7763
            1121     2.67730E-03     7.44842E-03         10.0280        -4.16626        -4.26311        -4.16306         10.0248        -4.26311     343.043E-03     246.010E-03    -118.562E-03    -127.447E-03    -126.842E-03     245.405E-03    -118.562E-03     24.0517E-03    -105.121E+06    -141.396E+06    -277.341E+06    -141.924E+06    -276.813E+06    -105.121E+06     8.19748E+06         46.0339
            1122     1.79071E-03     7.48754E-03         10.0815        -4.20625        -4.26466        -4.20294         10.0782        -4.26466     193.503E-03     235.220E-03    -115.417E-03    -119.803E-03    -119.535E-03     234.951E-03    -115.417E-03     14.5870E-03    -134.543E+06    -152.085E+06    -306.018E+06    -152.438E+06    -305.665E+06    -134.543E+06     7.04699E+06         45.4627
            1123     898.804E-06     7.51327E-03         10.1600        -4.14783        -4.38246        -4.13335         10.1455        -4.38246     419.648E-03     227.828E-03    -113.267E-03    -114.561E-03    -114.475E-03     227.742E-03    -113.267E-03     7.04455E-03    -152.408E+06    -161.344E+06    -325.863E+06    -159.740E+06    -325.746E+06    -154.130E+06     3.58447E+06         45.0929
            1124     14.3573E-03     5.84764E-03         5.97567        -1.09739        -3.82090        -1.08792         5.96620        -3.82090     304.480E-03     369.186E-03    -169.560E-03    -199.627E-03    -191.842E-03     361.402E-03    -169.560E-03     120.295E-03     110.437E+06     105.966E+06    -7.91301E+06    -7.87757E+06     110.402E+06     105.966E+06     422.891E+03         64.8397
            1125     13.5521E-03     5.65421E-03         6.67779        -1.53767        -4.02644        -1.52878         6.66890        -4.02644     347.265E-03     367.621E-03    -168.180E-03    -199.441E-03    -189.796E-03     357.977E-03    -168.180E-03     141.855E-03     97.8316E+06     93.7936E+06    -15.1433E+06    -15.0694E+06     95.8961E+06     95.6553E+06     2.68835E+06         63.1115
            1126     12.7095E-03     5.59769E-03         7.34677        -1.96199        -4.21799        -1.95061         7.33539        -4.21799     607.117E-03     360.613E-03    -166.662E-03    -193.951E-03    -187.909E-03     354.570E-03    -166.662E-03     113.748E-03     90.3288E+06     83.9089E+06    -21.9057E+06    -21.7245E+06     83.7277E+06     90.3288E+06     4.15978E+06         61.1716
            1127     11.8863E-03     5.51679E-03         7.96292        -2.35305        -4.38799        -2.34519         7.95505        -4.38799     546.862E-03     352.743E-03    -165.081E-03    -187.663E-03    -181.799E-03     346.880E-03    -165.081E-03     111.418E-03     83.9761E+06     75.0727E+06    -29.5456E+06    -29.1521E+06     74.6792E+06     83.9761E+06     5.91054E+06         59.1841
            1128     11.0563E-03     5.49892E-03         8.53458        -2.71606        -4.54070        -2.70504         8.52356        -4.54070     685.145E-03     341.667E-03    -162.061E-03    -179.606E-03    -172.181E-03     335.905E-03    -163.724E-03     107.564E-03     76.4026E+06     69.0506E+06    -36.4917E+06    -35.6999E+06     70.2530E+06     74.4085E+06     8.81647E+06         57.3014
            1129     10.2139E-03     5.50912E-03         9.05379        -3.05349        -4.67450        -3.04241         9.04271        -4.67450     714.140E-03     333.786E-03    -158.634E-03    -175.151E-03    -164.442E-03     327.162E-03    -162.720E-03     113.465E-03     71.6152E+06     66.1951E+06    -44.5890E+06    -43.5728E+06     68.7569E+06     68.0372E+06     10.6205E+06         55.6372
            1130     9.37161E-03     5.54576E-03         9.53620        -3.38940        -4.79035        -3.38051         9.52732        -4.79035     657.680E-03     329.699E-03    -156.952E-03    -172.747E-03    -160.256E-03     322.173E-03    -161.917E-03     120.004E-03     66.5060E+06     58.6729E+06    -55.4365E+06    -54.6792E+06     59.4994E+06     64.9221E+06     9.10446E+06         54.2385
            1131     8.52726E-03     5.59537E-03         9.95381        -3.68990        -4.88844        -3.68026         9.94417        -4.88844     701.617E-03     327.874E-03    -156.465E-03    -171.409E-03    -158.621E-03     319.669E-03    -161.048E-03     124.915E-03     55.2255E+06     21.2674E+06    -66.2638E+06    -65.6267E+06     20.6303E+06     55.2255E+06     6.91488E+06         53.0908
            1132     7.68570E-03     5.66619E-03         10.3482        -3.98472        -4.96862        -3.97845         10.3419        -4.96862     471.282E-03     326.789E-03    -156.666E-03    -170.123E-03    -158.333E-03     318.231E-03    -159.898E-03     127.320E-03     39.7285E+06    -34.9941E+06    -75.8512E+06    -74.2904E+06    -36.5550E+06     39.7285E+06     5.85445E+06         52.1419
            1133     6.84400E-03     5.74043E-03         10.6847        -4.22845        -5.03173        -4.22293         10.6792        -5.03173     461.003E-03     325.146E-03    -156.544E-03    -168.602E-03    -158.457E-03     316.783E-03    -158.325E-03     125.611E-03     23.5891E+06    -72.1107E+06     -96.163E+06    -81.9884E+06    -86.2853E+06     23.5891E+06     4.94050E+06         51.3299
            1134     6.00210E-03     5.82863E-03         10.9877        -4.45236        -5.07948        -4.44686         10.9822        -5.07948     313.139E-03     322.102E-03    -155.694E-03    -166.408E-03    -158.216E-03     314.500E-03    -156.284E-03     119.380E-03     6.25424E+06    -87.4536E+06    -137.718E+06    -89.0864E+06    -136.085E+06     6.25424E+06     2.82621E+06         50.6027
            1135     5.15900E-03     5.91555E-03         11.2337        -4.64785        -5.11291        -4.64425         11.2301        -5.11291     246.055E-03     317.617E-03    -153.782E-03    -163.835E-03    -157.295E-03     311.077E-03    -153.782E-03     109.931E-03    -13.0217E+06    -94.8837E+06    -181.170E+06    -95.5124E+06    -180.542E+06    -13.0217E+06     794.593E+03         49.9285
            1136     4.31423E-03     6.00154E-03         11.4217        -4.81592        -5.13361        -4.81249         11.4183        -5.13361     298.462E-03     311.199E-03    -150.928E-03    -160.272E-03    -155.167E-03     306.094E-03    -150.928E-03     96.0413E-03    -33.4057E+06    -101.665E+06    -213.423E+06    -102.028E+06    -213.060E+06    -33.4057E+06     543.239E+03         49.2976
            1137     3.46108E-03     6.08041E-03         11.5663        -4.95918        -5.14111        -4.95846         11.5656        -5.14111     100.232E-03     303.397E-03    -147.932E-03    -155.465E-03    -151.932E-03     299.864E-03    -147.932E-03     78.7008E-03    -58.2984E+06    -111.052E+06    -247.094E+06    -111.248E+06    -246.898E+06    -58.2984E+06     2.69527E+06         48.7191
            1138     2.60553E-03     6.14851E-03         11.6659        -5.05251        -5.13690        -5.04882         11.6622        -5.13690     430.674E-03     295.360E-03    -145.021E-03    -150.339E-03    -148.208E-03     293.229E-03    -145.021E-03     59.8485E-03    -85.9388E+06    -121.630E+06    -277.152E+06    -121.872E+06    -276.910E+06    -85.9388E+06     5.64421E+06         48.2161
            1139     1.74276E-03     6.20210E-03         11.7241        -5.09685        -5.12853        -5.08600         11.7133        -5.12853    -134.430E-03     287.708E-03    -142.513E-03    -145.195E-03    -144.152E-03     286.665E-03    -142.513E-03     40.5808E-03    -111.770E+06    -130.783E+06    -298.298E+06    -131.044E+06    -298.037E+06    -111.770E+06     6.20935E+06         47.8192
            1140     871.509E-06     6.23712E-03         11.8686        -5.05784        -5.26977        -4.95732         11.7681        -5.26977         1.19315     282.193E-03    -140.497E-03    -141.696E-03    -141.358E-03     281.854E-03    -140.497E-03     21.6391E-03    -132.764E+06    -140.159E+06    -316.952E+06    -138.571E+06    -316.818E+06    -134.485E+06     4.04081E+06         47.5568
            1141     14.3465E-03     4.40887E-03         6.30047        -1.07735        -4.33557        -1.06786         6.29099        -4.33557     353.441E-03     364.289E-03    -171.964E-03    -192.325E-03    -180.726E-03     352.738E-03    -172.012E-03     149.179E-03     109.830E+06     104.737E+06    -10.3184E+06    -10.2112E+06     109.723E+06     104.737E+06     2.97413E+06         64.3297
            1142     13.4797E-03     4.23634E-03         7.14520        -1.61171        -4.56154        -1.60645         7.13995        -4.56154     300.667E-03     366.599E-03    -171.379E-03    -195.220E-03    -183.238E-03     354.616E-03    -171.379E-03     157.182E-03     95.3721E+06     91.5908E+06    -18.2808E+06    -18.1924E+06     93.5169E+06     93.3576E+06     2.80184E+06         62.5051
            1143     12.6619E-03     4.14970E-03         7.91050        -2.09769        -4.77092        -2.09184         7.90464        -4.77092     405.204E-03     350.483E-03    -166.197E-03    -184.285E-03    -172.976E-03     343.793E-03    -170.816E-03     117.661E-03     88.4303E+06     81.8106E+06    -25.6432E+06    -25.5076E+06     81.6750E+06     88.4303E+06     3.24367E+06         60.4606
            1144     11.8212E-03     4.11121E-03         8.61534        -2.54271        -4.96093        -2.53953         8.61215        -4.96093     340.801E-03     334.959E-03    -158.746E-03    -176.213E-03    -156.661E-03     327.624E-03    -170.962E-03     119.659E-03     83.1979E+06     72.6230E+06    -32.6786E+06    -32.4940E+06     72.4384E+06     83.1979E+06     4.04665E+06         58.3879
            1145     10.9583E-03     4.10752E-03         9.28855        -2.97386        -5.13717        -2.96944         9.28413        -5.13717     442.024E-03     325.761E-03    -153.494E-03    -172.267E-03    -145.802E-03     317.828E-03    -172.027E-03     121.936E-03     75.7304E+06     67.9574E+06    -38.9841E+06    -38.6500E+06     67.6233E+06     75.7304E+06     4.56215E+06         56.4867
            1146     10.0967E-03     4.12719E-03         9.91976        -3.39740        -5.29795        -3.39276         9.91512        -5.29795     472.272E-03     323.895E-03    -150.122E-03    -173.773E-03    -141.333E-03     315.107E-03    -173.773E-03     127.732E-03     75.1974E+06     70.6275E+06    -43.2474E+06    -42.6505E+06     70.0306E+06     75.1974E+06     5.44509E+06         54.9133
            1147     9.23319E-03     4.16256E-03         10.5209        -3.82901        -5.44171        -3.82502         10.5169        -5.44171     449.329E-03     326.477E-03    -150.558E-03    -175.919E-03    -140.755E-03     316.674E-03    -175.919E-03     135.278E-03     77.5719E+06     61.6360E+06    -46.9987E+06    -46.5558E+06     61.1931E+06     77.5719E+06     4.89699E+06         53.7231
            1148     8.37399E-03     4.21480E-03         11.0562        -4.21886        -5.56668        -4.21462         11.0519        -5.56668     479.871E-03     332.456E-03    -154.310E-03    -178.146E-03    -143.825E-03     321.972E-03    -178.146E-03     141.325E-03     66.5552E+06     16.8927E+06    -54.6580E+06    -54.3519E+06     16.5866E+06     66.5552E+06     1.27412E+06         52.8876
            1149     7.51925E-03     4.27778E-03         11.5500        -4.58112        -5.67192        -4.57812         11.5470        -5.67192     319.716E-03     339.802E-03    -159.619E-03    -180.184E-03    -148.867E-03     329.050E-03    -180.184E-03     144.913E-03     47.6421E+06    -35.8352E+06    -67.8411E+06    -63.1108E+06    -40.5655E+06     47.6421E+06    -3.93227E+06         52.3315
            1150     6.67199E-03     4.35252E-03         11.9670        -4.87878        -5.75818        -4.87581         11.9640        -5.75818     336.032E-03     346.905E-03    -165.036E-03    -181.869E-03    -154.520E-03     336.390E-03    -181.869E-03     145.099E-03     28.7185E+06    -61.8811E+06    -97.1836E+06    -68.8721E+06    -90.1925E+06     28.7185E+06    -8.52784E+06         51.9661
            1151     5.83117E-03     4.43621E-03         12.3370        -5.15396        -5.82637        -5.15077         12.3338        -5.82637     220.927E-03     353.637E-03    -170.301E-03    -183.335E-03    -160.719E-03     343.813E-03    -183.093E-03     142.041E-03     9.22244E+06    -70.5623E+06    -144.121E+06    -72.9546E+06    -141.729E+06     9.22244E+06    -11.3863E+06         51.7128
            1152     4.99572E-03     4.52334E-03         12.6379        -5.39389        -5.87610        -5.39148         12.6355        -5.87610     185.414E-03     359.218E-03    -174.471E-03    -184.747E-03    -166.740E-03     350.497E-03    -183.757E-03     135.220E-03    -10.9391E+06    -76.9471E+06    -189.625E+06    -78.2093E+06    -188.362E+06    -10.9391E+06    -10.9461E+06         51.5141
            1153     4.16253E-03     4.61047E-03         12.8642        -5.59059        -5.90797        -5.58842         12.8621        -5.90797     267.703E-03     362.806E-03    -177.322E-03    -185.484E-03    -171.894E-03     355.733E-03    -183.839E-03     122.637E-03    -33.2023E+06    -85.8199E+06    -227.289E+06    -86.2422E+06    -226.867E+06    -33.2023E+06    -6.24351E+06         51.3350
            1154     3.33424E-03     4.69441E-03         13.0454        -5.76606        -5.91945        -5.76590         13.0453        -5.91945    -30.1386E-03     364.352E-03    -179.257E-03    -185.095E-03    -175.785E-03     359.213E-03    -183.428E-03     104.824E-03    -57.1929E+06    -95.9481E+06    -258.104E+06    -96.0226E+06    -258.030E+06    -57.1929E+06     408.290E+03         51.1608
            1155     2.50157E-03     4.76721E-03         13.1360        -5.84803        -5.91512        -5.83929         13.1273        -5.91512     541.362E-03     364.163E-03    -180.177E-03    -183.986E-03    -178.220E-03     360.953E-03    -182.733E-03     82.5084E-03    -80.8447E+06    -105.553E+06    -279.102E+06    -105.665E+06    -278.990E+06    -80.8447E+06     4.31022E+06         50.9942
            1156     1.66844E-03     4.82752E-03         13.2229        -5.88751        -5.93688        -5.87813         13.1806        -5.90394    -537.125E-03     363.355E-03    -180.699E-03    -182.656E-03    -179.726E-03     361.748E-03    -182.023E-03     57.6395E-03    -100.665E+06    -114.209E+06    -293.931E+06    -114.379E+06    -293.761E+06    -100.665E+06     5.48069E+06         50.8499
            1157     836.321E-06     4.86539E-03         13.5178        -5.94015        -6.14684        -5.74435         13.2046        -6.02942         2.13805     362.612E-03    -180.700E-03    -181.911E-03    -180.985E-03     362.060E-03    -181.075E-03     32.1664E-03    -115.682E+06    -120.674E+06    -305.060E+06    -120.820E+06    -304.914E+06    -115.682E+06     5.01664E+06         50.7479
            1158     14.2516E-03     2.97937E-03         6.66296        -1.10188        -4.71648        -1.09007         6.65114        -4.71648     407.457E-03     373.037E-03    -175.412E-03    -197.625E-03    -184.817E-03     360.277E-03    -175.460E-03     165.344E-03     112.617E+06     108.174E+06    -10.0831E+06    -9.86373E+06     110.590E+06     109.981E+06     4.41037E+06         63.8537
            1159     13.4535E-03     2.77733E-03         7.56596        -1.66869        -4.95033        -1.66716         7.56443        -4.95033     158.202E-03     359.470E-03    -166.371E-03    -193.098E-03    -175.114E-03     350.319E-03    -175.205E-03     134.340E-03     98.4554E+06     92.6543E+06    -13.7994E+06    -13.6552E+06     93.6230E+06     97.3426E+06     3.07004E+06         61.9860
            1160     12.6020E-03     2.75231E-03         8.36784        -2.18414        -5.16947        -2.18259         8.36629        -5.16947     172.683E-03     330.918E-03    -152.218E-03    -178.700E-03    -148.662E-03     324.662E-03    -176.000E-03     108.761E-03     88.1807E+06     80.4192E+06    -21.7663E+06    -21.6019E+06     80.2548E+06     88.1807E+06     3.53098E+06         59.8621
            1161     11.7223E-03     2.73614E-03         9.13776        -2.68704        -5.37640        -2.68616         9.13687        -5.37640     144.219E-03     320.758E-03    -142.556E-03    -178.202E-03    -135.325E-03     313.527E-03    -178.202E-03     114.551E-03     80.3278E+06     72.1761E+06    -30.5993E+06    -30.4835E+06     72.6708E+06     79.7173E+06     2.92873E+06         57.7262
            1162     10.8484E-03     2.73531E-03         9.88269        -3.18703        -5.57280        -3.18584         9.88150        -5.57280     216.722E-03     317.715E-03    -136.307E-03    -181.408E-03    -129.160E-03     310.568E-03    -181.408E-03     112.429E-03     75.5892E+06     66.1902E+06    -37.8885E+06    -37.7705E+06     71.7089E+06     69.9525E+06    -340.956E+03         55.8467
            1163     9.96977E-03     2.75644E-03         10.5860        -3.67576        -5.75634        -3.67443         10.5847        -5.75634     250.347E-03     320.531E-03    -135.139E-03    -185.392E-03    -127.776E-03     313.168E-03    -185.392E-03     114.016E-03     74.3026E+06     57.7982E+06    -43.9163E+06    -43.6946E+06     71.3532E+06     60.5260E+06    -3.84790E+06         54.4010
            1164     9.09287E-03     2.78535E-03         11.2575        -4.15834        -5.92496        -4.15705         11.2562        -5.92496     254.631E-03     328.453E-03    -138.491E-03    -189.962E-03    -130.801E-03     320.763E-03    -189.962E-03     117.381E-03     68.9203E+06     41.4970E+06    -48.5054E+06    -48.1746E+06     58.7303E+06     51.3561E+06    -3.99928E+06         53.4428
            1165     8.22172E-03     2.82296E-03         11.8772        -4.60486        -6.07653        -4.60337         11.8757        -6.07653     286.323E-03     339.969E-03    -145.099E-03    -194.870E-03    -137.332E-03     332.201E-03    -194.870E-03     119.799E-03     45.5195E+06     8.98495E+06    -53.4983E+06    -51.6409E+06     17.1867E+06     35.4604E+06    -7.34424E+06         52.9291
            1166     7.36129E-03     2.87072E-03         12.4520        -5.01530        -6.20935        -5.01412         12.4508        -6.20935     194.662E-03     353.556E-03    -153.656E-03    -199.900E-03    -145.988E-03     345.887E-03    -199.900E-03     121.655E-03     17.3337E+06    -27.4826E+06    -69.0063E+06    -54.4416E+06    -40.8019E+06     16.0883E+06    -14.6790E+06         52.7650
            1167     6.50898E-03     2.93033E-03         12.9485        -5.36560        -6.32338        -5.36405         12.9470        -6.32338     237.538E-03     368.525E-03    -163.651E-03    -204.875E-03    -156.213E-03     361.088E-03    -204.875E-03     122.757E-03    -1.31474E+06    -49.1265E+06    -107.175E+06    -58.0543E+06    -98.2475E+06    -1.31474E+06    -18.5416E+06         52.8423
            1168     5.66646E-03     2.99633E-03         13.3823        -5.68376        -6.41901        -5.68206         13.3806        -6.41901     168.456E-03     384.333E-03    -174.724E-03    -209.610E-03    -167.666E-03     377.275E-03    -209.610E-03     122.410E-03    -17.7917E+06    -61.1122E+06    -160.156E+06    -64.7440E+06    -156.524E+06    -17.7917E+06    -17.3303E+06         53.0632
            1169     4.83468E-03     3.06725E-03         13.7487        -5.97118        -6.49461        -5.96957         13.7470        -6.49461     174.596E-03     399.835E-03    -185.906E-03    -213.929E-03    -179.541E-03     393.470E-03    -213.929E-03     118.984E-03    -32.5148E+06    -72.7638E+06    -210.641E+06    -74.1616E+06    -209.243E+06    -32.5148E+06    -11.5775E+06         53.3494
            1170     4.01388E-03     3.14033E-03         14.0305        -6.20151        -6.54978        -6.19997         14.0289        -6.54978     280.126E-03     414.271E-03    -196.619E-03    -217.652E-03    -191.284E-03     408.936E-03    -217.652E-03     111.270E-03    -50.7781E+06    -84.1895E+06    -247.934E+06    -84.4994E+06    -247.624E+06    -50.7781E+06    -3.24085E+06         53.6431
            1171     3.19928E-03     3.21093E-03         14.2756        -6.41321        -6.58086        -6.41295         14.2753        -6.58086    -45.0433E-03     427.025E-03    -206.364E-03    -220.661E-03    -202.326E-03     422.987E-03    -220.661E-03     98.4076E-03    -70.9595E+06    -93.3037E+06    -269.096E+06    -93.3799E+06    -269.020E+06    -70.9595E+06     2.74587E+06         53.9046
            1172     2.39526E-03     3.27757E-03         14.3978        -6.50650        -6.59418        -6.49411         14.3854        -6.59418     629.369E-03     437.397E-03    -214.467E-03    -222.930E-03    -211.871E-03     434.801E-03    -222.930E-03     79.8148E-03    -86.7010E+06    -99.1119E+06    -280.560E+06    -99.2756E+06    -280.396E+06    -86.7010E+06     5.32588E+06         54.1102
            1173     1.59451E-03     3.32904E-03         14.5502        -6.54629        -6.69295        -6.58112         14.4843        -6.59223    -800.231E-03     444.903E-03    -220.380E-03    -224.523E-03    -219.068E-03     443.591E-03    -224.523E-03     56.6654E-03    -97.3224E+06    -103.157E+06    -288.040E+06    -103.315E+06    -287.881E+06    -97.3224E+06     5.23529E+06         54.2526
            1174     794.749E-06     3.36430E-03         14.9471        -6.58594        -7.03682        -6.57045         14.4807        -6.58594         2.71478     449.731E-03    -224.019E-03    -225.712E-03    -223.725E-03     449.272E-03    -225.547E-03     32.2511E-03    -103.694E+06    -105.919E+06    -292.784E+06    -105.832E+06    -292.716E+06    -103.849E+06     2.83706E+06         54.3366
            1175     14.2468E-03     1.44101E-03         7.07278        -1.11952        -4.95076        -1.11030         7.06356        -4.95076     322.428E-03     396.398E-03    -177.670E-03    -218.728E-03    -205.869E-03     385.418E-03    -179.549E-03     159.575E-03     121.287E+06     113.805E+06    -2.17355E+06    -1.91031E+06     113.542E+06     121.287E+06     4.54473E+06         63.8927
            1176     13.4008E-03     1.40212E-03         7.84241        -1.65523        -5.18249        -1.65498         7.84217        -5.18249     11.9193E-03     346.274E-03    -160.202E-03    -186.072E-03    -161.895E-03     341.195E-03    -179.300E-03     100.247E-03     102.467E+06     94.5898E+06    -8.74479E+06    -8.50676E+06     94.3518E+06     102.467E+06     4.08813E+06         62.0498
            1177     12.5096E-03     1.38028E-03         8.65167        -2.22358        -5.40900        -2.22341         8.65150        -5.40900     32.9686E-03     321.432E-03    -140.208E-03    -181.224E-03    -136.125E-03     317.350E-03    -181.224E-03     81.3187E-03     89.1697E+06     80.9683E+06    -15.6437E+06    -15.4159E+06     80.7405E+06     89.1697E+06     4.60627E+06         59.8930
            1178     11.6400E-03     1.36439E-03         9.47134        -2.78445        -5.62830        -2.78436         9.47125        -5.62830     24.5321E-03     315.968E-03    -131.353E-03    -184.615E-03    -127.675E-03     312.290E-03    -184.615E-03     73.9325E-03     81.8316E+06     69.5802E+06    -22.3179E+06    -22.1934E+06     77.8547E+06     73.4328E+06     2.15392E+06         57.7476
            1179     10.7554E-03     1.37193E-03         10.2663        -3.32888        -5.83814        -3.32876         10.2662        -5.83814     62.0566E-03     316.020E-03    -127.036E-03    -188.984E-03    -123.809E-03     312.792E-03    -188.984E-03     69.1495E-03     78.8504E+06     50.4742E+06    -29.2226E+06    -29.1223E+06     78.7501E+06     50.4742E+06    -2.29264E+06         55.9208
            1180     9.87080E-03     1.38234E-03         11.0153        -3.85409        -6.03664        -3.85384         11.0150        -6.03664     91.1888E-03     322.365E-03    -128.146E-03    -194.219E-03    -125.028E-03     319.248E-03    -194.219E-03     67.4710E-03     72.5951E+06     26.3500E+06    -36.9593E+06    -36.7086E+06     72.3444E+06     26.3500E+06    -4.78882E+06         54.5993
            1181     8.99165E-03     1.39790E-03         11.7163        -4.35830        -6.22221        -4.35803         11.7160        -6.22221     108.034E-03     332.829E-03    -132.660E-03    -200.170E-03    -129.660E-03     329.829E-03    -200.170E-03     67.1868E-03     57.5024E+06     1.70641E+06    -45.4521E+06    -44.9484E+06     56.9986E+06     1.70641E+06    -6.76806E+06         53.8341
            1182     8.11829E-03     1.41586E-03         12.3675        -4.82505        -6.39354        -4.82467         12.3672        -6.39354     131.981E-03     346.416E-03    -139.654E-03    -206.762E-03    -136.780E-03     343.542E-03    -206.762E-03     67.3914E-03     23.3057E+06    -21.2916E+06    -53.5691E+06    -51.0806E+06     20.8172E+06    -21.2916E+06    -11.3526E+06         53.5713
            1183     7.25010E-03     1.44287E-03         12.9849        -5.25876        -6.54945        -5.25845         12.9846        -6.54945     88.2600E-03     363.552E-03    -149.643E-03    -213.909E-03    -146.848E-03     360.757E-03    -213.909E-03     67.8214E-03    -22.1259E+06    -41.6347E+06    -74.2073E+06    -57.2765E+06    -43.3273E+06    -37.3641E+06    -15.7709E+06         53.7053
            1184     6.39372E-03     1.47442E-03         13.5454        -5.64458        -6.68934        -5.64407         13.5449        -6.68934     123.088E-03     383.866E-03    -162.496E-03    -221.370E-03    -159.763E-03     381.134E-03    -221.370E-03     69.0136E-03    -45.9189E+06    -59.2642E+06    -119.658E+06    -65.3451E+06    -113.408E+06    -46.0880E+06    -14.5958E+06         54.1186
            1185     5.55097E-03     1.51163E-03         14.0460        -5.99635        -6.81280        -5.99583         14.0455        -6.81280     101.981E-03     406.146E-03    -177.286E-03    -228.860E-03    -174.699E-03     403.559E-03    -228.860E-03     69.7188E-03    -52.5179E+06    -72.8864E+06    -177.509E+06    -74.3759E+06    -176.019E+06    -52.5179E+06    -9.49750E+06         54.7028
            1186     4.72117E-03     1.55191E-03         14.4803        -6.32264        -6.91754        -6.32193         14.4796        -6.91754     131.345E-03     429.343E-03    -193.206E-03    -236.137E-03    -190.843E-03     426.981E-03    -236.137E-03     68.8409E-03    -57.5797E+06    -82.5399E+06    -231.676E+06    -82.8841E+06    -231.332E+06    -57.5797E+06    -4.28318E+06         55.3671
            1187     3.90452E-03     1.59380E-03         14.8181        -6.58647        -7.00300        -6.58569         14.8173        -7.00300     209.137E-03     452.354E-03    -209.446E-03    -242.908E-03    -207.431E-03     450.339E-03    -242.908E-03     65.2569E-03    -66.2620E+06    -88.7347E+06    -262.956E+06    -88.7746E+06    -262.916E+06    -66.2620E+06     776.928E+03         56.0376
            1188     3.10379E-03     1.63569E-03         15.1279        -6.84065        -7.06481        -6.84048         15.1278        -7.06481    -7.91215E-03     474.119E-03    -225.198E-03    -248.921E-03    -223.650E-03     472.571E-03    -248.921E-03     58.6794E-03    -78.4671E+06    -92.4428E+06    -273.049E+06    -92.5309E+06    -272.961E+06    -78.4671E+06     3.80090E+06         56.6546
            1189     2.31352E-03     1.67261E-03         15.3056        -6.96753        -7.10850        -6.96029         15.2984        -7.10850     458.898E-03     493.433E-03    -239.481E-03    -253.952E-03    -238.441E-03     492.393E-03    -253.952E-03     48.8675E-03    -87.0752E+06    -94.5475E+06    -278.771E+06    -94.6582E+06    -278.661E+06    -87.0752E+06     3.78462E+06         57.1720
            1190     1.53635E-03     1.70652E-03         15.5450        -7.04109        -7.24340        -7.11727         15.5047        -7.12698    -628.267E-03     508.570E-03    -250.813E-03    -257.757E-03    -250.262E-03     508.020E-03    -257.757E-03     35.8986E-03    -91.6272E+06    -95.2620E+06    -281.272E+06    -95.3352E+06    -281.199E+06    -91.6272E+06     2.99146E+06         57.5596
            1191     767.593E-06     1.72792E-03         15.8184        -6.94911        -7.58392        -7.29449         15.5289        -6.94911         2.05003     518.408E-03    -258.098E-03    -260.310E-03    -257.907E-03     518.218E-03    -260.310E-03     21.0081E-03    -94.8583E+06    -96.4204E+06    -283.832E+06    -96.3032E+06    -283.794E+06    -95.0136E+06     2.22532E+06         57.8047
            1192     842.378E-06     78.1912E-03         5.54691         4.29153        -11.5070         2.19816        -9.33994         5.47325        -5.98246     341.748E-03    -170.064E-03    -171.684E-03    -171.408E-03     341.745E-03    -170.337E-03     1.49156E-03    -159.381E+06    -165.467E+06    -358.460E+06    -164.492E+06    -358.457E+06    -160.359E+06     239.609E+03         49.1439
            1193     1.68574E-03     78.1922E-03         4.05036         3.77000        -9.47747         3.76311        -9.24236         3.82214    -53.2139E-03     340.743E-03    -169.937E-03    -170.806E-03    -169.924E-03     340.730E-03    -170.806E-03     4.58885E-03    -141.214E+06    -158.444E+06    -344.478E+06    -158.444E+06    -344.477E+06    -141.214E+06     46.1939E+03         49.3203
            1194     2.53165E-03     78.1989E-03         3.97890         3.78502        -9.44388         3.78928        -9.27197         3.80273        -2.90061     340.127E-03    -169.530E-03    -170.597E-03    -169.488E-03     340.085E-03    -170.597E-03     8.96282E-03    -117.395E+06    -148.264E+06    -318.619E+06    -148.272E+06    -318.611E+06    -117.395E+06    -56.5079E+03         49.6057
            1195     3.37446E-03     78.2073E-03         3.80457         3.73328        -9.22027         3.67648        -9.14186         3.78296    -562.682E-03     340.093E-03    -169.585E-03    -170.509E-03    -169.477E-03     339.986E-03    -170.509E-03     14.3843E-03    -91.5025E+06    -136.579E+06    -285.524E+06    -136.590E+06    -285.513E+06    -91.5025E+06    -371.337E+03         49.9947
            1196     4.21707E-03     78.2234E-03         3.74469         3.59723        -9.03998         3.56341        -9.00616         3.74469     18.8117E-03     339.511E-03    -169.049E-03    -170.461E-03    -168.815E-03     339.276E-03    -170.461E-03     21.4444E-03    -65.7577E+06    -125.133E+06    -247.107E+06    -125.139E+06    -247.100E+06    -65.7577E+06     24.5572E+03         50.4738
            1197     5.06437E-03     78.2487E-03         3.69182         3.45007        -8.86321         3.39846        -8.81160         3.69182     297.879E-03     339.078E-03    -168.708E-03    -170.369E-03    -168.273E-03     338.642E-03    -170.369E-03     29.4486E-03    -42.1013E+06    -113.559E+06    -202.481E+06    -113.616E+06    -202.425E+06    -42.1013E+06     818.225E+03         51.0239
            1198     5.90756E-03     78.2842E-03         3.62529         3.27366        -8.65080         3.23594        -8.61308         3.62529     683.285E-03     339.524E-03    -169.210E-03    -170.314E-03    -168.470E-03     338.785E-03    -170.314E-03     38.4550E-03    -20.8156E+06    -102.658E+06    -156.979E+06    -102.739E+06    -156.898E+06    -20.8156E+06     430.836E+03         51.6213
            1199     6.75189E-03     78.3332E-03         3.54906         3.08011        -8.40272         3.07196        -8.39457         3.54906     123.837E-03     339.887E-03    -169.566E-03    -170.321E-03    -168.397E-03     338.719E-03    -170.321E-03     48.4633E-03     386.913E+03    -90.9134E+06    -110.926E+06    -90.9781E+06    -110.862E+06     386.913E+03     181.958E+03         52.2434
            1200     7.59645E-03     78.3948E-03         3.46629         2.93277        -8.18279         2.92608        -8.17610         3.46629     483.719E-03     340.051E-03    -169.725E-03    -170.326E-03    -168.011E-03     338.336E-03    -170.326E-03     58.7969E-03     21.3593E+06    -59.1487E+06    -80.1648E+06    -79.0095E+06    -60.3041E+06     21.3593E+06    -46.3609E+03         52.8781
            1201     8.43920E-03     78.4684E-03         3.37875         2.77086        -7.94456         2.76249        -7.93619         3.37875    -267.897E-03     339.654E-03    -169.387E-03    -170.266E-03    -167.156E-03     337.422E-03    -170.266E-03     67.1738E-03     41.6951E+06     5.09359E+06    -68.0632E+06    -68.0578E+06     5.08816E+06     41.6951E+06    -111.821E+03         53.5351
            1202     9.28706E-03     78.5513E-03         3.28691         2.61960        -7.71953         2.60061        -7.70055         3.28691     80.2056E-03     339.760E-03    -169.525E-03    -170.235E-03    -166.850E-03     337.028E-03    -170.178E-03     74.3035E-03     62.7656E+06     54.8517E+06    -57.6335E+06    -57.6323E+06     58.6568E+06     58.9592E+06     89.7761E+03         54.2582
            1203     10.1297E-03     78.6453E-03         3.19156         2.48937        -7.51951         2.43498        -7.46512         3.19156    -438.320E-03     340.864E-03    -170.109E-03    -170.755E-03    -167.502E-03     337.632E-03    -170.130E-03     81.0206E-03     75.6261E+06     67.4428E+06    -47.6242E+06    -47.6211E+06     75.6230E+06     67.4428E+06    -320.582E+03         55.1333
            1204     10.9747E-03     78.7473E-03         3.09386         2.33709        -7.29744         2.27176        -7.23211         3.09386    -272.645E-03     341.275E-03    -170.136E-03    -171.139E-03    -167.610E-03     337.746E-03    -170.136E-03     84.7514E-03     79.2597E+06     74.3271E+06    -38.9620E+06    -38.9556E+06     78.6976E+06     74.8829E+06    -724.559E+03         56.2828
            1205     11.8183E-03     78.8524E-03         2.99363         2.13002        -7.00923         2.10546        -6.98467         2.99363     450.058E-03     341.772E-03    -170.155E-03    -171.617E-03    -167.294E-03     337.449E-03    -170.155E-03     93.5014E-03     87.2820E+06     83.2437E+06    -30.3452E+06    -30.3366E+06     83.2352E+06     87.2820E+06    -895.935E+03         57.8262
            1206     12.6654E-03     78.9819E-03         2.89164         1.95826        -6.74917         1.92528        -6.71619         2.89164     525.436E-03     342.041E-03    -170.148E-03    -171.893E-03    -167.598E-03     337.746E-03    -170.148E-03     93.2088E-03     96.8001E+06     90.2550E+06    -22.0155E+06    -22.0066E+06     90.2460E+06     96.8001E+06    -775.732E+03         59.7899
            1207     13.5083E-03     79.0847E-03         2.78375         1.77020        -6.47366         1.73472        -6.43818         2.78375     986.865E-03     346.650E-03    -170.138E-03    -176.512E-03    -169.150E-03     339.288E-03    -170.138E-03     118.909E-03     104.282E+06     99.3564E+06    -14.4435E+06    -14.4375E+06     101.213E+06     102.419E+06    -260.118E+03         62.0050
            1208     14.3531E-03     79.2888E-03         2.67291         1.56248        -6.18968         1.55124        -6.17844         2.67291     582.560E-03     345.772E-03    -169.973E-03    -175.798E-03    -169.182E-03     339.324E-03    -170.142E-03     105.930E-03     114.716E+06     111.379E+06    -6.80955E+06    -6.80647E+06     114.713E+06     111.379E+06     311.986E+03         64.0977
            1209     843.128E-06     79.5976E-03         4.63754         2.54594        -8.74548         1.80990        -8.00943         4.63754        -3.56793     341.574E-03    -170.456E-03    -171.118E-03    -170.923E-03     341.569E-03    -170.647E-03     2.21828E-03    -157.782E+06    -163.525E+06    -357.628E+06    -162.549E+06    -357.626E+06    -158.760E+06    -584.172E+03         49.1384
            1210     1.68645E-03     79.5980E-03         3.30656         3.13443        -8.00478         3.14488        -7.91659         3.20791    -946.365E-03     341.013E-03    -170.201E-03    -170.812E-03    -170.214E-03     341.000E-03    -170.786E-03     5.06246E-03    -141.271E+06    -156.588E+06    -344.477E+06    -156.588E+06    -344.476E+06    -141.271E+06     8.88384E+03         49.3146
            1211     2.52944E-03     79.6008E-03         3.40620         3.19350        -8.16828         3.21529        -7.97737         3.19350        -2.53226     340.068E-03    -169.434E-03    -170.634E-03    -169.391E-03     340.025E-03    -170.634E-03     9.04381E-03    -116.442E+06    -147.217E+06    -317.416E+06    -147.221E+06    -317.411E+06    -116.442E+06    -180.097E+03         49.5995
            1212     3.37521E-03     79.6126E-03         3.34557         3.18076        -8.08873         3.12925        -7.87710         3.18545    -784.389E-03     339.567E-03    -169.099E-03    -170.468E-03    -168.986E-03     339.453E-03    -170.468E-03     14.8322E-03    -90.6661E+06    -136.028E+06    -284.498E+06    -136.033E+06    -284.493E+06    -90.6661E+06    -576.517E+03         49.9884
            1213     4.22033E-03     79.6273E-03         3.20620         3.09275        -7.88437         3.05215        -7.79771         3.16013     217.403E-03     339.697E-03    -169.301E-03    -170.395E-03    -169.069E-03     339.464E-03    -170.395E-03     21.4565E-03    -65.8755E+06    -124.821E+06    -249.002E+06    -124.825E+06    -248.998E+06    -65.8755E+06     156.889E+03         50.4680
            1214     5.06260E-03     79.6511E-03         3.12074         3.00569        -7.74004         2.91107        -7.64542         3.12074     294.355E-03     339.666E-03    -169.285E-03    -170.381E-03    -168.851E-03     339.233E-03    -170.381E-03     29.3390E-03    -42.2310E+06    -113.240E+06    -203.399E+06    -113.288E+06    -203.351E+06    -42.2310E+06     1.04319E+06         51.0184
            1215     5.90775E-03     79.6901E-03         3.06767         2.85032        -7.55870         2.78558        -7.49396         3.06767     860.198E-03     339.610E-03    -169.241E-03    -170.369E-03    -168.498E-03     338.867E-03    -170.369E-03     38.5728E-03    -20.1344E+06    -101.425E+06    -154.761E+06    -101.491E+06    -154.695E+06    -20.1344E+06     554.532E+03         51.6159
            1216     6.75121E-03     79.7370E-03         3.00541         2.66345        -7.32740         2.64867        -7.31263         3.00541     201.322E-03     339.707E-03    -169.350E-03    -170.358E-03    -168.188E-03     338.545E-03    -170.358E-03     48.3306E-03     647.891E+03    -89.5639E+06    -110.050E+06    -89.6375E+06    -109.976E+06     647.891E+03    -391.899E+03         52.2383
            1217     7.59559E-03     79.7993E-03         2.93579         2.53137        -7.13308         2.51832        -7.12003         2.93579     643.707E-03     339.571E-03    -169.249E-03    -170.323E-03    -167.570E-03     337.893E-03    -170.323E-03     58.1388E-03     21.2758E+06    -58.3868E+06    -80.4506E+06    -78.4386E+06    -60.3987E+06     21.2758E+06    -247.705E+03         52.8731
            1218     8.44171E-03     79.8730E-03         2.86030         2.38194        -6.91475         2.37389        -6.90670         2.86030    -158.836E-03     339.646E-03    -169.374E-03    -170.272E-03    -167.225E-03     337.473E-03    -170.249E-03     66.2891E-03     42.3607E+06     5.53522E+06    -67.5620E+06    -67.5515E+06     5.52473E+06     42.3607E+06     32.2172E+03         53.5294
            1219     9.28402E-03     79.9540E-03         2.77980         2.25552        -6.72509         2.23327        -6.70284         2.77980     187.582E-03     340.276E-03    -169.897E-03    -170.380E-03    -167.388E-03     337.578E-03    -170.190E-03     73.9080E-03     63.7482E+06     55.5153E+06    -56.4080E+06    -56.4054E+06     59.4381E+06     59.8228E+06     209.286E+03         54.2497
            1220     10.1305E-03     80.0515E-03         2.69545         2.14945        -6.55879         2.08940        -6.49874         2.69545    -338.401E-03     340.767E-03    -170.154E-03    -170.613E-03    -167.424E-03     337.584E-03    -170.160E-03     80.4166E-03     76.3276E+06     67.6359E+06    -46.5532E+06    -46.5524E+06     76.3267E+06     67.6359E+06     213.805E+03         55.1201
            1221     10.9739E-03     80.1517E-03         2.60889         2.02433        -6.36797         1.95089        -6.29453         2.60889    -177.185E-03     341.056E-03    -170.147E-03    -170.909E-03    -167.364E-03     337.517E-03    -170.153E-03     84.8097E-03     80.4641E+06     75.3328E+06    -37.4558E+06    -37.4530E+06     80.0964E+06     75.6978E+06    -314.413E+03         56.2653
            1222     11.8189E-03     80.2583E-03         2.51996         1.84147        -6.10915         1.81107        -6.07875         2.51996     561.427E-03     342.023E-03    -170.168E-03    -171.855E-03    -167.508E-03     337.676E-03    -170.168E-03     93.8835E-03     88.0415E+06     84.1103E+06    -28.6867E+06    -28.6781E+06     84.1017E+06     88.0415E+06    -886.326E+03         57.8082
            1223     12.6632E-03     80.3818E-03         2.42962         1.71092        -5.89847         1.67140        -5.85895         2.42962     627.810E-03     342.093E-03    -170.162E-03    -171.932E-03    -167.593E-03     337.755E-03    -170.162E-03     93.7950E-03     96.3933E+06     90.1061E+06    -20.8790E+06    -20.8726E+06     90.0998E+06     96.3933E+06    -644.770E+03         59.7796
            1224     13.5091E-03     80.4950E-03         2.33426         1.57621        -5.68568         1.53033        -5.63980         2.33426         1.07313     346.428E-03    -170.142E-03    -176.286E-03    -168.905E-03     339.047E-03    -170.142E-03     119.365E-03     103.331E+06     99.1060E+06    -13.8818E+06    -13.8789E+06     100.607E+06     101.827E+06    -13.6697E+03         62.0123
            1225     14.3538E-03     80.6886E-03         2.23730         1.40705        -5.44689         1.39307        -5.43290         2.23730     615.687E-03     345.638E-03    -169.911E-03    -175.727E-03    -169.089E-03     339.224E-03    -170.135E-03     105.920E-03     114.225E+06     110.632E+06    -7.03273E+06    -7.02959E+06     114.222E+06     110.632E+06     236.382E+03         64.1248
            1226     844.064E-06     81.0023E-03         3.70022         2.06025        -7.20328         1.66312        -6.59258         3.48664        -1.06342     340.457E-03    -170.000E-03    -170.457E-03    -170.404E-03     340.453E-03    -170.049E-03     2.45017E-03    -156.001E+06    -163.159E+06    -357.105E+06    -162.044E+06    -357.100E+06    -157.122E+06     229.355E+03         49.1294
            1227     1.68744E-03     81.0034E-03         2.85005         2.54174        -6.81523         2.51752        -6.50404         2.56309        -1.78944     340.856E-03    -170.350E-03    -170.506E-03    -170.454E-03     340.843E-03    -170.389E-03     4.99007E-03    -139.908E+06    -155.802E+06    -343.402E+06    -155.814E+06    -343.391E+06    -139.908E+06    -468.135E+03         49.3080
            1228     2.53113E-03     81.0062E-03         2.91964         2.55405        -6.91213         2.57979        -6.57228         2.55405        -2.10203     340.447E-03    -169.948E-03    -170.499E-03    -169.908E-03     340.406E-03    -170.499E-03     8.73015E-03    -116.273E+06    -145.831E+06    -317.070E+06    -145.842E+06    -317.060E+06    -116.273E+06    -418.592E+03         49.5948
            1229     3.37479E-03     81.0136E-03         2.97886         2.55247        -6.96605         2.54123        -6.52842         2.55247    -984.518E-03     339.681E-03    -169.222E-03    -170.459E-03    -169.119E-03     339.578E-03    -170.459E-03     14.1172E-03    -90.9990E+06    -136.166E+06    -284.730E+06    -136.179E+06    -284.717E+06    -90.9990E+06     619.868E+03         49.9846
            1230     4.21905E-03     81.0320E-03         2.70384         2.52643        -6.68377         2.51292        -6.50685         2.54044     434.074E-03     339.714E-03    -169.312E-03    -170.402E-03    -169.085E-03     339.487E-03    -170.402E-03     21.1315E-03    -66.7931E+06    -125.471E+06    -249.200E+06    -125.487E+06    -249.183E+06    -66.7931E+06     610.346E+03         50.4645
            1231     5.06312E-03     81.0577E-03         2.59275         2.50052        -6.57203         2.41749        -6.41392         2.51767     298.554E-03     340.032E-03    -169.622E-03    -170.410E-03    -169.186E-03     339.596E-03    -170.410E-03     29.4838E-03    -43.4845E+06    -113.167E+06    -203.383E+06    -113.174E+06    -203.376E+06    -43.4845E+06    -233.751E+03         51.0145
            1232     5.90642E-03     81.0921E-03         2.52775         2.37904        -6.40640         2.32105        -6.30254         2.48188         1.02594     339.767E-03    -169.340E-03    -170.427E-03    -168.591E-03     339.018E-03    -170.427E-03     38.7178E-03    -20.5527E+06    -100.857E+06    -154.048E+06    -100.867E+06    -154.037E+06    -20.5527E+06    -206.573E+03         51.6113
            1233     6.75167E-03     81.1434E-03         2.43526         2.22613        -6.17080         2.20221        -6.14688         2.43526     261.459E-03     339.510E-03    -169.107E-03    -170.403E-03    -167.948E-03     338.351E-03    -170.403E-03     48.2581E-03     493.212E+03    -89.0920E+06    -109.975E+06    -89.7622E+06    -109.305E+06     493.212E+03     184.720E+03         52.2329
            1234     7.59558E-03     81.2025E-03         2.37947         2.11047        -6.00550         2.08874        -5.98377         2.37947     760.241E-03     339.477E-03    -169.132E-03    -170.345E-03    -167.474E-03     337.820E-03    -170.345E-03     57.7663E-03     20.9749E+06    -58.2955E+06    -80.9247E+06    -79.1020E+06    -60.1182E+06     20.9749E+06     156.181E+03         52.8671
            1235     8.43985E-03     81.2761E-03         2.31683         1.98248        -5.82362         1.97320        -5.81434         2.31683    -103.834E-03     339.935E-03    -169.637E-03    -170.298E-03    -167.466E-03     337.740E-03    -170.275E-03     66.6193E-03     42.1657E+06     6.26050E+06    -68.1449E+06    -68.1385E+06     6.25413E+06     42.1657E+06     54.2385E+03         53.5219
            1236     9.28568E-03     81.3615E-03         2.24920         1.89006        -5.67974         1.86323        -5.65291         2.24920     234.205E-03     340.524E-03    -170.160E-03    -170.364E-03    -167.578E-03     337.810E-03    -170.232E-03     74.1849E-03     63.5383E+06     55.9503E+06    -57.1798E+06    -57.1725E+06     60.1237E+06     59.3576E+06    -320.690E+03         54.2390
            1237     10.1278E-03     81.4543E-03         2.17792         1.81232        -5.54848         1.74225        -5.47841         2.17792    -293.164E-03     340.382E-03    -170.086E-03    -170.296E-03    -166.990E-03     337.177E-03    -170.187E-03     80.5856E-03     76.7810E+06     67.1110E+06    -46.3673E+06    -46.3608E+06     76.7744E+06     67.1110E+06    -143.093E+03         55.1048
            1238     10.9746E-03     81.5563E-03         2.10388         1.70974        -5.38327         1.62392        -5.29745         2.10388    -139.747E-03     340.465E-03    -170.049E-03    -170.416E-03    -166.733E-03     336.866E-03    -170.134E-03     85.4231E-03     80.9216E+06     74.8891E+06    -37.2957E+06    -37.2949E+06     80.7567E+06     75.0531E+06     138.901E+03         56.2464
            1239     11.8199E-03     81.6616E-03         2.02703         1.54741        -5.14933         1.51076        -5.11268         2.02703     620.777E-03     342.132E-03    -170.129E-03    -172.003E-03    -167.565E-03     337.694E-03    -170.129E-03     94.8434E-03     88.2832E+06     84.4842E+06    -29.4330E+06    -29.4294E+06     84.8598E+06     87.9040E+06    -392.336E+03         57.7901
            1240     12.6637E-03     81.7901E-03         1.94941         1.45444        -4.98488         1.40954        -4.93998         1.94941     666.879E-03     342.608E-03    -170.140E-03    -172.467E-03    -168.067E-03     338.207E-03    -170.140E-03     94.4961E-03     95.8923E+06     89.9749E+06    -21.7401E+06    -21.7364E+06     89.9713E+06     95.8923E+06    -579.817E+03         59.7703
            1241     13.5090E-03     81.8934E-03         1.86780         1.37069        -4.83104         1.31493        -4.77528         1.86780         1.11080     346.396E-03    -170.134E-03    -176.262E-03    -168.864E-03     338.999E-03    -170.134E-03     119.406E-03     102.486E+06     98.4124E+06    -14.2649E+06    -14.2622E+06     99.8215E+06     101.074E+06    -39.3345E+03         62.0209
            1242     14.3538E-03     82.0997E-03         1.78549         1.23496        -4.63139         1.21736        -4.61378         1.78549     631.113E-03     345.459E-03    -169.944E-03    -175.516E-03    -168.941E-03     339.065E-03    -170.124E-03     105.262E-03     114.581E+06     110.539E+06    -6.85864E+06    -6.85648E+06     114.579E+06     110.539E+06     159.864E+03         64.1534
            1243     844.153E-06     82.4062E-03         3.58579         2.01306        -6.88499         1.58857        -5.16862         2.29391     767.954E-03     340.277E-03    -169.738E-03    -170.539E-03    -170.117E-03     340.274E-03    -170.157E-03     1.64226E-03    -156.104E+06    -164.732E+06    -357.415E+06    -163.617E+06    -357.409E+06    -157.225E+06     929.182E+03         49.1213
            1244     1.68773E-03     82.4079E-03         2.68069         1.93231        -5.87773         1.89926        -5.09629         1.93231        -2.31278     340.361E-03    -170.019E-03    -170.342E-03    -170.100E-03     340.351E-03    -170.251E-03     4.38389E-03    -139.076E+06    -156.307E+06    -341.036E+06    -156.320E+06    -341.023E+06    -139.076E+06    -110.663E+03         49.3019
            1245     2.53106E-03     82.4109E-03         2.53260         1.92417        -5.72550         1.93630        -5.12920         1.92417        -1.81041     340.577E-03    -170.207E-03    -170.371E-03    -170.170E-03     340.541E-03    -170.371E-03     8.24670E-03    -117.191E+06    -147.288E+06    -317.546E+06    -147.301E+06    -317.533E+06    -117.191E+06    -537.632E+03         49.5909
            1246     3.37439E-03     82.4188E-03         2.64425         1.92273        -5.84552         1.92860        -5.12988         1.92273        -1.12652     340.519E-03    -170.027E-03    -170.491E-03    -169.925E-03     340.416E-03    -170.491E-03     14.0407E-03    -92.0755E+06    -136.265E+06    -286.506E+06    -136.279E+06    -286.492E+06    -92.0755E+06     521.944E+03         49.9817
            1247     4.21855E-03     82.4349E-03         2.22330         1.91702        -5.43940         1.93009        -5.14619         1.91702     580.068E-03     340.009E-03    -169.479E-03    -170.530E-03    -169.253E-03     339.783E-03    -170.530E-03     21.1103E-03    -67.3325E+06    -124.816E+06    -247.389E+06    -124.829E+06    -247.375E+06    -67.3325E+06     612.959E+03         50.4609
            1248     5.06326E-03     82.4622E-03         2.12210         1.90459        -5.34863         1.88112        -5.10766         1.90459     317.253E-03     339.720E-03    -169.218E-03    -170.503E-03    -168.796E-03     339.298E-03    -170.503E-03     28.9886E-03    -44.0457E+06    -113.566E+06    -201.308E+06    -113.572E+06    -201.302E+06    -44.0457E+06    -441.400E+03         51.0099
            1249     5.90684E-03     82.4988E-03         2.01173         1.82959        -5.17769         1.80487        -5.02236         1.88112         1.17135     339.600E-03    -169.133E-03    -170.467E-03    -168.390E-03     338.857E-03    -170.467E-03     38.4672E-03    -21.5529E+06    -102.161E+06    -155.211E+06    -102.177E+06    -155.194E+06    -21.5529E+06    -169.639E+03         51.6059
            1250     6.75020E-03     82.5456E-03         1.84644         1.74718        -4.93479         1.71211        -4.89973         1.84644     329.351E-03     339.360E-03    -168.947E-03    -170.413E-03    -167.769E-03     338.182E-03    -170.413E-03     48.6328E-03    -25.9816E+03    -89.6687E+06    -110.088E+06    -90.3888E+06    -109.368E+06    -25.9816E+03     282.593E+03         52.2271
            1251     7.59598E-03     82.6076E-03         1.80272         1.66371        -4.80952         1.63042        -4.77623         1.80272     836.324E-03     339.675E-03    -169.325E-03    -170.350E-03    -167.644E-03     337.993E-03    -170.350E-03     58.2251E-03     20.5448E+06    -58.4601E+06    -79.9210E+06    -78.9792E+06    -59.4019E+06     20.5448E+06     167.660E+03         52.8607
            1252     8.44043E-03     82.6803E-03         1.75260         1.56098        -4.66426         1.54855        -4.65182         1.75260    -89.5245E-03     340.034E-03    -169.747E-03    -170.287E-03    -167.499E-03     337.786E-03    -170.287E-03     67.4010E-03     41.7347E+06     6.78882E+06    -67.9361E+06    -67.9305E+06     6.78323E+06     41.7347E+06     142.534E+03         53.5141
            1253     9.28337E-03     82.7669E-03         1.69805         1.50447        -4.56561         1.47040        -4.53155         1.69805     234.051E-03     339.936E-03    -169.722E-03    -170.214E-03    -166.943E-03     337.157E-03    -170.214E-03     74.9893E-03     63.4580E+06     56.3807E+06    -57.3432E+06    -57.3374E+06     60.9079E+06     58.9249E+06    -318.247E+03         54.2290
            1254     10.1304E-03     82.8583E-03         1.64057         1.47378        -4.48627         1.38813        -4.40061         1.64057    -278.550E-03     340.350E-03    -169.825E-03    -170.525E-03    -166.960E-03     337.100E-03    -170.140E-03     81.1540E-03     76.3496E+06     66.1418E+06    -47.6134E+06    -47.6072E+06     76.3434E+06     66.1418E+06    -351.901E+03         55.0917
            1255     10.9749E-03     82.9586E-03         1.58105         1.41341        -4.36903         1.30819        -4.26381         1.58105    -123.380E-03     340.919E-03    -170.028E-03    -170.890E-03    -167.240E-03     337.347E-03    -170.107E-03     85.1885E-03     80.8540E+06     74.1206E+06    -38.4595E+06    -38.4585E+06     80.8531E+06     74.1206E+06     109.782E+03         56.2295
            1256     11.8200E-03     83.0667E-03         1.51929         1.28036        -4.17248         1.23484        -4.12696         1.51929     662.640E-03     341.935E-03    -170.123E-03    -171.813E-03    -167.471E-03     337.594E-03    -170.123E-03     93.7601E-03     88.4349E+06     84.6633E+06    -30.1320E+06    -30.1287E+06     85.7187E+06     87.3762E+06     62.5419E+03         57.7726
            1257     12.6658E-03     83.1941E-03         1.45719         1.21822        -4.04857         1.16470        -3.99505         1.45719     695.979E-03     342.442E-03    -170.134E-03    -172.308E-03    -167.995E-03     338.129E-03    -170.134E-03     93.5164E-03     95.7702E+06     90.4858E+06    -22.4889E+06    -22.4851E+06     90.4820E+06     95.7702E+06    -236.229E+03         59.7610
            1258     13.5080E-03     83.3022E-03         1.39128         1.16497        -3.93594         1.09390        -3.86487         1.39128         1.14864     346.407E-03    -170.133E-03    -176.274E-03    -168.969E-03     339.103E-03    -170.133E-03     118.557E-03     101.891E+06     98.1731E+06    -14.8929E+06    -14.8901E+06     99.3170E+06     100.745E+06    -511.154E+03         62.0294
            1259     14.3543E-03     83.4979E-03         1.32442         1.04782        -3.76320         1.02398        -3.73935         1.32442     649.532E-03     345.418E-03    -170.032E-03    -175.386E-03    -168.929E-03     339.056E-03    -170.128E-03     105.212E-03     114.559E+06     110.212E+06    -7.06289E+06    -7.05985E+06     114.556E+06     110.212E+06    -460.755E+03         64.1819
            1260     842.734E-06     83.8095E-03         3.80362         1.10062        -6.00779         1.52174        -3.72591         1.10062         1.11147     340.800E-03    -169.911E-03    -170.889E-03    -170.363E-03     340.798E-03    -170.436E-03     1.81913E-03    -156.446E+06    -163.826E+06    -357.378E+06    -161.899E+06    -357.358E+06    -158.393E+06    -703.547E+03         49.1148
            1261     1.68734E-03     83.8118E-03         2.37885         1.31299        -4.79693         1.32485        -3.74293         1.31299        -2.41305     340.359E-03    -169.940E-03    -170.419E-03    -169.931E-03     340.349E-03    -170.419E-03     4.21884E-03    -140.006E+06    -155.696E+06    -340.925E+06    -155.700E+06    -340.922E+06    -140.006E+06     509.654E+03         49.2959
            1262     2.53156E-03     83.8152E-03         2.11861         1.31504        -4.53123         1.32214        -3.73476         1.31504        -1.74532     340.564E-03    -170.128E-03    -170.436E-03    -170.092E-03     340.529E-03    -170.436E-03     8.12687E-03    -116.639E+06    -147.845E+06    -316.344E+06    -147.850E+06    -316.338E+06    -116.639E+06     479.618E+03         49.5855
            1263     3.37500E-03     83.8245E-03         2.27835         1.31365        -4.70086         1.32661        -3.74911         1.31365        -1.13843     340.802E-03    -170.249E-03    -170.553E-03    -170.150E-03     340.703E-03    -170.553E-03     13.8530E-03    -92.3916E+06    -136.988E+06    -286.807E+06    -136.993E+06    -286.802E+06    -92.3916E+06    -261.559E+03         49.9765
            1264     4.21744E-03     83.8403E-03         1.72003         1.30813        -4.15385         1.30998        -3.74380         1.30813     637.372E-03     340.388E-03    -169.761E-03    -170.626E-03    -169.532E-03     340.158E-03    -170.626E-03     21.2345E-03    -67.9568E+06    -124.751E+06    -246.399E+06    -124.755E+06    -246.396E+06    -67.9568E+06    -312.321E+03         50.4556
            1265     5.06071E-03     83.8662E-03         1.62086         1.29573        -4.05950         1.28079        -3.71942         1.29573     365.348E-03     339.534E-03    -168.948E-03    -170.587E-03    -168.507E-03     339.093E-03    -170.587E-03     29.5942E-03    -44.2800E+06    -113.229E+06    -200.039E+06    -113.238E+06    -200.030E+06    -44.2800E+06    -15.5803E+03         51.0043
            1266     5.90653E-03     83.9020E-03         1.47627         1.25781        -3.88372         1.23696        -3.66238         1.27578         1.26223     339.129E-03    -168.641E-03    -170.487E-03    -167.895E-03     338.383E-03    -170.487E-03     38.5915E-03    -21.1106E+06    -101.396E+06    -155.493E+06    -101.426E+06    -155.463E+06    -21.1106E+06     30.5693E+03         51.6005
            1267     6.75224E-03     83.9505E-03         1.26822         1.22069        -3.63977         1.19294        -3.59241         1.24860     384.894E-03     339.376E-03    -168.979E-03    -170.396E-03    -167.805E-03     338.201E-03    -170.396E-03     48.5293E-03    -246.391E+03    -89.5465E+06    -110.162E+06    -90.0936E+06    -109.615E+06    -246.391E+03     116.700E+03         52.2223
            1268     7.59564E-03     84.0109E-03         1.23587         1.17614        -3.56571         1.14737        -3.51635         1.21528     880.493E-03     339.722E-03    -169.385E-03    -170.337E-03    -167.681E-03     338.017E-03    -170.337E-03     58.6066E-03     20.0143E+06    -58.0857E+06    -80.6825E+06    -79.5206E+06    -59.2476E+06     20.0143E+06     311.297E+03         52.8560
            1269     8.43963E-03     84.0866E-03         1.18105         1.11541        -3.45404         1.09958        -3.43423         1.17706    -63.4398E-03     339.560E-03    -169.303E-03    -170.257E-03    -167.053E-03     337.311E-03    -170.257E-03     67.3926E-03     41.7027E+06     7.64731E+06    -68.5897E+06    -68.5837E+06     7.64133E+06     41.7027E+06    -77.7520E+03         53.5089
            1270     9.28671E-03     84.1686E-03         1.16477         1.07879        -3.40618         1.05976        -3.35796         1.13557     236.517E-03     339.684E-03    -169.382E-03    -170.302E-03    -166.760E-03     336.920E-03    -170.160E-03     74.7350E-03     63.7863E+06     56.7866E+06    -57.5006E+06    -57.4988E+06     61.2973E+06     59.2738E+06    -254.575E+03         54.2222
            1271     10.1309E-03     84.2627E-03         1.17391         1.06104        -3.39884         1.03020        -3.28657         1.09248    -252.615E-03     340.773E-03    -169.886E-03    -170.888E-03    -167.463E-03     337.568E-03    -170.105E-03     80.6847E-03     76.7618E+06     66.7969E+06    -47.5208E+06    -47.5201E+06     76.7610E+06     66.7969E+06    -164.603E+03         55.0813
            1272     10.9743E-03     84.3654E-03         1.16284         1.02774        -3.34860         1.00483        -3.21220         1.04936    -98.5913E-03     341.525E-03    -170.123E-03    -171.402E-03    -167.894E-03     338.017E-03    -170.123E-03     84.5300E-03     80.7622E+06     74.5361E+06    -38.6226E+06    -38.6219E+06     80.7615E+06     74.5361E+06    -233.392E+03         56.2139
            1273     11.8183E-03     84.4693E-03         1.08983     951.143E-03        -3.19059     975.038E-03        -3.13010         1.00545     714.950E-03     342.352E-03    -170.172E-03    -172.180E-03    -167.852E-03     338.024E-03    -170.172E-03     93.6556E-03     87.8896E+06      85.002E+06    -30.1163E+06    -30.1117E+06     85.7711E+06     87.1159E+06     410.184E+03         57.7541
            1274     12.6622E-03     84.5993E-03         1.04955     911.600E-03        -3.10632     930.253E-03        -3.03660     961.177E-03     744.644E-03     341.996E-03    -170.178E-03    -171.818E-03    -167.509E-03     337.687E-03    -170.178E-03     93.3725E-03     95.8975E+06     91.6145E+06    -21.8968E+06    -21.8917E+06     91.6094E+06     95.8975E+06     416.679E+03         59.7489
            1275     13.5098E-03     84.7057E-03         1.01113     868.166E-03        -3.02447     868.500E-03        -2.92566     911.984E-03         1.19960     345.841E-03    -170.146E-03    -175.695E-03    -168.434E-03     338.580E-03    -170.146E-03     118.116E-03     101.929E+06     99.2639E+06    -13.9439E+06    -13.9344E+06     99.7508E+06     101.433E+06    -737.270E+03         62.0360
            1276     14.3532E-03     84.9038E-03     920.948E-03     787.836E-03        -2.85349     812.783E-03        -2.81804     860.551E-03     668.814E-03     345.502E-03    -170.099E-03    -175.403E-03    -169.005E-03     339.130E-03    -170.125E-03     105.739E-03     114.134E+06     110.237E+06    -6.71822E+06    -6.70855E+06     114.125E+06     110.237E+06    -865.818E+03         64.2100
            1277     843.893E-06     85.2158E-03         2.89240    -70.3097E-03        -3.75817         1.42886        -2.28595    -78.9831E-03    -51.9278E-03     340.801E-03    -169.769E-03    -171.032E-03    -170.925E-03     340.798E-03    -169.873E-03     2.04408E-03    -155.665E+06    -163.413E+06    -355.587E+06    -161.513E+06    -355.539E+06    -157.612E+06    -419.442E+03         49.1054
            1278     1.68677E-03     85.2149E-03         1.61493     688.539E-03        -3.21658     776.469E-03        -2.38342     693.845E-03        -2.05668     340.880E-03    -170.254E-03    -170.626E-03    -170.364E-03     340.867E-03    -170.503E-03     4.70397E-03    -141.334E+06    -156.639E+06    -342.379E+06    -156.645E+06    -342.373E+06    -141.334E+06    -181.983E+03         49.2864
            1279     2.53022E-03     85.2207E-03         1.55539     709.344E-03        -3.16878     729.114E-03        -2.34782     714.650E-03        -1.96452     340.756E-03    -170.153E-03    -170.603E-03    -170.130E-03     340.717E-03    -170.587E-03     8.55521E-03    -116.833E+06    -146.907E+06    -315.743E+06    -146.910E+06    -315.741E+06    -116.833E+06     561.651E+03         49.5759
            1280     3.37362E-03     85.2295E-03         1.82490     715.352E-03        -3.46198     736.124E-03        -2.37320     715.352E-03        -1.05784     340.422E-03    -169.801E-03    -170.621E-03    -169.696E-03     340.317E-03    -170.621E-03     14.1552E-03    -91.8147E+06    -136.435E+06    -284.492E+06    -136.442E+06    -284.485E+06    -91.8147E+06    -415.820E+03         49.9676
            1281     4.21819E-03     85.2461E-03         1.18569     708.493E-03        -2.83008     685.936E-03        -2.33033     708.493E-03     571.553E-03     339.933E-03    -169.341E-03    -170.591E-03    -169.104E-03     339.695E-03    -170.591E-03     21.6286E-03    -67.9215E+06    -125.217E+06    -246.186E+06    -125.224E+06    -246.179E+06    -67.9215E+06    -821.646E+03         50.4484
            1282     5.06320E-03     85.2697E-03         1.12670     692.988E-03        -2.76661     666.539E-03        -2.30645     692.988E-03     430.248E-03     339.523E-03    -169.003E-03    -170.521E-03    -168.547E-03     339.067E-03    -170.521E-03     30.0882E-03    -44.4139E+06    -113.412E+06    -200.755E+06    -113.417E+06    -200.749E+06    -44.4139E+06     4.20495E+03         50.9994
            1283     5.90674E-03     85.3061E-03     966.676E-03     671.204E-03        -2.58274     655.424E-03        -2.27405     673.765E-03         1.27255     339.456E-03    -169.001E-03    -170.455E-03    -168.237E-03     338.692E-03    -170.455E-03     39.1228E-03    -21.3329E+06    -101.698E+06    -155.302E+06    -101.727E+06    -155.273E+06    -21.3329E+06     203.369E+03         51.5978
            1284     6.75057E-03     85.3536E-03     733.844E-03     650.045E-03        -2.32355     666.974E-03        -2.25924     652.606E-03     426.127E-03     339.536E-03    -169.132E-03    -170.404E-03    -167.963E-03     338.367E-03    -170.404E-03     48.4638E-03     71.5097E+03    -90.1060E+06    -110.090E+06    -90.5604E+06    -109.636E+06     71.5097E+03     368.693E+03         52.2210
            1285     7.59574E-03     85.4168E-03     743.346E-03     629.650E-03        -2.31348     662.704E-03        -2.23284     629.650E-03     905.339E-03     339.439E-03    -169.098E-03    -170.341E-03    -167.413E-03     337.754E-03    -170.341E-03     58.2364E-03     20.8521E+06    -57.1707E+06    -80.6566E+06    -79.2395E+06    -58.5878E+06     20.8521E+06     312.451E+03         52.8552
            1286     8.44139E-03     85.4887E-03     696.076E-03     604.008E-03        -2.24452     654.133E-03        -2.20257     604.008E-03    -13.6671E-03     339.480E-03    -169.234E-03    -170.246E-03    -167.048E-03     337.294E-03    -170.246E-03     66.4640E-03     42.3078E+06     8.62423E+06    -67.9804E+06    -67.9779E+06     8.62174E+06     42.3078E+06    -112.270E+03         53.5071
            1287     9.28515E-03     85.5727E-03     739.465E-03     576.472E-03        -2.26254     654.609E-03        -2.17768     576.472E-03     253.958E-03     340.199E-03    -169.793E-03    -170.406E-03    -167.324E-03     337.502E-03    -170.179E-03     73.8827E-03     64.3480E+06     56.9784E+06    -57.3299E+06    -57.3254E+06     61.4807E+06     59.8411E+06     144.657E+03         54.2169
            1288     10.1293E-03     85.6687E-03     841.529E-03     548.557E-03        -2.32993     668.847E-03        -2.15724     548.557E-03    -206.456E-03     340.835E-03    -170.148E-03    -170.687E-03    -167.512E-03     337.661E-03    -170.148E-03     80.3064E-03     77.2479E+06     66.9760E+06    -47.5823E+06    -47.5798E+06     77.2455E+06     66.9760E+06     84.1645E+03         55.0697
            1289     10.9745E-03     85.7697E-03     890.140E-03     521.932E-03        -2.33488     689.707E-03        -2.13445     521.932E-03    -72.9540E-03     341.258E-03    -170.153E-03    -171.105E-03    -167.575E-03     337.729E-03    -170.153E-03     84.7330E-03     80.8460E+06     74.7865E+06    -38.6581E+06    -38.6576E+06     80.8455E+06     74.7865E+06    -206.722E+03         56.1958
            1290     11.8188E-03     85.8761E-03     786.386E-03     495.158E-03        -2.18776     694.703E-03        -2.09608     495.158E-03     764.362E-03     342.508E-03    -170.191E-03    -172.317E-03    -167.922E-03     338.114E-03    -170.191E-03     94.4259E-03     88.0922E+06     85.9222E+06    -29.8431E+06    -29.8344E+06     86.2080E+06     87.7978E+06    -183.974E+03         57.7335
            1291     12.6638E-03     86.0031E-03     769.023E-03     467.679E-03        -2.13355     669.648E-03        -2.03417     467.679E-03     778.312E-03     341.882E-03    -170.191E-03    -171.691E-03    -167.358E-03     337.549E-03    -170.191E-03     93.5987E-03     96.5290E+06     92.7206E+06    -20.7648E+06    -20.7530E+06     92.7088E+06     96.5290E+06    -318.238E+03         59.7358
            1292     13.5077E-03     86.1080E-03     782.238E-03     434.369E-03        -2.10643     634.165E-03        -1.95836     434.369E-03         1.23018     345.637E-03    -170.138E-03    -175.499E-03    -168.070E-03     338.208E-03    -170.138E-03     119.209E-03     101.999E+06     99.7149E+06    -12.8695E+06    -12.8523E+06     100.049E+06     101.648E+06    -243.940E+03         62.0428
            1293     14.3550E-03     86.3090E-03     660.595E-03     398.125E-03        -1.93566     604.547E-03        -1.87961     398.125E-03     676.350E-03     345.626E-03    -170.098E-03    -175.527E-03    -169.015E-03     339.117E-03    -170.101E-03     106.344E-03     113.703E+06     110.080E+06    -6.36502E+06    -6.35101E+06     113.689E+06     110.080E+06    -116.352E+03         64.2404
            1294     843.895E-06     86.6195E-03         2.26032    -963.857E-03        -2.00247         1.08431    -817.790E-03    -972.530E-03        -2.41527     340.591E-03    -169.808E-03    -170.784E-03    -170.779E-03     340.589E-03    -169.810E-03     1.95026E-03    -155.935E+06    -164.929E+06    -356.071E+06    -163.169E+06    -356.023E+06    -157.743E+06     870.830E+03         49.0903
            1295     1.68740E-03     86.6212E-03     744.680E-03     72.3508E-03        -1.52723     173.031E-03    -960.885E-03     77.6570E-03        -1.34198     340.882E-03    -170.318E-03    -170.565E-03    -170.426E-03     340.868E-03    -170.442E-03     5.04827E-03    -139.647E+06    -156.460E+06    -341.655E+06    -156.483E+06    -341.632E+06    -139.647E+06     1.51664E+03         49.2716
            1296     2.53037E-03     86.6256E-03         1.20138     95.2025E-03        -1.99443     108.101E-03    -906.460E-03     100.509E-03        -2.43456     340.464E-03    -169.926E-03    -170.537E-03    -169.895E-03     340.417E-03    -170.522E-03     9.51100E-03    -117.480E+06    -147.316E+06    -315.950E+06    -147.321E+06    -315.945E+06    -117.480E+06    -241.640E+03         49.5623
            1297     3.37464E-03     86.6341E-03         1.36897     101.978E-03        -2.19260     138.413E-03    -962.044E-03     101.978E-03    -912.772E-03     339.951E-03    -169.452E-03    -170.499E-03    -169.335E-03     339.834E-03    -170.499E-03     15.0680E-03    -91.2760E+06    -136.237E+06    -282.436E+06    -136.241E+06    -282.432E+06    -91.2760E+06    -183.863E+03         49.9566
            1298     4.21882E-03     86.6492E-03     763.282E-03     99.6081E-03        -1.59371     104.232E-03    -934.655E-03     99.6081E-03     397.604E-03     339.842E-03    -169.377E-03    -170.466E-03    -169.140E-03     339.606E-03    -170.466E-03     21.6714E-03    -66.2220E+06    -125.211E+06    -245.822E+06    -125.215E+06    -245.818E+06    -66.2220E+06    -362.479E+03         50.4411
            1299     5.06252E-03     86.6743E-03     806.153E-03     91.0357E-03        -1.63298     116.423E-03    -943.254E-03     91.0357E-03     486.797E-03     339.841E-03    -169.388E-03    -170.452E-03    -168.960E-03     339.412E-03    -170.452E-03     29.2262E-03    -43.5657E+06    -113.873E+06    -201.774E+06    -113.874E+06    -201.773E+06    -43.5657E+06    -157.652E+03         50.9960
            1300     5.90743E-03     86.7100E-03     587.324E-03     81.1027E-03        -1.39645     129.339E-03    -938.460E-03     81.1027E-03         1.22096     339.698E-03    -169.256E-03    -170.442E-03    -168.511E-03     338.954E-03    -170.442E-03     38.5528E-03    -21.5111E+06    -102.391E+06    -155.166E+06    -102.406E+06    -155.150E+06    -21.5111E+06     115.069E+03         51.5973
            1301     6.75133E-03     86.7599E-03     295.091E-03     70.4951E-03        -1.08606     167.239E-03    -958.207E-03     70.4951E-03     465.607E-03     339.518E-03    -169.108E-03    -170.410E-03    -167.936E-03     338.346E-03    -170.410E-03     48.5327E-03     202.143E+03    -90.0433E+06    -109.492E+06    -90.4342E+06    -109.101E+06     202.143E+03     51.3207E+03         52.2223
            1302     7.59555E-03     86.8184E-03     411.787E-03     59.5390E-03        -1.18920     197.095E-03    -974.512E-03     59.5390E-03     917.727E-03     339.541E-03    -169.190E-03    -170.351E-03    -167.512E-03     337.863E-03    -170.351E-03     58.1357E-03     21.3274E+06    -56.6220E+06    -79.6010E+06    -78.5558E+06    -57.6672E+06     21.3274E+06    -63.4564E+03         52.8568
            1303     8.43986E-03     86.8940E-03     384.633E-03     47.3235E-03        -1.15091     227.470E-03    -993.752E-03     47.3235E-03     40.7327E-03     340.024E-03    -169.739E-03    -170.284E-03    -167.540E-03     337.824E-03    -170.284E-03     66.7170E-03     42.4137E+06      8.4192E+06    -67.5210E+06    -67.5188E+06     8.41699E+06     42.4137E+06     332.561E+03         53.5063
            1304     9.28446E-03     86.9775E-03     476.794E-03     34.2784E-03        -1.22577     261.619E-03        -1.01060     34.2784E-03     264.373E-03     340.489E-03    -170.159E-03    -170.329E-03    -167.516E-03     337.760E-03    -170.244E-03     74.3524E-03     64.5348E+06     56.6954E+06    -56.9801E+06    -56.9745E+06     61.4099E+06     59.8147E+06     797.383E+03         54.2103
            1305     10.1293E-03     87.0736E-03     649.930E-03     21.3916E-03        -1.37058     303.965E-03        -1.02462     21.3916E-03    -159.011E-03     340.683E-03    -170.172E-03    -170.511E-03    -167.287E-03     337.495E-03    -170.208E-03     80.4562E-03     77.6839E+06     67.2601E+06    -47.5312E+06    -47.5261E+06     77.6789E+06     67.2601E+06     624.616E+03         55.0552
            1306     10.9738E-03     87.1731E-03     714.880E-03     9.24622E-03        -1.40049     339.143E-03        -1.02476     9.24622E-03    -54.3360E-03     340.839E-03    -170.182E-03    -170.657E-03    -167.137E-03     337.320E-03    -170.183E-03     84.5442E-03     82.0137E+06     75.4161E+06    -38.3014E+06    -38.3001E+06     82.0125E+06     75.4161E+06    -12.5729E+03         56.1741
            1307     11.8189E-03     87.2817E-03     538.354E-03    -4.16583E-03        -1.19089     359.289E-03        -1.01182    -4.16583E-03     797.897E-03     341.659E-03    -170.170E-03    -171.489E-03    -167.071E-03     337.242E-03    -170.171E-03     94.4604E-03     88.9986E+06     86.0326E+06    -29.3454E+06    -29.3388E+06     86.9199E+06     88.1046E+06    -673.984E+03         57.7112
            1308     12.6629E-03     87.4074E-03     541.309E-03    -18.4963E-03        -1.16642     367.874E-03    -992.988E-03    -18.4963E-03     791.303E-03     341.696E-03    -170.135E-03    -171.561E-03    -167.195E-03     337.330E-03    -170.135E-03     93.8630E-03     96.0630E+06     92.0222E+06    -21.2540E+06    -21.2430E+06     92.0112E+06     96.0630E+06    -1.06646E+06         59.7245
            1309     13.5105E-03     87.5101E-03     643.588E-03    -38.0523E-03        -1.23480     376.520E-03    -967.730E-03    -38.0523E-03         1.22797     346.252E-03    -170.098E-03    -176.155E-03    -168.680E-03     338.777E-03    -170.098E-03     119.636E-03     102.422E+06     99.3247E+06    -13.7234E+06    -13.7118E+06     100.441E+06     101.293E+06    -92.3305E+03         62.0534
            1310     14.3544E-03     87.7140E-03     491.893E-03    -60.0910E-03        -1.04000     384.207E-03    -932.312E-03    -60.0910E-03     664.302E-03     346.016E-03    -170.092E-03    -175.925E-03    -169.400E-03     339.492E-03    -170.092E-03     106.188E-03     114.160E+06     109.995E+06    -6.67852E+06    -6.67128E+06     114.152E+06     109.995E+06     422.758E+03         64.2744
            1311     843.451E-06     88.0238E-03         4.38588        -1.59613        -3.29404     470.704E-03     621.140E-03        -1.59613        -5.32404     340.598E-03    -170.055E-03    -170.542E-03    -170.320E-03     340.594E-03    -170.274E-03     2.20373E-03    -156.026E+06    -164.561E+06    -357.320E+06    -162.778E+06    -357.295E+06    -157.834E+06     166.555E+03         49.0721
            1312     1.68702E-03     88.0261E-03         1.49069    -543.993E-03        -1.44765    -464.393E-03     507.438E-03    -543.993E-03    -453.555E-03     340.248E-03    -169.912E-03    -170.336E-03    -169.898E-03     340.234E-03    -170.336E-03     5.02932E-03    -139.033E+06    -155.224E+06    -340.915E+06    -155.250E+06    -340.889E+06    -139.033E+06     328.519E+03         49.2545
            1313     2.53169E-03     88.0294E-03         1.67117    -525.965E-03        -1.63084    -524.439E-03     564.768E-03    -525.965E-03        -2.96663     339.933E-03    -169.629E-03    -170.303E-03    -169.586E-03     339.890E-03    -170.303E-03     8.96781E-03    -115.638E+06    -146.792E+06    -315.411E+06    -146.802E+06    -315.402E+06    -115.638E+06    -43.5433E+03         49.5477
            1314     3.37587E-03     88.0376E-03         1.33329    -521.378E-03        -1.31829    -452.024E-03     467.024E-03    -521.378E-03    -708.893E-03     339.999E-03    -169.683E-03    -170.317E-03    -169.574E-03     339.890E-03    -170.317E-03     14.5822E-03    -90.3370E+06    -136.337E+06    -282.079E+06    -136.338E+06    -282.078E+06    -90.3370E+06     174.618E+03         49.9456
            1315     4.21952E-03     88.0543E-03     906.203E-03    -484.453E-03    -935.488E-03    -427.215E-03     425.152E-03    -511.676E-03     198.165E-03     340.195E-03    -169.807E-03    -170.389E-03    -169.576E-03     339.965E-03    -170.389E-03     21.3549E-03    -65.2849E+06    -124.923E+06    -245.557E+06    -124.924E+06    -245.556E+06    -65.2849E+06     182.878E+03         50.4339
            1316     5.06301E-03     88.0794E-03     997.958E-03    -475.288E-03        -1.04056    -362.958E-03     347.574E-03    -502.511E-03     557.904E-03     340.054E-03    -169.607E-03    -170.447E-03    -169.174E-03     339.621E-03    -170.447E-03     29.3922E-03    -42.3059E+06    -113.017E+06    -201.883E+06    -113.018E+06    -201.882E+06    -42.3059E+06     115.101E+03         50.9922
            1317     5.90569E-03     88.1150E-03     816.845E-03    -433.487E-03    -892.256E-03    -330.423E-03     315.551E-03    -494.026E-03         1.16773     339.666E-03    -169.219E-03    -170.447E-03    -168.469E-03     338.916E-03    -170.447E-03     38.6997E-03    -20.8877E+06    -101.268E+06    -154.122E+06    -101.272E+06    -154.118E+06    -20.8877E+06    -84.1227E+03         51.5963
            1318     6.75118E-03     88.1623E-03     524.241E-03    -385.633E-03    -634.424E-03    -284.381E-03     277.265E-03    -488.700E-03     501.483E-03     339.531E-03    -169.122E-03    -170.408E-03    -167.960E-03     338.368E-03    -170.408E-03     48.3537E-03     -556.54E+03    -89.8229E+06    -109.409E+06    -90.2001E+06    -109.032E+06     -556.54E+03    -275.635E+03         52.2229
            1319     7.59584E-03     88.2246E-03     630.904E-03    -402.158E-03    -717.968E-03    -241.540E-03     238.176E-03    -485.859E-03     887.967E-03     339.872E-03    -169.503E-03    -170.369E-03    -167.831E-03     338.201E-03    -170.369E-03     58.0449E-03     20.6842E+06    -57.6459E+06    -79.5131E+06    -79.0976E+06    -58.0614E+06     20.6842E+06     111.346E+03         52.8569
            1320     8.44016E-03     88.2974E-03     600.252E-03    -386.571E-03    -697.398E-03    -188.080E-03     189.427E-03    -485.064E-03     50.7898E-03     340.246E-03    -169.919E-03    -170.327E-03    -167.686E-03     338.013E-03    -170.327E-03     67.2376E-03     42.2489E+06     7.85162E+06    -68.1706E+06    -68.1618E+06     7.84277E+06     42.2489E+06     739.235E+03         53.5032
            1321     9.28411E-03     88.3844E-03     662.230E-03    -391.052E-03    -743.324E-03    -128.481E-03     141.276E-03    -484.941E-03     222.867E-03     340.351E-03    -170.070E-03    -170.280E-03    -167.339E-03     337.619E-03    -170.280E-03     74.4175E-03     64.4723E+06     56.7203E+06    -57.5667E+06    -57.5575E+06     61.5873E+06     59.5961E+06     769.897E+03         54.2015
            1322     10.1287E-03     88.4758E-03     824.352E-03    -442.701E-03    -835.230E-03    -72.6030E-03     103.962E-03    -484.938E-03    -158.207E-03     340.408E-03    -170.026E-03    -170.383E-03    -166.962E-03     337.182E-03    -170.220E-03     80.8435E-03     78.2913E+06     67.4471E+06    -47.1407E+06    -47.1369E+06     78.2874E+06     67.4471E+06     545.759E+03         55.0394
            1323     10.9732E-03     88.5804E-03     869.485E-03    -448.975E-03    -850.875E-03    -33.5386E-03     88.6536E-03    -485.480E-03    -67.8695E-03     340.478E-03    -170.050E-03    -170.428E-03    -166.700E-03     336.861E-03    -170.161E-03     85.6392E-03     83.2085E+06     75.5182E+06    -37.8336E+06    -37.8275E+06     83.2023E+06     75.5182E+06     563.032E+03         56.1530
            1324     11.8189E-03     88.6815E-03     621.896E-03    -313.697E-03    -715.898E-03     3.77156E-03     76.6648E-03    -488.135E-03     799.427E-03     341.289E-03    -170.120E-03    -171.169E-03    -166.716E-03     336.837E-03    -170.121E-03     94.7902E-03     89.6239E+06     85.8002E+06    -29.9140E+06    -29.9086E+06     87.5170E+06     87.9016E+06     73.3100E+03         57.6911
            1325     12.6674E-03     88.8123E-03     619.214E-03    -297.377E-03    -709.369E-03     45.8601E-03     58.2320E-03    -491.625E-03     780.979E-03     341.912E-03    -170.087E-03    -171.825E-03    -167.478E-03     337.565E-03    -170.087E-03     93.6819E-03     96.0046E+06     91.9295E+06    -22.2427E+06    -22.2381E+06     91.9249E+06     96.0046E+06    -616.957E+03         59.7156
            1326     13.5089E-03     88.9151E-03     757.969E-03    -350.960E-03    -773.768E-03     92.9050E-03     39.6879E-03    -499.352E-03         1.21655     346.911E-03    -170.089E-03    -176.822E-03    -169.506E-03     339.595E-03    -170.089E-03     118.624E-03     102.846E+06     99.2894E+06    -14.4057E+06    -14.4018E+06     100.868E+06     101.263E+06    -561.175E+03         62.0650
            1327     14.3541E-03     89.1188E-03     542.044E-03    -220.644E-03    -664.462E-03     146.808E-03     18.2333E-03    -508.103E-03     658.196E-03     346.077E-03    -169.963E-03    -176.114E-03    -169.562E-03     339.679E-03    -170.117E-03     105.553E-03     114.267E+06     109.614E+06    -7.20143E+06    -7.20080E+06     114.266E+06     109.614E+06    -77.2244E+03         64.3081
            1328     843.550E-06     89.4274E-03         7.71173        -1.98643        -6.03749    -330.895E-03         2.00513        -1.98643        -7.64472     340.545E-03    -169.679E-03    -170.866E-03    -170.435E-03     340.542E-03    -170.106E-03     1.92071E-03    -155.168E+06    -166.482E+06    -356.354E+06    -162.976E+06    -356.347E+06    -158.680E+06     15.4092E+03         49.0569
            1329     1.68792E-03     89.4301E-03         3.50820        -1.14381        -2.65121        -1.08001         1.93700        -1.14381     385.089E-03     339.871E-03    -169.614E-03    -170.257E-03    -169.602E-03     339.859E-03    -170.257E-03     4.53404E-03    -140.145E+06    -157.058E+06    -341.290E+06    -157.067E+06    -341.281E+06    -140.145E+06     12.8057E+03         49.2402
            1330     2.53170E-03     89.4321E-03         2.77844        -1.12390        -1.93165        -1.10127         1.94994        -1.12579        -3.36653     340.015E-03    -169.783E-03    -170.232E-03    -169.759E-03     339.975E-03    -170.216E-03     8.69328E-03    -115.686E+06    -147.004E+06    -314.830E+06    -147.009E+06    -314.824E+06    -115.686E+06    -32.6391E+03         49.5352
            1331     3.37525E-03     89.4428E-03         2.01759        -1.07612        -1.22885        -1.00025         1.82478        -1.11190    -515.401E-03     340.316E-03    -169.985E-03    -170.331E-03    -169.897E-03     340.211E-03    -170.314E-03     14.2885E-03    -90.1864E+06    -135.811E+06    -282.535E+06    -135.814E+06    -282.533E+06    -90.1864E+06    -17.0535E+03         49.9351
            1332     4.21867E-03     89.4589E-03         1.78652    -972.557E-03        -1.10602    -925.404E-03         1.72180        -1.08845     45.8342E-03     340.040E-03    -169.636E-03    -170.404E-03    -169.411E-03     339.815E-03    -170.404E-03     21.0446E-03    -65.8379E+06    -124.089E+06    -246.220E+06    -124.097E+06    -246.211E+06    -65.8379E+06     789.568E+03         50.4254
            1333     5.06262E-03     89.4846E-03         1.82247    -974.209E-03        -1.13958    -835.495E-03         1.60731        -1.06314     640.073E-03     339.662E-03    -169.247E-03    -170.415E-03    -168.811E-03     339.226E-03    -170.415E-03     29.4292E-03    -42.5916E+06    -112.689E+06    -201.258E+06    -112.698E+06    -201.250E+06    -42.5916E+06     570.206E+03         50.9860
            1334     5.90822E-03     89.5189E-03         1.73081    -896.772E-03        -1.11592    -780.898E-03         1.53849        -1.03947         1.13385     339.743E-03    -169.343E-03    -170.401E-03    -168.585E-03     338.986E-03    -170.401E-03     38.9263E-03    -20.7777E+06    -101.418E+06    -153.290E+06    -101.421E+06    -153.286E+06    -20.7777E+06     164.678E+03         51.5925
            1335     6.75092E-03     89.5679E-03         1.51293    -762.634E-03        -1.02046    -722.949E-03         1.47325        -1.02046     512.180E-03     339.949E-03    -169.547E-03    -170.403E-03    -168.370E-03     338.773E-03    -170.403E-03     48.6655E-03     143.712E+03    -89.8638E+06    -108.531E+06    -90.0583E+06    -108.336E+06     143.712E+03    -49.5799E+03         52.2203
            1336     7.59501E-03     89.6278E-03         1.50552    -758.555E-03        -1.00543    -666.309E-03         1.41327        -1.00543     814.653E-03     340.067E-03    -169.672E-03    -170.395E-03    -167.983E-03     338.378E-03    -170.395E-03     58.3824E-03     20.4936E+06    -58.8322E+06    -79.6189E+06    -79.0502E+06    -59.4008E+06     20.4936E+06     235.851E+03         52.8534
            1337     8.43912E-03     89.7039E-03         1.46737    -718.075E-03    -993.202E-03    -597.818E-03         1.34711    -993.202E-03    -1.76778E-03     340.022E-03    -169.678E-03    -170.344E-03    -167.429E-03     337.773E-03    -170.344E-03     67.4359E-03     41.9051E+06     7.07207E+06    -68.0182E+06    -67.9982E+06     7.05210E+06     41.9051E+06     1.12808E+06         53.4971
            1338     9.28416E-03     89.7875E-03         1.45168    -695.968E-03    -982.284E-03    -527.275E-03         1.28299    -982.284E-03     127.676E-03     339.928E-03    -169.666E-03    -170.262E-03    -166.887E-03     337.149E-03    -170.262E-03     74.9821E-03     65.3282E+06     57.2908E+06    -56.9200E+06    -56.9063E+06     62.6354E+06     59.9698E+06     1.04089E+06         54.1918
            1339     10.1290E-03     89.8819E-03         1.51443    -748.928E-03    -972.202E-03    -460.021E-03         1.22552    -972.202E-03    -213.005E-03     340.041E-03    -169.815E-03    -170.226E-03    -166.617E-03     336.783E-03    -170.166E-03     81.2043E-03     78.8615E+06     67.2404E+06    -46.8511E+06    -46.8449E+06     78.8553E+06     67.2404E+06     687.963E+03         55.0259
            1340     10.9760E-03     89.9802E-03         1.50628    -724.464E-03    -962.653E-03    -392.452E-03         1.17427    -962.653E-03    -118.929E-03     340.367E-03    -169.985E-03    -170.382E-03    -166.682E-03     336.777E-03    -170.095E-03     85.2992E-03     82.7595E+06     74.7343E+06    -37.8989E+06    -37.8923E+06     82.7529E+06     74.7343E+06     606.131E+03         56.1363
            1341     11.8213E-03     90.0888E-03         1.27619    -475.443E-03    -954.349E-03    -322.152E-03         1.12290    -954.349E-03     770.665E-03     341.879E-03    -170.090E-03    -171.789E-03    -167.439E-03     337.528E-03    -170.090E-03     93.8786E-03     90.4878E+06     86.9431E+06    -28.8497E+06    -28.8385E+06     88.6945E+06     88.7252E+06     684.528E+03         57.6741
            1342     12.6629E-03     90.2127E-03         1.23943    -420.767E-03    -946.230E-03    -253.348E-03         1.07201    -946.230E-03     763.479E-03     342.555E-03    -170.109E-03    -172.445E-03    -168.141E-03     338.251E-03    -170.109E-03     93.4512E-03     97.6179E+06     94.0038E+06    -20.7932E+06    -20.7840E+06     93.9945E+06     97.6179E+06     315.299E+03         59.7054
            1343     13.5098E-03     90.3251E-03         1.30038    -458.829E-03    -941.388E-03    -176.198E-03         1.01775    -941.388E-03         1.21569     346.777E-03    -170.125E-03    -176.652E-03    -169.360E-03     339.485E-03    -170.125E-03     118.587E-03     102.417E+06     99.3885E+06    -14.1517E+06    -14.1484E+06     100.581E+06     101.221E+06    -353.627E+03         62.0726
            1344     14.3525E-03     90.5210E-03         1.07784    -212.696E-03    -936.121E-03    -81.2853E-03     946.431E-03    -936.121E-03     658.863E-03     345.607E-03    -169.810E-03    -175.798E-03    -169.111E-03     339.245E-03    -170.134E-03     105.447E-03     113.467E+06     109.127E+06    -7.10666E+06    -7.10520E+06     113.465E+06     109.127E+06    -399.072E+03         64.3383
            1345     843.196E-06     90.8337E-03         9.59714        -2.05832        -7.59678        -1.30731         3.30767        -2.05832        -8.74016     340.228E-03    -169.497E-03    -170.731E-03    -170.378E-03     340.226E-03    -169.847E-03     1.42217E-03    -156.655E+06    -167.967E+06    -355.150E+06    -164.464E+06    -355.140E+06    -160.168E+06    -772.765E+03         49.0480
            1346     1.68734E-03     90.8311E-03         4.96122        -1.67449        -3.36084        -1.63671         3.23708        -1.67449     812.686E-03     340.236E-03    -169.870E-03    -170.366E-03    -170.011E-03     340.224E-03    -170.213E-03     4.41825E-03    -141.090E+06    -157.409E+06    -340.768E+06    -157.413E+06    -340.764E+06    -141.090E+06    -451.292E+03         49.2314
            1347     2.53172E-03     90.8377E-03         3.90836        -1.64025        -2.33530        -1.58223         3.16986        -1.65481        -3.55064     340.317E-03    -169.969E-03    -170.347E-03    -169.973E-03     340.275E-03    -170.302E-03     8.81698E-03    -117.436E+06    -147.869E+06    -314.771E+06    -147.873E+06    -314.766E+06    -117.436E+06    -185.360E+03         49.5259
            1348     3.37493E-03     90.8471E-03         3.10577        -1.54459        -1.62994        -1.49861         3.05979        -1.62994    -414.986E-03     340.091E-03    -169.696E-03    -170.395E-03    -169.604E-03     339.983E-03    -170.379E-03     14.4996E-03    -91.8598E+06    -137.383E+06    -283.433E+06    -137.389E+06    -283.427E+06    -91.8598E+06     546.412E+03         49.9253
            1349     4.21887E-03     90.8640E-03         2.96366        -1.42933        -1.60111        -1.41853         2.95286        -1.60111    -30.3813E-03     339.755E-03    -169.358E-03    -170.397E-03    -169.127E-03     339.524E-03    -170.397E-03     21.3710E-03    -67.4595E+06    -126.255E+06    -246.819E+06    -126.272E+06    -246.802E+06    -67.4595E+06     427.372E+03         50.4160
            1350     5.06373E-03     90.8870E-03         2.94722        -1.44034        -1.57208        -1.33647         2.84335        -1.57208     675.242E-03     339.743E-03    -169.352E-03    -170.391E-03    -168.921E-03     339.312E-03    -170.391E-03     29.3268E-03    -43.6555E+06    -113.848E+06    -200.396E+06    -113.865E+06    -200.379E+06    -43.6555E+06     155.019E+03         50.9778
            1351     5.90658E-03     90.9248E-03         2.84691        -1.36162        -1.54461        -1.25833         2.74362        -1.54461         1.10079     339.722E-03    -169.325E-03    -170.398E-03    -168.593E-03     338.990E-03    -170.398E-03     38.2923E-03    -20.2654E+06    -101.736E+06    -153.167E+06    -101.745E+06    -153.158E+06    -20.2654E+06     116.618E+03         51.5854
            1352     6.75163E-03     90.9721E-03         2.66477        -1.19249        -1.51937        -1.17474         2.64701        -1.51937     499.035E-03     339.830E-03    -169.435E-03    -170.395E-03    -168.257E-03     338.652E-03    -170.395E-03     48.6038E-03     630.649E+03    -89.5893E+06    -109.085E+06    -90.4548E+06    -108.219E+06     630.649E+03     542.934E+03         52.2139
            1353     7.59529E-03     91.0344E-03         2.60611        -1.13833        -1.49636        -1.09369         2.56147        -1.49636     769.332E-03     340.011E-03    -169.634E-03    -170.376E-03    -167.918E-03     338.294E-03    -170.376E-03     58.8625E-03     20.5528E+06    -58.5011E+06    -80.7699E+06    -79.7817E+06    -59.4893E+06     20.5528E+06     872.712E+03         52.8471
            1354     8.43995E-03     91.1069E-03         2.55797        -1.08942        -1.47565        -1.01631         2.48486        -1.47565    -48.6304E-03     339.679E-03    -169.374E-03    -170.305E-03    -167.108E-03     337.413E-03    -170.305E-03     67.6376E-03     41.2994E+06     6.50546E+06    -68.5293E+06    -68.5169E+06     6.49308E+06     41.2994E+06     596.155E+03         53.4902
            1355     9.28514E-03     91.1922E-03         2.49447        -1.02267        -1.45651    -930.404E-03         2.40220        -1.45651     48.0899E-03     339.510E-03    -169.316E-03    -170.194E-03    -166.535E-03     336.729E-03    -170.194E-03     74.9578E-03     64.8218E+06     56.5344E+06    -57.3833E+06    -57.3731E+06     62.2031E+06     59.1429E+06     952.921E+03         54.1839
            1356     10.1312E-03     91.2838E-03         2.47297    -996.991E-03        -1.43764    -833.247E-03         2.30923        -1.43764    -269.107E-03     340.265E-03    -169.787E-03    -170.478E-03    -166.939E-03     337.046E-03    -170.107E-03     80.7781E-03     79.7084E+06     67.9924E+06    -47.0783E+06    -47.0684E+06     79.6984E+06     67.9924E+06     1.10007E+06         55.0155
            1357     10.9742E-03     91.3861E-03         2.39849    -916.490E-03        -1.41779    -725.478E-03         2.20748        -1.41779    -172.548E-03     341.193E-03    -170.093E-03    -171.100E-03    -167.596E-03     337.689E-03    -170.093E-03     84.4395E-03     83.5410E+06     76.1253E+06    -37.7712E+06    -37.7657E+06     83.5355E+06     76.1253E+06     572.637E+03         56.1214
            1358     11.8189E-03     91.4904E-03         2.18818    -695.909E-03        -1.39744    -615.577E-03         2.10785        -1.39744     755.127E-03     342.295E-03    -170.135E-03    -172.159E-03    -167.870E-03     338.006E-03    -170.135E-03     93.2411E-03     90.0409E+06     87.5580E+06    -29.5312E+06    -29.5219E+06     88.9274E+06     88.6623E+06     627.112E+03         57.6550
            1359     12.6653E-03     91.6225E-03         2.10938    -605.221E-03        -1.37598    -511.626E-03         2.01579        -1.37598     764.353E-03     342.324E-03    -170.155E-03    -172.169E-03    -167.835E-03     337.990E-03    -170.155E-03     93.7817E-03     96.9786E+06     94.5008E+06    -21.8161E+06    -21.8054E+06     94.4901E+06     96.9786E+06     912.449E+03         59.6911
            1360     13.5073E-03     91.7257E-03         2.08284    -560.034E-03        -1.35663    -403.141E-03         1.92594        -1.35663         1.22047     346.096E-03    -170.136E-03    -175.961E-03    -168.553E-03     338.689E-03    -170.136E-03     119.378E-03     102.440E+06     100.178E+06    -14.2595E+06    -14.2540E+06     101.061E+06     101.551E+06     130.284E+03         62.0776
            1361     14.3548E-03     91.9288E-03         1.89907    -358.554E-03        -1.33658    -290.126E-03         1.83064        -1.33658     657.607E-03     345.305E-03    -169.938E-03    -175.367E-03    -168.753E-03     338.861E-03    -170.109E-03     105.913E-03     113.490E+06     109.625E+06    -7.13861E+06    -7.13641E+06     113.488E+06     109.625E+06    -494.268E+03         64.3686
            1362     845.110E-06     92.2352E-03         9.64032        -1.95543        -7.55335        -2.29134         4.37831        -1.95543        -8.38253     339.846E-03    -169.644E-03    -170.202E-03    -169.905E-03     339.843E-03    -169.939E-03     1.83358E-03    -159.173E+06    -167.639E+06    -352.372E+06    -166.102E+06    -352.355E+06    -160.727E+06    -1.12826E+06         49.0445
            1363     1.68783E-03     92.2376E-03         5.65735        -2.11960        -3.40362        -2.10187         4.35561        -2.11960     676.062E-03     340.717E-03    -170.163E-03    -170.554E-03    -170.540E-03     340.704E-03    -170.163E-03     4.97627E-03    -143.290E+06    -158.707E+06    -340.234E+06    -158.720E+06    -340.222E+06    -143.290E+06    -1.40918E+06         49.2267
            1364     2.53020E-03     92.2412E-03         4.82957        -2.08837        -2.60425        -2.00667         4.24467        -2.10105        -3.50854     340.562E-03    -170.023E-03    -170.539E-03    -170.108E-03     340.520E-03    -170.412E-03     8.98885E-03    -118.003E+06    -149.034E+06    -316.170E+06    -149.042E+06    -316.162E+06    -118.003E+06    -106.743E+03         49.5191
            1365     3.37495E-03     92.2518E-03         4.23216        -1.98979        -2.09376        -1.96405         4.18722        -2.07456    -476.570E-03     339.904E-03    -169.452E-03    -170.453E-03    -169.352E-03     339.805E-03    -170.453E-03     13.9496E-03    -92.3800E+06    -138.166E+06      -284.5E+06    -138.171E+06    -284.495E+06    -92.3800E+06     616.429E+03         49.9168
            1366     4.21981E-03     92.2664E-03         4.10464        -1.90116        -2.04989        -1.89012         4.09360        -2.04989    -35.8929E-03     339.720E-03    -169.297E-03    -170.423E-03    -169.076E-03     339.500E-03    -170.423E-03     20.7849E-03    -66.7138E+06    -125.704E+06    -245.212E+06    -125.714E+06    -245.202E+06    -66.7138E+06    -96.3550E+03         50.4066
            1367     5.06254E-03     92.2938E-03         4.08270        -1.90457        -2.02523        -1.82573         4.00386        -2.02523     649.572E-03     339.782E-03    -169.370E-03    -170.411E-03    -168.934E-03     339.345E-03    -170.411E-03     29.4581E-03    -43.1400E+06    -113.848E+06    -200.001E+06    -113.863E+06    -199.986E+06    -43.1400E+06    -309.451E+03         50.9682
            1368     5.90702E-03     92.3285E-03         3.97051        -1.81190        -2.00093        -1.73606         3.89467        -2.00093         1.10177     339.770E-03    -169.356E-03    -170.415E-03    -168.608E-03     339.022E-03    -170.415E-03     38.7114E-03    -20.7249E+06    -102.352E+06    -153.842E+06    -102.385E+06    -153.809E+06    -20.7249E+06     207.489E+03         51.5763
            1369     6.75100E-03     92.3764E-03         3.79915        -1.64719        -1.97571        -1.63543         3.78739        -1.97571     481.756E-03     339.550E-03    -169.155E-03    -170.395E-03    -167.984E-03     338.380E-03    -170.395E-03     48.4764E-03     224.601E+03    -90.1634E+06    -110.083E+06    -90.8642E+06    -109.382E+06     224.601E+03     925.478E+03         52.2058
            1370     7.59605E-03     92.4389E-03         3.71361        -1.56321        -1.95021        -1.53348         3.68387        -1.95021     760.226E-03     339.434E-03    -169.101E-03    -170.333E-03    -167.395E-03     337.728E-03    -170.333E-03     58.5813E-03     20.8034E+06    -57.3965E+06    -81.0001E+06    -78.9742E+06    -59.4223E+06     20.8034E+06     1.16026E+06         52.8404
            1371     8.44033E-03     92.5114E-03         3.63346        -1.48259        -1.92487        -1.43149         3.58237        -1.92487    -78.8298E-03     339.607E-03    -169.368E-03    -170.239E-03    -167.139E-03     337.378E-03    -170.239E-03     67.1216E-03     41.2953E+06     7.03804E+06    -68.5603E+06    -68.5264E+06     7.00407E+06     41.2953E+06     1.02902E+06         53.4847
            1372     9.28580E-03     92.5943E-03         3.52396        -1.37414        -1.89892        -1.31182         3.46163        -1.89892     4.99693E-03     339.862E-03    -169.684E-03    -170.179E-03    -166.989E-03     337.148E-03    -170.158E-03     74.0980E-03     64.6147E+06     55.8148E+06    -58.4608E+06    -58.4472E+06     61.6937E+06     58.7222E+06     880.677E+03         54.1773
            1373     10.1299E-03     92.6890E-03         3.43960        -1.29245        -1.87121        -1.17841         3.32556        -1.87121    -307.380E-03     340.580E-03    -169.980E-03    -170.600E-03    -167.277E-03     337.384E-03    -170.108E-03     80.5202E-03     79.8119E+06     67.1164E+06    -48.3671E+06    -48.3602E+06     79.8051E+06     67.1164E+06     844.288E+03         55.0044
            1374     10.9754E-03     92.7913E-03         3.31428        -1.17024        -1.84093        -1.03798         3.18202        -1.84093    -210.252E-03     341.521E-03    -170.118E-03    -171.404E-03    -167.844E-03     337.962E-03    -170.118E-03     85.1435E-03     83.7540E+06     75.5232E+06    -39.0283E+06    -39.0187E+06     83.7444E+06     75.5232E+06     1.06913E+06         56.1032
            1375     11.8182E-03     92.8977E-03         3.09368    -948.539E-03        -1.80875    -896.531E-03         3.04167        -1.80875     741.709E-03     342.370E-03    -170.165E-03    -172.205E-03    -167.841E-03     338.006E-03    -170.165E-03     94.0887E-03     89.7488E+06     87.4188E+06    -30.3290E+06    -30.3211E+06     88.8387E+06     88.3210E+06     870.983E+03         57.6324
            1376     12.6621E-03     93.0224E-03         2.96752    -815.390E-03        -1.77428    -753.648E-03         2.90578        -1.77428     754.769E-03     341.707E-03    -170.119E-03    -171.588E-03    -167.150E-03     337.309E-03    -170.158E-03     94.3779E-03     96.9127E+06     94.4929E+06    -21.7989E+06    -21.7891E+06     94.4831E+06     96.9127E+06     949.039E+03         59.6756
            1377     13.5104E-03     93.1336E-03         2.88496    -721.161E-03        -1.74107    -615.282E-03         2.77908        -1.74107         1.20001     345.697E-03    -170.068E-03    -175.630E-03    -168.177E-03     338.283E-03    -170.106E-03     119.574E-03     104.158E+06     100.923E+06    -13.8741E+06    -13.8651E+06     102.631E+06     102.441E+06     601.649E+03         62.0849
            1378     14.3548E-03     93.3274E-03         2.70800    -532.048E-03        -1.70738    -485.007E-03         2.66096        -1.70738     638.452E-03     345.539E-03    -170.080E-03    -175.459E-03    -169.063E-03     339.144E-03    -170.081E-03     105.522E-03     114.239E+06     110.619E+06    -6.65389E+06    -6.64829E+06     114.233E+06     110.619E+06    -485.141E+03         64.4034
            1379     843.412E-06     93.6389E-03         8.31995        -1.81315        -6.20014        -3.13122         5.25103        -1.81315        -6.53142     340.751E-03    -169.915E-03    -170.836E-03    -170.479E-03     340.749E-03    -170.270E-03     1.39512E-03    -157.384E+06    -165.658E+06    -351.060E+06    -164.120E+06    -351.044E+06    -158.937E+06     542.828E+03         49.0425
            1380     1.68750E-03     93.6422E-03         5.95492        -2.48306        -3.12843        -2.52533         5.35182        -2.48306     81.6243E-03     340.636E-03    -169.940E-03    -170.696E-03    -170.168E-03     340.625E-03    -170.458E-03     4.29597E-03    -140.998E+06    -158.731E+06    -338.662E+06    -158.749E+06    -338.644E+06    -140.998E+06    -331.257E+03         49.2223
            1381     2.53138E-03     93.6472E-03         5.61947        -2.48467        -2.79767        -2.42267         5.24446        -2.48467        -3.24630     340.390E-03    -169.807E-03    -170.583E-03    -169.866E-03     340.350E-03    -170.484E-03     8.65618E-03    -117.924E+06    -149.458E+06    -317.185E+06    -149.470E+06    -317.173E+06    -117.924E+06    -824.961E+03         49.5126
            1382     3.37435E-03     93.6548E-03         5.32366        -2.41297        -2.55750        -2.39821         5.21965        -2.46824    -679.261E-03     340.187E-03    -169.695E-03    -170.493E-03    -169.588E-03     340.081E-03    -170.493E-03     14.3363E-03    -92.7248E+06    -137.830E+06    -285.014E+06    -137.838E+06    -285.006E+06    -92.7248E+06    -487.525E+03         49.9087
            1383     4.21757E-03     93.6718E-03         5.15518        -2.34521        -2.45039        -2.31301         5.12299        -2.45039     13.7527E-03     339.896E-03    -169.407E-03    -170.489E-03    -169.177E-03     339.666E-03    -170.489E-03     21.2319E-03    -67.4510E+06    -126.076E+06    -244.839E+06    -126.079E+06    -244.836E+06    -67.4510E+06     287.566E+03         50.3974
            1384     5.06327E-03     93.6967E-03         5.13859        -2.34041        -2.42916        -2.25342         5.05160        -2.42916     551.767E-03     339.502E-03    -169.048E-03    -170.453E-03    -168.617E-03     339.070E-03    -170.453E-03     29.3074E-03    -43.7295E+06    -114.968E+06    -200.190E+06    -114.984E+06    -200.173E+06    -43.7295E+06     496.345E+03         50.9586
            1385     5.90754E-03     93.7336E-03         5.02773        -2.24353        -2.40769        -2.17101         4.95521        -2.40769         1.10979     339.378E-03    -168.980E-03    -170.398E-03    -168.225E-03     338.623E-03    -170.398E-03     38.7841E-03    -21.9331E+06    -103.633E+06    -154.594E+06    -103.672E+06    -154.555E+06    -21.9331E+06     455.114E+03         51.5675
            1386     6.75092E-03     93.7821E-03         4.86480        -2.08880        -2.38504        -2.07957         4.85556        -2.38504     422.088E-03     339.456E-03    -169.107E-03    -170.349E-03    -167.920E-03     338.269E-03    -170.349E-03     48.8288E-03    -1.19623E+06    -91.1530E+06    -110.910E+06    -92.0094E+06    -110.053E+06    -1.19623E+06     712.511E+03         52.1987
            1387     7.59583E-03     93.8401E-03         4.74960        -1.97486        -2.36017        -1.95300         4.72775        -2.36017     753.212E-03     339.551E-03    -169.255E-03    -170.297E-03    -167.558E-03     337.854E-03    -170.297E-03     58.4656E-03     19.0336E+06    -58.6377E+06    -82.5152E+06    -81.0323E+06    -60.1207E+06     19.0336E+06     1.10114E+06         52.8352
            1388     8.44167E-03     93.9170E-03         4.62511        -1.84714        -2.33160        -1.81094         4.58891        -2.33160    -112.133E-03     339.765E-03    -169.535E-03    -170.231E-03    -167.353E-03     337.584E-03    -170.231E-03     66.4368E-03     40.7997E+06     7.10552E+06    -69.8899E+06    -69.8480E+06     7.06357E+06     40.7997E+06     1.56972E+06         53.4798
            1389     9.28478E-03     93.9987E-03         4.47368        -1.69796        -2.29888        -1.65359         4.42931        -2.29888    -25.0327E-03     340.223E-03    -169.940E-03    -170.282E-03    -167.354E-03     337.534E-03    -170.180E-03     73.7708E-03     64.9159E+06     56.3668E+06    -58.5762E+06    -58.5561E+06     62.2372E+06     59.0253E+06     1.33951E+06         54.1695
            1390     10.1299E-03     94.0935E-03         4.34938        -1.58389        -2.26252        -1.49956         4.26504        -2.26252    -336.714E-03     340.675E-03    -170.141E-03    -170.534E-03    -167.315E-03     337.457E-03    -170.141E-03     80.8152E-03     79.6364E+06     66.4043E+06    -48.5310E+06    -48.5210E+06     79.6263E+06     66.4043E+06     987.961E+03         54.9901
            1391     10.9737E-03     94.1957E-03         4.19670        -1.44076        -2.22310        -1.34349         4.09942        -2.22310    -238.112E-03     340.756E-03    -170.047E-03    -170.709E-03    -167.046E-03     337.164E-03    -170.118E-03     85.3995E-03     83.6753E+06     74.5886E+06    -39.1912E+06    -39.1835E+06     83.6676E+06     74.5886E+06     797.299E+03         56.0819
            1392     11.8200E-03     94.3029E-03         3.96793        -1.21617        -2.18140        -1.18037         3.93214        -2.18140     707.425E-03     341.734E-03    -170.044E-03    -171.690E-03    -167.182E-03     337.297E-03    -170.115E-03     94.7501E-03     90.1474E+06     86.8315E+06    -29.9296E+06    -29.9215E+06     88.5687E+06     88.4021E+06     806.544E+03         57.6103
            1393     12.6654E-03     94.4276E-03         3.80431        -1.05418        -2.13690        -1.01184         3.76198        -2.13690     718.364E-03     342.069E-03    -170.062E-03    -172.006E-03    -167.543E-03     337.644E-03    -170.101E-03     94.6561E-03     97.4592E+06     94.7007E+06    -21.8407E+06    -21.8320E+06      94.692E+06     97.4592E+06     864.869E+03         59.6641
            1394     13.5096E-03     94.5329E-03         3.67199    -918.502E-03        -2.09302    -844.310E-03         3.59780        -2.09302         1.14511     346.299E-03    -170.045E-03    -176.254E-03    -168.823E-03     338.907E-03    -170.084E-03     119.428E-03     105.720E+06     102.012E+06    -13.8652E+06    -13.8596E+06     104.526E+06     103.200E+06     277.560E+03         62.0963
            1395     14.3543E-03     94.7377E-03         3.47366    -716.865E-03        -2.04810    -683.301E-03         3.44010        -2.04810     596.184E-03     345.777E-03    -170.086E-03    -175.691E-03    -169.309E-03     339.396E-03    -170.087E-03     105.302E-03     114.924E+06     111.229E+06    -6.15855E+06    -6.15119E+06     114.916E+06     111.229E+06    -194.339E+03         64.4413
            1396     842.331E-06     95.0451E-03         7.10585        -1.71188        -4.83484        -3.87667         6.14768        -1.71188        -3.86608     341.899E-03    -170.277E-03    -171.621E-03    -171.200E-03     341.896E-03    -170.697E-03     1.74703E-03    -155.954E+06    -164.525E+06    -353.123E+06    -162.458E+06    -353.114E+06    -158.030E+06     571.159E+03         49.0362
            1397     1.68569E-03     95.0464E-03         6.41706        -2.79206        -3.08645        -2.91673         6.27354        -2.81827    -807.477E-03     340.661E-03    -169.818E-03    -170.843E-03    -169.807E-03     340.650E-03    -170.843E-03     4.36316E-03    -139.008E+06    -155.996E+06    -338.005E+06    -156.005E+06    -337.995E+06    -139.008E+06     657.816E+03         49.2145
            1398     2.53045E-03     95.0503E-03         6.44196        -2.81299        -3.09583        -2.80952         6.18185        -2.83920        -2.86457     340.089E-03    -169.496E-03    -170.593E-03    -169.458E-03     340.050E-03    -170.593E-03     8.49740E-03    -116.316E+06    -147.194E+06    -315.772E+06    -147.211E+06    -315.755E+06    -116.316E+06     230.594E+03         49.5039
            1399     3.37519E-03     95.0603E-03         6.39580        -2.80383        -3.04126        -2.79395         6.17671        -2.83204        -1.00498     339.996E-03    -169.503E-03    -170.493E-03    -169.395E-03     339.888E-03    -170.493E-03     14.3970E-03    -91.6817E+06    -137.220E+06    -285.145E+06    -137.236E+06    -285.128E+06    -91.6817E+06     198.637E+03         49.8998
            1400     4.21944E-03     95.0760E-03         6.14344        -2.76299        -2.81868        -2.68896         6.06940        -2.81868     60.1198E-03     339.924E-03    -169.458E-03    -170.466E-03    -169.218E-03     339.684E-03    -170.466E-03     21.7532E-03    -67.8212E+06    -126.441E+06    -246.186E+06    -126.444E+06    -246.184E+06    -67.8212E+06     327.464E+03         50.3888
            1401     5.06196E-03     95.1012E-03         6.10186        -2.73449        -2.79778        -2.62335         5.99072        -2.79778     381.393E-03     339.656E-03    -169.210E-03    -170.446E-03    -168.767E-03     339.213E-03    -170.446E-03     29.7082E-03    -44.4436E+06    -114.474E+06    -201.150E+06    -114.488E+06    -201.135E+06    -44.4436E+06     808.839E+03         50.9508
            1402     5.90650E-03     95.1370E-03         5.96280        -2.61118        -2.77521        -2.53393         5.88555        -2.77521         1.09860     339.174E-03    -168.782E-03    -170.392E-03    -168.040E-03     338.432E-03    -170.392E-03     38.5076E-03    -21.9021E+06    -102.674E+06    -154.678E+06    -102.721E+06    -154.631E+06    -21.9021E+06     1.06662E+06         51.5609
            1403     6.75328E-03     95.1847E-03         5.78871        -2.44561        -2.75034        -2.43596         5.77906        -2.75034     333.113E-03     339.325E-03    -168.997E-03    -170.328E-03    -167.839E-03     338.167E-03    -170.328E-03     48.1950E-03    -1.14331E+06    -90.8656E+06    -111.100E+06    -91.7311E+06    -110.234E+06    -1.14331E+06     971.179E+03         52.1937
            1404     7.59638E-03     95.2473E-03         5.65417        -2.31148        -2.72176        -2.29395         5.63663        -2.72176     741.033E-03     339.870E-03    -169.576E-03    -170.294E-03    -167.900E-03     338.194E-03    -170.294E-03     58.1246E-03     19.5473E+06    -59.2539E+06    -82.1979E+06    -80.6609E+06    -60.7909E+06     19.5473E+06     1.32767E+06         52.8309
            1405     8.43901E-03     95.3192E-03         5.50273        -2.16003        -2.68767        -2.13458         5.47728        -2.68767    -147.938E-03     339.904E-03    -169.655E-03    -170.249E-03    -167.442E-03     337.691E-03    -170.249E-03     66.8795E-03     40.9926E+06     6.32502E+06    -69.3975E+06    -69.3471E+06     6.27462E+06     40.9926E+06     1.61720E+06         53.4745
            1406     9.28543E-03     95.4047E-03         5.33254        -1.99747        -2.64842        -1.96529         5.30036        -2.64842    -43.7863E-03     340.150E-03    -169.870E-03    -170.281E-03    -167.213E-03     337.404E-03    -170.191E-03     74.5628E-03     64.8521E+06     56.3799E+06    -58.4647E+06    -58.4394E+06     62.2665E+06     58.9402E+06     1.71280E+06         54.1608
            1407     10.1291E-03     95.4976E-03         5.18783        -1.86816        -2.60525        -1.80381         5.12347        -2.60525    -359.666E-03     340.543E-03    -170.142E-03    -170.401E-03    -167.144E-03     337.286E-03    -170.142E-03     81.2785E-03     80.4503E+06     67.7643E+06    -48.0968E+06    -48.0800E+06     80.4334E+06     67.7643E+06     1.44514E+06         54.9763
            1408     10.9750E-03     95.6002E-03         5.02086        -1.71766        -2.55913        -1.64314         4.94634        -2.55913    -250.856E-03     340.371E-03    -170.027E-03    -170.344E-03    -166.685E-03     336.782E-03    -170.097E-03     85.3068E-03     84.7799E+06     76.0373E+06    -38.6142E+06    -38.6063E+06     84.7720E+06     76.0373E+06     813.950E+03         56.0633
            1409     11.8204E-03     95.7037E-03         4.79256        -1.49851        -2.51105        -1.47233         4.76639        -2.51105     675.016E-03     341.527E-03    -170.005E-03    -171.522E-03    -167.070E-03     337.145E-03    -170.075E-03     94.1301E-03     90.1368E+06     85.8061E+06    -30.6898E+06    -30.6844E+06     87.7691E+06     88.1684E+06     627.417E+03         57.5911
            1410     12.6659E-03     95.8336E-03         4.60145        -1.31270        -2.46008        -1.28323         4.57198        -2.46008     673.412E-03     342.451E-03    -170.082E-03    -172.369E-03    -168.068E-03     338.150E-03    -170.082E-03     93.3325E-03     97.8768E+06     95.2256E+06    -22.2359E+06    -22.2313E+06     95.2210E+06     97.8768E+06     182.734E+03         59.6537
            1411     13.5090E-03     95.9397E-03         4.42417        -1.13897        -2.40817        -1.08386         4.36905        -2.40817         1.09597     346.540E-03    -170.095E-03    -176.445E-03    -169.127E-03     339.222E-03    -170.095E-03     118.490E-03     106.093E+06     103.418E+06    -13.8182E+06    -13.8137E+06     105.800E+06     103.707E+06    -160.080E+03         62.1067
            1412     14.3548E-03     96.1388E-03         4.18261    -907.656E-03        -2.35356    -880.893E-03         4.15585        -2.35356     565.349E-03     345.731E-03    -170.105E-03    -175.626E-03    -169.210E-03     339.314E-03    -170.105E-03     105.676E-03     114.406E+06     110.780E+06    -7.05667E+06    -7.05120E+06     114.400E+06     110.780E+06     123.088E+03         64.4775
            1413     843.070E-06     96.4526E-03         7.39834        -1.82486        -4.86227        -4.49338         7.02945        -1.82486        -1.18984     340.899E-03    -169.942E-03    -170.957E-03    -170.651E-03     340.895E-03    -170.244E-03     2.65408E-03    -158.251E+06    -164.944E+06    -352.542E+06    -162.871E+06    -352.538E+06    -160.327E+06    -346.034E+03         49.0205
            1414     1.68702E-03     96.4502E-03         7.31937        -3.13235        -3.46863        -3.24060         7.13408        -3.17509        -1.70636     340.783E-03    -170.018E-03    -170.765E-03    -170.243E-03     340.767E-03    -170.524E-03     5.35654E-03    -141.390E+06    -156.964E+06    -338.584E+06    -156.968E+06    -338.580E+06    -141.390E+06    -202.367E+03         49.2014
            1415     2.53050E-03     96.4550E-03         7.35888        -3.14405        -3.50098        -3.15186         7.05251        -3.18679        -2.45939     340.359E-03    -169.796E-03    -170.563E-03    -169.777E-03     340.314E-03    -170.537E-03     9.30307E-03    -116.327E+06    -147.649E+06    -316.888E+06    -147.659E+06    -316.879E+06    -116.327E+06     889.615E+03         49.4930
            1416     3.37430E-03     96.4632E-03         7.40231        -3.16896        -3.49710        -3.12670         7.04006        -3.17711        -1.34432     340.030E-03    -169.527E-03    -170.503E-03    -169.422E-03     339.924E-03    -170.503E-03     14.3590E-03    -90.9827E+06    -136.884E+06    -284.818E+06    -136.893E+06    -284.809E+06    -90.9827E+06     713.882E+03         49.8907
            1417     4.21864E-03     96.4805E-03         7.04919        -3.13450        -3.16591        -3.01252         6.92141        -3.16010     104.909E-03     339.734E-03    -169.270E-03    -170.463E-03    -169.044E-03     339.508E-03    -170.463E-03     21.0954E-03    -66.5525E+06    -124.624E+06    -246.621E+06    -124.630E+06    -246.615E+06    -66.5525E+06     453.342E+03         50.3813
            1418     5.06378E-03     96.5061E-03         6.96274        -3.07267        -3.13411        -2.92832         6.81839        -3.13411     220.764E-03     339.433E-03    -169.022E-03    -170.412E-03    -168.588E-03     338.999E-03    -170.412E-03     29.3462E-03    -43.8017E+06    -112.926E+06    -202.677E+06    -112.943E+06    -202.660E+06    -43.8017E+06     964.686E+03         50.9452
            1419     5.90777E-03     96.5407E-03         6.77423        -2.90541        -3.10453        -2.81725         6.68606        -3.10453         1.11012     339.605E-03    -169.231E-03    -170.375E-03    -168.475E-03     338.850E-03    -170.375E-03     38.8367E-03    -21.3031E+06    -101.594E+06    -154.406E+06    -101.642E+06    -154.358E+06    -21.3031E+06     1.34378E+06         51.5572
            1420     6.74983E-03     96.5891E-03         6.56879        -2.71112        -3.07120        -2.69860         6.55627        -3.07120     250.596E-03     339.748E-03    -169.379E-03    -170.369E-03    -168.216E-03     338.584E-03    -170.369E-03     48.3929E-03     429.860E+03    -89.6894E+06    -110.706E+06    -89.9627E+06    -110.433E+06     429.860E+03     1.40794E+06         52.1909
            1421     7.59574E-03     96.6510E-03         6.41988        -2.56862        -3.03398        -2.55378         6.40504        -3.03398     707.276E-03     339.450E-03    -169.121E-03    -170.328E-03    -167.462E-03     337.790E-03    -170.328E-03     57.7881E-03     20.6129E+06    -59.3434E+06    -81.6873E+06    -78.8394E+06    -62.1913E+06     20.6129E+06     1.77579E+06         52.8280
            1422     8.44184E-03     96.7249E-03         6.26334        -2.42070        -2.99254        -2.40176         6.24440        -2.99254    -228.746E-03     339.558E-03    -169.323E-03    -170.234E-03    -167.092E-03     337.327E-03    -170.234E-03     67.0954E-03     41.0159E+06     5.33774E+06    -68.5443E+06    -68.4566E+06     5.25007E+06     41.0159E+06     2.27211E+06         53.4706
            1423     9.28490E-03     96.8077E-03         6.09081        -2.26347        -2.94741        -2.23905         6.06639        -2.94741    -102.639E-03     340.032E-03    -169.871E-03    -170.161E-03    -167.088E-03     337.241E-03    -170.153E-03     75.1503E-03     65.2399E+06     56.1516E+06     -58.264E+06    -58.2151E+06     62.3248E+06     59.0178E+06     2.36740E+06         54.1550
            1424     10.1308E-03     96.9032E-03         5.93702        -2.12942        -2.89911        -2.07811         5.88571        -2.89911    -411.293E-03     340.421E-03    -170.085E-03    -170.336E-03    -167.081E-03     337.179E-03    -170.099E-03     81.0862E-03     81.3398E+06     67.9856E+06    -48.4121E+06    -48.3835E+06     81.3111E+06     67.9856E+06     1.78302E+06         54.9669
            1425     10.9751E-03     97.0022E-03         5.76219        -1.97577        -2.84815        -1.91538         5.70180        -2.84815    -278.300E-03     340.961E-03    -170.085E-03    -170.876E-03    -167.373E-03     337.458E-03    -170.085E-03     84.3901E-03     85.2496E+06     76.2021E+06    -39.6492E+06    -39.6387E+06     85.2392E+06     76.2021E+06     1.13726E+06         56.0485
            1426     11.8202E-03     97.1087E-03         5.52538        -1.75485        -2.79509        -1.73507         5.50560        -2.79509     640.632E-03     342.247E-03    -170.122E-03    -172.126E-03    -167.814E-03     337.935E-03    -170.122E-03     93.4667E-03     91.3824E+06     87.2091E+06    -30.4373E+06    -30.4304E+06     89.1175E+06     89.4670E+06     448.638E+03         57.5714
            1427     12.6632E-03     97.2387E-03         5.30939        -1.54998        -2.73836        -1.52752         5.28693        -2.73836     645.020E-03     342.070E-03    -170.137E-03    -171.933E-03    -167.637E-03     337.774E-03    -170.137E-03     93.2458E-03     98.7441E+06     95.7365E+06    -21.4334E+06    -21.4296E+06     95.7328E+06     98.7441E+06    -291.832E+03         59.6385
            1428     13.5095E-03     97.3439E-03         5.09146        -1.34422        -2.67888        -1.29951         5.04675        -2.67888         1.06519     346.061E-03    -170.115E-03    -175.946E-03    -168.637E-03     338.752E-03    -170.115E-03     118.429E-03     106.100E+06     102.667E+06    -13.9483E+06    -13.9449E+06     105.347E+06     103.416E+06     49.9651E+03         62.1121
            1429     14.3536E-03     97.5433E-03         4.80722        -1.07796        -2.61490        -1.05479         4.78405        -2.61490     541.603E-03     345.808E-03    -170.111E-03    -175.697E-03    -169.262E-03     339.374E-03    -170.111E-03     106.226E-03     114.673E+06     111.117E+06    -6.60810E+06    -6.60134E+06     114.667E+06     111.117E+06     445.641E+03         64.5103
            1430     845.706E-06     97.8547E-03         8.85465        -2.09711        -5.90132        -4.88643         7.83976        -2.09711     951.999E-03     339.483E-03    -169.195E-03    -170.288E-03    -170.193E-03     339.480E-03    -169.287E-03     2.41070E-03    -157.501E+06    -162.048E+06    -350.872E+06    -162.068E+06    -350.852E+06    -157.501E+06    -488.241E+03         48.9986
            1431     1.68814E-03     97.8567E-03         8.36299        -3.48066        -3.99176        -3.52229         7.91005        -3.49719        -2.26270     340.282E-03    -169.954E-03    -170.327E-03    -170.304E-03     340.268E-03    -169.964E-03     5.01609E-03    -142.093E+06    -157.034E+06    -339.850E+06    -157.040E+06    -339.844E+06    -142.093E+06     93.3823E+03         49.1840
            1432     2.53141E-03     97.8585E-03         8.24520        -3.47933        -3.87402        -3.44481         7.83252        -3.49586        -2.07025     340.575E-03    -170.125E-03    -170.450E-03    -170.269E-03     340.527E-03    -170.257E-03     9.52926E-03    -117.279E+06    -148.135E+06    -318.404E+06    -148.136E+06    -318.403E+06    -117.279E+06     100.516E+03         49.4803
            1433     3.37504E-03     97.8689E-03         8.24857        -3.47869        -3.86259        -3.39395         7.77993        -3.47869        -1.51777     340.383E-03    -169.926E-03    -170.457E-03    -169.854E-03     340.267E-03    -170.413E-03     15.0879E-03    -91.7146E+06    -136.662E+06    -284.633E+06    -136.663E+06    -284.632E+06    -91.7146E+06     196.916E+03         49.8816
            1434     4.21827E-03     97.8843E-03         7.82924        -3.43419        -3.47784        -3.28559         7.65721        -3.45441     192.834E-03     339.871E-03    -169.414E-03    -170.457E-03    -169.183E-03     339.640E-03    -170.457E-03     21.3945E-03    -67.3997E+06    -125.599E+06    -247.596E+06    -125.606E+06    -247.588E+06    -67.3997E+06     665.168E+03         50.3749
            1435     5.06248E-03     97.9089E-03         7.70313        -3.34953        -3.42227        -3.18189         7.53550        -3.42227     129.944E-03     339.473E-03    -169.045E-03    -170.428E-03    -168.623E-03     339.051E-03    -170.428E-03     28.9866E-03    -43.5858E+06    -113.973E+06    -203.730E+06    -113.989E+06    -203.715E+06    -43.5858E+06     1.06863E+06         50.9408
            1436     5.90744E-03     97.9452E-03         7.48509        -3.15608        -3.38558        -3.05851         7.38753        -3.38558         1.10491     339.480E-03    -169.097E-03    -170.382E-03    -168.345E-03     338.728E-03    -170.382E-03     38.6791E-03    -20.9407E+06    -101.788E+06    -154.640E+06    -101.839E+06    -154.589E+06    -20.9407E+06     1.28852E+06         51.5546
            1437     6.75250E-03     97.9957E-03         7.24852        -2.94193        -3.34483        -2.92640         7.23298        -3.34483     157.416E-03     339.595E-03    -169.241E-03    -170.353E-03    -168.046E-03     338.399E-03    -170.353E-03     49.0277E-03    -239.472E+03    -90.1292E+06    -112.365E+06    -90.4955E+06    -111.999E+06    -239.472E+03     1.81887E+06         52.1901
            1438     7.59514E-03     98.0537E-03         7.07925        -2.79019        -3.30035        -2.77766         7.06672        -3.30035     638.690E-03     339.648E-03    -169.285E-03    -170.363E-03    -167.643E-03     337.957E-03    -170.313E-03     58.3925E-03     19.8437E+06    -60.0619E+06    -83.5274E+06    -79.7578E+06    -63.8315E+06     19.8437E+06     2.45328E+06         52.8284
            1439     8.43999E-03     98.1274E-03         6.91612        -2.64188        -3.25257        -2.62657         6.90082        -3.25257    -331.775E-03     339.678E-03    -169.389E-03    -170.289E-03    -167.239E-03     337.479E-03    -170.240E-03     66.6695E-03     40.9995E+06     4.92776E+06    -69.0159E+06    -68.8752E+06       4.787E+06     40.9995E+06     2.71876E+06         53.4704
            1440     9.28649E-03     98.2134E-03         6.74345        -2.48573        -3.20200        -2.46666         6.72438        -3.20200    -197.080E-03     339.835E-03    -169.670E-03    -170.165E-03    -166.983E-03     337.149E-03    -170.165E-03     73.7144E-03     65.6799E+06     56.7063E+06    -57.6866E+06    -57.6344E+06     62.5308E+06     59.8031E+06     2.39936E+06         54.1519
            1441     10.1304E-03     98.3060E-03         6.57835        -2.34456        -3.14864        -2.30150         6.53528        -3.14864    -501.935E-03     340.495E-03    -169.962E-03    -170.534E-03    -167.230E-03     337.343E-03    -170.113E-03     79.9500E-03     81.7864E+06     68.4873E+06    -47.7556E+06    -47.7103E+06     81.7410E+06     68.4873E+06     2.20127E+06         54.9581
            1442     10.9751E-03     98.4086E-03         6.38171        -2.17493        -3.09225        -2.12395         6.33073        -3.09225    -342.068E-03     341.425E-03    -170.121E-03    -171.304E-03    -167.805E-03     337.926E-03    -170.121E-03     84.4028E-03     86.6267E+06     76.8222E+06    -39.0264E+06    -38.9986E+06     86.5989E+06     76.8222E+06     1.55091E+06         56.0315
            1443     11.8174E-03     98.5143E-03         6.11915        -1.93670        -3.03243        -1.92249         6.10494        -3.03243     581.221E-03     342.153E-03    -170.167E-03    -171.987E-03    -167.627E-03     337.793E-03    -170.167E-03     93.9406E-03     92.9035E+06     88.5082E+06    -30.1521E+06    -30.1379E+06     90.8761E+06     90.5213E+06     750.094E+03         57.5481
            1444     12.6642E-03     98.6415E-03         5.87644        -1.71806        -2.96786        -1.70033         5.85871        -2.96786     610.197E-03     341.692E-03    -170.153E-03    -171.539E-03    -167.142E-03     337.295E-03    -170.153E-03     94.3054E-03     98.7205E+06     95.7555E+06    -22.4881E+06    -22.4764E+06     95.7438E+06     98.7205E+06     476.834E+03         59.6204
            1445     13.5091E-03     98.7477E-03         5.62934        -1.49382        -2.89963        -1.45679         5.59231        -2.89963         1.01971     346.202E-03    -170.114E-03    -176.089E-03    -168.693E-03     338.807E-03    -170.114E-03     119.418E-03     106.194E+06     102.511E+06    -14.8937E+06    -14.8893E+06     105.238E+06     103.463E+06    -144.785E+03         62.1154
            1446     14.3550E-03     98.9487E-03         5.32385        -1.21457        -2.82629        -1.19440         5.30368        -2.82629     506.375E-03     345.939E-03    -170.094E-03    -175.845E-03    -169.397E-03     339.513E-03    -170.115E-03     106.003E-03     114.796E+06     111.327E+06    -7.35255E+06    -7.34474E+06     114.788E+06     111.327E+06     19.0181E+03         64.5416
            1447     842.792E-06     99.2573E-03         9.91240        -2.36601        -6.46708        -5.06446         8.50978        -2.36601         1.77304     339.680E-03    -168.933E-03    -170.747E-03    -170.508E-03     339.677E-03    -169.169E-03     1.35989E-03    -157.340E+06    -164.190E+06    -352.060E+06    -164.228E+06    -352.022E+06    -157.340E+06     604.784E+03         48.9816
            1448     1.68869E-03     99.2593E-03         9.05433        -3.71565        -4.30161        -3.72412         8.47684        -3.71565        -2.40136     339.814E-03    -169.727E-03    -170.088E-03    -169.840E-03     339.802E-03    -169.963E-03     4.62724E-03    -139.686E+06    -156.552E+06    -340.631E+06    -156.560E+06    -340.623E+06    -139.686E+06     767.081E+03         49.1680
            1449     2.53226E-03     99.2642E-03         8.88650        -3.71330        -4.12948        -3.68273         8.43975        -3.71330        -1.84392     340.399E-03    -170.091E-03    -170.307E-03    -170.219E-03     340.358E-03    -170.139E-03     8.76075E-03    -117.247E+06    -147.433E+06    -317.732E+06    -147.438E+06    -317.727E+06    -117.247E+06     278.865E+03         49.4667
            1450     3.37527E-03     99.2732E-03         8.86777        -3.70011        -4.11224        -3.62531         8.38084        -3.70011        -1.51372     340.223E-03    -169.866E-03    -170.357E-03    -169.803E-03     340.117E-03    -170.314E-03     14.3187E-03    -91.9299E+06    -136.877E+06    -285.429E+06    -136.879E+06    -285.427E+06    -91.9299E+06     208.757E+03         49.8712
            1451     4.21961E-03     99.2892E-03         8.46977        -3.66465        -3.73251        -3.53259         8.28359        -3.67839     237.292E-03     339.902E-03    -169.518E-03    -170.384E-03    -169.287E-03     339.671E-03    -170.384E-03     21.3337E-03    -67.1965E+06    -125.561E+06    -249.237E+06    -125.570E+06    -249.228E+06    -67.1965E+06     899.274E+03         50.3678
            1452     5.06311E-03     99.3135E-03         8.32037        -3.58754        -3.64803        -3.41662         8.14945        -3.64803     84.7270E-03     339.809E-03    -169.408E-03    -170.401E-03    -168.958E-03     339.359E-03    -170.401E-03     29.8898E-03    -43.4792E+06    -114.052E+06    -204.378E+06    -114.078E+06    -204.352E+06    -43.4792E+06     1.29256E+06         50.9366
            1453     5.90634E-03     99.3497E-03         8.08937        -3.38090        -3.61044        -3.28276         7.99123        -3.61044         1.07259     339.461E-03    -169.078E-03    -170.383E-03    -168.315E-03     338.698E-03    -170.383E-03     39.0882E-03    -21.5777E+06    -102.832E+06    -156.322E+06    -102.912E+06    -156.243E+06    -21.5777E+06     1.74734E+06         51.5526
            1454     6.75134E-03     99.3973E-03         7.83944        -3.15576        -3.56702        -3.13839         7.82206        -3.56702     97.4454E-03     339.215E-03    -168.882E-03    -170.333E-03    -167.720E-03     338.052E-03    -170.333E-03     48.3125E-03    -934.213E+03    -91.1958E+06    -113.949E+06    -91.6501E+06    -113.495E+06    -934.213E+03     2.15099E+06         52.1899
            1455     7.59774E-03     99.4602E-03         7.65872        -2.99664        -3.51901        -2.98531         7.64739        -3.51901     591.781E-03     339.866E-03    -169.525E-03    -170.341E-03    -167.900E-03     338.191E-03    -170.292E-03     58.1009E-03     19.8685E+06    -60.8901E+06    -83.4760E+06    -79.9097E+06    -64.4564E+06     19.8685E+06     2.03662E+06         52.8294
            1456     8.44037E-03     99.5324E-03         7.48093        -2.83850        -3.46727        -2.82605         7.46847        -3.46727    -380.254E-03     340.254E-03    -169.941E-03    -170.312E-03    -167.792E-03     338.055E-03    -170.263E-03     66.7382E-03     41.6492E+06     4.18172E+06    -68.1728E+06    -68.0560E+06     4.06489E+06     41.6492E+06     2.34483E+06         53.4704
            1457     9.28344E-03     99.6165E-03         7.29234        -2.67280        -3.41216        -2.65816         7.27769        -3.41216    -259.901E-03     340.168E-03    -169.858E-03    -170.310E-03    -167.235E-03     337.459E-03    -170.224E-03     74.0435E-03     66.1265E+06     56.4276E+06    -57.5137E+06    -57.4374E+06     62.2072E+06     60.2707E+06     2.82962E+06         54.1476
            1458     10.1294E-03     99.7105E-03         7.09532        -2.50517        -3.35319        -2.46811         7.05826        -3.35319    -570.981E-03     340.615E-03    -170.040E-03    -170.575E-03    -167.241E-03     337.418E-03    -170.177E-03     80.5291E-03     82.0353E+06     69.0869E+06    -47.5729E+06    -47.5066E+06     81.9690E+06     69.0869E+06     2.64240E+06         54.9463
            1459     10.9734E-03     99.8139E-03         6.86310        -2.30782        -3.28948        -2.26405         6.81933        -3.28948    -392.280E-03     340.746E-03    -170.006E-03    -170.740E-03    -167.035E-03     337.185E-03    -170.150E-03     85.0272E-03     87.5758E+06     77.9475E+06    -38.1555E+06    -38.0969E+06     87.5172E+06     77.9475E+06     2.36493E+06         56.0110
            1460     11.8202E-03     99.9189E-03         6.57432        -2.05558        -3.22108        -2.04537         6.56411        -3.22108     519.096E-03     341.651E-03    -170.000E-03    -171.651E-03    -167.117E-03     337.260E-03    -170.144E-03     94.2523E-03     93.3779E+06     88.6856E+06    -30.3535E+06    -30.3110E+06     91.1788E+06     90.8421E+06     1.86028E+06         57.5238
            1461     12.6646E-03     100.044E-03         6.30158        -1.82049        -3.14752        -1.80688         6.28796        -3.14752     558.804E-03     342.211E-03    -170.134E-03    -172.077E-03    -167.710E-03     337.844E-03    -170.134E-03     94.0626E-03     99.8494E+06     97.1396E+06    -22.0854E+06     -22.071E+06     97.1252E+06     99.8494E+06     1.16595E+06         59.6027
            1462     13.5100E-03     100.153E-03         6.02436        -1.57958        -3.06965        -1.54958         5.99435        -3.06965     947.209E-03     346.571E-03    -170.129E-03    -176.442E-03    -169.112E-03     339.241E-03    -170.129E-03     118.946E-03     107.010E+06     104.073E+06    -14.5486E+06    -14.5367E+06     106.444E+06     104.627E+06     491.150E+03         62.1183
            1463     14.3530E-03     100.353E-03         5.70450        -1.29724        -2.98646        -1.28000         5.68726        -2.98646     458.313E-03     345.596E-03    -169.861E-03    -175.735E-03    -169.104E-03     339.240E-03    -170.136E-03     105.265E-03     114.422E+06     111.482E+06    -7.55942E+06    -7.54662E+06     114.310E+06     111.581E+06    -375.570E+03         64.5722
            1464     844.213E-06     100.660E-03         9.88301        -2.64217        -6.06857        -5.08796         8.90239        -2.64217         1.10780     340.342E-03    -169.301E-03    -171.040E-03    -170.332E-03     340.338E-03    -170.006E-03     1.42658E-03    -158.058E+06    -166.816E+06    -353.578E+06    -164.697E+06    -353.542E+06    -160.213E+06     180.487E+03         48.9739
            1465     1.68724E-03     100.662E-03         9.30083        -3.85636        -4.26134        -3.82326         8.86275        -3.85636        -2.15992     340.308E-03    -169.790E-03    -170.518E-03    -170.021E-03     340.295E-03    -170.274E-03     4.82954E-03    -139.009E+06    -157.327E+06    -340.906E+06    -157.331E+06    -340.902E+06    -139.009E+06     432.112E+03         49.1579
            1466     2.53104E-03     100.669E-03         9.26712        -3.85042        -4.23510        -3.86144         8.89347        -3.85042        -1.91064     339.951E-03    -169.649E-03    -170.301E-03    -169.612E-03     339.912E-03    -170.300E-03     8.63225E-03    -115.138E+06    -147.085E+06    -317.764E+06    -147.093E+06    -317.757E+06    -115.138E+06     590.088E+03         49.4549
            1467     3.37521E-03     100.677E-03         9.25002        -3.84784        -4.22483        -3.80566         8.83085        -3.84784        -1.43544     339.797E-03    -169.500E-03    -170.297E-03    -169.394E-03     339.692E-03    -170.297E-03     14.2453E-03    -90.5514E+06    -136.145E+06    -287.071E+06    -136.155E+06    -287.060E+06    -90.5514E+06     806.997E+03         49.8598
            1468     4.21902E-03     100.693E-03         8.91634        -3.81918        -3.90449        -3.72830         8.75450        -3.83352     183.236E-03     339.823E-03    -169.504E-03    -170.319E-03    -169.272E-03     339.592E-03    -170.319E-03     21.3737E-03    -66.6794E+06    -124.960E+06    -251.071E+06    -124.981E+06    -251.050E+06    -66.6794E+06     1.49271E+06         50.3589
            1469     5.06359E-03     100.718E-03         8.77883        -3.75454        -3.80800        -3.59996         8.62425        -3.80800     94.8261E-03     339.836E-03    -169.487E-03    -170.349E-03    -169.050E-03     339.399E-03    -170.349E-03     29.4667E-03    -43.4441E+06    -113.566E+06    -204.864E+06    -113.612E+06    -204.819E+06    -43.4441E+06     1.93575E+06         50.9308
            1470     5.90837E-03     100.754E-03         8.56975        -3.55979        -3.77243        -3.47025         8.48021        -3.77243         1.03885     339.758E-03    -169.387E-03    -170.371E-03    -168.649E-03     339.020E-03    -170.371E-03     38.4234E-03    -21.2540E+06    -102.140E+06    -157.760E+06    -102.215E+06    -157.685E+06    -21.2540E+06     1.99142E+06         51.5492
            1471     6.75162E-03     100.802E-03         8.32684        -3.34023        -3.72997        -3.32372         8.31033        -3.72997     92.7690E-03     339.623E-03    -169.254E-03    -170.370E-03    -168.104E-03     338.474E-03    -170.370E-03     48.0308E-03    -165.067E+03    -90.0757E+06    -114.938E+06    -90.6118E+06    -114.402E+06    -165.067E+03     2.28012E+06         52.1874
            1472     7.59476E-03     100.863E-03         8.13735        -3.17753        -3.68178        -3.16715         8.12697        -3.68178     559.325E-03     339.564E-03    -169.237E-03    -170.327E-03    -167.547E-03     337.874E-03    -170.327E-03     58.3042E-03     20.3250E+06    -60.3971E+06    -83.7722E+06    -79.8707E+06    -64.2986E+06     20.3250E+06     2.33795E+06         52.8262
            1473     8.44029E-03     100.940E-03         7.93123        -3.00039        -3.62816        -2.98963         7.92048        -3.62816    -395.579E-03     339.837E-03    -169.584E-03    -170.253E-03    -167.356E-03     337.609E-03    -170.253E-03     67.1221E-03     40.8927E+06     2.45713E+06    -69.9311E+06    -69.8070E+06     2.33306E+06     40.8927E+06     2.38171E+06         53.4658
            1474     9.28577E-03     101.020E-03         7.70439        -2.80360        -3.56857        -2.79130         7.69209        -3.56857    -279.910E-03     340.511E-03    -170.040E-03    -170.471E-03    -167.511E-03     337.714E-03    -170.202E-03     75.2678E-03     65.5400E+06     54.7996E+06    -59.2825E+06    -59.1926E+06     60.8557E+06     59.3940E+06     3.24877E+06         54.1400
            1475     10.1289E-03     101.117E-03         7.47731        -2.61118        -3.50287        -2.57922         7.44535        -3.50287    -576.006E-03     340.688E-03    -170.169E-03    -170.519E-03    -167.238E-03     337.407E-03    -170.169E-03     81.6243E-03     82.5684E+06     69.3943E+06    -48.4019E+06    -48.3225E+06     82.4890E+06     69.3943E+06     3.06432E+06         54.9331
            1476     10.9747E-03     101.216E-03         7.22798        -2.40474        -3.43162        -2.36674         7.18997        -3.43162    -386.478E-03     340.492E-03    -169.990E-03    -170.502E-03    -166.804E-03     336.938E-03    -170.134E-03     84.9151E-03     87.4371E+06     78.3294E+06    -38.6059E+06    -38.5497E+06     87.3809E+06     78.3294E+06     2.12327E+06         55.9913
            1477     11.8200E-03     101.322E-03         6.91883        -2.14469        -3.35552        -2.13613         6.91028        -3.35552     492.271E-03     341.892E-03    -169.988E-03    -171.904E-03    -167.409E-03     337.541E-03    -170.132E-03     93.8808E-03     94.3221E+06     90.3068E+06    -29.0581E+06    -29.0157E+06     92.3438E+06     92.2426E+06     1.66402E+06         57.5000
            1478     12.6643E-03     101.451E-03         6.61699        -1.89477        -3.27408        -1.88366         6.60588        -3.27408     522.897E-03     342.663E-03    -170.149E-03    -172.514E-03    -168.184E-03     338.334E-03    -170.149E-03     93.7499E-03     101.162E+06     97.9640E+06    -20.3156E+06    -20.2936E+06      97.942E+06     101.162E+06     1.50423E+06         59.5839
            1479     13.5073E-03     101.557E-03         6.30353        -1.63362        -3.18741        -1.60873         6.27865        -3.18741     882.130E-03     346.516E-03    -170.154E-03    -176.361E-03    -168.980E-03     339.134E-03    -170.154E-03     119.181E-03     108.201E+06     104.576E+06    -12.4694E+06    -12.4520E+06     106.921E+06     105.838E+06     1.40678E+06         62.1203
            1480     14.3540E-03     101.759E-03         5.96190        -1.34661        -3.09509        -1.33200         5.94729        -3.09509     420.455E-03     345.039E-03    -169.576E-03    -175.463E-03    -168.483E-03     338.619E-03    -170.135E-03     105.561E-03     115.640E+06     112.830E+06    -5.28535E+06    -5.26814E+06     115.524E+06     112.930E+06     663.055E+03         64.6042
            1481     844.008E-06     102.066E-03         9.51890        -2.85324        -5.39698        -5.06219         9.19634        -2.86547    -483.219E-03     340.654E-03    -169.667E-03    -170.987E-03    -170.396E-03     340.650E-03    -170.254E-03     2.67619E-03    -156.713E+06    -165.208E+06    -353.262E+06    -163.079E+06    -353.237E+06    -158.867E+06    -426.262E+03         48.9709
            1482     1.68647E-03     102.068E-03         9.33028        -3.94309        -4.10795        -3.92117         9.15573        -3.95532        -1.53402     340.614E-03    -169.955E-03    -170.659E-03    -170.183E-03     340.600E-03    -170.417E-03     5.13362E-03    -140.769E+06    -156.904E+06    -340.809E+06    -156.913E+06    -340.800E+06    -140.769E+06    -842.623E+03         49.1528
            1483     2.53109E-03     102.071E-03         9.47950        -3.95196        -4.23523        -3.98090         9.22517        -3.95196        -2.17559     339.893E-03    -169.486E-03    -170.407E-03    -169.446E-03     339.853E-03    -170.407E-03     8.80569E-03    -115.982E+06    -147.261E+06    -319.852E+06    -147.272E+06    -319.841E+06    -115.982E+06    -4.45510E+03         49.4469
            1484     3.37607E-03     102.081E-03         9.45013        -3.95163        -4.20681        -3.90532         9.14865        -3.95163        -1.32066     339.643E-03    -169.307E-03    -170.336E-03    -169.206E-03     339.542E-03    -170.336E-03     13.9710E-03    -90.1645E+06    -136.035E+06    -288.677E+06    -136.048E+06    -288.664E+06    -90.1645E+06     1.31353E+06         49.8498
            1485     4.22013E-03     102.098E-03         9.18370        -3.89923        -3.97798        -3.82610         9.06846        -3.93588     26.0159E-03     339.869E-03    -169.537E-03    -170.332E-03    -169.309E-03     339.642E-03    -170.332E-03     21.1511E-03    -65.7423E+06    -124.030E+06    -251.901E+06    -124.046E+06    -251.886E+06    -65.7423E+06     1.20605E+06         50.3485
            1486     5.06311E-03     102.123E-03         9.06650        -3.82959        -3.90926        -3.70420         8.94111        -3.90926     116.493E-03     339.950E-03    -169.581E-03    -170.369E-03    -169.149E-03     339.519E-03    -170.369E-03     29.3360E-03    -43.0151E+06    -112.001E+06    -207.254E+06    -112.055E+06    -207.200E+06    -43.0151E+06     1.78552E+06         50.9213
            1487     5.90606E-03     102.159E-03         8.88606        -3.66563        -3.87393        -3.59143         8.81187        -3.87393     955.220E-03     339.657E-03    -169.268E-03    -170.388E-03    -168.535E-03     338.923E-03    -170.388E-03     38.2895E-03    -20.2402E+06    -100.402E+06    -158.951E+06    -100.580E+06    -158.773E+06    -20.2402E+06     2.83994E+06         51.5413
            1488     6.75103E-03     102.206E-03         8.65721        -3.46146        -3.83224        -3.44759         8.64334        -3.83224     85.0361E-03     339.597E-03    -169.225E-03    -170.372E-03    -168.040E-03     338.412E-03    -170.372E-03     48.7057E-03     424.491E+03    -89.5369E+06    -116.317E+06    -90.1874E+06    -115.666E+06     424.491E+03     3.15001E+06         52.1808
            1489     7.59610E-03     102.268E-03         8.45687        -3.29071        -3.78345        -3.28210         8.44825        -3.78345     509.363E-03     339.566E-03    -169.244E-03    -170.322E-03    -167.528E-03     337.850E-03    -170.322E-03     58.8094E-03     20.6543E+06    -60.1196E+06    -85.0517E+06    -79.7838E+06    -65.3874E+06     20.6543E+06     3.87017E+06         52.8201
            1490     8.44136E-03     102.340E-03         8.21961        -3.08509        -3.72652        -3.07542         8.20994        -3.72652    -398.556E-03     339.631E-03    -169.394E-03    -170.238E-03    -167.151E-03     337.389E-03    -170.238E-03     67.2927E-03     41.6809E+06     2.21068E+06    -69.7302E+06    -69.3899E+06     1.87033E+06     41.6809E+06     3.95823E+06         53.4587
            1491     9.28524E-03     102.428E-03         7.96749        -2.86623        -3.66097        -2.85521         7.95646        -3.66097    -280.582E-03     340.064E-03    -169.719E-03    -170.344E-03    -167.139E-03     337.302E-03    -170.162E-03     74.7758E-03     65.8751E+06     54.5482E+06    -59.1010E+06    -59.0087E+06     60.2069E+06     60.1240E+06     3.19567E+06         54.1305
            1492     10.1305E-03     102.520E-03         7.72362        -2.66680        -3.58840        -2.63960         7.69643        -3.58840    -543.177E-03     340.469E-03    -169.912E-03    -170.557E-03    -167.125E-03     337.234E-03    -170.110E-03     80.9969E-03     83.4325E+06     69.8218E+06    -48.5925E+06    -48.5346E+06     83.3746E+06     69.8218E+06     2.64024E+06         54.9197
            1493     10.9750E-03     102.621E-03         7.46265        -2.46212        -3.51072        -2.42917         7.42969        -3.51072    -347.480E-03     341.232E-03    -170.104E-03    -171.128E-03    -167.575E-03     337.679E-03    -170.104E-03     85.0288E-03     88.4331E+06     78.6998E+06    -38.7817E+06    -38.7466E+06     88.3980E+06     78.6998E+06     1.67720E+06         55.9719
            1494     11.8188E-03     102.727E-03         7.14388        -2.20498        -3.42848        -2.19677         7.13567        -3.42848     503.125E-03     342.501E-03    -170.154E-03    -172.347E-03    -167.973E-03     338.127E-03    -170.154E-03     94.1874E-03     94.3019E+06     90.4821E+06    -29.9621E+06    -29.9388E+06     92.3325E+06     92.4282E+06     1.32534E+06         57.4748
            1495     12.6637E-03     102.856E-03         6.82368        -1.94880        -3.34084        -1.93842         6.81331        -3.34084     528.941E-03     342.128E-03    -170.096E-03    -172.032E-03    -167.580E-03     337.749E-03    -170.169E-03     94.1797E-03     101.176E+06     97.8701E+06    -21.5245E+06    -21.5050E+06     97.8505E+06     101.176E+06     1.32341E+06         59.5631
            1496     13.5097E-03     102.963E-03         6.49718        -1.68716        -3.24756        -1.66422         6.47424        -3.24756     860.340E-03     345.730E-03    -170.053E-03    -175.678E-03    -168.145E-03     338.271E-03    -170.126E-03     119.612E-03     107.696E+06     104.110E+06    -13.8060E+06    -13.7856E+06     106.315E+06     105.470E+06     1.37952E+06         62.1237
            1497     14.3543E-03     103.160E-03         6.14024        -1.40023        -3.14895        -1.38660         6.12661        -3.14895     417.756E-03     345.134E-03    -169.779E-03    -175.356E-03    -168.558E-03     338.642E-03    -170.084E-03     106.074E-03     116.355E+06     112.766E+06     -7.1285E+06    -7.10996E+06     116.336E+06     112.766E+06     1.31104E+06         64.6412
            1498     842.842E-06     103.470E-03         9.76015        -2.98945        -5.35581        -5.03368         9.48112        -3.03256        -2.58740     340.848E-03    -169.979E-03    -170.869E-03    -170.488E-03     340.844E-03    -170.356E-03     1.98543E-03    -155.913E+06    -164.231E+06    -351.447E+06    -161.855E+06    -351.394E+06    -158.343E+06    -1.09543E+06         48.9681
            1499     1.68808E-03     103.472E-03         9.43097        -3.98554        -4.09382        -4.01097         9.39122        -4.02864    -799.525E-03     340.303E-03    -169.875E-03    -170.428E-03    -169.862E-03     340.290E-03    -170.428E-03     4.91328E-03    -140.686E+06    -156.115E+06    -340.585E+06    -156.129E+06    -340.571E+06    -140.686E+06    -417.179E+03         49.1487
            1500     2.53098E-03     103.475E-03         9.60346        -4.02672        -4.20986        -4.04047         9.43408        -4.02672        -2.48963     340.440E-03    -170.020E-03    -170.419E-03    -169.981E-03     340.400E-03    -170.419E-03     8.63721E-03    -116.769E+06    -147.457E+06    -321.328E+06    -147.482E+06    -321.302E+06    -116.769E+06    -557.182E+03         49.4411
            1501     3.37416E-03     103.485E-03         9.53043        -4.01367        -4.14662        -3.95406         9.34522        -4.02102        -1.18023     340.204E-03    -169.733E-03    -170.471E-03    -169.637E-03     340.108E-03    -170.471E-03     13.7067E-03    -91.0191E+06    -135.948E+06    -290.524E+06    -135.964E+06    -290.509E+06    -91.0191E+06    -133.433E+03         49.8411
            1502     4.21856E-03     103.501E-03         9.32754        -3.92765        -4.00717        -3.86240         9.25465        -3.99952    -199.283E-03     339.671E-03    -169.209E-03    -170.462E-03    -168.989E-03     339.451E-03    -170.462E-03     20.7196E-03    -66.0171E+06    -124.322E+06    -253.087E+06    -124.353E+06    -253.056E+06    -66.0171E+06     1.26155E+06         50.3368
            1503     5.06313E-03     103.528E-03         9.20295        -3.82520        -3.96673        -3.72870         9.10646        -3.96673     99.4251E-03     339.243E-03    -168.847E-03    -170.396E-03    -168.405E-03     338.801E-03    -170.396E-03     29.5913E-03    -42.9065E+06    -113.335E+06    -210.022E+06    -113.399E+06    -209.958E+06    -42.9065E+06     1.96282E+06         50.9088
            1504     5.90810E-03     103.563E-03         9.01663        -3.66325        -3.92490        -3.60595         8.95933        -3.92490     831.421E-03     339.334E-03    -169.004E-03    -170.329E-03    -168.231E-03     338.560E-03    -170.329E-03     39.2958E-03    -20.3555E+06    -101.034E+06    -161.493E+06    -101.227E+06    -161.300E+06    -20.3555E+06     2.84158E+06         51.5305
            1505     6.75231E-03     103.610E-03         8.78447        -3.46327        -3.87622        -3.45176         8.77296        -3.87622     81.8078E-03     339.639E-03    -169.334E-03    -170.305E-03    -168.138E-03     338.443E-03    -170.305E-03     49.0549E-03     1.24583E+06    -88.6244E+06    -117.743E+06    -89.4322E+06    -116.935E+06     1.24583E+06     3.84409E+06         52.1732
            1506     7.59642E-03     103.672E-03         8.56800        -3.28391        -3.81979        -3.27667         8.56076        -3.81979     476.423E-03     339.840E-03    -169.551E-03    -170.289E-03    -167.866E-03     338.155E-03    -170.289E-03     58.3040E-03     22.1812E+06    -60.4039E+06    -84.6950E+06    -77.9741E+06    -67.1248E+06     22.1812E+06     4.10197E+06         52.8148
            1507     8.43993E-03     103.745E-03         8.33150        -3.08579        -3.75549        -3.07714         8.32285        -3.75549    -371.931E-03     339.918E-03    -169.677E-03    -170.241E-03    -167.440E-03     337.681E-03    -170.241E-03     67.2413E-03     43.9179E+06     1.12885E+06    -66.4430E+06    -66.0393E+06     725.231E+03     43.9179E+06     4.67023E+06         53.4531
            1508     9.28546E-03     103.831E-03         8.08330        -2.88009        -3.68391        -2.87023         8.07344        -3.68391    -263.668E-03     339.783E-03    -169.616E-03    -170.167E-03    -166.882E-03     337.049E-03    -170.167E-03     74.3829E-03     68.5012E+06     55.4819E+06    -55.7339E+06    -55.5076E+06     60.9787E+06     62.7781E+06     4.85207E+06         54.1219
            1509     10.1308E-03     103.923E-03         7.82808        -2.67831        -3.60623        -2.65473         7.80450        -3.60623    -502.957E-03     340.335E-03    -169.833E-03    -170.502E-03    -167.035E-03     337.138E-03    -170.102E-03     80.4921E-03     84.6055E+06     72.6193E+06    -46.8216E+06    -46.6962E+06     84.4801E+06     72.6193E+06     3.65064E+06         54.9053
            1510     10.9752E-03     104.027E-03         7.55421        -2.46937        -3.52352        -2.44014         7.52497        -3.52352    -304.971E-03     341.391E-03    -170.103E-03    -171.288E-03    -167.707E-03     337.810E-03    -170.103E-03     85.3790E-03     89.0827E+06     81.6133E+06    -38.7756E+06    -38.6943E+06     89.0014E+06     81.6133E+06     2.96904E+06         55.9495
            1511     11.8192E-03     104.132E-03         7.23107        -2.21825        -3.43621        -2.21003         7.22285        -3.43621     517.179E-03     342.387E-03    -170.145E-03    -172.241E-03    -167.831E-03     337.976E-03    -170.145E-03     94.5707E-03     94.4732E+06     91.3463E+06    -31.2451E+06    -31.1858E+06     92.4933E+06     93.2670E+06     2.50079E+06         57.4470
            1512     12.6635E-03     104.260E-03         6.91539        -1.97726        -3.34424        -1.96696         6.90508        -3.34424     543.597E-03     341.759E-03    -170.066E-03    -171.693E-03    -167.221E-03     337.360E-03    -170.139E-03     94.3377E-03     100.649E+06     97.3815E+06    -23.2001E+06    -23.1606E+06     97.3420E+06     100.649E+06     1.80450E+06         59.5426
            1513     13.5096E-03     104.364E-03         6.59242        -1.72775        -3.24720        -1.70602         6.57068        -3.24720     844.879E-03     345.399E-03    -170.012E-03    -175.387E-03    -167.975E-03     338.060E-03    -170.086E-03     118.796E-03     107.441E+06     103.994E+06    -15.2889E+06    -15.2569E+06     106.062E+06     105.340E+06     1.33059E+06         62.1297
            1514     14.3569E-03     104.565E-03         6.22913        -1.43961        -3.14512        -1.42688         6.21640        -3.14512     408.730E-03     345.428E-03    -170.061E-03    -175.367E-03    -168.996E-03     339.056E-03    -170.061E-03     105.420E-03     117.727E+06     113.865E+06    -7.57947E+06    -7.56812E+06     117.716E+06     113.865E+06     652.529E+03         64.6821
            1515     843.321E-06     104.874E-03         10.4744        -3.14582        -5.90979        -4.99880         9.59426        -3.17669        -4.33731     340.845E-03    -170.190E-03    -170.654E-03    -170.378E-03     340.841E-03    -170.463E-03     1.82786E-03    -153.384E+06    -164.432E+06    -350.815E+06    -162.099E+06    -350.718E+06    -155.813E+06     215.934E+03         48.9623
            1516     1.68672E-03     104.875E-03         9.62216        -4.04462        -4.15585        -4.02688         9.52407        -4.07550    -199.003E-03     340.620E-03    -169.966E-03    -170.654E-03    -170.124E-03     340.609E-03    -170.485E-03     4.64509E-03    -139.190E+06    -156.139E+06    -341.027E+06    -156.153E+06    -341.013E+06    -139.190E+06    -113.050E+03         49.1420
            1517     2.53129E-03     104.881E-03         9.66389        -4.06010        -4.18787        -4.04034         9.51636        -4.06010        -2.76133     340.474E-03    -169.971E-03    -170.503E-03    -169.931E-03     340.434E-03    -170.503E-03     8.66410E-03    -115.507E+06    -146.270E+06    -320.693E+06    -146.303E+06    -320.660E+06    -115.507E+06    -372.992E+03         49.4329
            1518     3.37460E-03     104.890E-03         9.52567        -4.01104        -4.09835        -3.95631         9.41823        -4.04563        -1.04142     340.275E-03    -169.742E-03    -170.533E-03    -169.633E-03     340.165E-03    -170.533E-03     14.5607E-03    -89.5706E+06    -135.866E+06    -292.773E+06    -135.887E+06    -292.752E+06    -89.5706E+06     207.759E+03         49.8314
            1519     4.21782E-03     104.905E-03         9.34735        -3.88830        -4.01701        -3.84370         9.30275        -4.01701    -359.072E-03     339.596E-03    -169.097E-03    -170.499E-03    -168.859E-03     339.358E-03    -170.499E-03     21.6675E-03    -65.2124E+06    -124.361E+06    -256.475E+06    -124.395E+06    -256.441E+06    -65.2124E+06     1.59640E+06         50.3262
            1520     5.06322E-03     104.930E-03         9.19851        -3.75152        -3.97449        -3.67718         9.12417        -3.97449     115.800E-03     338.999E-03    -168.604E-03    -170.395E-03    -168.169E-03     338.565E-03    -170.395E-03     29.4175E-03    -41.4201E+06    -112.559E+06    -210.666E+06    -112.628E+06    -210.597E+06    -41.4201E+06     2.26798E+06         50.8985
            1521     5.90864E-03     104.966E-03         8.96952        -3.55992        -3.91983        -3.51476         8.92436        -3.91983     749.776E-03     339.106E-03    -168.806E-03    -170.300E-03    -168.064E-03     338.364E-03    -170.300E-03     38.4635E-03    -19.7053E+06    -101.419E+06    -163.249E+06    -101.524E+06    -163.144E+06    -19.7053E+06     2.28555E+06         51.5219
            1522     6.75217E-03     105.017E-03         8.71278        -3.35462        -3.85720        -3.34540         8.70357        -3.85720     92.8132E-03     339.537E-03    -169.271E-03    -170.266E-03    -168.100E-03     338.366E-03    -170.266E-03     48.5188E-03     1.47290E+06    -88.9702E+06    -119.970E+06    -89.4976E+06    -119.442E+06     1.47290E+06     3.04570E+06         52.1671
            1523     7.59618E-03     105.075E-03         8.49333        -3.18676        -3.78877        -3.18059         8.48716        -3.78877     447.604E-03     339.966E-03    -169.708E-03    -170.259E-03    -167.993E-03     338.252E-03    -170.259E-03     58.7836E-03     22.5357E+06    -61.3224E+06    -85.9700E+06    -77.9981E+06    -69.2943E+06     22.5357E+06     4.20144E+06         52.8106
            1524     8.44121E-03     105.151E-03         8.27275        -3.01550        -3.71590        -3.00721         8.26445        -3.71590    -350.498E-03     340.100E-03    -169.873E-03    -170.228E-03    -167.635E-03     337.863E-03    -170.228E-03     67.3260E-03     43.3326E+06    -947.465E+03    -68.4444E+06    -67.9182E+06    -1.47362E+06     43.3326E+06     4.99394E+06         53.4489
            1525     9.28539E-03     105.233E-03         8.03910        -2.83222        -3.63883        -2.82287         8.02975        -3.63883    -257.789E-03     340.040E-03    -169.862E-03    -170.177E-03    -167.151E-03     337.328E-03    -170.177E-03     74.0805E-03     68.3602E+06     55.0071E+06    -57.4082E+06    -57.1740E+06     60.4966E+06     62.6365E+06     5.02822E+06         54.1141
            1526     10.1299E-03     105.329E-03         7.78877        -2.64093        -3.55726        -2.61915         7.76699        -3.55726    -481.001E-03     340.462E-03    -170.019E-03    -170.443E-03    -167.119E-03     337.249E-03    -170.130E-03     80.7085E-03     84.9432E+06     73.5866E+06    -47.0630E+06    -46.8062E+06     84.6864E+06     73.5866E+06     5.52946E+06         54.8901
            1527     10.9750E-03     105.430E-03         7.51426        -2.43728        -3.47130        -2.40998         7.48696        -3.47130    -283.465E-03     340.890E-03    -170.112E-03    -170.778E-03    -167.199E-03     337.310E-03    -170.112E-03     85.2808E-03     89.6094E+06     82.5337E+06    -38.4326E+06    -38.1691E+06     89.3458E+06     82.5337E+06     5.57462E+06         55.9252
            1528     11.8200E-03     105.539E-03         7.19971        -2.20226        -3.38138        -2.19432         7.19176        -3.38138     506.806E-03     341.557E-03    -170.110E-03    -171.447E-03    -167.091E-03     337.201E-03    -170.110E-03     93.8814E-03     96.3332E+06     92.5644E+06    -29.9980E+06    -29.8649E+06     93.8740E+06     94.8904E+06     3.88536E+06         57.4186
            1529     12.6659E-03     105.661E-03         6.89148        -1.97406        -3.28778        -1.96421         6.88163        -3.28778     530.772E-03     341.728E-03    -170.087E-03    -171.641E-03    -167.274E-03     337.361E-03    -170.087E-03     94.0330E-03     102.673E+06     98.3004E+06    -22.0048E+06    -21.9365E+06     98.2322E+06     102.673E+06     2.85370E+06         59.5237
            1530     13.5102E-03     105.770E-03         6.56656        -1.72753        -3.18909        -1.70817         6.54720        -3.18909     798.107E-03     346.384E-03    -170.069E-03    -176.315E-03    -168.983E-03     339.052E-03    -170.069E-03     119.099E-03     109.601E+06     105.181E+06    -14.4248E+06    -14.3879E+06     107.517E+06     107.227E+06     1.59261E+06         62.1370
            1531     14.3534E-03     105.966E-03         6.20388        -1.44497        -3.08526        -1.43420         6.19312        -3.08526     371.589E-03     345.791E-03    -169.931E-03    -175.860E-03    -169.354E-03     339.439E-03    -170.084E-03     105.514E-03     119.412E+06     115.442E+06    -6.48135E+06    -6.47769E+06     119.408E+06     115.442E+06     405.034E+03         64.7229
            1532     844.534E-06     106.281E-03         10.9135        -3.19408        -6.26795        -4.86818         9.51373        -3.19408        -5.09132     340.701E-03    -170.044E-03    -170.656E-03    -170.624E-03     340.698E-03    -170.074E-03     2.21270E-03    -155.860E+06    -166.251E+06    -352.631E+06    -163.661E+06    -352.568E+06    -158.513E+06     1.39705E+06         48.9490
            1533     1.68687E-03     106.280E-03         9.66724        -4.02563        -4.19559        -4.00625         9.47789        -4.02563     197.966E-03     340.825E-03    -170.180E-03    -170.645E-03    -170.335E-03     340.812E-03    -170.477E-03     4.83615E-03    -138.598E+06    -156.113E+06    -339.577E+06    -156.127E+06    -339.562E+06    -138.598E+06     146.483E+03         49.1292
            1534     2.53001E-03     106.285E-03         9.57959        -4.01441        -4.12520        -3.97821         9.43259        -4.01441        -2.81515     340.138E-03    -169.635E-03    -170.503E-03    -169.591E-03     340.094E-03    -170.503E-03     9.17586E-03    -114.676E+06    -147.321E+06    -321.513E+06    -147.341E+06    -321.492E+06    -114.676E+06    -4.59784E+03         49.4205
            1535     3.37504E-03     106.294E-03         9.39502        -3.92411        -4.02088        -3.88077         9.32435        -3.99356    -905.899E-03     339.698E-03    -169.265E-03    -170.433E-03    -169.154E-03     339.587E-03    -170.433E-03     14.6756E-03    -88.6683E+06    -136.166E+06    -294.979E+06    -136.178E+06    -294.967E+06    -88.6683E+06     808.546E+03         49.8206
            1536     4.22014E-03     106.309E-03         9.20044        -3.77108        -3.95646        -3.73951         9.16887        -3.95646    -395.420E-03     339.671E-03    -169.286E-03    -170.385E-03    -169.054E-03     339.439E-03    -170.385E-03     21.4096E-03    -64.3442E+06    -124.059E+06    -259.601E+06    -124.089E+06    -259.571E+06    -64.3442E+06     1.68821E+06         50.3183
            1537     5.06334E-03     106.334E-03         9.02978        -3.62707        -3.90438        -3.56526         8.96797        -3.90438     150.628E-03     339.525E-03    -169.168E-03    -170.357E-03    -168.722E-03     339.079E-03    -170.357E-03     29.7015E-03    -41.2600E+06    -112.153E+06    -213.024E+06    -112.277E+06    -212.900E+06    -41.2600E+06     3.08145E+06         50.8931
            1538     5.90639E-03     106.371E-03         8.78287        -3.42675        -3.84057        -3.38762         8.74374        -3.84057     707.061E-03     339.312E-03    -168.988E-03    -170.323E-03    -168.216E-03     338.539E-03    -170.323E-03     39.2845E-03    -18.3385E+06    -101.077E+06    -163.503E+06    -101.278E+06    -163.303E+06    -18.3385E+06     3.39335E+06         51.5179
            1539     6.75257E-03     106.418E-03         8.52376        -3.22573        -3.76943        -3.21828         8.51631        -3.76943     90.9223E-03     339.467E-03    -169.177E-03    -170.291E-03    -168.005E-03     338.296E-03    -170.291E-03     48.5547E-03     1.51319E+06    -90.2453E+06    -122.625E+06    -90.7536E+06    -122.116E+06     1.51319E+06     3.35630E+06         52.1633
            1540     7.59746E-03     106.482E-03         8.29942        -3.06163        -3.69404        -3.05646         8.29425        -3.69404     412.637E-03     339.794E-03    -169.529E-03    -170.264E-03    -167.863E-03     338.127E-03    -170.264E-03     57.9449E-03     20.8070E+06    -63.5129E+06    -90.1368E+06    -80.4519E+06    -73.1978E+06     20.8070E+06     5.11789E+06         52.8062
            1541     8.44072E-03     106.555E-03         8.07547        -2.89349        -3.61535        -2.88441         8.06640        -3.61535    -359.588E-03     339.895E-03    -169.674E-03    -170.220E-03    -167.473E-03     337.693E-03    -170.220E-03     66.7268E-03     42.7201E+06    -1.40406E+06    -70.6373E+06    -69.8599E+06    -2.18148E+06     42.7201E+06     5.98192E+06         53.4430
            1542     9.28506E-03     106.640E-03         7.83870        -2.71132        -3.53306        -2.70135         7.82872        -3.53306    -280.570E-03     340.137E-03    -169.875E-03    -170.262E-03    -167.230E-03     337.398E-03    -170.168E-03     74.4538E-03     67.2220E+06     54.6881E+06    -60.0328E+06    -59.7413E+06     59.6718E+06     61.9469E+06     5.60793E+06         54.1050
            1543     10.1302E-03     106.731E-03         7.60249        -2.54125        -3.44744        -2.51938         7.58062        -3.44744    -486.308E-03     340.656E-03    -170.083E-03    -170.573E-03    -167.263E-03     337.386E-03    -170.122E-03     81.4609E-03     83.5045E+06     70.8696E+06    -50.4789E+06    -50.1909E+06     83.2165E+06     70.8696E+06     5.79599E+06         54.8752
            1544     10.9744E-03     106.836E-03         7.35089        -2.36934        -3.35956        -2.34198         7.32353        -3.35956    -286.502E-03     340.578E-03    -170.086E-03    -170.492E-03    -166.897E-03     336.991E-03    -170.095E-03     85.3253E-03     89.6317E+06     80.1778E+06    -39.8661E+06    -39.6057E+06     89.3713E+06     80.1778E+06     5.54049E+06         55.9032
            1545     11.8202E-03     106.939E-03         7.05242        -2.15480        -3.26932        -2.14706         7.04468        -3.26932     493.900E-03     341.281E-03    -170.079E-03    -171.202E-03    -166.851E-03     336.938E-03    -170.087E-03     93.6671E-03     98.1717E+06     93.5619E+06    -29.2514E+06    -29.0736E+06     95.4782E+06     96.0776E+06     4.58879E+06         57.3927
            1546     12.6654E-03     107.067E-03         6.74944        -1.93288        -3.17586        -1.92342         6.73998        -3.17586     514.601E-03     341.976E-03    -170.075E-03    -171.900E-03    -167.583E-03     337.658E-03    -170.075E-03     93.4837E-03     105.499E+06     100.961E+06    -21.0409E+06    -20.9413E+06     100.862E+06     105.499E+06     3.33306E+06         59.5044
            1547     13.5108E-03     107.173E-03         6.42231        -1.68601        -3.07659        -1.66851         6.40482        -3.07659     751.789E-03     346.558E-03    -170.071E-03    -176.487E-03    -169.137E-03     339.209E-03    -170.071E-03     118.952E-03     111.955E+06     107.403E+06    -14.0136E+06    -13.9747E+06     109.894E+06     109.425E+06     2.09129E+06         62.1415
            1548     14.3550E-03     107.377E-03         6.06403        -1.41308        -2.97199        -1.40391         6.05486        -2.97199     347.764E-03     345.745E-03    -169.930E-03    -175.815E-03    -169.244E-03     339.328E-03    -170.084E-03     105.851E-03     120.341E+06     116.045E+06    -7.48799E+06    -7.47714E+06     120.330E+06     116.045E+06     987.588E+03         64.7611
            1549     842.653E-06     107.684E-03         10.5432        -3.12264        -5.92077        -4.53442         9.15687        -3.12264        -4.92495     340.269E-03    -169.632E-03    -170.638E-03    -170.464E-03     340.264E-03    -169.801E-03     2.76677E-03    -157.296E+06    -165.057E+06    -353.156E+06    -162.421E+06    -353.138E+06    -159.948E+06    -1.15602E+06         48.9269
            1550     1.68756E-03     107.686E-03         9.33551        -3.83813        -4.05621        -3.87982         9.15911        -3.83813     251.077E-03     340.113E-03    -169.909E-03    -170.204E-03    -169.893E-03     340.097E-03    -170.204E-03     5.37843E-03    -140.469E+06    -155.889E+06    -340.273E+06    -155.898E+06    -340.264E+06    -140.469E+06     541.391E+03         49.1100
            1551     2.53182E-03     107.688E-03         9.23589        -3.84465        -3.95980        -3.82596         9.10205        -3.84465        -2.63558     340.104E-03    -169.830E-03    -170.274E-03    -169.787E-03     340.059E-03    -170.272E-03     9.27244E-03    -113.709E+06    -147.010E+06    -322.117E+06    -147.020E+06    -322.107E+06    -113.709E+06     732.504E+03         49.4055
            1552     3.37561E-03     107.697E-03         9.08400        -3.75498        -3.88375        -3.74352         9.01804        -3.82924    -844.166E-03     339.833E-03    -169.514E-03    -170.320E-03    -169.410E-03     339.727E-03    -170.317E-03     14.4179E-03    -89.2020E+06    -136.777E+06    -297.726E+06    -136.802E+06    -297.701E+06    -89.2020E+06     1.21181E+06         49.8101
            1553     4.21905E-03     107.713E-03         8.87877        -3.61027        -3.79441        -3.57937         8.84786        -3.79441    -374.413E-03     339.564E-03    -169.244E-03    -170.319E-03    -169.018E-03     339.338E-03    -170.319E-03     21.0882E-03    -65.1370E+06    -125.987E+06    -262.235E+06    -126.046E+06    -262.176E+06    -65.1370E+06     2.62862E+06         50.3118
            1554     5.06360E-03     107.738E-03         8.71901        -3.47803        -3.74200        -3.41803         8.65901        -3.74200     145.797E-03     339.549E-03    -169.239E-03    -170.310E-03    -168.796E-03     339.106E-03    -170.310E-03     29.6108E-03    -41.1367E+06    -113.626E+06    -215.756E+06    -113.743E+06    -215.638E+06    -41.1367E+06     3.22152E+06         50.8899
            1555     5.90944E-03     107.774E-03         8.48878        -3.29430        -3.67937        -3.25644         8.45091        -3.67937     689.551E-03     339.775E-03    -169.455E-03    -170.319E-03    -168.692E-03     339.011E-03    -170.319E-03     39.1014E-03    -18.3012E+06    -100.966E+06    -165.827E+06    -101.433E+06    -165.360E+06    -18.3012E+06     4.55374E+06         51.5161
            1556     6.75151E-03     107.825E-03         8.24280        -3.10609        -3.61021        -3.09903         8.23575        -3.61021     92.1910E-03     339.834E-03    -169.493E-03    -170.342E-03    -168.328E-03     338.669E-03    -170.342E-03     48.4236E-03     1.94714E+06    -89.9227E+06    -125.326E+06    -91.0385E+06    -124.210E+06     1.94714E+06     5.68309E+06         52.1605
            1557     7.59486E-03     107.885E-03         8.00772        -2.92992        -3.53582        -2.92493         8.00273        -3.53582     400.630E-03     339.487E-03    -169.177E-03    -170.310E-03    -167.501E-03     337.812E-03    -170.310E-03     58.0509E-03     20.9794E+06    -64.9329E+06    -91.8064E+06    -80.3615E+06    -76.3778E+06     20.9794E+06     5.57814E+06         52.8009
            1558     8.44079E-03     107.960E-03         7.76740        -2.74466        -3.45581        -2.73517         7.75792        -3.45581    -359.093E-03     339.360E-03    -169.151E-03    -170.210E-03    -166.906E-03     337.116E-03    -170.210E-03     67.2868E-03     42.3509E+06    -4.11453E+06    -70.0767E+06     -69.197E+06    -4.99421E+06     42.3509E+06     6.91410E+06         53.4352
            1559     9.28648E-03     108.042E-03         7.52040        -2.55645        -3.37076        -2.54606         7.51001        -3.37076    -283.351E-03     340.099E-03    -169.731E-03    -170.368E-03    -167.182E-03     337.309E-03    -170.127E-03     75.1578E-03     67.7789E+06     54.1827E+06    -59.4408E+06    -58.8409E+06     58.9144E+06     62.4472E+06     8.22936E+06         54.0949
            1560     10.1303E-03     108.138E-03         7.28870        -2.39731        -3.28267        -2.37574         7.26713        -3.28267    -469.849E-03     340.612E-03    -170.089E-03    -170.524E-03    -167.259E-03     337.347E-03    -170.089E-03     81.3988E-03     85.0293E+06     73.5612E+06    -49.1770E+06    -48.8362E+06     84.6885E+06     73.5612E+06     6.50817E+06         54.8614
            1561     10.9755E-03     108.238E-03         7.05707        -2.24969        -3.19371        -2.22196         7.02933        -3.19371    -257.397E-03     340.630E-03    -170.065E-03    -170.565E-03    -166.991E-03     337.063E-03    -170.073E-03     85.0894E-03     90.0597E+06     82.7976E+06    -40.0683E+06    -39.8983E+06     89.7646E+06     82.9227E+06     4.62563E+06         55.8839
            1562     11.8209E-03     108.344E-03         6.77439        -2.05362        -3.10341        -2.04528         6.76604        -3.10341     495.331E-03     342.003E-03    -170.081E-03    -171.922E-03    -167.582E-03     337.671E-03    -170.089E-03     93.6959E-03     97.3730E+06     95.0095E+06    -31.8329E+06    -31.6733E+06     95.8505E+06     96.3724E+06     4.48428E+06         57.3677
            1563     12.6654E-03     108.471E-03         6.48101        -1.84335        -3.01035        -1.83325         6.47092        -3.01035     513.072E-03     342.261E-03    -170.109E-03    -172.152E-03    -167.869E-03     337.977E-03    -170.109E-03     93.1587E-03     105.478E+06     102.925E+06    -22.7859E+06    -22.6710E+06     102.810E+06     105.478E+06     3.67770E+06         59.4812
            1564     13.5086E-03     108.579E-03         6.17040        -1.61389        -2.91148        -1.59686         6.15337        -2.91148     726.597E-03     345.771E-03    -170.092E-03    -175.679E-03    -168.345E-03     338.438E-03    -170.092E-03     118.523E-03     112.770E+06     108.844E+06    -14.1156E+06    -14.0709E+06     111.410E+06     110.159E+06     2.30160E+06         62.1401
            1565     14.3557E-03     108.777E-03         5.83760        -1.36744        -2.80804        -1.35949         5.82965        -2.80804     331.948E-03     345.331E-03    -170.071E-03    -175.260E-03    -168.840E-03     338.911E-03    -170.071E-03     105.682E-03     121.665E+06     117.397E+06    -6.93255E+06    -6.91648E+06     121.649E+06     117.397E+06     1.31903E+06         64.7959
            1566     844.818E-06     109.087E-03         9.32643        -3.04110        -4.90253        -4.03688         8.46078        -3.04110        -3.80749     339.768E-03    -169.302E-03    -170.466E-03    -170.256E-03     339.763E-03    -169.507E-03     1.78711E-03    -155.825E+06    -164.874E+06    -353.303E+06    -163.414E+06    -353.258E+06    -157.330E+06     857.344E+03         48.9021
            1567     1.68860E-03     109.088E-03         8.65287        -3.55161        -3.69191        -3.60606         8.56702        -3.55161     13.8414E-03     339.648E-03    -169.694E-03    -169.954E-03    -169.680E-03     339.634E-03    -169.954E-03     4.95670E-03    -142.505E+06    -157.777E+06    -342.430E+06    -157.787E+06    -342.421E+06    -142.505E+06     398.264E+03         49.0885
            1568     2.53210E-03     109.093E-03         8.66017        -3.56543        -3.69422        -3.57354         8.53950        -3.56543        -2.36290     339.971E-03    -169.905E-03    -170.066E-03    -169.867E-03     339.931E-03    -170.063E-03     8.77434E-03    -117.606E+06    -148.346E+06    -323.631E+06    -148.363E+06    -323.614E+06    -117.606E+06     1.35859E+06         49.3887
            1569     3.37528E-03     109.102E-03         8.60180        -3.51527        -3.66377        -3.52877         8.51217        -3.56065    -911.443E-03     339.913E-03    -169.699E-03    -170.213E-03    -169.594E-03     339.805E-03    -170.211E-03     14.4197E-03    -89.4279E+06    -137.766E+06    -300.506E+06    -137.803E+06    -300.468E+06    -89.4279E+06     2.31765E+06         49.7982
            1570     4.21983E-03     109.117E-03         8.41481        -3.42566        -3.53786        -3.38600         8.37515        -3.53786    -349.136E-03     339.755E-03    -169.476E-03    -170.279E-03    -169.244E-03     339.522E-03    -170.279E-03     21.4640E-03    -64.2502E+06    -125.180E+06    -264.457E+06    -125.240E+06    -264.397E+06    -64.2502E+06     2.73301E+06         50.3041
            1571     5.06443E-03     109.141E-03         8.28210        -3.30920        -3.49612        -3.24228         8.21518        -3.49612     87.9852E-03     339.971E-03    -169.644E-03    -170.327E-03    -169.209E-03     339.536E-03    -170.327E-03     29.4286E-03    -41.0231E+06    -113.468E+06    -217.976E+06    -113.658E+06    -217.785E+06    -41.0231E+06     3.78319E+06         50.8849
            1572     5.90599E-03     109.180E-03         8.05958        -3.13087        -3.44249        -3.09097         8.01967        -3.44249     677.558E-03     339.836E-03    -169.469E-03    -170.368E-03    -168.722E-03     339.090E-03    -170.368E-03     38.6454E-03    -19.5355E+06    -102.358E+06    -170.702E+06    -102.944E+06    -170.116E+06    -19.5355E+06     5.47693E+06         51.5121
            1573     6.75147E-03     109.228E-03         7.82025        -2.94609        -3.38040        -2.93862         7.81278        -3.38040     76.8497E-03     339.370E-03    -169.014E-03    -170.355E-03    -167.826E-03     338.181E-03    -170.355E-03     48.8016E-03     1.43693E+06    -89.7784E+06    -128.711E+06    -91.4596E+06    -127.030E+06     1.43693E+06     7.00792E+06         52.1566
            1574     7.59693E-03     109.290E-03         7.58634        -2.76291        -3.31063        -2.75777         7.58121        -3.31063     401.234E-03     339.275E-03    -168.992E-03    -170.283E-03    -167.288E-03     337.571E-03    -170.283E-03     58.5800E-03     21.7717E+06    -64.5793E+06    -92.7962E+06    -80.6072E+06    -76.7682E+06     21.7717E+06     6.86758E+06         52.7967
            1575     8.44183E-03     109.361E-03         7.34993        -2.57676        -3.23313        -2.56742         7.34058        -3.23313    -334.831E-03     339.569E-03    -169.385E-03    -170.184E-03    -167.147E-03     337.331E-03    -170.184E-03     67.2131E-03     41.3889E+06    -8.18577E+06    -71.0558E+06    -70.0439E+06    -9.19766E+06     41.3889E+06     7.11490E+06         53.4292
            1576     9.28620E-03     109.448E-03         7.10732        -2.39471        -3.14968        -2.38416         7.09676        -3.14968    -249.257E-03     339.934E-03    -169.677E-03    -170.256E-03    -167.057E-03     337.166E-03    -170.109E-03     74.8395E-03     68.1453E+06     51.5280E+06    -59.0201E+06    -58.4396E+06     56.8247E+06     62.2680E+06      7.9617E+06         54.0853
            1577     10.1310E-03     109.542E-03         6.87677        -2.23906        -3.06296        -2.21878         6.85649        -3.06296    -409.053E-03     340.295E-03    -169.866E-03    -170.430E-03    -167.034E-03     337.094E-03    -170.060E-03     80.5702E-03     87.0983E+06     75.0031E+06    -48.2750E+06    -47.8259E+06     86.6493E+06     75.0031E+06     7.69532E+06         54.8466
            1578     10.9761E-03     109.642E-03         6.64746        -2.09456        -2.97518        -2.06698         6.61987        -2.97518    -190.231E-03     340.939E-03    -170.053E-03    -170.886E-03    -167.358E-03     337.411E-03    -170.053E-03     84.6740E-03     91.4339E+06     83.8295E+06    -39.7944E+06    -39.3955E+06     90.9099E+06     83.9547E+06     6.99519E+06         55.8617
            1579     11.8198E-03     109.749E-03         6.37673        -1.91103        -2.88587        -1.90121         6.36690        -2.88587     511.744E-03     342.373E-03    -170.094E-03    -172.279E-03    -167.871E-03     337.965E-03    -170.094E-03     94.5110E-03     98.4104E+06     95.4972E+06    -32.1282E+06    -31.8622E+06     96.4924E+06     97.1491E+06     5.57776E+06         57.3381
            1580     12.6630E-03     109.877E-03         6.10490        -1.72066        -2.79446        -1.70973         6.09397        -2.79446     513.014E-03     342.017E-03    -170.110E-03    -171.907E-03    -167.537E-03     337.647E-03    -170.110E-03     94.0079E-03     106.707E+06     104.455E+06    -23.7827E+06    -23.6721E+06     104.692E+06     106.359E+06     3.52332E+06         59.4551
            1581     13.5107E-03     109.981E-03         5.83004        -1.52540        -2.69828        -1.50855         5.81319        -2.69828     701.305E-03     345.985E-03    -170.083E-03    -175.902E-03    -168.472E-03     338.555E-03    -170.083E-03     119.361E-03     113.692E+06     110.254E+06    -15.5089E+06    -15.4710E+06     113.277E+06     110.631E+06     2.15073E+06         62.1385
            1582     14.3551E-03     110.182E-03         5.53805        -1.31557        -2.59894        -1.30868         5.53116        -2.59894     312.737E-03     345.469E-03    -169.763E-03    -175.706E-03    -168.915E-03     338.981E-03    -170.066E-03     106.123E-03     122.999E+06     118.024E+06    -7.28733E+06    -7.26960E+06     122.981E+06     118.024E+06     1.20125E+06         64.8313
            1583     843.162E-06     110.490E-03         8.06142        -2.96892        -3.71777        -3.43006         7.77371        -2.96892        -2.27741     339.867E-03    -169.332E-03    -170.535E-03    -170.471E-03     339.864E-03    -169.393E-03     1.35585E-03    -158.517E+06    -165.522E+06    -355.944E+06    -164.057E+06    -355.904E+06    -160.022E+06     1.39090E+06         48.8803
            1584     1.68762E-03     110.491E-03         7.87886        -3.20435        -3.31585        -3.28276         7.85687        -3.21544    -374.955E-03     339.793E-03    -169.695E-03    -170.098E-03    -169.762E-03     339.781E-03    -170.018E-03     4.53688E-03    -141.794E+06    -158.222E+06    -343.712E+06    -158.241E+06    -343.692E+06    -141.794E+06     1.38566E+06         49.0681
            1585     2.53194E-03     110.497E-03         7.95520        -3.22221        -3.38841        -3.24746         7.82536        -3.23331        -2.07526     339.553E-03    -169.491E-03    -170.062E-03    -169.451E-03     339.513E-03    -170.062E-03     8.75697E-03    -118.246E+06    -149.712E+06    -326.403E+06    -149.740E+06    -326.375E+06    -118.246E+06     1.82604E+06         49.3703
            1586     3.37663E-03     110.505E-03         7.96487        -3.21518        -3.38134        -3.22967         7.83085        -3.23283        -1.05345     339.736E-03    -169.602E-03    -170.134E-03    -169.498E-03     339.632E-03    -170.134E-03     14.1725E-03    -90.6242E+06    -138.143E+06    -303.095E+06    -138.176E+06    -303.062E+06    -90.6242E+06     2.15674E+06         49.7826
            1587     4.22033E-03     110.521E-03         7.79958        -3.18360        -3.22114        -3.12940         7.74351        -3.21926    -353.928E-03     340.064E-03    -169.826E-03    -170.238E-03    -169.588E-03     339.826E-03    -170.238E-03     21.5484E-03    -65.6723E+06    -126.621E+06    -267.485E+06    -126.728E+06    -267.377E+06    -65.6723E+06     3.40663E+06         50.2915
            1588     5.06231E-03     110.548E-03         7.69590        -3.08711        -3.19097        -3.01094         7.61786        -3.18910    -45.1833E-03     339.955E-03    -169.632E-03    -170.323E-03    -169.169E-03     339.491E-03    -170.323E-03     30.3692E-03    -42.4645E+06    -115.390E+06    -221.577E+06    -115.689E+06    -221.278E+06    -42.4645E+06     5.23829E+06         50.8748
            1589     5.90803E-03     110.584E-03         7.47598        -2.89736        -3.14498        -2.85614         7.43477        -3.14498     616.602E-03     339.441E-03    -169.105E-03    -170.336E-03    -168.321E-03     338.657E-03    -170.336E-03     39.6322E-03    -20.3535E+06    -103.515E+06    -174.950E+06    -104.119E+06    -174.346E+06    -20.3535E+06     6.21194E+06         51.5047
            1590     6.75216E-03     110.631E-03         7.24295        -2.70664        -3.08881        -2.69879         7.23510        -3.08881     12.0308E-03     339.199E-03    -168.908E-03    -170.290E-03    -167.718E-03     338.008E-03    -170.290E-03     48.9209E-03     240.345E+03    -90.5446E+06    -132.204E+06    -92.2891E+06    -130.459E+06     240.345E+03     7.31440E+06         52.1523
            1591     7.59707E-03     110.692E-03         7.01692        -2.53043        -3.02290        -2.52590         7.01238        -3.02290     369.234E-03     339.665E-03    -169.422E-03    -170.244E-03    -167.744E-03     337.987E-03    -170.244E-03     58.1732E-03     21.3451E+06    -64.3049E+06    -95.1692E+06       -81.3E+06    -78.1741E+06     21.3451E+06     8.66844E+06         52.7943
            1592     8.44073E-03     110.767E-03         6.80067        -2.36853        -2.94927        -2.35884         6.79098        -2.94927    -323.226E-03     339.982E-03    -169.782E-03    -170.200E-03    -167.581E-03     337.781E-03    -170.200E-03     66.7135E-03     41.9814E+06    -8.30882E+06    -72.8994E+06    -71.2398E+06    -9.96846E+06     41.9814E+06     8.05899E+06         53.4253
            1593     9.28536E-03     110.851E-03         6.58255        -2.20958        -2.87050        -2.19807         6.57104        -2.87050    -214.539E-03     339.612E-03    -169.482E-03    -170.130E-03    -166.739E-03     336.869E-03    -170.130E-03     74.4347E-03     66.7595E+06     49.5452E+06    -61.6287E+06    -61.1514E+06     54.5756E+06     61.2518E+06     7.37018E+06         54.0761
            1594     10.1314E-03     110.946E-03         6.37055        -2.06646        -2.78861        -2.04652         6.35061        -2.78861    -347.168E-03     340.142E-03    -169.654E-03    -170.489E-03    -166.852E-03     336.906E-03    -170.053E-03     80.9764E-03     85.2922E+06     73.0327E+06    -51.6658E+06    -51.1539E+06     84.7803E+06     73.0327E+06     8.31979E+06         54.8297
            1595     10.9752E-03     111.048E-03         6.15773        -1.93246        -2.70541        -1.90380         6.12907        -2.70541    -127.397E-03     340.977E-03    -170.036E-03    -170.941E-03    -167.381E-03     337.417E-03    -170.036E-03     85.0721E-03     92.3778E+06     82.8209E+06    -41.6000E+06    -41.1110E+06     91.8888E+06     82.8209E+06     7.96380E+06         55.8352
            1596     11.8206E-03     111.153E-03         5.90770        -1.76487        -2.62070        -1.75303         5.89585        -2.62070     530.996E-03     341.592E-03    -170.054E-03    -171.538E-03    -167.072E-03     337.127E-03    -170.054E-03     94.9415E-03     100.922E+06     96.5223E+06    -31.1643E+06    -30.8655E+06     99.0286E+06     98.1167E+06     6.06034E+06         57.3050
            1597     12.6674E-03     111.282E-03         5.66930        -1.60577        -2.53476        -1.59416         5.65769        -2.53476     505.872E-03     341.879E-03    -170.046E-03    -171.832E-03    -167.405E-03     337.451E-03    -170.046E-03     94.5472E-03     109.140E+06     106.828E+06    -22.4211E+06    -22.2726E+06     107.027E+06     108.792E+06     4.15865E+06         59.4288
            1598     13.5104E-03     111.384E-03         5.42139        -1.43601        -2.44492        -1.41982         5.40521        -2.44492     657.199E-03     346.650E-03    -170.038E-03    -176.612E-03    -169.155E-03     339.193E-03    -170.038E-03     119.683E-03     116.225E+06     112.508E+06    -14.7629E+06    -14.6909E+06     115.783E+06     112.878E+06     2.86398E+06         62.1392
            1599     14.3549E-03     111.590E-03         5.15437        -1.24488        -2.35250        -1.23937         5.14887        -2.35250     278.370E-03     345.435E-03    -169.592E-03    -175.843E-03    -168.900E-03     338.942E-03    -170.042E-03     105.963E-03     125.040E+06     119.192E+06    -7.23591E+06    -7.21268E+06     125.017E+06     119.192E+06     1.15034E+06         64.8699
            1600     844.887E-06     111.894E-03         7.09233        -2.62257        -3.16827        -2.70852         7.02757        -3.01755        -1.15169     339.661E-03    -169.441E-03    -170.220E-03    -170.200E-03     339.657E-03    -169.457E-03     2.36281E-03    -161.155E+06    -166.219E+06    -358.754E+06    -166.057E+06    -358.742E+06    -161.330E+06     307.765E+03         48.8600
            1601     1.68744E-03     111.896E-03         7.09554        -2.85405        -2.96635        -2.91462         7.06266        -2.87291    -742.681E-03     339.779E-03    -169.692E-03    -170.087E-03    -169.823E-03     339.765E-03    -169.941E-03     5.27086E-03    -144.981E+06    -160.385E+06    -346.244E+06    -160.411E+06    -346.218E+06    -144.981E+06     1.84642E+06         49.0481
            1602     2.53200E-03     111.898E-03         7.21226        -2.86413        -3.06850        -2.88882         7.05144        -2.88298        -1.83227     339.623E-03    -169.522E-03    -170.101E-03    -169.545E-03     339.580E-03    -170.035E-03     9.04506E-03    -121.300E+06    -151.467E+06    -327.642E+06    -151.495E+06    -327.614E+06    -121.300E+06     2.09341E+06         49.3507
            1603     3.37595E-03     111.909E-03         7.24121        -2.87739        -3.06929        -2.88506         7.06131        -2.88172        -1.17650     339.700E-03    -169.573E-03    -170.127E-03    -169.466E-03     339.593E-03    -170.127E-03     14.4569E-03    -93.2683E+06    -140.738E+06    -305.551E+06    -140.787E+06    -305.502E+06    -93.2683E+06     2.62394E+06         49.7633
            1604     4.21924E-03     111.925E-03         7.05901        -2.86608        -2.87626        -2.79834         6.98543        -2.87041    -383.631E-03     339.627E-03    -169.426E-03    -170.201E-03    -169.175E-03     339.376E-03    -170.201E-03     22.0853E-03    -66.7804E+06    -128.746E+06    -272.066E+06    -128.865E+06    -271.948E+06    -66.7804E+06     3.83366E+06         50.2732
            1605     5.06509E-03     111.952E-03         6.95524        -2.77120        -2.84699        -2.68588         6.86613        -2.84320    -192.893E-03     339.387E-03    -169.171E-03    -170.217E-03    -168.701E-03     338.918E-03    -170.217E-03     30.6331E-03    -43.3091E+06    -115.648E+06    -226.165E+06    -115.973E+06    -225.839E+06    -43.3091E+06     5.42524E+06         50.8599
            1606     5.90839E-03     111.987E-03         6.73235        -2.57458        -2.80135        -2.53351         6.69128        -2.80135     522.385E-03     339.448E-03    -169.229E-03    -170.219E-03    -168.465E-03     338.683E-03    -170.219E-03     39.1483E-03    -20.6677E+06    -103.253E+06    -178.545E+06    -103.977E+06    -177.821E+06    -20.6677E+06     6.98267E+06         51.4950
            1607     6.75298E-03     112.036E-03         6.51021        -2.39137        -2.74680        -2.38300         6.50184        -2.74680    -63.9312E-03     339.692E-03    -169.460E-03    -170.231E-03    -168.291E-03     338.523E-03    -170.231E-03     48.4986E-03    -333.209E+03    -91.3728E+06    -135.345E+06    -93.0830E+06    -133.635E+06    -333.209E+03     7.78001E+06         52.1471
            1608     7.59648E-03     112.096E-03         6.30986        -2.23991        -2.68325        -2.23618         6.30613        -2.68325     326.102E-03     339.804E-03    -169.574E-03    -170.230E-03    -167.859E-03     338.089E-03    -170.230E-03     58.7583E-03     20.4067E+06    -66.7348E+06    -96.9796E+06    -81.8707E+06    -81.8437E+06     20.4067E+06      8.8013E+06         52.7912
            1609     8.44095E-03     112.173E-03         6.12743        -2.10924        -2.61371        -2.09883         6.11702        -2.61371    -313.032E-03     339.788E-03    -169.604E-03    -170.184E-03    -167.341E-03     337.524E-03    -170.184E-03     67.6647E-03     42.9197E+06    -8.71153E+06    -73.0778E+06    -70.7914E+06    -10.9979E+06     42.9197E+06     10.1374E+06         53.4218
            1610     9.28590E-03     112.253E-03         5.94821        -1.98569        -2.54083        -1.97271         5.93524        -2.54083    -184.922E-03     339.861E-03    -169.657E-03    -170.203E-03    -166.984E-03     337.098E-03    -170.114E-03     74.7410E-03     67.5078E+06     51.0420E+06    -62.0671E+06    -61.0553E+06     54.8728E+06     62.6652E+06     10.1951E+06         54.0686
            1611     10.1310E-03     112.349E-03         5.77248        -1.87334        -2.46613        -1.85271         5.75185        -2.46613    -297.562E-03     340.027E-03    -169.669E-03    -170.358E-03    -166.685E-03     336.726E-03    -170.042E-03     81.7197E-03     84.3985E+06     73.9746E+06    -51.8035E+06    -51.2383E+06     83.8333E+06     73.9746E+06     8.66773E+06         54.8140
            1612     10.9764E-03     112.453E-03         5.59892        -1.76952        -2.39096        -1.73914         5.56854        -2.39096    -85.0440E-03     340.462E-03    -169.831E-03    -170.631E-03    -166.824E-03     336.823E-03    -169.998E-03     85.9342E-03     93.0927E+06     84.8344E+06    -41.4042E+06    -41.0485E+06     92.7370E+06     84.8344E+06     6.81738E+06         55.8099
            1613     11.8211E-03     112.556E-03         5.39192        -1.63596        -2.31533        -1.62235         5.37831        -2.31533     534.735E-03     341.783E-03    -170.007E-03    -171.776E-03    -167.401E-03     337.408E-03    -170.007E-03     94.1289E-03     102.373E+06     99.2598E+06    -31.7210E+06    -31.5138E+06     101.730E+06     99.6959E+06     5.21964E+06         57.2730
            1614     12.6666E-03     112.683E-03         5.18160        -1.49967        -2.23911        -1.48773         5.16966        -2.23911     486.537E-03     342.088E-03    -170.026E-03    -172.063E-03    -167.754E-03     337.780E-03    -170.026E-03     93.3929E-03     109.480E+06     108.509E+06    -22.4543E+06    -22.3036E+06     108.358E+06     109.480E+06     4.42912E+06         59.4002
            1615     13.5111E-03     112.794E-03         4.95502        -1.34703        -2.15876        -1.33175         4.93975        -2.15876     604.804E-03     345.800E-03    -170.018E-03    -175.783E-03    -168.474E-03     338.491E-03    -170.018E-03     118.394E-03     117.623E+06     113.794E+06    -13.6820E+06    -13.5875E+06     116.994E+06     114.329E+06     3.36713E+06         62.1362
            1616     14.3569E-03     112.988E-03         4.70559        -1.17008        -2.07560        -1.16590         4.70141        -2.07560     237.316E-03     345.181E-03    -169.858E-03    -175.323E-03    -168.768E-03     338.772E-03    -170.004E-03     105.762E-03     127.757E+06     121.097E+06    -6.37598E+06    -6.34311E+06     127.724E+06     121.097E+06     1.80669E+06         64.9084
            1617     843.569E-06     113.296E-03         6.19504        -1.96713        -3.10111        -1.95404         6.14394        -3.06310    -633.032E-03     339.464E-03    -169.469E-03    -169.995E-03    -169.623E-03     339.461E-03    -169.838E-03     1.67772E-03    -164.287E+06    -168.807E+06    -361.178E+06    -168.173E+06    -361.161E+06    -164.938E+06     1.14151E+06         48.8408
            1618     1.68933E-03     113.299E-03         6.23636        -2.49751        -2.56145        -2.50446         6.18898        -2.50712    -767.121E-03     339.396E-03    -169.523E-03    -169.873E-03    -169.576E-03     339.383E-03    -169.807E-03     4.81735E-03    -148.718E+06    -162.544E+06    -348.666E+06    -162.557E+06    -348.654E+06    -148.718E+06     961.744E+03         49.0277
            1619     2.53208E-03     113.303E-03         6.39541        -2.49997        -2.70859        -2.52447         6.21904        -2.50772        -1.65368     339.552E-03    -169.586E-03    -169.966E-03    -169.603E-03     339.503E-03    -169.900E-03     9.54153E-03    -124.358E+06    -153.160E+06    -328.534E+06    -153.173E+06    -328.521E+06    -124.358E+06     1.20293E+06         49.3292
            1620     3.37585E-03     113.312E-03         6.39521        -2.50571        -2.69286        -2.49600         6.19889        -2.50625        -1.18325     339.445E-03    -169.422E-03    -170.023E-03    -169.298E-03     339.321E-03    -170.023E-03     15.5648E-03    -94.7966E+06    -141.436E+06    -308.032E+06    -141.470E+06    -307.998E+06    -94.7966E+06     2.02324E+06         49.7411
            1621     4.22115E-03     113.329E-03         6.19211        -2.48354        -2.49547        -2.40738         6.11198        -2.49150    -400.422E-03     339.357E-03    -169.268E-03    -170.089E-03    -169.015E-03     339.104E-03    -170.089E-03     22.3962E-03    -67.7314E+06    -129.008E+06    -276.436E+06    -129.126E+06    -276.318E+06    -67.7314E+06     3.56887E+06         50.2520
            1622     5.06432E-03     113.355E-03         6.07350        -2.37502        -2.46254        -2.28391         5.98047        -2.46062    -258.897E-03     339.373E-03    -169.258E-03    -170.115E-03    -168.800E-03     338.914E-03    -170.115E-03     30.2495E-03    -44.7267E+06    -116.846E+06    -230.795E+06    -117.157E+06    -230.484E+06    -44.7267E+06     5.36535E+06         50.8417
            1623     5.90907E-03     113.392E-03         5.86105        -2.18774        -2.41595        -2.14814         5.82145        -2.41595     444.543E-03     339.451E-03    -169.307E-03    -170.144E-03    -168.539E-03     338.683E-03    -170.144E-03     39.2122E-03    -21.6371E+06    -103.936E+06    -182.538E+06    -104.602E+06    -181.872E+06    -21.6371E+06     6.74444E+06         51.4812
            1624     6.75238E-03     113.440E-03         5.66668        -2.03190        -2.36151        -2.02355         5.65832        -2.36151    -101.763E-03     339.614E-03    -169.445E-03    -170.169E-03    -168.239E-03     338.408E-03    -170.169E-03     49.2172E-03    -15.1175E+03    -90.8645E+06    -137.837E+06    -92.4240E+06    -136.278E+06    -15.1175E+03     7.73625E+06         52.1380
            1625     7.59704E-03     113.502E-03         5.50519        -1.91540        -2.30110        -1.91206         5.50185        -2.30110     299.981E-03     339.697E-03    -169.530E-03    -170.167E-03    -167.795E-03     337.961E-03    -170.167E-03     59.1480E-03     20.4368E+06    -68.7771E+06    -97.8787E+06    -81.1174E+06    -85.5384E+06     20.4368E+06     8.46988E+06         52.7860
            1626     8.44268E-03     113.574E-03         5.36431        -1.82345        -2.23734        -1.81138         5.35224        -2.23734    -297.065E-03     339.762E-03    -169.639E-03    -170.123E-03    -167.399E-03     337.522E-03    -170.123E-03     67.3149E-03     42.0901E+06    -13.8831E+06    -72.1799E+06    -69.5308E+06    -16.5322E+06     42.0901E+06     10.4117E+06         53.4183
            1627     9.28704E-03     113.661E-03         5.22457        -1.73669        -2.17222        -1.72139         5.20928        -2.17222    -167.304E-03     340.064E-03    -169.896E-03    -170.169E-03    -167.261E-03     337.337E-03    -170.077E-03     74.3012E-03     69.6028E+06     50.4243E+06    -59.4472E+06    -58.0641E+06     54.2718E+06     64.3722E+06     12.1887E+06         54.0632
            1628     10.1308E-03     113.751E-03         5.09781        -1.66546        -2.10718        -1.64324         5.07559        -2.10718    -261.077E-03     340.096E-03    -169.859E-03    -170.237E-03    -166.859E-03     336.886E-03    -170.027E-03     80.6205E-03     88.1278E+06     76.4397E+06    -49.3474E+06    -48.5041E+06     87.2845E+06     76.4397E+06     10.4713E+06         54.8018
            1629     10.9776E-03     113.855E-03         4.98062        -1.60592        -2.04325        -1.57309         4.94780        -2.04325    -60.1470E-03     340.243E-03    -169.820E-03    -170.422E-03    -166.705E-03     336.693E-03    -169.988E-03     84.8185E-03     95.4337E+06     85.9527E+06    -40.4626E+06    -40.0287E+06     94.9998E+06     85.9527E+06     7.52207E+06         55.7868
            1630     11.8227E-03     113.962E-03         4.80957        -1.49622        -1.97929        -1.48098         4.79433        -1.97929     523.089E-03     342.109E-03    -170.009E-03    -172.101E-03    -167.745E-03     337.754E-03    -170.009E-03     93.9598E-03     103.607E+06     100.329E+06    -32.0771E+06    -31.8301E+06     103.105E+06     100.584E+06     5.71413E+06         57.2393
            1631     12.6639E-03     114.090E-03         4.62490        -1.37412        -1.91453        -1.36208         4.61287        -1.91453     454.509E-03     342.017E-03    -170.036E-03    -171.981E-03    -167.639E-03     337.676E-03    -170.036E-03     93.7777E-03     110.192E+06     109.645E+06    -23.1617E+06    -23.0243E+06     109.507E+06     110.192E+06     4.19490E+06         59.3669
            1632     13.5108E-03     114.194E-03         4.42246        -1.23796        -1.84493        -1.22289         4.40739        -1.84493     564.821E-03     345.250E-03    -170.007E-03    -175.243E-03    -167.909E-03     337.916E-03    -170.007E-03     118.615E-03     118.260E+06     114.562E+06    -14.7481E+06    -14.6625E+06     117.882E+06     114.854E+06     3.29140E+06         62.1280
            1633     14.3570E-03     114.393E-03         4.19093        -1.07409        -1.77154        -1.07037         4.18721        -1.77154     213.995E-03     345.255E-03    -169.979E-03    -175.276E-03    -168.849E-03     338.828E-03    -169.979E-03     106.145E-03     130.211E+06     121.939E+06    -7.64367E+06    -7.59110E+06     130.159E+06     121.939E+06     2.52262E+06         64.9426
            1634     844.019E-06     114.700E-03         5.40809        -1.39386        -2.92359        -1.22107         5.23529        -2.92359        -1.11803     339.800E-03    -169.305E-03    -170.495E-03    -170.139E-03     339.798E-03    -169.659E-03     2.17986E-03    -164.303E+06    -167.865E+06    -361.505E+06    -167.395E+06    -361.480E+06    -164.798E+06    -679.918E+03         48.8221
            1635     1.68711E-03     114.700E-03         5.22488        -2.05316        -2.11610        -2.07322         5.20138        -2.07253    -433.019E-03     339.464E-03    -169.495E-03    -169.969E-03    -169.521E-03     339.452E-03    -169.931E-03     4.54624E-03    -148.183E+06    -161.946E+06    -350.026E+06    -161.949E+06    -350.023E+06    -148.183E+06    -133.455E+03         49.0074
            1636     2.53307E-03     114.706E-03         5.39493        -2.07715        -2.26548        -2.11478         5.24423        -2.07715        -1.58491     339.096E-03    -169.188E-03    -169.908E-03    -169.148E-03     339.056E-03    -169.908E-03     8.61392E-03    -123.427E+06    -153.210E+06    -330.634E+06    -153.217E+06    -330.627E+06    -123.427E+06     903.620E+03         49.3065
            1637     3.37769E-03     114.715E-03         5.36934        -2.07773        -2.22703        -2.06531         5.20816        -2.07827        -1.03175     339.071E-03    -169.146E-03    -169.926E-03    -169.031E-03     338.957E-03    -169.926E-03     14.6999E-03    -96.2009E+06    -142.994E+06     -311.18E+06    -143.038E+06    -311.136E+06    -96.2009E+06     2.16756E+06         49.7172
            1638     4.22077E-03     114.732E-03         5.20657        -2.04973        -2.06685        -1.98469         5.13753        -2.06285    -420.677E-03     339.383E-03    -169.394E-03    -169.989E-03    -169.142E-03     339.131E-03    -169.989E-03     22.3359E-03    -70.3290E+06    -132.054E+06    -279.954E+06    -132.177E+06    -279.831E+06    -70.3290E+06     3.58589E+06         50.2287
            1639     5.06517E-03     114.759E-03         5.10099        -1.95437        -2.03281        -1.87134         5.01797        -2.03281    -253.003E-03     339.264E-03    -169.220E-03    -170.044E-03    -168.759E-03     338.803E-03    -170.044E-03     30.3181E-03    -46.5108E+06    -119.393E+06    -234.039E+06    -119.580E+06    -233.852E+06    -46.5108E+06     4.25984E+06         50.8201
            1640     5.90905E-03     114.795E-03         4.92424        -1.79563        -1.99108        -1.76201         4.89062        -1.99108     369.982E-03     339.037E-03    -168.982E-03    -170.055E-03    -168.188E-03     338.243E-03    -170.055E-03     39.7738E-03    -23.9941E+06    -106.552E+06    -186.320E+06    -107.012E+06    -185.860E+06    -23.9941E+06     5.50147E+06         51.4626
            1641     6.75442E-03     114.845E-03         4.76863        -1.67034        -1.94195        -1.66387         4.76217        -1.94195    -124.597E-03     339.427E-03    -169.368E-03    -170.059E-03    -168.151E-03     338.210E-03    -170.059E-03     49.4974E-03    -2.55601E+06    -93.6291E+06    -140.418E+06    -94.8664E+06    -139.180E+06    -2.55601E+06     6.86970E+06         52.1242
            1642     7.59871E-03     114.904E-03         4.64519        -1.58717        -1.88889        -1.58473         4.64275        -1.88889     241.102E-03     339.907E-03    -169.827E-03    -170.081E-03    -168.113E-03     338.193E-03    -170.081E-03     58.8008E-03     17.9020E+06    -72.6379E+06    -99.7623E+06     -83.298E+06    -89.1023E+06     17.9020E+06     7.80674E+06         52.7767
            1643     8.44117E-03     114.980E-03         4.54345        -1.53135        -1.83422        -1.51551         4.52761        -1.83422    -308.954E-03     339.941E-03    -169.867E-03    -170.074E-03    -167.631E-03     337.706E-03    -170.074E-03     67.2712E-03     38.6421E+06    -20.2398E+06    -74.8209E+06    -72.2150E+06    -22.8457E+06     38.6421E+06     9.79531E+06         53.4115
            1644     9.28613E-03     115.062E-03         4.45093        -1.48364        -1.77961        -1.46401         4.43129        -1.77961    -183.495E-03     340.005E-03    -169.886E-03    -170.119E-03    -167.206E-03     337.245E-03    -170.039E-03     74.7243E-03     66.5606E+06     45.1415E+06    -62.7224E+06    -61.3632E+06     49.4806E+06     60.8623E+06     12.1058E+06         54.0557
            1645     10.1319E-03     115.158E-03         4.36871        -1.44321        -1.72625        -1.41840         4.34390        -1.72625    -243.025E-03     340.611E-03    -170.007E-03    -170.604E-03    -167.407E-03     337.414E-03    -170.007E-03     80.5780E-03     91.7089E+06     74.4042E+06    -52.5816E+06    -51.5285E+06     90.6558E+06     74.4042E+06     12.1982E+06         54.7888
            1646     10.9745E-03     115.256E-03         4.28945        -1.40741        -1.67431        -1.37089         4.25293        -1.67431    -50.5372E-03     340.767E-03    -170.010E-03    -170.758E-03    -167.213E-03     337.223E-03    -170.010E-03     84.8186E-03     100.243E+06     84.0397E+06    -43.3209E+06    -42.6520E+06     99.5744E+06     84.0397E+06     9.64248E+06         55.7616
            1647     11.8198E-03     115.367E-03         4.14650        -1.31402        -1.62164        -1.29699         4.12947        -1.62164     503.046E-03     341.160E-03    -170.021E-03    -171.139E-03    -166.673E-03     336.693E-03    -170.021E-03     94.9258E-03     105.493E+06     100.398E+06    -33.6061E+06    -33.2512E+06     105.070E+06     100.467E+06     6.90619E+06         57.2010
            1648     12.6681E-03     115.494E-03         3.98720        -1.20753        -1.56748        -1.19492         3.97459        -1.56748     424.028E-03     341.340E-03    -169.993E-03    -171.347E-03    -166.963E-03     336.955E-03    -169.993E-03     94.0001E-03     111.858E+06     111.048E+06    -24.7208E+06    -24.5362E+06     111.293E+06     111.429E+06     4.88890E+06         59.3303
            1649     13.5123E-03     115.597E-03         3.81045        -1.08862        -1.50784        -1.07310         3.79493        -1.50784     528.972E-03     346.033E-03    -169.965E-03    -176.068E-03    -168.682E-03     338.646E-03    -169.965E-03     119.020E-03     119.659E+06     114.919E+06    -17.1516E+06    -17.0615E+06     119.257E+06     115.231E+06     3.11287E+06         62.1171
            1650     14.3566E-03     115.798E-03         3.61757    -953.118E-03        -1.44424    -949.654E-03         3.61410        -1.44424     192.460E-03     345.263E-03    -169.663E-03    -175.599E-03    -168.808E-03     338.768E-03    -169.960E-03     106.552E-03     132.869E+06     123.034E+06    -8.43808E+06    -8.40419E+06     132.835E+06     123.034E+06     1.53871E+06         64.9731
            1651     844.039E-06     116.103E-03         5.20038        -1.57503        -2.72828    -504.756E-03         4.06893        -2.66710        -2.47467     339.505E-03    -169.293E-03    -170.211E-03    -170.187E-03     339.501E-03    -169.314E-03     2.09452E-03    -164.017E+06    -171.195E+06    -362.330E+06    -171.248E+06    -362.258E+06    -164.036E+06     868.539E+03         48.7962
            1652     1.68837E-03     116.104E-03         4.20473        -1.56490        -1.73629        -1.56744         4.05340        -1.58242     126.903E-03     339.622E-03    -169.680E-03    -169.942E-03    -169.738E-03     339.606E-03    -169.868E-03     5.33461E-03    -148.032E+06    -164.761E+06    -350.140E+06    -164.769E+06    -350.132E+06    -148.032E+06     519.182E+03         48.9830
            1653     2.53101E-03     116.108E-03         4.28421        -1.58423        -1.76694        -1.62915         4.14643        -1.58423        -1.65919     339.402E-03    -169.417E-03    -169.985E-03    -169.411E-03     339.359E-03    -169.948E-03     8.97422E-03    -126.639E+06    -156.889E+06    -334.506E+06    -156.924E+06    -334.471E+06    -126.639E+06     1.92020E+06         49.2831
            1654     3.37591E-03     116.117E-03         4.22784        -1.59029        -1.70549        -1.61026         4.13261        -1.59029    -822.102E-03     339.127E-03    -169.128E-03    -169.999E-03    -169.018E-03     339.017E-03    -169.999E-03     14.4514E-03    -98.0521E+06    -146.482E+06    -313.722E+06    -146.556E+06    -313.648E+06    -98.0521E+06     3.22979E+06         49.6932
            1655     4.22142E-03     116.136E-03         4.15141        -1.57986        -1.62734        -1.57342         4.10265        -1.58502    -500.208E-03     338.806E-03    -168.810E-03    -169.996E-03    -168.561E-03     338.557E-03    -169.996E-03     22.0913E-03    -71.0794E+06    -133.301E+06    -281.718E+06    -133.376E+06    -281.642E+06    -71.0794E+06     3.06269E+06         50.2039
            1656     5.06516E-03     116.163E-03         4.08212        -1.53440        -1.58493        -1.48813         4.01872        -1.56780    -240.226E-03     338.792E-03    -168.833E-03    -169.958E-03    -168.369E-03     338.327E-03    -169.958E-03     30.4012E-03    -48.9817E+06    -120.803E+06    -236.856E+06    -120.925E+06    -236.734E+06    -48.9817E+06     3.46373E+06         50.7960
            1657     5.91045E-03     116.197E-03         3.96046        -1.43065        -1.53922        -1.40734         3.93715        -1.53922     266.198E-03     339.050E-03    -169.094E-03    -169.956E-03    -168.311E-03     338.267E-03    -169.956E-03     39.5398E-03    -27.4449E+06    -108.993E+06    -190.191E+06    -109.318E+06    -189.866E+06    -27.4449E+06     4.79467E+06         51.4406
            1658     6.75428E-03     116.248E-03         3.85142        -1.33322        -1.50295        -1.32921         3.84740        -1.50295    -153.360E-03     339.341E-03    -169.365E-03    -169.977E-03    -168.145E-03     338.122E-03    -169.977E-03     49.4694E-03    -6.59965E+06    -96.5805E+06    -144.222E+06    -97.7641E+06    -143.039E+06    -6.59965E+06     6.43355E+06         52.1047
            1659     7.59745E-03     116.310E-03         3.76248        -1.27061        -1.46206        -1.26907         3.76094        -1.46206     152.733E-03     339.685E-03    -169.687E-03    -169.998E-03    -167.953E-03     337.951E-03    -169.998E-03     59.1287E-03     14.3380E+06    -75.9149E+06    -102.418E+06    -86.6413E+06    -91.6915E+06     14.3380E+06     7.60233E+06         52.7601
            1660     8.44358E-03     116.383E-03         3.70198        -1.24530        -1.41946        -1.22437         3.68106        -1.41946    -327.432E-03     339.781E-03    -169.792E-03    -169.989E-03    -167.523E-03     337.512E-03    -169.989E-03     67.7413E-03     35.0216E+06     -26.283E+06    -78.0121E+06    -75.6652E+06    -28.6299E+06     35.0216E+06     9.37342E+06         53.3967
            1661     9.28784E-03     116.467E-03         3.64348        -1.22245        -1.37690        -1.19699         3.61802        -1.37690    -203.519E-03     340.130E-03    -169.877E-03    -170.252E-03    -167.347E-03     337.307E-03    -169.960E-03     75.5944E-03     62.8663E+06     39.2409E+06    -66.1633E+06    -64.7756E+06     43.5532E+06     57.1664E+06     12.0893E+06         54.0401
            1662     10.1315E-03     116.561E-03         3.58089        -1.19326        -1.33499        -1.16539         3.55302        -1.33499    -222.380E-03     340.696E-03    -169.939E-03    -170.756E-03    -167.450E-03     337.389E-03    -169.939E-03     81.9381E-03     92.4319E+06     72.8386E+06    -55.1365E+06    -54.0419E+06     91.3374E+06     72.8386E+06     12.5550E+06         54.7685
            1663     10.9767E-03     116.665E-03         3.52073        -1.16410        -1.29351        -1.12369         3.48032        -1.29351    -47.9037E-03     340.909E-03    -169.953E-03    -170.957E-03    -167.314E-03     337.267E-03    -169.953E-03     86.0261E-03     105.167E+06     84.7736E+06    -44.0492E+06    -43.3288E+06     104.446E+06     84.7736E+06     10.2570E+06         55.7323
            1664     11.8219E-03     116.766E-03         3.40191        -1.08096        -1.25048        -1.06211         3.38306        -1.25048     477.127E-03     341.104E-03    -169.971E-03    -171.133E-03    -166.661E-03     336.632E-03    -169.971E-03     95.0060E-03     108.830E+06     100.924E+06    -34.1412E+06    -33.7031E+06     108.392E+06     100.924E+06     7.84500E+06         57.1618
            1665     12.6672E-03     116.897E-03         3.27402    -996.621E-03        -1.20540    -984.866E-03         3.26226        -1.20540     374.756E-03     341.063E-03    -169.939E-03    -171.124E-03    -166.699E-03     336.638E-03    -169.939E-03     94.4443E-03     113.645E+06     111.681E+06    -25.2442E+06    -25.0095E+06     113.226E+06     111.865E+06     5.46987E+06         59.2916
            1666     13.5122E-03     117.003E-03         3.14134    -911.632E-03        -1.15506    -896.880E-03         3.12659        -1.15506     471.577E-03     346.080E-03    -169.910E-03    -176.170E-03    -168.736E-03     338.646E-03    -169.910E-03     119.626E-03     123.147E+06     117.330E+06    -15.6554E+06    -15.5858E+06     122.893E+06     117.514E+06     2.67765E+06         62.1035
            1667     14.3570E-03     117.202E-03         3.01222    -823.525E-03        -1.10233    -819.958E-03         3.00866        -1.10233     166.918E-03     345.017E-03    -169.356E-03    -175.661E-03    -168.637E-03     338.540E-03    -169.904E-03     106.329E-03     135.100E+06     124.533E+06    -7.07038E+06    -7.06103E+06     135.091E+06     124.533E+06     818.493E+03         65.0036
            1668     844.518E-06     117.505E-03         5.87137        -1.92547        -3.26683     42.5940E-03         2.82527        -2.18879        -3.91144     338.821E-03    -169.168E-03    -169.653E-03    -169.560E-03     338.816E-03    -169.256E-03     2.39874E-03    -169.135E+06    -177.156E+06    -366.077E+06    -175.134E+06    -365.984E+06    -171.250E+06     1.70042E+06         48.7559
            1669     1.68855E-03     117.507E-03         3.53871        -1.06554        -1.74506        -1.03718         2.83084        -1.06554     777.196E-03     338.869E-03    -169.312E-03    -169.557E-03    -169.330E-03     338.851E-03    -169.521E-03     5.69649E-03    -151.013E+06    -168.607E+06    -352.296E+06    -168.647E+06    -352.256E+06    -151.013E+06     2.36794E+06         48.9467
            1670     2.53353E-03     117.511E-03         3.19753        -1.06667        -1.36905        -1.12830         2.95677        -1.06667        -1.80884     339.354E-03    -169.508E-03    -169.846E-03    -169.616E-03     339.295E-03    -169.679E-03     10.5407E-03    -127.441E+06    -160.019E+06    -336.852E+06    -160.069E+06    -336.802E+06    -127.441E+06     2.17732E+06         49.2524
            1671     3.37627E-03     117.521E-03         3.04683        -1.08188        -1.19545        -1.15253         3.00390        -1.08188    -653.564E-03     339.501E-03    -169.495E-03    -170.006E-03    -169.494E-03     339.370E-03    -169.876E-03     16.0919E-03    -100.069E+06    -147.838E+06    -315.178E+06    -147.886E+06    -315.130E+06    -100.069E+06     2.31104E+06         49.6675
            1672     4.21989E-03     117.537E-03         3.07931        -1.09203        -1.20799        -1.16827         3.03960        -1.09203    -646.893E-03     338.765E-03    -168.817E-03    -169.948E-03    -168.565E-03     338.513E-03    -169.948E-03     22.3349E-03    -73.9546E+06    -135.259E+06    -282.855E+06    -135.312E+06    -282.802E+06    -73.9546E+06     2.52583E+06         50.1803
            1673     5.06689E-03     117.564E-03         3.06214        -1.09105        -1.17222        -1.12559         3.01750        -1.09304    -261.392E-03     338.555E-03    -168.652E-03    -169.903E-03    -168.180E-03     338.083E-03    -169.903E-03     30.5940E-03    -52.0878E+06    -122.722E+06    -239.274E+06    -122.814E+06    -239.182E+06    -52.0878E+06     3.02786E+06         50.7725
            1674     5.90974E-03     117.603E-03         2.98605        -1.05314        -1.10542        -1.06336         2.97274        -1.08188     116.256E-03     339.014E-03    -169.120E-03    -169.894E-03    -168.333E-03     338.227E-03    -169.894E-03     39.7191E-03    -30.5539E+06    -110.235E+06    -193.976E+06    -110.475E+06    -193.736E+06    -30.5539E+06     4.16346E+06         51.4166
            1675     6.75423E-03     117.650E-03         2.91403        -1.00112        -1.06075    -997.257E-03         2.91017        -1.06075    -197.408E-03     338.981E-03    -169.075E-03    -169.906E-03    -167.835E-03     337.740E-03    -169.906E-03     49.8085E-03    -9.05941E+06    -97.4960E+06    -147.711E+06    -98.4033E+06    -146.804E+06    -9.05941E+06     5.71488E+06         52.0802
            1676     7.60044E-03     117.715E-03         2.86004    -957.946E-03        -1.03328    -956.341E-03         2.85844        -1.03328     64.0388E-03     339.200E-03    -169.308E-03    -169.892E-03    -167.538E-03     337.430E-03    -169.892E-03     59.7491E-03     11.9271E+06    -77.7800E+06    -105.018E+06    -86.8475E+06    -95.9504E+06     11.9271E+06     7.92068E+06         52.7362
            1677     8.44312E-03     117.786E-03         2.83319    -943.326E-03        -1.01347    -927.236E-03         2.80673        -1.00309    -334.482E-03     339.886E-03    -169.756E-03    -170.130E-03    -167.742E-03     337.624E-03    -169.883E-03     67.6722E-03     33.1505E+06    -29.7989E+06    -79.5490E+06    -76.1459E+06    -33.2020E+06     33.1505E+06     9.48592E+06         53.3738
            1678     9.28828E-03     117.872E-03         2.79361    -928.296E-03    -984.949E-03    -909.608E-03         2.76186    -971.888E-03    -214.144E-03     339.948E-03    -169.612E-03    -170.336E-03    -167.281E-03     337.155E-03    -169.874E-03     75.1686E-03     59.2267E+06     36.7813E+06    -65.8736E+06    -64.7735E+06     38.8280E+06     56.0798E+06     10.3107E+06         54.0155
            1679     10.1332E-03     117.967E-03         2.74572    -900.782E-03    -957.916E-03    -887.434E-03         2.71462    -940.164E-03    -202.120E-03     339.942E-03    -169.614E-03    -170.328E-03    -166.785E-03     336.611E-03    -169.826E-03     82.1096E-03     90.7096E+06     72.6656E+06    -53.2676E+06    -52.3237E+06     89.7658E+06     72.6656E+06     11.3846E+06         54.7397
            1680     10.9783E-03     118.067E-03         2.70969    -875.453E-03    -936.394E-03    -859.973E-03         2.66591    -908.099E-03    -52.8532E-03     340.626E-03    -169.812E-03    -170.814E-03    -167.138E-03     336.949E-03    -169.812E-03     86.3983E-03     108.010E+06     85.6266E+06    -42.7893E+06    -42.0090E+06     107.229E+06     85.6266E+06     10.7443E+06         55.6987
            1681     11.8221E-03     118.173E-03         2.61413    -818.409E-03    -887.576E-03    -811.969E-03         2.59446    -874.348E-03     421.737E-03     341.774E-03    -169.864E-03    -171.910E-03    -167.486E-03     337.349E-03    -169.864E-03     94.6728E-03     112.344E+06     102.240E+06    -33.1379E+06    -32.6843E+06     111.890E+06     102.240E+06     7.74340E+06         57.1227
            1682     12.6677E-03     118.296E-03         2.52495    -767.977E-03    -842.082E-03    -762.075E-03         2.51577    -838.804E-03     292.903E-03     341.491E-03    -169.883E-03    -171.608E-03    -167.137E-03     337.019E-03    -169.883E-03     95.1674E-03     117.794E+06     113.890E+06    -22.4447E+06    -22.2652E+06     117.614E+06     113.890E+06     4.72018E+06         59.2528
            1683     13.5144E-03     118.409E-03         2.44797    -720.956E-03    -806.522E-03    -716.836E-03         2.43625    -798.915E-03     373.770E-03     345.353E-03    -169.848E-03    -175.505E-03    -168.013E-03     337.862E-03    -169.848E-03     120.271E-03     125.142E+06     118.646E+06    -13.9887E+06    -13.9138E+06     125.067E+06     118.646E+06     3.14681E+06         62.0888
            1684     14.3594E-03     118.605E-03         2.37630    -671.051E-03    -768.623E-03    -678.376E-03         2.37313    -758.130E-03     111.392E-03     344.547E-03    -169.470E-03    -175.077E-03    -168.313E-03     338.128E-03    -169.815E-03     105.510E-03     136.681E+06     124.992E+06    -7.06631E+06    -7.03766E+06     136.652E+06     124.992E+06     1.74361E+06         65.0347
            1685     844.255E-06     118.907E-03         6.59605        -1.50614        -4.52536     366.907E-03         1.70378        -1.50614        -5.03950     338.069E-03    -168.761E-03    -169.308E-03    -169.235E-03     338.064E-03    -168.829E-03     2.60102E-03    -171.686E+06    -177.360E+06    -368.123E+06    -175.299E+06    -368.068E+06    -173.801E+06    -353.767E+03         48.7028
            1686     1.68953E-03     118.908E-03         3.21982    -572.578E-03        -2.09707    -585.920E-03         1.70867    -572.578E-03         1.17868     338.214E-03    -168.955E-03    -169.260E-03    -169.053E-03     338.196E-03    -169.144E-03     5.77646E-03    -156.502E+06    -170.058E+06    -356.131E+06    -170.105E+06    -356.083E+06    -156.502E+06     1.64999E+06         48.8973
            1687     2.53394E-03     118.913E-03         2.30237    -587.205E-03        -1.15198    -666.997E-03         1.81738    -587.205E-03        -1.94452     338.500E-03    -168.972E-03    -169.528E-03    -169.130E-03     338.442E-03    -169.312E-03     10.4908E-03    -129.204E+06    -160.806E+06    -337.556E+06    -160.854E+06    -337.508E+06    -129.204E+06     2.42427E+06         49.2089
            1688     3.37846E-03     118.926E-03         1.95163    -610.761E-03    -760.492E-03    -721.374E-03         1.91251    -610.761E-03    -557.606E-03     338.953E-03    -169.273E-03    -169.680E-03    -169.304E-03     338.813E-03    -169.509E-03     16.5189E-03    -101.749E+06    -149.494E+06    -315.002E+06    -149.535E+06    -314.961E+06    -101.749E+06     1.32895E+06         49.6323
            1689     4.22244E-03     118.940E-03         2.05901    -631.590E-03    -826.948E-03    -757.458E-03         1.98952    -631.590E-03    -819.973E-03     339.461E-03    -169.418E-03    -170.043E-03    -169.480E-03     339.190E-03    -169.710E-03     23.2134E-03    -77.1023E+06    -136.568E+06    -283.820E+06    -136.591E+06    -283.796E+06    -77.1023E+06     878.970E+03         50.1527
            1690     5.06449E-03     118.966E-03         2.05090    -644.187E-03    -785.943E-03    -744.409E-03         2.00937    -644.187E-03    -359.097E-03     339.039E-03    -168.913E-03    -170.126E-03    -168.723E-03     338.557E-03    -169.834E-03     30.9752E-03    -54.8771E+06    -124.149E+06    -241.639E+06    -124.186E+06    -241.602E+06    -54.8771E+06     1.67868E+06         50.7478
            1691     5.91124E-03     119.005E-03         2.00068    -642.966E-03    -713.479E-03    -699.801E-03         1.98893    -644.890E-03    -101.902E-03     338.496E-03    -168.650E-03    -169.846E-03    -167.849E-03     337.695E-03    -169.846E-03     39.9978E-03    -32.7672E+06    -111.471E+06    -195.930E+06    -111.570E+06    -195.830E+06    -32.7672E+06     2.36569E+06         51.3912
            1692     6.75543E-03     119.055E-03         1.96076    -629.787E-03    -661.937E-03    -644.405E-03         1.94807    -634.628E-03    -311.744E-03     338.620E-03    -168.805E-03    -169.815E-03    -167.586E-03     337.401E-03    -169.815E-03     49.4518E-03    -11.8027E+06    -98.6511E+06    -151.404E+06    -99.0801E+06    -150.975E+06    -11.8027E+06     3.67916E+06         52.0536
            1693     7.59941E-03     119.115E-03         1.91741    -606.687E-03    -623.550E-03    -609.618E-03         1.91340    -616.612E-03    -64.1789E-03     338.953E-03    -169.167E-03    -169.787E-03    -167.382E-03     337.169E-03    -169.787E-03     59.8517E-03     8.86238E+06    -81.7063E+06    -107.806E+06    -87.1985E+06    -102.314E+06     8.86238E+06     6.49362E+06         52.7088
            1694     8.44564E-03     119.194E-03         1.92123    -587.717E-03    -638.307E-03    -594.471E-03         1.88440    -594.724E-03    -371.964E-03     339.613E-03    -169.601E-03    -170.012E-03    -167.514E-03     337.279E-03    -169.765E-03     68.7395E-03     31.3318E+06    -33.0972E+06    -78.8735E+06    -75.1193E+06    -36.8514E+06     31.3318E+06     8.74597E+06         53.3462
            1695     9.28797E-03     119.275E-03         1.91114    -571.947E-03    -638.817E-03    -596.495E-03         1.86882    -571.947E-03    -245.694E-03     339.838E-03    -169.538E-03    -170.301E-03    -167.269E-03     337.023E-03    -169.753E-03     75.4833E-03     57.3569E+06     36.4142E+06    -64.1377E+06    -63.2429E+06     37.3727E+06     55.5036E+06     9.00476E+06         53.9875
            1696     10.1346E-03     119.368E-03         1.89125    -549.236E-03    -634.845E-03    -599.693E-03         1.85610    -549.236E-03    -205.142E-03     339.756E-03    -169.502E-03    -170.254E-03    -166.733E-03     336.447E-03    -169.714E-03     81.8214E-03     86.6897E+06     71.2402E+06    -53.1766E+06    -52.5213E+06     86.0344E+06     71.2402E+06     9.44263E+06         54.7088
            1697     10.9799E-03     119.472E-03         1.88832    -526.683E-03    -645.704E-03    -599.098E-03         1.84172    -526.683E-03    -84.6796E-03     340.032E-03    -169.687E-03    -170.346E-03    -166.686E-03     336.372E-03    -169.687E-03     86.1123E-03     107.709E+06     84.9228E+06    -42.7478E+06    -42.0240E+06     106.986E+06     84.9228E+06     10.3212E+06         55.6615
            1698     11.8255E-03     119.577E-03         1.82616    -502.430E-03    -599.187E-03    -580.597E-03         1.80829    -503.152E-03     333.254E-03     341.713E-03    -169.734E-03    -171.980E-03    -167.500E-03     337.233E-03    -169.734E-03     95.2478E-03     118.313E+06     104.444E+06    -32.1792E+06    -31.7136E+06     117.847E+06     104.444E+06     7.94381E+06         57.0795
            1699     12.6688E-03     119.703E-03         1.77827    -478.092E-03    -566.666E-03    -559.596E-03         1.77192    -478.814E-03     207.081E-03     342.173E-03    -169.788E-03    -172.385E-03    -167.927E-03     337.714E-03    -169.788E-03     95.0731E-03     121.378E+06     114.816E+06    -23.8817E+06    -23.7095E+06     121.206E+06     114.816E+06     4.86482E+06         59.2121
            1700     13.5131E-03     119.809E-03         1.74515    -451.010E-03    -549.863E-03    -541.418E-03         1.73670    -451.010E-03     270.908E-03     345.135E-03    -169.782E-03    -175.353E-03    -167.890E-03     337.672E-03    -169.782E-03     119.693E-03     125.556E+06     117.969E+06    -16.1516E+06    -16.0374E+06     125.441E+06     117.969E+06     3.98953E+06         62.0738
            1701     14.3606E-03     120.009E-03         1.71440    -422.528E-03    -533.581E-03    -530.386E-03         1.71121    -422.528E-03     50.7809E-03     343.886E-03    -169.348E-03    -174.537E-03    -167.703E-03     337.438E-03    -169.735E-03     105.470E-03     139.393E+06     125.775E+06    -7.80502E+06    -7.74808E+06     139.336E+06     125.775E+06     2.42649E+06         65.0671
            1702     845.680E-06     120.307E-03         6.25938    -856.299E-03        -5.08888     549.478E-03     621.028E-03    -856.299E-03        -5.17669     337.513E-03    -168.580E-03    -168.934E-03    -168.930E-03     337.509E-03    -168.580E-03     2.34554E-03    -173.432E+06    -178.263E+06    -368.682E+06    -178.288E+06    -368.657E+06    -173.432E+06     646.042E+03         48.6412
            1703     1.68980E-03     120.308E-03         2.76124    -165.629E-03        -2.25091    -217.172E-03     727.499E-03    -165.629E-03         1.22980     337.873E-03    -168.840E-03    -169.034E-03    -168.954E-03     337.853E-03    -168.899E-03     5.95736E-03    -159.255E+06    -172.844E+06    -357.971E+06    -172.867E+06    -357.948E+06    -159.255E+06     453.998E+03         48.8375
            1704     2.53389E-03     120.315E-03         1.55088    -188.724E-03    -987.999E-03    -260.387E-03     823.265E-03    -188.724E-03        -1.91974     338.044E-03    -168.814E-03    -169.230E-03    -168.895E-03     337.988E-03    -169.093E-03     10.4814E-03    -132.662E+06    -162.440E+06    -338.838E+06    -162.473E+06    -338.806E+06    -132.662E+06     875.392E+03         49.1523
            1705     3.37942E-03     120.324E-03         1.03294    -212.990E-03    -431.307E-03    -336.295E-03     937.930E-03    -212.990E-03    -565.390E-03     338.289E-03    -168.935E-03    -169.354E-03    -168.895E-03     338.157E-03    -169.261E-03     16.0639E-03    -104.455E+06    -150.691E+06    -312.889E+06    -150.722E+06    -312.857E+06    -104.455E+06     130.502E+03         49.5810
            1706     4.22344E-03     120.346E-03         1.17511    -235.238E-03    -536.215E-03    -352.502E-03     991.400E-03    -235.238E-03    -957.699E-03     338.854E-03    -169.087E-03    -169.767E-03    -169.141E-03     338.575E-03    -169.435E-03     23.4622E-03    -80.0265E+06    -138.381E+06    -282.972E+06    -138.413E+06    -282.940E+06    -80.0265E+06    -1.07892E+06         50.1088
            1707     5.06708E-03     120.371E-03         1.10811    -247.696E-03    -439.232E-03    -341.822E-03         1.01070    -247.696E-03    -520.915E-03     339.077E-03    -169.033E-03    -170.044E-03    -168.967E-03     338.561E-03    -169.594E-03     32.0410E-03    -57.2241E+06    -124.599E+06    -242.789E+06    -124.677E+06    -242.711E+06    -57.2241E+06    -1.51580E+06         50.7120
            1708     5.90982E-03     120.406E-03         1.04714    -249.416E-03    -353.778E-03    -303.706E-03     997.065E-03    -249.416E-03    -324.014E-03     338.700E-03    -168.868E-03    -169.832E-03    -168.171E-03     337.845E-03    -169.674E-03     41.3346E-03    -35.7189E+06    -111.248E+06    -197.681E+06    -111.299E+06    -197.630E+06    -35.7189E+06    -700.846E+03         51.3616
            1709     6.75592E-03     120.458E-03         1.04134    -241.271E-03    -329.862E-03    -262.073E-03     973.548E-03    -241.271E-03    -468.210E-03     338.637E-03    -168.947E-03    -169.690E-03    -167.689E-03     337.378E-03    -169.690E-03     50.3004E-03    -15.0966E+06    -98.8576E+06    -155.190E+06     -99.006E+06    -155.042E+06    -15.0966E+06     1.05801E+06         52.0273
            1710     7.60103E-03     120.518E-03     970.746E-03    -226.078E-03    -254.826E-03    -230.533E-03     946.454E-03    -226.079E-03    -218.440E-03     338.787E-03    -169.110E-03    -169.677E-03    -167.310E-03     336.987E-03    -169.677E-03     60.0956E-03     6.10600E+06    -84.0551E+06    -109.757E+06    -86.1476E+06    -107.664E+06     6.10600E+06     3.18246E+06         52.6829
            1711     8.44515E-03     120.595E-03         1.01807    -207.504E-03    -310.484E-03    -231.284E-03     938.873E-03    -207.505E-03    -447.932E-03     338.825E-03    -169.203E-03    -169.622E-03    -166.826E-03     336.447E-03    -169.622E-03     69.2478E-03     27.8364E+06    -39.0171E+06    -77.7540E+06    -73.8262E+06    -42.9449E+06     27.8364E+06     6.16358E+06         53.3198
            1712     9.29262E-03     120.680E-03         1.03490    -189.478E-03    -340.583E-03    -261.912E-03     956.233E-03    -189.478E-03    -310.548E-03     339.712E-03    -169.479E-03    -170.233E-03    -167.287E-03     336.874E-03    -169.587E-03     75.8139E-03     55.6292E+06     32.2296E+06    -64.2724E+06    -63.3071E+06     34.1912E+06     52.7023E+06     9.55195E+06         53.9614
            1713     10.1344E-03     120.772E-03         1.03306    -173.708E-03    -351.410E-03    -300.631E-03     982.282E-03    -173.708E-03    -245.519E-03     340.267E-03    -169.598E-03    -170.669E-03    -167.391E-03     336.989E-03    -169.598E-03     81.5369E-03     85.4151E+06     70.4353E+06    -55.1645E+06    -54.3557E+06     84.6062E+06     70.4353E+06     10.4589E+06         54.6803
            1714     10.9799E-03     120.873E-03         1.07778    -160.180E-03    -403.727E-03    -341.003E-03         1.01505    -160.180E-03    -133.896E-03     339.986E-03    -169.610E-03    -170.377E-03    -166.771E-03     336.381E-03    -169.610E-03     85.4832E-03     108.082E+06     83.9825E+06    -45.4764E+06    -44.9308E+06     107.536E+06     83.9825E+06     8.94319E+06         55.6245
            1715     11.8260E-03     120.980E-03         1.04880    -147.204E-03    -378.261E-03    -362.354E-03         1.03289    -147.204E-03     236.258E-03     341.043E-03    -169.640E-03    -171.403E-03    -166.963E-03     336.603E-03    -169.640E-03     94.6666E-03     121.196E+06     102.281E+06    -35.7785E+06    -35.4006E+06     120.818E+06     102.281E+06     7.57193E+06         57.0318
            1716     12.6710E-03     121.110E-03         1.03721    -134.330E-03    -368.832E-03    -365.926E-03         1.03430    -134.330E-03     111.630E-03     341.515E-03    -169.673E-03    -171.842E-03    -167.393E-03     337.066E-03    -169.673E-03     94.8483E-03     123.527E+06     114.459E+06    -26.2223E+06    -25.9554E+06     123.260E+06     114.459E+06      6.2206E+06         59.1663
            1717     13.5154E-03     121.212E-03         1.03040    -118.334E-03    -367.120E-03    -361.089E-03         1.02437    -118.334E-03     176.001E-03     345.237E-03    -169.670E-03    -175.566E-03    -168.069E-03     337.739E-03    -169.670E-03     119.949E-03     128.294E+06     119.686E+06    -16.8286E+06    -16.6843E+06     128.150E+06     119.686E+06     3.85772E+06         62.0586
            1718     14.3613E-03     121.409E-03         1.03449    -101.239E-03    -374.203E-03    -367.926E-03         1.02822    -101.239E-03     12.4262E-03     343.908E-03    -169.124E-03    -174.784E-03    -167.736E-03     337.371E-03    -169.635E-03     106.614E-03     142.057E+06     127.265E+06    -8.26510E+06    -8.22659E+06     142.019E+06     127.265E+06     1.59582E+06         65.1054
            1719     844.336E-06     121.706E-03         4.43836    -188.491E-03        -4.15487     575.933E-03    -292.439E-03    -188.491E-03        -3.86791     337.237E-03    -168.121E-03    -169.116E-03    -169.038E-03     337.232E-03    -168.194E-03     2.75618E-03    -176.145E+06    -181.848E+06    -370.253E+06    -180.960E+06    -370.242E+06    -177.043E+06     403.216E+03         48.5667
            1720     1.68980E-03     121.710E-03         1.84311     171.514E-03        -1.88947     79.8043E-03    -126.161E-03     171.514E-03     981.068E-03     337.351E-03    -168.600E-03    -168.752E-03    -168.596E-03     337.328E-03    -168.732E-03     6.42568E-03    -158.677E+06    -174.883E+06    -358.018E+06    -174.892E+06    -358.009E+06    -158.677E+06     488.293E+03         48.7634
            1721     2.53543E-03     121.715E-03     913.764E-03     139.622E-03    -907.143E-03     76.0960E-03    -69.4754E-03     139.622E-03        -1.61994     337.752E-03    -168.815E-03    -168.937E-03    -168.804E-03     337.688E-03    -168.884E-03     11.1118E-03    -135.013E+06    -164.861E+06    -337.093E+06    -164.873E+06    -337.081E+06    -135.013E+06    -1.16155E+06         49.0799
            1722     3.37841E-03     121.728E-03     486.443E-03     118.522E-03    -427.373E-03     12.2951E-03     46.7752E-03     118.522E-03    -640.468E-03     337.867E-03    -168.763E-03    -169.104E-03    -168.665E-03     337.716E-03    -169.052E-03     17.0627E-03    -109.335E+06    -152.841E+06    -310.406E+06    -152.912E+06    -310.335E+06    -109.335E+06    -2.39022E+06         49.5112
            1723     4.22350E-03     121.745E-03     639.827E-03     102.189E-03    -545.428E-03     28.0233E-03     66.3753E-03     102.189E-03    -982.141E-03     337.627E-03    -168.476E-03    -169.151E-03    -168.176E-03     337.327E-03    -169.151E-03     24.2945E-03     -84.345E+06    -140.097E+06    -279.945E+06    -140.265E+06    -279.777E+06     -84.345E+06    -3.96332E+06         50.0445
            1724     5.06971E-03     121.773E-03     577.636E-03     97.1748E-03    -456.655E-03     49.0777E-03     71.9036E-03     97.1748E-03    -679.842E-03     338.032E-03    -168.660E-03    -169.371E-03    -168.284E-03     337.497E-03    -169.213E-03     32.6036E-03    -61.6842E+06    -126.434E+06    -241.002E+06    -126.760E+06    -240.676E+06    -61.6842E+06    -5.64937E+06         50.6585
            1725     5.91416E-03     121.811E-03     499.911E-03     101.601E-03    -364.240E-03     94.6132E-03     41.0580E-03     101.601E-03    -478.247E-03     338.619E-03    -169.047E-03    -169.572E-03    -168.418E-03     337.728E-03    -169.311E-03     42.1863E-03    -40.6140E+06    -113.393E+06    -199.943E+06    -113.778E+06    -199.558E+06    -40.6140E+06    -4.92999E+06         51.3218
            1726     6.75710E-03     121.858E-03     528.821E-03     113.549E-03    -386.332E-03     121.844E-03     20.6441E-03     113.549E-03    -632.404E-03     338.865E-03    -169.190E-03    -169.675E-03    -168.094E-03     337.503E-03    -169.409E-03     52.2981E-03    -19.5104E+06    -100.131E+06    -158.070E+06    -100.449E+06    -157.751E+06    -19.5104E+06    -3.25087E+06         51.9995
            1727     7.60129E-03     121.923E-03     440.816E-03     129.406E-03    -295.689E-03     135.191E-03     9.93668E-03     129.406E-03    -375.449E-03     339.136E-03    -169.200E-03    -169.936E-03    -167.813E-03     337.287E-03    -169.474E-03     61.0930E-03     1.12837E+06    -86.8131E+06    -113.171E+06    -87.3827E+06    -112.602E+06     1.12837E+06    -1.40642E+06         52.6623
            1728     8.44762E-03     121.995E-03     495.832E-03     146.136E-03    -354.643E-03     116.990E-03     24.1987E-03     146.136E-03    -563.549E-03     339.090E-03    -169.223E-03    -169.867E-03    -167.256E-03     336.742E-03    -169.487E-03     68.8420E-03     22.6916E+06    -45.7845E+06    -79.9755E+06    -74.9465E+06    -50.8135E+06     22.6916E+06     2.53126E+06         53.3002
            1729     9.29115E-03     122.084E-03     500.219E-03     130.991E-03    -338.258E-03     69.9449E-03     62.2009E-03     160.807E-03    -416.634E-03     339.043E-03    -169.155E-03    -169.889E-03    -166.729E-03     336.189E-03    -169.460E-03     75.9137E-03     49.0848E+06     23.2068E+06    -63.9259E+06    -63.0013E+06     23.6601E+06     47.7069E+06     8.82025E+06         53.9387
            1730     10.1375E-03     122.177E-03     470.053E-03     130.783E-03    -306.914E-03     614.952E-06     121.812E-03     171.495E-03    -341.359E-03     339.907E-03    -169.237E-03    -170.670E-03    -167.144E-03     336.583E-03    -169.439E-03     82.0577E-03     86.2314E+06     66.0346E+06    -53.6338E+06    -52.2741E+06     82.9774E+06     67.9290E+06     13.4225E+06         54.6534
            1731     10.9812E-03     122.276E-03     506.582E-03     89.2034E-03    -299.480E-03    -75.5517E-03     194.160E-03     177.696E-03    -229.640E-03     340.745E-03    -169.478E-03    -171.267E-03    -167.565E-03     337.043E-03    -169.478E-03     86.7403E-03     114.425E+06     83.3564E+06    -45.1244E+06    -44.2113E+06     113.512E+06     83.3564E+06     11.3851E+06         55.5903
            1732     11.8248E-03     122.384E-03     500.423E-03     20.1135E-03    -215.962E-03    -123.751E-03     246.522E-03     181.804E-03     89.9290E-03     341.117E-03    -169.554E-03    -171.563E-03    -167.044E-03     336.599E-03    -169.554E-03     95.5630E-03     122.714E+06     101.291E+06    -36.4636E+06    -36.0837E+06     122.334E+06     101.291E+06     7.60071E+06         56.9867
            1733     12.6719E-03     122.509E-03     502.287E-03     19.3107E-03    -204.993E-03    -144.271E-03     275.372E-03     185.503E-03    -25.3889E-03     340.439E-03    -169.559E-03    -170.880E-03    -166.421E-03     335.989E-03    -169.568E-03     94.6589E-03     125.555E+06     114.743E+06    -26.3971E+06    -26.1624E+06     125.320E+06     114.743E+06     5.71919E+06         59.1206
            1734     13.5189E-03     122.618E-03     505.014E-03     17.7830E-03    -194.570E-03    -158.824E-03     294.875E-03     192.177E-03     44.4715E-03     344.508E-03    -169.523E-03    -174.985E-03    -167.586E-03     337.118E-03    -169.532E-03     119.071E-03     131.646E+06     121.312E+06    -16.8426E+06    -16.7427E+06     131.546E+06     121.312E+06     2.94276E+06         62.0436
            1735     14.3639E-03     122.811E-03     517.141E-03     48.0732E-03    -220.005E-03    -189.293E-03     334.891E-03     199.611E-03    -52.6520E-03     344.192E-03    -169.294E-03    -174.898E-03    -168.234E-03     337.746E-03    -169.512E-03     106.118E-03     144.346E+06     129.164E+06    -8.22321E+06    -8.21357E+06     144.337E+06     129.164E+06     762.752E+03         65.1454
            1736     845.705E-06     123.106E-03         1.95307     361.455E-03        -2.38145     554.593E-03        -1.05700     435.478E-03        -1.58408     336.428E-03    -167.540E-03    -168.888E-03    -168.807E-03     336.420E-03    -167.613E-03     3.40731E-03    -178.101E+06    -184.882E+06    -370.386E+06    -183.987E+06    -370.383E+06    -179.000E+06    -163.300E+03         48.4678
            1737     1.69072E-03     123.108E-03     963.761E-03     392.794E-03        -1.43789     350.591E-03    -898.742E-03     466.816E-03     346.598E-03     336.760E-03    -168.271E-03    -168.489E-03    -168.374E-03     336.731E-03    -168.357E-03     7.26893E-03    -161.904E+06    -177.110E+06    -356.746E+06    -177.115E+06    -356.741E+06    -161.904E+06    -638.544E+03         48.6663
            1738     2.53485E-03     123.116E-03     716.736E-03     431.369E-03        -1.22905     383.494E-03    -895.809E-03     431.369E-03        -1.11571     336.786E-03    -168.290E-03    -168.496E-03    -168.212E-03     336.707E-03    -168.496E-03     12.2809E-03    -140.132E+06    -168.363E+06    -332.022E+06    -168.434E+06    -331.951E+06    -140.132E+06    -2.50327E+06         48.9862
            1739     3.38122E-03     123.128E-03     528.289E-03     413.847E-03    -984.535E-03     325.390E-03    -782.622E-03     414.833E-03    -774.964E-03     336.768E-03    -168.174E-03    -168.594E-03    -168.003E-03     336.597E-03    -168.594E-03     18.2796E-03    -115.472E+06    -156.423E+06    -305.302E+06    -156.711E+06    -305.014E+06    -115.472E+06    -5.82150E+06         49.4235
            1740     4.22635E-03     123.146E-03     620.136E-03     402.336E-03        -1.03856     359.730E-03    -779.144E-03     403.322E-03    -916.881E-03     336.844E-03    -168.168E-03    -168.675E-03    -167.835E-03     336.510E-03    -168.675E-03     25.5890E-03    -90.3322E+06    -142.390E+06    -275.670E+06    -142.958E+06    -275.102E+06    -90.3322E+06    -8.24503E+06         49.9661
            1741     5.07013E-03     123.174E-03     616.505E-03     402.913E-03        -1.01566     379.478E-03    -778.637E-03     402.913E-03    -878.583E-03     337.122E-03    -168.311E-03    -168.812E-03    -167.783E-03     336.530E-03    -168.747E-03     34.2343E-03    -67.2739E+06    -129.828E+06    -237.814E+06    -130.653E+06    -236.990E+06    -67.2739E+06    -9.03407E+06         50.5932
            1742     5.91555E-03     123.212E-03     554.276E-03     410.187E-03    -948.541E-03     427.091E-03    -821.356E-03     410.187E-03    -645.498E-03     338.002E-03    -168.705E-03    -169.297E-03    -168.212E-03     337.075E-03    -168.863E-03     43.0805E-03    -45.5149E+06    -116.746E+06    -200.009E+06    -118.046E+06    -198.709E+06    -45.5149E+06    -9.79186E+06         51.2729
            1743     6.76094E-03     123.263E-03     600.332E-03     423.228E-03    -989.144E-03     447.863E-03    -836.675E-03     423.228E-03    -862.650E-03     338.849E-03    -169.021E-03    -169.829E-03    -168.461E-03     337.482E-03    -169.021E-03     52.4278E-03    -25.5388E+06    -102.826E+06    -161.375E+06    -104.542E+06    -159.659E+06    -25.5388E+06    -9.16671E+06         51.9670
            1744     7.60532E-03     123.325E-03     523.773E-03     438.464E-03    -909.866E-03     456.248E-03    -842.341E-03     438.464E-03    -589.739E-03     339.464E-03    -169.179E-03    -170.285E-03    -168.384E-03     337.563E-03    -169.179E-03     61.9532E-03    -5.00912E+06    -89.0966E+06    -118.216E+06    -91.4218E+06    -115.891E+06    -5.00912E+06    -6.81922E+06         52.6427
            1745     8.44656E-03     123.401E-03     545.623E-03     453.184E-03    -935.425E-03     429.257E-03    -819.060E-03     453.184E-03    -761.133E-03     339.611E-03    -169.282E-03    -170.329E-03    -167.913E-03     337.195E-03    -169.282E-03     69.9349E-03     15.8033E+06    -52.8796E+06    -84.6556E+06    -78.1962E+06    -59.3390E+06     15.8033E+06    -3.26203E+06         53.2872
            1746     9.29268E-03     123.483E-03     513.207E-03     405.515E-03    -852.373E-03     367.857E-03    -765.946E-03     464.438E-03    -583.761E-03     339.053E-03    -169.104E-03    -169.949E-03    -166.833E-03     336.138E-03    -169.305E-03     76.7184E-03     38.7683E+06     7.54986E+06    -65.4556E+06    -64.7476E+06     6.84183E+06     38.7683E+06     4.53517E+06         53.9245
            1747     10.1391E-03     123.579E-03     470.688E-03     366.479E-03    -772.470E-03     282.708E-03    -688.699E-03     470.688E-03    -506.625E-03     339.324E-03    -169.066E-03    -170.257E-03    -166.677E-03     335.945E-03    -169.267E-03     82.6649E-03     83.1579E+06     54.1756E+06    -53.1839E+06    -51.9553E+06     75.3925E+06     60.7123E+06     12.3408E+06         54.6325
            1748     10.9839E-03     123.683E-03     472.025E-03     279.178E-03    -686.221E-03     202.778E-03    -609.821E-03     472.025E-03    -398.186E-03     340.183E-03    -169.283E-03    -170.899E-03    -167.202E-03     336.485E-03    -169.283E-03     86.6132E-03     120.347E+06     81.0516E+06    -42.2756E+06    -41.1730E+06     119.244E+06     81.0516E+06     13.0779E+06         55.5598
            1749     11.8291E-03     123.786E-03     471.304E-03     163.884E-03    -565.474E-03     154.283E-03    -555.874E-03     471.304E-03    -129.254E-03     341.391E-03    -169.393E-03    -171.998E-03    -167.467E-03     336.859E-03    -169.393E-03     95.7384E-03     127.301E+06     102.895E+06    -32.9052E+06    -32.2882E+06     126.684E+06     102.895E+06     9.73612E+06         56.9462
            1750     12.6729E-03     123.913E-03     470.098E-03     143.027E-03    -534.269E-03     117.190E-03    -508.431E-03     470.098E-03    -213.404E-03     341.032E-03    -169.457E-03    -171.575E-03    -167.146E-03     336.612E-03    -169.466E-03     94.3841E-03     130.197E+06     117.860E+06    -24.0556E+06    -23.8039E+06     129.945E+06     117.860E+06     5.67803E+06         59.0771
            1751     13.5186E-03     124.016E-03     470.786E-03     102.565E-03    -481.013E-03     72.2846E-03    -450.732E-03     470.786E-03    -126.112E-03     344.296E-03    -169.454E-03    -174.842E-03    -167.564E-03     337.026E-03    -169.463E-03     117.895E-03     135.960E+06     123.990E+06    -15.3045E+06    -15.2546E+06     135.910E+06     123.990E+06     2.64782E+06         62.0213
            1752     14.3657E-03     124.216E-03     470.953E-03     87.5373E-03    -450.038E-03     8.71484E-03    -371.216E-03     470.953E-03    -144.576E-03     343.525E-03    -168.964E-03    -174.561E-03    -167.746E-03     337.183E-03    -169.437E-03     104.859E-03     145.875E+06     130.864E+06    -7.06037E+06    -7.04181E+06     145.857E+06     130.864E+06     1.40069E+06         65.1713
            1753     846.020E-06     124.503E-03         1.95309     744.979E-03        -3.02274     654.208E-03        -1.79788     819.002E-03         1.21672     335.240E-03    -167.030E-03    -168.209E-03    -168.130E-03     335.230E-03    -167.100E-03     3.74305E-03    -182.526E+06    -189.979E+06    -368.883E+06    -188.135E+06    -368.879E+06    -184.374E+06    -18.6103E+03         48.3372
            1754     1.69118E-03     124.508E-03         1.15480     641.699E-03        -2.09556     627.997E-03        -1.64278     715.721E-03    -518.582E-03     335.334E-03    -167.489E-03    -167.845E-03    -167.587E-03     335.300E-03    -167.713E-03     7.99525E-03    -167.815E+06    -181.719E+06    -352.172E+06    -181.814E+06    -352.077E+06    -167.815E+06    -2.69000E+06         48.5405
            1755     2.53761E-03     124.514E-03         1.09667     692.584E-03        -2.07683     677.014E-03        -1.65717     692.584E-03    -573.983E-03     335.173E-03    -167.400E-03    -167.774E-03    -167.305E-03     335.079E-03    -167.774E-03     13.4278E-03    -146.092E+06    -171.633E+06    -325.135E+06    -171.905E+06    -324.862E+06    -146.092E+06    -5.82642E+06         48.8698
            1756     3.38279E-03     124.526E-03     918.037E-03     680.353E-03        -1.85889     593.436E-03        -1.53528     681.339E-03        -1.00915     335.465E-03    -167.577E-03    -167.888E-03    -167.413E-03     335.266E-03    -167.853E-03     19.7341E-03    -121.415E+06    -159.869E+06    -296.903E+06    -160.503E+06    -296.269E+06    -121.415E+06    -8.86167E+06         49.3219
            1757     4.22810E-03     124.546E-03     884.781E-03     667.384E-03        -1.78963     613.258E-03        -1.51909     668.369E-03    -870.464E-03     336.116E-03    -167.834E-03    -168.282E-03    -167.743E-03     335.756E-03    -168.013E-03     26.6519E-03    -95.9745E+06    -147.486E+06    -269.189E+06    -148.784E+06    -267.891E+06    -95.9745E+06    -12.0412E+06         49.8822
            1758     5.07512E-03     124.573E-03     875.838E-03     657.125E-03        -1.74851     616.279E-03        -1.49569     663.868E-03        -1.16477     336.754E-03    -168.080E-03    -168.674E-03    -167.935E-03     336.139E-03    -168.204E-03     34.9187E-03    -72.2845E+06    -133.478E+06    -234.862E+06    -135.565E+06    -232.775E+06    -72.2845E+06    -13.7510E+06         50.5265
            1759     5.91938E-03     124.615E-03     816.912E-03     659.735E-03        -1.67783     665.985E-03        -1.53364     666.478E-03    -880.372E-03     337.618E-03    -168.407E-03    -169.210E-03    -168.240E-03     336.647E-03    -168.407E-03     44.0575E-03    -51.0667E+06    -119.585E+06    -198.278E+06    -122.547E+06    -195.315E+06    -51.0667E+06    -14.4150E+06         51.2223
            1760     6.76198E-03     124.665E-03     867.919E-03     676.313E-03        -1.73144     701.928E-03        -1.56545     676.313E-03        -1.17087     338.594E-03    -168.629E-03    -169.965E-03    -168.560E-03     337.189E-03    -168.629E-03     53.1664E-03    -31.7579E+06    -105.531E+06    -163.382E+06    -110.169E+06    -158.744E+06    -31.7579E+06    -14.8994E+06         51.9320
            1761     7.60548E-03     124.728E-03     801.391E-03     689.720E-03        -1.66739     721.965E-03        -1.58797     689.720E-03    -848.229E-03     338.996E-03    -168.824E-03    -170.172E-03    -168.222E-03     337.046E-03    -168.824E-03     62.6775E-03    -12.0934E+06    -89.1412E+06    -125.770E+06    -96.4935E+06    -118.418E+06    -12.0934E+06    -13.6570E+06         52.6225
            1762     8.45235E-03     124.804E-03     798.673E-03     702.721E-03        -1.67173     692.742E-03        -1.56580     702.721E-03    -994.994E-03     339.392E-03    -168.953E-03    -170.439E-03    -167.957E-03     336.910E-03    -168.953E-03     70.9066E-03     7.47478E+06    -57.1321E+06    -92.9464E+06    -83.5690E+06    -66.5096E+06     7.47478E+06    -9.83408E+06         53.2800
            1763     9.29523E-03     124.886E-03     739.591E-03     668.670E-03        -1.57744     625.706E-03        -1.50638     711.499E-03    -775.609E-03     340.204E-03    -169.068E-03    -171.136E-03    -168.205E-03     337.273E-03    -169.068E-03     77.1493E-03     28.0285E+06    -9.60288E+06    -71.9795E+06    -71.1282E+06    -10.4541E+06     28.0285E+06    -2.48993E+06         53.9237
            1764     10.1386E-03     124.982E-03     715.322E-03     613.694E-03        -1.50211     550.721E-03        -1.43913     715.322E-03    -703.761E-03     339.919E-03    -169.132E-03    -170.787E-03    -167.458E-03     336.590E-03    -169.132E-03     82.1559E-03     74.9995E+06     36.8288E+06    -58.8672E+06    -58.3650E+06     62.0637E+06     49.2624E+06     6.31933E+06          54.625
            1765     10.9850E-03     125.085E-03     715.402E-03     538.226E-03        -1.43203     487.195E-03        -1.38100     715.402E-03    -592.749E-03     339.440E-03    -169.163E-03    -170.277E-03    -166.710E-03     335.873E-03    -169.163E-03     84.9743E-03     119.270E+06     71.4266E+06    -47.7002E+06    -46.9795E+06     118.549E+06     71.4266E+06     10.7974E+06         55.5345
            1766     11.8301E-03     125.190E-03     713.899E-03     457.054E-03        -1.35048     437.972E-03        -1.33140     713.899E-03    -368.687E-03     340.732E-03    -169.268E-03    -171.465E-03    -167.121E-03     336.389E-03    -169.268E-03     93.6168E-03     131.283E+06     97.8676E+06    -37.0053E+06    -36.4307E+06     130.709E+06     97.8676E+06     9.43775E+06         56.9000
            1767     12.6750E-03     125.318E-03     711.243E-03     415.631E-03        -1.30176     388.654E-03        -1.27478     711.243E-03    -416.052E-03     340.951E-03    -169.373E-03    -171.578E-03    -167.262E-03     336.635E-03    -169.373E-03     93.3246E-03     135.806E+06     119.152E+06    -26.3335E+06    -26.0947E+06     135.567E+06     119.152E+06     5.74059E+06         59.0190
            1768     13.5190E-03     125.419E-03     709.014E-03     344.221E-03        -1.22065     324.335E-03        -1.20076     709.014E-03    -304.429E-03     344.549E-03    -169.399E-03    -175.150E-03    -167.768E-03     337.167E-03    -169.399E-03     118.672E-03     140.193E+06     127.325E+06    -16.8212E+06    -16.7472E+06     140.119E+06     127.325E+06     3.30380E+06         61.9789
            1769     14.3640E-03     125.616E-03     704.851E-03     248.410E-03        -1.10752     232.437E-03        -1.09155     704.851E-03    -239.056E-03     342.644E-03    -168.167E-03    -174.477E-03    -166.808E-03     336.162E-03    -169.353E-03     105.930E-03     148.160E+06     133.247E+06    -8.36540E+06    -8.33600E+06     148.130E+06     133.247E+06     1.68385E+06         65.1762
            1770     845.958E-06     125.899E-03         4.44572         1.08140        -6.04377     794.204E-03        -2.39225         1.08140         3.84524     333.262E-03    -165.800E-03    -167.462E-03    -166.333E-03     333.249E-03    -166.916E-03     4.31157E-03    -185.412E+06    -192.570E+06    -363.649E+06    -190.857E+06    -363.515E+06    -187.260E+06    -2.94712E+06         48.1765
            1771     1.69322E-03     125.903E-03         2.17881     921.110E-03        -3.60444     852.486E-03        -2.27812     921.110E-03        -1.34348     333.077E-03    -166.353E-03    -166.724E-03    -166.363E-03     333.032E-03    -166.669E-03     9.15576E-03    -170.214E+06    -182.419E+06    -343.385E+06    -182.747E+06    -343.057E+06    -170.214E+06    -6.43630E+06         48.3908
            1772     2.53977E-03     125.910E-03         1.67674     901.241E-03        -3.07909     878.629E-03        -2.28098     901.241E-03    -129.114E-03     333.431E-03    -166.554E-03    -166.877E-03    -166.588E-03     333.321E-03    -166.733E-03     14.5214E-03    -149.008E+06    -172.879E+06    -316.573E+06    -173.517E+06    -315.935E+06    -149.008E+06    -9.12627E+06         48.7376
            1773     3.38673E-03     125.923E-03         1.28680     888.146E-03        -2.64684     799.744E-03        -2.15979     888.146E-03        -1.30264     334.221E-03    -166.899E-03    -167.322E-03    -167.056E-03     333.993E-03    -166.937E-03     21.1046E-03    -123.522E+06    -161.919E+06    -288.134E+06    -163.104E+06    -286.949E+06    -123.522E+06    -11.7785E+06         49.2120
            1774     4.23272E-03     125.944E-03         1.13806     872.058E-03        -2.46102     795.790E-03        -2.11875     872.058E-03    -895.651E-03     335.643E-03    -167.261E-03    -168.382E-03    -167.978E-03     335.239E-03    -167.261E-03     28.2674E-03    -98.2064E+06    -148.952E+06    -260.040E+06    -151.062E+06    -257.931E+06    -98.2064E+06    -14.8001E+06         49.7968
            1775     5.07506E-03     125.974E-03         1.10592     853.745E-03        -2.38717     799.005E-03        -2.08926     862.747E-03        -1.48928     336.788E-03    -167.640E-03    -169.148E-03    -168.506E-03     336.146E-03    -167.640E-03     35.7793E-03    -76.0406E+06     -135.06E+06    -229.308E+06    -138.856E+06    -225.512E+06    -76.0406E+06    -18.0321E+06         50.4634
            1776     5.92018E-03     126.014E-03         1.03921     852.892E-03        -2.30697     856.090E-03        -2.13286     861.894E-03        -1.14543     337.238E-03    -167.969E-03    -169.269E-03    -168.265E-03     336.234E-03    -167.969E-03     44.7450E-03    -55.7253E+06    -120.624E+06    -196.749E+06    -126.140E+06    -191.233E+06    -55.7253E+06    -19.3833E+06         51.1777
            1777     6.76624E-03     126.068E-03         1.10227     869.689E-03        -2.38080     901.543E-03        -2.18007     869.689E-03        -1.49873     337.958E-03    -168.227E-03    -169.730E-03    -168.276E-03     336.503E-03    -168.227E-03     54.0943E-03    -36.2865E+06    -105.026E+06    -163.154E+06    -113.537E+06    -154.644E+06    -36.2865E+06    -19.6917E+06         51.9042
            1778     7.61029E-03     126.131E-03         1.02934     881.791E-03        -2.31720     928.982E-03        -2.21684     881.791E-03        -1.11205     338.834E-03    -168.461E-03    -170.373E-03    -168.443E-03     336.905E-03    -168.461E-03     62.4201E-03    -18.0692E+06    -87.7166E+06    -132.267E+06    -101.436E+06    -118.547E+06    -18.0692E+06    -19.9026E+06         52.6113
            1779     8.45323E-03     126.205E-03         1.02358     893.860E-03        -2.32351     907.458E-03        -2.20739     893.860E-03        -1.21504     339.727E-03    -168.672E-03    -171.055E-03    -168.633E-03     337.305E-03    -168.672E-03     70.0904E-03     294.345E+03    -58.2444E+06    -102.774E+06    -88.3595E+06    -72.6589E+06     294.345E+03    -17.1795E+06         53.2820
            1780     9.29769E-03     126.294E-03     950.841E-03     889.069E-03        -2.24889     863.476E-03        -2.17524     902.790E-03    -953.110E-03     340.652E-03    -168.881E-03    -171.770E-03    -168.901E-03     337.782E-03    -168.881E-03     76.4224E-03     20.3021E+06    -20.1965E+06    -78.0432E+06    -74.5056E+06    -23.7341E+06     20.3021E+06    -11.2118E+06         53.9306
            1781     10.1400E-03     126.386E-03     918.692E-03     864.567E-03        -2.19999     809.313E-03        -2.13411     908.073E-03    -887.795E-03     340.814E-03    -169.034E-03    -171.780E-03    -168.524E-03     337.558E-03    -169.034E-03     81.4089E-03     62.2248E+06     23.9201E+06    -61.4442E+06    -60.6372E+06     44.7098E+06     40.6283E+06    -1.78292E+06         54.6243
            1782     10.9836E-03     126.486E-03     909.902E-03     801.067E-03        -2.13938     747.280E-03        -2.08559     909.902E-03    -777.777E-03     340.203E-03    -169.139E-03    -171.064E-03    -167.531E-03     336.670E-03    -169.139E-03     84.7013E-03     111.256E+06     64.7993E+06    -48.1977E+06    -47.7843E+06     110.842E+06     64.7993E+06     7.20140E+06         55.5105
            1783     11.8287E-03     126.594E-03     909.338E-03     723.412E-03        -2.07082     691.722E-03        -2.03913     909.338E-03    -590.273E-03     340.061E-03    -169.251E-03    -170.811E-03    -166.539E-03     335.790E-03    -169.251E-03     92.7746E-03     134.675E+06     93.3664E+06    -37.4524E+06    -36.9555E+06     134.178E+06     93.3664E+06     8.98285E+06         56.8413
            1784     12.6750E-03     126.718E-03     906.783E-03     673.888E-03        -2.02247     638.087E-03        -1.98667     906.783E-03    -611.243E-03     339.486E-03    -169.100E-03    -170.386E-03    -165.915E-03     335.221E-03    -169.306E-03     92.5950E-03     140.371E+06     116.873E+06    -28.1156E+06    -27.8776E+06     140.133E+06     116.873E+06     5.91572E+06         58.9338
            1785     13.5221E-03     126.824E-03     903.542E-03     590.987E-03        -1.93689     565.410E-03        -1.91132     903.542E-03    -464.542E-03     343.152E-03    -169.075E-03    -174.078E-03    -166.507E-03     335.787E-03    -169.280E-03     118.358E-03     142.751E+06     129.423E+06    -18.1328E+06    -18.0595E+06     142.677E+06     129.423E+06     2.78277E+06         61.9039
            1786     14.3697E-03     127.016E-03     897.135E-03     466.301E-03        -1.80079     454.074E-03        -1.78856     897.135E-03    -315.589E-03     341.767E-03    -168.006E-03    -173.761E-03    -166.134E-03     335.330E-03    -169.196E-03     105.353E-03     150.106E+06     137.213E+06    -8.28119E+06    -8.25635E+06     150.081E+06     137.213E+06     1.05753E+06         65.1500
            1787     848.234E-06     127.291E-03         6.26415         1.19256        -8.13194     936.436E-03        -2.80422         1.19256         5.38657     330.384E-03    -164.358E-03    -166.027E-03    -164.965E-03     330.369E-03    -165.404E-03     5.25830E-03    -181.581E+06    -186.827E+06    -351.865E+06    -186.260E+06    -351.693E+06     -182.32E+06    -4.63205E+06         47.9984
            1788     1.69607E-03     127.295E-03         2.91188         1.04847        -4.65152     984.624E-03        -2.72426         1.04847        -1.94864     330.878E-03    -165.235E-03    -165.644E-03    -165.488E-03     330.828E-03    -165.340E-03     9.66788E-03    -166.909E+06    -180.377E+06    -331.588E+06    -180.856E+06    -331.109E+06    -166.909E+06    -7.97920E+06         48.2300
            1789     2.54334E-03     127.304E-03         2.02692         1.02444        -3.74818     973.306E-03        -2.69456         1.02444     91.6859E-03     331.960E-03    -165.640E-03    -166.320E-03    -166.200E-03     331.841E-03    -165.640E-03     15.1970E-03    -146.065E+06    -172.012E+06    -306.314E+06    -173.093E+06    -305.233E+06    -146.065E+06    -11.5697E+06         48.5998
            1790     3.38943E-03     127.317E-03         1.50317         1.00669        -3.18284     926.488E-03        -2.60616         1.00669        -1.56099     333.238E-03    -166.049E-03    -167.189E-03    -166.947E-03     332.996E-03    -166.049E-03     21.6967E-03    -122.711E+06    -160.369E+06    -278.995E+06    -162.321E+06    -277.042E+06    -122.711E+06    -14.8201E+06         49.0991
            1791     4.23470E-03     127.342E-03         1.32052     992.953E-03        -2.96257     942.879E-03        -2.58492     992.953E-03        -1.01698     334.638E-03    -166.504E-03    -168.134E-03    -167.684E-03     334.187E-03    -166.504E-03     29.7741E-03    -98.5726E+06    -146.776E+06    -250.338E+06    -150.091E+06    -247.023E+06    -98.5726E+06     -17.729E+06         49.7098
            1792     5.08071E-03     127.375E-03         1.30466     986.277E-03        -2.92329     972.084E-03        -2.59297     988.536E-03        -1.83317     336.303E-03    -166.986E-03    -169.318E-03    -168.596E-03     335.582E-03    -166.986E-03     37.9919E-03    -76.5726E+06    -132.956E+06    -220.916E+06    -138.158E+06    -215.714E+06    -76.5726E+06    -20.4076E+06         50.4040
            1793     5.92376E-03     127.414E-03         1.23681     990.366E-03        -2.85500         1.02947        -2.64992     992.625E-03        -1.47538     337.582E-03    -167.468E-03    -170.114E-03    -169.050E-03     336.519E-03    -167.468E-03     46.2123E-03    -56.4181E+06    -118.270E+06    -192.359E+06    -126.805E+06    -183.824E+06    -56.4181E+06    -22.9428E+06         51.1446
            1794     6.76703E-03     127.468E-03         1.31252         1.00333        -2.94327         1.07109        -2.70184         1.00333        -1.85452     338.220E-03    -167.874E-03    -170.346E-03    -168.897E-03     336.770E-03    -167.874E-03     54.1144E-03    -38.3061E+06    -101.192E+06    -162.532E+06    -114.853E+06    -148.870E+06    -38.3061E+06    -24.7920E+06         51.8927
            1795     7.61152E-03     127.533E-03         1.23169         1.01713        -2.87919         1.10138        -2.74888         1.01713        -1.41780     339.435E-03    -168.232E-03    -171.203E-03    -169.323E-03     337.555E-03    -168.232E-03     61.7206E-03    -20.2252E+06    -82.3690E+06    -135.027E+06    -102.482E+06    -114.914E+06    -20.2252E+06    -25.1045E+06         52.6151
            1796     8.45440E-03     127.611E-03         1.24478         1.03170        -2.91392         1.10991        -2.77905         1.03170        -1.45665     340.528E-03    -168.563E-03    -171.966E-03    -169.607E-03     338.170E-03    -168.563E-03     69.2832E-03    -3.33085E+06    -55.9589E+06    -109.489E+06    -89.7610E+06    -75.6873E+06    -3.33085E+06    -24.3238E+06         53.2919
            1797     9.29652E-03     127.696E-03         1.17127         1.04463        -2.86515         1.08675        -2.78063         1.04463        -1.15444     340.549E-03    -168.831E-03    -171.718E-03    -168.935E-03     337.766E-03    -168.831E-03     75.2646E-03     14.7033E+06    -23.2192E+06    -86.0550E+06    -76.6434E+06    -32.6308E+06     14.7033E+06    -21.1266E+06         53.9359
            1798     10.1416E-03     127.791E-03         1.11576         1.04848        -2.82943         1.03523        -2.75428         1.05386        -1.07772     340.739E-03    -168.998E-03    -171.741E-03    -168.556E-03     337.554E-03    -168.998E-03     80.5028E-03     43.1866E+06     16.9112E+06    -66.0101E+06    -62.8023E+06     23.7889E+06     33.1012E+06    -11.7178E+06         54.6146
            1799     10.9841E-03     127.892E-03         1.07438         1.01696        -2.77386     969.141E-03        -2.71017         1.05850    -973.123E-03     340.391E-03    -169.103E-03    -171.288E-03    -167.798E-03     336.900E-03    -169.103E-03     84.2224E-03     94.5600E+06     55.8551E+06    -50.1460E+06    -49.7390E+06     94.1530E+06     55.8551E+06     1.22620E+06         55.4729
            1800     11.8288E-03     127.994E-03         1.05955     957.497E-03        -2.71756     910.756E-03        -2.67082         1.05955    -821.545E-03     339.916E-03    -169.192E-03    -170.724E-03    -166.442E-03     335.634E-03    -169.192E-03     92.8118E-03     136.036E+06     84.3877E+06    -38.3218E+06    -37.9727E+06     135.686E+06     84.3877E+06     7.11717E+06         56.7628
            1801     12.6754E-03     128.119E-03         1.05779     899.269E-03        -2.67390     851.154E-03        -2.62578         1.05779    -820.212E-03     338.866E-03    -168.785E-03    -170.082E-03    -165.393E-03     334.635E-03    -169.242E-03     92.0212E-03     145.387E+06     112.123E+06    -26.9202E+06    -26.6997E+06     145.167E+06     112.123E+06     5.64206E+06         58.8151
            1802     13.5226E-03     128.222E-03         1.05415     806.771E-03        -2.58908     772.987E-03        -2.55529         1.05415    -635.975E-03     341.445E-03    -168.744E-03    -172.701E-03    -165.135E-03     334.336E-03    -169.201E-03     115.862E-03     146.130E+06     130.765E+06    -17.0453E+06    -16.9797E+06     146.065E+06     130.765E+06     2.61629E+06         61.7745
            1803     14.3709E-03     128.415E-03         1.04678     677.002E-03        -2.45639     663.697E-03        -2.44308         1.04678    -403.108E-03     339.464E-03    -166.915E-03    -172.549E-03    -164.184E-03     333.232E-03    -169.048E-03     103.333E-03     150.593E+06     140.077E+06    -8.51950E+06    -8.50068E+06     150.574E+06     140.077E+06     724.159E+03         65.0541
            1804     849.126E-06     128.679E-03         6.47944         1.01725        -8.38950         1.10978        -3.01984         1.01725         5.51382     327.739E-03    -163.131E-03    -164.608E-03    -164.591E-03     327.722E-03    -163.131E-03     5.07776E-03    -179.169E+06    -183.393E+06    -338.289E+06    -182.621E+06    -338.120E+06    -180.110E+06    -4.53693E+06         47.8176
            1805     1.69757E-03     128.684E-03         2.93452         1.06009        -4.87519         1.04830        -2.98897         1.06009        -2.07219     329.008E-03    -164.150E-03    -164.858E-03    -164.799E-03     328.949E-03    -164.150E-03     10.3576E-03    -162.382E+06    -176.967E+06    -318.559E+06    -177.488E+06    -318.039E+06    -162.382E+06    -8.01901E+06         48.0678
            1806     2.54528E-03     128.695E-03         2.01262         1.04974        -3.92273         1.00667        -2.91679         1.04974     76.9066E-03     330.555E-03    -164.671E-03    -165.884E-03    -165.741E-03     330.412E-03    -164.671E-03     16.4778E-03    -139.135E+06    -166.864E+06    -293.564E+06    -168.134E+06    -292.295E+06    -139.135E+06    -12.2471E+06         48.4617
            1807     3.39187E-03     128.712E-03         1.52603         1.03812        -3.41761         1.00373        -2.89531         1.03812        -1.71065     332.283E-03    -165.235E-03    -167.049E-03    -166.766E-03     332.000E-03    -165.235E-03     23.4465E-03    -117.817E+06    -155.550E+06    -267.426E+06    -158.093E+06    -264.882E+06    -117.817E+06    -16.3579E+06         48.9874
            1808     4.23809E-03     128.737E-03         1.39151         1.03463        -3.26637         1.04227        -2.91713         1.03463        -1.24395     333.729E-03    -165.803E-03    -167.926E-03    -167.444E-03     333.247E-03    -165.803E-03     30.8642E-03    -95.9651E+06    -143.105E+06    -239.972E+06     -147.54E+06    -235.537E+06    -95.9651E+06    -19.8914E+06         49.6253
            1809     5.08333E-03     128.772E-03         1.44937         1.04115        -3.31841         1.10649        -2.97553         1.04115        -2.15876     335.527E-03    -166.364E-03    -169.164E-03    -168.407E-03     334.771E-03    -166.364E-03     38.8206E-03    -74.3452E+06    -129.006E+06    -212.889E+06    -135.942E+06    -205.952E+06    -74.3452E+06    -22.7772E+06         50.3481
            1810     5.92732E-03     128.818E-03         1.41687         1.05587        -3.29657         1.17561        -3.05531         1.05587        -1.87268     337.883E-03    -166.967E-03    -170.916E-03    -169.829E-03     336.795E-03    -166.967E-03     46.8508E-03    -54.1238E+06    -112.667E+06    -184.527E+06    -123.943E+06    -173.251E+06    -54.1238E+06    -25.4279E+06         51.1174
            1811     6.76976E-03     128.870E-03         1.52011         1.07583        -3.42638         1.23637        -3.14264         1.07583        -2.21678     339.564E-03    -167.583E-03    -171.981E-03    -170.504E-03     338.087E-03    -167.583E-03     54.7425E-03    -36.0816E+06    -94.7980E+06    -158.095E+06    -112.741E+06    -140.152E+06    -36.0816E+06    -28.1339E+06         51.8881
            1812     7.61155E-03     128.938E-03         1.44900         1.09827        -3.39253         1.28032        -3.22384         1.09827        -1.76635     340.485E-03    -168.122E-03    -172.362E-03    -170.429E-03     338.551E-03    -168.122E-03     62.7401E-03    -20.0801E+06    -75.0946E+06    -136.659E+06    -101.738E+06    -110.015E+06    -20.0801E+06    -30.0176E+06         52.6208
            1813     8.45368E-03     129.016E-03         1.45549         1.12034        -3.44185         1.29411        -3.28047         1.12034        -1.73407     341.063E-03    -168.550E-03    -172.513E-03    -170.162E-03     338.712E-03    -168.550E-03     69.2884E-03    -4.11350E+06    -50.6522E+06    -113.872E+06    -90.3715E+06    -74.1530E+06    -4.11350E+06    -29.7325E+06         53.2956
            1814     9.29692E-03     129.101E-03         1.37445         1.13901        -3.40008         1.26799        -3.29362         1.13901        -1.40642     341.097E-03    -168.876E-03    -172.221E-03    -169.501E-03     338.377E-03    -168.876E-03     74.4813E-03     13.0781E+06    -20.6867E+06    -93.2305E+06    -78.9366E+06    -34.9806E+06     13.0781E+06    -28.2309E+06         53.9257
            1815     10.1391E-03     129.194E-03         1.31023         1.15234        -3.37089         1.21632        -3.27698         1.15234        -1.31188     340.529E-03    -169.068E-03    -171.461E-03    -168.365E-03     337.434E-03    -169.068E-03     79.3310E-03     29.1980E+06     9.34722E+06    -73.8003E+06    -66.4906E+06     3.59779E+06     27.6377E+06    -21.4106E+06         54.5773
            1816     10.9848E-03     129.297E-03         1.24602         1.15469        -3.33489         1.15625        -3.25065         1.16022        -1.22676     339.555E-03    -169.114E-03    -170.440E-03    -167.131E-03     336.245E-03    -169.114E-03     81.8807E-03     77.4087E+06     40.0745E+06    -54.7848E+06    -52.9436E+06     70.5188E+06     45.1231E+06    -7.92263E+06         55.3961
            1817     11.8303E-03     129.395E-03         1.19638         1.13657        -3.29733         1.09972        -3.22791         1.16381        -1.10265     339.496E-03    -169.141E-03    -170.355E-03    -166.270E-03     335.411E-03    -169.141E-03     90.4906E-03     131.350E+06     72.9710E+06    -40.4636E+06    -40.3657E+06     131.252E+06     72.9710E+06     1.24594E+06         56.6335
            1818     12.6754E-03     129.521E-03         1.17135         1.09169        -3.25810         1.03226        -3.19101         1.16369        -1.07121     338.255E-03    -168.248E-03    -170.007E-03    -164.969E-03     334.155E-03    -169.185E-03     90.4938E-03     147.441E+06     104.436E+06    -28.9365E+06    -28.8783E+06     147.383E+06     104.436E+06     2.92256E+06         58.6285
            1819     13.5221E-03     129.620E-03         1.16057         1.00150        -3.18448     955.158E-03        -3.13814         1.16057    -849.596E-03     339.594E-03    -168.169E-03    -171.425E-03    -163.322E-03     332.429E-03    -169.107E-03     115.471E-03     149.971E+06     129.029E+06    -18.2824E+06    -18.2408E+06     149.929E+06     129.029E+06     2.32454E+06         61.5557
            1820     14.3718E-03     129.811E-03         1.15368     878.873E-03        -3.07073     860.301E-03        -3.05216         1.15368    -533.691E-03     335.351E-03    -164.222E-03    -171.129E-03    -160.102E-03     328.913E-03    -168.811E-03     104.855E-03     151.439E+06     142.616E+06    -8.63731E+06    -8.62105E+06     151.422E+06     142.616E+06     969.278E+03         64.8560
            1821     850.499E-06     130.064E-03         4.97668     792.939E-03        -6.78436         1.18201        -2.98969     792.939E-03         4.21999     325.471E-03    -162.138E-03    -163.333E-03    -163.148E-03     325.446E-03    -162.297E-03     6.17779E-03    -170.859E+06    -174.493E+06    -324.302E+06    -174.522E+06    -324.071E+06    -171.060E+06    -5.10585E+06         47.6382
            1822     1.69965E-03     130.071E-03         2.27518         1.00219        -4.29194         1.06352        -3.08028         1.00219        -1.63234     327.167E-03    -163.068E-03    -164.099E-03    -164.020E-03     327.087E-03    -163.068E-03     12.1425E-03    -156.219E+06    -168.508E+06    -304.956E+06    -169.226E+06    -304.237E+06    -156.219E+06    -9.50615E+06         47.9048
            1823     2.54790E-03     130.085E-03         1.65887         1.01508        -3.67632         1.00359        -3.02104         1.01508    -128.506E-03     328.983E-03    -163.709E-03    -165.274E-03    -165.095E-03     328.804E-03    -163.709E-03     18.4750E-03    -132.757E+06    -158.217E+06    -280.572E+06    -159.765E+06    -279.025E+06    -132.757E+06    -13.2395E+06         48.3220
            1824     3.39538E-03     130.105E-03         1.38723         1.01559        -3.41198         1.04003        -3.06478         1.01559        -1.69491     331.138E-03    -164.392E-03    -166.746E-03    -166.408E-03     330.800E-03    -164.392E-03     25.6701E-03    -108.329E+06    -146.142E+06    -254.002E+06    -149.011E+06    -251.133E+06    -108.329E+06    -17.0943E+06         48.8754
            1825     4.24070E-03     130.133E-03         1.35754         1.02334        -3.38953         1.07726        -3.10926         1.02334        -1.52678     333.711E-03    -165.139E-03    -168.572E-03    -168.030E-03     333.169E-03    -165.139E-03     32.7835E-03    -87.2327E+06    -133.917E+06    -228.871E+06    -138.575E+06    -224.214E+06    -87.2327E+06    -20.2530E+06         49.5415
            1826     5.08521E-03     130.169E-03         1.51039         1.03891        -3.55441         1.17016        -3.21418         1.03891        -2.39744     335.854E-03    -165.910E-03    -169.944E-03    -169.141E-03     335.051E-03    -165.910E-03     40.0693E-03    -67.4003E+06    -120.925E+06    -201.846E+06    -128.600E+06    -194.171E+06    -67.4003E+06    -23.2787E+06         50.2882
            1827     5.92945E-03     130.218E-03         1.55835         1.06424        -3.62581         1.27542        -3.34287         1.06424        -2.27060     337.859E-03    -166.640E-03    -171.219E-03    -170.091E-03     336.731E-03    -166.640E-03     47.7359E-03    -49.4318E+06    -105.155E+06    -175.481E+06    -118.658E+06    -161.978E+06    -49.4318E+06    -27.0117E+06         51.0762
            1828     6.77116E-03     130.276E-03         1.69751         1.09616        -3.81001         1.37244        -3.48494         1.09616        -2.55551     340.134E-03    -167.358E-03    -172.776E-03    -171.264E-03     338.622E-03    -167.358E-03     55.4804E-03    -31.4236E+06    -87.5317E+06    -151.686E+06    -108.093E+06    -131.125E+06    -31.4236E+06    -29.6056E+06         51.8589
            1829     7.61228E-03     130.342E-03         1.64435         1.12960        -3.81836         1.42071        -3.59472         1.12960        -2.15906     341.509E-03    -168.024E-03    -173.484E-03    -171.521E-03     339.545E-03    -168.024E-03     63.3588E-03    -15.3427E+06    -67.0040E+06    -132.065E+06    -97.9819E+06    -101.087E+06    -15.3427E+06    -31.9188E+06         52.5923
            1830     8.45424E-03     130.422E-03         1.62386         1.15943        -3.86358         1.42328        -3.66301         1.15943        -2.05248     341.790E-03    -168.555E-03    -173.236E-03    -170.872E-03     339.427E-03    -168.555E-03     69.5819E-03    -1.18344E+06    -45.4541E+06    -114.136E+06    -88.5023E+06    -71.0883E+06    -1.18344E+06    -32.8033E+06         53.2534
            1831     9.29551E-03     130.507E-03         1.54007         1.18312        -3.83683         1.39432        -3.69108         1.18312        -1.73460     341.583E-03    -168.929E-03    -172.654E-03    -169.945E-03     338.874E-03    -168.929E-03     74.4043E-03     14.1111E+06    -17.1399E+06    -95.7901E+06    -78.6904E+06    -34.2396E+06     14.1111E+06    -31.3854E+06         53.8564
            1832     10.1387E-03     130.600E-03         1.48396         1.20064        -3.82915         1.35908        -3.70427         1.20064        -1.60705     340.657E-03    -169.148E-03    -171.509E-03    -168.446E-03     337.594E-03    -169.148E-03     78.9417E-03     27.0738E+06     6.23273E+06    -79.3234E+06     -67.579E+06    -5.51165E+06     27.0738E+06    -29.0866E+06         54.4678
            1833     10.9823E-03     130.696E-03         1.43013         1.21284        -3.82281         1.31254        -3.70522         1.21284        -1.54902     339.275E-03    -169.170E-03    -170.105E-03    -166.772E-03     335.943E-03    -169.170E-03     82.0867E-03     62.8499E+06     28.0014E+06    -60.4629E+06    -54.0813E+06     45.6448E+06     38.8249E+06    -20.3357E+06         55.2319
            1834     11.8275E-03     130.799E-03         1.36304         1.22052        -3.80618         1.26324        -3.70638         1.22052        -1.42039     338.370E-03    -168.797E-03    -169.572E-03    -165.124E-03     334.227E-03    -169.103E-03     90.9489E-03     117.596E+06     64.3057E+06    -40.7979E+06    -39.8693E+06     116.667E+06     64.3057E+06    -6.33284E+06         56.4016
            1835     12.6749E-03     130.919E-03         1.30897         1.21259        -3.78834         1.20561        -3.69663         1.22423        -1.35216     335.699E-03    -166.435E-03    -169.264E-03    -162.459E-03     331.441E-03    -168.982E-03     91.8598E-03     146.280E+06     92.2364E+06    -28.7529E+06    -28.7427E+06     146.269E+06     92.2364E+06     900.901E+03         58.3322
            1836     13.5253E-03     131.017E-03         1.25440         1.16787        -3.73019         1.13632        -3.66882         1.22459        -1.07013     335.523E-03    -166.074E-03    -169.449E-03    -159.172E-03     327.878E-03    -168.706E-03     118.381E-03     150.294E+06     118.896E+06    -20.0688E+06    -20.0605E+06     150.286E+06     118.896E+06     556.486E+03         61.2399
            1837     14.3808E-03     131.197E-03         1.22106         1.07548        -3.63685         1.05049        -3.61185         1.22106    -667.450E-03     329.635E-03    -160.698E-03    -168.937E-03    -154.508E-03     322.703E-03    -168.194E-03     108.388E-03     151.203E+06     143.666E+06    -9.78861E+06    -9.78053E+06     151.013E+06     143.848E+06    -107.121E+03         64.5907
            1838     851.049E-06     131.445E-03         2.50620     665.410E-03        -4.27743         1.17531        -2.94654     665.410E-03         1.65949     323.491E-03    -161.378E-03    -162.113E-03    -161.920E-03     323.458E-03    -161.538E-03     7.49635E-03    -157.507E+06    -160.876E+06    -309.569E+06    -161.046E+06    -309.399E+06    -157.507E+06    -4.39203E+06         47.4551
            1839     1.70151E-03     131.456E-03         1.44595     916.244E-03        -3.47621         1.04349        -3.10200     944.496E-03    -839.068E-03     324.914E-03    -162.015E-03    -162.899E-03    -162.791E-03     324.806E-03    -162.015E-03     14.0180E-03    -144.403E+06    -156.155E+06    -289.455E+06    -156.892E+06    -288.718E+06    -144.403E+06    -9.28810E+06         47.7332
            1840     2.55034E-03     131.472E-03         1.23271     940.745E-03        -3.29124     970.868E-03        -3.05765     968.997E-03    -546.540E-03     327.474E-03    -162.674E-03    -164.800E-03    -164.566E-03     327.240E-03    -162.674E-03     21.0774E-03    -124.327E+06    -147.827E+06    -266.705E+06    -149.666E+06    -264.865E+06    -124.327E+06    -14.2702E+06         48.1695
            1841     3.39801E-03     131.495E-03         1.20710     974.680E-03        -3.32334         1.02425        -3.14049     974.680E-03        -1.55261     330.459E-03    -163.547E-03    -166.912E-03    -166.511E-03     330.059E-03    -163.547E-03     27.9917E-03    -100.832E+06    -137.088E+06    -241.894E+06    -140.227E+06    -238.754E+06    -100.832E+06    -17.7002E+06         48.7449
            1842     4.24440E-03     131.528E-03         1.29969     986.916E-03        -3.43188         1.05838        -3.19057     986.916E-03        -1.85860     333.431E-03    -164.499E-03    -168.932E-03    -168.305E-03     332.805E-03    -164.499E-03     35.2545E-03    -79.0552E+06    -125.375E+06    -217.932E+06    -130.307E+06    -213.001E+06    -79.0552E+06    -20.4682E+06         49.4298
            1843     5.08727E-03     131.570E-03         1.52922         1.00659        -3.68477         1.17391        -3.32947         1.00659        -2.59725     336.228E-03    -165.448E-03    -170.780E-03    -169.862E-03     335.310E-03    -165.448E-03     42.9036E-03    -58.8674E+06    -111.336E+06    -190.079E+06    -119.327E+06    -182.088E+06    -58.8674E+06    -23.3482E+06         50.1884
            1844     5.92923E-03     131.618E-03         1.65949         1.03704        -3.85527         1.29240        -3.48817         1.03704        -2.72582     338.510E-03    -166.348E-03    -172.162E-03    -170.887E-03     337.235E-03    -166.348E-03     50.7626E-03    -39.8933E+06    -95.8548E+06    -163.264E+06    -108.858E+06    -150.260E+06    -39.8933E+06    -26.0382E+06         50.9781
            1845     6.77261E-03     131.681E-03         1.80140         1.07374        -4.06078         1.40300        -3.66239         1.07374        -2.93842     340.537E-03    -167.173E-03    -173.363E-03    -171.730E-03     338.903E-03    -167.173E-03     57.7616E-03    -22.7855E+06    -78.7904E+06    -141.939E+06    -99.4769E+06    -121.253E+06    -22.7855E+06    -29.1566E+06         51.7513
            1846     7.61348E-03     131.750E-03         1.78019         1.11144        -4.11779         1.46314        -3.80074         1.11144        -2.64156     341.862E-03    -167.900E-03    -173.963E-03    -171.955E-03     339.855E-03    -167.900E-03     64.1358E-03     -8.0155E+06    -60.1281E+06    -123.017E+06    -91.0000E+06    -92.1451E+06     -8.0155E+06    -30.8906E+06         52.4629
            1847     8.45356E-03     131.828E-03         1.75228         1.14566        -4.17211         1.48954        -3.90937         1.14566        -2.43428     341.785E-03    -168.465E-03    -173.320E-03    -170.865E-03     339.330E-03    -168.465E-03     70.8577E-03     6.25284E+06    -39.7741E+06    -107.482E+06    -82.9705E+06    -64.2855E+06     6.25284E+06    -32.2852E+06         53.0895
            1848     9.29591E-03     131.914E-03         1.69233         1.17465        -4.18857         1.48610        -3.98234         1.17465        -2.14283     340.970E-03    -168.799E-03    -172.171E-03    -169.244E-03     338.042E-03    -168.799E-03     77.1727E-03     18.1466E+06    -13.8205E+06    -93.0609E+06    -74.3820E+06    -32.4994E+06     18.1466E+06    -32.7467E+06         53.6480
            1849     10.1388E-03     132.004E-03         1.64450         1.19832        -4.21055         1.47480        -4.04085         1.19832        -1.95995     340.008E-03    -168.957E-03    -171.051E-03    -167.672E-03     336.629E-03    -168.957E-03     82.7012E-03     31.0615E+06     10.4710E+06    -80.1141E+06    -66.1246E+06    -3.51861E+06     31.0615E+06    -32.4277E+06         54.2084
            1850     10.9841E-03     132.099E-03         1.61115         1.21728        -4.24416         1.44979        -4.08280         1.21728        -1.91023     338.128E-03    -168.412E-03    -169.716E-03    -165.409E-03     334.314E-03    -168.906E-03     87.5041E-03     50.4492E+06     28.6208E+06    -66.2480E+06    -56.0534E+06     30.1245E+06     38.7510E+06    -29.5228E+06         54.9161
            1851     11.8311E-03     132.198E-03         1.56141         1.23222        -4.26318         1.42520        -4.12697         1.23222        -1.75852     335.600E-03    -166.872E-03    -168.728E-03    -162.054E-03     330.697E-03    -168.644E-03     98.2103E-03       96.04E+06     54.7696E+06    -46.8122E+06    -42.9418E+06     92.1696E+06     54.7696E+06    -17.5342E+06         56.0340
            1852     12.6817E-03     132.313E-03         1.50567         1.24366        -4.27581         1.38690        -4.15704         1.24366        -1.63657     331.713E-03    -163.473E-03    -168.240E-03    -158.342E-03     326.582E-03    -168.240E-03     99.9049E-03     138.500E+06     79.8298E+06    -29.5233E+06    -29.0269E+06     138.004E+06     79.8298E+06    -5.10201E+06         57.9475
            1853     13.5368E-03     132.404E-03         1.41426         1.24829        -4.24183         1.33480        -4.16581         1.25173        -1.27865     330.754E-03    -163.066E-03    -167.689E-03    -154.432E-03     322.120E-03    -167.689E-03     125.264E-03     148.874E+06     106.532E+06    -16.9507E+06    -16.9290E+06     148.852E+06     106.532E+06    -645.731E+03         60.9140
            1854     14.3972E-03     132.577E-03         1.32528         1.22153        -4.16862         1.26028        -4.13789         1.25581    -785.941E-03     324.681E-03    -157.695E-03    -166.986E-03    -150.053E-03     317.039E-03    -166.986E-03     112.784E-03     152.194E+06     136.603E+06    -7.92540E+06    -7.91904E+06     149.840E+06     138.951E+06    -268.207E+03         64.3987
            1855     851.397E-06     132.825E-03         2.32690     570.944E-03        -4.11383         1.17531        -2.96224     570.944E-03        -1.50755     321.639E-03    -160.348E-03    -161.291E-03    -161.250E-03     321.598E-03    -160.348E-03     8.21605E-03    -146.690E+06    -150.120E+06    -295.013E+06    -150.022E+06    -294.758E+06    -147.043E+06    -5.40923E+06         47.2497
            1856     1.70331E-03     132.835E-03         1.38473     868.354E-03        -3.46924     994.382E-03        -3.10715     896.606E-03     107.010E-03     322.985E-03    -161.072E-03    -161.913E-03    -161.778E-03     322.850E-03    -161.072E-03     15.6291E-03    -130.984E+06    -142.875E+06    -274.635E+06    -143.634E+06    -273.876E+06    -130.984E+06    -9.54069E+06         47.5302
            1857     2.55425E-03     132.857E-03         1.10885     890.580E-03        -3.19643     910.970E-03        -3.02681     918.832E-03        -1.11320     325.998E-03    -161.754E-03    -164.244E-03    -163.953E-03     325.708E-03    -161.754E-03     23.5524E-03    -110.646E+06    -134.013E+06    -251.792E+06    -135.663E+06    -250.142E+06    -110.646E+06    -13.4824E+06         47.9701
            1858     3.40074E-03     132.886E-03         1.15057     921.592E-03        -3.29718     964.968E-03        -3.11158     921.592E-03        -1.40558     329.499E-03    -162.732E-03    -166.767E-03    -166.269E-03     329.001E-03    -162.732E-03     31.1290E-03    -88.9828E+06    -124.157E+06    -230.040E+06    -126.944E+06    -227.253E+06    -88.9828E+06    -16.6982E+06         48.5474
            1859     4.24545E-03     132.922E-03         1.30374     932.054E-03        -3.47693         1.00069        -3.17388     932.054E-03        -2.28159     332.646E-03    -163.784E-03    -168.862E-03    -168.086E-03     331.870E-03    -163.784E-03     39.1093E-03    -67.5819E+06    -112.449E+06    -205.269E+06    -117.388E+06    -200.330E+06    -67.5819E+06    -20.2896E+06         49.2291
            1860     5.09133E-03     132.968E-03         1.54078     949.991E-03        -3.75138         1.11200        -3.32260     949.991E-03        -2.84177     335.736E-03    -164.809E-03    -170.927E-03    -169.833E-03     334.642E-03    -164.809E-03     46.8793E-03    -48.9098E+06    -99.3696E+06    -178.906E+06    -107.687E+06    -170.589E+06    -48.9098E+06    -24.0178E+06         49.9754
            1861     5.93424E-03     133.022E-03         1.73540     977.563E-03        -3.99700         1.21874        -3.48034     977.563E-03        -3.26105     338.518E-03    -165.805E-03    -172.712E-03    -171.220E-03     337.025E-03    -165.805E-03     54.9534E-03    -30.1456E+06    -85.7997E+06    -153.353E+06    -97.3814E+06    -141.772E+06    -30.1456E+06    -25.2241E+06         50.7401
            1862     6.77365E-03     133.086E-03         1.84698         1.01104        -4.18184         1.33339        -3.66826         1.01104        -3.35597     340.163E-03    -166.686E-03    -173.478E-03    -171.505E-03     338.191E-03    -166.686E-03     63.2700E-03    -12.9189E+06    -70.8358E+06    -128.971E+06    -88.4636E+06    -111.344E+06    -12.9189E+06    -26.0514E+06         51.4748
            1863     7.61454E-03     133.158E-03         1.87104         1.04768        -4.29735         1.42469        -3.85099         1.04768        -3.15886     340.716E-03    -167.378E-03    -173.339E-03    -170.864E-03     338.242E-03    -167.378E-03     70.7828E-03     2.13678E+06      -54.47E+06    -111.063E+06    -80.7633E+06    -84.7694E+06     2.13678E+06    -27.9481E+06         52.1394
            1864     8.45718E-03     133.234E-03         1.84325         1.08466        -4.37045         1.49912        -4.02632         1.08466        -2.83762     340.138E-03    -167.836E-03    -172.302E-03    -169.298E-03     337.134E-03    -167.836E-03     77.9182E-03     16.8695E+06    -32.2393E+06    -95.8420E+06    -72.8351E+06    -55.2462E+06     16.8695E+06    -29.7076E+06         52.7146
            1865     9.30131E-03     133.317E-03         1.82245         1.11983        -4.44847         1.54024        -4.16625         1.11983        -2.57207     338.751E-03    -168.039E-03    -170.711E-03    -167.077E-03     335.116E-03    -168.039E-03     85.4204E-03     28.5739E+06    -11.6147E+06    -82.9694E+06    -65.9385E+06    -28.6456E+06     28.5739E+06    -30.3153E+06         53.2212
            1866     10.1476E-03     133.406E-03         1.79274         1.15187        -4.51363         1.56758        -4.28847         1.15187        -2.33604     337.099E-03    -167.818E-03    -169.282E-03    -164.753E-03     332.770E-03    -168.017E-03     92.8442E-03     41.4324E+06     14.9067E+06    -72.4416E+06    -59.4956E+06     1.96078E+06     41.4324E+06    -30.2840E+06         53.7378
            1867     10.9943E-03     133.499E-03         1.79344         1.18077        -4.60825         1.58079        -4.39559         1.18077        -2.28645     334.398E-03    -166.311E-03    -168.087E-03    -161.681E-03     329.445E-03    -167.765E-03     98.7120E-03     50.7864E+06     37.2770E+06    -62.7221E+06    -52.3523E+06     28.6955E+06     48.9982E+06    -30.7533E+06         54.4260
            1868     11.8464E-03     133.589E-03         1.76762         1.20676        -4.67902         1.59013        -4.50153         1.20676        -2.10749     331.396E-03    -164.137E-03    -167.258E-03    -157.872E-03     325.130E-03    -167.258E-03     110.031E-03     83.9090E+06     52.1566E+06    -50.4164E+06    -43.5184E+06     72.6778E+06     56.4898E+06    -26.5160E+06         55.5715
            1869     12.7035E-03     133.701E-03         1.72584         1.22980        -4.73165         1.57864        -4.58444         1.22980        -1.92085     327.709E-03    -161.113E-03    -166.595E-03    -154.658E-03     321.254E-03    -166.595E-03     111.210E-03     125.030E+06     71.7374E+06    -33.0987E+06    -30.8399E+06     122.771E+06     71.7374E+06    -16.5241E+06         57.5928
            1870     13.5610E-03     133.785E-03         1.63631         1.24927        -4.72619         1.54571        -4.63559         1.24927        -1.48216     328.171E-03    -161.535E-03    -166.636E-03    -152.627E-03     318.519E-03    -165.892E-03     133.086E-03     140.502E+06     89.9580E+06    -18.4649E+06    -17.8557E+06     139.893E+06     89.9580E+06    -6.27435E+06         60.7742
            1871     14.4254E-03     133.949E-03         1.50619         1.26391        -4.66024         1.47079        -4.62485         1.26391    -880.920E-03     324.826E-03    -158.801E-03    -166.025E-03    -151.509E-03     316.791E-03    -165.281E-03     114.768E-03     149.480E+06     123.268E+06    -7.83786E+06    -7.79600E+06     146.109E+06     126.598E+06     148.065E+03         64.5096
            1872     853.000E-06     134.200E-03         4.96787     592.279E-03        -6.74904         1.04030        -2.82147     592.279E-03        -4.50082     319.294E-03    -158.969E-03    -160.324E-03    -160.264E-03     319.234E-03    -158.969E-03     9.92737E-03    -131.648E+06    -135.041E+06    -279.459E+06    -134.989E+06    -279.157E+06    -132.002E+06    -5.84156E+06         46.9669
            1873     1.70468E-03     134.215E-03         2.29595     831.393E-03        -4.34232     897.059E-03        -2.94343     831.393E-03         1.00107     321.578E-03    -160.019E-03    -161.559E-03    -161.370E-03     321.389E-03    -160.019E-03     18.4208E-03    -119.755E+06    -129.904E+06    -259.827E+06    -130.806E+06    -258.924E+06    -119.755E+06    -10.4621E+06         47.2368
            1874     2.55399E-03     134.240E-03         1.38674     842.516E-03        -3.45345     821.190E-03        -2.88790     842.516E-03        -1.70921     323.928E-03    -160.792E-03    -163.136E-03    -162.738E-03     323.530E-03    -160.792E-03     27.2852E-03    -101.508E+06    -122.690E+06    -239.170E+06    -124.393E+06    -237.467E+06    -101.508E+06    -13.7526E+06         47.6545
            1875     3.40408E-03     134.274E-03         1.27193     840.952E-03        -3.37423     876.534E-03        -2.97883     840.952E-03        -1.33923     326.924E-03    -161.629E-03    -165.295E-03    -164.607E-03     326.236E-03    -161.629E-03     36.3394E-03    -80.1019E+06    -112.556E+06    -217.823E+06    -115.466E+06    -214.913E+06    -80.1019E+06    -16.8919E+06         48.2011
            1876     4.25190E-03     134.315E-03         1.38052     848.434E-03        -3.52036     910.150E-03        -3.05000     848.434E-03        -2.76065     330.647E-03    -162.590E-03    -168.057E-03    -166.998E-03     329.588E-03    -162.590E-03     45.5628E-03    -58.0940E+06    -100.280E+06    -192.702E+06    -104.986E+06    -187.996E+06    -58.0940E+06    -19.9423E+06         48.8454
            1877     5.09483E-03     134.365E-03         1.56418     863.019E-03        -3.75303         1.01006        -3.19890     863.019E-03        -3.11472     333.860E-03    -163.607E-03    -170.253E-03    -168.738E-03     332.345E-03    -163.607E-03     54.6245E-03    -38.4789E+06    -88.7063E+06    -167.245E+06    -95.8369E+06    -160.114E+06    -38.4789E+06    -22.2900E+06         49.5447
            1878     5.93778E-03     134.423E-03         1.81891     887.067E-03        -4.07142         1.11501        -3.36753     887.067E-03        -3.77785     335.928E-03    -164.532E-03    -171.397E-03    -169.332E-03     333.863E-03    -164.532E-03     63.9502E-03    -20.9072E+06    -76.8007E+06    -145.194E+06    -87.5952E+06    -134.399E+06    -20.9072E+06    -24.5530E+06         50.2522
            1879     6.78262E-03     134.490E-03         1.88856     918.523E-03        -4.23029         1.24147        -3.58319     918.523E-03        -3.74747     336.728E-03    -165.250E-03    -171.477E-03    -168.757E-03     334.007E-03    -165.250E-03     73.6633E-03    -2.72791E+06    -62.6564E+06    -120.279E+06    -77.7740E+06    -105.161E+06    -2.72791E+06    -24.9241E+06         50.9256
            1880     7.62752E-03     134.559E-03         1.94714     955.464E-03        -4.39781         1.35379        -3.80446     955.464E-03        -3.64323     336.821E-03    -165.738E-03    -171.083E-03    -167.625E-03     333.363E-03    -165.738E-03     83.0941E-03     16.0099E+06    -45.5592E+06    -98.4391E+06    -67.6176E+06    -76.3806E+06     16.0099E+06    -25.5977E+06         51.5335
            1881     8.47226E-03     134.637E-03         1.89998     995.321E-03        -4.47219         1.46028        -4.03250     995.321E-03        -3.22404     336.129E-03    -165.991E-03    -170.137E-03    -165.981E-03     331.972E-03    -165.991E-03     90.9218E-03     30.8039E+06    -26.4716E+06    -81.4640E+06    -59.1067E+06    -48.8289E+06     30.8039E+06    -26.2913E+06         52.0654
            1882     9.31900E-03     134.715E-03         1.91806         1.03641        -4.61405         1.54939        -4.24538         1.03641        -2.98157     334.372E-03    -166.013E-03    -168.359E-03    -163.328E-03     329.341E-03    -166.013E-03     99.4660E-03     45.0202E+06    -7.65385E+06    -67.1506E+06    -51.0356E+06    -23.7689E+06     45.0202E+06    -26.0920E+06         52.5493
            1883     10.1687E-03     134.802E-03         1.91760         1.07763        -4.73788         1.63219        -4.45247         1.07763        -2.69375     331.529E-03    -165.094E-03    -166.435E-03    -159.814E-03     325.569E-03    -165.755E-03     107.727E-03     57.6742E+06     18.2530E+06    -54.9141E+06    -43.3162E+06     6.65512E+06     57.6742E+06    -25.9044E+06         53.0783
            1884     11.0238E-03     134.888E-03         1.95528         1.11806        -4.90365         1.68850        -4.63687         1.11806        -2.64475     328.774E-03    -163.505E-03    -165.269E-03    -156.772E-03     322.041E-03    -165.269E-03     113.938E-03     66.8484E+06     40.9671E+06    -46.5256E+06    -38.5604E+06     33.0019E+06     66.8484E+06    -24.7941E+06         53.8403
            1885     11.8795E-03     134.975E-03         1.95406         1.15649        -5.03412         1.73210        -4.81216         1.15649        -2.44773     328.023E-03    -162.640E-03    -165.383E-03    -155.287E-03     319.925E-03    -164.638E-03     124.639E-03     89.1896E+06     59.0722E+06     -40.541E+06    -34.3115E+06     70.3631E+06     71.6692E+06    -25.3921E+06         55.1484
            1886     12.7370E-03     135.079E-03         1.92880         1.19217        -5.13495         1.75070        -4.95685         1.19217        -2.20546     326.801E-03    -161.445E-03    -165.355E-03    -154.959E-03     318.979E-03    -164.020E-03     122.290E-03     112.711E+06     76.8309E+06    -32.1964E+06    -28.6812E+06     109.196E+06     76.8309E+06    -21.5761E+06         57.4436
            1887     13.5968E-03     135.163E-03         1.84513         1.22376        -5.16638         1.73687        -5.05812         1.22376        -1.69817     331.036E-03    -161.879E-03    -169.156E-03    -157.165E-03     320.724E-03    -163.559E-03     139.668E-03     125.267E+06     83.0233E+06    -22.5154E+06    -21.3504E+06     124.102E+06     83.0233E+06    -11.8009E+06         61.0272
            1888     14.4511E-03     135.329E-03         1.70826         1.24947        -5.12283         1.66849        -5.08307         1.24947    -957.762E-03     333.520E-03    -161.750E-03    -171.771E-03    -161.996E-03     325.498E-03    -163.502E-03     114.870E-03     142.479E+06     113.601E+06    -11.7083E+06    -11.4928E+06     137.270E+06     118.595E+06    -2.98418E+06         65.1882
            1889     855.045E-06     135.574E-03         7.44094     673.650E-03        -9.25036     744.908E-03        -2.55433     673.650E-03        -6.78308     315.701E-03    -157.255E-03    -158.446E-03    -158.347E-03     315.602E-03    -157.255E-03     12.5960E-03    -122.913E+06    -126.154E+06    -263.991E+06    -125.530E+06    -263.758E+06    -123.770E+06    -5.20067E+06         46.5083
            1890     1.70700E-03     135.592E-03         3.36074     717.857E-03        -5.23260     761.143E-03        -2.63300     717.857E-03         1.59475     317.923E-03    -158.157E-03    -159.766E-03    -159.462E-03     317.620E-03    -158.157E-03     23.2856E-03    -112.112E+06    -121.003E+06    -244.173E+06    -121.825E+06    -243.351E+06    -112.112E+06    -9.52649E+06         46.7480
            1891     2.55935E-03     135.620E-03         1.79484     723.195E-03        -3.70738     708.352E-03        -2.62089     723.195E-03        -2.23065     320.152E-03    -158.863E-03    -161.289E-03    -160.678E-03     319.541E-03    -158.863E-03     33.7569E-03    -93.9628E+06    -113.059E+06    -225.811E+06    -115.058E+06    -223.812E+06    -93.9628E+06    -14.5425E+06         47.1178
            1892     3.41033E-03     135.655E-03         1.45063     721.940E-03        -3.41133     762.562E-03        -2.72327     721.940E-03        -1.38648     322.654E-03    -159.573E-03    -163.081E-03    -162.041E-03     321.614E-03    -159.573E-03     44.2942E-03    -72.4900E+06    -102.307E+06    -205.596E+06    -105.872E+06    -202.031E+06    -72.4900E+06    -18.6509E+06         47.5995
            1893     4.25887E-03     135.705E-03         1.49732     730.796E-03        -3.50840     814.828E-03        -2.82591     730.796E-03        -3.22339     325.418E-03    -160.308E-03    -165.110E-03    -163.499E-03     323.807E-03    -160.308E-03     55.4295E-03    -49.5956E+06    -90.0806E+06    -182.738E+06    -95.4386E+06    -177.380E+06    -49.5956E+06    -21.4108E+06         48.1669
            1894     5.10804E-03     135.757E-03         1.63042     748.779E-03        -3.70953     925.213E-03        -3.00433     748.779E-03        -3.42621     327.965E-03    -161.033E-03    -166.932E-03    -164.586E-03     325.619E-03    -161.033E-03     67.2743E-03    -26.9940E+06    -76.5826E+06    -158.788E+06    -83.6935E+06    -151.677E+06    -26.9940E+06    -22.9961E+06         48.7864
            1895     5.95560E-03     135.819E-03         1.94659     776.921E-03        -4.11680         1.04025        -3.21046     776.921E-03        -4.26440     329.642E-03    -161.659E-03    -167.983E-03    -164.804E-03     326.463E-03    -161.659E-03     78.6701E-03    -6.63177E+06    -62.8397E+06    -135.266E+06    -72.1981E+06    -125.907E+06    -6.63177E+06    -23.9885E+06         49.4202
            1896     6.80260E-03     135.882E-03         1.96724     812.433E-03        -4.25505         1.16735        -3.45517     812.433E-03        -4.14418     330.125E-03    -162.106E-03    -168.020E-03    -163.947E-03     326.053E-03    -162.106E-03     88.9745E-03     11.9786E+06    -49.6094E+06    -112.259E+06    -61.8670E+06    -100.001E+06     11.9786E+06    -24.4885E+06         50.0348
            1897     7.65147E-03     135.955E-03         2.04004     853.224E-03        -4.46358         1.28762        -3.71117     853.224E-03        -4.10434     329.516E-03    -162.314E-03    -167.202E-03    -162.085E-03     324.398E-03    -162.314E-03     99.4722E-03     29.5192E+06    -35.7239E+06    -88.2587E+06    -53.2415E+06    -70.7412E+06     29.5192E+06    -23.7426E+06         50.6103
            1898     8.50242E-03     136.029E-03         1.96554     897.850E-03        -4.53407         1.41662        -3.98514     897.850E-03        -3.60994     328.601E-03    -162.296E-03    -166.305E-03    -160.080E-03     322.376E-03    -162.296E-03     109.418E-03     45.1846E+06    -22.3714E+06    -68.4459E+06    -45.8468E+06    -44.9704E+06     45.1846E+06    -22.7823E+06         51.1513
            1899     9.35486E-03     136.106E-03         2.00769     945.678E-03        -4.72671         1.54188        -4.26091     945.678E-03        -3.38485     327.513E-03    -162.100E-03    -165.413E-03    -158.046E-03     320.145E-03    -162.100E-03     118.834E-03     59.2546E+06    -4.62029E+06    -54.2201E+06    -39.0951E+06    -19.7453E+06     59.2546E+06    -21.5112E+06         51.7001
            1900     10.2106E-03     136.185E-03         2.02008     995.723E-03        -4.89848         1.66381        -4.54221     995.723E-03        -3.05351     325.737E-03    -161.280E-03    -164.456E-03    -155.754E-03     317.496E-03    -161.742E-03     125.515E-03     70.7534E+06     17.0996E+06    -42.4332E+06    -34.4754E+06     9.14182E+06     70.7534E+06    -19.3658E+06         52.3612
            1901     11.0687E-03     136.266E-03         2.08024         1.04612        -5.12547         1.75143        -4.79667         1.04612        -3.00023     325.081E-03    -160.516E-03    -164.565E-03    -155.053E-03     316.374E-03    -161.321E-03     129.077E-03     82.6514E+06     41.6599E+06    -34.6614E+06    -29.6746E+06     36.6731E+06     82.6514E+06    -18.3816E+06         53.3322
            1902     11.9281E-03     136.354E-03         2.10217         1.09489        -5.31669         1.82718        -5.04170         1.09489        -2.79547     327.599E-03    -160.603E-03    -166.996E-03    -157.122E-03     318.069E-03    -160.947E-03     135.823E-03     97.1244E+06     72.4508E+06    -28.4935E+06    -24.9013E+06     76.7160E+06     89.2669E+06    -18.3086E+06         54.9381
            1903     12.7839E-03     136.462E-03         2.08185         1.14087        -5.46196         1.86861        -5.24871         1.14087        -2.49032     331.245E-03    -160.860E-03    -170.386E-03    -161.832E-03     322.691E-03    -160.860E-03     129.245E-03     106.994E+06     93.1621E+06    -23.3651E+06    -20.7904E+06     102.761E+06     94.8201E+06    -16.9995E+06         57.6316
            1904     13.6322E-03     136.546E-03         2.01228         1.18238        -5.54957         1.88218        -5.41946         1.18238        -1.92879     341.089E-03    -161.169E-03    -179.919E-03    -169.680E-03     330.849E-03    -161.169E-03     142.905E-03     113.327E+06     94.1802E+06    -16.2719E+06    -15.0299E+06     110.426E+06     95.8383E+06    -11.5521E+06         61.7217
            1905     14.4782E-03     136.728E-03         1.90185         1.21845        -5.58340         1.85641        -5.53795         1.21845        -1.04478     349.179E-03    -162.070E-03    -187.109E-03    -179.481E-03     341.550E-03    -162.070E-03     114.405E-03     135.084E+06     114.350E+06    -8.87390E+06    -8.64496E+06     127.292E+06     121.912E+06    -4.30140E+06         66.4342
            1906     855.673E-06     136.940E-03         8.57907     664.097E-03        -10.2801     446.426E-03        -2.14747     664.097E-03        -7.84623     309.682E-03    -154.216E-03    -155.465E-03    -155.258E-03     309.528E-03    -154.270E-03     15.6778E-03    -113.479E+06    -115.565E+06    -248.183E+06    -115.005E+06    -247.763E+06    -114.459E+06    -7.04115E+06         45.7541
            1907     1.71342E-03     136.962E-03         3.89299     557.823E-03        -5.50879     578.387E-03        -2.19419     557.823E-03         1.80344     310.494E-03    -154.797E-03    -155.697E-03    -155.194E-03     310.044E-03    -154.850E-03     28.1102E-03    -101.737E+06    -109.037E+06    -229.022E+06    -110.150E+06    -227.909E+06    -101.737E+06    -10.9146E+06         45.9415
            1908     2.56865E-03     136.991E-03         1.98926     563.898E-03        -3.63997     593.660E-03        -2.24437     563.898E-03        -2.58123     312.549E-03    -155.178E-03    -157.371E-03    -156.415E-03     311.593E-03    -155.178E-03     41.4482E-03    -82.6738E+06    -100.175E+06    -209.708E+06    -102.739E+06    -207.144E+06    -82.6738E+06    -16.0902E+06         46.2375
            1909     3.42171E-03     137.032E-03         1.53938     574.385E-03        -3.25032     657.027E-03        -2.36797     574.385E-03        -1.56525     314.528E-03    -155.636E-03    -158.892E-03    -157.223E-03     312.859E-03    -155.636E-03     55.2255E-03    -60.9239E+06    -89.1363E+06    -193.302E+06    -93.4326E+06    -189.006E+06    -60.9239E+06    -20.5088E+06         46.6292
            1910     4.27691E-03     137.079E-03         1.62366     594.709E-03        -3.41176     746.475E-03        -2.53457     594.709E-03        -3.61121     315.937E-03    -156.013E-03    -159.924E-03    -157.333E-03     313.346E-03    -156.013E-03     69.1194E-03    -39.2003E+06    -77.7077E+06    -172.866E+06    -83.6758E+06    -166.898E+06    -39.2003E+06    -22.8679E+06         47.0996
            1911     5.13089E-03     137.138E-03         1.73738     625.157E-03        -3.62911     872.167E-03        -2.76389     625.157E-03        -3.77831     317.329E-03    -156.277E-03    -161.052E-03    -157.392E-03     313.669E-03    -156.277E-03     82.4931E-03    -19.0536E+06    -66.9227E+06    -150.906E+06    -74.8005E+06    -143.028E+06    -19.0536E+06    -24.3303E+06         47.6315
            1912     5.98549E-03     137.198E-03         2.09508     663.829E-03        -4.11697     990.555E-03        -3.01244     663.829E-03        -4.69450     318.490E-03    -156.462E-03    -162.028E-03    -157.135E-03     313.597E-03    -156.462E-03     95.5177E-03    -118.937E+03    -56.6794E+06    -129.526E+06    -65.9472E+06    -120.258E+06    -118.937E+03    -24.1626E+06         48.2072
            1913     6.84011E-03     137.266E-03         2.08340     707.694E-03        -4.25753         1.11759        -3.29172     707.694E-03        -4.54092     319.002E-03    -156.539E-03    -162.463E-03    -156.139E-03     312.678E-03    -156.539E-03     108.606E-03     17.7724E+06    -48.2408E+06    -106.443E+06    -58.6621E+06    -96.0219E+06     17.7724E+06    -22.0064E+06         48.8107
            1914     7.69546E-03     137.332E-03         2.15771     755.649E-03        -4.49973         1.24599        -3.58801     755.649E-03        -4.52772     318.945E-03    -156.472E-03    -162.474E-03    -154.616E-03     311.088E-03    -156.472E-03     121.018E-03     34.8074E+06    -38.8175E+06    -82.2573E+06    -52.4082E+06    -68.6666E+06     34.8074E+06    -19.3991E+06         49.4359
            1915     8.55452E-03     137.405E-03         2.06512     807.522E-03        -4.58442         1.39481        -3.91411     807.522E-03        -3.99898     319.260E-03    -156.308E-03    -162.952E-03    -153.763E-03     310.071E-03    -156.308E-03     131.183E-03     50.6598E+06    -26.9550E+06    -63.9474E+06    -47.5961E+06    -43.3064E+06     50.6598E+06    -16.7014E+06         50.0977
            1916     9.41415E-03     137.481E-03         2.11020     862.785E-03        -4.81442         1.53343        -4.23765     862.785E-03        -3.80206     320.281E-03    -156.144E-03    -164.138E-03    -154.124E-03     310.268E-03    -156.144E-03     137.524E-03     62.7470E+06    -11.2783E+06    -52.2517E+06    -44.4754E+06    -19.0545E+06     62.7470E+06    -13.5480E+06         50.8448
            1917     10.2727E-03     137.559E-03         2.11993     920.155E-03        -5.02022         1.67375        -4.57405     920.155E-03        -3.44770     322.501E-03    -156.091E-03    -166.409E-03    -156.036E-03     312.127E-03    -156.091E-03     140.796E-03     74.6814E+06     14.5368E+06    -43.1893E+06    -40.2307E+06     11.5782E+06     74.6814E+06    -11.7295E+06         51.7783
            1918     11.1289E-03     137.641E-03         2.19052     978.034E-03        -5.29811         1.78578        -4.89336     978.034E-03        -3.38152     326.586E-03    -156.269E-03    -170.317E-03    -160.099E-03     316.367E-03    -156.269E-03     140.991E-03     87.5776E+06     47.0163E+06    -37.8130E+06    -35.1671E+06     44.3705E+06     87.5776E+06    -14.0144E+06         53.0787
            1919     11.9799E-03     137.734E-03         2.22006         1.03456        -5.54156         1.88446        -5.20597         1.03456        -3.14064     333.079E-03    -156.726E-03    -176.353E-03    -166.144E-03     322.870E-03    -156.726E-03     142.776E-03     96.8643E+06     80.3219E+06    -30.8710E+06    -28.6594E+06     79.8992E+06     95.0753E+06    -14.7169E+06         55.0542
            1920     12.8274E-03     137.850E-03         2.19862         1.08864        -5.73298         1.95339        -5.48775         1.08864        -2.73718     341.637E-03    -157.634E-03    -184.003E-03    -175.353E-03     332.987E-03    -157.634E-03     132.869E-03     103.428E+06     99.5134E+06    -22.6973E+06    -21.2783E+06     100.329E+06     101.193E+06    -12.3810E+06         58.1502
            1921     13.6642E-03     137.954E-03         2.15396         1.13914        -5.89623         2.00397        -5.74624         1.13914        -2.12575     356.343E-03    -159.086E-03    -197.257E-03    -187.557E-03     346.643E-03    -159.086E-03     143.947E-03     103.787E+06     98.9846E+06    -16.5687E+06    -15.5445E+06     101.105E+06     100.643E+06    -9.81548E+06         62.6797
            1922     14.4867E-03     138.148E-03         2.08413         1.18600        -6.03167         2.03536        -5.98290         1.18600        -1.10973     365.478E-03    -161.092E-03    -204.386E-03    -197.192E-03     358.284E-03    -161.092E-03     116.144E-03     123.586E+06     114.642E+06    -8.38940E+06    -8.06617E+06     117.017E+06     120.888E+06    -4.52703E+06         67.8342
            1923     860.841E-06     138.297E-03         8.17164     667.593E-03        -9.61469     134.709E-03        -1.57776     667.593E-03        -7.54991     299.119E-03    -149.021E-03    -150.098E-03    -149.769E-03     298.898E-03    -149.129E-03     18.2576E-03    -101.564E+06    -103.730E+06    -228.616E+06    -104.174E+06    -228.048E+06    -101.688E+06    -7.92783E+06         44.5855
            1924     1.72113E-03     138.316E-03         3.77060     398.888E-03        -5.00609     398.045E-03        -1.63353     398.888E-03         1.59371     299.038E-03    -149.278E-03    -149.760E-03    -149.025E-03     298.357E-03    -149.332E-03     33.7642E-03    -94.2512E+06    -99.5079E+06    -213.049E+06    -101.055E+06    -211.501E+06    -94.2512E+06    -12.7104E+06         44.7098
            1925     2.58290E-03     138.350E-03         1.89315     409.700E-03        -3.20027     495.110E-03        -1.80223     409.700E-03        -2.68448     299.186E-03    -149.133E-03    -150.053E-03    -148.582E-03     297.715E-03    -149.133E-03     50.2448E-03    -80.2586E+06    -94.4241E+06    -194.028E+06    -97.3848E+06    -191.067E+06    -80.2586E+06    -16.6774E+06         44.9180
            1926     3.44574E-03     138.391E-03         1.50351     439.572E-03        -2.89532     593.753E-03        -1.98556     439.572E-03        -1.82483     300.032E-03    -148.973E-03    -151.059E-03    -148.467E-03     297.440E-03    -148.973E-03     67.2187E-03    -61.7889E+06    -88.5073E+06    -180.627E+06    -93.2240E+06    -175.910E+06    -61.7889E+06    -20.1229E+06         45.2162
            1927     4.30651E-03     138.440E-03         1.73147     478.244E-03        -3.23635     709.369E-03        -2.21425     478.244E-03        -3.87451     301.188E-03    -148.845E-03    -152.342E-03    -148.302E-03     297.147E-03    -148.845E-03     84.1625E-03    -42.3323E+06    -80.9806E+06    -164.103E+06    -87.2174E+06    -157.867E+06    -42.3323E+06    -21.7453E+06         45.6064
            1928     5.16931E-03     138.497E-03         1.86133     523.646E-03        -3.50679     834.709E-03        -2.48017     523.646E-03        -4.11367     301.855E-03    -148.680E-03    -153.175E-03    -147.432E-03     296.112E-03    -148.680E-03     100.465E-03    -21.9291E+06    -73.5384E+06    -143.440E+06    -80.5717E+06    -136.407E+06    -21.9291E+06    -20.8958E+06         46.0918
            1929     6.03228E-03     138.559E-03         2.23207     573.071E-03        -4.04950     950.946E-03        -2.76837     573.071E-03        -5.01988     302.477E-03    -148.433E-03    -154.044E-03    -146.381E-03     294.814E-03    -148.433E-03     116.069E-03    -3.55232E+06    -68.6340E+06    -124.812E+06    -76.0654E+06    -117.381E+06    -3.55232E+06    -18.9532E+06         46.6812
            1930     6.89769E-03     138.624E-03         2.20959     625.128E-03        -4.22047         1.08023        -3.09111     625.128E-03        -4.88436     304.146E-03    -148.187E-03    -155.959E-03    -146.398E-03     294.585E-03    -148.187E-03     130.319E-03     13.9094E+06    -63.1849E+06    -103.550E+06    -71.7586E+06    -94.9760E+06     13.9094E+06    -16.0735E+06         47.3812
            1931     7.76413E-03     138.692E-03         2.27705     679.989E-03        -4.49065         1.21669        -3.43029     679.989E-03        -4.88177     307.374E-03    -148.100E-03    -159.274E-03    -148.199E-03     296.299E-03    -148.100E-03     141.532E-03     31.1192E+06    -54.0291E+06    -81.8328E+06    -66.9034E+06    -68.9585E+06     31.1192E+06    -12.1266E+06         48.1913
            1932     8.62666E-03     138.765E-03         2.17535     738.091E-03        -4.60069         1.37496        -3.80030     738.091E-03        -4.36785     311.423E-03    -148.267E-03    -163.155E-03    -151.159E-03     299.427E-03    -148.267E-03     148.758E-03     46.5928E+06    -39.0819E+06    -66.9788E+06    -61.9351E+06    -44.1257E+06     46.5928E+06    -8.32424E+06         49.1165
            1933     9.48679E-03     138.844E-03         2.22180     799.206E-03        -4.87122         1.52587        -4.17529     799.206E-03        -4.20356     316.517E-03    -148.727E-03    -167.790E-03    -155.642E-03     304.369E-03    -148.727E-03     151.356E-03     60.0446E+06    -16.8151E+06    -56.8628E+06    -55.4366E+06    -18.2413E+06     60.0446E+06    -6.68084E+06         50.1900
            1934     10.3430E-03     138.927E-03         2.23307     862.731E-03        -5.11979         1.69061        -4.57734     862.731E-03        -3.82862     323.838E-03    -149.556E-03    -174.281E-03    -162.560E-03     312.116E-03    -149.556E-03     150.954E-03     73.0002E+06     16.4195E+06    -48.9378E+06    -48.0620E+06     15.5438E+06     73.0002E+06    -6.79657E+06         51.4906
            1935     11.1918E-03     139.022E-03         2.30570     927.493E-03        -5.44433         1.82504        -4.96366     927.493E-03        -3.73646     333.077E-03    -150.844E-03    -182.233E-03    -171.416E-03     322.260E-03    -150.844E-03     147.629E-03      88.096E+06     57.1775E+06    -41.1648E+06    -40.2242E+06     56.2369E+06      88.096E+06    -9.24851E+06         53.1650
            1936     12.0333E-03     139.125E-03         2.34244     991.777E-03        -5.74268         1.95050        -5.35074     991.777E-03        -3.43915     344.712E-03    -152.585E-03    -192.127E-03    -181.937E-03     334.522E-03    -152.585E-03     146.436E-03     94.9600E+06     84.9053E+06    -34.3233E+06    -32.7307E+06     84.0006E+06     94.2721E+06    -13.4965E+06         55.4813
            1937     12.8645E-03     139.257E-03         2.31642         1.05479        -5.97987         2.05148        -5.71492         1.05479        -2.91089     356.668E-03    -154.812E-03    -201.856E-03    -193.368E-03     348.180E-03    -154.812E-03     135.780E-03     97.5043E+06     95.0745E+06    -25.9831E+06    -24.4722E+06     94.6974E+06     96.3705E+06    -12.9110E+06         58.8595
            1938     13.6832E-03     139.383E-03         2.30292         1.11606        -6.23127         2.13882        -6.06717         1.11606        -2.28017     372.102E-03    -157.477E-03    -214.625E-03    -205.085E-03     362.562E-03    -157.477E-03     147.132E-03     97.7685E+06     95.4320E+06    -16.7204E+06    -15.8994E+06     95.6731E+06     96.7065E+06    -8.43390E+06         63.6299
            1939     14.4967E-03     139.595E-03         2.26375         1.17548        -6.45736         2.21364        -6.40725         1.17548        -1.13982     378.081E-03    -160.425E-03    -217.657E-03    -210.600E-03     371.025E-03    -160.425E-03     118.077E-03     115.419E+06     108.671E+06    -8.57995E+06    -8.21653E+06     108.924E+06     114.803E+06    -5.14116E+06         69.0114
            1940     867.946E-06     139.635E-03         6.61909     690.228E-03        -7.77132    -79.1837E-03        -1.07305     690.228E-03        -6.29900     282.003E-03    -140.784E-03    -141.219E-03    -140.623E-03     281.682E-03    -141.059E-03     21.4077E-03    -107.264E+06    -110.313E+06    -208.345E+06    -110.436E+06    -207.773E+06    -107.714E+06    -6.67928E+06         42.9153
            1941     1.73615E-03     139.656E-03         3.16350     307.531E-03        -3.98063     318.559E-03        -1.13569     307.531E-03         1.05081     281.034E-03    -140.322E-03    -140.712E-03    -139.465E-03     280.000E-03    -140.535E-03     40.1585E-03    -99.7245E+06    -106.087E+06    -196.928E+06    -107.735E+06    -195.280E+06    -99.7245E+06    -11.7202E+06         42.9898
            1942     2.60601E-03     139.684E-03         1.62363     329.904E-03        -2.54549     451.737E-03        -1.37360     329.904E-03        -2.61337     280.102E-03    -139.873E-03    -140.229E-03    -137.984E-03     277.883E-03    -139.899E-03     59.6811E-03    -87.5001E+06    -102.248E+06    -182.045E+06    -104.810E+06    -179.483E+06    -87.5001E+06    -13.9999E+06         43.1349
            1943     3.47785E-03     139.725E-03         1.39837     373.104E-03        -2.43941     561.244E-03        -1.60228     373.104E-03        -2.13741     279.730E-03    -139.222E-03    -140.508E-03    -136.642E-03     275.865E-03    -139.222E-03     79.0353E-03    -69.6198E+06    -98.7165E+06    -168.724E+06    -102.121E+06    -165.319E+06    -69.6198E+06    -14.8893E+06         43.3791
            1944     4.35162E-03     139.775E-03         1.82883     422.845E-03        -3.01942     690.845E-03        -1.88144     422.845E-03        -4.03452     280.023E-03    -138.560E-03    -141.463E-03    -135.433E-03     273.993E-03    -138.560E-03     98.8881E-03    -49.7080E+06    -95.8386E+06    -156.227E+06    -99.9615E+06    -152.104E+06    -49.7080E+06    -14.8286E+06         43.7546
            1945     5.22491E-03     139.830E-03         2.00589     476.770E-03        -3.37564     808.697E-03        -2.17845     476.770E-03        -4.42226     281.205E-03    -137.952E-03    -143.253E-03    -134.713E-03     272.664E-03    -137.952E-03     118.105E-03    -29.7381E+06    -93.9092E+06    -138.745E+06    -97.6759E+06    -134.978E+06    -29.7381E+06    -12.0831E+06         44.2954
            1946     6.10162E-03     139.890E-03         2.35849     531.634E-03        -3.93525     920.267E-03        -2.49702     531.634E-03        -5.25700     284.129E-03    -137.523E-03    -146.605E-03    -135.666E-03     273.189E-03    -137.523E-03     134.824E-03    -10.3584E+06    -90.6531E+06    -119.234E+06    -93.9942E+06    -115.893E+06    -10.3584E+06    -9.09880E+06         45.0300
            1947     6.97644E-03     139.957E-03         2.34172     587.553E-03        -4.14508         1.04952        -2.85287     587.553E-03        -5.17704     289.828E-03    -137.470E-03    -152.358E-03    -139.440E-03     276.910E-03    -137.470E-03     148.528E-03     7.00084E+06    -80.7741E+06    -102.919E+06    -89.3183E+06    -94.3746E+06     7.00084E+06    -7.31447E+06         45.9689
            1948     7.84512E-03     140.032E-03         2.38567     645.341E-03        -4.43228         1.18441        -3.23101     645.341E-03        -5.16614     298.000E-03    -137.968E-03    -160.031E-03    -145.923E-03     283.891E-03    -137.968E-03     158.025E-03     23.4177E+06    -65.8542E+06    -86.8418E+06    -82.7154E+06    -69.9805E+06     23.4177E+06    -5.21249E+06         47.0995
            1949     8.70880E-03     140.114E-03         2.28344     706.452E-03        -4.58120         1.35885        -3.65661     706.452E-03        -4.67792     307.378E-03    -139.075E-03    -168.303E-03    -154.085E-03     293.160E-03    -139.075E-03     161.873E-03     39.4492E+06    -43.1724E+06    -74.4725E+06    -73.8581E+06    -43.7868E+06     39.4492E+06    -3.61262E+06         48.4023
            1950     9.56591E-03     140.202E-03         2.34734     772.064E-03        -4.90707         1.53864        -4.09838     772.064E-03        -4.55655     318.056E-03    -140.760E-03    -177.296E-03    -163.725E-03     304.486E-03    -140.760E-03     161.637E-03     55.5165E+06    -12.6949E+06    -64.5231E+06    -64.0155E+06    -13.2026E+06     55.5165E+06    -4.73243E+06         49.8767
            1951     10.4128E-03     140.302E-03         2.36203     841.911E-03        -5.20030         1.73336        -4.57163     841.911E-03        -4.14642     330.724E-03    -142.998E-03    -187.726E-03    -175.315E-03     318.313E-03    -142.998E-03     158.351E-03     70.0817E+06     22.3976E+06    -53.2591E+06    -52.4156E+06     21.5542E+06     70.0817E+06    -7.62683E+06         51.5616
            1952     11.2503E-03     140.411E-03         2.43948     914.582E-03        -5.57503         1.89600        -5.03155     914.582E-03        -4.02876     344.478E-03    -145.786E-03    -198.693E-03    -187.924E-03     333.710E-03    -145.786E-03     151.162E-03     86.9068E+06     65.8491E+06    -40.7703E+06    -39.7357E+06     64.8145E+06     86.9068E+06    -10.0858E+06         53.5598
            1953     12.0761E-03     140.537E-03         2.48900     988.304E-03        -5.93665         2.04815        -5.49580     988.304E-03        -3.69430     359.237E-03    -149.022E-03    -210.215E-03    -200.419E-03     349.441E-03    -149.022E-03     148.033E-03     96.4727E+06     90.3172E+06    -30.4091E+06    -29.2007E+06     91.2462E+06     94.3353E+06    -11.9526E+06         56.0982
            1954     12.8904E-03     140.689E-03         2.45230         1.06216        -6.22001         2.17691        -5.94461         1.06216        -3.03623     372.294E-03    -152.599E-03    -219.695E-03    -211.447E-03     364.046E-03    -152.599E-03     138.055E-03     94.7557E+06     90.1113E+06    -22.9049E+06    -21.4565E+06     90.8003E+06     92.6183E+06    -12.7033E+06         59.5836
            1955     13.6992E-03     140.831E-03         2.45922         1.13563        -6.54857         2.28242        -6.37177         1.13563        -2.43403     384.542E-03    -156.317E-03    -228.225E-03    -218.894E-03     375.211E-03    -156.317E-03     148.725E-03     92.4783E+06     88.6192E+06    -16.0198E+06    -14.5864E+06     88.5379E+06     91.1262E+06    -10.9792E+06         64.4047
            1956     14.5004E-03     141.059E-03         2.42397         1.20732        -6.83636         2.37014        -6.78253         1.20732        -1.17920     386.318E-03    -159.955E-03    -226.363E-03    -219.527E-03     379.482E-03    -159.955E-03     117.835E-03     110.796E+06     100.159E+06    -7.42871E+06    -6.66973E+06     100.752E+06     109.444E+06    -6.16416E+06         69.8809
            1957     877.378E-06     140.948E-03         4.71693     659.668E-03        -5.41446    -1.44099E-03    -696.089E-03     659.668E-03        -4.65210     257.254E-03    -128.296E-03    -128.958E-03    -127.842E-03     256.801E-03    -128.958E-03     24.3255E-03    -118.324E+06    -121.415E+06    -191.903E+06    -120.109E+06    -191.285E+06    -120.248E+06    -6.13270E+06         40.7365
            1958     1.75830E-03     140.962E-03         2.38492     332.108E-03        -2.80773     341.062E-03    -763.866E-03     332.108E-03     371.529E-03     255.768E-03    -127.749E-03    -128.019E-03    -126.339E-03     254.311E-03    -127.972E-03     45.4869E-03    -112.895E+06    -120.935E+06    -185.267E+06    -121.886E+06    -184.316E+06    -112.895E+06    -7.15774E+06         40.8072
            1959     2.64036E-03     140.991E-03         1.39817     356.391E-03        -1.93591     478.104E-03        -1.01584     356.391E-03        -2.51516     254.789E-03    -127.082E-03    -127.707E-03    -124.494E-03     251.602E-03    -127.108E-03     68.1451E-03    -101.301E+06    -122.548E+06    -175.919E+06    -123.719E+06    -174.748E+06    -101.301E+06    -6.22860E+06         40.9620
            1960     3.52308E-03     141.028E-03         1.38230     401.150E-03        -2.06252     578.639E-03        -1.25886     401.150E-03        -2.51199     254.238E-03    -126.189E-03    -128.049E-03    -122.455E-03     248.644E-03    -126.189E-03     90.4780E-03    -84.4551E+06    -123.111E+06    -164.277E+06    -125.103E+06    -162.285E+06    -84.4551E+06    -3.72465E+06         41.2520
            1961     4.40925E-03     141.074E-03         1.95572     450.853E-03        -2.81407     698.543E-03        -1.55689     450.853E-03        -4.17004     255.030E-03    -125.310E-03    -129.720E-03    -121.269E-03     246.579E-03    -125.310E-03     111.745E-03    -63.4184E+06    -122.694E+06    -153.812E+06    -125.594E+06    -150.913E+06    -63.4184E+06    -1.21239E+06         41.7375
            1962     5.29895E-03     141.128E-03         2.18566     504.355E-03        -3.25329     811.813E-03        -1.87944     504.355E-03        -4.70541     259.116E-03    -124.724E-03    -134.392E-03    -123.015E-03     247.739E-03    -124.724E-03     131.253E-03    -41.8503E+06    -117.552E+06    -139.633E+06    -122.994E+06    -134.191E+06    -41.8503E+06    -397.867E+03         42.4740
            1963     6.18305E-03     141.193E-03         2.48569     558.663E-03        -3.79492     913.614E-03        -2.22285     558.663E-03        -5.42411     267.132E-03    -124.753E-03    -142.379E-03    -128.504E-03     253.257E-03    -124.753E-03     147.843E-03    -22.1825E+06    -106.953E+06    -122.947E+06    -116.515E+06    -113.384E+06    -22.1825E+06    -1.47920E+06         43.4914
            1964     7.06144E-03     141.268E-03         2.47156     613.855E-03        -4.04174         1.03624        -2.60641     613.855E-03        -5.39708     278.367E-03    -125.582E-03    -152.785E-03    -137.101E-03     262.683E-03    -125.582E-03     161.258E-03    -3.55793E+06    -89.6041E+06    -108.831E+06    -106.618E+06    -91.8171E+06    -3.55793E+06    -2.31225E+06         44.7842
            1965     7.93349E-03     141.358E-03         2.49744     671.958E-03        -4.34439         1.18069        -3.02765     671.958E-03        -5.37304     291.953E-03    -127.248E-03    -164.705E-03    -148.298E-03     275.546E-03    -127.248E-03     169.896E-03     14.1601E+06    -66.7084E+06    -95.4507E+06    -94.8864E+06    -67.2728E+06     14.1601E+06    -3.87725E+06         46.3184
            1966     8.79383E-03     141.457E-03         2.40384     735.688E-03        -4.53982         1.37835        -3.51433     735.688E-03        -4.91424     307.580E-03    -129.756E-03    -177.824E-03    -161.981E-03     291.737E-03    -129.756E-03     172.383E-03     31.4547E+06    -39.5419E+06    -82.2889E+06    -81.2648E+06    -40.5660E+06     31.4547E+06    -5.80933E+06         48.0466
            1967     9.64045E-03     141.566E-03         2.48293     806.504E-03        -4.92224         1.58595        -4.02526     806.504E-03        -4.82698     324.851E-03    -133.071E-03    -191.781E-03    -177.351E-03     310.422E-03    -133.071E-03     170.055E-03     50.8703E+06    -3.17562E+06    -67.8698E+06    -66.5983E+06    -4.44713E+06     50.8703E+06    -8.20988E+06         49.9242
            1968     10.4767E-03     141.686E-03         2.49783     883.705E-03        -5.26111         1.80548        -4.56876     883.705E-03        -4.37855     342.213E-03    -137.053E-03    -205.160E-03    -192.600E-03     329.653E-03    -137.053E-03     163.649E-03     68.5316E+06     34.8500E+06    -55.2688E+06    -52.9766E+06     32.5578E+06     68.5316E+06    -13.8472E+06         51.9380
            1969     11.2979E-03     141.824E-03         2.57565     965.395E-03        -5.68599         1.99109        -5.10144     965.395E-03        -4.23468     358.631E-03    -141.501E-03    -217.131E-03    -206.488E-03     347.988E-03    -141.501E-03     154.845E-03     84.0409E+06     70.8497E+06    -42.0772E+06    -39.3093E+06     68.6729E+06     83.4497E+06    -16.9693E+06         54.1498
            1970     12.1079E-03     141.967E-03         2.62887         1.04924        -6.10414         2.15252        -5.62778         1.04924        -3.88851     374.202E-03    -146.201E-03    -228.001E-03    -218.392E-03     364.593E-03    -146.201E-03     150.873E-03     93.2398E+06     89.8568E+06    -28.5549E+06    -26.5619E+06     90.3943E+06     90.7093E+06    -14.9355E+06         56.7632
            1971     12.9125E-03     142.141E-03         2.57134         1.13353        -6.42052         2.29048        -6.13965         1.13353        -3.12375     385.385E-03    -150.956E-03    -234.429E-03    -226.286E-03     377.242E-03    -150.956E-03     140.570E-03     93.7044E+06     88.5776E+06    -18.4356E+06    -17.0645E+06     89.1459E+06     91.7650E+06    -11.9230E+06         60.2034
            1972     13.7050E-03     142.300E-03         2.57914         1.21736        -6.80566         2.39351        -6.62003         1.21736        -2.55285     393.209E-03    -155.479E-03    -237.730E-03    -228.693E-03     384.172E-03    -155.479E-03     148.807E-03     90.6139E+06     84.1961E+06    -12.4978E+06    -11.2788E+06     83.7789E+06     89.8121E+06    -9.45020E+06         64.9639
            1973     14.5072E-03     142.518E-03         2.53882         1.29810        -7.14637         2.48106        -7.08862         1.29810        -1.20815     392.192E-03    -159.604E-03    -232.588E-03    -225.980E-03     385.584E-03    -159.604E-03     118.384E-03     105.112E+06     90.3272E+06    -8.38352E+06    -7.59621E+06     90.3417E+06     104.311E+06    -5.90132E+06         70.5007
            1974     893.622E-06     142.221E-03         3.00969     710.755E-03        -3.17873     209.608E-03    -378.649E-03     710.755E-03        -3.13663     224.760E-03    -111.963E-03    -112.797E-03    -111.709E-03     224.114E-03    -112.405E-03     27.0763E-03    -137.530E+06    -142.818E+06    -191.837E+06    -144.709E+06    -188.472E+06    -139.004E+06     3.77722E+06         38.1661
            1975     1.78634E-03     142.235E-03         1.71577     462.553E-03        -1.72631     464.670E-03    -475.208E-03     462.553E-03    -306.630E-03     224.380E-03    -111.767E-03    -112.613E-03    -110.565E-03     222.343E-03    -111.777E-03     50.3011E-03    -139.256E+06    -147.311E+06    -192.325E+06    -153.998E+06    -185.638E+06    -139.256E+06     6.59972E+06         38.3097
            1976     2.68195E-03     142.258E-03         1.37626     483.316E-03        -1.51939     584.192E-03    -727.328E-03     483.316E-03        -2.45160     224.102E-03    -111.103E-03    -112.998E-03    -108.642E-03     219.745E-03    -111.103E-03     74.6634E-03    -127.898E+06    -149.234E+06    -187.808E+06    -159.612E+06    -177.429E+06    -127.898E+06     9.28324E+06         38.5883
            1977     3.58178E-03     142.292E-03         1.54884     523.960E-03        -1.85627     675.315E-03    -982.748E-03     523.960E-03        -2.86807     225.753E-03    -110.427E-03    -115.326E-03    -107.981E-03     218.407E-03    -110.427E-03     98.0751E-03    -106.928E+06    -147.162E+06    -177.522E+06    -160.031E+06    -164.653E+06    -106.928E+06     10.5044E+06         39.0658
            1978     4.48121E-03     142.336E-03         2.12225     570.123E-03        -2.63604     778.182E-03        -1.29197     570.123E-03        -4.27373     230.914E-03    -110.122E-03    -120.792E-03    -110.220E-03     220.342E-03    -110.122E-03     119.587E-03    -81.7425E+06    -140.996E+06    -162.152E+06    -153.530E+06    -149.618E+06    -81.7425E+06     8.93986E+06         39.8083
            1979     5.37597E-03     142.395E-03         2.37756     620.083E-03        -3.12749     872.850E-03        -1.62278     620.083E-03        -4.90188     240.013E-03    -110.474E-03    -129.539E-03    -115.865E-03     226.340E-03    -110.474E-03     139.208E-03    -56.1055E+06    -126.882E+06    -145.599E+06    -142.071E+06    -130.410E+06    -56.1055E+06     5.45353E+06         40.8642
            1980     6.26702E-03     142.472E-03         2.61107     671.879E-03        -3.63011     964.728E-03        -1.98376     671.879E-03        -5.49057     253.495E-03    -111.679E-03    -141.816E-03    -125.593E-03     237.272E-03    -111.679E-03     156.702E-03    -32.8586E+06    -106.360E+06    -128.794E+06    -128.306E+06    -106.848E+06    -32.8586E+06     734.261E+03         42.2502
            1981     7.14782E-03     142.565E-03         2.59598     726.560E-03        -3.91148         1.08297        -2.39846     726.560E-03        -5.49644     270.537E-03    -113.880E-03    -156.658E-03    -138.957E-03     252.837E-03    -113.880E-03     170.219E-03    -12.1290E+06    -83.9087E+06    -114.056E+06    -112.740E+06    -85.2253E+06    -12.1290E+06    -5.12552E+06         43.9444
            1982     8.01548E-03     142.674E-03         2.60533     787.126E-03        -4.23336         1.24119        -2.86922     787.126E-03        -5.44739     289.918E-03    -117.081E-03    -172.838E-03    -154.916E-03     271.997E-03    -117.081E-03     178.492E-03     7.69701E+06    -57.1624E+06    -98.5228E+06    -95.4098E+06    -60.2755E+06     7.69701E+06    -9.97452E+06         45.8922
            1983     8.87005E-03     142.800E-03         2.52397     856.715E-03        -4.47921         1.45506        -3.41030     856.715E-03        -5.02135     311.675E-03    -121.250E-03    -190.425E-03    -173.535E-03     294.784E-03    -121.250E-03     180.850E-03     27.3082E+06    -27.8157E+06    -82.0776E+06    -77.2209E+06    -32.6724E+06     27.3082E+06    -14.7050E+06         48.0161
            1984     9.70910E-03     142.939E-03         2.59842     935.582E-03        -4.90096         1.66953        -3.97207     935.582E-03        -4.93722     334.459E-03    -126.305E-03    -208.153E-03    -193.113E-03     319.418E-03    -126.305E-03     177.897E-03     47.4281E+06     6.55896E+06    -65.0036E+06    -59.8294E+06     1.38472E+06     47.4281E+06    -17.4014E+06         50.2290
            1985     10.5269E-03     143.092E-03         2.60530         1.02158        -5.27931         1.88948        -4.56349         1.02158        -4.47802     355.256E-03    -132.004E-03    -223.251E-03    -210.299E-03     342.303E-03    -132.004E-03     170.903E-03     68.9022E+06     46.3180E+06    -49.5356E+06    -45.7575E+06     42.5400E+06     68.9022E+06    -17.4208E+06         52.4760
            1986     11.3357E-03     143.249E-03         2.66323         1.11211        -5.73289         2.07407        -5.14373         1.11211        -4.28711     373.209E-03    -137.995E-03    -235.214E-03    -224.228E-03     362.223E-03    -137.995E-03     161.799E-03     83.0055E+06     75.9560E+06    -40.3012E+06    -37.0466E+06     73.3938E+06     82.3131E+06    -18.9109E+06         54.7903
            1987     12.1349E-03     143.422E-03         2.69589         1.20413        -6.17772         2.21515        -5.69698         1.20413        -3.94010     388.045E-03    -143.974E-03    -244.071E-03    -234.295E-03     378.269E-03    -143.974E-03     155.955E-03     87.6323E+06     84.7492E+06    -32.9581E+06    -29.9215E+06     84.5957E+06     84.7492E+06    -18.8571E+06         57.3672
            1988     12.9226E-03     143.608E-03         2.61476         1.29486        -6.51900         2.34031        -6.24455         1.29486        -3.10882     395.185E-03    -149.671E-03    -245.514E-03    -237.370E-03     387.041E-03    -149.671E-03     143.066E-03     88.7532E+06     82.7371E+06    -24.2259E+06    -22.1182E+06     82.8202E+06     86.5624E+06    -14.8664E+06         60.6719
            1989     13.7189E-03     143.774E-03         2.61089         1.38383        -6.95335         2.43119        -6.77366         1.38383        -2.54944     399.676E-03    -154.793E-03    -244.882E-03    -236.119E-03     390.913E-03    -154.793E-03     148.378E-03     85.4256E+06     77.8470E+06    -15.6031E+06    -14.1951E+06     76.4390E+06     85.4256E+06    -9.90371E+06         65.3101
            1990     14.5086E-03     143.992E-03         2.57334         1.46779        -7.37634         2.51359        -7.31659         1.46779        -1.20810     397.258E-03    -159.324E-03    -237.934E-03    -231.615E-03     390.938E-03    -159.324E-03     117.302E-03     103.066E+06     81.7859E+06    -6.39009E+06    -5.64418E+06     81.0400E+06     103.066E+06    -5.64022E+06         70.8658
            1991     910.499E-06     143.451E-03         1.87649     875.009E-03        -1.55352     464.017E-03    -141.047E-03     875.009E-03        -2.07348     186.356E-03    -92.3770E-03    -93.9786E-03    -93.0660E-03     185.443E-03    -92.3770E-03     29.4441E-03    -186.932E+06    -214.501E+06    -238.418E+06    -219.306E+06    -207.883E+06    -212.662E+06     13.7591E+06         35.4759
            1992     1.82198E-03     143.462E-03         1.37152     678.421E-03    -923.260E-03     701.191E-03    -252.927E-03     678.421E-03    -840.413E-03     188.571E-03    -92.8706E-03    -95.7004E-03    -92.9844E-03     185.855E-03    -92.8706E-03     53.6059E-03    -177.748E+06    -196.266E+06    -227.985E+06    -212.370E+06    -197.214E+06    -192.415E+06     17.5988E+06         35.7721
            1993     2.73378E-03     143.484E-03         1.54214     704.990E-03        -1.25773     797.885E-03    -513.476E-03     704.990E-03        -2.44419     192.463E-03    -93.1349E-03    -99.3278E-03    -93.8494E-03     186.984E-03    -93.1349E-03     78.1650E-03    -160.967E+06    -174.979E+06    -214.668E+06    -202.080E+06    -184.265E+06    -164.269E+06     18.3195E+06         36.2885
            1994     3.64413E-03     143.517E-03         1.83054     745.794E-03        -1.74579     880.096E-03    -795.343E-03     745.794E-03        -3.13428     199.494E-03    -93.7104E-03    -105.784E-03    -97.0172E-03     190.728E-03    -93.7104E-03     101.381E-03    -131.221E+06    -156.157E+06    -196.192E+06    -187.561E+06    -164.787E+06    -131.221E+06     15.0568E+06         37.0742
            1995     4.55108E-03     143.569E-03         2.31925     791.936E-03        -2.47254     962.526E-03        -1.11581     791.936E-03        -4.31361     210.477E-03    -94.8878E-03    -115.589E-03    -103.460E-03     198.348E-03    -94.8878E-03     123.101E-03    -99.0298E+06    -139.669E+06    -173.555E+06    -169.852E+06    -143.372E+06    -99.0298E+06     7.90569E+06         38.1735
            1996     5.45243E-03     143.639E-03         2.56630     841.657E-03        -2.99093         1.03428        -1.45892     841.657E-03        -4.96528     225.446E-03    -96.8594E-03    -128.587E-03    -113.389E-03     210.249E-03    -96.8594E-03     143.410E-03    -69.0512E+06    -119.267E+06    -151.829E+06    -149.522E+06    -121.574E+06    -69.0512E+06    -788.531E+03         39.6113
            1997     6.34406E-03     143.732E-03         2.73113     894.940E-03        -3.45845         1.11486        -1.84217     894.940E-03        -5.42857     244.251E-03    -99.7271E-03    -144.524E-03    -126.936E-03     226.663E-03    -99.7271E-03     161.583E-03    -40.9568E+06    -93.4169E+06    -130.530E+06    -126.887E+06    -97.0602E+06    -40.9568E+06    -8.14308E+06         41.3839
            1998     7.22339E-03     143.850E-03         2.72213     954.959E-03        -3.77562         1.23825        -2.29174     954.959E-03        -5.45152     266.245E-03    -103.567E-03    -162.678E-03    -143.958E-03     247.525E-03    -103.567E-03     175.214E-03    -16.5200E+06     -67.951E+06    -111.888E+06    -105.193E+06    -74.6460E+06    -16.5200E+06    -14.7107E+06         43.4552
            1999     8.08788E-03     143.987E-03         2.70608         1.02476        -4.10944         1.39387        -2.79722         1.02476        -5.35522     291.336E-03    -108.419E-03    -182.918E-03    -164.216E-03     272.634E-03    -108.419E-03     184.513E-03     4.83206E+06    -40.9360E+06    -95.8911E+06    -86.3872E+06    -50.4399E+06     4.83206E+06    -20.4064E+06         45.7542
            2000     8.93408E-03     144.147E-03         2.62791         1.10562        -4.40234         1.59133        -3.36576         1.10562        -4.96926     317.905E-03    -114.235E-03    -203.669E-03    -186.033E-03     300.269E-03    -114.235E-03     188.313E-03     24.6825E+06    -12.6966E+06    -81.1268E+06    -70.6385E+06    -23.1849E+06     24.6825E+06    -24.5422E+06         48.1766
            2001     9.75885E-03     144.324E-03         2.67295         1.19586        -4.84150         1.78324        -3.95179         1.19586        -4.84875     343.267E-03    -120.814E-03    -222.453E-03    -206.591E-03     327.405E-03    -120.814E-03     186.561E-03     42.9940E+06     13.5550E+06    -67.2978E+06    -57.5681E+06     3.82532E+06     42.9940E+06    -26.1732E+06         50.6133
            2002     10.5732E-03     144.508E-03         2.65345         1.29165        -5.23850         1.96492        -4.54997         1.29165        -4.41165     366.667E-03    -127.873E-03    -238.794E-03    -224.994E-03     352.867E-03    -127.873E-03     180.388E-03     63.0345E+06     45.4359E+06    -51.3979E+06    -45.1191E+06     39.1571E+06     63.0345E+06    -22.3606E+06         52.9917
            2003     11.3691E-03     144.698E-03         2.66978         1.38924        -5.68922         2.11604        -5.13548         1.38924        -4.15590     386.025E-03    -135.104E-03    -250.922E-03    -239.265E-03     374.368E-03    -135.104E-03     170.517E-03     80.8750E+06     75.6654E+06    -37.9999E+06    -35.0768E+06     73.4559E+06     80.1614E+06    -16.5315E+06         55.3246
            2004     12.1534E-03     144.892E-03         2.66299         1.48515        -6.13136         2.21904        -5.68741         1.48515        -3.79427     399.008E-03    -142.107E-03    -256.901E-03    -246.666E-03     388.773E-03    -142.107E-03     162.514E-03     89.0490E+06     85.1714E+06    -31.7967E+06    -29.6016E+06     86.8539E+06     85.1714E+06    -15.4364E+06         57.8094
            2005     12.9410E-03     145.089E-03         2.57256         1.57623        -6.51049         2.31825        -6.25619         1.57623        -2.97307     404.315E-03    -148.577E-03    -255.738E-03    -247.599E-03     396.176E-03    -148.577E-03     144.932E-03     88.7735E+06     76.6415E+06    -26.9405E+06    -24.3768E+06     77.2419E+06     85.6095E+06    -16.0444E+06         60.9508
            2006     13.7219E-03     145.252E-03         2.53856         1.66288        -6.97600         2.38251        -6.81995         1.66288        -2.38280     406.096E-03    -154.273E-03    -251.823E-03    -243.706E-03     397.979E-03    -154.273E-03     144.433E-03     84.3857E+06     70.5669E+06    -19.1576E+06    -16.7400E+06     68.1493E+06     84.3857E+06    -14.3409E+06         65.4317
            2007     14.5133E-03     145.479E-03         2.50901         1.74177        -7.47748         2.45291        -7.42138         1.74177        -1.16575     400.120E-03    -159.164E-03    -240.956E-03    -235.207E-03     394.370E-03    -159.164E-03     112.557E-03     103.822E+06     72.1639E+06    -10.6748E+06    -9.25054E+06     70.7396E+06     103.822E+06    -9.53298E+06         70.9393
            2008     930.662E-06     144.629E-03         1.49059         1.07980    -573.644E-03     879.248E-03     37.7021E-03         1.07980        -1.42677     148.080E-03    -72.8536E-03    -75.2261E-03    -73.8432E-03     147.011E-03    -73.1681E-03     28.5134E-03    -222.328E+06    -328.274E+06    -335.704E+06    -330.925E+06    -224.661E+06    -330.720E+06     1.63664E+06         33.0907
            2009     1.85895E-03     144.644E-03         1.43103     996.331E-03    -515.885E-03         1.04029    -125.136E-03     996.331E-03        -1.18686     154.024E-03    -74.2301E-03    -79.7938E-03    -76.6883E-03     150.918E-03    -74.2301E-03     52.3690E-03    -197.679E+06    -286.670E+06    -307.183E+06    -302.172E+06    -202.690E+06    -286.670E+06    -638.672E+03         33.5680
            2010     2.78381E-03     144.669E-03         1.81800         1.03462        -1.09030         1.13807    -410.372E-03         1.03462        -2.44882     164.140E-03    -75.9707E-03    -88.1692E-03    -82.1008E-03     158.072E-03    -75.9707E-03     76.6612E-03    -176.253E+06    -233.620E+06    -269.479E+06    -262.610E+06    -185.047E+06    -231.695E+06    -4.55182E+06         34.3579
            2011     3.70281E-03     144.713E-03         2.14675         1.08370        -1.65642         1.21092    -720.587E-03         1.08370        -3.26292     177.806E-03    -78.3913E-03    -99.4151E-03    -89.8660E-03     168.257E-03    -78.3913E-03     100.799E-03    -145.460E+06    -183.753E+06    -227.212E+06    -220.024E+06    -160.112E+06    -176.289E+06    -8.33649E+06         35.4797
            2012     4.61479E-03     144.776E-03         2.53260         1.13644        -2.32293         1.27201        -1.06235         1.13644        -4.25128     194.867E-03    -81.4916E-03    -113.376E-03    -100.437E-03     181.928E-03    -81.4916E-03     123.531E-03    -111.675E+06    -139.964E+06    -188.927E+06    -180.588E+06    -134.431E+06    -125.547E+06    -13.8373E+06         36.9455
            2013     5.51710E-03     144.865E-03         2.75011         1.19297        -2.85441         1.32467        -1.42897         1.19297        -4.87617     215.769E-03    -85.3597E-03    -130.409E-03    -114.590E-03     199.950E-03    -85.3597E-03     144.569E-03    -80.1624E+06    -103.614E+06    -157.597E+06    -147.191E+06    -110.526E+06    -83.6577E+06    -19.5414E+06         38.7507
            2014     6.40633E-03     144.981E-03         2.85987         1.25598        -3.30191         1.39964        -1.84167         1.25598        -5.22602     239.573E-03    -90.0644E-03    -149.509E-03    -131.648E-03     221.712E-03    -90.0644E-03     162.842E-03    -51.2892E+06    -75.3472E+06    -134.753E+06    -122.488E+06    -87.6123E+06    -51.2892E+06    -23.6296E+06         40.8654
            2015     7.28202E-03     145.127E-03         2.85164         1.32963        -3.65203         1.51053        -2.31091         1.32963        -5.25404     265.750E-03    -95.6159E-03    -170.134E-03    -151.373E-03     246.989E-03    -95.6159E-03     176.859E-03    -25.3008E+06    -50.6567E+06    -118.380E+06    -104.201E+06    -64.8355E+06    -25.3008E+06    -27.4408E+06         43.2328
            2016     8.14030E-03     145.299E-03         2.80832         1.41569        -3.99329         1.64080        -2.82577         1.41569        -5.10449     294.379E-03    -102.021E-03    -192.359E-03    -173.603E-03     275.624E-03    -102.021E-03     187.270E-03    -1.55025E+06    -24.2447E+06    -104.105E+06    -88.4539E+06    -39.8959E+06    -1.55025E+06    -31.6255E+06         45.7651
            2017     8.97797E-03     145.501E-03         2.72840         1.51282        -4.33019         1.78925        -3.39104         1.51282        -4.78208     322.859E-03    -109.176E-03    -213.684E-03    -195.792E-03     304.968E-03    -109.176E-03     192.477E-03     19.2751E+06    -1.24163E+06    -90.3373E+06    -74.0902E+06    -17.4887E+06     19.2751E+06    -34.3446E+06         48.3510
            2018     9.80225E-03     145.711E-03         2.71274         1.61705        -4.76016         1.92159        -3.96900         1.61705        -4.58101     349.905E-03    -116.878E-03    -233.027E-03    -216.787E-03     333.665E-03    -116.878E-03     191.606E-03     38.6836E+06     19.1406E+06    -74.3972E+06    -59.6208E+06     4.36418E+06     38.6836E+06    -33.8294E+06         50.8833
            2019     10.6047E-03     145.936E-03         2.64359         1.72299        -5.15033         2.03220        -4.53894         1.72299        -4.16795     374.348E-03    -124.895E-03    -249.453E-03    -235.237E-03     360.132E-03    -124.895E-03     185.899E-03     56.4225E+06     39.3339E+06    -57.1970E+06    -46.8637E+06     29.0005E+06     56.4225E+06    -29.1281E+06         53.2873
            2020     11.3935E-03     146.161E-03         2.61106         1.82579        -5.58246         2.12947        -5.10087         1.82579        -3.84164     393.452E-03    -132.924E-03    -260.528E-03    -248.445E-03     381.369E-03    -132.924E-03     175.875E-03     75.6124E+06     67.2139E+06    -40.1665E+06    -34.8114E+06     62.5130E+06     74.9582E+06    -21.3331E+06         55.5738
            2021     12.1768E-03     146.372E-03         2.54731         1.92169        -5.99438         2.18271        -5.62978         1.92169        -3.41960     406.615E-03    -140.626E-03    -265.989E-03    -255.753E-03     396.379E-03    -140.626E-03     164.492E-03     91.7473E+06     85.5960E+06    -24.9170E+06    -22.5968E+06     85.3932E+06     89.6299E+06    -14.2649E+06         57.9439
            2022     12.9509E-03     146.580E-03         2.44942         2.00682        -6.39929         2.23070        -6.18057         2.00682        -2.70629     411.909E-03    -147.714E-03    -264.196E-03    -256.346E-03     404.059E-03    -147.714E-03     144.078E-03     95.8635E+06     78.4206E+06    -16.1355E+06    -14.4241E+06     78.1725E+06     94.4003E+06    -12.0048E+06         60.9210
            2023     13.7275E-03     146.755E-03         2.40896         2.05230        -6.87128         2.25947        -6.75158         2.08209        -2.05882     411.214E-03    -153.885E-03    -257.329E-03    -249.879E-03     403.764E-03    -153.885E-03     139.825E-03     92.2203E+06     71.3937E+06    -12.3684E+06    -10.2891E+06     69.3144E+06     92.2203E+06    -12.6376E+06         65.2552
            2024     14.5105E-03     146.952E-03         2.41816         2.07169        -7.41338         2.30059        -7.36894         2.14482        -1.06713     401.976E-03    -159.059E-03    -242.918E-03    -237.736E-03     396.795E-03    -159.059E-03     107.968E-03     109.053E+06     59.0141E+06    -6.64723E+06    -5.21054E+06     57.5774E+06     109.053E+06    -9.55703E+06         70.7710
            2025     943.994E-06     145.766E-03         1.64612         1.44143    -174.591E-03         1.41457     56.9584E-03         1.44143        -1.06217     120.650E-03    -59.0489E-03    -61.6013E-03    -60.3616E-03     119.725E-03    -59.3634E-03     24.2030E-03    -205.162E+06    -355.659E+06    -362.378E+06    -358.776E+06    -207.814E+06    -356.609E+06    -17.3637E+06         31.5101
            2026     1.88629E-03     145.786E-03         1.78845         1.45538    -426.816E-03         1.51530    -153.664E-03         1.45538        -1.34751     129.131E-03    -60.9580E-03    -68.1732E-03    -65.3998E-03     126.358E-03    -60.9580E-03     45.4437E-03    -176.273E+06    -324.115E+06    -344.633E+06    -337.205E+06    -183.701E+06    -324.115E+06    -31.6671E+06         32.1163
            2027     2.82057E-03     145.826E-03         2.16495         1.50944    -994.326E-03         1.62086    -450.236E-03         1.50944        -2.36597     142.954E-03    -63.6934E-03    -79.2609E-03    -73.7089E-03     137.402E-03    -63.6934E-03     68.8942E-03    -153.470E+06    -278.804E+06    -318.316E+06    -304.234E+06    -167.552E+06    -278.804E+06    -44.2976E+06         33.1009
            2028     3.74658E-03     145.883E-03         2.47443         1.57227        -1.58011         1.67849    -784.164E-03         1.57227        -3.19702     161.219E-03    -67.3722E-03    -93.8466E-03    -84.9652E-03     152.337E-03    -67.3722E-03     93.2721E-03    -125.814E+06    -229.484E+06    -285.739E+06    -265.149E+06    -146.403E+06    -229.484E+06    -52.8536E+06         34.4669
            2029     4.66143E-03     145.968E-03         2.75530         1.63723        -2.20092         1.71470        -1.16032         1.63723        -4.01962     183.738E-03    -71.9534E-03    -111.784E-03    -99.5708E-03     171.524E-03    -71.9534E-03     117.564E-03    -96.6613E+06    -177.576E+06    -249.821E+06    -223.793E+06    -122.690E+06    -177.576E+06    -57.1673E+06         36.2004
            2030     5.56274E-03     146.079E-03         2.92828         1.70751        -2.73560         1.75008        -1.55739         1.70751        -4.58001     209.683E-03    -77.4290E-03    -132.254E-03    -117.227E-03     194.656E-03    -77.4290E-03     140.121E-03    -71.5473E+06    -129.377E+06    -214.903E+06    -184.000E+06    -103.802E+06    -128.026E+06    -58.2153E+06         38.2670
            2031     6.44914E-03     146.227E-03         2.98672         1.78746        -3.16184         1.80248        -1.97759         1.78746        -4.82447     237.897E-03    -83.7331E-03    -154.164E-03    -137.296E-03     221.029E-03    -83.7331E-03     159.018E-03    -50.1897E+06    -88.0931E+06    -179.043E+06    -146.609E+06    -86.9453E+06    -83.7716E+06    -54.5640E+06         40.6085
            2032     7.31818E-03     146.401E-03         2.97755         1.88053        -3.54001         1.87773        -2.44019         1.88053        -4.86529     267.978E-03    -90.7970E-03    -177.181E-03    -159.412E-03     250.209E-03    -90.7970E-03     174.179E-03    -26.3489E+06    -49.0856E+06    -145.211E+06    -114.807E+06    -62.0139E+06    -43.8249E+06    -49.8572E+06         43.1407
            2033     8.16836E-03     146.616E-03         2.90121         1.98697        -3.88764         1.95736        -2.94378         1.98697        -4.65934     297.905E-03    -98.5039E-03    -199.401E-03    -181.616E-03     280.120E-03    -98.5039E-03     184.493E-03    -3.38636E+06    -14.6328E+06    -117.207E+06    -89.3858E+06    -36.9604E+06    -8.88013E+06    -46.5187E+06         45.7589
            2034     9.00466E-03     146.848E-03         2.79951         2.10310        -4.25207         2.02886        -3.48141         2.10310        -4.38541     326.508E-03    -106.669E-03    -219.839E-03    -203.061E-03     309.730E-03    -106.669E-03     188.206E-03     18.6504E+06     8.47513E+06    -94.8925E+06    -70.2518E+06    -16.1656E+06     18.6504E+06    -43.5869E+06         48.3564
            2035     9.81904E-03     147.105E-03         2.73212         2.19526        -4.64697         2.07232        -4.01460         2.22268        -4.08281     353.383E-03    -115.125E-03    -238.257E-03    -223.027E-03     338.153E-03    -115.125E-03     187.102E-03     38.8681E+06     21.2923E+06    -77.5602E+06    -57.6572E+06     1.38929E+06     38.8681E+06    -39.4782E+06         50.8406
            2036     10.6192E-03     147.366E-03         2.66077         2.25570        -5.01044         2.09782        -4.53041         2.33862        -3.67776     376.208E-03    -123.647E-03    -252.561E-03    -239.070E-03     362.717E-03    -123.647E-03     181.948E-03     55.6219E+06     34.3020E+06    -62.8915E+06    -48.6200E+06     20.0306E+06     55.6219E+06    -34.0755E+06         53.1587
            2037     11.4093E-03     147.621E-03         2.68717         2.25284        -5.41258         2.12487        -5.04291         2.44547        -3.29538     394.983E-03    -131.989E-03    -262.994E-03    -251.456E-03     383.444E-03    -131.989E-03     172.389E-03     73.5150E+06     61.3222E+06    -48.7268E+06    -39.8463E+06     52.4837E+06     73.4731E+06    -29.2131E+06         55.3384
            2038     12.1849E-03     147.861E-03         2.68207         2.21282        -5.76988         2.10497        -5.51793         2.53797        -2.79143     408.356E-03    -139.939E-03    -268.416E-03    -258.775E-03     398.715E-03    -139.939E-03     160.182E-03     86.5377E+06     78.1284E+06    -35.2067E+06    -29.4969E+06     72.4605E+06     86.4958E+06    -23.4927E+06         57.5726
            2039     12.9575E-03     148.085E-03         2.66134         2.18755        -6.17827         2.07705        -6.01639         2.60995        -2.25754     413.489E-03    -147.246E-03    -266.243E-03    -258.805E-03     406.051E-03    -147.246E-03     140.843E-03     96.0844E+06     75.6156E+06    -21.6237E+06    -17.8137E+06     71.8056E+06     96.0844E+06    -16.9516E+06         60.3876
            2040     13.7334E-03     148.253E-03         2.66774         2.11164        -6.62586         2.03965        -6.54870         2.66257        -1.59068     412.402E-03    -153.584E-03    -258.818E-03    -252.170E-03     405.754E-03    -153.584E-03     132.607E-03     95.9643E+06     67.6810E+06    -10.3457E+06    -8.52399E+06     65.8593E+06     95.9643E+06    -10.7452E+06         64.6244
            2041     14.5165E-03     148.448E-03         2.69391         2.04299        -7.17011         2.01476        -7.14189         2.69391    -895.032E-03     402.765E-03    -158.916E-03    -243.849E-03    -239.472E-03     398.388E-03    -158.916E-03     99.7142E-03     112.971E+06     45.4897E+06    -5.35817E+06    -4.67765E+06     44.8091E+06     112.971E+06    -4.89578E+06         70.2641
            2042     949.650E-06     146.881E-03         2.19031         2.04862    -281.105E-03         2.04758    -192.388E-03         2.10263    -843.252E-03     112.474E-03    -54.9575E-03    -57.5160E-03    -56.6688E-03     111.946E-03    -55.2776E-03     17.1506E-03    -157.142E+06    -275.332E+06    -286.412E+06    -280.672E+06    -162.882E+06    -275.332E+06    -25.4158E+06         31.2107
            2043     1.89362E-03     146.911E-03         2.36577         2.11805    -568.331E-03         2.18938    -391.941E-03         2.11805        -1.29051     120.923E-03    -57.1941E-03    -63.7294E-03    -62.0682E-03     119.262E-03    -57.1941E-03     33.1553E-03    -127.046E+06    -255.995E+06    -285.140E+06    -270.930E+06    -141.256E+06    -255.995E+06    -44.1195E+06         31.8493
            2044     2.83347E-03     146.962E-03         2.63185         2.18950        -1.05421         2.27536    -697.714E-03         2.18950        -2.12476     134.321E-03    -60.1373E-03    -74.1833E-03    -70.6224E-03     130.760E-03    -60.1373E-03     52.5577E-03    -104.639E+06    -230.662E+06    -283.883E+06    -257.703E+06    -130.820E+06    -230.662E+06    -62.2710E+06         32.8848
            2045     3.76234E-03     147.040E-03         2.85590         2.26639        -1.60717         2.30660        -1.05787         2.26639        -2.87507     153.564E-03    -64.1485E-03    -89.4153E-03    -83.3640E-03     147.512E-03    -64.1485E-03     74.4226E-03    -80.4474E+06    -203.335E+06    -278.113E+06    -240.601E+06    -117.960E+06    -203.335E+06    -76.5101E+06         34.3169
            2046     4.67886E-03     147.145E-03         3.01916         2.34612        -2.15838         2.30122        -1.44043         2.34612        -3.52763     177.861E-03    -69.3025E-03    -108.558E-03    -99.7607E-03     169.063E-03    -69.3025E-03     97.6647E-03    -54.9736E+06    -171.932E+06    -265.327E+06    -219.665E+06    -100.636E+06    -171.932E+06    -85.5708E+06         36.1182
            2047     5.57857E-03     147.290E-03         3.10847         2.43272        -2.65241         2.28758        -1.83151         2.43272        -3.98175     205.815E-03    -75.5066E-03    -130.308E-03    -119.058E-03     194.564E-03    -75.5066E-03     119.899E-03    -36.8626E+06    -138.392E+06    -248.366E+06    -194.061E+06    -91.1673E+06    -138.392E+06    -91.2326E+06         38.2356
            2048     6.46156E-03     147.464E-03         3.10601         2.53151        -3.05447         2.28948        -2.23794         2.53151        -4.12649     236.502E-03    -82.6147E-03    -153.887E-03    -140.812E-03     223.427E-03    -82.6147E-03     139.599E-03    -26.6700E+06    -106.957E+06    -226.383E+06    -165.737E+06    -87.3156E+06    -106.957E+06    -91.4506E+06         40.5905
            2049     7.32479E-03     147.682E-03         3.08187         2.63240        -3.43814         2.30469        -2.67459         2.64603        -4.14473     268.286E-03    -90.4791E-03    -177.806E-03    -163.631E-03     254.110E-03    -90.4791E-03     155.695E-03    -9.62288E+06    -72.2191E+06    -195.248E+06    -137.488E+06    -67.3829E+06    -72.2191E+06    -85.8228E+06         43.0784
            2050     8.17097E-03     147.925E-03         3.08454         2.63146        -3.77647         2.29789        -3.13241         2.77405        -3.89179     299.205E-03    -98.9243E-03    -200.281E-03    -186.027E-03     284.951E-03    -98.9243E-03     165.510E-03     6.06469E+06    -35.4392E+06    -163.765E+06    -111.828E+06    -46.5976E+06    -34.7141E+06    -77.9779E+06         45.5839
            2051     8.99623E-03     148.201E-03         3.09451         2.60678        -4.13373         2.26559        -3.60645         2.90842        -3.63950     327.237E-03    -107.680E-03    -219.557E-03    -206.004E-03     313.684E-03    -107.680E-03     169.382E-03     19.3964E+06    -2.36101E+06    -132.428E+06    -88.3094E+06    -28.8439E+06     1.76088E+06    -67.4913E+06         48.0060
            2052     9.80866E-03     148.492E-03         3.12358         2.54022        -4.48629         2.20699        -4.07067         3.04118        -3.25269     351.488E-03    -116.427E-03    -235.061E-03    -222.402E-03     338.829E-03    -116.427E-03     169.999E-03     37.4153E+06     16.0737E+06    -102.257E+06    -68.0452E+06    -14.0426E+06     33.3201E+06    -54.3338E+06         50.2809
            2053     10.6095E-03     148.787E-03         3.16444         2.43321        -4.80901         2.13495        -4.51074         3.16444        -2.83855     372.458E-03    -124.929E-03    -247.529E-03    -236.173E-03     361.102E-03    -124.929E-03     165.781E-03     58.5940E+06     31.1697E+06    -74.3027E+06    -49.6684E+06     6.53543E+06     58.5940E+06    -43.3033E+06         52.3924
            2054     11.3972E-03     149.074E-03         3.27082         2.28192        -5.15510         2.05829        -4.93147         3.27082        -2.44539     389.615E-03    -133.054E-03    -256.560E-03    -246.642E-03     379.696E-03    -133.054E-03     158.606E-03     79.0215E+06     52.1091E+06    -47.7199E+06    -34.4412E+06     38.8305E+06     79.0215E+06    -32.1380E+06         54.3901
            2055     12.1784E-03     149.348E-03         3.35205         2.06888        -5.44618         1.94002        -5.31731         3.35205        -1.89954     401.285E-03    -140.672E-03    -260.613E-03    -252.147E-03     392.818E-03    -140.672E-03     148.404E-03     96.0289E+06     70.0112E+06    -32.1880E+06    -25.7515E+06     63.5747E+06     96.0289E+06    -23.0739E+06         56.4717
            2056     12.9590E-03     149.572E-03         3.39995         1.89581        -5.80981         1.80705        -5.72105         3.39995        -1.58188     407.676E-03    -147.644E-03    -260.032E-03    -253.534E-03     401.178E-03    -147.644E-03     130.414E-03     106.430E+06     68.5092E+06    -25.6143E+06    -20.9437E+06     63.8386E+06     106.430E+06    -19.2788E+06         59.1587
            2057     13.7336E-03     149.767E-03         3.41497         1.70769        -6.19542         1.67070        -6.15843         3.41497    -990.198E-03     408.051E-03    -153.750E-03    -254.301E-03    -249.013E-03     402.763E-03    -153.750E-03     117.586E-03     100.016E+06     50.0848E+06    -18.1326E+06    -15.1409E+06     47.0932E+06     100.016E+06    -12.8983E+06         63.3630
            2058     14.5164E-03     149.924E-03         3.39699         1.60015        -6.68701         1.58716        -6.67402         3.39699    -609.389E-03     399.237E-03    -158.956E-03    -240.281E-03    -237.097E-03     396.053E-03    -158.956E-03     84.8843E-03     120.069E+06     35.4671E+06    -8.59792E+06    -6.49526E+06     33.3644E+06     120.069E+06    -3.48692E+06         69.2415
            2059     941.832E-06     148.001E-03         3.09865         3.00543    -833.219E-03         3.01437    -802.955E-03         3.05945    -602.283E-03     128.178E-03    -63.2441E-03    -64.9337E-03    -64.4704E-03     128.035E-03    -63.5643E-03     6.95129E-03    -103.210E+06    -180.320E+06    -192.927E+06    -184.994E+06    -111.143E+06    -180.320E+06    -24.5281E+06         32.6031
            2060     1.88104E-03     148.037E-03         3.19988         3.09097        -1.06916         3.12335    -992.629E-03         3.09097    -980.066E-03     134.757E-03    -65.2545E-03    -69.5024E-03    -69.0202E-03     134.275E-03    -65.2545E-03     14.5968E-03    -73.6014E+06    -163.331E+06    -196.462E+06    -177.587E+06    -92.4769E+06    -163.331E+06    -43.1337E+06         33.1985
            2061     2.81301E-03     148.100E-03         3.33805         3.16721        -1.44645         3.17188        -1.28210         3.16903        -1.61048     146.239E-03    -68.1098E-03    -78.1295E-03    -76.9892E-03     145.099E-03    -68.1098E-03     24.8898E-03    -52.9515E+06    -139.595E+06    -199.932E+06    -166.881E+06    -86.0023E+06    -139.595E+06    -60.4949E+06         34.1567
            2062     3.73795E-03     148.193E-03         3.45312         3.20838        -1.87712         3.13960        -1.60986         3.25464        -2.16798     162.498E-03    -72.1162E-03    -90.3820E-03    -88.2603E-03     160.377E-03    -72.1162E-03     38.1192E-03    -33.9672E+06    -115.929E+06    -200.761E+06    -154.324E+06    -80.4034E+06    -115.929E+06    -74.2866E+06         35.4676
            2063     4.64735E-03     148.326E-03         3.54623         3.19531        -2.30381         3.04286        -1.94862         3.34349        -2.62242     183.179E-03    -77.1949E-03    -105.984E-03    -102.616E-03     179.810E-03    -77.1949E-03     53.7658E-03    -14.3466E+06    -95.4878E+06    -197.999E+06    -142.474E+06    -69.8714E+06    -95.4878E+06    -84.0899E+06         37.0983
            2064     5.54400E-03     148.492E-03         3.61234         3.18058        -2.70508         2.93606        -2.28880         3.44058        -2.93145     207.884E-03    -83.2734E-03    -124.610E-03    -119.898E-03     203.171E-03    -83.2734E-03     70.7165E-03    -3.47099E+06    -81.0888E+06    -196.514E+06    -134.122E+06    -65.8629E+06    -81.0888E+06    -90.1595E+06         38.9922
            2065     6.42094E-03     148.705E-03         3.65478         3.14911        -3.04442         2.84088        -2.63474         3.55332        -2.97190     235.542E-03    -90.2506E-03    -145.292E-03    -139.359E-03     229.610E-03    -90.2506E-03     86.9501E-03    -155.167E+03    -71.2111E+06    -198.511E+06    -128.944E+06    -69.7231E+06    -71.2111E+06    -94.5332E+06         41.0630
            2066     7.28117E-03     148.950E-03         3.70294         3.11306        -3.38597         2.74917        -3.00335         3.68420        -2.94945     264.602E-03    -97.9627E-03    -166.639E-03    -159.810E-03     257.773E-03    -97.9627E-03     100.944E-03     9.26291E+06    -56.4267E+06    -193.386E+06    -122.072E+06    -62.0502E+06    -56.4267E+06    -96.2967E+06         43.2002
            2067     8.12107E-03     149.238E-03         3.82747         2.93307        -3.69107         2.61787        -3.37587         3.82747        -2.68113     292.361E-03    -106.142E-03    -186.219E-03    -178.935E-03     285.077E-03    -106.142E-03     111.702E-03     19.1163E+06    -33.0474E+06    -178.857E+06    -110.659E+06    -49.0822E+06    -33.0474E+06    -93.5341E+06         45.2965
            2068     8.94523E-03     149.546E-03         3.97229         2.70466        -4.00735         2.45564        -3.75834         3.97229        -2.42291     317.087E-03    -114.396E-03    -202.691E-03    -195.163E-03     309.559E-03    -114.396E-03     120.261E-03     22.6832E+06    -6.40381E+06    -160.504E+06    -96.2648E+06    -41.5557E+06    -6.40381E+06    -86.9444E+06         47.2797
            2069     9.75837E-03     149.866E-03         4.10936         2.45766        -4.30965         2.27347        -4.12546         4.10936        -2.02064     339.337E-03    -122.428E-03    -216.909E-03    -209.327E-03     331.755E-03    -122.428E-03     126.170E-03     29.6860E+06     12.4792E+06    -138.000E+06    -78.8859E+06    -36.8344E+06     19.8852E+06    -76.9069E+06         49.1214
            2070     10.5606E-03     150.194E-03         4.22901         2.18511        -4.55866         2.07194        -4.44550         4.22901        -1.58988     357.775E-03    -130.051E-03    -227.724E-03    -220.371E-03     350.422E-03    -130.051E-03     128.684E-03     48.0998E+06     28.8249E+06    -107.165E+06    -60.5483E+06    -16.4714E+06     46.7791E+06    -64.4682E+06         50.8372
            2071     11.3554E-03     150.513E-03         4.32001         1.93289        -4.80395         1.85228        -4.72334         4.32001        -1.24813     371.969E-03    -137.120E-03    -234.849E-03    -227.770E-03     364.890E-03    -137.120E-03     129.492E-03     74.6175E+06     36.9696E+06    -73.2256E+06    -43.9337E+06     7.67768E+06     74.6175E+06    -47.9328E+06         52.5227
            2072     12.1497E-03     150.800E-03         4.37208         1.63354        -4.99541         1.59905        -4.96092         4.37208    -783.762E-03     383.309E-03    -143.602E-03    -239.706E-03    -233.148E-03     376.751E-03    -143.602E-03     126.758E-03     110.513E+06     51.3985E+06    -41.8095E+06    -28.7220E+06     38.3110E+06     110.513E+06    -27.6963E+06         54.4176
            2073     12.9342E-03     151.060E-03         4.37763         1.37292        -5.23751         1.34737        -5.21196         4.37763    -683.053E-03     392.316E-03    -149.468E-03    -242.848E-03    -237.343E-03     386.811E-03    -149.468E-03     117.483E-03     129.217E+06     58.5634E+06    -21.0252E+06    -17.8651E+06     55.4033E+06     129.217E+06    -13.0258E+06         57.0387
            2074     13.7218E-03     151.251E-03         4.33655         1.13316        -5.51532         1.12186        -5.50402         4.33655    -290.698E-03     396.391E-03    -154.694E-03    -241.697E-03    -237.263E-03     391.957E-03    -154.694E-03     105.882E-03     116.937E+06     36.2956E+06    -15.8978E+06    -13.7550E+06     34.1528E+06     116.937E+06    -6.93729E+06         61.3477
            2075     14.5109E-03     151.416E-03         4.24926     986.740E-03        -5.90269     980.119E-03        -5.89607         4.24926    -238.267E-03     390.617E-03    -159.292E-03    -231.324E-03    -228.894E-03     388.187E-03    -159.292E-03     72.9203E-03     130.912E+06     25.3790E+06    -11.4899E+06    -8.86608E+06     22.7551E+06     130.912E+06    -3.88418E+06         67.7199
            2076     920.910E-06     149.149E-03         4.53375         4.44360        -2.04585         4.50994        -2.03980         4.46136    -230.037E-03     172.254E-03    -85.2998E-03    -86.9544E-03    -86.4866E-03     172.152E-03    -85.6651E-03    -6.44911E-03    -44.6156E+06    -78.8000E+06    -98.3518E+06    -81.3335E+06    -61.6339E+06    -78.8000E+06    -20.6067E+06         35.8402
            2077     1.84119E-03     149.195E-03         4.56202         4.49300        -2.21038         4.48842        -2.19355         4.54977    -328.732E-03     178.609E-03    -87.7202E-03    -90.8884E-03    -90.5047E-03     178.225E-03    -87.7202E-03    -13.1636E-03    -22.6538E+06    -65.3915E+06    -104.147E+06    -78.8275E+06    -47.9732E+06    -65.3915E+06    -35.6954E+06         36.3720
            2078     2.75493E-03     149.266E-03         4.63032         4.45802        -2.43017         4.43157        -2.39309         4.61970    -606.338E-03     188.037E-03    -90.7986E-03    -97.2388E-03    -96.4456E-03     187.244E-03    -90.7986E-03    -18.2758E-03    -6.89551E+06    -48.2224E+06    -112.544E+06    -75.8397E+06    -43.5999E+06    -48.2224E+06    -49.2173E+06         37.1978
            2079     3.65614E-03     149.376E-03         4.69488         4.32367        -2.66893         4.25941        -2.60468         4.69488    -867.513E-03     199.659E-03    -94.7713E-03    -104.888E-03    -103.671E-03     198.442E-03    -94.7713E-03    -20.0859E-03     3.54517E+06    -33.4343E+06    -120.767E+06    -73.2126E+06    -44.0096E+06    -33.4343E+06    -59.6232E+06         38.2847
            2080     4.55110E-03     149.520E-03         4.77324         4.09432        -2.89788         4.00480        -2.80837         4.77324        -1.06662     213.593E-03    -99.5302E-03    -114.062E-03    -112.456E-03     211.986E-03    -99.5302E-03    -18.4868E-03     12.0052E+06    -23.0040E+06    -124.161E+06    -71.5938E+06    -40.5619E+06    -23.0040E+06    -65.6874E+06         39.5870
            2081     5.42971E-03     149.712E-03         4.86318         3.83947        -3.12166         3.73286        -3.01505         4.86318        -1.17740     230.384E-03    -105.116E-03    -125.268E-03    -123.264E-03     228.380E-03    -105.116E-03    -14.5679E-03     18.6853E+06    -13.7836E+06    -125.254E+06    -69.9540E+06    -38.1359E+06    -12.2622E+06    -68.8752E+06         41.0424
            2082     6.29636E-03     149.943E-03         4.97114         3.55728        -3.31770         3.45375        -3.21417         4.97114        -1.12709     248.894E-03    -111.464E-03    -137.430E-03    -135.011E-03     246.474E-03    -111.464E-03    -10.3380E-03     23.9172E+06    -5.98028E+06    -126.708E+06    -65.9226E+06    -42.4148E+06    -433.189E+03    -70.9988E+06         42.5613
            2083     7.14558E-03     150.220E-03         5.09614         3.27261        -3.53735         3.17473        -3.43947         5.09614        -1.06621     266.661E-03    -118.236E-03    -148.425E-03    -145.792E-03     264.028E-03    -118.236E-03    -3.76930E-03     32.7921E+06     2.71933E+06    -124.313E+06    -60.1933E+06    -40.8312E+06     12.2227E+06    -72.8283E+06         44.0446
            2084     7.98101E-03     150.530E-03         5.22956         2.94310        -3.75827         2.86387        -3.67904         5.22956    -856.884E-03     282.191E-03    -124.976E-03    -157.215E-03    -154.561E-03     279.538E-03    -124.976E-03     5.18752E-03     41.1357E+06     10.9388E+06    -119.057E+06    -56.9224E+06    -34.3170E+06     24.2571E+06    -72.4015E+06         45.4238
            2085     8.81224E-03     150.862E-03         5.35956         2.59492        -3.98258         2.53680        -3.92446         5.35956    -631.330E-03     297.137E-03    -130.999E-03    -166.138E-03    -162.990E-03     294.389E-03    -131.399E-03     14.5560E-03     45.2666E+06     15.3473E+06    -116.091E+06    -56.7258E+06    -32.5667E+06     33.8151E+06    -70.3236E+06         46.6718
            2086     9.63249E-03     151.214E-03         5.47393         2.23258        -4.17577         2.18530        -4.12849         5.47393    -327.895E-03     310.401E-03    -135.051E-03    -175.350E-03    -170.372E-03     307.707E-03    -137.335E-03     25.9422E-03     48.2525E+06     17.1829E+06    -115.462E+06    -58.1038E+06    -34.4702E+06     42.5469E+06    -68.1526E+06         47.7917
            2087     10.4463E-03     151.566E-03         5.55720         1.84110        -4.30017         1.81063        -4.26970         5.55720     2.45634E-03     320.236E-03    -138.448E-03    -181.788E-03    -175.148E-03     317.674E-03    -142.526E-03     40.7180E-03     57.8442E+06     23.7529E+06    -109.984E+06    -58.8592E+06    -26.0514E+06     56.5235E+06    -65.1497E+06         48.8497
            2088     11.2647E-03     151.902E-03         5.59677         1.46147        -4.39633         1.43314        -4.36800         5.59677     172.585E-03     329.661E-03    -143.274E-03    -186.388E-03    -180.077E-03     326.935E-03    -146.858E-03     59.2965E-03     75.6510E+06     22.5215E+06     -97.428E+06    -54.8926E+06    -20.0139E+06     75.6510E+06    -56.8901E+06         50.0176
            2089     12.0765E-03     152.222E-03         5.58443         1.06018        -4.44583         1.03442        -4.42007         5.58443     401.210E-03     339.896E-03    -149.068E-03    -190.828E-03    -186.113E-03     336.570E-03    -150.458E-03     78.8370E-03     103.865E+06     25.5793E+06    -72.3416E+06    -44.7644E+06    -1.99793E+06     103.865E+06    -41.3163E+06         51.5941
            2090     12.8958E-03     152.495E-03         5.51722     700.046E-03        -4.51358     682.842E-03        -4.49637         5.51722     279.744E-03     353.051E-03    -153.569E-03    -199.482E-03    -195.173E-03     348.742E-03    -153.569E-03     96.2044E-03     130.738E+06     41.3146E+06    -38.1815E+06    -26.8685E+06     30.0017E+06     130.738E+06    -23.7857E+06         54.1014
            2091     13.7023E-03     152.727E-03         5.39795     404.380E-03        -4.62628     389.168E-03        -4.61107         5.39795     365.235E-03     367.894E-03    -156.589E-03    -211.305E-03    -206.771E-03     363.361E-03    -156.589E-03     101.787E-03     136.072E+06     28.5028E+06    -19.2120E+06    -7.99373E+06     17.2845E+06     136.072E+06    -6.15273E+06         58.5171
            2092     14.5075E-03     152.874E-03         5.22524     194.629E-03        -4.85239     181.043E-03        -4.83881         5.22524     104.994E-03     376.715E-03    -159.781E-03    -216.934E-03    -214.390E-03     374.171E-03    -159.781E-03     72.1891E-03     146.743E+06     26.3308E+06    -9.68006E+06     2.77504E+06     13.8757E+06     146.743E+06     2.97905E+06         65.5755
            2093     890.597E-06     150.378E-03         6.89282         6.70393        -4.45847         6.74605        -4.44436         6.83658     493.873E-03     253.656E-03    -126.021E-03    -127.634E-03    -126.511E-03     252.964E-03    -126.453E-03    -28.7407E-03     34.2700E+06     23.9615E+06    -30.4035E+06     22.6652E+06    -22.6283E+06     27.7911E+06    -12.8118E+06         39.9117
            2094     1.76994E-03     150.421E-03         6.86687         6.63721        -4.51519         6.60255        -4.48053         6.86687         1.02063     260.124E-03    -128.753E-03    -131.371E-03    -129.295E-03     258.114E-03    -128.819E-03    -53.0405E-03     44.0999E+06     27.7111E+06    -31.2645E+06     20.1284E+06    -15.2436E+06     35.6617E+06    -19.5746E+06         40.3940
            2095     2.64411E-03     150.506E-03         6.89693         6.37882        -4.52723         6.31296        -4.46137         6.89693         1.32785     268.263E-03    -132.078E-03    -136.185E-03    -132.106E-03     264.184E-03    -132.078E-03    -77.5469E-03     52.3934E+06     30.9932E+06    -35.3531E+06     16.1951E+06    -13.0428E+06     44.8812E+06    -24.6709E+06         41.1134
            2096     3.51432E-03     150.619E-03         6.92646         5.98891        -4.51559         5.88578        -4.41246         6.92646         1.58585     277.464E-03    -136.118E-03    -141.346E-03    -134.539E-03     270.657E-03    -136.118E-03    -101.140E-03     59.4712E+06     31.7689E+06    -42.1540E+06     11.2042E+06    -16.5247E+06     54.4066E+06    -28.3585E+06         42.0094
            2097     4.37150E-03     150.776E-03         6.95942         5.49150        -4.46908         5.34373        -4.32131         6.95942         1.80235     286.994E-03    -140.844E-03    -146.150E-03    -136.088E-03     276.932E-03    -140.844E-03    -122.842E-03     65.9492E+06     31.2435E+06    -45.4129E+06     5.78380E+06    -16.1697E+06     62.1657E+06    -31.8518E+06         43.0016
            2098     5.22124E-03     150.972E-03         7.00147         4.93460        -4.40390         4.74718        -4.21648         7.00147         1.95496     295.048E-03    -144.080E-03    -150.969E-03    -135.606E-03     281.676E-03    -146.070E-03    -140.494E-03     72.9506E+06     31.1262E+06    -46.1054E+06     1.47604E+06    -14.5800E+06     71.0754E+06    -33.7757E+06         43.9989
            2099     6.05559E-03     151.217E-03         7.05513         4.35344        -4.34621         4.12574        -4.11852         7.05513         2.07848     300.259E-03    -143.856E-03    -156.403E-03    -133.064E-03     284.503E-03    -151.438E-03    -150.879E-03     81.2516E+06     29.1159E+06    -48.7778E+06    -2.34358E+06    -17.3183E+06     81.2516E+06    -34.8414E+06         44.9145
            2100     6.88145E-03     151.496E-03         7.11517         3.76112        -4.30576         3.51309        -4.05773         7.11517         2.10667     301.410E-03    -141.551E-03    -159.858E-03    -127.749E-03     284.202E-03    -156.452E-03    -153.728E-03     88.7169E+06     25.7419E+06    -50.6417E+06    -6.92644E+06    -17.9734E+06     88.7169E+06    -35.5159E+06         45.6872
            2101     7.71061E-03     151.806E-03         7.17241         3.14888        -4.27090         2.89413        -4.01615         7.17241         2.06522     299.924E-03    -137.922E-03    -162.003E-03    -121.498E-03     282.274E-03    -160.776E-03    -149.851E-03     94.2739E+06     23.6990E+06    -50.1606E+06    -11.5358E+06    -14.9258E+06     94.2739E+06    -35.3404E+06         46.2920
            2102     8.53152E-03     152.148E-03         7.21563         2.54937        -4.24784         2.30556        -4.00402         7.21563         1.98424     296.232E-03    -131.693E-03    -164.539E-03    -115.507E-03     279.759E-03    -164.253E-03    -138.921E-03      99.599E+06     19.1637E+06    -48.6887E+06    -15.4385E+06    -14.0865E+06      99.599E+06    -32.9808E+06         46.7290
            2103     9.35590E-03     152.503E-03         7.22808         1.96684        -4.20338         1.74434        -3.98088         7.22808         1.87218     288.926E-03    -122.353E-03    -166.574E-03    -108.372E-03     274.945E-03    -166.574E-03    -120.012E-03     106.484E+06     15.2335E+06    -48.2672E+06    -18.5150E+06    -14.5186E+06     106.484E+06    -30.7720E+06         47.0390
            2104     10.1977E-03     152.860E-03         7.19420         1.40855        -4.11664         1.20918        -3.91727         7.19420         1.76447     280.997E-03    -113.473E-03    -167.523E-03    -102.642E-03     270.165E-03    -167.523E-03    -94.4646E-03     113.656E+06     13.8398E+06    -47.5518E+06    -20.6838E+06    -13.0282E+06     113.656E+06    -30.1016E+06         47.3520
            2105     11.0476E-03     153.211E-03         7.10820     902.959E-03        -4.01877     739.590E-03        -3.85540         7.10820         1.54627     275.258E-03    -108.037E-03    -167.221E-03    -99.8676E-03     267.089E-03    -167.221E-03    -65.2668E-03     116.357E+06     10.8020E+06    -49.5545E+06    -23.3922E+06    -15.3603E+06     116.357E+06    -29.5771E+06         47.9037
            2106     11.9186E-03     153.544E-03         6.96943     429.737E-03        -3.89784     288.561E-03        -3.75666         6.96943         1.39669     273.936E-03    -107.342E-03    -166.594E-03    -101.478E-03     267.502E-03    -166.023E-03    -35.9860E-03     119.357E+06     9.61782E+06    -49.5339E+06    -24.8684E+06    -15.0477E+06     119.357E+06    -27.7789E+06         49.0411
            2107     12.7916E-03     153.847E-03         6.78355    -2.13069E-03        -3.76996    -95.5858E-03        -3.67651         6.78355         1.03919     281.518E-03    -111.132E-03    -170.386E-03    -111.290E-03     275.828E-03    -164.539E-03    -8.86249E-03     133.324E+06     24.6134E+06    -39.8776E+06    -24.3207E+06     9.05650E+06     133.324E+06    -23.7453E+06         51.2756
            2108     13.6657E-03     154.118E-03         6.55549    -379.927E-03        -3.66170    -447.105E-03        -3.59452         6.55549     822.656E-03     297.762E-03    -118.605E-03    -179.157E-03    -129.592E-03     292.955E-03    -163.362E-03     10.9971E-03     132.255E+06     13.9506E+06    -37.1281E+06    -17.9510E+06    -5.22645E+06     132.255E+06    -11.8215E+06         55.5220
            2109     14.5092E-03     154.320E-03         6.27671    -686.800E-03        -3.60160    -724.237E-03        -3.56416         6.27671     331.472E-03     316.592E-03    -129.652E-03    -186.940E-03    -151.477E-03     314.254E-03    -162.777E-03     15.2508E-03     122.196E+06     20.5751E+06    -25.1099E+06    -5.29216E+06     757.439E+03     122.196E+06    -590.424E+03         62.7913


