********************************************************************************
Field Output Report, written Tue May  6 12:15:51 2025

Source 1
---------

   ODB: D:/AISI_1020/Vel_40/aisi_1020_2a_32_red_250_cal_30_vel_40_fric_0100.odb
   Step: Step-1
   Frame: Increment   1587625: Step Time =   0.2151

Loc 1 : Nodal values from source 1

Output sorted by column "Node Label".

Field Output reported at nodes for region: DIE_2A_32_D0_36-1.Region_1
   Computation algorithm: EXTRAPOLATE_COMPUTE_AVERAGE
   Averaged at nodes
   Averaging regions: ODB_REGIONS

      Node Label     COORD.COOR1     COORD.COOR2
                          @Loc 1          @Loc 1
-------------------------------------------------
               1     22.3874E-03     116.207E-03


Field Output reported at nodes for region: DIE_2A_32_D0_36-1.Region_2
   Computation algorithm: EXTRAPOLATE_COMPUTE_AVERAGE
   Averaged at nodes
   Averaging regions: ODB_REGIONS

      Node Label     COORD.COOR1     COORD.COOR2
                          @Loc 1          @Loc 1
-------------------------------------------------
               1     22.3874E-03     116.207E-03


Field Output reported at nodes for part: WIRE_1-1
   Computation algorithm: EXTRAPOLATE_COMPUTE_AVERAGE
   Averaged at nodes
   Averaging regions: ODB_REGIONS

      Node Label     COORD.COOR1     COORD.COOR2    ER.Max. Prin    ER.Mid. Prin    ER.Min. Prin         ER.ER11         ER.ER22         ER.ER33         ER.ER12    PE.Max. Prin    PE.Mid. Prin    PE.Min. Prin         PE.PE11         PE.PE22         PE.PE33         PE.PE12     S.Max. Prin     S.Mid. Prin     S.Min. Prin           S.S11           S.S22           S.S33           S.S12            TEMP
                          @Loc 1          @Loc 1          @Loc 1          @Loc 1          @Loc 1          @Loc 1          @Loc 1          @Loc 1          @Loc 1          @Loc 1          @Loc 1          @Loc 1          @Loc 1          @Loc 1          @Loc 1          @Loc 1          @Loc 1          @Loc 1          @Loc 1          @Loc 1          @Loc 1          @Loc 1          @Loc 1          @Loc 1
-----------------------------------------------------------------------------------------------------------------------------------------------------------------------------------------------------------------------------------------------------------------------------------------------------------------------------------------------------------------------------------------------------------------
               1     17.4972E-03     59.4782E-03         4.33094    -943.547E-03        -1.40075        -1.39175         4.32194    -943.547E-03    -453.735E-03     298.788E-03    -29.7678E-03    -269.020E-03    -74.1442E-03     103.912E-03    -29.7678E-03     539.095E-03     170.098E+06     163.210E+06    -4.87370E+06    -4.84368E+06     163.180E+06     170.098E+06     1.50460E+06         80.1347
               2    -316.468E-09     58.0688E-03         21.3972    -305.224E-03        -19.3944     174.099E-03         1.82876    -305.224E-03        -40.7563     58.2400E-03    -28.9891E-03    -29.2509E-03    -29.1295E-03     58.2362E-03    -29.1067E-03     1.12508E-03    -35.9962E+06    -41.8195E+06    -241.390E+06    -38.5073E+06    -241.360E+06    -39.3382E+06     2.34423E+06         24.5378
               3     2.13890E-06     97.1445E-18         13.5519        -3.41363        -6.30212        -5.84001         13.0898        -3.41363         5.98708     108.094E-03    -53.8739E-03    -54.2201E-03    -54.2200E-03     108.094E-03    -53.8739E-03     178.238E-06    -48.3960E+06    -49.9139E+06    -260.810E+06    -49.9583E+06    -260.765E+06    -48.3960E+06    -3.05943E+06         28.5909
               4     17.3321E-03     97.1445E-18         11.3747        -3.03976        -3.90705        -3.03816         11.3731        -3.90705     303.274E-03     239.846E-03    -34.6396E-03    -205.206E-03    -173.343E-03     207.983E-03    -34.6396E-03     229.481E-03     162.406E+06     146.546E+06     34.5076E+06     34.6370E+06     146.417E+06     162.406E+06    -3.80600E+06         49.1489
               5     16.9981E-03     117.771E-03     401.725E-03     292.762E-03        -1.14493     293.341E-03     401.145E-03        -1.14493    -15.8484E-03     24.7682E-03     21.1643E-03    -45.9325E-03     22.4467E-03     23.4858E-03    -45.9325E-03     3.45079E-03     12.4354E+06    -16.4644E+06    -106.235E+06     12.4345E+06    -16.4636E+06    -106.235E+06    -155.912E+03         35.4677
               6     3.38942E-06     115.615E-03     33.2019E-03    -392.728E-03    -511.649E-03    -390.712E-03     31.1853E-03    -511.649E-03    -58.4765E-03     29.7584E-03    -14.0833E-03    -15.6751E-03    -15.6717E-03     29.7551E-03    -14.0833E-03    -779.750E-06     64.4445E+06     56.2943E+06     1.06921E+06     55.6595E+06     1.70403E+06     64.4445E+06    -5.88682E+06         21.8687
               7     16.5202E-03     58.8424E-03         4.21202    -869.136E-03        -1.38473        -1.37049         4.19777    -869.136E-03    -552.524E-03     270.324E-03    -29.5937E-03    -240.730E-03    -67.8528E-03     97.4464E-03    -29.5937E-03     483.499E-03     148.900E+06     136.797E+06    -10.0839E+06    -10.0002E+06     145.372E+06     140.241E+06    -556.004E+03         75.2174
               8     15.5539E-03     58.3676E-03         3.98310    -743.035E-03        -1.33118        -1.32112         3.97304    -743.035E-03    -380.932E-03     164.856E-03    -29.1940E-03    -135.662E-03    -45.2905E-03     74.4845E-03    -29.1940E-03     273.013E-03     111.312E+06     77.9086E+06    -17.1619E+06    -17.0921E+06     111.242E+06     77.9086E+06    -1.55242E+06         63.5619
               9     14.5782E-03     58.2405E-03         3.80409    -661.218E-03        -1.27028        -1.26810         3.80192    -661.218E-03    -191.632E-03     75.0041E-03    -28.8142E-03    -46.1899E-03    -28.3978E-03     57.2121E-03    -28.8142E-03     81.7383E-03     87.1336E+06     15.6356E+06    -20.3360E+06    -20.3341E+06     87.1316E+06     15.6356E+06    -223.937E+03         50.7349
              10     13.6059E-03     58.1946E-03         3.67845    -603.991E-03        -1.22868        -1.22674         3.67652    -603.991E-03    -153.290E-03     60.9972E-03    -28.5949E-03    -32.4024E-03    -27.8111E-03     56.4060E-03    -28.5949E-03     40.0990E-03     77.9511E+06    -17.7312E+06    -28.2720E+06    -21.4687E+06     77.9487E+06    -24.5320E+06    -154.364E+03         40.3957
              11     12.6327E-03     58.1551E-03         3.57225    -549.035E-03        -1.19980        -1.19051         3.56296    -549.035E-03     275.018E-03     58.7200E-03    -28.5676E-03    -30.1524E-03    -28.0068E-03     56.5745E-03    -28.5676E-03     25.8488E-03     47.3745E+06    -20.5270E+06    -36.0017E+06    -20.5242E+06     47.3717E+06    -36.0017E+06    -87.8201E+03         33.6439
              12     11.6608E-03     58.1393E-03         3.46707    -493.285E-03        -1.17016        -1.12264         3.41955    -493.285E-03     874.422E-03     57.5393E-03    -28.6127E-03    -28.9266E-03    -28.2520E-03     56.9594E-03    -28.7074E-03     13.7555E-03    -54.9255E+03    -19.7874E+06    -40.1347E+06    -19.8155E+06    -12.4601E+06    -27.7014E+06     592.345E+03         29.8095
              13     10.6884E-03     58.1266E-03         3.28993    -437.434E-03        -1.06589        -1.02472         3.24877    -437.434E-03     733.313E-03     57.6227E-03    -28.7165E-03    -28.9062E-03    -28.4254E-03     57.2964E-03    -28.8710E-03     10.5885E-03    -14.1668E+06    -19.8915E+06    -62.7815E+06    -19.9389E+06    -62.7341E+06    -14.1668E+06     1.22462E+06         27.7786
              14     9.71651E-03     58.1168E-03         3.09167    -381.153E-03    -941.409E-03    -924.995E-03         3.07526    -381.153E-03     472.486E-03     57.7989E-03    -28.8045E-03    -28.9944E-03    -28.5455E-03     57.5290E-03    -28.9835E-03     9.60384E-03    -8.05101E+06    -20.7898E+06    -99.6099E+06    -20.8219E+06    -99.5777E+06    -8.05101E+06     1.44703E+06         26.6899
              15     8.74457E-03     58.1065E-03         2.97614    -324.507E-03    -898.269E-03    -818.047E-03         2.89592    -324.507E-03    -377.759E-03     57.8686E-03    -28.8053E-03    -29.0633E-03    -28.6241E-03     57.6874E-03    -29.0633E-03     7.86873E-03    -7.35164E+06    -21.8408E+06    -129.711E+06    -21.8738E+06    -129.678E+06    -7.35164E+06     1.61836E+06         26.0514
              16     7.77268E-03     58.0998E-03         2.78467    -269.329E-03    -773.844E-03    -687.045E-03         2.69787    -269.329E-03        -1.05802     57.9685E-03    -28.8434E-03    -29.1251E-03    -28.7065E-03     57.8316E-03    -29.1251E-03     6.88473E-03    -9.09174E+06    -22.8002E+06    -153.001E+06    -22.8256E+06    -152.975E+06    -9.09174E+06     1.52942E+06         25.6284
              17     6.80049E-03     58.0923E-03         2.74538    -218.259E-03    -797.184E-03    -548.014E-03         2.49621    -218.259E-03        -1.59082     58.1657E-03    -28.9845E-03    -29.1812E-03    -28.8721E-03     58.0532E-03    -29.1812E-03     6.23208E-03    -11.2678E+06    -24.8709E+06    -174.191E+06    -24.8783E+06    -174.183E+06    -11.2678E+06     924.982E+03         25.3200
              18     5.82931E-03     58.0866E-03         2.78552    -172.760E-03    -892.962E-03    -421.625E-03         2.31419    -172.760E-03    -18.9010E-03     58.2983E-03    -29.0891E-03    -29.2092E-03    -29.0053E-03     58.2145E-03    -29.2092E-03     5.39442E-03    -16.5366E+06    -27.1533E+06    -192.989E+06    -27.1554E+06    -192.987E+06    -16.5366E+06     560.680E+03         25.0838
              19     4.85715E-03     58.0806E-03         2.79475    -131.594E-03    -952.797E-03    -326.024E-03         2.16798    -131.594E-03    -343.845E-03     58.3694E-03    -29.1256E-03    -29.2438E-03    -29.0646E-03     58.3084E-03    -29.2438E-03     4.59591E-03    -19.4635E+06    -28.4993E+06    -210.953E+06    -28.5048E+06    -210.947E+06    -19.4635E+06     388.661E+03         24.9008
              20     3.88634E-03     58.0770E-03         3.56626    -94.5524E-03        -1.77433    -229.205E-03         2.02113    -94.5524E-03         1.64482     58.4203E-03    -29.1287E-03    -29.2916E-03    -29.0888E-03     58.3804E-03    -29.2916E-03     3.70983E-03    -19.9393E+06    -29.8096E+06    -224.944E+06    -29.8186E+06    -224.935E+06    -19.9393E+06     394.743E+03         24.7615
              21     2.91382E-03     58.0726E-03         4.79362    -63.3958E-03        -3.03630    -145.802E-03         1.90313    -63.3958E-03        -1.14224     58.5245E-03    -29.1836E-03    -29.3410E-03    -29.1907E-03     58.5000E-03    -29.3093E-03     2.89872E-03    -25.3393E+06    -32.9569E+06    -234.661E+06    -32.9647E+06    -234.653E+06    -25.3393E+06     856.469E+03         24.6601
              22     1.94283E-03     58.0709E-03         8.09336    -45.7142E-03        -6.36128    -59.6934E-03         1.79177    -45.7142E-03         5.61446     58.6391E-03    -29.2576E-03    -29.3816E-03    -29.3543E-03     58.6265E-03    -29.2721E-03     2.04324E-03    -31.3156E+06    -35.8859E+06    -240.705E+06    -35.8901E+06    -240.701E+06    -31.3156E+06     377.846E+03         24.5916
              23     971.952E-06     58.0684E-03         16.1260    -173.625E-03        -14.2662     89.8151E-03         1.77003    -173.625E-03        -10.4195     58.4329E-03    -29.1121E-03    -29.3208E-03    -29.2567E-03     58.4276E-03    -29.1709E-03     1.34381E-03    -34.4938E+06    -39.1995E+06    -241.231E+06    -37.5444E+06    -241.215E+06    -36.1648E+06     974.363E+03         24.5514
              24     624.038E-09     57.0078E-03         20.2193    -410.609E-03        -18.1528     562.943E-03         1.50350    -410.609E-03        -38.3596     58.5391E-03    -29.0182E-03    -29.5209E-03    -29.5174E-03     58.5356E-03    -29.0182E-03     1.08565E-03    -36.4920E+06    -39.9020E+06    -240.356E+06    -38.9967E+06    -240.333E+06    -37.4207E+06     1.58706E+06         24.5393
              25     57.6091E-09     55.9506E-03         18.4311    -535.618E-03        -16.2806     785.413E-03         1.36509    -535.618E-03        -34.7069     58.6445E-03    -29.1262E-03    -29.5182E-03    -29.4826E-03     58.6422E-03    -29.1597E-03     887.185E-06    -36.8095E+06    -38.2472E+06    -240.686E+06    -37.3186E+06    -240.686E+06    -37.7382E+06     147.870E+03         24.5402
              26    -118.615E-09     54.8897E-03         16.2759    -609.692E-03        -14.0850     851.834E-03         1.33898    -609.692E-03        -30.3570     58.3735E-03    -29.1323E-03    -29.2412E-03    -29.2063E-03     58.3720E-03    -29.1657E-03     695.480E-06    -38.3694E+06    -39.3728E+06    -241.560E+06    -38.8785E+06    -241.560E+06    -38.8638E+06     119.083E+03         24.5408
              27     258.062E-09     53.8321E-03         13.7746    -578.842E-03        -11.6563     919.733E-03         1.19861    -578.842E-03        -25.4290     58.3420E-03    -29.0074E-03    -29.3346E-03    -29.3339E-03     58.3413E-03    -29.0074E-03     492.904E-06    -39.6774E+06    -40.4604E+06    -242.927E+06    -39.9665E+06    -242.927E+06    -40.1717E+06     254.674E+03         24.5415
              28     233.803E-09     52.7734E-03         10.9358    -401.300E-03        -9.04624         1.00100     888.577E-03    -401.300E-03        -19.9803     58.5645E-03    -29.1208E-03    -29.4437E-03    -29.3718E-03     58.5639E-03    -29.1920E-03     488.131E-06    -39.0239E+06    -40.4669E+06    -242.675E+06    -39.3148E+06    -242.673E+06    -40.1782E+06     651.482E+03         24.5418
              29    -388.129E-09     51.7125E-03         8.08682    -89.1666E-03        -6.56122     940.098E-03     585.509E-03    -89.1666E-03        -14.6435     58.3107E-03    -29.0847E-03    -29.2261E-03    -29.1512E-03     58.3071E-03    -29.1559E-03     995.755E-06    -36.3156E+06    -39.5918E+06    -239.744E+06    -38.4393E+06    -239.742E+06    -37.4700E+06     458.013E+03         24.5415
              30     544.922E-09     50.6541E-03         5.50510     230.253E-03        -4.34292     737.988E-03     424.192E-03     230.253E-03        -9.84301     58.1320E-03    -28.7469E-03    -29.3851E-03    -29.3815E-03     58.1284E-03    -28.7469E-03     583.982E-06    -37.3081E+06    -40.7986E+06    -240.055E+06    -39.4317E+06    -240.053E+06    -38.6767E+06    -384.469E+03         24.5414
              31     539.333E-09     49.5983E-03         3.22054     589.125E-03        -2.46124     507.122E-03     252.173E-03     589.125E-03        -5.67531     58.4891E-03    -28.8166E-03    -29.6725E-03    -29.3844E-03     58.4888E-03    -29.1044E-03    -350.728E-06    -39.3397E+06    -41.3822E+06    -239.603E+06    -40.0177E+06    -239.599E+06    -40.7083E+06    -896.981E+03         24.5421
              32    -1.09098E-06     48.5364E-03         1.80820     656.783E-03        -1.15772     252.712E-03    -75.8113E-03         1.13036        -2.45340     58.6181E-03    -29.0971E-03    -29.5210E-03    -29.0942E-03     58.6152E-03    -29.5210E-03     527.752E-06     -37.166E+06    -39.2312E+06    -237.630E+06    -37.8468E+06    -237.623E+06    -38.5572E+06     193.232E+03         24.5435
              33     801.519E-09     47.4751E-03         1.73579     165.999E-03    -652.095E-03    -49.1053E-03    -436.991E-03         1.73579    -444.707E-03     58.3366E-03    -28.7824E-03    -29.5542E-03    -29.4135E-03     58.3320E-03    -28.9185E-03     1.26346E-03    -38.1816E+06    -41.9185E+06    -238.685E+06    -40.5327E+06    -238.680E+06    -39.5728E+06     968.354E+03         24.5457
              34     459.129E-09     46.4202E-03         2.29919    -236.967E-03    -842.230E-03    -361.966E-03    -717.231E-03         2.29919     462.819E-03     58.1591E-03    -28.6385E-03    -29.5206E-03    -29.2721E-03     58.1571E-03    -28.8849E-03     395.826E-06    -38.8937E+06    -43.4890E+06    -240.586E+06    -41.2417E+06    -240.583E+06    -41.1433E+06    -84.9443E+03         24.5480
              35    -969.289E-09     45.3603E-03         2.91897    -552.562E-03        -1.16626    -670.726E-03        -1.04810         2.91897     439.262E-03     58.5288E-03    -29.1374E-03    -29.3915E-03    -29.1366E-03     58.5281E-03    -29.3915E-03     151.389E-06    -38.4026E+06    -41.8715E+06    -240.878E+06    -39.6234E+06    -240.877E+06    -40.6522E+06    -450.161E+03         24.5497
              36     968.030E-09     44.2993E-03         3.56824    -794.796E-03        -1.61256    -979.157E-03        -1.42820         3.56824    -443.202E-03     58.7556E-03    -29.1410E-03    -29.6146E-03    -29.6051E-03     58.7536E-03    -29.1486E-03     818.184E-06    -41.2209E+06    -42.6542E+06    -241.341E+06    -42.6557E+06    -241.339E+06    -41.2209E+06    -449.456E+03         24.5501
              37    -64.1933E-09     43.2411E-03         4.09442    -615.498E-03        -2.33852        -1.24622        -1.70779         4.09442        -1.65014     58.3868E-03    -28.9379E-03    -29.4489E-03    -29.4474E-03     58.3853E-03    -28.9379E-03     620.091E-06    -40.8055E+06    -41.4748E+06    -240.824E+06    -41.0339E+06    -240.810E+06    -41.2608E+06     761.898E+03         24.5493
              38     143.662E-09     42.1827E-03         4.53328    -342.983E-03        -3.05847        -1.52766        -1.87379         4.53328        -2.68865     57.9831E-03    -28.9662E-03    -29.0170E-03    -29.0168E-03     57.9830E-03    -28.9662E-03     226.665E-06    -40.2528E+06    -40.7386E+06    -239.162E+06    -40.2753E+06    -239.139E+06    -40.7386E+06     169.422E+03         24.5480
              39    -134.974E-09     41.1234E-03         4.96263    -223.769E-03        -3.61914        -1.87638        -1.96653         4.96263        -3.39020     58.0621E-03    -28.9817E-03    -29.0804E-03    -29.0795E-03     58.0611E-03    -28.9817E-03     496.361E-06    -41.7364E+06    -41.9505E+06    -239.422E+06    -41.7461E+06    -239.413E+06    -41.9505E+06    -1.07520E+06         24.5469
              40     309.269E-09     40.0657E-03         5.28116    -399.250E-03        -3.75454        -2.15432        -1.99948         5.28116        -3.35021     58.2841E-03    -29.0378E-03    -29.2463E-03    -29.2453E-03     58.2831E-03    -29.0378E-03     262.458E-06    -40.2841E+06    -40.6978E+06    -241.010E+06    -40.5144E+06    -241.010E+06    -40.4678E+06     22.6880E+03         24.5460
              41    -84.3470E-09     39.0055E-03         5.50987        -1.07219        -3.28056        -2.41753        -1.93522         5.50987        -2.09753     58.3551E-03    -29.0764E-03    -29.2787E-03    -29.1906E-03     58.3538E-03    -29.1632E-03     333.085E-06    -37.7471E+06    -38.3236E+06    -239.768E+06    -37.9815E+06    -239.763E+06    -38.0936E+06     783.526E+03         24.5454
              42    -93.4056E-09     37.9480E-03         5.69489        -1.30940        -3.19553        -2.82935        -1.67558         5.69489     363.072E-03     58.5083E-03    -29.1046E-03    -29.4037E-03    -29.3152E-03     58.5065E-03    -29.1914E-03     766.721E-06    -39.0084E+06    -39.7261E+06    -240.235E+06    -39.3858E+06    -240.229E+06    -39.3549E+06     218.089E+03         24.5456
              43     507.641E-09     36.8853E-03         5.74795    -87.1101E-03        -4.44741        -3.31969        -1.21483         5.74795         3.78003     57.9972E-03    -28.8361E-03    -29.1611E-03    -29.1586E-03     57.9946E-03    -28.8361E-03     888.276E-06    -41.8115E+06    -43.3280E+06    -244.302E+06    -42.1896E+06    -244.295E+06    -42.9568E+06     276.744E+03         24.5470
              44    -310.830E-09     35.8316E-03         5.73661         2.13482        -6.60892        -3.81000    -664.109E-03         5.73661         8.14799     57.8132E-03    -28.7970E-03    -29.0162E-03    -29.0142E-03     57.8112E-03    -28.7970E-03     544.725E-06    -40.3556E+06    -43.2566E+06    -244.897E+06    -42.1163E+06    -244.892E+06    -41.5009E+06     685.846E+03         24.5497
              45     537.146E-09     34.7704E-03         5.82601         4.60937        -9.13302        -4.37565    -147.996E-03         5.82601         13.0738     58.6408E-03    -29.1208E-03    -29.5200E-03    -29.5195E-03     58.6402E-03    -29.1208E-03     254.563E-06    -35.5806E+06    -38.0503E+06    -241.490E+06    -37.3364E+06    -241.490E+06    -36.2947E+06    -158.489E+03         24.5529
              46     16.9283E-09     33.7118E-03         7.02682         5.92723        -11.6033        -4.98705     374.689E-03         5.96309         17.8042     58.8070E-03    -29.2437E-03    -29.5632E-03    -29.5360E-03     58.8065E-03    -29.2705E-03     285.822E-06    -37.0546E+06    -38.5879E+06    -243.099E+06     -37.883E+06    -243.090E+06    -37.7686E+06    -1.08903E+06         24.5568
              47    -62.1082E-09     32.6519E-03         9.07305         6.04906        -13.6950        -5.53941     917.471E-03         6.04906         21.8333     58.3917E-03    -29.1071E-03    -29.2846E-03    -29.1051E-03     58.3897E-03    -29.2846E-03     577.200E-06    -40.8322E+06    -43.7410E+06    -248.116E+06    -41.6612E+06    -248.107E+06    -42.9218E+06    -690.030E+03         24.5613
              48    -266.434E-09     31.5926E-03         10.5756         6.17615        -15.2825        -6.13723         1.43027         6.17615         24.7248     58.4103E-03    -28.9211E-03    -29.4893E-03    -29.3359E-03     58.4078E-03    -29.0718E-03     906.557E-06    -40.9394E+06    -44.0222E+06    -249.374E+06    -41.9557E+06    -249.351E+06    -43.0290E+06     1.78428E+06         24.5650
              49     1.08559E-06     30.5341E-03         11.3007         6.29486        -16.0637        -6.78998         2.02698         6.29486         25.8980     58.2754E-03    -28.9136E-03    -29.3618E-03    -29.3612E-03     58.2748E-03    -28.9136E-03     368.379E-06    -39.4793E+06    -41.7167E+06    -248.100E+06    -41.7506E+06    -248.066E+06    -39.4793E+06     413.027E+03         24.5673
              50    -1.01294E-06     29.4763E-03         11.0557         6.32596        -15.7713        -7.38418         2.66866         6.32596         24.8541     58.1197E-03    -28.9496E-03    -29.1700E-03    -29.1697E-03     58.1193E-03    -28.9496E-03     282.619E-06    -39.4386E+06    -41.1719E+06    -247.257E+06    -40.7151E+06    -247.225E+06    -39.9278E+06     357.785E+03         24.5686
              51     1.37018E-06     28.4159E-03         9.84546         6.36651        -14.5180        -7.89885         3.22628         6.36651         21.6291     58.5705E-03    -28.9613E-03    -29.6092E-03    -29.6079E-03     58.5692E-03    -28.9613E-03     660.138E-06    -38.8584E+06    -40.7501E+06    -245.574E+06    -40.2853E+06    -245.550E+06    -39.3475E+06     2.07249E+06         24.5691
              52    -467.808E-09     27.3576E-03         7.84430         6.38515        -12.4426        -8.27459         3.67627         6.38515         16.2419     58.6034E-03    -28.9990E-03    -29.6044E-03    -29.4563E-03     58.6023E-03    -29.1460E-03     529.177E-06    -38.9788E+06    -40.9565E+06    -245.544E+06    -40.3857E+06     -245.54E+06    -39.5539E+06     861.073E+03         24.5679
              53     170.306E-09     26.2980E-03         6.43040         5.53343        -10.0807        -8.48615         4.08216         6.28708         8.78509     58.5948E-03    -29.1627E-03    -29.4321E-03    -29.2827E-03     58.5924E-03    -29.3097E-03     748.585E-06    -37.9268E+06    -38.6205E+06    -244.611E+06    -37.9280E+06    -244.610E+06    -38.6205E+06    -13.3003E+03         24.5645
              54     56.6389E-09     25.2382E-03         6.02774         4.89074        -8.92574        -8.53419         4.49918         6.02774     17.8466E-03     58.2005E-03    -29.0056E-03    -29.1949E-03    -29.1255E-03     58.1980E-03    -29.0725E-03     757.346E-06    -35.3182E+06    -37.6063E+06    -243.695E+06    -35.3189E+06    -243.694E+06    -37.6063E+06    -150.986E+03         24.5588
              55    -219.329E-09     24.1802E-03         7.00018         5.24957        -10.1496        -8.42343         4.89064         5.63292        -9.39651     57.6834E-03    -28.7921E-03    -28.8914E-03    -28.7898E-03     57.6812E-03    -28.8914E-03     728.082E-06    -39.3040E+06    -42.9625E+06    -247.336E+06    -40.7996E+06    -247.329E+06    -41.4737E+06     931.585E+03         24.5490
              56     167.268E-09     23.1232E-03         10.1919         5.12086        -13.0830        -8.13948         5.24840         5.12086        -18.8418     58.2577E-03    -28.8529E-03    -29.4048E-03    -29.3698E-03     58.2551E-03    -28.8853E-03     380.978E-06    -40.9483E+06    -42.6611E+06    -246.769E+06    -42.4438E+06    -246.762E+06    -41.1723E+06     746.062E+03         24.5322
              57     834.655E-09     22.0621E-03         14.1748         4.43355        -16.2567        -7.65950         5.57759         4.43355        -27.3418     57.9811E-03    -28.6793E-03    -29.3017E-03    -29.3013E-03     57.9806E-03    -28.6793E-03    -86.3141E-06    -39.4609E+06    -40.7311E+06    -246.356E+06    -40.5096E+06    -246.353E+06    -39.6849E+06     431.903E+03         24.5042
              58    -626.336E-09     21.0065E-03         17.7190         3.62098        -18.8587        -7.06581         5.92608         3.62098        -34.1727     57.2449E-03    -28.3591E-03    -28.8859E-03    -28.4598E-03     57.2428E-03    -28.7830E-03     746.095E-06    -39.9263E+06    -41.6041E+06    -248.626E+06    -40.9763E+06    -248.622E+06    -40.5579E+06     147.903E+03         24.4597
              59    -216.603E-09     19.9453E-03         20.4317         2.70282        -20.5179        -6.43312         6.34689         2.70282        -38.8989     56.9413E-03    -27.9533E-03    -28.9879E-03    -28.5620E-03     56.9392E-03    -28.3772E-03     529.862E-06    -38.6010E+06    -39.4786E+06    -246.904E+06    -38.8534E+06    -246.897E+06    -39.2325E+06     370.501E+03         24.3916
              60     1.40127E-06     18.8915E-03         22.0424         1.63641        -20.9576        -5.76901         6.85384         1.63641        -41.1051     56.0919E-03    -27.6161E-03    -28.4758E-03    -28.4758E-03     56.0918E-03    -27.6161E-03    -143.624E-06    -39.3243E+06    -41.0608E+06    -248.249E+06    -41.0777E+06    -248.232E+06    -39.3243E+06    -375.767E+03         24.2931
              61    -904.127E-09     17.8350E-03         22.3911     558.974E-03        -20.1007        -5.10169         7.39213     558.974E-03        -40.6129     54.7175E-03    -27.0057E-03    -27.7118E-03    -27.2539E-03     54.7166E-03    -27.4627E-03    -451.419E-06    -39.7622E+06    -44.8357E+06    -247.996E+06    -41.2661E+06    -247.983E+06    -43.3454E+06    -695.802E+03         24.1586
              62    -41.7516E-09     16.7793E-03         21.5370    -410.944E-03        -18.1817        -4.50553         7.86074    -410.944E-03        -37.7406     52.5837E-03    -25.8390E-03    -26.7447E-03    -26.2841E-03     52.5801E-03    -26.2960E-03     275.868E-06    -38.9625E+06    -44.9294E+06    -247.279E+06    -41.4048E+06    -247.221E+06    -42.5456E+06     2.82788E+06         23.9838
              63     936.835E-09     15.7266E-03         19.8082        -1.30242        -15.4781        -3.99425         8.32440        -1.30242        -33.0517     49.2752E-03    -24.3512E-03    -24.9240E-03    -24.9153E-03     49.2666E-03    -24.3512E-03    -271.550E-06    -39.3507E+06    -43.3603E+06    -246.403E+06    -41.8052E+06    -246.332E+06    -40.9765E+06     1.23016E+06         23.7686
              64    -734.882E-09     14.6848E-03         17.5060        -2.03453        -12.3225        -3.57927         8.76271        -2.03453        -27.1227     45.5961E-03    -22.6786E-03    -22.9175E-03    -22.7923E-03     45.5857E-03    -22.7934E-03    -1.68469E-03    -39.0328E+06    -42.3375E+06    -245.359E+06    -40.7271E+06    -245.343E+06    -40.6587E+06    -782.440E+03         23.5204
              65     514.860E-09     13.6358E-03         14.9690        -2.56182        -9.15945        -3.29575         9.10530        -2.56182        -20.6224     41.9860E-03    -20.8070E-03    -21.1790E-03    -21.0534E-03     41.9752E-03    -20.9218E-03    -1.64110E-03    -32.0771E+06    -37.0180E+06    -240.467E+06    -33.7585E+06    -240.464E+06    -35.3392E+06     715.455E+03         23.2536
              66    -73.9424E-09     12.5999E-03         12.7543        -3.00566        -6.40723        -3.16555         9.51265        -3.00566        -14.1883     37.2960E-03    -18.3665E-03    -18.9294E-03    -18.6159E-03     37.2882E-03    -18.6722E-03    -1.25778E-03    -27.0296E+06    -32.5979E+06    -234.041E+06    -29.4457E+06    -233.931E+06    -30.2917E+06     3.61973E+06         22.9901
              67    -505.854E-09     11.5614E-03         11.2771        -3.39092        -4.44509        -3.16752         9.99957        -3.39092        -8.19340     32.2663E-03    -15.8094E-03    -16.4569E-03    -16.1403E-03     32.2554E-03    -16.1151E-03    -1.30955E-03    -22.1890E+06    -26.4743E+06    -228.436E+06    -24.6044E+06    -228.327E+06    -24.1681E+06     3.47392E+06         22.7593
              68     1.12564E-06     10.5370E-03         10.7678        -3.46084        -3.77782        -3.27717         10.5134        -3.70714        -2.71820     28.0649E-03    -13.7764E-03    -14.2885E-03    -14.2650E-03     28.0413E-03    -13.7764E-03    -1.97987E-03    -13.7501E+06    -19.5550E+06    -223.634E+06    -17.5865E+06    -223.624E+06    -15.7292E+06    -857.554E+03         22.5967
              69    -776.095E-09     9.50953E-03         11.2198        -3.60196        -4.01663        -3.43733         11.0552        -4.01663         2.17856     25.1905E-03    -12.4579E-03    -12.7326E-03    -12.6085E-03     25.1707E-03    -12.5622E-03    -1.69614E-03    -5.43270E+06    -12.3868E+06    -217.862E+06    -9.27013E+06    -217.850E+06     -8.5609E+06    -1.40444E+06         22.5409
              70     505.393E-09     8.48655E-03         12.2804        -4.11596        -4.49462        -3.56146         11.5156        -4.28432         6.68681     23.7916E-03    -11.8316E-03    -11.9600E-03    -11.8488E-03     23.7847E-03    -11.9359E-03    -356.295E-06    -7.03195E+06    -13.2128E+06    -218.109E+06    -10.1162E+06    -218.077E+06    -10.1602E+06     1.37448E+06         22.6277
              71    -428.453E-09     7.46184E-03         13.6917        -4.49010        -5.49276        -3.68782         11.8867        -4.49010         11.0826     24.5228E-03    -12.1233E-03    -12.3994E-03    -12.3974E-03     24.5208E-03    -12.1233E-03     540.138E-06    -13.7962E+06    -17.6687E+06    -224.083E+06    -16.8855E+06    -224.047E+06    -14.6161E+06     929.391E+03         22.8851
              72     903.951E-09     6.44118E-03         15.4163        -4.72517        -6.93460        -3.85018         12.3318        -4.72517         15.3636     29.2605E-03    -14.3848E-03    -14.8757E-03    -14.6332E-03     29.2569E-03    -14.6237E-03     766.119E-06    -20.2135E+06    -21.2391E+06    -230.510E+06    -20.2518E+06    -230.472E+06    -21.2391E+06    -2.65501E+06         23.3261
              73    -1.38564E-06     5.40701E-03         17.1669        -4.89982        -8.46512        -4.08115         12.7829        -4.89982         19.2798     39.1865E-03    -19.3433E-03    -19.8432E-03    -19.5950E-03     39.1771E-03    -19.5822E-03     1.46985E-03    -26.0603E+06    -28.0038E+06    -237.799E+06    -26.1167E+06    -237.743E+06    -28.0038E+06    -3.44523E+06         23.9469
              74     1.85669E-06     4.36348E-03         18.4618        -4.86609        -9.75072        -4.37908         13.0902        -4.86609         22.1490     53.6574E-03    -26.6511E-03    -27.0063E-03    -26.8867E-03     53.6320E-03    -26.7452E-03     2.81899E-03    -30.6649E+06    -34.2320E+06    -244.378E+06    -32.5230E+06    -244.350E+06    -32.4027E+06    -953.825E+03         24.7302
              75    -2.05036E-06     3.29926E-03         18.6552        -4.57721        -10.2065        -4.76708         13.2158        -4.57721         22.5671     71.3320E-03    -35.5780E-03    -35.7540E-03    -35.6275E-03     71.2998E-03    -35.6722E-03     3.67337E-03    -41.3038E+06    -43.5012E+06    -254.173E+06    -43.1410E+06    -254.165E+06    -41.6718E+06     39.4104E+03         25.6549
              76     2.16516E-06     2.21772E-03         17.2808        -4.08627        -9.32905        -5.24288         13.1946        -4.08627         19.0665     89.6325E-03    -44.6806E-03    -44.9519E-03    -44.9331E-03     89.6137E-03    -44.6806E-03     3.06290E-03    -43.4059E+06    -44.8745E+06    -256.186E+06    -43.4178E+06    -256.175E+06    -44.8745E+06     309.866E+03         26.7150
              77    -1.86769E-06     1.11443E-03         14.8733        -3.61272        -7.40681        -5.66162         13.1281        -3.61272         11.0958     103.217E-03    -51.4274E-03    -51.7901E-03    -51.7847E-03     103.212E-03    -51.4274E-03     1.34195E-03    -45.2034E+06    -47.0628E+06    -258.535E+06    -45.9927E+06    -258.505E+06    -46.3039E+06    -595.929E+03         27.9354
              78     945.896E-06     97.1445E-18         13.9046        -4.13846        -5.85809        -5.58790         13.6344        -4.13846         1.75531     106.844E-03    -53.0242E-03    -53.8196E-03    -53.1934E-03     106.840E-03    -53.6465E-03     1.19710E-03    -45.5250E+06    -48.0452E+06    -259.165E+06    -48.0675E+06    -259.143E+06    -45.5250E+06    -1.63537E+06         28.5565
              79     1.89530E-03     97.1445E-18         13.8676        -4.78043        -5.16675        -5.00387         13.8156        -4.89137    -556.294E-03     103.533E-03    -50.6697E-03    -52.8638E-03    -50.6567E-03     103.520E-03    -52.8638E-03     2.76520E-03    -43.6255E+06    -45.4505E+06    -257.931E+06    -45.4579E+06    -257.924E+06    -43.6255E+06    -990.428E+03         28.4600
              80     2.84606E-03     97.1445E-18         13.6184        -4.79207        -4.93249        -4.80433         13.6012        -4.90301     275.958E-03     98.5632E-03    -47.0229E-03    -51.5403E-03    -46.9960E-03     98.5364E-03    -51.5403E-03     3.88776E-03    -44.3955E+06    -46.2340E+06    -258.841E+06    -44.4691E+06    -258.831E+06    -46.1703E+06    -1.41104E+06         28.3121
              81     3.80200E-03     97.1445E-18         13.5705        -4.73994        -4.90228        -4.76378         13.5649        -4.87280    -194.805E-03     92.4314E-03    -42.6088E-03    -49.8226E-03    -42.5660E-03     92.3886E-03    -49.8226E-03     4.77874E-03    -42.6771E+06    -53.5763E+06    -260.420E+06    -42.7016E+06    -260.396E+06    -53.5763E+06    -2.07992E+06         28.1234
              82     4.76295E-03     97.1445E-18         13.3564        -4.57304        -4.83264        -4.57106         13.3544        -4.83264     48.5586E-03     86.1096E-03    -38.2434E-03    -47.8661E-03    -38.1808E-03     86.0469E-03    -47.8661E-03     5.53881E-03    -40.2488E+06    -62.8688E+06    -261.808E+06    -40.4016E+06    -261.655E+06    -62.8688E+06    -5.37064E+06         27.9091
              83     5.72695E-03     97.1445E-18         13.1672        -4.41882        -4.77605        -4.41794         13.1663        -4.77605    -94.1645E-03     79.8486E-03    -34.0770E-03    -45.7716E-03    -34.0011E-03     79.7727E-03    -45.7716E-03     5.87771E-03    -34.7421E+06    -77.7889E+06    -255.328E+06    -35.0242E+06    -255.046E+06    -77.7889E+06    -7.87597E+06         27.6878
              84     6.69696E-03     97.1445E-18         12.8977        -4.21294        -4.70985        -4.21264         12.8974        -4.70985    -5.89500E-03     73.8634E-03    -30.2512E-03    -43.6123E-03    -30.1587E-03     73.7710E-03    -43.6123E-03     6.16631E-03    -28.1967E+06    -97.1831E+06    -231.360E+06    -28.5957E+06    -230.961E+06    -97.1831E+06    -8.87942E+06         27.4817
              85     7.66834E-03     97.1445E-18         12.6192        -4.01129        -4.63431        -4.01112         12.6190        -4.63431    -68.9866E-03     68.4559E-03    -26.9330E-03    -41.5229E-03    -26.8370E-03     68.3599E-03    -41.5229E-03     6.04385E-03    -22.9648E+06    -109.195E+06    -194.083E+06    -23.6116E+06    -193.436E+06    -109.195E+06    -10.3537E+06         27.3207
              86     8.64554E-03     97.1445E-18         12.3242        -3.79902        -4.55224        -3.79902         12.3242        -4.55224    -4.79393E-03     63.3332E-03    -23.8091E-03    -39.5241E-03    -23.6787E-03     63.2028E-03    -39.5241E-03     6.59396E-03    -15.5370E+06    -116.227E+06    -151.100E+06    -16.3268E+06    -150.311E+06    -116.227E+06    -10.2957E+06         27.2553
              87     9.62042E-03     97.1445E-18         12.0795        -3.62988        -4.46713        -3.62988         12.0795        -4.46713    -7.31723E-03     58.7351E-03    -21.1018E-03    -37.6333E-03    -20.9736E-03     58.6069E-03    -37.6333E-03     6.29463E-03    -7.83546E+06    -94.4357E+06    -120.911E+06    -8.87446E+06    -97.9149E+06    -116.392E+06    -9.32055E+06         27.3798
              88     10.6082E-03     97.1445E-18         11.8538        -3.47194        -4.38242        -3.47194         11.8538        -4.38242    -7.40487E-03     55.0438E-03    -19.1570E-03    -35.8868E-03    -18.9475E-03     54.8343E-03    -35.8868E-03     7.39150E-03     1.77743E+06    -36.8915E+06    -108.580E+06    -4.55112E+06    -30.5630E+06    -108.580E+06    -5.82657E+06         27.8657
              89     11.5784E-03     97.1445E-18         11.6578        -3.33676        -4.29947        -3.33675         11.6578        -4.29947    -24.0753E-03     51.3843E-03    -16.9715E-03    -34.4127E-03    -16.7676E-03     51.1804E-03    -34.4127E-03     7.02734E-03     27.2807E+06    -5.36352E+06    -76.4613E+06    -4.99880E+06     26.9160E+06    -76.4613E+06    -2.74033E+06         28.9850
              90     12.5802E-03     97.1445E-18         11.4695        -3.20618        -4.21895        -3.20614         11.4694        -4.21895    -47.6153E-03     48.5300E-03    -15.3339E-03    -33.1961E-03    -15.0834E-03     48.2795E-03    -33.1961E-03     7.29652E-03     59.5181E+06    -3.44229E+06    -29.4516E+06    -7.65574E+06     59.0878E+06    -24.8078E+06     2.29056E+06         31.0768
              91     13.5446E-03     97.1445E-18         11.2869        -3.07297        -4.14047        -3.07291         11.2869        -4.14047    -60.9988E-03     46.4161E-03    -14.3464E-03    -32.0697E-03    -14.0494E-03     46.1191E-03    -32.0697E-03     8.26933E-03     77.4243E+06     15.3596E+06    -8.26695E+06    -7.55897E+06     76.7163E+06     15.3596E+06    -231.087E+03         34.3961
              92     14.5539E-03     97.1445E-18         11.1578        -2.97126        -4.06483        -2.97121         11.1577        -4.06483    -48.3836E-03     52.8495E-03    -21.5373E-03    -31.3122E-03    -20.4399E-03     51.7521E-03    -31.3122E-03     16.4512E-03     86.1525E+06     52.0264E+06    -12.5791E+06    -10.3578E+06     83.9313E+06     52.0264E+06     5.85652E+06         38.8138
              93     15.5017E-03     97.1445E-18         11.1157        -2.92077        -3.99433        -2.92076         11.1157        -3.99433    -22.3057E-03     61.5406E-03    -30.2142E-03    -31.3264E-03    -25.6924E-03     56.7237E-03    -31.0313E-03     39.0121E-03     82.1902E+06     73.6665E+06    -22.9985E+06    -19.7915E+06     78.8010E+06     73.8488E+06     18.0251E+06         43.6146
              94     16.4443E-03     97.1445E-18         11.2453        -2.97265        -3.93385        -2.97185         11.2445        -3.93385     150.500E-03     151.179E-03    -32.8002E-03    -118.378E-03    -98.6468E-03     131.447E-03    -32.8002E-03     140.376E-03     118.510E+06     110.398E+06     3.33616E+06     4.74568E+06     108.988E+06     118.510E+06     6.27216E+06         47.5663
              95     17.3583E-03     1.42227E-03         11.2124        -2.98266        -3.90625        -2.97778         11.2075        -3.90625     489.684E-03     254.551E-03    -33.7963E-03    -220.755E-03    -170.998E-03     204.794E-03    -33.7963E-03     286.860E-03     144.940E+06     126.946E+06    -2.59759E+06    -2.30763E+06     126.656E+06     144.940E+06    -5.96627E+06         49.5822
              96     17.4040E-03     2.65441E-03         10.8583        -2.87319        -3.90155        -2.86538         10.8505        -3.90155     654.668E-03     268.534E-03    -32.6797E-03    -235.855E-03    -138.822E-03     171.501E-03    -32.6797E-03     390.371E-03     152.138E+06     127.681E+06    -16.6057E+06    -14.3252E+06     125.400E+06     152.138E+06     7.82009E+06         51.1717
              97     17.4474E-03     3.78276E-03         10.5718        -2.79875        -3.88409        -2.79320         10.5663        -3.88409     536.717E-03     260.590E-03    -31.5991E-03    -228.991E-03    -104.727E-03     136.326E-03    -31.5991E-03     426.115E-03     172.347E+06     142.255E+06     786.501E+03     2.91974E+06     140.122E+06     172.347E+06     9.53736E+06         53.7173
              98     17.4621E-03     4.87687E-03         10.4157        -2.75819        -3.84603        -2.75586         10.4134        -3.84603     334.409E-03     258.090E-03    -30.0911E-03    -227.999E-03    -108.639E-03     138.730E-03    -30.0911E-03     418.262E-03     175.554E+06     142.983E+06    -2.65720E+06    -2.36173E+06     142.687E+06     175.554E+06     1.68555E+06         56.4480
              99     17.4836E-03     6.04824E-03         10.3295        -2.73623        -3.78781        -2.73562         10.3289        -3.78781     166.403E-03     274.914E-03    -28.9950E-03    -245.919E-03    -125.618E-03     154.613E-03    -28.9950E-03     438.992E-03     173.073E+06     140.030E+06    -12.3076E+06    -11.7209E+06     139.444E+06     173.073E+06    -1.30154E+06         58.9872
             100     17.4776E-03     7.22409E-03         10.2625        -2.73042        -3.71366        -2.73027         10.2623        -3.71366     83.6687E-03     293.947E-03    -28.6165E-03    -265.331E-03    -132.326E-03     160.942E-03    -28.6165E-03     476.031E-03     174.545E+06     143.200E+06    -11.6980E+06    -10.6259E+06     142.128E+06     174.545E+06     2.01377E+06         61.2422
             101     17.4949E-03     8.35117E-03         10.1243        -2.71092        -3.62745        -2.71088         10.1243        -3.62745     32.2796E-03     294.650E-03    -28.5734E-03    -266.076E-03    -123.645E-03     152.218E-03    -28.5734E-03     488.104E-03     183.832E+06     151.447E+06    -2.64642E+06    -1.91585E+06     150.716E+06     183.832E+06     5.89125E+06         63.2713
             102     17.4906E-03     9.43404E-03         9.93221        -2.67851        -3.52937        -2.67850         9.93219        -3.52937    -18.5381E-03     277.456E-03    -28.4411E-03    -249.015E-03    -114.012E-03     142.454E-03    -28.4411E-03     459.750E-03     180.678E+06     146.419E+06    -6.43716E+06    -6.40948E+06     146.391E+06     180.678E+06    -1.42389E+06         65.1185
             103     17.4984E-03     10.5346E-03         9.71305        -2.63384        -3.41626        -2.63382         9.71303        -3.41626    -27.0281E-03     280.069E-03    -28.2300E-03    -251.839E-03    -119.593E-03     147.823E-03    -28.2300E-03     459.781E-03     181.464E+06     147.938E+06    -4.87465E+06    -4.87453E+06     147.938E+06     181.464E+06    -61.2638E+03         66.7867
             104     17.4930E-03     11.7232E-03         9.45891        -2.58339        -3.28760        -2.58339         9.45890        -3.28760    -19.5631E-03     290.388E-03    -28.3736E-03    -262.014E-03    -117.539E-03     145.913E-03    -28.3736E-03     485.108E-03     184.080E+06     150.971E+06    -1.98070E+06    -1.97907E+06     150.969E+06     184.080E+06     247.839E+03         68.2770
             105     17.4990E-03     12.7907E-03         9.17513        -2.52857        -3.14544        -2.52854         9.17510        -3.14544    -35.6255E-03     285.642E-03    -28.9037E-03    -256.738E-03    -96.5117E-03     125.415E-03    -28.9037E-03     494.455E-03     181.134E+06     148.551E+06    -4.72490E+06    -4.67492E+06     148.501E+06     181.134E+06    -1.58865E+06         69.6074
             106     17.4965E-03     13.8535E-03         8.85936        -2.45365        -2.99027        -2.45357         8.85928        -2.99027    -59.1771E-03     284.649E-03    -29.0580E-03    -255.591E-03    -90.7016E-03     119.760E-03    -29.0580E-03     497.472E-03     178.463E+06     146.660E+06    -6.96773E+06    -6.91482E+06     146.607E+06     178.463E+06    -2.51334E+06         70.7927
             107     17.4973E-03     14.9741E-03         8.50693        -2.36593        -2.82514        -2.36575         8.50675        -2.82514    -87.2075E-03     290.623E-03    -29.1415E-03    -261.481E-03    -91.0151E-03     120.157E-03    -29.1415E-03     509.946E-03     180.328E+06     148.774E+06    -5.07889E+06    -5.07305E+06     148.768E+06     180.328E+06    -256.092E+03         71.7770
             108     17.4979E-03     16.0415E-03         8.11478        -2.27134        -2.65427        -2.27089         8.11433        -2.65427    -133.168E-03     297.960E-03    -29.4076E-03    -268.553E-03    -84.6707E-03     114.078E-03    -29.4076E-03     530.474E-03     179.679E+06     147.703E+06    -6.63006E+06    -6.62855E+06     147.701E+06     179.679E+06     229.167E+03         72.5708
             109     17.4971E-03     17.1140E-03         7.70268        -2.17069        -2.47870        -2.16993         7.70192        -2.47870    -172.841E-03     301.637E-03    -29.5593E-03    -272.078E-03    -80.9638E-03     110.523E-03    -29.5593E-03     540.797E-03     180.469E+06     148.256E+06    -6.37237E+06    -6.37224E+06     148.256E+06     180.469E+06    -64.9521E+03         73.2095
             110     17.4990E-03     18.1836E-03         7.27160        -2.06221        -2.29860        -2.06116         7.27055        -2.29860    -197.019E-03     306.302E-03    -29.6736E-03    -276.628E-03    -77.8757E-03     107.549E-03    -29.6736E-03     552.629E-03     181.616E+06     151.159E+06    -4.21587E+06    -4.21140E+06     151.155E+06     181.616E+06     623.179E+03         73.6926
             111     17.4987E-03     19.2386E-03         6.83548        -1.95333        -2.11421        -1.95193         6.83408        -2.11421    -221.261E-03     306.820E-03    -29.7481E-03    -277.072E-03    -74.4838E-03     104.232E-03    -29.7481E-03     555.864E-03     180.262E+06     151.330E+06    -5.17531E+06    -5.16858E+06     151.323E+06     180.262E+06     166.369E+03         74.0487
             112     17.4996E-03     20.2863E-03         6.39470        -1.83631        -1.92658        -1.83444         6.39284        -1.92658    -246.837E-03     306.196E-03    -29.7409E-03    -276.456E-03    -74.0747E-03     103.816E-03    -29.7409E-03     554.828E-03     179.693E+06     151.529E+06    -6.20261E+06    -6.20005E+06     151.527E+06     179.693E+06    -570.425E+03         74.2997
             113     17.4990E-03     21.3499E-03         5.94074        -1.70900        -1.73932        -1.70639         5.93813        -1.73932    -280.876E-03     311.063E-03    -29.6892E-03    -281.374E-03    -78.7745E-03     108.464E-03    -29.6892E-03     562.051E-03     179.696E+06     152.564E+06    -6.18876E+06    -6.18758E+06     152.563E+06     179.696E+06    -415.146E+03         74.4622
             114     17.4972E-03     22.4235E-03         5.49249        -1.55646        -1.58911        -1.58539         5.48916        -1.55685    -306.155E-03     316.122E-03    -29.7351E-03    -286.387E-03    -81.0885E-03     110.824E-03    -29.7351E-03     571.119E-03     180.855E+06     154.485E+06    -5.11085E+06    -5.09771E+06     154.471E+06     180.855E+06     721.490E+03         74.5680
             115     17.4980E-03     23.4703E-03         5.05000        -1.38149        -1.47276        -1.46853         5.04577        -1.38149    -330.597E-03     315.256E-03    -29.8025E-03    -285.454E-03    -78.5833E-03     108.386E-03    -29.8025E-03     570.870E-03     181.719E+06     156.012E+06    -4.57744E+06    -4.55908E+06     155.994E+06     181.719E+06     1.69148E+06         74.6603
             116     17.4982E-03     24.5208E-03         4.62705        -1.21315        -1.36631        -1.36103         4.62177        -1.21315    -354.975E-03     311.184E-03    -29.7522E-03    -281.431E-03    -78.2513E-03     108.004E-03    -29.7522E-03     562.574E-03     179.552E+06     155.365E+06    -6.50097E+06    -6.47903E+06     155.343E+06     179.552E+06    -432.328E+03         74.7544
             117     17.4972E-03     25.5793E-03         4.22844        -1.05106        -1.26449        -1.25834         4.22230        -1.05106    -366.549E-03     307.514E-03    -29.6844E-03    -277.830E-03    -79.0858E-03     108.770E-03    -29.6844E-03     554.380E-03     181.026E+06     158.244E+06    -4.83502E+06    -4.79362E+06     158.202E+06     181.026E+06     311.431E+03         74.8533
             118     17.4989E-03     26.6328E-03         3.85981    -895.273E-03        -1.16878        -1.16224         3.85327    -895.273E-03    -362.460E-03     305.613E-03    -29.6148E-03    -275.999E-03    -79.9535E-03     109.568E-03    -29.6148E-03     549.862E-03     181.968E+06     159.314E+06    -4.46720E+06    -4.44161E+06     159.288E+06     181.968E+06     1.42997E+06         74.9772
             119     17.4980E-03     27.7030E-03         3.53603    -747.097E-03        -1.09304        -1.08601         3.52900    -747.097E-03    -360.015E-03     309.379E-03    -29.5554E-03    -279.824E-03    -83.9135E-03     113.469E-03    -29.5554E-03     555.148E-03     179.734E+06     158.913E+06    -5.78901E+06    -5.78784E+06     158.912E+06     179.734E+06     294.666E+03         75.1239
             120     17.4965E-03     28.7820E-03         3.23805    -609.450E-03        -1.02518        -1.01708         3.22995    -609.450E-03    -370.676E-03     313.583E-03    -29.6702E-03    -283.913E-03    -82.5762E-03     112.246E-03    -29.6702E-03     564.771E-03     179.924E+06     160.789E+06    -4.92955E+06    -4.89554E+06     160.755E+06     179.924E+06     1.96167E+06         75.2822
             121     17.4990E-03     29.8280E-03         2.97354    -483.792E-03    -974.740E-03    -965.476E-03         2.96427    -483.792E-03    -381.518E-03     311.080E-03    -29.8102E-03    -281.270E-03    -75.1262E-03     104.936E-03    -29.8102E-03     564.297E-03     179.398E+06     160.322E+06    -6.16065E+06    -6.09348E+06     160.254E+06     179.398E+06    -41.0162E+03         75.4625
             122     17.4994E-03     30.8667E-03         2.72924    -368.953E-03    -931.331E-03    -920.415E-03         2.71833    -368.953E-03    -398.311E-03     306.715E-03    -29.7290E-03    -276.986E-03    -75.2096E-03     104.939E-03    -29.7290E-03     555.149E-03     180.199E+06     161.708E+06    -5.41371E+06    -5.37862E+06     161.673E+06     180.199E+06    -1.43967E+06         75.6412
             123     17.4980E-03     31.9387E-03         2.49947    -262.767E-03    -890.182E-03    -878.510E-03         2.48780    -262.767E-03    -397.118E-03     309.648E-03    -29.6329E-03    -280.016E-03    -81.5067E-03     111.140E-03    -29.6329E-03     557.298E-03     181.182E+06     163.396E+06    -4.15848E+06    -4.15167E+06     163.389E+06     181.182E+06     964.013E+03         75.7738
             124     17.4968E-03     33.0125E-03         2.29042    -162.490E-03    -855.064E-03    -842.516E-03         2.27787    -162.490E-03    -395.724E-03     313.673E-03    -29.7308E-03    -283.942E-03    -81.2915E-03     111.022E-03    -29.7308E-03     565.792E-03     180.210E+06     162.915E+06    -4.81195E+06    -4.79860E+06     162.901E+06     180.210E+06     1.49450E+06         75.8796
             125     17.4976E-03     34.0557E-03         2.09701    -66.5691E-03    -818.491E-03    -804.167E-03         2.08268    -66.5691E-03    -407.355E-03     310.427E-03    -29.8162E-03    -280.611E-03    -76.1957E-03     106.012E-03    -29.8162E-03     562.246E-03     178.552E+06     161.945E+06    -5.99426E+06    -5.98438E+06     161.935E+06     178.552E+06     318.010E+03         76.0041
             126     17.4988E-03     35.1024E-03         1.93558     25.3307E-03    -793.429E-03    -778.908E-03         1.92106     25.3307E-03    -397.067E-03     305.291E-03    -29.7158E-03    -275.575E-03    -76.1807E-03     105.896E-03    -29.7158E-03     551.565E-03     178.572E+06     162.774E+06    -5.41081E+06    -5.39765E+06     162.761E+06     178.572E+06    -1.40861E+06         76.1434
             127     17.4981E-03     36.1664E-03         1.78310     112.921E-03    -769.910E-03    -754.781E-03         1.76797     112.921E-03    -391.305E-03     304.358E-03    -29.6125E-03    -274.745E-03    -79.9073E-03     109.520E-03    -29.6125E-03     547.238E-03     178.381E+06     162.926E+06    -5.42003E+06    -5.40149E+06     162.907E+06     178.381E+06    -1.76224E+06         76.2723
             128     17.4967E-03     37.2354E-03         1.63397     195.712E-03    -752.171E-03    -734.413E-03         1.61621     195.712E-03    -409.430E-03     305.956E-03    -29.6657E-03    -276.290E-03    -79.7896E-03     109.455E-03    -29.6657E-03     550.617E-03     178.530E+06     163.794E+06    -4.53655E+06    -4.50156E+06     163.759E+06     178.530E+06     688.638E+03         76.4023
             129     17.4982E-03     38.2915E-03         1.48004     274.104E-03    -726.038E-03    -704.964E-03         1.45897     274.104E-03    -428.213E-03     305.860E-03    -29.7244E-03    -276.136E-03    -76.9238E-03     106.648E-03    -29.7244E-03     552.284E-03     177.156E+06     164.010E+06    -5.05122E+06    -5.01492E+06     163.974E+06     177.156E+06     619.361E+03         76.5659
             130     17.4982E-03     39.3440E-03         1.32703     349.472E-03    -690.676E-03    -667.590E-03         1.30395     349.472E-03    -429.029E-03     304.113E-03    -29.6617E-03    -274.451E-03    -77.7414E-03     107.403E-03    -29.6617E-03     548.121E-03     175.857E+06     162.091E+06    -6.28456E+06    -6.26189E+06     162.069E+06     175.857E+06    -1.94457E+06         76.7552
             131     17.4976E-03     40.4097E-03         1.20074     423.048E-03    -665.767E-03    -640.689E-03         1.17566     423.048E-03    -429.147E-03     307.537E-03    -29.5895E-03    -277.948E-03    -83.1138E-03     112.703E-03    -29.5895E-03     551.753E-03     179.229E+06     165.289E+06    -3.73621E+06    -3.69984E+06     165.253E+06     179.229E+06     345.633E+03         76.9382
             132     17.4964E-03     41.4939E-03         1.09096     493.228E-03    -636.427E-03    -607.445E-03         1.06197     493.228E-03    -442.981E-03     310.681E-03    -29.6810E-03    -281.000E-03    -82.2460E-03     111.927E-03    -29.6810E-03     558.854E-03     179.660E+06     167.545E+06    -4.04951E+06    -4.01005E+06     167.505E+06     179.660E+06     2.59263E+06         77.1134
             133     17.4979E-03     42.5324E-03         1.02247     556.280E-03    -621.359E-03    -591.153E-03     992.264E-03     556.280E-03    -441.525E-03     305.820E-03    -29.8219E-03    -275.998E-03    -75.3570E-03     105.179E-03    -29.8219E-03     553.091E-03     177.990E+06     166.785E+06    -5.81344E+06    -5.79093E+06     166.762E+06     177.990E+06     467.331E+03         77.2968
             134     17.4962E-03     43.5793E-03     986.820E-03     608.326E-03    -617.586E-03    -587.159E-03     956.393E-03     608.326E-03    -437.524E-03     300.014E-03    -29.7851E-03    -270.229E-03    -74.5854E-03     104.370E-03    -29.7851E-03     541.410E-03     178.085E+06     167.535E+06    -5.97665E+06    -5.97061E+06     167.529E+06     178.085E+06    -723.529E+03         77.4780
             135     17.4974E-03     44.6458E-03     967.251E-03     645.364E-03    -617.509E-03    -583.883E-03     933.625E-03     645.364E-03    -456.567E-03     298.371E-03    -29.7071E-03    -268.664E-03    -76.6154E-03     106.322E-03    -29.7071E-03     536.714E-03     177.014E+06     166.296E+06    -5.33527E+06    -5.33446E+06     166.296E+06     177.014E+06    -263.724E+03         77.6413
             136     17.4964E-03     45.7041E-03     978.564E-03     664.748E-03    -626.698E-03    -590.347E-03     942.213E-03     664.748E-03    -477.621E-03     298.790E-03    -29.7223E-03    -269.068E-03    -75.9284E-03     105.651E-03    -29.7223E-03     538.042E-03     176.238E+06     165.666E+06    -4.70027E+06    -4.69946E+06     165.665E+06     176.238E+06    -258.460E+03         77.8075
             137     17.4980E-03     46.7674E-03         1.02070     665.394E-03    -634.025E-03    -598.051E-03     984.730E-03     665.394E-03    -482.477E-03     299.327E-03    -29.7522E-03    -269.575E-03    -74.6863E-03     104.439E-03    -29.7522E-03     539.966E-03     175.555E+06     164.619E+06    -4.78177E+06    -4.77969E+06     164.617E+06     175.555E+06    -411.901E+03         78.0035
             138     17.4970E-03     47.8213E-03         1.12643     647.299E-03    -663.396E-03    -632.729E-03         1.09576     647.299E-03    -462.234E-03     297.151E-03    -29.7459E-03    -267.405E-03    -73.0775E-03     102.823E-03    -29.7459E-03     536.453E-03     172.653E+06     159.874E+06    -6.71222E+06    -6.66398E+06     159.826E+06     172.653E+06    -2.37103E+06         78.2274
             139     17.4992E-03     48.8729E-03         1.28655     609.582E-03    -706.406E-03    -681.851E-03         1.26200     609.582E-03    -438.797E-03     299.451E-03    -29.6734E-03    -269.778E-03    -75.7691E-03     105.443E-03    -29.6734E-03     539.593E-03     172.778E+06      158.16E+06    -5.11778E+06    -5.07149E+06     158.114E+06     172.778E+06    -1.85287E+06         78.4572
             140     17.4972E-03     49.9606E-03         1.48271     549.453E-03    -756.241E-03    -734.965E-03         1.46144     549.453E-03    -433.478E-03     311.045E-03    -29.6125E-03    -281.432E-03    -83.3940E-03     113.007E-03    -29.6125E-03     558.969E-03     173.451E+06     160.251E+06    -4.40904E+06    -4.39867E+06     160.241E+06     173.451E+06     1.03016E+06         78.6763
             141     17.4969E-03     51.0370E-03         1.71720     465.387E-03    -817.311E-03    -797.665E-03         1.69755     465.387E-03    -444.277E-03     315.251E-03    -29.7699E-03    -285.481E-03    -80.6625E-03     110.432E-03    -29.7699E-03     569.406E-03     172.639E+06     161.700E+06    -6.26457E+06    -6.25007E+06     161.686E+06     172.639E+06     1.52637E+06         78.8786
             142     17.4979E-03     52.0635E-03         1.97453     356.168E-03    -878.869E-03    -860.176E-03         1.95584     356.168E-03    -459.820E-03     308.866E-03    -29.9214E-03    -278.945E-03    -72.0561E-03     101.978E-03    -29.9214E-03     561.453E-03     173.044E+06     162.422E+06    -5.05195E+06    -5.04746E+06     162.417E+06     173.044E+06     462.965E+03         79.0665
             143     17.4986E-03     53.1111E-03         2.26105     221.058E-03    -950.459E-03    -933.989E-03         2.24458     221.058E-03    -457.507E-03     303.913E-03    -29.8093E-03    -274.103E-03    -73.0983E-03     102.908E-03    -29.8093E-03     550.519E-03     174.455E+06     164.005E+06    -3.63457E+06    -3.63431E+06     164.004E+06     174.455E+06    -190.898E+03         79.2214
             144     17.4979E-03     54.1778E-03         2.56784     62.8172E-03        -1.02302        -1.00901         2.55383     62.8172E-03    -446.853E-03     305.322E-03    -29.7007E-03    -275.621E-03    -78.1008E-03     107.801E-03    -29.7007E-03     550.391E-03     174.927E+06     164.875E+06    -3.65231E+06    -3.65198E+06     164.875E+06     174.927E+06    -213.053E+03         79.3278
             145     17.4969E-03     55.2426E-03         2.90084    -113.713E-03        -1.09971        -1.08784         2.88897    -113.713E-03    -433.922E-03     306.713E-03    -29.7432E-03    -276.970E-03    -78.1567E-03     107.900E-03    -29.7432E-03     553.228E-03     172.802E+06     163.673E+06    -5.16820E+06    -5.16791E+06     163.673E+06     172.802E+06    -158.289E+03         79.4286
             146     17.4973E-03     56.2920E-03         3.26198    -304.618E-03        -1.18265        -1.17307         3.25240    -304.618E-03    -410.954E-03     303.968E-03    -29.7608E-03    -274.207E-03    -76.0299E-03     105.791E-03    -29.7608E-03     548.842E-03     171.159E+06     161.482E+06    -5.51128E+06    -5.50205E+06     161.473E+06     171.159E+06    -874.679E+03         79.5681
             147     17.4982E-03     57.3456E-03         3.63791    -508.018E-03        -1.26770        -1.25949         3.62970    -508.018E-03    -400.599E-03     302.117E-03    -29.6648E-03    -272.452E-03    -78.7901E-03     108.455E-03    -29.6648E-03     543.162E-03     171.456E+06     161.931E+06    -4.67458E+06    -4.66488E+06     161.921E+06     171.456E+06    -673.393E+03         79.7363
             148     17.4954E-03     58.4212E-03         4.00713    -721.852E-03        -1.34783        -1.33970         3.99900    -721.852E-03    -416.914E-03     302.671E-03    -29.6548E-03    -273.016E-03    -80.8702E-03     110.525E-03    -29.6548E-03     542.933E-03     171.409E+06     164.129E+06    -5.22897E+06    -5.19858E+06     164.098E+06     171.409E+06     1.79867E+06         79.9156
             149     17.4994E-03     60.5134E-03         4.62429        -1.17085        -1.44087        -1.43180         4.61522        -1.17085    -468.223E-03     293.836E-03    -29.7422E-03    -264.094E-03    -70.8793E-03     100.622E-03    -29.7422E-03     530.892E-03     169.659E+06     162.064E+06    -4.82276E+06    -4.76113E+06     162.002E+06     169.659E+06    -2.37031E+06         80.3992
             150     17.4974E-03     61.5874E-03         4.89345        -1.38084        -1.48911        -1.46145         4.88508        -1.40012    -461.178E-03     298.450E-03    -29.6152E-03    -268.834E-03    -77.8624E-03     107.478E-03    -29.6152E-03     536.117E-03     172.246E+06     164.939E+06    -3.88844E+06    -3.80809E+06     164.859E+06     172.246E+06    -1.01487E+06         80.6677
             151     17.4976E-03     62.6696E-03         5.12842        -1.48836        -1.62581        -1.47982         5.11988        -1.62581    -475.008E-03     306.233E-03    -29.6589E-03    -276.574E-03    -79.9735E-03     109.632E-03    -29.6589E-03     551.057E-03     170.516E+06     162.403E+06    -5.41972E+06    -5.36148E+06     162.344E+06     170.516E+06    -550.012E+03         80.9241
             152     17.4982E-03     63.7235E-03         5.33269        -1.49393        -1.84332        -1.48479         5.32354        -1.84332    -499.250E-03     309.841E-03    -29.7779E-03    -280.063E-03    -77.2651E-03     107.043E-03    -29.7779E-03     560.371E-03     167.804E+06     158.403E+06    -5.24727E+06    -5.20045E+06     158.356E+06     167.804E+06    -1.03987E+06         81.1765
             153     17.4970E-03     64.7799E-03         5.49128        -1.47108        -2.05150        -1.46142         5.48162        -2.05150    -518.375E-03     307.330E-03    -29.7963E-03    -277.534E-03    -76.0680E-03     105.864E-03    -29.7963E-03     555.847E-03     167.648E+06     159.396E+06    -4.63336E+06    -4.62584E+06     159.388E+06     167.648E+06     867.338E+03         81.4102
             154     17.4984E-03     65.8252E-03         5.60600        -1.43712        -2.25026        -1.42698         5.59586        -2.25026    -533.973E-03     301.574E-03    -29.7801E-03    -271.794E-03    -73.5098E-03     103.290E-03    -29.7801E-03     545.425E-03     167.206E+06     160.460E+06    -5.88061E+06    -5.86903E+06     160.448E+06     167.206E+06     1.06976E+06         81.6152
             155     17.4988E-03     66.8792E-03         5.67038        -1.38568        -2.43898        -1.37502         5.65972        -2.43898    -548.179E-03     301.938E-03    -29.7110E-03    -272.227E-03    -75.4967E-03     105.208E-03    -29.7110E-03     544.958E-03     168.722E+06     162.316E+06    -3.51099E+06    -3.49139E+06     162.296E+06     168.722E+06     151.572E+03         81.8177
             156     17.4975E-03     67.9564E-03         5.69436        -1.32339        -2.61570        -1.31270         5.68367        -2.61570    -547.338E-03     307.524E-03    -29.6789E-03    -277.845E-03    -79.4714E-03     109.150E-03    -29.6789E-03     554.145E-03     168.950E+06     162.867E+06    -3.64951E+06    -3.63611E+06     162.854E+06     168.950E+06    -159.537E+03         82.0258
             157     17.4982E-03     69.0183E-03         5.68946        -1.25976        -2.77640        -1.24885         5.67854        -2.77640    -550.154E-03     309.293E-03    -29.7605E-03    -279.533E-03    -77.5117E-03     107.272E-03    -29.7605E-03     559.064E-03     167.862E+06     162.935E+06    -4.65584E+06    -4.64706E+06     162.926E+06     167.862E+06     118.713E+03         82.2392
             158     17.4977E-03     70.0612E-03         5.66061        -1.18996        -2.91756        -1.17879         5.64944        -2.91756    -552.799E-03     305.223E-03    -29.7671E-03    -275.456E-03    -75.2823E-03     105.049E-03    -29.7671E-03     551.964E-03     166.786E+06     163.140E+06    -5.38709E+06    -5.38209E+06     163.135E+06     166.786E+06    -898.674E+03         82.4556
             159     17.4986E-03     71.1182E-03         5.61264        -1.11158        -3.03772        -1.10066         5.60173        -3.03772    -541.348E-03     304.818E-03    -29.6437E-03    -275.174E-03    -79.2529E-03     108.897E-03    -29.6437E-03     548.592E-03     166.069E+06     162.848E+06    -5.10957E+06    -5.10786E+06     162.846E+06     166.069E+06    -491.055E+03         82.6677
             160     17.4973E-03     72.1967E-03         5.54944        -1.03751        -3.13740        -1.02651         5.53843        -3.13740    -538.008E-03     308.270E-03    -29.6016E-03    -278.669E-03    -82.8675E-03     112.469E-03    -29.6016E-03     553.480E-03     165.664E+06     162.739E+06    -5.08572E+06    -5.08303E+06     162.737E+06     165.664E+06     318.875E+03         82.8959
             161     17.4975E-03     73.2567E-03         5.48505    -982.580E-03        -3.21667    -971.456E-03         5.47393        -3.21667    -535.996E-03     306.473E-03    -29.7372E-03    -276.735E-03    -77.7022E-03     107.439E-03    -29.7372E-03     552.975E-03     164.939E+06     162.962E+06    -4.85705E+06    -4.83756E+06     162.942E+06     164.939E+06     1.64864E+06         83.1531
             162     17.4983E-03     74.2965E-03         5.40473    -930.887E-03        -3.27356    -919.722E-03         5.39356        -3.27356    -531.408E-03     303.801E-03    -29.7972E-03    -274.003E-03    -73.5907E-03     103.388E-03    -29.7972E-03     550.030E-03     165.905E+06     164.850E+06    -3.64263E+06    -3.62413E+06     164.831E+06     165.905E+06     839.409E+03         83.4317
             163     17.4987E-03     75.3643E-03         5.31768    -892.492E-03        -3.30534    -881.377E-03         5.30656        -3.30534    -524.965E-03     304.809E-03    -29.7329E-03    -275.076E-03    -75.4994E-03     105.232E-03    -29.7329E-03     550.999E-03     165.953E+06     165.053E+06    -3.59143E+06    -3.58448E+06     165.047E+06     165.953E+06    -1.03100E+06         83.6962
             164     17.4984E-03     76.4237E-03         5.23232    -864.474E-03        -3.30853    -853.705E-03         5.22155        -3.30853    -512.019E-03     305.275E-03    -29.7392E-03    -275.536E-03    -75.9026E-03     105.642E-03    -29.7392E-03     551.708E-03     168.020E+06     165.644E+06    -3.26424E+06    -3.22349E+06     167.582E+06     166.041E+06     1.07512E+06         83.9163
             165     17.4977E-03     77.4723E-03         5.14434    -841.457E-03        -3.27965    -831.507E-03         5.13439        -3.27965    -487.493E-03     303.879E-03    -29.7302E-03    -274.149E-03    -76.0188E-03     105.749E-03    -29.7302E-03     548.701E-03     175.607E+06     168.626E+06    -4.28997E+06    -4.22088E+06     175.538E+06     168.626E+06     3.52364E+06         84.1273
             166     17.4992E-03     78.5362E-03         5.05400    -832.487E-03        -3.21762    -823.343E-03         5.04486        -3.21762    -463.630E-03     302.617E-03    -29.6457E-03    -272.972E-03    -77.3131E-03     106.959E-03    -29.6457E-03     545.293E-03     177.494E+06     167.478E+06    -7.09812E+06    -7.02069E+06     177.417E+06     167.478E+06    -228.592E+03         84.3665
             167     17.4986E-03     79.5945E-03         4.94350    -825.100E-03        -3.12356    -816.636E-03         4.93504        -3.12356    -441.486E-03     304.734E-03    -29.5816E-03    -275.152E-03    -79.9428E-03     109.524E-03    -29.5816E-03     548.053E-03     176.444E+06     166.170E+06    -6.02349E+06    -5.96271E+06     176.384E+06     166.170E+06    -751.732E+03         84.6455
             168     17.4986E-03     80.6720E-03         4.80689    -825.646E-03        -2.99893    -817.604E-03         4.79885        -2.99893    -425.309E-03     308.364E-03    -29.6232E-03    -278.741E-03    -80.1039E-03     109.727E-03    -29.6232E-03     555.549E-03     182.252E+06     169.321E+06    -3.39903E+06    -3.32144E+06     182.174E+06     169.321E+06     3.64238E+06         84.9702
             169     17.4999E-03     81.7258E-03         4.63291    -826.979E-03        -2.84403    -818.475E-03         4.62440        -2.84403    -430.409E-03     309.423E-03    -29.7155E-03    -279.707E-03    -76.5329E-03     106.248E-03    -29.7155E-03     560.048E-03     186.841E+06     169.779E+06    -5.04102E+06    -4.98048E+06     186.781E+06     169.779E+06     2.27915E+06         85.3174
             170     17.4995E-03     82.7770E-03         4.42623    -823.334E-03        -2.65695    -814.866E-03         4.41776        -2.65695    -421.315E-03     309.897E-03    -29.7132E-03    -280.184E-03    -76.5749E-03     106.288E-03    -29.7132E-03     561.023E-03     186.291E+06     167.997E+06    -6.99639E+06    -6.99056E+06     186.286E+06     167.997E+06    -855.025E+03         85.6456
             171     17.4993E-03     83.8440E-03         4.20297    -822.893E-03        -2.43557    -815.073E-03         4.19515        -2.43557    -396.185E-03     312.438E-03    -29.7025E-03    -282.736E-03    -78.6952E-03     108.398E-03    -29.7025E-03     565.003E-03     191.526E+06     171.876E+06    -3.11300E+06    -3.03150E+06     191.445E+06     171.876E+06     1.98835E+06         85.9285
             172     17.4993E-03     84.9017E-03         3.96841    -826.079E-03        -2.18005    -819.055E-03         3.96139        -2.18005    -366.604E-03     314.820E-03    -29.7518E-03    -285.068E-03    -78.5651E-03     108.317E-03    -29.7518E-03     570.033E-03     198.569E+06     174.854E+06    -3.98119E+06    -3.88540E+06     198.473E+06     174.854E+06     4.17116E+06         86.1734
             173     17.4991E-03     85.9573E-03         3.71735    -830.620E-03        -1.89337    -824.363E-03         3.71110        -1.89337    -337.165E-03     312.256E-03    -29.7759E-03    -282.480E-03    -75.5052E-03     105.281E-03    -29.7759E-03     566.583E-03     201.967E+06     174.676E+06    -6.38756E+06    -6.35451E+06     201.933E+06     174.676E+06     2.60940E+06         86.3972
             174     17.5021E-03     86.9954E-03         3.44168    -836.244E-03        -1.57970    -830.637E-03         3.43607        -1.57970    -309.461E-03     305.399E-03    -29.6998E-03    -275.699E-03    -72.9519E-03     102.652E-03    -29.6998E-03     553.926E-03     204.185E+06     175.057E+06    -4.24082E+06    -4.21706E+06     204.161E+06     175.057E+06     111.147E+03         86.5967
             175     17.5009E-03     88.0481E-03         3.14635    -842.777E-03        -1.24219    -837.544E-03         3.14112        -1.24219    -288.675E-03     303.578E-03    -29.5375E-03    -274.040E-03    -77.3820E-03     106.920E-03    -29.5375E-03     547.368E-03     203.472E+06     174.331E+06    -5.27232E+06    -5.26118E+06     203.461E+06     174.331E+06    -1.27383E+06         86.7907
             176     17.5006E-03     89.1277E-03         2.81281    -774.716E-03    -947.005E-03    -829.610E-03         2.80705    -886.352E-03    -289.025E-03     307.430E-03    -29.4688E-03    -277.961E-03    -80.5564E-03     110.025E-03    -29.4688E-03     553.484E-03     202.965E+06     173.389E+06    -5.25211E+06    -5.24364E+06     202.956E+06     173.389E+06     693.567E+03         87.0385
             177     17.5037E-03     90.1856E-03         2.46199    -519.273E-03    -824.654E-03    -818.796E-03         2.45613    -519.273E-03    -277.256E-03     307.954E-03    -29.5071E-03    -278.447E-03    -76.4303E-03     105.937E-03    -29.5071E-03     557.300E-03     201.991E+06     171.191E+06    -5.04505E+06    -5.02690E+06     201.973E+06     171.191E+06    -111.012E+03         87.3573
             178     17.5038E-03     91.2299E-03         2.11915    -145.051E-03    -815.010E-03    -810.042E-03         2.11418    -145.051E-03    -241.203E-03     303.872E-03    -29.4454E-03    -274.427E-03    -73.3943E-03     102.840E-03    -29.4454E-03     550.790E-03     200.874E+06     168.817E+06    -5.15144E+06    -5.13210E+06     200.854E+06     168.817E+06    -1.99575E+06         87.6950
             179     17.5071E-03     92.2859E-03         1.78449     231.245E-03    -804.599E-03    -800.275E-03         1.78017     231.245E-03    -211.401E-03     303.384E-03    -29.2636E-03    -274.120E-03    -74.8964E-03     104.160E-03    -29.2636E-03     549.040E-03     198.553E+06     165.049E+06    -5.29979E+06    -5.28639E+06     198.540E+06     165.049E+06    -1.62452E+06         88.0226
             180     17.5088E-03     93.3562E-03         1.46718     600.326E-03    -796.001E-03    -792.213E-03         1.46339     600.326E-03    -184.989E-03     306.542E-03    -29.0979E-03    -277.444E-03    -76.2540E-03     105.352E-03    -29.0979E-03     555.029E-03     195.840E+06     160.648E+06    -4.35669E+06    -4.35249E+06     195.836E+06     160.648E+06    -636.573E+03         88.3546
             181     17.5126E-03     94.4087E-03         1.21689     900.399E-03    -785.767E-03    -782.772E-03         1.16261     951.682E-03    -152.754E-03     308.064E-03    -28.9137E-03    -279.150E-03    -75.4528E-03     104.366E-03    -28.9137E-03     559.002E-03     194.552E+06     152.819E+06    -3.89578E+06    -3.89533E+06     194.552E+06     152.819E+06     224.788E+03         88.7036
             182     17.5167E-03     95.4669E-03         1.27584     883.012E-03    -781.782E-03    -778.965E-03     880.194E-03         1.27584    -136.477E-03     308.533E-03    -28.6281E-03    -279.905E-03    -73.4448E-03     102.073E-03    -28.6281E-03     561.641E-03     191.492E+06     137.938E+06    -4.27831E+06    -4.27302E+06     191.487E+06     137.938E+06     893.003E+03         89.0753
             183     17.5243E-03     96.5213E-03         1.56520     620.350E-03    -776.441E-03    -773.791E-03     617.700E-03         1.56520    -121.545E-03     307.709E-03    -28.2482E-03    -279.461E-03    -69.2717E-03     97.5199E-03    -28.2482E-03     562.956E-03     186.341E+06     116.291E+06    -4.14348E+06    -4.12252E+06     186.320E+06     116.291E+06    -547.616E+03         89.4488
             184     17.5321E-03     97.5609E-03         1.81520     386.708E-03    -769.082E-03    -767.228E-03     384.853E-03         1.81520    -92.2768E-03     305.055E-03    -27.8172E-03    -277.238E-03    -65.8462E-03     93.6634E-03    -27.8172E-03     560.019E-03     180.709E+06     110.919E+06    -3.49858E+06    -3.47985E+06     180.691E+06     110.919E+06    -1.71630E+06         89.8140
             185     17.5423E-03     98.6098E-03         2.02346     197.262E-03    -769.491E-03    -768.477E-03     196.248E-03         2.02346    -61.7450E-03     302.851E-03    -27.3848E-03    -275.466E-03    -66.7514E-03     94.1362E-03    -27.3848E-03     555.477E-03     178.846E+06     137.675E+06    -1.12540E+06    -1.11614E+06     178.837E+06     137.675E+06     286.921E+03         90.2628
             186     17.5498E-03     99.6614E-03         2.18809     62.9880E-03    -778.099E-03    -777.780E-03     62.6684E-03         2.18809    -28.0800E-03     300.230E-03    -26.9611E-03    -273.269E-03    -71.2555E-03     98.2167E-03    -26.9611E-03     547.842E-03     181.771E+06     165.253E+06    -3.41953E+06    -3.38452E+06     176.646E+06     170.344E+06    -828.287E+03         91.1319
             187     17.5539E-03     100.718E-03         2.30660    -14.1512E-03    -795.933E-03    -795.900E-03    -14.1850E-03         2.30660     590.126E-06     296.040E-03    -26.5647E-03    -269.476E-03    -76.2974E-03     102.862E-03    -26.5647E-03     536.356E-03     179.690E+06     173.002E+06    -4.13716E+06    -4.10319E+06     172.968E+06     179.690E+06    -2.29812E+06         92.6732
             188     17.5549E-03     101.783E-03         2.37570    -48.1710E-03    -814.112E-03    -814.001E-03    -48.2827E-03         2.37570     17.3108E-03     291.041E-03    -26.3196E-03    -264.722E-03    -78.6942E-03     105.014E-03    -26.3196E-03     524.517E-03     167.217E+06     157.208E+06    -9.54469E+06    -8.50299E+06     156.167E+06     167.217E+06    -9.73994E+06         94.3898
             189     17.5544E-03     102.838E-03         2.39280    -46.8013E-03    -828.888E-03    -828.559E-03    -47.1306E-03         2.39280     31.3477E-03     283.810E-03    -26.2630E-03    -257.547E-03    -76.3594E-03     102.622E-03    -26.2630E-03     510.907E-03     154.446E+06     136.182E+06    -4.48586E+06    -3.44570E+06     135.142E+06     154.446E+06    -9.53978E+06         95.3889
             190     17.5551E-03     103.897E-03         2.35806    -19.6082E-03    -839.005E-03    -838.295E-03    -20.3183E-03         2.35806     47.6171E-03     279.140E-03    -26.4345E-03    -252.706E-03    -69.2676E-03     95.7021E-03    -26.4345E-03     505.533E-03     152.458E+06     123.905E+06    -2.25639E+06    -2.01444E+06     123.663E+06     152.458E+06    -4.43586E+06         95.2430
             191     17.5543E-03     104.954E-03         2.27543     33.6357E-03    -842.104E-03    -840.462E-03     31.9941E-03         2.27543     74.2871E-03     274.130E-03    -26.7857E-03    -247.344E-03    -56.2444E-03     83.0302E-03    -26.7857E-03     502.313E-03     150.996E+06     114.153E+06    -5.37760E+06    -5.04743E+06     113.823E+06     150.996E+06    -6.17077E+06         94.3979
             192     17.5553E-03     105.963E-03         2.14877     122.179E-03    -847.743E-03    -844.460E-03     118.896E-03         2.14877     111.889E-03     261.121E-03    -26.8987E-03    -234.222E-03    -46.3715E-03     73.2702E-03    -26.8987E-03     480.676E-03     142.143E+06     102.516E+06    -1.25459E+06    -1.00043E+06     102.262E+06     142.143E+06    -5.06361E+06         93.3736
             193     17.5552E-03     106.978E-03         1.97968     229.360E-03    -843.457E-03    -838.624E-03     224.528E-03         1.97968     143.555E-03     240.294E-03    -26.5808E-03    -213.713E-03    -49.8904E-03     76.4712E-03    -26.5808E-03     435.732E-03     141.693E+06     91.8870E+06    -8.58330E+06    -8.36461E+06     91.6683E+06     141.693E+06    -4.52901E+06         92.0554
             194     17.5566E-03     108.015E-03         1.76839     342.123E-03    -822.426E-03    -817.804E-03     337.501E-03         1.76839     145.592E-03     234.851E-03    -25.9172E-03    -208.934E-03    -70.0419E-03     95.9591E-03    -25.9172E-03     410.702E-03     147.520E+06     84.8977E+06    -5.44974E+06    -5.38860E+06     84.8366E+06     147.520E+06    -1.28410E+06         90.1857
             195     17.5563E-03     109.137E-03         1.51771     434.375E-03    -775.215E-03    -772.055E-03     431.215E-03         1.51771     122.819E-03     229.058E-03    -25.4386E-03    -203.619E-03    -82.8123E-03     108.251E-03    -25.4386E-03     388.146E-03     146.031E+06     77.6516E+06    -3.25014E+06    -3.23395E+06     77.6355E+06     146.031E+06    -286.692E+03         88.6099
             196     17.5584E-03     110.171E-03         1.23141     489.106E-03    -693.910E-03    -692.110E-03     487.306E-03         1.23141     90.5275E-03     199.968E-03    -25.1368E-03    -174.831E-03    -79.7915E-03     104.928E-03    -25.1368E-03     325.672E-03     119.459E+06     59.4226E+06    -8.97260E+06    -1.70286E+06     52.1529E+06     119.459E+06    -12.6875E+06         88.4420
             197     17.5589E-03     111.195E-03     905.605E-03     520.046E-03    -589.478E-03    -588.903E-03     519.471E-03     905.605E-03     27.5769E-03     195.274E-03    -24.1065E-03    -171.168E-03    -107.569E-03     131.675E-03    -24.1065E-03     272.492E-03     93.7781E+06     30.6624E+06    -13.2144E+06    -680.901E+03     18.1289E+06     93.7781E+06    -19.7915E+06         88.1311
             198     17.5604E-03     112.411E-03     636.163E-03     440.679E-03    -464.159E-03    -464.050E-03     535.498E-03     541.235E-03    -20.1733E-03     228.976E-03    -23.0258E-03    -205.950E-03    -153.288E-03     176.314E-03    -23.0258E-03     283.760E-03     117.530E+06     41.0188E+06    -12.6614E+06     1.65953E+06     26.6978E+06     117.530E+06     8.05716E+06         84.6165
             199     17.5599E-03     113.674E-03     517.635E-03     155.709E-03    -304.982E-03    -304.534E-03     517.186E-03     155.709E-03    -35.0722E-03     249.655E-03    -23.1238E-03    -226.531E-03    -155.856E-03     178.979E-03    -23.1238E-03     336.390E-03     121.990E+06     41.9154E+06    -32.0099E+06    -20.3744E+06     30.2799E+06     121.990E+06     6.41176E+06         80.8275
             200     17.5624E-03     114.807E-03     472.531E-03    -45.4096E-03    -315.394E-03    -131.099E-03     471.331E-03    -228.504E-03    -51.6696E-03     221.753E-03    -24.1981E-03    -197.555E-03    -102.413E-03     126.611E-03    -24.1981E-03     346.705E-03     48.7156E+06     4.70607E+06    -53.5799E+06    -41.0553E+06    -4.53284E+06     45.4298E+06    -21.4813E+06         78.5893
             201     17.5630E-03     115.816E-03     431.824E-03     36.0564E-03    -598.738E-03     38.7063E-03     429.174E-03    -598.738E-03    -61.0954E-03     149.104E-03    -28.0062E-03    -121.098E-03    -33.8266E-03     61.8327E-03    -28.0062E-03     251.359E-03     27.6914E+06     19.0828E+06    -43.4052E+06     3.04634E+06    -18.7601E+06     19.0828E+06     7.14817E+06         66.4853
             202     17.3753E-03     116.781E-03     407.475E-03     208.170E-03    -962.375E-03     210.278E-03     405.367E-03    -962.375E-03    -40.1740E-03     64.0158E-03    -4.97862E-03    -59.0372E-03     9.24847E-03     29.2785E-03    -38.5270E-03     87.2303E-03     35.2111E+06     15.4383E+06    -70.7150E+06     25.1369E+06    -15.7554E+06    -29.4472E+06     19.1018E+06         45.5954
             203     16.0567E-03     117.372E-03     406.807E-03     252.106E-03        -1.11566     253.833E-03     405.080E-03        -1.11566    -31.7529E-03     29.8994E-03     16.3081E-03    -46.2074E-03     18.8131E-03     27.3943E-03    -46.2074E-03     10.3278E-03     30.6622E+06    -7.61252E+06    -70.0439E+06     2.18500E+06     3.31874E+06    -52.4980E+06     19.0840E+06         34.7797
             204     15.0994E-03     117.040E-03     415.828E-03     146.804E-03        -1.04740     153.486E-03     409.146E-03        -1.04740    -82.4057E-03     61.3794E-03    -15.5339E-03    -45.8454E-03    -13.3570E-03     59.2025E-03    -45.8454E-03    -405.435E-06     83.8159E+06     23.5100E+06    -30.4568E+06    -11.3514E+06     28.2295E+06     59.9911E+06     5.46367E+06         32.6926
             205     14.2248E-03     116.716E-03     420.424E-03    -3.67508E-03    -969.079E-03     7.58599E-03     409.163E-03    -969.079E-03    -136.030E-03     94.3359E-03    -41.8934E-03    -52.4425E-03    -49.0731E-03     92.3109E-03    -43.2378E-03    -32.2077E-03     93.2536E+06     16.8353E+06    -37.9380E+06    -21.3524E+06     249.709E+03     93.2536E+06    -22.7960E+06         30.3620
             206     13.3507E-03     116.462E-03     416.910E-03    -161.791E-03    -898.821E-03    -143.438E-03     398.558E-03    -898.821E-03    -201.348E-03     99.4039E-03    -39.4777E-03    -59.9263E-03    -56.7679E-03     96.2456E-03    -39.4777E-03    -44.3846E-03     70.5281E+06    -7.67702E+06    -38.2611E+06    -27.8738E+06    -18.0643E+06     70.5281E+06    -9.49565E+06         28.6975
             207     12.4557E-03     116.267E-03     401.153E-03    -290.290E-03    -843.108E-03    -265.012E-03     375.875E-03    -843.108E-03    -259.475E-03     95.8741E-03    -36.1159E-03    -59.7582E-03    -57.2800E-03     93.3959E-03    -36.1159E-03    -38.8466E-03     76.7957E+06     4.87285E+06    -31.6284E+06    -29.6791E+06     2.92358E+06     76.7957E+06    -6.97399E+06         27.4467
             208     11.5423E-03     116.113E-03     387.793E-03    -390.793E-03    -797.844E-03    -360.530E-03     357.530E-03    -797.844E-03    -300.639E-03     92.3058E-03    -32.9737E-03    -59.3321E-03    -57.5278E-03     90.5016E-03    -32.9737E-03    -32.8083E-03     76.5733E+06     10.0929E+06    -33.8880E+06    -22.7803E+06    -1.01478E+06     76.5733E+06    -16.4078E+06         26.5462
             209     10.6246E-03     115.992E-03     381.020E-03    -459.153E-03    -760.844E-03    -427.754E-03     349.621E-03    -760.844E-03    -318.033E-03     87.1002E-03    -29.8418E-03    -57.2584E-03    -55.9640E-03     85.8058E-03    -29.8418E-03    -27.1328E-03     72.1196E+06     2.73748E+06    -22.2108E+06    -9.44490E+06    -10.0284E+06     72.1196E+06    -12.2617E+06         25.8064
             210     9.69436E-03     115.893E-03     354.793E-03    -493.973E-03    -731.911E-03    -470.387E-03     331.207E-03    -731.911E-03    -277.788E-03     77.5484E-03    -26.8374E-03    -50.7111E-03    -49.8717E-03     76.7091E-03    -26.8374E-03    -20.6117E-03     63.9313E+06     610.523E+03    -9.00806E+06    -4.66186E+06    -3.73568E+06     63.9313E+06    -4.08167E+06         25.0910
             211     8.75655E-03     115.817E-03     331.036E-03    -524.642E-03    -710.657E-03    -509.037E-03     315.431E-03    -710.657E-03    -227.275E-03     66.6776E-03    -24.2503E-03    -42.4273E-03    -41.9481E-03     66.1984E-03    -24.2503E-03    -14.3162E-03     55.3767E+06     2.25045E+06    -7.13409E+06    -5.03821E+06     154.571E+03     55.3767E+06    -3.86951E+06         24.4080
             212     7.80281E-03     115.761E-03     314.813E-03    -567.196E-03    -694.372E-03    -557.801E-03     305.417E-03    -694.372E-03    -178.833E-03     58.1352E-03    -22.1279E-03    -36.0073E-03    -35.7338E-03     57.8617E-03    -22.1279E-03    -10.1158E-03     51.9346E+06     4.21081E+06    -7.60376E+06    -3.84247E+06     449.523E+03     51.9346E+06    -5.47681E+06         23.8147
             213     6.84218E-03     115.717E-03     289.195E-03    -622.478E-03    -678.253E-03    -617.434E-03     284.151E-03    -678.253E-03    -133.334E-03     51.3244E-03    -20.3101E-03    -31.0142E-03    -30.8261E-03     51.1362E-03    -20.3101E-03    -7.84829E-03     47.7429E+06     5.12941E+06    -8.01332E+06    -1.82925E+06    -1.05466E+06     47.7429E+06    -6.36706E+06         23.3246
             214     5.87576E-03     115.683E-03     264.377E-03    -650.387E-03    -690.841E-03    -679.344E-03     260.106E-03    -657.613E-03    -126.537E-03     45.2034E-03    -18.7103E-03    -26.4931E-03    -26.3663E-03     45.0766E-03    -18.7103E-03    -6.00996E-03     35.8033E+06     6.17983E+06    -6.63999E+06     548.840E+03    -1.00901E+06     35.8033E+06    -6.34740E+06         22.9192
             215     4.90436E-03     115.658E-03     220.311E-03    -630.047E-03    -714.065E-03    -710.132E-03     216.378E-03    -630.047E-03    -119.987E-03     40.1132E-03    -17.4016E-03    -22.7116E-03    -22.6356E-03     40.0372E-03    -17.4016E-03    -4.32951E-03     30.1838E+06     11.3199E+06    -2.57341E+06     6.53022E+06     2.21632E+06     30.1838E+06    -6.36827E+06         22.5860
             216     3.92772E-03     115.640E-03     183.037E-03    -594.463E-03    -714.079E-03    -710.220E-03     179.177E-03    -594.463E-03    -116.251E-03     35.9946E-03    -16.4203E-03    -19.5743E-03    -19.5300E-03     35.9503E-03    -16.4203E-03    -3.13273E-03     32.8656E+06     15.6610E+06    -4.03655E+06     13.2992E+06    -1.67480E+06     32.8656E+06    -5.85721E+06         22.3203
             217     2.94843E-03     115.625E-03     146.850E-03    -550.838E-03    -674.908E-03    -670.845E-03     142.787E-03    -550.838E-03    -115.049E-03     32.9753E-03    -15.6442E-03    -17.3311E-03    -17.2971E-03     32.9413E-03    -15.6442E-03    -2.61478E-03     30.5441E+06     17.8863E+06    -1.88849E+06     21.4766E+06     466.416E+03     24.5989E+06    -7.21145E+06         22.1192
             218     1.96621E-03     115.618E-03     90.7655E-03    -504.517E-03    -592.831E-03    -586.329E-03     84.2629E-03    -504.517E-03    -126.008E-03     31.1549E-03    -15.1455E-03    -16.0094E-03    -15.9872E-03     31.1327E-03    -15.1455E-03    -2.00996E-03     37.5901E+06     28.1847E+06    -4.67352E+06     35.1513E+06    -2.23473E+06     28.1847E+06    -8.99043E+06         21.9800
             219     983.670E-06     115.611E-03     48.9837E-03    -437.283E-03    -529.815E-03    -464.455E-03     43.0845E-03    -496.743E-03    -106.037E-03     30.0889E-03    -14.5369E-03    -15.5519E-03    -15.5435E-03     30.0805E-03    -14.5369E-03    -1.17465E-03     54.8037E+06     47.2684E+06    -5.72031E+06     49.6886E+06    -4.68026E+06     51.3435E+06    -7.45076E+06         21.8970
             220    -1.80848E-06     114.580E-03     120.115E-03    -112.567E-03    -857.038E-03    -94.4870E-03    -582.976E-03    -172.027E-03    -115.422E-03     26.0976E-03    -12.2765E-03    -13.8211E-03    -13.0663E-03     26.0915E-03    -13.0252E-03    -926.787E-06     38.4146E+06     31.3713E+06    -15.8212E+06     32.7769E+06    -14.2585E+06     35.4464E+06    -8.09395E+06         21.7337
             221     264.936E-09     113.559E-03     594.177E-03     479.566E-03        -1.80570     590.509E-03        -1.80204     479.566E-03    -2.92050E-03     19.0666E-03    -9.08152E-03    -9.98510E-03    -9.22808E-03     19.0584E-03    -9.83029E-03    -965.397E-06    -12.5227E+06    -21.4837E+06    -42.9171E+06    -14.7740E+06    -38.8124E+06    -23.3372E+06    -7.39039E+06         21.4031
             222    -74.5698E-09     112.542E-03         1.32649         1.18302        -3.05745         1.32476        -3.05571         1.18302     170.740E-03     13.0281E-03    -6.42434E-03    -6.60375E-03    -6.57264E-03     13.0216E-03    -6.44894E-03    -714.595E-06    -49.1597E+06    -63.8341E+06    -70.5555E+06    -63.7141E+06    -54.1477E+06    -65.6875E+06    -2.11428E+06         21.0205
             223     79.0615E-09     111.533E-03         1.99293         1.93854        -4.30556         1.98942        -4.30205         1.93854     288.346E-03     8.51892E-03    -4.23293E-03    -4.28599E-03    -4.25749E-03     8.51502E-03    -4.25752E-03    -445.525E-06    -66.5840E+06    -97.1482E+06    -106.462E+06    -105.261E+06    -67.7851E+06    -97.1482E+06    -5.36559E+06         20.6840
             224     14.6176E-09     110.526E-03         2.64453         2.54656        -5.37975         2.63627        -5.37150         2.54656     511.161E-03     5.14993E-03    -2.54765E-03    -2.60228E-03    -2.57433E-03     5.14814E-03    -2.57381E-03    -235.117E-06    -84.7620E+06    -136.338E+06    -145.328E+06    -139.189E+06    -86.3566E+06    -140.883E+06    -8.89114E+06         20.4304
             225    -136.540E-09     109.523E-03         3.20330         3.04006        -6.24495         3.18377        -6.22542         3.04006     841.848E-03     2.66585E-03    -1.31738E-03    -1.34847E-03    -1.31649E-03     2.66495E-03    -1.34847E-03    -32.4083E-06    -100.513E+06    -180.066E+06    -186.044E+06    -181.011E+06    -101.000E+06    -184.610E+06    -1.21333E+06         20.2714
             226     145.692E-09     108.521E-03         3.56830         3.47677        -6.89426         3.53357        -6.85953         3.47677         1.20006     1.65655E-03    -821.892E-06    -834.656E-06    -820.584E-06     1.65524E-03    -834.656E-06     110.443E-06    -96.0786E+06    -168.398E+06    -171.142E+06    -168.678E+06    -97.2319E+06    -169.709E+06     6.94936E+06         20.2119
             227    -195.327E-09     107.519E-03         3.88414         3.72853        -7.31189         3.82078        -7.24853         3.72853         1.65739     2.03353E-03    -1.00946E-03    -1.02407E-03    -1.00077E-03     2.02484E-03    -1.02407E-03     305.830E-06    -49.5737E+06    -88.3861E+06    -98.9141E+06    -83.5828E+06    -63.5946E+06    -89.6965E+06     17.5466E+06         20.2513
             228     115.416E-09     106.517E-03         4.18645         3.86050        -7.58049         4.05640        -7.45044         3.86050         2.42616     3.36566E-03    -1.66020E-03    -1.70546E-03    -1.66797E-03     3.33494E-03    -1.66697E-03     780.571E-06     17.3389E+06    -39.9063E+06    -56.4650E+06    -41.0177E+06     1.89166E+06    -39.9063E+06     23.4491E+06         20.3890
             229    -18.2559E-09     105.512E-03         4.36614         3.97735        -7.74768         4.10098        -7.48252         3.97735         3.49206     6.37678E-03    -3.16224E-03    -3.21454E-03    -3.16064E-03     6.32288E-03    -3.16224E-03     1.42779E-03     63.6987E+06    -12.1565E+06    -19.6458E+06    -16.5138E+06     60.7149E+06    -12.3047E+06     14.8055E+06         20.6308
             230    -21.5958E-09     104.504E-03         4.57923         3.95635        -7.81660         4.07102        -7.30839         3.95635         4.85930     11.5740E-03    -5.72424E-03    -5.84974E-03    -5.79371E-03     11.5179E-03    -5.72424E-03     1.93774E-03     91.2410E+06     27.2590E+06     24.9908E+06     25.6780E+06     90.7021E+06     27.1107E+06     5.27636E+06         20.9794
             231     225.419E-09     103.488E-03         4.95173         3.86465        -7.97669         3.99852        -7.02348         3.86465         6.67837     18.3224E-03    -9.00886E-03    -9.31357E-03    -9.26898E-03     18.2779E-03    -9.00886E-03     2.18862E-03     96.6650E+06     60.7145E+06     55.4716E+06     56.3762E+06     95.7605E+06     60.7145E+06    -1.68039E+06         21.4197
             232     152.222E-09     102.466E-03         5.52021         3.81278        -8.41608         3.77317        -6.66904         3.81278         9.13936     25.6841E-03    -12.7343E-03    -12.9498E-03    -12.8923E-03     25.6491E-03    -12.7568E-03     2.30575E-03     97.8367E+06     88.2267E+06     71.5924E+06     86.9400E+06     82.4891E+06     88.2267E+06    -7.78692E+06         21.9174
             233    -235.128E-09     101.436E-03         6.30205         3.74486        -9.07144         3.42203        -6.19142         3.74486         11.9320     33.0548E-03    -16.4340E-03    -16.6209E-03    -16.5695E-03     33.0260E-03    -16.4565E-03     2.38285E-03     108.444E+06     104.666E+06     58.9087E+06     106.594E+06     60.7580E+06     104.666E+06    -7.15443E+06         22.4298
             234     523.484E-09     100.398E-03         7.28467         3.70931        -9.96258         2.94516        -5.62307         3.70931         14.9128     39.7634E-03    -19.7149E-03    -20.0485E-03    -20.0249E-03     39.7399E-03    -19.7149E-03     2.35920E-03     113.210E+06     109.429E+06     36.7344E+06     110.060E+06     37.2019E+06     112.111E+06    -5.78904E+06         22.9156
             235    -168.956E-09     99.3548E-03         8.34004         3.75397        -11.0224         2.32864        -5.01096         3.75397         17.8815     45.2132E-03    -22.5082E-03    -22.7050E-03    -22.6633E-03     45.1991E-03    -22.5358E-03     1.89603E-03     106.978E+06     101.661E+06     13.7181E+06     103.523E+06     14.4899E+06     104.344E+06    -8.32245E+06         23.3435
             236     81.7472E-09     98.3065E-03         9.25954         3.88397        -12.0298         1.58713        -4.35736         3.88397         20.4164     49.7994E-03    -24.8639E-03    -24.9355E-03    -24.8979E-03     49.7895E-03    -24.8916E-03     1.71995E-03     99.2168E+06     96.1942E+06    -8.98588E+06     98.6531E+06    -8.42214E+06     96.1942E+06    -7.30821E+06         23.6964
             237    -9.11287E-09     97.2523E-03         9.89252         4.09839        -12.8230     802.577E-03        -3.73303         4.09839         22.2441     53.3051E-03    -26.6049E-03    -26.7002E-03    -26.6923E-03     53.2972E-03    -26.6049E-03     1.51988E-03     87.5700E+06     86.9987E+06    -26.3706E+06     87.1062E+06    -26.0893E+06     87.1812E+06    -5.62258E+06         23.9693
             238     111.908E-09     96.1978E-03         10.0897         4.42581        -13.3123     2.38071E-03        -3.22493         4.42581         23.1688     55.5970E-03    -27.6779E-03    -27.9191E-03    -27.9168E-03     55.5947E-03    -27.6779E-03     825.276E-06     67.8504E+06     66.6759E+06    -45.8443E+06     67.3731E+06    -45.5495E+06     66.8583E+06    -5.76266E+06         24.1660
             239     246.537E-09     95.1397E-03         9.82689         4.77825        -13.3677    -825.117E-03        -2.71568         4.77825         23.1078     57.1894E-03    -28.4034E-03    -28.7860E-03    -28.7837E-03     57.1872E-03    -28.4034E-03     834.672E-06     54.3109E+06     53.1269E+06    -65.0729E+06     54.1419E+06    -64.9039E+06     53.1269E+06    -4.29371E+06         24.2976
             240     123.161E-09     94.0792E-03         9.17137         5.02598        -12.9345        -1.67669        -2.08641         5.02598         22.0885     57.8628E-03    -28.8334E-03    -29.0294E-03    -29.0239E-03     57.8606E-03    -28.8367E-03     831.486E-06     34.9152E+06     34.1843E+06    -79.8458E+06     34.1960E+06    -79.6656E+06     34.7233E+06    -4.27932E+06         24.3787
             241    -120.187E-09     93.0225E-03         8.31285         5.18735        -12.2236        -2.52627        -1.38448         5.18735         20.4885     57.9444E-03    -28.9522E-03    -28.9922E-03    -28.9884E-03     57.9440E-03    -28.9556E-03     319.296E-06     6.44416E+06     5.74635E+06    -99.0560E+06     5.41175E+06    -98.7214E+06     6.44416E+06    -5.89184E+06         24.4250
             242     196.848E-09     91.9610E-03         7.41324         5.30210        -11.4220        -3.30891    -699.852E-03         5.30210         18.6352     58.3234E-03    -28.9855E-03    -29.3380E-03    -29.3345E-03     58.3199E-03    -28.9855E-03     835.362E-06    -2.55265E+06    -4.02102E+06    -116.628E+06    -2.93553E+06    -116.404E+06    -3.86221E+06    -4.53547E+06         24.4514
             243     392.765E-09     90.9019E-03         6.68842         5.32697        -10.7071        -4.03395     15.2840E-03         5.32697         16.8938     58.7203E-03    -29.0976E-03    -29.6227E-03    -29.6191E-03     58.7168E-03    -29.0976E-03     841.472E-06    -10.4062E+06    -13.8721E+06    -132.545E+06    -12.7872E+06    -132.320E+06    -11.7157E+06    -4.72035E+06         24.4668
             244     44.5236E-09     89.8428E-03         6.38231         5.20476        -10.2639        -4.73963     858.001E-03         5.20476         15.6498     58.5148E-03    -29.1338E-03    -29.3810E-03    -29.3807E-03     58.5145E-03    -29.1338E-03     290.162E-06    -28.7717E+06    -31.6416E+06    -151.578E+06    -31.3464E+06    -151.160E+06    -29.4852E+06    -7.09122E+06         24.4749
             245     22.2403E-09     88.7823E-03         6.67132         4.94648        -10.2779        -5.47376         1.86715         4.94648         15.2557     58.5298E-03    -29.1835E-03    -29.3464E-03    -29.3431E-03     58.5265E-03    -29.1835E-03     959.150E-06    -40.6933E+06    -42.5362E+06    -171.860E+06    -40.9288E+06    -171.624E+06    -42.5362E+06    -4.62754E+06         24.4793
             246     198.891E-09     87.7228E-03         7.47163         4.58842        -10.7314        -6.18941         2.92960         4.58842         15.7455     58.8002E-03    -29.1995E-03    -29.6007E-03    -29.5977E-03     58.7972E-03    -29.1995E-03     637.497E-06    -47.2592E+06    -49.3316E+06    -187.658E+06    -48.4070E+06    -187.453E+06    -48.3886E+06    -4.58683E+06         24.4821
             247     352.382E-09     86.6638E-03         8.70885         4.19537        -11.5746        -6.85985         3.99410         4.19537         17.1335     58.5079E-03    -29.1054E-03    -29.4024E-03    -29.3808E-03     58.5069E-03    -29.1261E-03     314.580E-06    -53.2777E+06    -56.8063E+06    -203.014E+06    -54.4318E+06    -202.803E+06    -55.8633E+06    -4.87613E+06         24.4834
             248    -428.648E-09     85.6038E-03         10.4100         3.74548        -12.8217        -7.49119         5.07941         3.74548         19.5368     58.4214E-03    -29.1647E-03    -29.2567E-03    -29.1635E-03     58.4202E-03    -29.2567E-03     607.129E-06    -55.4450E+06    -59.3684E+06    -215.661E+06    -56.8116E+06    -215.632E+06    -58.0306E+06    -2.11892E+06         24.4844
             249     307.630E-09     84.5452E-03         12.3588         3.28258        -14.3187        -8.11320         6.15329         3.28258         22.5421     58.6967E-03    -29.1153E-03    -29.5815E-03    -29.5097E-03     58.6962E-03    -29.1865E-03     417.466E-06    -58.7136E+06     -60.437E+06    -226.780E+06    -60.5259E+06    -226.691E+06    -58.7136E+06    -3.51628E+06         24.4858
             250     465.481E-09     83.4849E-03         14.3944         2.86859        -15.9377        -8.70855         7.16526         2.86859         25.8453     58.6504E-03    -29.1102E-03    -29.5401E-03    -29.5390E-03     58.6492E-03    -29.1102E-03     613.392E-06    -59.3981E+06    -61.8642E+06    -238.018E+06    -59.8625E+06    -237.939E+06    -61.4786E+06    -2.30833E+06         24.4865
             251    -427.158E-09     82.4262E-03         16.3609         2.45148        -17.5164        -9.20595         8.05049         2.45148         29.1517     58.5236E-03    -29.2022E-03    -29.3214E-03    -29.3204E-03     58.5226E-03    -29.2022E-03     460.775E-06    -51.0362E+06    -56.1834E+06    -243.086E+06    -54.1038E+06    -243.085E+06    -53.1168E+06     381.312E+03         24.4867
             252     630.758E-09     81.3670E-03         18.1587         2.05200        -18.9253        -9.69873         8.93208         2.05200         32.0642     58.3869E-03    -29.1292E-03    -29.2577E-03    -29.2573E-03     58.3864E-03    -29.1292E-03     328.365E-06    -48.4851E+06    -55.3967E+06    -245.448E+06    -51.5531E+06    -245.446E+06    -52.3301E+06    -249.742E+03         24.4877
             253    -597.315E-09     80.3080E-03         19.6338         1.65610        -20.0013        -10.2109         9.84341         1.65610         34.1866     58.4382E-03    -29.1482E-03    -29.2900E-03    -29.2882E-03     58.4364E-03    -29.1482E-03     764.857E-06    -45.4317E+06    -52.1702E+06    -244.346E+06    -48.3480E+06    -244.323E+06    -49.2767E+06     1.10052E+06         24.4896
             254     821.301E-09     79.2479E-03         20.5599         1.28135        -20.5544        -10.6136         10.6191         1.28135         35.2062     58.6450E-03    -29.1999E-03    -29.4452E-03    -29.4428E-03     58.6427E-03    -29.1999E-03     909.094E-06    -45.1155E+06    -49.4062E+06    -243.179E+06    -48.0313E+06    -243.157E+06    -46.5128E+06     1.17865E+06         24.4925
             255    -555.684E-09     78.1898E-03         20.8268         1.00366        -20.5396        -10.8345         11.1218         1.00366         35.0562     58.5565E-03    -29.1986E-03    -29.3580E-03    -29.3451E-03     58.5553E-03    -29.2102E-03     616.182E-06    -49.0477E+06    -50.9571E+06    -245.821E+06    -49.0485E+06    -245.821E+06    -50.9571E+06    -245.018E+03         24.4958
             256     524.856E-09     77.1299E-03         20.4660     793.050E-03        -19.9652        -10.9583         11.4591     793.050E-03         33.6386     58.4076E-03    -29.0184E-03    -29.3892E-03    -29.3762E-03     58.4062E-03    -29.0301E-03     642.246E-06    -44.3555E+06    -46.4927E+06    -247.739E+06    -45.9880E+06    -247.732E+06    -44.8676E+06     892.668E+03         24.4991
             257     191.691E-09     76.0709E-03         19.4983     592.578E-03        -18.7860        -10.9709         11.6832     592.578E-03         30.8443     58.3111E-03    -28.8854E-03    -29.4256E-03    -29.4242E-03     58.3097E-03    -28.8854E-03     672.092E-06    -44.1010E+06    -46.4050E+06    -249.060E+06    -45.7347E+06    -249.051E+06    -44.7798E+06     496.322E+03         24.5022
             258     150.055E-09     75.0134E-03         17.9759     432.338E-03        -17.0689        -10.8003         11.7073     432.338E-03         26.8287     58.4834E-03    -29.1093E-03    -29.3741E-03    -29.2892E-03     58.4822E-03    -29.1930E-03     638.385E-06    -45.5804E+06    -46.5174E+06    -250.534E+06    -45.8426E+06    -250.530E+06    -46.2593E+06     168.400E+03         24.5050
             259    -311.299E-09     73.9520E-03         16.0886     308.507E-03        -15.0350        -10.4986         11.5522     308.507E-03         21.8997     58.4770E-03    -29.1276E-03    -29.3494E-03    -29.2639E-03     58.4751E-03    -29.2112E-03     807.232E-06    -42.5465E+06    -43.6278E+06    -250.527E+06    -42.8141E+06    -250.517E+06    -43.3697E+06     1.36940E+06         24.5077
             260     566.614E-09     72.8942E-03         14.0375     196.005E-03        -12.8571        -10.0972         11.2776     196.005E-03         16.1716     58.1907E-03    -28.8716E-03    -29.3190E-03    -29.3180E-03     58.1896E-03    -28.8716E-03     548.183E-06    -41.9652E+06    -43.7007E+06    -249.852E+06    -42.8864E+06    -249.843E+06    -42.7884E+06     1.32094E+06         24.5106
             261     45.4003E-09     71.8367E-03         12.0807     106.806E-03        -10.7554        -9.53624         10.8616     106.806E-03         9.93017     58.3930E-03    -28.9625E-03    -29.4305E-03    -29.2715E-03     58.3928E-03    -29.1212E-03     248.047E-06    -40.0154E+06    -41.3300E+06    -248.157E+06    -40.9354E+06    -248.150E+06    -40.4177E+06    -274.652E+03         24.5139
             262    -359.978E-09     70.7761E-03         10.5171     80.6232E-03        -9.10850        -8.82887         10.2375     80.6232E-03         3.42727     58.4817E-03    -29.1281E-03    -29.3536E-03    -29.1930E-03     58.4798E-03    -29.2868E-03     665.298E-06    -36.8135E+06    -38.2244E+06    -245.202E+06    -36.8417E+06    -245.174E+06    -38.2244E+06     776.456E+03         24.5159
             263     472.323E-09     69.7160E-03         9.76340     112.411E-03        -8.35143        -8.05101         9.46298     112.411E-03        -3.17000     58.1255E-03    -28.8850E-03    -29.2405E-03    -29.2369E-03     58.1219E-03    -28.8850E-03     1.12185E-03    -34.4054E+06    -37.9315E+06    -243.604E+06    -36.9475E+06    -243.579E+06    -35.4141E+06     1.97741E+06         24.5163
             264     117.391E-09     68.6598E-03         10.1806     96.0865E-03        -8.69102        -7.21379         8.70332     96.0865E-03        -9.63994     58.1458E-03    -28.9201E-03    -29.2257E-03    -29.2239E-03     58.1440E-03    -28.9201E-03     474.708E-06    -34.2770E+06    -39.2194E+06    -243.546E+06    -36.7966E+06    -243.543E+06    -36.7020E+06     609.844E+03         24.5172
             265    -117.387E-09     67.6007E-03         11.5412     74.2473E-03        -9.96635        -6.36392         7.93876     74.2473E-03        -15.8433     58.5232E-03    -29.1854E-03    -29.3378E-03    -29.3370E-03     58.5224E-03    -29.1854E-03     278.004E-06    -34.3083E+06    -38.5002E+06    -241.340E+06    -36.0797E+06    -241.335E+06    -36.7332E+06     822.101E+03         24.5198
             266     401.842E-09     66.5394E-03         13.3225     117.589E-03        -11.7456        -5.46048         7.03736     117.589E-03        -21.6159     58.6127E-03    -29.1208E-03    -29.4919E-03    -29.4891E-03     58.6099E-03    -29.1208E-03     968.919E-06    -34.5921E+06    -36.3994E+06    -239.758E+06    -36.3663E+06    -239.751E+06    -34.6324E+06     95.9428E+03         24.5228
             267     50.1123E-09     65.4820E-03         15.2501     179.672E-03        -13.7024        -4.51364         6.06133     179.672E-03        -26.8912     58.2820E-03    -29.0081E-03    -29.2739E-03    -29.2416E-03     58.2799E-03    -29.0383E-03     563.396E-06    -34.1604E+06    -35.7594E+06    -240.140E+06    -34.1646E+06    -240.135E+06    -35.7594E+06    -227.231E+03         24.5250
             268    -129.642E-09     64.4229E-03         17.1574     199.711E-03        -15.5925        -3.62155         5.18647     199.711E-03        -31.5142     58.1484E-03    -28.9568E-03    -29.1915E-03    -29.1599E-03     58.1469E-03    -28.9870E-03     461.572E-06    -36.0853E+06    -39.6163E+06    -244.008E+06    -38.0647E+06    -244.001E+06    -37.6439E+06     1.11443E+06         24.5269
             269     549.993E-09     63.3637E-03         18.8832     174.812E-03        -17.2897        -2.82265         4.41613     174.812E-03        -35.4241     58.4699E-03    -29.0922E-03    -29.3777E-03    -29.3761E-03     58.4683E-03    -29.0922E-03     380.461E-06    -35.6230E+06    -39.0564E+06    -242.890E+06    -37.6143E+06    -242.871E+06    -37.0840E+06    -375.623E+03         24.5290
             270    -412.286E-09     62.3064E-03         20.3483     142.090E-03        -18.7249        -2.09169         3.71510     142.090E-03        -38.6293     58.5346E-03    -29.2010E-03    -29.3335E-03    -29.2816E-03     58.5341E-03    -29.2525E-03     115.727E-06    -38.0695E+06    -39.6010E+06    -243.596E+06    -38.0832E+06    -243.582E+06    -39.6010E+06    -1.44381E+06         24.5308
             271     310.776E-09     61.2440E-03         21.4238     66.1196E-03        -19.7299        -1.36395         3.05786     66.1196E-03        -40.9077     58.5662E-03    -29.0956E-03    -29.4706E-03    -29.4183E-03     58.5654E-03    -29.1471E-03     531.570E-06    -38.7582E+06    -39.1778E+06    -243.347E+06    -39.1307E+06    -243.323E+06    -38.8287E+06     1.23610E+06         24.5324
             272     321.551E-09     60.1880E-03         21.9510    -59.2580E-03        -20.1563    -747.040E-03         2.54177    -59.2580E-03        -41.9764     58.7726E-03    -29.1367E-03    -29.6359E-03    -29.6349E-03     58.7715E-03    -29.1367E-03     603.979E-06    -35.7398E+06    -37.7643E+06    -241.754E+06    -37.7902E+06    -241.728E+06    -35.7398E+06     944.490E+03         24.5342
             273     41.0892E-09     59.1253E-03         21.9285    -195.266E-03        -20.0116    -272.997E-03         2.18990    -195.266E-03        -41.8660     58.4774E-03    -29.0920E-03    -29.3854E-03    -29.2659E-03     58.4756E-03    -29.2097E-03     779.019E-06    -36.5456E+06    -41.5631E+06    -242.913E+06    -38.2307E+06    -242.903E+06    -39.8876E+06     237.267E+03         24.5360
             274     16.5303E-03     57.7799E-03         3.85683    -645.500E-03        -1.30666        -1.29326         3.84342    -645.500E-03    -512.500E-03     271.019E-03    -29.4504E-03    -241.568E-03    -68.8822E-03     98.3326E-03    -29.4504E-03     484.518E-03     150.488E+06     136.662E+06    -8.94891E+06    -8.83997E+06     146.740E+06     140.302E+06     314.190E+03         75.0829
             275     15.5541E-03     57.3123E-03         3.57325    -516.123E-03        -1.20597        -1.19654         3.56382    -516.123E-03    -329.590E-03     164.228E-03    -29.0898E-03    -135.138E-03    -43.0003E-03     72.0901E-03    -29.0898E-03     273.628E-03     111.054E+06     75.8045E+06    -16.2171E+06    -16.1145E+06     110.951E+06     75.8045E+06    -1.16040E+06         63.5576
             276     14.5789E-03     57.1832E-03         3.35544    -431.193E-03        -1.10591        -1.10435         3.35387    -431.193E-03    -138.603E-03     75.5803E-03    -28.7922E-03    -46.7881E-03    -28.3627E-03     57.1549E-03    -28.7922E-03     83.3805E-03     86.2438E+06     14.8520E+06    -20.8750E+06    -20.8629E+06     86.2317E+06     14.8520E+06    -934.202E+03         50.8040
             277     13.6057E-03     57.1344E-03         3.19056    -371.493E-03        -1.02280        -1.02129         3.18905    -371.493E-03    -100.012E-03     60.9543E-03    -28.5826E-03    -32.3718E-03    -27.7277E-03     56.3102E-03    -28.5826E-03     40.2861E-03     78.0900E+06    -16.8043E+06    -28.8202E+06    -21.4384E+06     78.0868E+06    -24.1829E+06    -358.272E+03         40.4903
             278     12.6335E-03     57.0983E-03         3.04719    -316.760E-03    -953.033E-03    -939.346E-03         3.03350    -316.760E-03     334.307E-03     58.6202E-03    -28.5588E-03    -30.0614E-03    -27.8650E-03     56.4238E-03    -28.5588E-03     26.2565E-03     46.3991E+06    -20.9942E+06    -36.9265E+06    -20.9792E+06     46.3841E+06    -36.9265E+06     364.304E+03         33.7219
             279     11.6602E-03     57.0793E-03         2.93795    -263.881E-03    -914.247E-03    -849.130E-03         2.87284    -263.881E-03     932.387E-03     57.4910E-03    -28.6626E-03    -28.8284E-03    -28.1674E-03     56.8735E-03    -28.7061E-03     14.0879E-03    -1.55670E+06    -20.5977E+06    -40.7547E+06    -20.6163E+06    -13.3545E+06    -28.9382E+06     952.919E+03         29.8601
             280     10.6887E-03     57.0688E-03         2.76079    -212.500E-03    -805.220E-03    -747.448E-03         2.70302    -212.500E-03     808.582E-03     57.6462E-03    -28.7486E-03    -28.8976E-03    -28.4380E-03     57.3114E-03    -28.8734E-03     10.7204E-03    -15.0343E+06    -20.4940E+06    -62.9598E+06    -20.5437E+06    -62.9101E+06    -15.0343E+06     1.26838E+06         27.8077
             281     9.71634E-03     57.0572E-03         2.54735    -162.489E-03    -658.331E-03    -633.825E-03         2.52285    -162.489E-03     526.816E-03     57.8036E-03    -28.8159E-03    -28.9877E-03    -28.5283E-03     57.5160E-03    -28.9877E-03     9.91197E-03    -8.52684E+06    -21.2726E+06    -99.3304E+06    -21.3046E+06    -99.2984E+06    -8.52684E+06     1.50134E+06         26.7060
             282     8.74466E-03     57.0483E-03         2.44105    -114.702E-03    -613.030E-03    -518.399E-03         2.34642    -114.702E-03    -330.781E-03     57.8994E-03    -28.8323E-03    -29.0671E-03    -28.6379E-03     57.7051E-03    -29.0671E-03     8.15150E-03    -8.07186E+06    -22.4934E+06    -129.414E+06    -22.5108E+06    -129.397E+06    -8.07186E+06     1.12502E+06         26.0609
             283     7.77238E-03     57.0408E-03         2.28907    -69.3895E-03    -516.547E-03    -412.552E-03         2.18507    -69.3895E-03        -1.02830     58.0354E-03    -28.9106E-03    -29.1248E-03    -28.7661E-03     57.8909E-03    -29.1248E-03     7.07251E-03    -9.89529E+06    -23.8240E+06    -152.743E+06    -23.8314E+06    -152.735E+06    -9.89529E+06     898.022E+03         25.6348
             284     6.80097E-03     57.0334E-03         2.31180    -27.0937E-03    -591.065E-03    -302.083E-03         2.02281    -27.0937E-03        -1.55368     58.2071E-03    -29.0262E-03    -29.1809E-03    -28.9113E-03     58.0921E-03    -29.1809E-03     6.30110E-03    -10.3677E+06    -25.2649E+06    -173.425E+06    -25.2754E+06    -173.414E+06    -10.3677E+06     1.16598E+06         25.3247
             285     5.82898E-03     57.0273E-03         2.38545     8.44034E-03    -712.192E-03    -170.168E-03         1.84342     8.44034E-03    -28.4556E-03     58.2833E-03    -29.0673E-03    -29.2159E-03    -28.9826E-03     58.1985E-03    -29.2159E-03     5.42657E-03    -13.8177E+06    -27.4199E+06    -192.428E+06    -27.4256E+06    -192.422E+06    -13.8177E+06     867.720E+03         25.0875
             286     4.85774E-03     57.0222E-03         2.40622     36.2237E-03    -774.767E-03    -84.6181E-03         1.71607     36.2237E-03    -292.525E-03     58.3399E-03    -29.1058E-03    -29.2341E-03    -29.0422E-03     58.2763E-03    -29.2341E-03     4.69557E-03    -20.5220E+06    -29.9719E+06    -210.266E+06    -29.9745E+06    -210.263E+06    -20.5220E+06     66.7405E+03         24.9037
             287     3.88551E-03     57.0173E-03         3.21669     60.3870E-03        -1.62372    -31.1692E-03         1.62414     60.3870E-03         1.59358     58.4307E-03    -29.1352E-03    -29.2955E-03    -29.1253E-03     58.3891E-03    -29.2637E-03     3.78127E-03    -24.0558E+06    -31.9869E+06    -225.721E+06    -31.9946E+06    -225.713E+06    -24.0558E+06    -118.103E+03         24.7638
             288     2.91471E-03     57.0145E-03         4.42506     90.0912E-03        -2.86616    -16.6079E-03         1.57550     90.0912E-03        -1.02433     58.4924E-03    -29.1720E-03    -29.3204E-03    -29.1786E-03     58.4673E-03    -29.2887E-03     2.93513E-03    -25.8942E+06    -32.9180E+06    -234.797E+06    -32.9263E+06    -234.788E+06    -25.8942E+06     573.889E+03         24.6618
             289     1.94281E-03     57.0106E-03         7.56776     115.406E-03        -6.04319     86.7044E-03         1.43786     115.406E-03         5.37883     58.5289E-03    -29.1980E-03    -29.3309E-03    -29.2206E-03     58.5165E-03    -29.2959E-03     1.95183E-03    -30.1403E+06    -34.6330E+06    -239.790E+06    -34.6372E+06    -239.786E+06    -30.1403E+06     497.476E+03         24.5931
             290     971.090E-06     57.0105E-03         15.2169    -143.938E-03        -13.4315     389.760E-03         1.39567    -143.938E-03        -9.73349     58.5560E-03    -29.1122E-03    -29.4438E-03    -29.3942E-03     58.5517E-03    -29.1575E-03     1.19708E-03    -34.6315E+06    -37.9980E+06    -240.985E+06    -37.5475E+06    -240.971E+06    -35.0959E+06     829.265E+03         24.5528
             291     16.5273E-03     56.7242E-03         3.46766    -431.370E-03        -1.20562        -1.19169         3.45374    -431.370E-03    -494.566E-03     271.236E-03    -29.4853E-03    -241.751E-03    -68.1808E-03     97.6661E-03    -29.4853E-03     485.402E-03     150.957E+06     135.842E+06    -7.77815E+06    -7.74475E+06     146.161E+06     140.605E+06     885.070E+03         74.9548
             292     15.5515E-03     56.2526E-03         3.14845    -301.247E-03        -1.06547        -1.05564         3.13861    -301.247E-03    -305.018E-03     165.103E-03    -29.1344E-03    -135.968E-03    -43.8716E-03     73.0060E-03    -29.1344E-03     274.537E-03     112.218E+06     76.5098E+06    -14.4504E+06    -14.4132E+06     112.181E+06     76.5098E+06     692.208E+03         63.5421
             293     14.5795E-03     56.1258E-03         2.90370    -214.924E-03    -934.407E-03    -933.321E-03         2.90261    -214.924E-03    -99.5420E-03     75.9753E-03    -28.8132E-03    -47.1620E-03    -28.7559E-03     57.5692E-03    -28.8132E-03     84.0686E-03     87.1265E+06     15.9750E+06    -19.7949E+06    -19.7827E+06     87.1143E+06     15.9750E+06    -925.868E+03         50.8798
             294     13.6059E-03     56.0757E-03         2.70238    -154.411E-03    -810.688E-03    -809.494E-03         2.70118    -154.411E-03    -61.1883E-03     60.9163E-03    -28.5980E-03    -32.3183E-03    -27.4687E-03     56.0667E-03    -28.5980E-03     41.0785E-03     76.9249E+06    -17.0940E+06    -30.1460E+06    -22.2059E+06     76.9097E+06    -25.0190E+06     111.662E+03         40.5917
             295     12.6325E-03     56.0402E-03         2.51662    -102.161E-03    -691.372E-03    -669.567E-03         2.49481    -102.161E-03     384.088E-03     58.7692E-03    -28.5880E-03    -30.1813E-03    -27.8735E-03     56.4614E-03    -28.5880E-03     27.0610E-03     45.5827E+06    -22.5041E+06    -37.3854E+06    -22.4737E+06     45.5523E+06    -37.3854E+06     1.08546E+06         33.8049
             296     11.6607E-03     56.0205E-03         2.41051    -55.3742E-03    -646.914E-03    -553.797E-03         2.31739    -55.3742E-03     991.708E-03     57.6474E-03    -28.6508E-03    -28.9966E-03    -28.2332E-03     56.9698E-03    -28.7366E-03     14.7340E-03    -1.66927E+06    -21.6945E+06    -39.9350E+06    -21.6944E+06    -13.1147E+06    -28.4896E+06     1.02889E+06         29.9149
             297     10.6880E-03     56.0101E-03         2.24700    -11.7759E-03    -543.049E-03    -460.494E-03         2.16445    -11.7759E-03     868.088E-03     57.6889E-03    -28.7901E-03    -28.8988E-03    -28.4374E-03     57.3362E-03    -28.8988E-03     11.0060E-03    -15.4755E+06    -21.0755E+06    -63.4770E+06    -21.1092E+06    -63.4434E+06    -15.4755E+06     1.09249E+06         27.8398
             298     9.71628E-03     55.9984E-03         2.03859     29.6740E-03    -391.569E-03    -353.790E-03         2.00081     29.6740E-03     573.789E-03     57.8557E-03    -28.8406E-03    -29.0152E-03    -28.5441E-03     57.5593E-03    -29.0152E-03     10.0546E-03    -8.67305E+06    -21.6675E+06    -99.2904E+06    -21.6890E+06    -99.2688E+06    -8.67305E+06     1.19440E+06         26.7244
             299     8.74388E-03     55.9896E-03         1.95881     67.8309E-03    -361.734E-03    -245.683E-03         1.84275     67.8309E-03    -273.878E-03     58.0047E-03    -28.9105E-03    -29.0942E-03    -28.7112E-03     57.8043E-03    -29.0931E-03     8.31486E-03    -7.91017E+06    -23.4069E+06    -128.461E+06    -23.4150E+06    -128.453E+06    -7.91017E+06     852.644E+03         26.0722
             300     7.77265E-03     55.9815E-03         1.82915     101.603E-03    -273.076E-03    -140.116E-03         1.69619     101.603E-03    -999.357E-03     58.1975E-03    -29.0563E-03    -29.1412E-03    -28.9067E-03     58.0468E-03    -29.1401E-03     7.22887E-03    -9.96662E+06    -25.2764E+06    -152.551E+06    -25.2790E+06    -152.548E+06    -9.96662E+06     539.899E+03         25.6425
             301     6.80074E-03     55.9747E-03         1.90891     131.038E-03    -390.597E-03    -55.3219E-03         1.57364     131.038E-03        -1.49614     58.2022E-03    -29.0220E-03    -29.1802E-03    -28.9025E-03     58.0828E-03    -29.1802E-03     6.44297E-03    -12.1063E+06    -26.4962E+06    -173.702E+06    -26.5014E+06    -173.697E+06    -12.1063E+06     751.240E+03         25.3304
             302     5.82917E-03     55.9683E-03         2.05027     155.200E-03    -568.088E-03     34.8110E-03         1.44737     155.200E-03    -29.1618E-03     58.2990E-03    -29.0804E-03    -29.2186E-03    -28.9888E-03     58.2074E-03    -29.2186E-03     5.62703E-03    -14.4581E+06    -27.9118E+06    -191.361E+06    -27.9162E+06    -191.357E+06    -14.4581E+06     650.462E+03         25.0918
             303     4.85729E-03     55.9630E-03         2.06044     172.950E-03    -610.940E-03     102.227E-03         1.34727     172.950E-03    -191.118E-03     58.3818E-03    -29.1411E-03    -29.2407E-03    -29.0790E-03     58.3197E-03    -29.2407E-03     4.63890E-03    -19.7752E+06    -30.1797E+06    -209.795E+06    -30.1825E+06    -209.792E+06    -19.7752E+06     518.824E+03         24.9070
             304     3.88613E-03     55.9587E-03         2.85331     184.858E-03        -1.43339     150.207E-03         1.26971     184.858E-03         1.55258     58.4265E-03    -29.1488E-03    -29.2777E-03    -29.1365E-03     58.3825E-03    -29.2460E-03     3.89924E-03    -27.2147E+06    -32.7320E+06    -225.614E+06    -32.7370E+06    -225.609E+06    -27.2147E+06     154.834E+03         24.7662
             305     2.91424E-03     55.9546E-03         3.97669     199.791E-03        -2.57385     138.384E-03         1.26446     199.791E-03    -797.883E-03     58.5060E-03    -29.1883E-03    -29.3177E-03    -29.2213E-03     58.4781E-03    -29.2567E-03     3.03634E-03    -29.9498E+06    -34.5670E+06    -234.952E+06    -34.5762E+06    -234.943E+06    -29.9498E+06    -546.457E+03         24.6634
             306     1.94294E-03     55.9527E-03         6.89263     206.476E-03        -5.50551     221.501E-03         1.16562     206.476E-03         5.09106     58.4706E-03    -29.1625E-03    -29.3081E-03    -29.1789E-03     58.4577E-03    -29.2789E-03     1.99993E-03    -30.2344E+06    -35.7114E+06    -240.018E+06    -35.7193E+06    -240.011E+06    -30.2344E+06    -7.19272E+03         24.5941
             307     971.572E-06     55.9500E-03         13.9200    -166.418E-03        -12.1573     572.114E-03         1.19056    -166.418E-03        -8.63839     58.5319E-03    -29.1287E-03    -29.4032E-03    -29.3031E-03     58.5270E-03    -29.2239E-03     1.21278E-03    -34.1995E+06    -37.3235E+06    -240.702E+06    -36.8605E+06    -240.700E+06    -34.6639E+06     388.988E+03         24.5537
             308     16.5191E-03     55.6545E-03         3.07317    -228.195E-03        -1.09717        -1.08130         3.05730    -228.195E-03    -497.674E-03     270.473E-03    -29.6055E-03    -240.868E-03    -67.4286E-03     97.0342E-03    -29.6055E-03     484.151E-03     149.968E+06     136.427E+06    -9.71328E+06    -9.65606E+06     145.072E+06     141.266E+06    -1.52977E+06         74.8323
             309     15.5527E-03     55.1954E-03         2.72013    -98.8580E-03    -914.871E-03    -903.785E-03         2.70904    -98.8580E-03    -300.150E-03     163.406E-03    -29.2324E-03    -134.174E-03    -44.3910E-03     73.6234E-03    -29.2324E-03     270.534E-03     111.710E+06     77.1538E+06    -16.1590E+06    -16.1015E+06     111.653E+06     77.1538E+06    -764.149E+03         63.5334
             310     14.5780E-03     55.0655E-03         2.43647    -13.5890E-03    -738.006E-03    -737.138E-03         2.43560    -13.5890E-03    -79.2722E-03     75.9984E-03    -28.8639E-03    -47.1345E-03    -28.5949E-03     57.4589E-03    -28.8639E-03     84.3729E-03     86.1624E+06     13.3518E+06    -20.4891E+06    -20.4652E+06     86.1386E+06     13.3518E+06     874.222E+03         50.9631
             311     13.6048E-03     55.0197E-03         2.20195     44.7183E-03    -573.368E-03    -572.225E-03         2.20080     44.7183E-03    -34.4880E-03     61.3453E-03    -28.6596E-03    -32.6857E-03    -27.6137E-03     56.2733E-03    -28.6596E-03     42.2201E-03     75.8572E+06    -19.5624E+06    -29.9275E+06    -22.7009E+06     75.8235E+06    -26.7553E+06     1.34816E+06         40.6960
             312     12.6318E-03     54.9800E-03         2.01944     92.7512E-03    -449.359E-03    -415.755E-03         1.98584     92.7512E-03     422.222E-03     59.2289E-03    -28.6491E-03    -30.5798E-03    -28.1489E-03     56.7980E-03    -28.6491E-03     27.6085E-03     46.1400E+06    -22.1704E+06    -36.6053E+06    -22.1470E+06     46.1166E+06    -36.6053E+06     1.21667E+06         33.8915
             313     11.6594E-03     54.9626E-03         1.93238     133.360E-03    -415.498E-03    -280.511E-03         1.79739     133.360E-03         1.03357     57.7911E-03    -28.7330E-03    -29.0581E-03    -28.3455E-03     57.1309E-03    -28.7854E-03     14.7377E-03    -888.054E+03    -21.1704E+06    -39.8467E+06    -21.1809E+06    -12.7469E+06    -27.9773E+06     877.109E+03         29.9722
             314     10.6877E-03     54.9504E-03         1.75690     168.009E-03    -288.133E-03    -166.525E-03         1.63529     168.009E-03     899.231E-03     57.8206E-03    -28.8793E-03    -28.9413E-03    -28.5140E-03     57.4553E-03    -28.9413E-03     11.2256E-03    -15.8746E+06    -21.5877E+06    -64.0387E+06    -21.6116E+06    -64.0148E+06    -15.8746E+06     842.769E+03         27.8733
             315     9.71571E-03     54.9400E-03         1.55792     198.356E-03    -133.580E-03    -70.8090E-03         1.49515     198.356E-03     604.086E-03     58.0336E-03    -28.9641E-03    -29.0695E-03    -28.6932E-03     57.7414E-03    -29.0483E-03     10.0289E-03    -9.30268E+06    -22.3775E+06    -99.2018E+06    -22.3856E+06    -99.1937E+06    -9.30268E+06     702.378E+03         26.7436
             316     8.74414E-03     54.9304E-03         1.52685     225.091E-03    -140.361E-03     10.7832E-03         1.37570     225.091E-03    -208.235E-03     58.1157E-03    -28.9759E-03    -29.1398E-03    -28.7917E-03     57.9091E-03    -29.1174E-03     8.44233E-03    -8.02846E+06    -23.0601E+06    -127.726E+06    -23.0660E+06    -127.720E+06    -8.02846E+06     697.936E+03         26.0839
             317     7.77216E-03     54.9224E-03         1.43662     246.707E-03    -76.7632E-03     108.484E-03         1.25137     246.707E-03    -970.300E-03     58.2031E-03    -29.0369E-03    -29.1662E-03    -28.8843E-03     58.0493E-03    -29.1650E-03     7.30562E-03    -10.1208E+06    -24.5571E+06    -152.439E+06    -24.5600E+06    -152.436E+06    -10.1208E+06     549.162E+03         25.6503
             318     6.80067E-03     54.9158E-03         1.55518     261.497E-03    -216.231E-03     187.194E-03         1.15175     261.497E-03        -1.41453     58.3219E-03    -29.0980E-03    -29.2239E-03    -29.0005E-03     58.1993E-03    -29.1989E-03     6.52871E-03    -13.5166E+06    -26.8203E+06    -173.944E+06    -26.8219E+06    -173.942E+06    -13.5166E+06     470.869E+03         25.3361
             319     5.82882E-03     54.9093E-03         1.75308     270.581E-03    -435.186E-03     233.220E-03         1.08468     270.581E-03    -7.85077E-03     58.3558E-03    -29.1066E-03    -29.2491E-03    -29.0387E-03     58.2628E-03    -29.2241E-03     5.67873E-03    -16.7914E+06    -28.6317E+06    -190.964E+06    -28.6331E+06    -190.963E+06    -16.7914E+06     241.310E+03         25.0962
             320     4.85761E-03     54.9038E-03         1.74848     277.698E-03    -452.627E-03     242.612E-03         1.05324     277.698E-03    -46.2219E-03     58.4330E-03    -29.1683E-03    -29.2648E-03    -29.1113E-03     58.3687E-03    -29.2574E-03     4.71817E-03    -18.9719E+06    -29.9482E+06    -209.909E+06    -29.9510E+06    -209.907E+06    -18.9719E+06     308.846E+03         24.9105
             321     3.88573E-03     54.8998E-03         2.48108     280.279E-03        -1.20625     290.629E-03     984.201E-03     280.279E-03         1.50235     58.4997E-03    -29.2230E-03    -29.2767E-03    -29.1899E-03     58.4548E-03    -29.2649E-03     3.94357E-03    -23.8910E+06    -31.7442E+06    -224.684E+06    -31.7498E+06    -224.678E+06    -23.8910E+06     845.818E+03         24.7688
             322     2.91439E-03     54.8956E-03         3.48325     275.258E-03        -2.20414     299.238E-03     979.868E-03     275.258E-03    -551.738E-03     58.4725E-03    -29.1787E-03    -29.2939E-03    -29.1850E-03     58.4452E-03    -29.2602E-03     2.99811E-03    -29.8171E+06    -34.2387E+06    -233.849E+06    -34.2475E+06    -233.840E+06    -29.8171E+06    -40.4535E+03         24.6653
             323     1.94305E-03     54.8933E-03         6.11816     248.854E-03        -4.82007     339.119E-03     958.978E-03     248.854E-03         4.71246     58.5256E-03    -29.1768E-03    -29.3488E-03    -29.2516E-03     58.5125E-03    -29.2609E-03     2.09826E-03    -32.5468E+06    -36.6841E+06    -240.909E+06    -36.6984E+06    -240.895E+06    -32.5468E+06    -1.11797E+06         24.5955
             324     971.275E-06     54.8917E-03         12.3705    -191.678E-03        -10.6234     644.392E-03         1.10271    -191.678E-03        -7.36809     58.4670E-03    -29.1604E-03    -29.3065E-03    -29.2511E-03     58.4613E-03    -29.2102E-03     1.27003E-03    -35.6404E+06    -38.4728E+06    -241.392E+06    -38.2343E+06    -241.383E+06    -35.8876E+06    -537.064E+03         24.5546
             325     16.5245E-03     54.5913E-03         2.69559    -38.1538E-03    -992.623E-03    -973.358E-03         2.67632    -38.1538E-03    -514.502E-03     270.450E-03    -29.6032E-03    -240.847E-03    -66.8209E-03     96.4241E-03    -29.6032E-03     484.516E-03     150.129E+06     136.206E+06    -9.78716E+06    -9.73529E+06     145.513E+06     140.771E+06    -1.60651E+06         74.7503
             326     15.5502E-03     54.1348E-03         2.30048     88.8967E-03    -758.646E-03    -745.313E-03         2.28714     88.8967E-03    -301.579E-03     162.085E-03    -29.2928E-03    -132.792E-03    -42.6590E-03     71.9518E-03    -29.2928E-03     268.872E-03     109.139E+06     74.0903E+06    -18.5116E+06    -18.4549E+06     109.082E+06     74.0903E+06    -1.08346E+06         63.5527
             327     14.5768E-03     54.0098E-03         1.97057     171.138E-03    -527.897E-03    -526.524E-03         1.96920     171.138E-03    -79.6247E-03     76.5838E-03    -28.9723E-03    -47.6115E-03    -28.9340E-03     57.9063E-03    -28.9723E-03     84.9964E-03     84.8031E+06     12.6106E+06    -22.5020E+06    -22.4726E+06     84.7737E+06     12.6106E+06     1.51290E+06         51.0503
             328     13.6026E-03     53.9594E-03         1.71538     225.437E-03    -335.825E-03    -333.835E-03         1.71339     225.437E-03    -29.6080E-03     62.0061E-03    -28.7468E-03    -33.2593E-03    -28.2432E-03     56.9900E-03    -28.7468E-03     42.1953E-03     76.5492E+06    -18.6505E+06    -29.3326E+06    -22.7062E+06     76.5211E+06    -25.2488E+06     1.47280E+06         40.8051
             329     12.6315E-03     53.9215E-03         1.55786     268.349E-03    -228.298E-03    -176.128E-03         1.50569     268.349E-03     444.947E-03     59.3725E-03    -28.7035E-03    -30.6690E-03    -28.3360E-03     57.0395E-03    -28.7035E-03     27.2585E-03     46.5619E+06    -22.1482E+06    -36.5620E+06    -22.1317E+06     46.5454E+06    -36.5620E+06     907.227E+03         33.9816
             330     11.6594E-03     53.9032E-03         1.51824     302.559E-03    -231.725E-03    -26.1901E-03         1.31271     302.559E-03         1.05556     57.9180E-03    -28.8218E-03    -29.0962E-03    -28.4190E-03     57.2508E-03    -28.8318E-03     14.7638E-03    -503.627E+03    -21.1521E+06    -40.7419E+06    -21.1474E+06    -12.9183E+06    -28.3318E+06     792.245E+03         30.0310
             331     10.6871E-03     53.8918E-03         1.34728     328.276E-03    -97.9154E-03     106.854E-03         1.14251     328.276E-03     951.994E-03     57.9948E-03    -28.9641E-03    -29.0307E-03    -28.6524E-03     57.6348E-03    -28.9824E-03     11.1660E-03    -15.9402E+06    -20.7182E+06    -64.1310E+06    -20.7284E+06    -64.1208E+06    -15.9402E+06     514.798E+03         27.9075
             332     9.71541E-03     53.8806E-03         1.14921     347.172E-03     68.7859E-03     200.264E-03         1.01773     347.172E-03     650.910E-03     58.1685E-03    -29.0619E-03    -29.1066E-03    -28.7963E-03     57.8741E-03    -29.0778E-03     10.0753E-03    -10.0341E+06    -21.4158E+06    -98.9617E+06    -21.4216E+06    -98.9559E+06    -10.0341E+06     559.391E+03         26.7629
             333     8.74374E-03     53.8713E-03         1.15799     360.806E-03     38.5785E-03     269.195E-03     927.369E-03     360.806E-03    -143.943E-03     58.2194E-03    -29.0558E-03    -29.1636E-03    -28.8719E-03     58.0142E-03    -29.1423E-03     8.42076E-03    -8.80135E+06    -23.0534E+06    -127.572E+06    -23.0588E+06    -127.567E+06    -8.80135E+06     561.270E+03         26.0953
             334     7.77199E-03     53.8637E-03         1.14497     368.809E-03     38.4473E-03     336.845E-03     846.568E-03     368.809E-03    -943.376E-03     58.2686E-03    -29.0778E-03    -29.1908E-03    -28.9263E-03     58.1170E-03    -29.1908E-03     7.25470E-03    -10.0116E+06    -24.5812E+06    -152.333E+06    -24.5833E+06    -152.331E+06    -10.0116E+06     373.838E+03         25.6577
             335     6.80018E-03     53.8562E-03         1.29961     370.257E-03    -122.905E-03     387.956E-03     788.745E-03     370.257E-03        -1.33153     58.3868E-03    -29.1350E-03    -29.2518E-03    -29.0419E-03     58.2687E-03    -29.2269E-03     6.40912E-03    -12.2091E+06    -26.0611E+06    -173.496E+06    -26.0624E+06    -173.495E+06    -12.2091E+06     226.770E+03         25.3414
             336     5.82919E-03     53.8503E-03         1.49569     365.662E-03    -324.409E-03     412.371E-03     758.910E-03     365.662E-03     454.694E-06     58.3981E-03    -29.1267E-03    -29.2714E-03    -29.0607E-03     58.3071E-03    -29.2464E-03     5.63106E-03    -16.3284E+06    -27.5073E+06    -190.676E+06    -27.5084E+06    -190.675E+06    -16.3284E+06     14.5906E+03         25.1003
             337     4.85695E-03     53.8450E-03         1.46273     360.310E-03    -301.521E-03     379.213E-03     781.998E-03     360.310E-03     69.7020E-03     58.5046E-03    -29.2136E-03    -29.2910E-03    -29.1533E-03     58.4369E-03    -29.2836E-03     4.85184E-03    -18.0598E+06    -29.8633E+06    -210.756E+06    -29.8654E+06    -210.754E+06    -18.0598E+06     250.344E+03         24.9137
             338     3.88601E-03     53.8401E-03         2.10236     353.938E-03    -951.952E-03     392.332E-03     758.079E-03     353.938E-03         1.37566     58.5792E-03    -29.2789E-03    -29.3003E-03    -29.2473E-03     58.5358E-03    -29.2885E-03     3.86718E-03    -21.6922E+06    -32.6664E+06    -224.245E+06    -32.6713E+06    -224.241E+06    -21.6922E+06     778.070E+03         24.7714
             339     2.91450E-03     53.8370E-03         2.94691     345.303E-03        -1.78719     369.753E-03     789.967E-03     345.303E-03    -324.688E-03     58.4834E-03    -29.2107E-03    -29.2727E-03    -29.1897E-03     58.4580E-03    -29.2683E-03     2.96420E-03    -28.3734E+06    -34.2881E+06    -232.020E+06    -34.2916E+06    -232.016E+06    -28.3734E+06     325.397E+03         24.6673
             340     1.94253E-03     53.8340E-03         5.23624     317.233E-03        -4.05559     414.083E-03     766.570E-03     317.233E-03         4.23569     58.5222E-03    -29.2019E-03    -29.3203E-03    -29.2465E-03     58.5083E-03    -29.2617E-03     2.16062E-03    -33.2563E+06    -36.2098E+06    -240.704E+06    -36.2188E+06    -240.695E+06    -33.2563E+06    -726.688E+03         24.5968
             341     971.897E-06     53.8323E-03         10.5618    -142.856E-03        -8.90912     729.544E-03     923.084E-03    -142.856E-03        -5.96008     58.4775E-03    -29.1259E-03    -29.3516E-03    -29.3436E-03     58.4731E-03    -29.1295E-03     1.09835E-03    -37.6865E+06    -39.1712E+06    -242.727E+06    -38.9329E+06    -242.718E+06    -37.9337E+06    -463.214E+03         24.5555
             342     16.5254E-03     53.5356E-03         2.34558     135.898E-03    -894.373E-03    -871.862E-03         2.32307     135.898E-03    -520.502E-03     270.540E-03    -29.6008E-03    -240.939E-03    -65.3574E-03     94.9582E-03    -29.6008E-03     485.685E-03     151.123E+06     135.614E+06    -9.00518E+06    -8.98181E+06     146.074E+06     140.640E+06     603.396E+03         74.6944
             343     15.5474E-03     53.0768E-03         1.90669     258.439E-03    -609.940E-03    -594.430E-03         1.89118     258.439E-03    -300.722E-03     163.247E-03    -29.3862E-03    -133.861E-03    -41.8152E-03     71.2014E-03    -29.3862E-03     271.370E-03     108.442E+06     73.4137E+06    -18.6498E+06    -18.6249E+06     108.417E+06     73.4137E+06     578.572E+03         63.5771
             344     14.5736E-03     52.9498E-03         1.54505     337.125E-03    -342.426E-03    -340.717E-03         1.54334     337.125E-03    -78.1165E-03     77.3647E-03    -29.0957E-03    -48.2690E-03    -30.0031E-03     59.0987E-03    -29.0957E-03     84.6600E-03     83.8121E+06     14.7493E+06    -23.8452E+06    -23.8322E+06     83.7991E+06     14.7493E+06    -99.7198E+03         51.1379
             345     13.6041E-03     52.8993E-03         1.27610     387.914E-03    -130.065E-03    -127.450E-03         1.27348     387.914E-03    -28.8617E-03     62.3367E-03    -28.8238E-03    -33.5129E-03    -28.6429E-03     57.4667E-03    -28.8238E-03     41.8030E-03     76.7021E+06    -16.6415E+06    -29.7039E+06    -23.5081E+06     76.6822E+06    -22.8173E+06     604.361E+03         40.9160
             346     12.6306E-03     52.8633E-03         1.14177     425.421E-03    -37.4343E-03     63.1134E-03         1.04122     425.421E-03     460.953E-03     59.5032E-03    -28.7517E-03    -30.7514E-03    -28.4266E-03     57.1783E-03    -28.7517E-03     27.3086E-03     46.7195E+06    -21.9228E+06    -36.5148E+06    -21.9058E+06     46.7025E+06    -36.5148E+06     922.163E+03         34.0720
             347     11.6582E-03     52.8434E-03         1.19112     451.862E-03    -119.230E-03     224.204E-03     847.690E-03     451.862E-03         1.08114     58.1446E-03    -28.8436E-03    -29.3010E-03    -28.6062E-03     57.4787E-03    -28.8725E-03     14.6902E-03     123.989E+03    -20.8770E+06    -40.8042E+06    -20.8740E+06    -12.5748E+06    -28.1084E+06     292.942E+03         30.0899
             348     10.6870E-03     52.8329E-03         1.08442     468.762E-03    -37.0256E-03     343.232E-03     704.163E-03     468.762E-03         1.01287     58.1142E-03    -28.9916E-03    -29.1226E-03    -28.7452E-03     57.7657E-03    -29.0205E-03     11.0001E-03    -14.4459E+06    -20.4293E+06    -63.8375E+06    -20.4352E+06    -63.8316E+06    -14.4459E+06     65.9661E+03         27.9414
             349     9.71510E-03     52.8211E-03     907.887E-03     477.845E-03     121.748E-03     436.236E-03     593.399E-03     477.845E-03     700.125E-03     58.2619E-03    -29.0899E-03    -29.1720E-03    -28.8625E-03     57.9732E-03    -29.1107E-03     9.95238E-03    -8.67752E+06    -20.9794E+06    -99.2616E+06    -20.9835E+06    -99.2574E+06    -8.67752E+06     448.692E+03         26.7816
             350     8.74342E-03     52.8123E-03     932.993E-03     479.660E-03     87.5937E-03     503.332E-03     517.255E-03     479.660E-03    -83.0978E-03     58.3202E-03    -29.1390E-03    -29.1812E-03    -28.9573E-03     58.1291E-03    -29.1718E-03     8.14450E-03    -6.67153E+06    -22.2026E+06    -127.163E+06    -22.2063E+06    -127.159E+06    -6.67153E+06     319.951E+03         26.1061
             351     7.77195E-03     52.8042E-03     991.974E-03     474.892E-03     30.5544E-03     543.067E-03     479.461E-03     474.892E-03    -921.579E-03     58.3573E-03    -29.1390E-03    -29.2183E-03    -29.0013E-03     58.2102E-03    -29.2089E-03     7.15509E-03    -8.66545E+06    -23.7894E+06    -152.065E+06    -23.7894E+06    -152.065E+06    -8.66545E+06    -9.71113E+03         25.6645
             352     6.80069E-03     52.7973E-03         1.15900     465.841E-03    -132.250E-03     541.933E-03     484.815E-03     465.841E-03        -1.26910     58.3505E-03    -29.1071E-03    -29.2434E-03    -28.9898E-03     58.2332E-03    -29.2434E-03     6.39057E-03    -11.4719E+06    -25.1825E+06    -173.650E+06    -25.1830E+06    -173.649E+06    -11.4719E+06    -186.662E+03         25.3461
             353     5.82825E-03     52.7912E-03         1.28903     453.749E-03    -261.315E-03     539.990E-03     487.721E-03     453.749E-03    -28.8626E-03     58.4635E-03    -29.1872E-03    -29.2763E-03    -29.1077E-03     58.3745E-03    -29.2667E-03     5.56054E-03    -15.4465E+06    -27.4660E+06    -190.503E+06    -27.4726E+06    -190.496E+06    -15.4465E+06     354.276E+03         25.1038
             354     4.85756E-03     52.7857E-03         1.19976     440.318E-03    -170.748E-03     507.163E-03     521.852E-03     440.318E-03     153.648E-03     58.5405E-03    -29.2381E-03    -29.3024E-03    -29.1833E-03     58.4761E-03    -29.2928E-03     4.73745E-03    -18.5823E+06    -30.3711E+06    -210.786E+06    -30.3793E+06    -210.778E+06    -18.5823E+06     887.777E+03         24.9164
             355     3.88561E-03     52.7811E-03         1.72334     427.446E-03    -696.515E-03     479.784E-03     547.044E-03     427.446E-03         1.20880     58.5447E-03    -29.2410E-03    -29.3036E-03    -29.1968E-03     58.5004E-03    -29.3036E-03     3.90924E-03    -21.9995E+06    -32.2158E+06    -223.977E+06    -32.2233E+06    -223.969E+06    -21.9995E+06    -70.0273E+03         24.7733
             356     2.91424E-03     52.7777E-03         2.36881     426.096E-03        -1.33744     396.614E-03     634.752E-03     426.096E-03    -71.4207E-03     58.6066E-03    -29.2641E-03    -29.3426E-03    -29.3031E-03     58.5814E-03    -29.2784E-03     2.93558E-03    -28.0430E+06    -33.9776E+06    -231.590E+06    -33.9862E+06    -231.582E+06    -28.0430E+06    -214.145E+03         24.6686
             357     1.94331E-03     52.7751E-03         4.26474     420.892E-03        -3.23468     462.299E-03     567.756E-03     420.892E-03         3.72098     58.5049E-03    -29.1863E-03    -29.3186E-03    -29.2376E-03     58.4920E-03    -29.2544E-03     2.10369E-03    -33.1565E+06    -36.3481E+06    -240.574E+06    -36.3583E+06    -240.564E+06    -33.1565E+06     877.259E+03         24.5976
             358     971.000E-06     52.7730E-03         8.52532     4.67581E-03        -7.06997     816.884E-03     638.462E-03     4.67581E-03        -4.38777     58.4636E-03    -29.1196E-03    -29.3440E-03    -29.2407E-03     58.4588E-03    -29.2181E-03     1.12143E-03    -37.1658E+06    -38.9767E+06    -242.310E+06    -38.4079E+06    -242.302E+06    -37.7429E+06     996.853E+03         24.5559
             359     16.5227E-03     52.4832E-03         2.02043     290.113E-03    -800.533E-03    -775.413E-03         1.99531     290.113E-03    -512.633E-03     271.715E-03    -29.7462E-03    -241.969E-03    -64.7270E-03     94.4732E-03    -29.7462E-03     488.325E-03     150.703E+06     136.038E+06    -9.71234E+06    -9.68986E+06     145.455E+06     141.263E+06     847.151E+03         74.6125
             360     15.5446E-03     52.0175E-03         1.55830     406.079E-03    -486.587E-03    -469.696E-03         1.54141     406.079E-03    -284.482E-03     164.760E-03    -29.5101E-03    -135.250E-03    -44.1373E-03     73.6474E-03    -29.5101E-03     272.258E-03     109.381E+06     76.3923E+06    -17.6986E+06    -17.6674E+06     109.350E+06     76.3923E+06     1.18602E+06         63.5779
             361     14.5750E-03     51.8872E-03         1.18250     481.230E-03    -199.927E-03    -198.927E-03         1.18150     481.230E-03    -46.8299E-03     76.5697E-03    -29.1384E-03    -47.4313E-03    -30.0408E-03     59.1792E-03    -29.1384E-03     82.6576E-03     83.9308E+06     14.1521E+06    -21.5827E+06    -21.5672E+06     83.9152E+06     14.1521E+06     74.2729E+03         51.2224
             362     13.6011E-03     51.8415E-03     900.956E-03     516.690E-03     42.1675E-03     45.7762E-03     884.625E-03     529.413E-03    -307.673E-06     62.1934E-03    -28.8668E-03    -33.3266E-03    -28.5098E-03     57.3766E-03    -28.8668E-03     41.4489E-03     75.2715E+06    -20.3009E+06    -28.9361E+06    -23.8557E+06     75.2517E+06    -25.3616E+06    -85.9244E+03         41.0220
             363     12.6298E-03     51.8026E-03     841.158E-03     549.619E-03     68.0922E-03     268.896E-03     627.631E-03     562.342E-03     488.712E-03     59.8671E-03    -28.8050E-03    -31.0620E-03    -28.7884E-03     57.5934E-03    -28.8050E-03     27.0779E-03     46.9407E+06    -22.7879E+06    -35.6194E+06    -22.7744E+06     46.9272E+06    -35.6194E+06     171.930E+03         34.1587
             364     11.6591E-03     51.7848E-03         1.01446     582.435E-03    -140.226E-03     432.828E-03     441.402E-03     582.435E-03         1.11380     58.3066E-03    -28.8726E-03    -29.4341E-03    -28.7642E-03     57.6657E-03    -28.9015E-03     14.4747E-03    -39.8137E+03    -21.5493E+06    -40.2648E+06    -21.5825E+06    -12.0753E+06    -28.1961E+06     340.803E+03         30.1469
             365     10.6864E-03     51.7732E-03     985.957E-03     592.364E-03    -125.348E-03     543.783E-03     316.826E-03     592.364E-03         1.04034     58.1801E-03    -28.9790E-03    -29.2012E-03    -28.8000E-03     57.8408E-03    -29.0409E-03     10.8625E-03    -15.1912E+06    -22.3489E+06    -63.9439E+06    -22.3830E+06    -63.9098E+06    -15.1912E+06     349.910E+03         27.9739
             366     9.71518E-03     51.7621E-03     859.344E-03     593.576E-03    -5.06048E-03     636.597E-03     217.686E-03     593.576E-03     712.731E-03     58.3149E-03    -29.0698E-03    -29.2451E-03    -28.9091E-03     58.0252E-03    -29.1161E-03     9.99766E-03    -11.4003E+06    -23.1465E+06    -98.7976E+06    -23.1773E+06    -98.7667E+06    -11.4003E+06    -673.082E+03         26.7992
             367     8.74356E-03     51.7528E-03     886.915E-03     586.627E-03    -29.9020E-03     690.090E-03     166.923E-03     586.627E-03    -34.1783E-03     58.3811E-03    -29.1277E-03    -29.2533E-03    -29.0179E-03     58.1866E-03    -29.1688E-03     8.19349E-03    -10.0511E+06    -23.0089E+06    -127.783E+06    -23.0399E+06    -127.752E+06    -10.0511E+06    -898.083E+03         26.1158
             368     7.77202E-03     51.7450E-03     969.674E-03     573.535E-03    -101.259E-03     702.966E-03     165.448E-03     573.535E-03    -902.761E-03     58.3303E-03    -29.1046E-03    -29.2258E-03    -28.9699E-03     58.1863E-03    -29.2164E-03     7.08775E-03    -9.65694E+06    -23.5185E+06    -152.207E+06    -23.5229E+06    -152.203E+06    -9.65694E+06     201.961E+03         25.6704
             369     6.79981E-03     51.7384E-03         1.09542     557.937E-03    -216.222E-03     671.836E-03     207.361E-03     557.937E-03        -1.20557     58.4251E-03    -29.1468E-03    -29.2783E-03    -29.0551E-03     58.3065E-03    -29.2513E-03     6.42964E-03    -12.4532E+06    -26.2748E+06    -173.512E+06    -26.2801E+06    -173.507E+06    -12.4532E+06     439.857E+03         25.3500
             370     5.82915E-03     51.7317E-03         1.13155     541.539E-03    -245.231E-03     647.161E-03     239.163E-03     541.539E-03    -62.9559E-03     58.5308E-03    -29.2288E-03    -29.3020E-03    -29.1775E-03     58.4430E-03    -29.2654E-03     5.52591E-03    -16.7653E+06    -29.1390E+06    -191.649E+06    -29.1470E+06    -191.641E+06    -16.7653E+06     768.029E+03         25.1066
             371     4.85704E-03     51.7265E-03     965.708E-03     525.443E-03    -73.6996E-03     602.856E-03     289.152E-03     525.443E-03     270.012E-03     58.5097E-03    -29.2130E-03    -29.2967E-03    -29.1752E-03     58.4497E-03    -29.2745E-03     4.55675E-03    -20.7326E+06    -30.5588E+06    -208.990E+06    -30.5669E+06    -208.981E+06    -20.7326E+06     467.962E+03         24.9183
             372     3.88577E-03     51.7222E-03         1.36976     511.925E-03    -475.809E-03     561.128E-03     332.824E-03     511.925E-03         1.11066     58.4894E-03    -29.1902E-03    -29.2992E-03    -29.1616E-03     58.4481E-03    -29.2865E-03     3.78208E-03    -25.2265E+06    -32.3926E+06    -223.402E+06    -32.3994E+06    -223.395E+06    -25.2265E+06    -700.443E+03         24.7746
             373     2.91429E-03     51.7182E-03         1.80670     511.794E-03    -908.055E-03     477.495E-03     421.155E-03     511.794E-03     214.810E-03     58.5794E-03    -29.2318E-03    -29.3476E-03    -29.2706E-03     58.5534E-03    -29.2828E-03     2.98520E-03    -30.4295E+06    -34.7457E+06    -233.231E+06    -34.7579E+06    -233.219E+06    -30.4295E+06     313.561E+03         24.6693
             374     1.94278E-03     51.7161E-03         3.30939     513.643E-03        -2.41883     529.958E-03     360.602E-03     513.643E-03         3.22925     58.5956E-03    -29.1919E-03    -29.4037E-03    -29.3328E-03     58.5840E-03    -29.2512E-03     1.90133E-03    -32.9411E+06    -36.8945E+06    -240.237E+06    -36.9090E+06    -240.222E+06    -32.9411E+06     1.59014E+06         24.5978
             375     971.743E-06     51.7145E-03         6.50259     210.239E-03        -5.30108     809.157E-03     392.354E-03     210.239E-03        -2.84924     58.4054E-03    -29.0939E-03    -29.3115E-03    -29.2121E-03     58.4009E-03    -29.1888E-03     1.14601E-03    -35.0240E+06    -38.8075E+06    -240.508E+06    -38.2389E+06    -240.500E+06    -35.6012E+06     994.500E+03         24.5557
             376     16.5105E-03     51.4202E-03         1.72919     420.429E-03    -720.232E-03    -692.878E-03         1.70184     420.429E-03    -498.524E-03     273.162E-03    -29.8451E-03    -243.317E-03    -65.8894E-03     95.7345E-03    -29.8451E-03     490.421E-03     150.403E+06     136.180E+06    -10.0388E+06    -10.0352E+06     145.088E+06     141.491E+06     492.331E+03         74.4907
             377     15.5477E-03     50.9500E-03         1.26329     528.635E-03    -394.979E-03    -376.720E-03         1.24504     528.635E-03    -250.150E-03     162.704E-03    -29.5476E-03    -133.157E-03    -44.9101E-03     74.4577E-03    -29.5476E-03     267.701E-03     109.475E+06     77.2464E+06    -17.6457E+06    -17.6245E+06     109.454E+06     77.2464E+06     118.813E+03         63.5587
             378     14.5744E-03     50.8330E-03     904.148E-03     569.917E-03    -88.1708E-03    -87.5750E-03     873.544E-03     599.926E-03    -2.70839E-03     75.9114E-03    -29.1546E-03    -46.7568E-03    -29.2926E-03     58.4472E-03    -29.1546E-03     82.3215E-03     84.4702E+06     15.2261E+06    -21.0759E+06    -21.0427E+06     84.4370E+06     15.2261E+06     601.845E+03         51.2965
             379     13.6014E-03     50.7790E-03     715.240E-03     523.446E-03     147.152E-03     179.272E-03     560.470E-03     646.096E-03     39.9101E-03     62.4550E-03    -28.8940E-03    -33.5610E-03    -28.7284E-03     57.6224E-03    -28.8940E-03     41.4548E-03     76.2070E+06    -18.0345E+06    -28.9204E+06    -21.9069E+06     76.1873E+06    -25.0283E+06     218.449E+03         41.1191
             380     12.6304E-03     50.7441E-03     756.011E-03     584.446E-03     47.0318E-03     396.215E-03     314.186E-03     677.087E-03     534.195E-03     59.7577E-03    -28.8241E-03    -30.9336E-03    -28.8289E-03     57.6530E-03    -28.8241E-03     26.2165E-03     46.0920E+06    -21.9545E+06    -36.2469E+06    -21.9477E+06     46.0852E+06    -36.2469E+06    -563.195E+03         34.2407
             381     11.6572E-03     50.7244E-03     966.311E-03     695.425E-03    -272.660E-03     565.045E-03     128.607E-03     695.425E-03         1.14521     58.3290E-03    -28.9036E-03    -29.4254E-03    -28.7732E-03     57.6965E-03    -28.9232E-03     14.3448E-03    -1.15950E+06    -21.3077E+06    -40.3488E+06    -21.1298E+06    -13.2821E+06    -28.4041E+06     570.894E+03         30.2002
             382     10.6871E-03     50.7142E-03     998.920E-03     702.208E-03    -311.717E-03     700.624E-03    -13.4215E-03     702.208E-03         1.05616     58.2925E-03    -29.0009E-03    -29.2917E-03    -28.9064E-03     57.9599E-03    -29.0535E-03     10.7635E-03    -15.2453E+06    -20.5760E+06    -62.9645E+06    -20.3990E+06    -62.9277E+06    -15.4591E+06     563.519E+03         28.0038
             383     9.71450E-03     50.7028E-03     923.223E-03     698.602E-03    -234.176E-03     792.803E-03    -103.757E-03     698.602E-03     715.603E-03     58.3788E-03    -29.0494E-03    -29.3294E-03    -28.9701E-03     58.0926E-03    -29.1225E-03     9.93146E-03    -11.7442E+06    -21.5542E+06    -97.4643E+06    -21.5865E+06    -97.4320E+06    -11.7442E+06    -671.089E+03         26.8148
             384     8.74332E-03     50.6931E-03     932.884E-03     686.968E-03    -232.884E-03     827.469E-03    -127.469E-03     686.968E-03     8.61442E-03     58.3572E-03    -29.1044E-03    -29.2528E-03    -28.9989E-03     58.1712E-03    -29.1723E-03     8.00103E-03    -12.3384E+06    -24.0712E+06    -128.949E+06    -24.1073E+06    -128.913E+06    -12.3384E+06    -1.07623E+06         26.1241
             385     7.77155E-03     50.6864E-03         1.00992     670.326E-03    -294.557E-03     823.223E-03    -107.859E-03     670.326E-03    -883.843E-03     58.4317E-03    -29.1568E-03    -29.2749E-03    -29.0780E-03     58.2959E-03    -29.2179E-03     6.88908E-03    -11.8277E+06    -26.3180E+06    -153.462E+06    -26.3265E+06    -153.453E+06    -11.8277E+06     27.1513E+03         25.6751
             386     6.80051E-03     50.6786E-03         1.08415     650.961E-03    -351.533E-03     797.108E-03    -64.4931E-03     650.961E-03        -1.13132     58.4795E-03    -29.1599E-03    -29.3196E-03    -29.1278E-03     58.3687E-03    -29.2410E-03     6.21219E-03    -13.4689E+06    -27.6846E+06    -172.999E+06    -27.6922E+06    -172.992E+06    -13.4689E+06     981.017E+03         25.3530
             387     5.82846E-03     50.6727E-03         1.04841     629.919E-03    -301.546E-03     763.677E-03    -16.8093E-03     629.919E-03    -60.1687E-03     58.4661E-03    -29.1864E-03    -29.2797E-03    -29.1320E-03     58.3823E-03    -29.2503E-03     5.40392E-03    -17.9101E+06    -29.2050E+06    -191.827E+06    -29.2103E+06    -191.822E+06    -17.9101E+06     403.896E+03         25.1084
             388     4.85750E-03     50.6673E-03     846.115E-03     611.463E-03    -89.0906E-03     688.961E-03     68.0634E-03     611.463E-03     428.370E-03     58.5003E-03    -29.2332E-03    -29.2670E-03    -29.1884E-03     58.4403E-03    -29.2519E-03     4.55284E-03    -23.2322E+06    -30.9016E+06    -208.065E+06    -30.9051E+06    -208.061E+06    -23.2322E+06    -228.680E+03         24.9195
             389     3.88597E-03     50.6630E-03         1.12303     598.497E-03    -361.638E-03     643.083E-03     118.306E-03     598.497E-03         1.06957     58.5211E-03    -29.2150E-03    -29.3062E-03    -29.2205E-03     58.4812E-03    -29.2608E-03     3.71678E-03    -26.3289E+06    -32.3663E+06    -223.609E+06    -32.3695E+06    -223.605E+06    -26.3289E+06     154.330E+03         24.7753
             390     2.91419E-03     50.6596E-03         1.32643     594.498E-03    -554.994E-03     586.784E-03     184.651E-03     594.498E-03     486.539E-03     58.4896E-03    -29.1823E-03    -29.3073E-03    -29.1913E-03     58.4652E-03    -29.2739E-03     2.88134E-03    -28.6726E+06    -34.6684E+06    -234.602E+06    -34.6758E+06    -234.595E+06    -28.6726E+06     1.02168E+06         24.6696
             391     1.94290E-03     50.6562E-03         2.46843     584.205E-03        -1.69074     631.345E-03     146.342E-03     584.205E-03         2.78200     58.5644E-03    -29.2005E-03    -29.3639E-03    -29.3049E-03     58.5537E-03    -29.2489E-03     1.82103E-03    -31.7930E+06    -36.6692E+06    -238.530E+06    -36.6774E+06    -238.522E+06    -31.7930E+06     587.384E+03         24.5978
             392     971.662E-06     50.6558E-03         4.67983     401.376E-03        -3.71246     743.925E-03     223.451E-03     401.376E-03        -1.47461     58.3994E-03    -28.9829E-03    -29.4164E-03    -29.4123E-03     58.3952E-03    -28.9829E-03     911.399E-06    -35.2213E+06    -38.9469E+06    -239.418E+06     -38.266E+06    -239.415E+06    -35.9056E+06    -343.212E+03         24.5557
             393     16.5233E-03     50.3493E-03         1.48160     524.169E-03    -661.543E-03    -632.478E-03         1.45254     524.169E-03    -478.491E-03     273.468E-03    -29.6719E-03    -243.796E-03    -66.7956E-03     96.4675E-03    -29.6719E-03     490.672E-03     150.601E+06     135.585E+06    -9.67417E+06    -9.66491E+06     145.122E+06     141.054E+06     806.191E+03         74.3676
             394     15.5483E-03     49.8983E-03         1.02592     620.149E-03    -329.996E-03    -309.992E-03         1.00209     623.978E-03    -219.479E-03     160.687E-03    -29.4550E-03    -131.232E-03    -41.2065E-03     70.6615E-03    -29.4550E-03     266.621E-03     109.111E+06     77.0542E+06    -16.6082E+06    -16.5919E+06     109.095E+06     77.0542E+06    -338.598E+03         63.5432
             395     14.5717E-03     49.7698E-03     762.186E-03     559.180E-03    -11.8072E-03    -10.4599E-03     628.250E-03     691.769E-03     19.9607E-03     76.9474E-03    -29.1675E-03    -47.7799E-03    -29.5595E-03     58.7270E-03    -29.1675E-03     83.4416E-03     84.7371E+06     17.3183E+06    -20.8113E+06    -20.7665E+06     84.6924E+06     17.3183E+06    -517.425E+03         51.3537
             396     13.6023E-03     49.7204E-03     737.599E-03     429.874E-03     145.511E-03     249.095E-03     326.290E-03     737.599E-03     58.7333E-03     62.3507E-03    -28.8870E-03    -33.4636E-03    -28.9849E-03     57.8719E-03    -28.8870E-03     40.1283E-03     77.1690E+06    -15.1197E+06    -29.1170E+06    -20.8315E+06     77.1371E+06    -23.3733E+06    -241.590E+03         41.2078
             397     12.6291E-03     49.6837E-03     800.637E-03     590.764E-03    -72.3863E-03     458.128E-03     91.1569E-03     769.729E-03     575.038E-03     59.5166E-03    -28.8034E-03    -30.7132E-03    -28.6147E-03     57.4181E-03    -28.8034E-03     25.7457E-03     45.4163E+06    -20.0189E+06    -36.9027E+06    -20.0100E+06     45.4074E+06    -36.9027E+06     85.2855E+03         34.3170
             398     11.6590E-03     49.6655E-03     964.440E-03     789.687E-03    -430.266E-03     638.358E-03    -104.184E-03     789.687E-03         1.17440     58.2726E-03    -28.8935E-03    -29.3791E-03    -28.8054E-03     57.7185E-03    -28.9131E-03     13.4809E-03    -1.19292E+06    -19.5915E+06    -40.5905E+06    -19.2597E+06    -13.8936E+06    -28.2217E+06     123.013E+03         30.2492
             399     10.6855E-03     49.6545E-03         1.03529     797.407E-03    -505.330E-03     789.307E-03    -259.348E-03     797.407E-03         1.09408     58.2624E-03    -29.0245E-03    -29.2378E-03    -28.9186E-03     57.9627E-03    -29.0441E-03     10.1988E-03    -14.0595E+06    -19.3085E+06    -62.4702E+06    -18.9847E+06    -62.4507E+06    -14.4028E+06    -98.3527E+03         28.0304
             400     9.71548E-03     49.6429E-03     990.504E-03     794.168E-03    -455.758E-03     884.141E-03    -349.396E-03     794.168E-03     745.295E-03     58.3703E-03    -29.0813E-03    -29.2890E-03    -28.9998E-03     58.1239E-03    -29.1241E-03     9.19625E-03    -8.00284E+06    -20.0022E+06    -97.3343E+06    -20.0091E+06    -97.3275E+06    -8.00284E+06     488.615E+03         26.8279
             401     8.74318E-03     49.6345E-03     986.101E-03     782.812E-03    -439.460E-03     920.598E-03    -373.957E-03     782.812E-03     67.3599E-03     58.2997E-03    -29.1234E-03    -29.1764E-03    -28.9645E-03     58.1356E-03    -29.1711E-03     7.54412E-03    -8.82141E+06    -22.4299E+06    -128.697E+06    -22.4459E+06    -128.681E+06    -8.82141E+06     614.493E+03         26.1302
             402     7.77199E-03     49.6262E-03         1.06924     765.601E-03    -502.429E-03     929.568E-03    -362.756E-03     765.601E-03    -842.037E-03     58.4379E-03    -29.1807E-03    -29.2572E-03    -29.1099E-03     58.3102E-03    -29.2002E-03     6.68240E-03    -11.5367E+06    -25.3106E+06    -154.070E+06    -25.3230E+06    -154.057E+06    -11.5367E+06    -76.3295E+03         25.6781
             403     6.80045E-03     49.6199E-03         1.10800     743.990E-03    -519.949E-03     911.639E-03    -323.591E-03     743.990E-03        -1.04771     58.4475E-03    -29.1546E-03    -29.2929E-03    -29.1249E-03     58.3418E-03    -29.2170E-03     6.07402E-03     -13.672E+06    -26.8459E+06    -173.590E+06    -26.8509E+06    -173.585E+06     -13.672E+06     104.895E+03         25.3545
             404     5.82913E-03     49.6134E-03         1.03073     720.154E-03    -422.998E-03     868.936E-03    -261.202E-03     720.154E-03    -29.7899E-03     58.3906E-03    -29.1336E-03    -29.2571E-03    -29.0793E-03     58.3097E-03    -29.2304E-03     5.30407E-03    -16.9504E+06    -27.8093E+06    -190.392E+06    -27.8131E+06    -190.388E+06    -16.9504E+06     45.1620E+03         25.1092
             405     4.85718E-03     49.6081E-03     879.378E-03     699.207E-03    -253.690E-03     789.271E-03    -163.583E-03     699.207E-03     563.267E-03     58.4469E-03    -29.1947E-03    -29.2522E-03    -29.1392E-03     58.3890E-03    -29.2498E-03     4.48086E-03    -20.8583E+06    -29.7588E+06    -208.670E+06    -29.7607E+06    -208.668E+06    -20.8583E+06    -186.602E+03         24.9198
             406     3.88570E-03     49.6039E-03         1.03075     683.332E-03    -395.862E-03     741.282E-03    -106.389E-03     683.332E-03         1.01050     58.5645E-03    -29.2487E-03    -29.3158E-03    -29.2700E-03     58.5247E-03    -29.2547E-03     3.71232E-03    -24.2621E+06    -32.3578E+06    -224.769E+06    -32.3691E+06    -224.757E+06    -24.2621E+06     998.809E+03         24.7755
             407     2.91486E-03     49.6001E-03         1.03452     662.975E-03    -374.317E-03     683.896E-03    -35.5942E-03     674.872E-03     716.212E-03     58.4998E-03    -29.1875E-03    -29.3123E-03    -29.2412E-03     58.4770E-03    -29.2358E-03     2.77090E-03    -27.3722E+06    -34.7622E+06    -233.673E+06    -34.7760E+06    -233.660E+06    -27.3722E+06     963.718E+03         24.6698
             408     1.94287E-03     49.5980E-03         1.84816     645.620E-03        -1.17013     721.753E-03    -55.6154E-03     657.517E-03         2.38394     58.3669E-03    -29.1018E-03    -29.2650E-03    -29.1329E-03     58.3557E-03    -29.2228E-03     1.95804E-03    -32.1834E+06    -36.3521E+06    -237.780E+06    -36.3254E+06    -237.773E+06     -32.217E+06     18.6273E+03         24.5981
             409     971.415E-06     49.5953E-03         3.07852     615.335E-03        -2.36272     667.968E-03     47.8282E-03     615.335E-03    -287.945E-03     58.4225E-03    -28.9476E-03    -29.4749E-03    -29.2540E-03     58.4181E-03    -29.1641E-03     682.780E-06    -37.1695E+06    -39.1089E+06    -239.105E+06    -38.3970E+06    -239.099E+06    -37.8874E+06    -439.798E+03         24.5562
             410     16.5325E-03     49.3039E-03         1.26548     601.947E-03    -607.921E-03    -576.331E-03         1.23389     601.947E-03    -464.095E-03     273.579E-03    -29.5169E-03    -244.062E-03    -66.6164E-03     96.1333E-03    -29.5169E-03     491.264E-03     151.060E+06     135.261E+06    -8.07855E+06    -8.04884E+06     144.431E+06     141.860E+06     1.26096E+06         74.2327
             411     15.5454E-03     48.8445E-03     889.826E-03     637.356E-03    -288.816E-03    -267.344E-03     812.787E-03     692.922E-03    -224.769E-03     163.787E-03    -29.3491E-03    -134.438E-03    -40.6768E-03     70.0259E-03    -29.3491E-03     273.174E-03     110.530E+06     78.2055E+06    -14.3753E+06    -14.3438E+06     110.498E+06     78.2055E+06     1.34078E+06         63.5180
             412     14.5755E-03     48.7054E-03     758.566E-03     465.084E-03     12.9702E-03     14.7254E-03     463.329E-03     758.566E-03     3.16801E-03     76.8546E-03    -29.0855E-03    -47.7691E-03    -29.9807E-03     59.0663E-03    -29.0855E-03     82.4712E-03     85.5691E+06     16.5423E+06    -19.0786E+06    -19.0500E+06     85.5404E+06     16.5423E+06    -361.108E+03         51.4055
             413     13.6027E-03     48.6632E-03     806.332E-03     351.668E-03     87.3939E-03     262.035E-03     177.028E-03     806.332E-03     51.8861E-03     61.4041E-03    -28.8044E-03    -32.5996E-03    -28.4800E-03     57.2844E-03    -28.8044E-03     38.2977E-03     75.7059E+06    -17.7183E+06    -29.4185E+06    -21.7450E+06     75.6837E+06    -25.3696E+06    -795.960E+03         41.2927
             414     12.6311E-03     48.6229E-03     847.756E-03     614.507E-03    -206.592E-03     486.623E-03    -72.3484E-03     841.396E-03     582.433E-03     59.2808E-03    -28.7469E-03    -30.5339E-03    -28.4965E-03     57.2434E-03    -28.7469E-03     25.2323E-03     44.9761E+06    -21.4116E+06    -36.7264E+06    -21.3925E+06     44.9570E+06    -36.7264E+06     79.4465E+03         34.3874
             415     11.6581E-03     48.6068E-03     975.240E-03     854.060E-03    -566.124E-03     674.711E-03    -275.735E-03     864.201E-03         1.19875     58.1038E-03    -28.8566E-03    -29.2472E-03    -28.7356E-03     57.5922E-03    -28.8566E-03     12.9520E-03    -1.21114E+06    -20.3210E+06    -39.7032E+06    -20.1853E+06    -13.1800E+06    -27.8701E+06    -365.380E+03         30.2935
             416     10.6882E-03     48.5944E-03         1.04486     875.857E-03    -651.925E-03     811.012E-03    -418.075E-03     875.857E-03         1.14274     58.0861E-03    -28.8976E-03    -29.1886E-03    -28.8243E-03     57.8107E-03    -28.9864E-03     9.77351E-03    -14.8029E+06    -20.0597E+06    -63.1450E+06    -19.9440E+06    -63.1312E+06    -14.9324E+06    -93.7276E+03         28.0533
             417     9.71506E-03     48.5841E-03         1.02000     877.771E-03    -624.734E-03     912.902E-03    -517.640E-03     877.771E-03     799.639E-03     58.0843E-03    -28.9741E-03    -29.1102E-03    -28.7762E-03     57.8532E-03    -29.0770E-03     8.91950E-03    -8.42568E+06    -20.5465E+06    -98.4603E+06    -20.5532E+06    -98.4536E+06    -8.42568E+06     616.220E+03         26.8377
             418     8.74415E-03     48.5748E-03         1.02883     870.653E-03    -623.015E-03     979.433E-03    -573.617E-03     870.653E-03     151.930E-03     58.2342E-03    -29.1005E-03    -29.1336E-03    -28.9349E-03     58.0686E-03    -29.1336E-03     7.57478E-03    -8.07513E+06    -21.6605E+06    -128.036E+06    -21.6733E+06    -128.023E+06    -8.07513E+06     1.06629E+06         26.1337
             419     7.77217E-03     48.5675E-03         1.11728     855.510E-03    -691.934E-03         1.01098    -585.638E-03     855.510E-03    -771.900E-03     58.2769E-03    -29.1064E-03    -29.1705E-03    -28.9789E-03     58.1493E-03    -29.1705E-03     6.66376E-03    -10.0847E+06    -23.1293E+06    -153.353E+06    -23.1402E+06    -153.342E+06    -10.0847E+06     544.615E+03         25.6790
             420     6.80054E-03     48.5603E-03         1.12916     835.310E-03    -680.067E-03     990.065E-03    -540.971E-03     835.310E-03    -945.883E-03     58.3539E-03    -29.1307E-03    -29.2232E-03    -29.0508E-03     58.2497E-03    -29.1989E-03     6.02542E-03    -12.5996E+06    -25.4136E+06    -174.008E+06    -25.4177E+06    -174.004E+06    -12.5996E+06    -286.709E+03         25.3545
             421     5.82901E-03     48.5545E-03         1.03844     813.875E-03    -567.602E-03     944.819E-03    -473.976E-03     813.875E-03     8.47550E-03     58.3979E-03    -29.1393E-03    -29.2586E-03    -29.1060E-03     58.3175E-03    -29.2115E-03     5.28761E-03    -16.1006E+06    -27.7425E+06    -189.709E+06    -27.7434E+06    -189.708E+06    -16.1006E+06    -255.482E+03         25.1089
             422     4.85758E-03     48.5492E-03     971.435E-03     793.802E-03    -482.559E-03     890.251E-03    -401.376E-03     793.802E-03     660.754E-03     58.4289E-03    -29.1718E-03    -29.2571E-03    -29.1379E-03     58.3722E-03    -29.2343E-03     4.43211E-03    -18.6455E+06    -30.3295E+06    -209.826E+06    -30.3372E+06    -209.818E+06    -18.6455E+06     462.584E+03         24.9196
             423     3.88616E-03     48.5445E-03         1.03307     775.604E-03    -528.128E-03     847.364E-03    -342.419E-03     775.604E-03     948.819E-03     58.4302E-03    -29.1687E-03    -29.2615E-03    -29.1588E-03     58.3920E-03    -29.2332E-03     3.64001E-03    -24.4893E+06    -33.2469E+06    -225.287E+06    -33.2638E+06    -225.270E+06    -24.4893E+06     1.14891E+06         24.7754
             424     2.91425E-03     48.5412E-03     976.193E-03     751.700E-03    -441.503E-03     783.802E-03    -261.009E-03     763.598E-03     871.051E-03     58.4434E-03    -29.1596E-03    -29.2838E-03    -29.2089E-03     58.4196E-03    -29.2107E-03     2.84467E-03    -30.1625E+06    -34.5945E+06    -231.746E+06    -34.6053E+06    -231.735E+06    -30.1625E+06     416.597E+03         24.6701
             425     1.94336E-03     48.5389E-03         1.50682     740.112E-03    -963.333E-03     785.856E-03    -254.269E-03     752.010E-03         2.06153     58.3661E-03    -29.1026E-03    -29.2636E-03    -29.1357E-03     58.3545E-03    -29.2188E-03     1.94725E-03    -32.2591E+06    -36.0850E+06    -238.116E+06    -36.0555E+06    -238.111E+06    -32.2927E+06    -67.5664E+03         24.5989
             426     971.269E-06     48.5372E-03         2.01018     700.215E-03        -1.41965     550.618E-03    -196.872E-03     937.005E-03     626.897E-03     58.4210E-03    -29.0464E-03    -29.3746E-03    -29.0416E-03     58.4162E-03    -29.3746E-03     1.01203E-03    -35.5121E+06    -38.4073E+06    -238.797E+06    -37.6842E+06    -238.791E+06    -36.2413E+06     233.490E+03         24.5574
             427     16.5212E-03     48.2620E-03         1.09010     655.913E-03    -567.655E-03    -531.387E-03         1.05383     655.913E-03    -466.048E-03     271.424E-03    -29.5665E-03    -241.857E-03    -66.1086E-03     95.6751E-03    -29.5665E-03     487.076E-03     149.322E+06     134.926E+06    -9.39608E+06    -9.32978E+06     141.947E+06     142.235E+06    -835.326E+03         74.0607
             428     15.5504E-03     47.7764E-03     834.230E-03     608.179E-03    -276.497E-03    -252.480E-03     679.862E-03     738.529E-03    -247.927E-03     166.734E-03    -29.3053E-03    -137.429E-03    -43.8867E-03     73.1921E-03    -29.3053E-03     277.215E-03     110.920E+06     79.1500E+06    -14.8282E+06    -14.7704E+06     110.862E+06     79.1500E+06     989.173E+03         63.4652
             429     14.5779E-03     47.6522E-03     803.043E-03     371.539E-03    -2.36179E-03    -482.332E-06     369.660E-03     803.043E-03    -20.8846E-03     76.1277E-03    -28.9685E-03    -47.1592E-03    -29.5190E-03     58.4875E-03    -28.9685E-03     82.5265E-03     86.6412E+06     15.8005E+06    -18.6728E+06    -18.6413E+06     86.6096E+06     15.8005E+06     1.21092E+06         51.4535
             430     13.6040E-03     47.5999E-03     853.711E-03     303.001E-03     29.3093E-03     246.473E-03     85.8372E-03     853.711E-03     34.5658E-03     61.2147E-03    -28.7110E-03    -32.5037E-03    -28.1054E-03     56.8164E-03    -28.7110E-03     39.2111E-03     75.3250E+06    -18.3001E+06    -29.3894E+06    -21.4569E+06     75.3030E+06    -26.2106E+06     77.5409E+03         41.3691
             431     12.6321E-03     47.5668E-03     892.649E-03     600.140E-03    -295.103E-03     477.629E-03    -172.591E-03     892.649E-03     569.106E-03     59.0564E-03    -28.6687E-03    -30.3877E-03    -28.3945E-03     57.0633E-03    -28.6687E-03     25.2840E-03     45.0524E+06    -20.7529E+06    -36.7249E+06    -20.7321E+06     45.0316E+06    -36.7249E+06    -760.272E+03         34.4516
             432     11.6602E-03     47.5454E-03     985.095E-03     877.174E-03    -654.131E-03     664.590E-03    -376.578E-03     920.127E-03         1.20982     57.8335E-03    -28.6743E-03    -29.1592E-03    -28.4754E-03     57.2628E-03    -28.7874E-03     13.4715E-03    -1.17513E+06    -20.1538E+06    -40.1574E+06    -19.6197E+06    -13.7658E+06    -28.1008E+06    -297.236E+03         30.3333
             433     10.6875E-03     47.5363E-03         1.03283     937.595E-03    -753.945E-03     800.834E-03    -521.952E-03     937.595E-03         1.17745     57.8392E-03    -28.7291E-03    -29.1101E-03    -28.6276E-03     57.5586E-03    -28.9310E-03     9.84683E-03    -14.9346E+06    -20.3443E+06    -63.6406E+06    -19.8275E+06    -63.6309E+06    -15.4612E+06     316.099E+03         28.0724
             434     9.71632E-03     47.5248E-03         1.02297     946.142E-03    -747.099E-03     910.666E-03    -634.796E-03     946.142E-03     849.409E-03     57.9177E-03    -28.8443E-03    -29.0734E-03    -28.6324E-03     57.6669E-03    -29.0345E-03     9.28018E-03    -8.85437E+06    -20.7352E+06    -98.9968E+06    -20.7381E+06    -98.9939E+06    -8.85437E+06     338.043E+03         26.8446
             435     8.74382E-03     47.5158E-03         1.04263     945.533E-03    -759.312E-03     998.315E-03    -714.998E-03     945.533E-03     231.872E-03     58.0874E-03    -28.9828E-03    -29.1046E-03    -28.8073E-03     57.9119E-03    -29.1046E-03     7.77341E-03    -7.87552E+06    -22.1417E+06    -128.054E+06    -22.1450E+06    -128.051E+06    -7.87552E+06     549.201E+03         26.1350
             436     7.77252E-03     47.5083E-03         1.12414     936.767E-03    -824.654E-03         1.03850    -739.016E-03     936.767E-03    -692.493E-03     58.2412E-03    -29.0946E-03    -29.1466E-03    -28.9653E-03     58.1119E-03    -29.1466E-03     6.70539E-03    -9.53160E+06    -23.9001E+06    -152.583E+06    -23.9032E+06    -152.580E+06    -9.53160E+06     394.692E+03         25.6783
             437     6.80080E-03     47.5014E-03         1.13111     923.547E-03    -812.951E-03         1.02689    -708.736E-03     923.547E-03    -841.320E-03     58.2573E-03    -29.0811E-03    -29.1761E-03    -28.9785E-03     58.1546E-03    -29.1761E-03     5.97217E-03    -12.3511E+06    -25.9648E+06    -173.927E+06    -25.9673E+06    -173.925E+06    -12.3511E+06     63.5605E+03         25.3534
             438     5.82911E-03     47.4952E-03         1.06014     908.906E-03    -725.004E-03         1.00219    -667.058E-03     908.906E-03     56.0552E-03     58.3183E-03    -29.1042E-03    -29.2141E-03    -29.0470E-03     58.2382E-03    -29.1913E-03     5.27735E-03    -16.6957E+06    -28.4068E+06    -189.935E+06    -28.4096E+06    -189.932E+06    -16.6957E+06     139.942E+03         25.1081
             439     4.85770E-03     47.4900E-03         1.05640     893.805E-03    -703.591E-03     971.903E-03    -619.098E-03     893.805E-03     746.379E-03     58.3993E-03    -29.1579E-03    -29.2413E-03    -29.1207E-03     58.3392E-03    -29.2185E-03     4.57002E-03    -19.0915E+06    -30.3382E+06    -210.718E+06    -30.3474E+06    -210.709E+06    -19.0915E+06     831.565E+03         24.9192
             440     3.88607E-03     47.4858E-03         1.07402     879.254E-03    -707.558E-03     936.628E-03    -570.171E-03     879.254E-03     937.056E-03     58.3617E-03    -29.1313E-03    -29.2304E-03    -29.0903E-03     58.3206E-03    -29.2304E-03     3.76473E-03    -23.5280E+06    -32.2472E+06    -225.039E+06    -32.2573E+06    -225.029E+06    -23.5280E+06     961.529E+03         24.7755
             441     2.91457E-03     47.4823E-03         1.04139     869.816E-03    -661.638E-03     885.625E-03    -505.878E-03     869.816E-03     975.937E-03     58.3594E-03    -29.0970E-03    -29.2624E-03    -29.1009E-03     58.3340E-03    -29.2330E-03     2.95407E-03    -30.2049E+06    -34.5000E+06    -230.763E+06    -34.5028E+06    -230.760E+06    -30.2049E+06     431.151E+03         24.6709
             442     1.94270E-03     47.4794E-03         1.38535     865.122E-03    -998.773E-03     874.506E-03    -487.927E-03     865.122E-03         1.86456     58.4838E-03    -29.1310E-03    -29.3527E-03    -29.2240E-03     58.4723E-03    -29.2483E-03     1.88702E-03    -32.7702E+06    -36.6373E+06    -238.043E+06    -36.6386E+06    -238.041E+06    -32.7702E+06    -200.954E+03         24.6005
             443     971.582E-06     47.4791E-03         1.76068     514.446E-03        -1.02710     426.267E-03    -477.581E-03         1.29934         1.19680     58.4487E-03    -28.9721E-03    -29.4766E-03    -29.3606E-03     58.4443E-03    -29.0837E-03     1.23676E-03    -35.5700E+06    -39.7946E+06    -238.975E+06    -39.1028E+06    -238.972E+06    -36.2656E+06     153.573E+03         24.5595
             444     16.5241E-03     47.1987E-03     962.801E-03     688.344E-03    -544.563E-03    -499.094E-03     917.331E-03     688.344E-03    -495.135E-03     270.874E-03    -29.6248E-03    -241.249E-03    -66.4872E-03     96.1120E-03    -29.6248E-03     485.612E-03     147.545E+06     136.443E+06    -9.81231E+06    -9.76092E+06     141.105E+06     142.832E+06    -2.51518E+06         73.8768
             445     15.5507E-03     46.7198E-03     798.442E-03     590.542E-03    -281.330E-03    -251.171E-03     595.274E-03     763.551E-03    -268.726E-03     167.206E-03    -29.3071E-03    -137.899E-03    -45.2627E-03     74.5697E-03    -29.3071E-03     277.572E-03     107.870E+06     79.9207E+06    -16.1594E+06    -16.1194E+06     107.830E+06     79.9207E+06    -1.12150E+06         63.3988
             446     14.5766E-03     46.5909E-03     826.586E-03     321.204E-03    -28.7414E-03    -22.0311E-03     314.494E-03     826.586E-03    -38.6085E-03     76.2165E-03    -28.9365E-03    -47.2800E-03    -29.3688E-03     58.3054E-03    -28.9365E-03     83.0069E-03     86.3825E+06     18.2289E+06    -19.7724E+06    -19.7384E+06     86.3486E+06     18.2289E+06     1.22450E+06         51.4877
             447     13.6052E-03     46.5433E-03     879.723E-03     261.493E-03    -7.49436E-03     209.464E-03     44.5350E-03     879.723E-03     16.1889E-03     61.2866E-03    -28.6783E-03    -32.6083E-03    -28.0358E-03     56.7141E-03    -28.6783E-03     40.0862E-03     76.8280E+06    -14.9113E+06    -28.6253E+06    -19.7675E+06     76.8013E+06    -23.7424E+06     554.096E+03         41.4354
             448     12.6322E-03     46.5056E-03     923.673E-03     547.468E-03    -322.475E-03     418.813E-03    -193.820E-03     923.673E-03     566.070E-03     59.0727E-03    -28.6301E-03    -30.4426E-03    -28.2817E-03     56.9119E-03    -28.6301E-03     26.2116E-03     45.0034E+06    -19.4274E+06    -36.9909E+06    -19.3828E+06     44.9589E+06    -36.9909E+06    -94.1273E+03         34.5101
             449     11.6602E-03     46.4882E-03     979.634E-03     863.502E-03    -683.601E-03     603.208E-03    -402.033E-03     958.360E-03         1.20264     57.7899E-03    -28.6058E-03    -29.1841E-03    -28.4282E-03     57.1834E-03    -28.7552E-03     13.9299E-03    -1.70477E+06    -19.9579E+06    -40.9289E+06    -19.4017E+06    -14.6167E+06    -28.5732E+06     517.762E+03         30.3699
             450     10.6882E-03     46.4763E-03         1.01278     971.273E-03    -814.445E-03     768.076E-03    -581.804E-03     983.339E-03         1.19011     57.6471E-03    -28.6994E-03    -28.9477E-03    -28.4391E-03     57.3479E-03    -28.9088E-03     10.1463E-03    -15.0655E+06    -20.4968E+06    -63.9428E+06    -19.9866E+06    -63.9264E+06    -15.5921E+06     417.852E+03         28.0898
             451     9.71601E-03     46.4663E-03         1.02128     982.599E-03    -823.710E-03     889.809E-03    -708.633E-03     998.994E-03     872.657E-03     57.9719E-03    -28.8655E-03    -29.1063E-03    -28.6958E-03     57.7115E-03    -29.0157E-03     9.45696E-03    -8.93350E+06    -21.4329E+06    -98.6586E+06    -21.4411E+06    -98.6503E+06    -8.93350E+06     516.932E+03         26.8506
             452     8.74440E-03     46.4568E-03         1.03606     982.638E-03    -829.931E-03     970.784E-03    -788.912E-03         1.00689     272.433E-03     58.0267E-03    -28.8944E-03    -29.1324E-03    -28.7666E-03     57.8472E-03    -29.0806E-03     7.85890E-03    -8.43603E+06    -22.9221E+06    -128.201E+06    -22.9238E+06    -128.199E+06    -8.43603E+06     353.568E+03         26.1357
             453     7.77244E-03     46.4489E-03         1.10759     993.298E-03    -902.577E-03         1.01881    -829.215E-03         1.00871    -630.359E-03     58.1262E-03    -28.9988E-03    -29.1274E-03    -28.8652E-03     57.9926E-03    -29.1274E-03     6.80749E-03    -10.3360E+06    -24.6465E+06    -152.868E+06    -24.6472E+06    -152.868E+06    -10.3360E+06     96.5396E+03         25.6772
             454     6.80102E-03     46.4425E-03         1.12480         1.00613    -925.203E-03         1.03994    -840.342E-03         1.00613    -764.531E-03     58.2509E-03    -29.0883E-03    -29.1626E-03    -28.9807E-03     58.1433E-03    -29.1626E-03     6.11431E-03    -12.7141E+06    -26.9242E+06    -173.751E+06    -26.9252E+06    -173.750E+06    -12.7141E+06     180.602E+03         25.3522
             455     5.82929E-03     46.4363E-03         1.08565         1.00085    -877.012E-03         1.04096    -832.323E-03         1.00085     111.878E-03     58.2248E-03    -29.0443E-03    -29.1805E-03    -28.9602E-03     58.1407E-03    -29.1805E-03     5.40667E-03    -17.5718E+06    -28.7280E+06    -190.437E+06    -28.7302E+06    -190.434E+06    -17.5718E+06     512.102E+03         25.1074
             456     4.85745E-03     46.4310E-03         1.11235     994.871E-03    -894.116E-03         1.02591    -807.677E-03     994.871E-03     805.347E-03     58.2922E-03    -29.0666E-03    -29.2256E-03    -29.0050E-03     58.2307E-03    -29.2256E-03     4.61296E-03    -20.3184E+06    -30.6078E+06    -211.349E+06    -30.6101E+06    -211.347E+06    -20.3184E+06     549.841E+03         24.9191
             457     3.88591E-03     46.4269E-03         1.12891     989.444E-03    -903.267E-03         1.01150    -785.854E-03     989.444E-03     945.329E-03     58.4038E-03    -29.1433E-03    -29.2605E-03    -29.1010E-03     58.3615E-03    -29.2605E-03     3.83751E-03    -22.8147E+06    -32.6643E+06    -224.455E+06    -32.6680E+06    -224.451E+06    -22.8147E+06     721.157E+03         24.7761
             458     2.91436E-03     46.4232E-03         1.13986     986.188E-03    -907.286E-03     991.473E-03    -758.903E-03     986.188E-03         1.05453     58.4380E-03    -29.1425E-03    -29.2955E-03    -29.1430E-03     58.4116E-03    -29.2686E-03     2.99600E-03    -27.9731E+06    -34.9377E+06    -230.162E+06    -34.9409E+06    -230.158E+06    -27.9731E+06     615.573E+03         24.6722
             459     1.94281E-03     46.4210E-03         1.38841     983.628E-03        -1.15060     991.559E-03    -753.751E-03     983.628E-03         1.78658     58.5565E-03    -29.1736E-03    -29.3830E-03    -29.2977E-03     58.5450E-03    -29.2473E-03     1.93936E-03    -33.2374E+06    -37.2957E+06    -237.681E+06    -37.2978E+06    -237.679E+06    -33.2374E+06     250.498E+03         24.6024
             460     971.633E-06     46.4184E-03         1.96355     372.402E-03        -1.11565     322.926E-03    -743.102E-03         1.64048         1.44627     58.4027E-03    -28.9264E-03    -29.4762E-03    -29.3492E-03     58.3988E-03    -29.0496E-03     902.068E-06    -37.4448E+06    -40.8785E+06    -239.481E+06    -39.7569E+06    -239.478E+06    -38.5695E+06     86.9774E+03         24.5617
             461     16.5208E-03     46.1350E-03     887.591E-03     701.553E-03    -534.308E-03    -482.256E-03     835.538E-03     701.553E-03    -517.591E-03     271.481E-03    -29.6164E-03    -241.865E-03    -66.9617E-03     96.5781E-03    -29.6164E-03     486.593E-03     148.203E+06     137.010E+06    -9.84269E+06    -9.79640E+06     142.688E+06     142.478E+06    -1.85689E+06         73.7082
             462     15.5496E-03     45.6602E-03     777.916E-03     575.866E-03    -290.661E-03    -256.487E-03     550.075E-03     769.534E-03    -285.205E-03     166.638E-03    -29.2932E-03    -137.345E-03    -45.2221E-03     74.5153E-03    -29.2932E-03     276.140E-03     105.045E+06     78.4397E+06    -18.4846E+06    -18.3725E+06     104.932E+06     78.4397E+06    -3.28055E+06         63.3429
             463     14.5785E-03     45.5314E-03     830.274E-03     299.998E-03    -53.2368E-03    -43.7465E-03     290.508E-03     830.274E-03    -56.6579E-03     75.7689E-03    -28.9278E-03    -46.8411E-03    -29.3726E-03     58.3004E-03    -28.9278E-03     81.9164E-03     84.3565E+06     19.4885E+06    -21.0400E+06    -20.9450E+06     84.2615E+06     19.4885E+06    -1.90996E+06         51.5203
             464     13.6047E-03     45.4848E-03     885.495E-03     214.970E-03    -7.46377E-03     147.563E-03     59.9433E-03     885.495E-03    -567.632E-06     61.0881E-03    -28.6692E-03    -32.4189E-03    -27.8269E-03     56.4961E-03    -28.6692E-03     40.1597E-03     76.5359E+06    -14.1093E+06    -28.3495E+06    -19.7893E+06     76.4591E+06    -22.5927E+06     653.745E+03         41.5011
             465     12.6319E-03     45.4471E-03     935.201E-03     467.507E-03    -295.959E-03     327.309E-03    -155.761E-03     935.201E-03     556.803E-03     59.0567E-03    -28.6273E-03    -30.4294E-03    -28.2094E-03     56.8367E-03    -28.6273E-03     26.4021E-03     44.7341E+06    -20.0469E+06    -36.5837E+06    -19.9623E+06     44.6495E+06    -36.5837E+06     1.59114E+06         34.5680
             466     11.6603E-03     45.4281E-03     978.154E-03     810.174E-03    -668.736E-03     510.635E-03    -369.197E-03     978.154E-03         1.18583     57.7513E-03    -28.7168E-03    -29.0345E-03    -28.4164E-03     57.1695E-03    -28.7531E-03     13.7066E-03    -1.92279E+06    -20.4588E+06    -40.5469E+06    -20.1508E+06    -14.3826E+06    -28.3950E+06     945.482E+03         30.4067
             467     10.6881E-03     45.4187E-03         1.01261     929.795E-03    -809.817E-03     687.091E-03    -567.113E-03         1.01261         1.17859     57.7467E-03    -28.8029E-03    -28.9438E-03    -28.5428E-03     57.4420E-03    -28.8992E-03     10.2533E-03    -15.4689E+06    -20.5778E+06    -63.9779E+06    -20.3131E+06    -63.9472E+06    -15.7643E+06     714.149E+03         28.1081
             468     9.71603E-03     45.4065E-03         1.03831     944.338E-03    -837.030E-03     825.489E-03    -718.181E-03         1.03831     871.950E-03     57.9051E-03    -28.8384E-03    -29.0667E-03    -28.6425E-03     57.6432E-03    -29.0008E-03     9.47656E-03    -9.31101E+06    -21.2778E+06     -98.486E+06    -21.2889E+06    -98.4749E+06    -9.31101E+06     794.751E+03         26.8576
             469     8.74463E-03     45.3980E-03         1.05722     956.122E-03    -855.196E-03     914.494E-03    -813.568E-03         1.05722     280.320E-03     57.9934E-03    -28.8720E-03    -29.1214E-03    -28.7399E-03     57.8095E-03    -29.0696E-03     7.95892E-03    -8.80689E+06    -23.2732E+06    -128.147E+06    -23.2773E+06    -128.142E+06    -8.80689E+06     485.840E+03         26.1373
             470     7.77261E-03     45.3903E-03         1.10333         1.01541    -949.454E-03     981.218E-03    -883.074E-03         1.07114    -602.988E-03     58.0394E-03    -28.9182E-03    -29.1211E-03    -28.7759E-03     57.8970E-03    -29.1211E-03     7.02339E-03    -11.2731E+06    -25.5929E+06    -153.231E+06    -25.5944E+06    -153.229E+06    -11.2731E+06     380.524E+03         25.6769
             471     6.80062E-03     45.3831E-03         1.12168         1.06320        -1.00838         1.02816    -932.596E-03         1.08095    -730.131E-03     58.1855E-03    -29.0142E-03    -29.1713E-03    -28.9021E-03     58.0734E-03    -29.1713E-03     6.22674E-03    -12.7181E+06    -27.2510E+06    -173.897E+06    -27.2531E+06    -173.895E+06    -12.7181E+06     121.291E+03         25.3517
             472     5.82924E-03     45.3775E-03         1.11395         1.06544    -997.818E-03         1.04902    -955.886E-03         1.08844     138.246E-03     58.2725E-03    -29.0755E-03    -29.1970E-03    -28.9911E-03     58.1881E-03    -29.1970E-03     5.41988E-03    -16.9811E+06    -29.0204E+06    -190.826E+06    -29.0226E+06    -190.823E+06    -16.9811E+06     146.343E+03         25.1073
             473     4.85746E-03     45.3722E-03         1.14791         1.09017        -1.05204         1.06295    -972.329E-03         1.09542     814.528E-03     58.3036E-03    -29.0661E-03    -29.2375E-03    -29.0044E-03     58.2420E-03    -29.2375E-03     4.61167E-03    -20.4822E+06    -31.3977E+06    -211.387E+06    -31.3996E+06    -211.385E+06    -20.4822E+06     521.976E+03         24.9196
             474     3.88582E-03     45.3677E-03         1.18056         1.10212        -1.09296         1.07803    -990.436E-03         1.10212     941.666E-03     58.4176E-03    -29.1325E-03    -29.2851E-03    -29.1035E-03     58.3768E-03    -29.2733E-03     3.76286E-03    -23.0446E+06    -33.6722E+06    -224.138E+06    -33.6736E+06    -224.137E+06    -23.0446E+06     266.912E+03         24.7770
             475     2.91419E-03     45.3643E-03         1.22520         1.10655        -1.13728         1.10047        -1.01255         1.10655         1.04715     58.5456E-03    -29.2150E-03    -29.3307E-03    -29.2651E-03     58.5213E-03    -29.2562E-03     2.87009E-03    -28.8063E+06    -35.7535E+06    -229.933E+06    -35.7543E+06    -229.932E+06    -28.8063E+06     138.222E+03         24.6735
             476     1.94313E-03     45.3612E-03         1.44433         1.10977        -1.35585         1.10223        -1.01374         1.10977         1.75773     58.4550E-03    -29.1253E-03    -29.3297E-03    -29.2107E-03     58.4441E-03    -29.2334E-03     1.90741E-03    -33.3542E+06    -37.9302E+06    -237.480E+06    -37.9324E+06    -237.478E+06    -33.3542E+06     552.387E+03         24.6039
             477     971.553E-06     45.3602E-03         2.27420     279.617E-03        -1.35390     208.848E-03        -1.02431         2.01538         1.41205     58.4135E-03    -29.0723E-03    -29.3412E-03    -29.1024E-03     58.4099E-03    -29.3075E-03     822.374E-06    -36.7410E+06    -40.4468E+06    -239.565E+06    -39.3249E+06    -239.562E+06    -37.8658E+06     222.805E+03         24.5633
             478     16.5257E-03     45.0820E-03     862.462E-03     695.800E-03    -537.069E-03    -488.396E-03     813.789E-03     695.800E-03    -501.124E-03     271.330E-03    -29.5636E-03    -241.766E-03    -67.5166E-03     97.0802E-03    -29.5636E-03     485.977E-03     150.845E+06     137.392E+06    -10.3598E+06    -10.3168E+06     145.516E+06     142.678E+06    -837.703E+03         73.5693
             479     15.5513E-03     44.5965E-03     766.094E-03     582.986E-03    -317.313E-03    -286.529E-03     561.957E-03     756.341E-03    -281.171E-03     166.096E-03    -29.2288E-03    -136.867E-03    -44.6009E-03     73.8298E-03    -29.2288E-03     275.720E-03     106.994E+06     75.7535E+06    -18.5637E+06    -18.3950E+06     106.825E+06     75.7535E+06    -3.33363E+06         63.3093
             480     14.5784E-03     44.4750E-03     815.312E-03     334.444E-03    -103.562E-03    -98.5767E-03     329.459E-03     815.312E-03    -60.2312E-03     75.3875E-03    -28.8912E-03    -46.4962E-03    -28.9523E-03     57.8436E-03    -28.8912E-03     81.8705E-03     80.4971E+06     13.3024E+06    -22.8916E+06    -22.7195E+06     80.3250E+06     13.3024E+06    -4.11876E+06         51.5601
             481     13.6047E-03     44.4255E-03     873.283E-03     191.163E-03    -2.32451E-03     64.3006E-03     124.538E-03     873.283E-03    -6.71778E-03     61.4057E-03    -28.6612E-03    -32.7445E-03    -28.0241E-03     56.6853E-03    -28.6612E-03     40.7774E-03     72.8096E+06    -19.1028E+06    -29.4441E+06    -23.4528E+06     72.7145E+06    -24.9989E+06    -599.431E+03         41.5694
             482     12.6332E-03     44.3880E-03     928.595E-03     384.858E-03    -237.134E-03     225.872E-03    -78.1476E-03     928.595E-03     526.766E-03     59.0146E-03    -28.6200E-03    -30.3946E-03    -28.2047E-03     56.8247E-03    -28.6200E-03     26.2350E-03     45.1878E+06    -21.2519E+06    -35.3690E+06    -21.1602E+06     45.0961E+06    -35.3690E+06     1.61929E+06         34.6295
             483     11.6598E-03     44.3701E-03     979.708E-03     727.505E-03    -617.020E-03     395.625E-03    -285.141E-03     979.708E-03         1.15327     57.6064E-03    -28.6480E-03    -28.9585E-03    -28.2935E-03     57.0337E-03    -28.7401E-03     13.5664E-03    -1.45273E+06    -20.4545E+06    -40.9655E+06    -20.1414E+06    -14.1136E+06    -28.6177E+06     1.23336E+06         30.4465
             484     10.6883E-03     44.3585E-03         1.02522     821.898E-03    -741.663E-03     559.008E-03    -478.773E-03         1.02522         1.13941     57.7153E-03    -28.7787E-03    -28.9367E-03    -28.5178E-03     57.4098E-03    -28.8921E-03     10.2583E-03    -15.7488E+06    -20.9364E+06    -63.9803E+06    -20.6753E+06    -63.9459E+06    -16.0442E+06     973.919E+03         28.1288
             485     9.71676E-03     44.3486E-03         1.06418     838.085E-03    -781.042E-03     711.052E-03    -654.009E-03         1.06418     852.408E-03     57.8455E-03    -28.8362E-03    -29.0094E-03    -28.5775E-03     57.5727E-03    -28.9952E-03     9.67133E-03    -10.0169E+06    -21.6695E+06    -98.4946E+06    -21.6856E+06    -98.4785E+06    -10.0169E+06     1.02168E+06         26.8666
             486     8.74390E-03     44.3386E-03         1.09654     882.539E-03    -842.652E-03     835.961E-03    -796.075E-03         1.09654     275.000E-03     57.9378E-03    -28.8638E-03    -29.0740E-03    -28.6742E-03     57.7482E-03    -29.0740E-03     8.06560E-03    -8.86061E+06    -23.4691E+06    -128.139E+06    -23.4775E+06    -128.131E+06    -8.86061E+06     847.817E+03         26.1407
             487     7.77262E-03     44.3315E-03         1.12712     987.213E-03    -966.017E-03     922.515E-03    -898.101E-03         1.12390    -612.428E-03     58.0852E-03    -28.9544E-03    -29.1308E-03    -28.8135E-03     57.9443E-03    -29.1308E-03     6.98862E-03    -10.4385E+06    -25.5012E+06    -152.725E+06    -25.5043E+06    -152.722E+06    -10.4385E+06     611.380E+03         25.6781
             488     6.80082E-03     44.3243E-03         1.15191         1.05840        -1.05457     982.933E-03    -975.881E-03         1.14869    -748.751E-03     58.1424E-03    -28.9643E-03    -29.1782E-03    -28.8515E-03     58.0296E-03    -29.1782E-03     6.24729E-03    -13.1116E+06    -27.7408E+06    -173.916E+06    -27.7443E+06    -173.913E+06    -13.1116E+06     323.101E+03         25.3523
             489     5.82883E-03     44.3183E-03         1.17234         1.07714        -1.08930         1.03564        -1.04779         1.17234     114.724E-03     58.2854E-03    -29.0706E-03    -29.2149E-03    -28.9879E-03     58.2028E-03    -29.2149E-03     5.34602E-03    -16.7052E+06    -30.6601E+06    -191.526E+06    -30.6635E+06    -191.523E+06    -16.7052E+06     111.837E+03         25.1080
             490     4.85758E-03     44.3132E-03         1.20349         1.15396        -1.19112         1.09749        -1.12495         1.19379     774.328E-03     58.4184E-03    -29.1401E-03    -29.2783E-03    -29.1228E-03     58.3587E-03    -29.2360E-03     4.55557E-03    -21.2386E+06    -33.0370E+06    -210.738E+06    -33.0387E+06    -210.737E+06    -21.2386E+06     86.2431E+03         24.9204
             491     3.88585E-03     44.3089E-03         1.23622         1.20605        -1.27030         1.13616        -1.17771         1.21352     938.598E-03     58.4769E-03    -29.1700E-03    -29.3069E-03    -29.2044E-03     58.4360E-03    -29.2315E-03     3.75367E-03    -26.0604E+06    -35.3376E+06    -224.122E+06    -35.3387E+06    -224.121E+06    -26.0604E+06    -290.094E+03         24.7780
             492     2.91468E-03     44.3047E-03         1.28118         1.23017        -1.33622         1.18530        -1.24142         1.23124     963.275E-03     58.3892E-03    -29.1005E-03    -29.2887E-03    -29.1464E-03     58.3665E-03    -29.2200E-03     2.78125E-03    -30.3946E+06    -37.2800E+06    -230.662E+06    -37.2824E+06    -230.659E+06    -30.3946E+06     65.9010E+03         24.6743
             493     1.94304E-03     44.3027E-03         1.54900         1.24906        -1.61633         1.20972        -1.27705         1.24906         1.79787     58.3194E-03    -29.0246E-03    -29.2948E-03    -29.0492E-03     58.3083E-03    -29.2591E-03     1.93104E-03     -34.145E+06    -38.7047E+06    -237.059E+06    -38.7073E+06    -237.056E+06     -34.145E+06     363.100E+03         24.6046
             494     970.957E-06     44.3014E-03         2.67664     232.121E-03        -1.73529     104.136E-03        -1.34431         2.41364         1.12747     58.5581E-03    -29.1031E-03    -29.4550E-03    -29.3316E-03     58.5536E-03    -29.2219E-03     1.19397E-03    -38.6818E+06    -41.1498E+06    -239.864E+06    -41.1516E+06    -239.863E+06    -38.6818E+06    -195.572E+03         24.5639
             495     16.5242E-03     44.0171E-03     867.220E-03     671.089E-03    -538.725E-03    -495.654E-03     824.149E-03     671.089E-03    -476.569E-03     271.437E-03    -29.5479E-03    -241.889E-03    -67.5596E-03     97.1075E-03    -29.5479E-03     486.195E-03     153.546E+06     139.004E+06    -9.60026E+06    -9.57542E+06     148.162E+06     144.363E+06    -530.657E+03         73.4476
             496     15.5526E-03     43.5420E-03     759.394E-03     614.375E-03    -362.973E-03    -336.534E-03     623.124E-03     724.207E-03    -258.934E-03     166.614E-03    -29.2164E-03    -137.398E-03    -44.2117E-03     73.4282E-03    -29.2164E-03     277.257E-03     108.556E+06     73.8884E+06    -17.9138E+06    -17.8245E+06     108.467E+06     73.8884E+06    -1.45010E+06         63.2760
             497     14.5763E-03     43.4147E-03     782.389E-03     438.110E-03    -194.834E-03    -193.166E-03     436.442E-03     782.389E-03    -46.5726E-03     75.8071E-03    -28.8901E-03    -46.9169E-03    -29.1188E-03     58.0090E-03    -28.8901E-03     82.4877E-03     78.2504E+06     8.66833E+06    -24.2483E+06    -24.1278E+06     78.1299E+06     8.66833E+06    -2.68387E+06         51.5979
             498     13.6056E-03     43.3668E-03     844.115E-03     255.241E-03    -57.0002E-03    -43.3339E-03     241.575E-03     844.115E-03    -6.58115E-03     61.6397E-03    -28.6597E-03    -32.9800E-03    -28.2676E-03     56.9273E-03    -28.6597E-03     40.9035E-03     69.3981E+06    -22.4206E+06    -32.0990E+06    -26.2538E+06     69.3279E+06    -28.1956E+06    -2.36150E+06         41.6387
             499     12.6320E-03     43.3292E-03     905.394E-03     357.251E-03    -203.976E-03     105.724E-03     47.5505E-03     905.394E-03     493.408E-03     59.0761E-03    -28.6142E-03    -30.4619E-03    -28.2249E-03     56.8390E-03    -28.6142E-03     26.5521E-03     43.5131E+06    -24.5960E+06    -37.1548E+06    -24.5398E+06     43.4570E+06    -37.1548E+06    -139.622E+03         34.6930
             500     11.6612E-03     43.3109E-03     965.124E-03     644.554E-03    -536.892E-03     256.246E-03    -148.584E-03     965.124E-03         1.09530     57.5809E-03    -28.6075E-03    -28.9734E-03    -28.2438E-03     56.9815E-03    -28.7376E-03     13.9057E-03    -1.54854E+06    -22.0661E+06    -40.7377E+06    -22.0430E+06    -13.5895E+06    -28.7199E+06     1.01996E+06         30.4888
             501     10.6881E-03     43.3005E-03         1.02213     708.566E-03    -641.803E-03     413.618E-03    -346.855E-03         1.02213         1.08334     57.5819E-03    -28.6860E-03    -28.8958E-03    -28.3614E-03     57.2572E-03    -28.8958E-03     10.5575E-03    -16.4101E+06    -21.1538E+06    -64.2194E+06    -21.1811E+06    -64.1920E+06    -16.4101E+06     749.929E+03         28.1519
             502     9.71564E-03     43.2889E-03         1.07499     707.717E-03    -674.801E-03     570.401E-03    -537.486E-03         1.07499     804.025E-03     57.9060E-03    -28.8895E-03    -29.0165E-03    -28.6256E-03     57.6302E-03    -29.0046E-03     9.71008E-03    -10.2742E+06    -21.8978E+06    -98.9366E+06    -21.9126E+06    -98.9218E+06    -10.2742E+06     841.351E+03         26.8777
             503     8.74474E-03     43.2805E-03         1.12280     768.054E-03    -767.560E-03     718.139E-03    -717.645E-03         1.12280     231.638E-03     58.0071E-03    -28.9183E-03    -29.0887E-03    -28.7431E-03     57.8200E-03    -29.0768E-03     8.02854E-03    -8.97576E+06    -23.3418E+06    -127.760E+06    -23.3581E+06    -127.743E+06    -8.97576E+06     1.23118E+06         26.1458
             504     7.77228E-03     43.2720E-03         1.16639     906.477E-03    -937.606E-03     831.919E-03    -863.048E-03         1.16639    -640.595E-03     58.0774E-03    -28.9425E-03    -29.1349E-03    -28.8038E-03     57.9387E-03    -29.1349E-03     6.92564E-03    -9.76054E+06    -25.4629E+06    -152.403E+06    -25.4744E+06    -152.392E+06    -9.76054E+06     989.150E+03         25.6806
             505     6.80073E-03     43.2659E-03         1.20779         1.01247        -1.07730     924.907E-03    -989.742E-03         1.20779    -790.126E-03     58.2010E-03    -29.0217E-03    -29.1793E-03    -28.9129E-03     58.0922E-03    -29.1793E-03     6.14503E-03    -12.1337E+06    -27.9500E+06    -173.222E+06    -27.9522E+06    -173.220E+06    -12.1337E+06     509.316E+03         25.3538
             506     5.82917E-03     43.2590E-03         1.24757         1.06209        -1.16253         1.01693        -1.11736         1.24757     85.2173E-03     58.2741E-03    -29.0646E-03    -29.2096E-03    -28.9829E-03     58.1925E-03    -29.2096E-03     5.31162E-03    -16.0486E+06    -30.1781E+06    -191.728E+06    -30.1798E+06    -191.726E+06    -16.0486E+06    -11.6944E+03         25.1090
             507     4.85728E-03     43.2543E-03         1.28379         1.17053        -1.30071         1.11745        -1.24763         1.28379     712.395E-03     58.4649E-03    -29.1688E-03    -29.2961E-03    -29.1813E-03     58.4067E-03    -29.2255E-03     4.49870E-03    -20.1428E+06    -32.5315E+06    -210.934E+06    -32.5338E+06    -210.932E+06    -20.1428E+06    -77.4198E+03         24.9211
             508     3.88634E-03     43.2493E-03         1.32216         1.27758        -1.43913         1.19413        -1.34955         1.31604     947.527E-03     58.4396E-03    -29.1417E-03    -29.2979E-03    -29.1927E-03     58.3987E-03    -29.2060E-03     3.75829E-03    -26.1780E+06    -35.3372E+06    -224.027E+06    -35.3395E+06    -224.025E+06    -26.1780E+06    -99.4198E+03         24.7783
             509     2.91464E-03     43.2463E-03         1.35639         1.33109        -1.52434         1.26116        -1.44371         1.34569     884.495E-03     58.2668E-03    -29.0280E-03    -29.2389E-03    -29.0320E-03     58.2438E-03    -29.2118E-03     2.77908E-03    -30.5323E+06    -37.0505E+06    -231.395E+06    -37.0671E+06    -231.378E+06    -30.5323E+06    -823.409E+03         24.6743
             510     1.94246E-03     43.2439E-03         1.70360         1.36154        -1.90041         1.31493        -1.52527         1.37507         1.89704     58.3973E-03    -29.1151E-03    -29.2822E-03    -29.1445E-03     58.3861E-03    -29.2416E-03     1.96005E-03    -34.1089E+06    -38.6083E+06    -237.520E+06    -38.6247E+06    -237.504E+06    -34.1089E+06    -603.931E+03         24.6043
             511     971.768E-06     43.2416E-03         3.06627     387.362E-03        -2.30010     37.4597E-03        -1.62625         2.74232     777.632E-03     58.4663E-03    -29.0845E-03    -29.3817E-03    -29.3700E-03     58.4615E-03    -29.0915E-03     1.15550E-03    -38.9753E+06    -40.7211E+06    -239.912E+06    -40.5012E+06    -239.904E+06    -39.2029E+06     337.450E+03         24.5632
             512     16.5255E-03     42.9610E-03     907.416E-03     629.173E-03    -554.869E-03    -516.019E-03     868.567E-03     629.173E-03    -463.494E-03     272.127E-03    -29.6325E-03    -242.495E-03    -67.4370E-03     97.0695E-03    -29.6325E-03     487.575E-03     152.867E+06     138.311E+06    -11.3310E+06    -11.3020E+06     147.563E+06     143.587E+06    -699.662E+03         73.3132
             513     15.5476E-03     42.4806E-03     775.782E-03     639.874E-03    -420.538E-03    -396.858E-03     716.354E-03     675.622E-03    -237.211E-03     166.276E-03    -29.2775E-03    -136.998E-03    -45.4058E-03     74.6832E-03    -29.2775E-03     275.281E-03     108.150E+06     74.5111E+06    -19.2160E+06    -19.1577E+06     108.092E+06     74.5111E+06    -1.00235E+06         63.2262
             514     14.5788E-03     42.3564E-03     744.343E-03     568.463E-03    -297.013E-03    -295.493E-03     578.107E-03     733.178E-03    -39.5130E-03     75.4900E-03    -28.9080E-03    -46.5820E-03    -29.1908E-03     58.0988E-03    -28.9080E-03     81.8416E-03     79.8178E+06     10.9752E+06    -23.1112E+06    -23.0442E+06     79.7508E+06     10.9752E+06    -1.20035E+06         51.6343
             515     13.6040E-03     42.3073E-03     798.903E-03     415.983E-03    -178.872E-03    -176.463E-03     413.574E-03     798.903E-03    -26.7552E-03     61.6074E-03    -28.6622E-03    -32.9452E-03    -28.1661E-03     56.8283E-03    -28.6622E-03     41.0527E-03     68.7530E+06    -22.2171E+06    -32.9928E+06    -25.4063E+06     68.6963E+06    -29.7469E+06    -1.54238E+06         41.7089
             516     12.6332E-03     42.2705E-03     867.033E-03     424.140E-03    -239.638E-03    -42.0279E-03     226.530E-03     867.033E-03     453.788E-03     59.0947E-03    -28.6180E-03    -30.4767E-03    -28.2870E-03     56.9050E-03    -28.6180E-03     26.3595E-03     40.9966E+06    -25.5913E+06    -40.0168E+06    -25.5089E+06     40.9142E+06    -40.0168E+06    -1.78716E+06         34.7573
             517     11.6593E-03     42.2521E-03     935.801E-03     596.368E-03    -464.955E-03     104.167E-03     27.2463E-03     935.801E-03         1.03047     57.5959E-03    -28.6785E-03    -28.9174E-03    -28.2460E-03     56.9943E-03    -28.7483E-03     13.9142E-03    -2.47637E+06    -23.4124E+06    -41.1830E+06    -23.3826E+06    -14.2153E+06    -29.4739E+06    -761.521E+03         30.5329
             518     10.6882E-03     42.2417E-03         1.00389     611.488E-03    -530.322E-03     260.104E-03    -178.937E-03         1.00389         1.01721     57.7114E-03    -28.7740E-03    -28.9374E-03    -28.4902E-03     57.3923E-03    -28.9022E-03     10.4819E-03    -16.5242E+06    -22.4118E+06    -63.8123E+06    -22.4435E+06    -63.7806E+06    -16.5242E+06     96.1579E+03         28.1771
             519     9.71638E-03     42.2302E-03         1.07027     568.439E-03    -535.998E-03     415.387E-03    -382.946E-03         1.07027     730.412E-03     57.8993E-03    -28.8487E-03    -29.0507E-03    -28.6269E-03     57.6303E-03    -29.0035E-03     9.59416E-03    -10.9696E+06    -22.9905E+06    -99.9608E+06    -22.9948E+06    -99.9565E+06    -10.9696E+06     429.620E+03         26.8907
             520     8.74398E-03     42.2209E-03         1.13404     629.546E-03    -644.425E-03     574.687E-03    -589.566E-03         1.13404     153.740E-03     58.0362E-03    -28.9227E-03    -29.1134E-03    -28.7785E-03     57.8536E-03    -29.0750E-03     7.93055E-03    -8.92263E+06    -23.9282E+06    -128.065E+06    -23.9430E+06    -128.050E+06    -8.92263E+06     1.14192E+06         26.1522
             521     7.77271E-03     42.2139E-03         1.19403     815.808E-03    -878.405E-03     732.712E-03    -795.309E-03         1.19403    -678.621E-03     58.1407E-03    -28.9846E-03    -29.1561E-03    -28.8754E-03     58.0050E-03    -29.1296E-03     6.85394E-03    -8.26309E+06    -25.0957E+06    -151.430E+06    -25.1087E+06    -151.417E+06    -8.26309E+06     769.182E+03         25.6839
             522     6.80085E-03     42.2060E-03         1.24990     968.888E-03        -1.08215     873.602E-03    -986.864E-03         1.24990    -820.107E-03     58.2020E-03    -29.0346E-03    -29.1673E-03    -28.9300E-03     58.0973E-03    -29.1673E-03     6.02564E-03    -10.3783E+06    -26.2738E+06    -173.188E+06    -26.2759E+06    -173.186E+06    -10.3783E+06    -161.694E+03         25.3555
             523     5.82917E-03     42.2009E-03         1.30289         1.04480        -1.20603     992.078E-03        -1.15331         1.30289     83.1982E-03     58.3081E-03    -29.1151E-03    -29.1930E-03    -29.0452E-03     58.2278E-03    -29.1826E-03     5.28540E-03    -15.4200E+06    -28.5467E+06    -191.613E+06    -28.5509E+06    -191.609E+06    -15.4200E+06     81.2067E+03         25.1098
             524     4.85784E-03     42.1945E-03         1.35299         1.16022        -1.36481         1.11342        -1.31801         1.35299     665.596E-03     58.3421E-03    -29.0952E-03    -29.2469E-03    -29.0747E-03     58.2830E-03    -29.2083E-03     4.52735E-03    -18.4420E+06    -31.4732E+06    -211.875E+06    -31.4801E+06    -211.868E+06    -18.4420E+06     156.787E+03         24.9213
             525     3.88606E-03     42.1908E-03         1.40831         1.31514        -1.56935         1.23725        -1.48034         1.39719     947.081E-03     58.3190E-03    -29.0646E-03    -29.2544E-03    -29.0621E-03     58.2803E-03    -29.2181E-03     3.64448E-03    -23.1810E+06    -33.2267E+06    -224.021E+06    -33.2309E+06    -224.016E+06    -23.1810E+06    -334.807E+03         24.7781
             526     2.91423E-03     42.1873E-03         1.44295         1.41214        -1.70003         1.34529        -1.62206         1.43182     817.683E-03     58.4077E-03    -29.1321E-03    -29.2756E-03    -29.1888E-03     58.3852E-03    -29.1964E-03     2.76134E-03    -31.0266E+06    -35.4805E+06    -231.001E+06    -35.4960E+06    -230.986E+06    -31.0266E+06    -943.232E+03         24.6737
             527     1.94353E-03     42.1848E-03         1.84234         1.44014        -2.13036         1.40618        -1.71389         1.45983         1.96445     58.4366E-03    -29.1452E-03    -29.2914E-03    -29.2799E-03     58.4251E-03    -29.1452E-03     1.95466E-03    -35.3505E+06    -38.8614E+06    -238.986E+06    -38.8769E+06    -238.971E+06    -35.3505E+06    -408.658E+03         24.6033
             528     971.466E-06     42.1826E-03         3.38581     565.167E-03        -2.80928    -56.5298E-03        -1.80508         3.00330     465.024E-03     58.1699E-03    -29.0348E-03    -29.1351E-03    -29.1315E-03     58.1663E-03    -29.0348E-03     896.199E-06    -38.2288E+06    -40.5689E+06    -239.572E+06    -40.3381E+06    -239.560E+06    -38.4717E+06     350.468E+03         24.5620
             529     16.5141E-03     41.8899E-03     979.208E-03     573.154E-03    -585.231E-03    -549.457E-03     943.434E-03     573.154E-03    -464.617E-03     272.302E-03    -29.6655E-03    -242.636E-03    -67.8553E-03     97.5208E-03    -29.6655E-03     487.607E-03     153.862E+06     139.328E+06    -10.2647E+06    -10.2358E+06     148.230E+06     144.931E+06     100.424E+03         73.1682
             530     15.5541E-03     41.4208E-03     867.494E-03     614.586E-03    -491.191E-03    -470.377E-03     846.680E-03     614.586E-03    -248.515E-03     163.509E-03    -29.2880E-03    -134.221E-03    -44.9142E-03     74.2022E-03    -29.2880E-03     270.155E-03     108.994E+06     76.4082E+06    -17.9198E+06    -17.8590E+06     108.933E+06     76.4082E+06    -455.752E+03         63.1763
             531     14.5765E-03     41.2989E-03     776.364E-03     636.115E-03    -395.441E-03    -393.125E-03     738.240E-03     671.924E-03    -71.7221E-03     75.6743E-03    -28.9089E-03    -46.7654E-03    -28.9444E-03     57.8533E-03    -28.9089E-03     82.4073E-03     80.0209E+06     12.0259E+06    -22.4679E+06    -22.4190E+06     79.9720E+06     12.0259E+06    -203.910E+03         51.6715
             532     13.6051E-03     41.2478E-03     765.392E-03     584.361E-03    -310.912E-03    -308.386E-03     606.325E-03     740.902E-03    -78.7175E-03     61.6613E-03    -28.6632E-03    -32.9981E-03    -28.2920E-03     56.9551E-03    -28.6632E-03     40.8048E-03     69.3828E+06    -20.1927E+06    -32.7514E+06    -23.6365E+06     69.3669E+06    -29.2917E+06    -505.047E+03         41.7793
             533     12.6317E-03     41.2114E-03     815.111E-03     553.640E-03    -311.599E-03    -192.878E-03     434.919E-03     815.111E-03     383.314E-03     59.0145E-03    -28.6139E-03    -30.4006E-03    -28.2720E-03     56.8859E-03    -28.6139E-03     25.7613E-03     40.5542E+06    -23.6416E+06    -40.1209E+06    -23.5583E+06     40.4709E+06    -40.1209E+06    -1.72109E+06         34.8239
             534     11.6609E-03     41.1938E-03     892.008E-03     609.659E-03    -428.868E-03    -49.4455E-03     230.236E-03     892.008E-03     958.203E-03     57.6682E-03    -28.6689E-03    -28.9993E-03    -28.3709E-03     57.1118E-03    -28.7409E-03     13.4841E-03    -3.77617E+06    -23.8064E+06    -41.6942E+06    -23.7713E+06    -15.3886E+06    -30.1168E+06    -1.72551E+06         30.5793
             535     10.6880E-03     41.1822E-03     970.141E-03     551.405E-03    -432.442E-03     102.145E-03     16.8180E-03     970.141E-03     942.865E-03     57.7069E-03    -28.7831E-03    -28.9238E-03    -28.5088E-03     57.3974E-03    -28.8885E-03     10.3183E-03    -17.1379E+06    -23.7367E+06    -64.7769E+06    -23.7770E+06    -64.7366E+06    -17.1379E+06    -646.836E+03         28.2042
             536     9.71628E-03     41.1716E-03         1.04844     456.518E-03    -396.641E-03     264.482E-03    -204.604E-03         1.04844     667.843E-03     57.9079E-03    -28.8568E-03    -29.0511E-03    -28.6632E-03     57.6498E-03    -28.9866E-03     9.41529E-03    -11.1705E+06    -24.4372E+06    -100.534E+06    -24.4457E+06    -100.525E+06    -11.1705E+06     444.222E+03         26.9049
             537     8.74447E-03     41.1622E-03         1.12526     515.937E-03    -516.887E-03     443.975E-03    -444.926E-03         1.12526     93.6015E-03     57.9745E-03    -28.8760E-03    -29.0985E-03    -28.7539E-03     57.7968E-03    -29.0428E-03     7.80968E-03    -11.0018E+06    -24.9323E+06    -127.653E+06    -24.9910E+06    -127.595E+06    -11.0018E+06    -456.398E+03         26.1592
             538     7.77276E-03     41.1540E-03         1.19809     733.587E-03    -797.670E-03     636.664E-03    -700.747E-03         1.19809    -718.451E-03     58.0980E-03    -28.9724E-03    -29.1256E-03    -28.8777E-03     57.9679E-03    -29.0902E-03     6.72065E-03    -11.2316E+06    -24.5590E+06    -151.721E+06    -24.6122E+06    -151.668E+06    -11.2316E+06    -1.04667E+06         25.6872
             539     6.80109E-03     41.1481E-03         1.26576     915.076E-03        -1.04065     809.118E-03    -934.688E-03         1.26576    -844.103E-03     58.1896E-03    -29.0501E-03    -29.1395E-03    -28.9538E-03     58.0843E-03    -29.1306E-03     6.04518E-03    -12.3091E+06    -26.5747E+06    -173.898E+06    -26.5913E+06    -173.882E+06    -12.3091E+06     449.974E+03         25.3570
             540     5.82949E-03     41.1408E-03         1.32979         1.01077        -1.19740     953.315E-03        -1.13994         1.32979     61.4994E-03     58.2237E-03    -29.0650E-03    -29.1587E-03    -28.9949E-03     58.1432E-03    -29.1483E-03     5.28691E-03    -16.6878E+06    -30.1991E+06    -191.928E+06    -30.2185E+06    -191.909E+06    -16.6878E+06     779.772E+03         25.1102
             541     4.85783E-03     41.1365E-03         1.39062         1.13852        -1.38096         1.09681        -1.33925         1.39062     613.932E-03     58.2142E-03    -29.0313E-03    -29.1829E-03    -28.9842E-03     58.1567E-03    -29.1725E-03     4.45019E-03    -21.0614E+06    -32.5606E+06    -211.451E+06    -32.5668E+06    -211.445E+06    -21.0614E+06    -267.932E+03         24.9211
             542     3.88593E-03     41.1315E-03         1.45030         1.32195        -1.61853         1.24372        -1.53531         1.44530     903.576E-03     58.2726E-03    -29.0785E-03    -29.1941E-03    -29.0490E-03     58.2351E-03    -29.1861E-03     3.58830E-03    -26.4710E+06    -34.6527E+06    -224.309E+06    -34.6593E+06    -224.302E+06    -26.4710E+06    -1.03688E+06         24.7775
             543     2.91485E-03     41.1284E-03         1.49177         1.45840        -1.79718         1.38979        -1.72358         1.48677     721.429E-03     58.4055E-03    -29.1510E-03    -29.2545E-03    -29.2145E-03     58.3822E-03    -29.1677E-03     2.81914E-03    -31.9363E+06    -36.7202E+06    -232.111E+06    -36.7322E+06    -232.099E+06    -31.9363E+06     207.268E+03         24.6729
             544     1.94293E-03     41.1253E-03         1.92831         1.49418        -2.27627         1.47317        -1.83993         1.51299         1.96692     58.3415E-03    -29.0993E-03    -29.2422E-03    -29.2066E-03     58.3298E-03    -29.1232E-03     1.97132E-03    -34.7277E+06    -38.7999E+06    -238.909E+06    -38.8084E+06    -238.900E+06    -34.7277E+06     897.637E+03         24.6022
             545     972.040E-06     41.1246E-03         3.65813     649.612E-03        -3.17734    -197.008E-03        -1.91540         3.24281     221.796E-03     58.1413E-03    -29.0139E-03    -29.1274E-03    -29.0997E-03     58.1376E-03    -29.0379E-03     1.00147E-03    -38.5516E+06    -41.0096E+06    -239.640E+06    -40.9080E+06    -239.634E+06    -38.6587E+06    -413.671E+03         24.5608
             546     16.5297E-03     40.8217E-03         1.08188     507.256E-03    -623.683E-03    -590.205E-03         1.04840     507.256E-03    -471.207E-03     271.905E-03    -29.5096E-03    -242.395E-03    -68.2485E-03     97.7582E-03    -29.5096E-03     486.696E-03     154.981E+06     139.324E+06    -9.08302E+06    -9.05082E+06     148.891E+06     145.382E+06     907.036E+03         73.0417
             547     15.5491E-03     40.3688E-03         1.02450     545.444E-03    -570.850E-03    -551.328E-03         1.00498     545.444E-03    -288.187E-03     161.422E-03    -29.1895E-03    -132.232E-03    -41.9085E-03     71.0980E-03    -29.1895E-03     268.182E-03     109.148E+06     75.5098E+06    -17.5114E+06    -17.4847E+06     109.121E+06     75.5098E+06     26.1797E+03         63.1455
             548     14.5772E-03     40.2358E-03     923.839E-03     603.149E-03    -497.944E-03    -493.838E-03     919.734E-03     603.149E-03    -135.531E-03     76.2391E-03    -28.8832E-03    -47.3559E-03    -29.1542E-03     58.0374E-03    -28.8832E-03     82.9201E-03     79.9772E+06     12.0654E+06    -22.4202E+06    -22.4039E+06     79.9609E+06     12.0654E+06     116.879E+03         51.7099
             549     13.6053E-03     40.1908E-03     825.148E-03     647.643E-03    -418.876E-03    -413.735E-03     793.493E-03     674.158E-03    -153.541E-03     61.3161E-03    -28.6348E-03    -32.6813E-03    -28.3259E-03     56.9607E-03    -28.6348E-03     39.3250E-03     69.6119E+06    -19.5075E+06    -32.0815E+06    -23.5766E+06     69.6066E+06    -28.0072E+06    -679.533E+03         41.8531
             550     12.6330E-03     40.1515E-03     785.409E-03     672.064E-03    -385.167E-03    -315.961E-03     636.459E-03     751.808E-03     294.134E-03     58.7755E-03    -28.5854E-03    -30.1902E-03    -28.0824E-03     56.6677E-03    -28.5854E-03     25.5917E-03     40.2866E+06    -22.8440E+06    -39.2409E+06    -22.8245E+06     40.2670E+06    -39.2409E+06    -902.416E+03         34.8930
             551     11.6602E-03     40.1351E-03     834.295E-03     685.611E-03    -432.844E-03    -191.236E-03     444.004E-03     834.295E-03     872.857E-03     57.6614E-03    -28.6729E-03    -28.9885E-03    -28.4000E-03     57.1131E-03    -28.7131E-03     13.3178E-03    -3.92840E+06    -22.5943E+06    -41.5380E+06    -22.6016E+06    -15.7496E+06    -29.7096E+06    -822.499E+03         30.6274
             552     10.6888E-03     40.1235E-03     919.698E-03     557.907E-03    -373.897E-03    -35.1299E-03     219.140E-03     919.698E-03     868.306E-03     57.6593E-03    -28.7393E-03    -28.9200E-03    -28.5005E-03     57.3587E-03    -28.8581E-03     10.1492E-03    -17.2381E+06    -23.5071E+06    -66.4383E+06    -23.5320E+06    -66.4134E+06    -17.2381E+06    -471.567E+03         28.2326
             553     9.71652E-03     40.1125E-03         1.00553     403.490E-03    -287.391E-03     145.853E-03    -29.7539E-03         1.00553     612.810E-03     57.8251E-03    -28.8515E-03    -28.9736E-03    -28.6239E-03     57.5683E-03    -28.9444E-03     9.37706E-03    -12.6666E+06    -23.5484E+06    -100.262E+06    -23.6253E+06    -100.186E+06    -12.6666E+06    -1.07575E+06         26.9197
             554     8.74511E-03     40.1030E-03         1.08971     433.562E-03    -386.431E-03     339.970E-03    -292.838E-03         1.08971     50.7988E-03     57.9359E-03    -28.9103E-03    -29.0256E-03    -28.7627E-03     57.7577E-03    -28.9950E-03     7.82852E-03    -12.8584E+06    -23.0296E+06    -126.727E+06    -23.1557E+06    -126.601E+06    -12.8584E+06    -1.95804E+06         26.1664
             555     7.77285E-03     40.0959E-03         1.17107     653.770E-03    -677.562E-03     530.329E-03    -554.121E-03         1.17107    -752.867E-03     57.9868E-03    -28.9251E-03    -29.0616E-03    -28.8053E-03     57.8566E-03    -29.0513E-03     6.70887E-03    -13.2873E+06    -25.3599E+06    -154.099E+06    -25.4118E+06    -154.047E+06    -13.2873E+06    -799.414E+03         25.6905
             556     6.80131E-03     40.0881E-03         1.24941     839.212E-03    -938.000E-03     709.817E-03    -808.605E-03         1.24941    -875.209E-03     58.1103E-03    -29.0009E-03    -29.1094E-03    -28.9055E-03     58.0059E-03    -29.1004E-03     6.02076E-03    -13.1260E+06    -27.8795E+06    -174.828E+06    -27.8995E+06    -174.807E+06    -13.1260E+06     631.333E+03         25.3583
             557     5.82964E-03     40.0829E-03         1.32405     947.216E-03        -1.12094     888.856E-03        -1.06258         1.32405     3.35982E-03     58.1441E-03    -29.0188E-03    -29.1253E-03    -28.9381E-03     58.0635E-03    -29.1253E-03     5.27868E-03    -15.7025E+06    -28.2509E+06    -191.678E+06    -28.2700E+06    -191.659E+06    -15.7025E+06     237.282E+03         25.1105
             558     4.85776E-03     40.0768E-03         1.39331         1.09693        -1.33492         1.06241        -1.30040         1.39331     547.557E-03     58.2101E-03    -29.0618E-03    -29.1483E-03    -29.0058E-03     58.1541E-03    -29.1483E-03     4.39270E-03    -19.7891E+06    -29.6022E+06    -210.520E+06    -29.6038E+06    -210.519E+06    -19.7891E+06    -454.285E+03         24.9209
             559     3.88656E-03     40.0734E-03         1.45564         1.29133        -1.58814         1.22136        -1.51817         1.45564     818.244E-03     58.2715E-03    -29.1086E-03    -29.1630E-03    -29.0698E-03     58.2328E-03    -29.1630E-03     3.66023E-03    -24.0222E+06    -32.4349E+06    -225.221E+06    -32.4423E+06    -225.213E+06    -24.0222E+06    -330.587E+03         24.7770
             560     2.91442E-03     40.0688E-03         1.50944         1.42405        -1.77511         1.36225        -1.71332         1.50944     629.780E-03     58.2555E-03    -29.0711E-03    -29.1844E-03    -29.0598E-03     58.2307E-03    -29.1709E-03     2.90239E-03    -28.4936E+06    -35.3940E+06    -234.047E+06    -35.4077E+06    -234.033E+06    -28.4936E+06     595.000E+03         24.6721
             561     1.94338E-03     40.0671E-03         1.94862         1.49397        -2.29215         1.49212        -1.88962         1.54795         1.88500     58.2969E-03    -29.0825E-03    -29.2144E-03    -29.1097E-03     58.2854E-03    -29.1757E-03     1.93323E-03    -32.4818E+06    -36.9934E+06    -238.054E+06    -36.9760E+06    -238.045E+06    -32.5076E+06     348.738E+03         24.6013
             562     971.025E-06     40.0651E-03         3.82221     581.340E-03        -3.26907    -297.974E-03        -1.98909         3.42154     192.457E-03     58.3164E-03    -29.0814E-03    -29.2349E-03    -29.2076E-03     58.3130E-03    -29.1054E-03     839.205E-06    -37.3804E+06    -38.8889E+06    -239.670E+06    -38.7724E+06    -239.669E+06    -37.4981E+06    -251.863E+03         24.5599
             563     16.5295E-03     39.7745E-03         1.21505     435.368E-03    -671.095E-03    -639.416E-03         1.18337     435.368E-03    -481.923E-03     271.472E-03    -29.4130E-03    -242.059E-03    -68.3293E-03     97.7422E-03    -29.4130E-03     485.869E-03     155.079E+06     139.094E+06    -8.33463E+06    -8.28945E+06     148.064E+06     146.064E+06     1.36674E+06         72.9173
             564     15.5541E-03     39.3099E-03         1.19534     471.305E-03    -647.014E-03    -626.845E-03         1.17517     471.305E-03    -327.791E-03     162.996E-03    -29.1049E-03    -133.891E-03    -41.8845E-03     70.9894E-03    -29.1049E-03     271.567E-03     110.130E+06     77.1321E+06    -16.0935E+06    -16.0345E+06     110.071E+06     77.1321E+06     1.92420E+06         63.1151
             565     14.5791E-03     39.1784E-03         1.11306     528.657E-03    -588.138E-03    -581.597E-03         1.10652     528.657E-03    -193.630E-03     76.2731E-03    -28.8119E-03    -47.4612E-03    -29.0853E-03     57.8972E-03    -28.8119E-03     83.5291E-03     80.4388E+06     12.0912E+06    -21.0496E+06    -21.0151E+06     80.4042E+06     12.0912E+06     407.632E+03         51.7524
             566     13.6063E-03     39.1297E-03     987.549E-03     600.186E-03    -508.770E-03    -500.189E-03     978.968E-03     600.186E-03    -224.613E-03     60.8560E-03    -28.5792E-03    -32.2767E-03    -27.9538E-03     56.5330E-03    -28.5792E-03     38.9177E-03     70.1843E+06    -19.8020E+06    -30.3681E+06    -22.6279E+06     70.1791E+06    -27.5370E+06    -662.419E+03         41.9284
             567     12.6334E-03     39.0953E-03     869.618E-03     678.114E-03    -450.953E-03    -406.344E-03     824.406E-03     678.716E-03     219.388E-03     58.6208E-03    -28.5444E-03    -30.0764E-03    -27.9754E-03     56.5198E-03    -28.5444E-03     25.8344E-03     40.2932E+06    -22.2393E+06    -38.8605E+06    -22.2311E+06     40.2851E+06    -38.8605E+06    -371.083E+03         34.9622
             568     11.6610E-03     39.0745E-03     831.424E-03     731.420E-03    -451.548E-03    -292.192E-03     640.602E-03     762.886E-03     791.128E-03     57.5395E-03    -28.6355E-03    -28.9040E-03    -28.2765E-03     56.9536E-03    -28.6771E-03     13.5163E-03    -4.20115E+06    -21.8529E+06    -43.0716E+06    -21.8495E+06    -17.2778E+06    -29.9982E+06    -91.7099E+03         30.6760
             569     10.6891E-03     39.0657E-03     864.618E-03     613.356E-03    -352.038E-03    -136.646E-03     411.767E-03     850.816E-03     794.811E-03     57.6362E-03    -28.7409E-03    -28.8953E-03    -28.5158E-03     57.3435E-03    -28.8277E-03     10.0157E-03    -15.6917E+06    -21.1269E+06    -65.5771E+06    -21.1497E+06    -65.5543E+06    -15.6917E+06    -668.632E+03         28.2611
             570     9.71713E-03     39.0532E-03     939.169E-03     402.486E-03    -199.072E-03     54.6019E-03     148.812E-03     939.169E-03     533.807E-03     57.7126E-03    -28.7957E-03    -28.9169E-03    -28.5267E-03     57.4378E-03    -28.9111E-03     9.67614E-03    -12.0627E+06    -21.6395E+06    -99.1980E+06    -21.7322E+06    -99.1053E+06    -12.0627E+06    -2.09897E+06         26.9347
             571     8.74473E-03     39.0447E-03         1.02589     373.082E-03    -240.273E-03     248.932E-03    -116.123E-03         1.02589    -10.6581E-03     57.8692E-03    -28.8875E-03    -28.9818E-03    -28.7077E-03     57.6881E-03    -28.9804E-03     7.88491E-03    -11.6574E+06    -24.5791E+06    -129.165E+06    -24.6531E+06    -129.091E+06    -11.6574E+06    -1.15936E+06         26.1736
             572     7.77358E-03     39.0363E-03         1.11129     598.289E-03    -541.848E-03     426.567E-03    -370.125E-03         1.11129    -800.948E-03     57.9763E-03    -28.9383E-03    -29.0380E-03    -28.8057E-03     57.8423E-03    -29.0366E-03     6.80944E-03    -11.1148E+06    -26.4283E+06    -154.333E+06    -26.4618E+06    -154.299E+06    -11.1148E+06    -463.486E+03         25.6939
             573     6.80143E-03     39.0302E-03         1.19591     770.561E-03    -798.286E-03     603.623E-03    -631.348E-03         1.19591    -906.870E-03     57.9938E-03    -28.9202E-03    -29.0736E-03    -28.8117E-03     57.8853E-03    -29.0736E-03     6.12536E-03    -13.0967E+06    -25.7997E+06    -175.406E+06    -25.8419E+06    -175.364E+06    -13.0967E+06    -1.70468E+06         25.3597
             574     5.82964E-03     39.0231E-03         1.27764     858.289E-03    -969.422E-03     799.687E-03    -910.820E-03         1.27764    -41.4074E-03     58.0989E-03    -28.9927E-03    -29.1062E-03    -28.9093E-03     58.0155E-03    -29.1062E-03     5.36831E-03    -15.8356E+06    -26.0063E+06    -192.816E+06    -26.0175E+06    -192.805E+06    -15.8356E+06    -725.327E+03         25.1111
             575     4.85821E-03     39.0189E-03         1.35382         1.02047        -1.20750     987.002E-03        -1.17403         1.35382     527.599E-03     58.2210E-03    -29.0803E-03    -29.1407E-03    -29.0208E-03     58.1615E-03    -29.1407E-03     4.53186E-03    -17.5583E+06    -28.4312E+06    -210.469E+06    -28.4327E+06    -210.467E+06    -17.5583E+06     142.439E+03         24.9211
             576     3.88612E-03     39.0135E-03         1.42211         1.22312        -1.47527         1.16716        -1.41931         1.42211     737.016E-03     58.2383E-03    -29.0769E-03    -29.1614E-03    -29.0376E-03     58.1990E-03    -29.1614E-03     3.67650E-03    -20.9093E+06    -31.4896E+06    -226.477E+06    -31.4941E+06    -226.472E+06    -20.9093E+06     163.613E+03         24.7771
             577     2.91505E-03     39.0111E-03         1.48519         1.34572        -1.65734         1.29680        -1.60842         1.48519     635.642E-03     58.2070E-03    -29.0339E-03    -29.1731E-03    -29.0200E-03     58.1827E-03    -29.1627E-03     2.88684E-03    -27.6974E+06    -33.9289E+06    -234.311E+06    -33.8993E+06    -234.305E+06    -27.7330E+06     561.596E+03         24.6721
             578     1.94253E-03     39.0074E-03         1.84735         1.44762        -2.13435         1.45432        -1.83087         1.53717         1.70305     58.2731E-03    -29.0638E-03    -29.2093E-03    -29.0878E-03     58.2614E-03    -29.1736E-03     1.92245E-03    -33.2979E+06    -36.2923E+06    -238.128E+06    -36.2347E+06    -238.124E+06    -33.3593E+06     277.168E+03         24.6011
             579     972.079E-06     39.0068E-03         3.84403     242.820E-03        -2.93484    -418.351E-03        -1.96349         3.53385     522.546E-03     58.3434E-03    -29.0882E-03    -29.2553E-03    -29.1681E-03     58.3403E-03    -29.1722E-03     820.106E-06    -36.4755E+06    -37.9760E+06    -239.064E+06    -37.7806E+06    -239.060E+06    -36.6746E+06     313.004E+03         24.5595
             580     16.5251E-03     38.7125E-03         1.35775     360.353E-03    -708.303E-03    -677.266E-03         1.32671     360.353E-03    -498.830E-03     270.559E-03    -29.5020E-03    -241.057E-03    -67.6434E-03     97.1455E-03    -29.5020E-03     484.333E-03     152.760E+06     138.031E+06    -10.3711E+06    -10.3126E+06     145.818E+06     144.914E+06    -902.415E+03         72.7657
             581     15.5522E-03     38.2523E-03         1.35538     393.469E-03    -695.121E-03    -674.081E-03         1.33434     393.469E-03    -362.274E-03     164.245E-03    -29.1453E-03    -135.099E-03    -44.1810E-03     73.3263E-03    -29.1453E-03     272.553E-03     109.947E+06     78.8699E+06    -17.0346E+06    -16.9562E+06     109.869E+06     78.8699E+06     1.08270E+06         63.0584
             582     14.5800E-03     38.1193E-03         1.28067     448.252E-03    -641.003E-03    -633.057E-03         1.27272     448.252E-03    -231.517E-03     76.5291E-03    -28.7788E-03    -47.7503E-03    -29.0778E-03     57.8566E-03    -28.7788E-03     84.6456E-03     81.3874E+06     13.0910E+06    -20.1545E+06    -20.1137E+06     81.3466E+06     13.0910E+06     1.20893E+06         51.7895
             583     13.6063E-03     38.0725E-03         1.17346     517.921E-03    -578.666E-03    -568.517E-03         1.16331     517.921E-03    -264.416E-03     60.7466E-03    -28.5481E-03    -32.1985E-03    -27.6425E-03     56.1906E-03    -28.5481E-03     39.8565E-03     69.8980E+06    -20.0600E+06    -30.4719E+06    -21.6025E+06     69.8852E+06    -28.9166E+06     294.040E+03         42.0000
             584     12.6338E-03     38.0356E-03         1.04426     595.091E-03    -508.412E-03    -476.242E-03         1.01209     595.091E-03     169.220E-03     58.8431E-03    -28.5231E-03    -30.3200E-03    -28.1132E-03     56.6364E-03    -28.5231E-03     26.4201E-03     40.4129E+06    -22.0918E+06    -39.5983E+06    -22.0820E+06     40.4031E+06    -39.5983E+06     433.316E+03         35.0301
             585     11.6615E-03     38.0171E-03     929.771E-03     677.427E-03    -463.869E-03    -352.530E-03     818.433E-03     677.427E-03     716.200E-03     57.4974E-03    -28.5164E-03    -28.9810E-03    -28.2250E-03     56.8819E-03    -28.6569E-03     14.0086E-03    -2.93503E+06    -21.0790E+06    -43.3580E+06    -20.8706E+06    -17.0393E+06    -29.4621E+06    -445.058E+03         30.7247
             586     10.6891E-03     38.0057E-03     842.794E-03     655.440E-03    -342.533E-03    -203.961E-03     596.465E-03     763.197E-03     711.616E-03     57.5341E-03    -28.6746E-03    -28.8595E-03    -28.4047E-03     57.2198E-03    -28.8151E-03     10.3773E-03    -14.5869E+06    -20.8226E+06    -65.0848E+06    -20.6416E+06    -64.9999E+06    -14.8527E+06    -1.41539E+06         28.2899
             587     9.71713E-03     37.9956E-03     850.050E-03     466.304E-03    -144.048E-03    -26.9078E-03     349.164E-03     850.050E-03     438.822E-03     57.7819E-03    -28.8252E-03    -28.9567E-03    -28.5925E-03     57.5048E-03    -28.9123E-03     9.74461E-03    -9.42881E+06    -22.9182E+06    -99.8384E+06    -22.9603E+06    -99.7963E+06    -9.42881E+06    -193.641E+03         26.9500
             588     8.74549E-03     37.9851E-03     936.039E-03     372.176E-03    -121.338E-03     161.644E-03     89.1946E-03     936.039E-03    -84.7727E-03     57.7629E-03    -28.7951E-03    -28.9678E-03    -28.6031E-03     57.5709E-03    -28.9678E-03     8.10117E-03    -11.4599E+06    -24.9517E+06    -129.910E+06    -25.0443E+06    -129.818E+06    -11.4599E+06    -810.886E+03         26.1815
             589     7.77310E-03     37.9783E-03         1.02017     599.357E-03    -425.255E-03     350.284E-03    -176.182E-03         1.02017    -866.879E-03     57.9010E-03    -28.8863E-03    -29.0147E-03    -28.7429E-03     57.7577E-03    -29.0147E-03     7.04068E-03    -13.4218E+06    -24.7241E+06    -153.687E+06    -24.8324E+06    -153.578E+06    -13.4218E+06    -2.76306E+06         25.6979
             590     6.80167E-03     37.9706E-03         1.10265     738.401E-03    -645.996E-03     524.277E-03    -431.872E-03         1.10265    -930.167E-03     58.0081E-03    -28.9475E-03    -29.0607E-03    -28.8322E-03     57.8928E-03    -29.0607E-03     6.31208E-03    -15.4994E+06    -26.3844E+06    -176.807E+06    -26.4290E+06    -176.763E+06    -15.4994E+06    -1.89059E+06         25.3620
             591     5.82973E-03     37.9654E-03         1.18335     756.436E-03    -751.649E-03     702.753E-03    -697.965E-03         1.18335    -96.0419E-03     58.0386E-03    -28.9467E-03    -29.0919E-03    -28.8581E-03     57.9500E-03    -29.0919E-03     5.54200E-03    -20.0449E+06    -29.7944E+06    -195.139E+06    -29.8034E+06    -195.130E+06    -20.0449E+06    -371.423E+03         25.1126
             592     4.85776E-03     37.9589E-03         1.26084     922.879E-03    -997.952E-03     880.415E-03    -955.488E-03         1.26084     546.100E-03     58.1525E-03    -29.0220E-03    -29.1305E-03    -28.9571E-03     58.0876E-03    -29.1305E-03     4.72521E-03    -22.0466E+06    -31.6998E+06    -210.699E+06    -31.7022E+06    -210.697E+06    -22.0466E+06     310.598E+03         24.9223
             593     3.88671E-03     37.9558E-03         1.33103         1.12112        -1.26379         1.06984        -1.21251         1.33103     666.421E-03     58.2843E-03    -29.0774E-03    -29.2069E-03    -29.0860E-03     58.2427E-03    -29.1567E-03     3.78643E-03    -24.0448E+06    -33.7053E+06    -226.444E+06    -33.7070E+06    -226.442E+06    -24.0448E+06     118.431E+03         24.7781
             594     2.91432E-03     37.9514E-03         1.39431         1.26768        -1.46803         1.20798        -1.40834         1.39431     743.554E-03     58.2879E-03    -29.0892E-03    -29.1987E-03    -29.1258E-03     58.2640E-03    -29.1382E-03     2.84800E-03    -29.6600E+06    -36.2452E+06    -235.434E+06    -36.2131E+06    -235.430E+06    -29.6956E+06     311.896E+03         24.6730
             595     1.94376E-03     37.9495E-03         1.62032         1.38322        -1.81867         1.37319        -1.63062         1.44231         1.42846     58.1638E-03    -29.0129E-03    -29.1509E-03    -29.0122E-03     58.1528E-03    -29.1406E-03     1.91189E-03    -33.7392E+06    -37.7613E+06    -237.922E+06    -37.7294E+06    -237.918E+06    -33.7749E+06     482.098E+03         24.6018
             596     970.877E-06     37.9470E-03         3.75518     75.0178E-03        -2.65060    -658.233E-03        -1.73933         3.57717         1.20211     58.2921E-03    -29.0091E-03    -29.2830E-03    -29.1112E-03     58.2880E-03    -29.1769E-03     1.12565E-03    -36.6522E+06    -38.9165E+06    -239.095E+06    -38.7472E+06    -239.091E+06    -36.8255E+06     95.3895E+03         24.5598
             597     16.5204E-03     37.6468E-03         1.50610     282.816E-03    -736.734E-03    -708.988E-03         1.47835     282.816E-03    -491.327E-03     270.102E-03    -29.5678E-03    -240.534E-03    -67.4050E-03     96.9728E-03    -29.5678E-03     483.437E-03     152.443E+06     138.315E+06    -10.3002E+06    -10.2594E+06     145.829E+06     144.888E+06    -391.278E+03         72.6158
             598     15.5522E-03     37.1910E-03         1.50093     311.409E-03    -717.373E-03    -698.167E-03         1.48173     311.409E-03    -369.966E-03     162.451E-03    -29.1903E-03    -133.261E-03    -44.3302E-03     73.5204E-03    -29.1903E-03     268.441E-03     108.557E+06     77.3366E+06    -18.6194E+06    -18.5747E+06     108.512E+06     77.3366E+06    -1.36332E+06         63.0044
             599     14.5795E-03     37.0612E-03         1.43252     361.529E-03    -665.538E-03    -657.278E-03         1.42426     361.529E-03    -252.001E-03     76.2424E-03    -28.8039E-03    -47.4385E-03    -29.0744E-03     57.8783E-03    -28.8039E-03     84.1214E-03     80.7131E+06     12.3881E+06    -21.9938E+06    -21.9556E+06     80.6750E+06     12.3881E+06     208.268E+03         51.8225
             600     13.6060E-03     37.0148E-03         1.33949     426.589E-03    -611.799E-03    -601.303E-03         1.32900     426.589E-03    -284.564E-03     61.1645E-03    -28.5709E-03    -32.5936E-03    -27.8310E-03     56.4020E-03    -28.5709E-03     40.8690E-03     69.7714E+06    -19.6892E+06    -30.8714E+06    -22.1773E+06     69.7487E+06    -28.3607E+06     1.40718E+06         42.0702
             601     12.6332E-03     36.9761E-03         1.21894     499.416E-03    -547.225E-03    -523.024E-03         1.19474     499.416E-03     127.573E-03     58.9968E-03    -28.5338E-03    -30.4630E-03    -28.2169E-03     56.7507E-03    -28.5338E-03     26.5817E-03     40.7906E+06    -20.8840E+06    -39.0339E+06    -20.8427E+06     40.7493E+06    -39.0339E+06     244.388E+03         35.0988
             602     11.6615E-03     36.9586E-03         1.08412     577.491E-03    -479.128E-03    -401.451E-03         1.00645     577.491E-03     643.032E-03     57.4896E-03    -28.5612E-03    -28.9284E-03    -28.2152E-03     56.8752E-03    -28.6601E-03     14.1511E-03    -2.74797E+06    -20.1407E+06    -42.2766E+06    -19.6968E+06    -15.8493E+06    -29.6191E+06    -434.828E+03         30.7742
             603     10.6889E-03     36.9475E-03     900.596E-03     633.528E-03    -339.878E-03    -250.623E-03     786.577E-03     658.293E-03     625.828E-03     57.5856E-03    -28.6904E-03    -28.8953E-03    -28.4246E-03     57.2442E-03    -28.8196E-03     10.8336E-03    -15.5806E+06    -21.8385E+06    -66.4426E+06    -21.4321E+06    -66.3297E+06    -16.0999E+06     9.76806E+03         28.3200
             604     9.71733E-03     36.9359E-03     783.867E-03     558.208E-03    -134.846E-03    -86.8376E-03     554.274E-03     739.792E-03     348.099E-03     57.7819E-03    -28.8336E-03    -28.9483E-03    -28.5866E-03     57.4962E-03    -28.9097E-03     9.89415E-03    -11.4643E+06    -22.1875E+06    -100.431E+06    -22.2786E+06    -100.340E+06    -11.4643E+06    -426.444E+03         26.9667
             605     8.74504E-03     36.9274E-03     820.560E-03     461.054E-03    -60.4501E-03     91.3955E-03     309.208E-03     820.560E-03    -148.047E-03     57.7887E-03    -28.8255E-03    -28.9632E-03    -28.6188E-03     57.5820E-03    -28.9632E-03     8.42624E-03    -12.4075E+06    -20.9019E+06    -127.567E+06    -21.0605E+06    -127.408E+06    -12.4075E+06    -1.95266E+06         26.1906
             606     7.77334E-03     36.9189E-03     915.226E-03     649.842E-03    -335.646E-03     283.897E-03     47.0162E-03     898.508E-03    -945.581E-03     57.8849E-03    -28.8565E-03    -29.0283E-03    -28.7045E-03     57.7329E-03    -29.0283E-03     7.22801E-03    -14.0040E+06    -23.6548E+06    -155.907E+06    -23.7363E+06    -155.825E+06    -14.0040E+06    -1.46813E+06         25.7033
             607     6.80118E-03     36.9125E-03     989.961E-03     727.143E-03    -490.298E-03     452.047E-03    -198.483E-03     973.243E-03    -969.544E-03     58.0261E-03    -28.9411E-03    -29.0850E-03    -28.8237E-03     57.9087E-03    -29.0850E-03     6.37747E-03    -15.8623E+06    -28.4211E+06    -178.577E+06    -28.4330E+06    -178.565E+06    -15.8623E+06     104.659E+03         25.3657
             608     5.82968E-03     36.9059E-03         1.04567     662.234E-03    -490.119E-03     612.930E-03    -440.815E-03         1.04567    -203.318E-03     58.1079E-03    -28.9955E-03    -29.1124E-03    -28.9035E-03     58.0149E-03    -29.1114E-03     5.66967E-03    -20.6754E+06    -31.2956E+06    -195.870E+06    -31.2981E+06    -195.867E+06    -20.6754E+06     259.375E+03         25.1155
             609     4.85800E-03     36.9012E-03         1.11582     836.430E-03    -737.847E-03     766.877E-03    -668.294E-03         1.11582     540.584E-03     58.1563E-03    -29.0212E-03    -29.1351E-03    -28.9562E-03     58.0903E-03    -29.1340E-03     4.77381E-03    -25.3060E+06    -32.7385E+06    -210.945E+06    -32.7443E+06    -210.939E+06    -25.3060E+06    -147.607E+03         24.9247
             610     3.88567E-03     36.8959E-03         1.17945         1.01587    -982.706E-03     943.732E-03    -910.565E-03         1.17945     526.416E-03     58.3212E-03    -29.0987E-03    -29.2225E-03    -29.1054E-03     58.2777E-03    -29.1723E-03     3.87082E-03    -25.0852E+06    -33.6706E+06    -226.474E+06    -33.6748E+06    -226.470E+06    -25.0852E+06    -301.021E+03         24.7802
             611     2.91536E-03     36.8932E-03         1.29951         1.15718        -1.23742         1.07204        -1.08832         1.23555     864.309E-03     58.3900E-03    -29.1543E-03    -29.2357E-03    -29.1945E-03     58.3648E-03    -29.1703E-03     2.92947E-03    -25.8826E+06    -35.3629E+06    -236.232E+06    -35.3639E+06    -236.231E+06    -25.8826E+06    -92.6851E+03         24.6748
             612     1.94275E-03     36.8901E-03         1.43401         1.25852        -1.47877         1.24117        -1.29680         1.26939         1.04529     58.2665E-03    -29.0232E-03    -29.2433E-03    -29.1453E-03     58.2555E-03    -29.1102E-03     1.86572E-03    -31.3575E+06    -37.8850E+06    -237.393E+06    -37.8892E+06    -237.388E+06    -31.3575E+06    -533.141E+03         24.6034
             613     971.913E-06     36.8895E-03         3.61277     594.567E-03        -3.00173    -960.803E-03        -1.34569         3.51210         2.13794     58.1084E-03    -28.8721E-03    -29.2363E-03    -29.1487E-03     58.1045E-03    -28.9558E-03     1.09523E-03    -38.2413E+06    -41.4023E+06    -241.426E+06    -40.8365E+06    -241.419E+06    -38.8139E+06    -395.127E+03         24.5613
             614     16.5266E-03     36.5875E-03         1.65110     201.478E-03    -753.279E-03    -729.162E-03         1.62698     201.478E-03    -474.690E-03     269.499E-03    -29.5022E-03    -239.997E-03    -67.3822E-03     96.8843E-03    -29.5022E-03     482.266E-03     154.116E+06     139.012E+06    -8.60981E+06    -8.58917E+06     146.727E+06     146.380E+06     249.737E+03         72.5031
             615     15.5523E-03     36.1299E-03         1.64237     224.115E-03    -727.030E-03    -709.951E-03         1.62529     224.115E-03    -361.928E-03     161.263E-03    -29.1704E-03    -132.093E-03    -42.4566E-03     71.6271E-03    -29.1704E-03     267.352E-03     108.082E+06     77.2195E+06    -16.5681E+06    -16.5214E+06     108.036E+06     77.2195E+06    -106.502E+03         62.9802
             616     14.5782E-03     36.0052E-03         1.58483     268.347E-03    -680.358E-03    -671.935E-03         1.57641     268.347E-03    -262.165E-03     76.2642E-03    -28.8467E-03    -47.4176E-03    -29.0875E-03     57.9342E-03    -28.8467E-03     84.0218E-03     78.9530E+06     12.3378E+06    -22.1394E+06    -22.0845E+06     78.8981E+06     12.3378E+06     188.246E+03         51.8637
             617     13.6053E-03     35.9541E-03         1.49524     327.158E-03    -623.464E-03    -611.250E-03         1.48302     327.158E-03    -320.311E-03     61.6090E-03    -28.6051E-03    -33.0039E-03    -28.2450E-03     56.8501E-03    -28.6051E-03     40.9685E-03     70.1931E+06    -18.1470E+06    -30.9675E+06    -22.2644E+06     70.1647E+06    -26.8217E+06    -34.0897E+03         42.1453
             618     12.6340E-03     35.9183E-03         1.37840     392.860E-03    -553.849E-03    -534.426E-03         1.35898     392.860E-03     72.2821E-03     58.8015E-03    -28.5482E-03    -30.2533E-03    -28.0838E-03     56.6320E-03    -28.5482E-03     26.2842E-03     41.3757E+06    -20.1338E+06    -39.3907E+06    -20.0680E+06     41.3099E+06    -39.3907E+06    -326.597E+03         35.1711
             619     11.6605E-03     35.8996E-03         1.24581     463.471E-03    -480.971E-03    -428.833E-03         1.19367     463.471E-03     562.106E-03     57.5199E-03    -28.6682E-03    -28.8517E-03    -28.1960E-03     56.8733E-03    -28.6773E-03     14.4723E-03    -2.92100E+06    -21.0183E+06    -44.3327E+06    -19.5797E+06    -17.0918E+06    -31.6005E+06     552.951E+03         30.8261
             620     10.6892E-03     35.8886E-03         1.04786     536.668E-03    -347.851E-03    -288.583E-03     988.591E-03     536.668E-03     556.353E-03     57.6745E-03    -28.7972E-03    -28.8773E-03    -28.4799E-03     57.3201E-03    -28.8403E-03     11.0503E-03    -15.2337E+06    -20.2019E+06    -66.6326E+06    -18.8173E+06    -66.5776E+06    -16.6732E+06     641.237E+03         28.3522
             621     9.71649E-03     35.8775E-03     831.114E-03     568.272E-03    -149.736E-03    -125.461E-03     765.505E-03     609.605E-03     265.506E-03     57.7709E-03    -28.8355E-03    -28.9353E-03    -28.5396E-03     57.4749E-03    -28.9353E-03     10.0582E-03    -11.0350E+06    -19.0307E+06    -98.4568E+06    -19.1056E+06    -98.3819E+06    -11.0350E+06    -1.18144E+06         26.9853
             622     8.74493E-03     35.8683E-03     738.128E-03     565.849E-03    -41.3807E-03     42.4055E-03     539.634E-03     680.557E-03    -217.578E-03     57.8776E-03    -28.8723E-03    -29.0053E-03    -28.6626E-03     57.6679E-03    -29.0053E-03     8.49803E-03    -11.9173E+06    -22.7319E+06    -128.865E+06    -22.8116E+06    -128.785E+06    -11.9173E+06    -564.328E+03         26.2016
             623     7.77288E-03     35.8605E-03     880.475E-03     675.370E-03    -287.384E-03     206.413E-03     313.302E-03     748.745E-03        -1.03699     57.9880E-03    -28.9163E-03    -29.0717E-03    -28.7584E-03     57.8300E-03    -29.0717E-03     7.37715E-03    -13.2086E+06    -26.4613E+06    -157.988E+06    -26.4778E+06    -157.971E+06    -13.2086E+06     1.27025E+06         25.7105
             624     6.80129E-03     35.8535E-03     934.826E-03     665.730E-03    -334.065E-03     357.222E-03     95.0780E-03     814.191E-03        -1.02418     58.0952E-03    -28.9772E-03    -29.1180E-03    -28.8568E-03     57.9748E-03    -29.1180E-03     6.45391E-03    -15.1791E+06    -28.5403E+06    -178.620E+06    -28.5475E+06    -178.613E+06    -15.1791E+06     880.022E+03         25.3710
             625     5.82922E-03     35.8473E-03     876.099E-03     589.296E-03    -207.767E-03     512.592E-03    -131.063E-03     876.099E-03    -348.808E-03     58.2069E-03    -29.0600E-03    -29.1469E-03    -28.9698E-03     58.1157E-03    -29.1459E-03     5.61753E-03    -18.6404E+06    -30.4414E+06    -195.640E+06    -30.4437E+06    -195.637E+06    -18.6404E+06     355.396E+03         25.1197
             626     4.85774E-03     35.8419E-03     960.256E-03     763.597E-03    -475.262E-03     643.464E-03    -329.423E-03     934.550E-03     486.899E-03     58.2777E-03    -29.0916E-03    -29.1860E-03    -29.0571E-03     58.2121E-03    -29.1550E-03     4.76811E-03    -23.7836E+06    -32.6357E+06    -210.947E+06    -32.6416E+06    -210.941E+06    -23.7836E+06    -12.1460E+03         24.9283
             627     3.88667E-03     35.8376E-03         1.03336     925.281E-03    -711.548E-03     800.973E-03    -539.802E-03     985.924E-03     296.692E-03     58.2805E-03    -29.0783E-03    -29.2022E-03    -29.0649E-03     58.2370E-03    -29.1722E-03     3.85995E-03    -27.5704E+06    -34.9094E+06    -226.989E+06    -34.9186E+06    -226.980E+06    -27.5704E+06    -706.792E+03         24.7833
             628     2.91391E-03     35.8335E-03         1.32554         1.00361        -1.07458     891.740E-03    -668.817E-03         1.03164     970.182E-03     58.3365E-03    -29.1245E-03    -29.2120E-03    -29.1238E-03     58.3120E-03    -29.1882E-03     2.89046E-03    -29.3544E+06    -36.4656E+06    -236.699E+06    -36.4768E+06    -236.687E+06    -29.3544E+06    -1.25925E+06         24.6775
             629     1.94359E-03     35.8319E-03         1.57391         1.05512        -1.38871         1.05233    -867.124E-03         1.05512     532.677E-03     58.4168E-03    -29.1288E-03    -29.2880E-03    -29.2751E-03     58.4039E-03    -29.1288E-03     2.02666E-03    -33.1225E+06    -38.3133E+06    -238.435E+06    -38.3255E+06    -238.422E+06    -33.1225E+06    -705.057E+03         24.6059
             630     972.016E-06     35.8294E-03         3.64273         1.59521        -3.99652        -1.28612    -868.572E-03         3.39611         3.35112     58.1131E-03    -28.9341E-03    -29.1790E-03    -29.1737E-03     58.1078E-03    -28.9341E-03     1.08040E-03    -38.1116E+06    -41.4736E+06    -242.190E+06    -40.9090E+06    -242.182E+06    -38.6842E+06     335.028E+03         24.5639
             631     16.5291E-03     35.5315E-03         1.79639     115.500E-03    -766.388E-03    -744.783E-03         1.77478     115.500E-03    -462.510E-03     269.186E-03    -29.4593E-03    -239.727E-03    -66.7791E-03     96.2384E-03    -29.4593E-03     482.074E-03     152.884E+06     137.033E+06    -10.4177E+06    -10.4008E+06     145.139E+06     144.760E+06    -716.971E+03         72.4119
             632     15.5511E-03     35.0741E-03         1.78665     131.590E-03    -733.883E-03    -718.253E-03         1.77102     131.590E-03    -355.364E-03     162.138E-03    -29.1795E-03    -132.959E-03    -41.9116E-03     71.0911E-03    -29.1795E-03     269.594E-03     107.371E+06     77.4589E+06    -18.2230E+06    -18.1892E+06     107.337E+06     77.4589E+06     575.477E+03         62.9663
             633     14.5774E-03     34.9444E-03         1.73862     169.116E-03    -687.509E-03    -678.784E-03         1.72989     169.116E-03    -272.392E-03     76.5830E-03    -28.8819E-03    -47.7011E-03    -29.2690E-03     58.1508E-03    -28.8819E-03     84.1992E-03     79.8077E+06     14.0712E+06    -21.4611E+06    -21.4184E+06     79.7650E+06     14.0712E+06    -408.604E+03         51.9146
             634     13.6064E-03     34.8954E-03         1.65703     220.797E-03    -629.427E-03    -614.595E-03         1.64220     220.797E-03    -366.620E-03     61.4119E-03    -28.6288E-03    -32.7830E-03    -28.0547E-03     56.6836E-03    -28.6288E-03     40.8815E-03     69.4690E+06    -18.5381E+06    -31.6476E+06    -21.6364E+06     69.4394E+06    -28.5197E+06    -1.34367E+06         42.2256
             635     12.6323E-03     34.8598E-03         1.52883     277.729E-03    -539.949E-03    -522.630E-03         1.51151     277.729E-03     8.92318E-03     58.9459E-03    -28.5848E-03    -30.3610E-03    -28.0630E-03     56.6478E-03    -28.5848E-03     26.9565E-03     40.0034E+06    -20.8794E+06    -41.2749E+06    -20.8476E+06     39.9716E+06    -41.2749E+06    -78.1497E+03         35.2455
             636     11.6609E-03     34.8411E-03         1.39385     337.670E-03    -454.118E-03    -420.051E-03         1.35979     337.670E-03     477.333E-03     57.7179E-03    -28.6346E-03    -29.0834E-03    -28.3288E-03     57.0491E-03    -28.7204E-03     14.7733E-03    -2.60746E+06    -21.2336E+06    -45.1311E+06    -19.4152E+06    -17.9096E+06    -31.6475E+06     663.097E+03         30.8804
             637     10.6880E-03     34.8295E-03         1.23247     399.718E-03    -345.398E-03    -306.891E-03         1.19397     399.718E-03     478.884E-03     57.6585E-03    -28.7748E-03    -28.8837E-03    -28.4083E-03     57.2920E-03    -28.8837E-03     11.2302E-03    -14.7139E+06    -20.7469E+06    -65.7914E+06    -18.9506E+06    -65.7850E+06    -16.5166E+06     88.2960E+03         28.3865
             638     9.71667E-03     34.8189E-03         1.01311     461.540E-03    -177.280E-03    -162.266E-03     998.097E-03     461.540E-03     166.073E-03     57.9378E-03    -28.9199E-03    -29.0179E-03    -28.6386E-03     57.6330E-03    -28.9943E-03     10.2269E-03    -9.09458E+06    -20.8185E+06    -98.8812E+06    -20.8522E+06    -98.8475E+06    -9.09458E+06     782.221E+03         27.0057
             639     8.74426E-03     34.8093E-03     850.131E-03     520.743E-03    -61.9619E-03    -8.85020E-03     797.019E-03     520.743E-03    -300.738E-03     58.0234E-03    -28.9371E-03    -29.0863E-03    -28.7554E-03     57.8182E-03    -29.0627E-03     8.39315E-03    -9.36673E+06    -23.9930E+06    -131.057E+06    -24.0389E+06    -131.011E+06    -9.36673E+06     1.86707E+06         26.2141
             640     7.77267E-03     34.8018E-03         1.02392     576.800E-03    -284.897E-03     129.898E-03     609.122E-03     576.800E-03        -1.13791     58.0896E-03    -28.9792E-03    -29.1104E-03    -28.8272E-03     57.9377E-03    -29.1104E-03     7.26136E-03    -11.7972E+06    -26.2505E+06    -157.258E+06    -26.2699E+06    -157.239E+06    -11.7972E+06     1.48533E+06         25.7189
             641     6.80074E-03     34.7944E-03     971.621E-03     571.981E-03    -229.932E-03     246.204E-03     436.485E-03     630.980E-03        -1.08153     58.2161E-03    -29.0691E-03    -29.1470E-03    -28.9487E-03     58.0957E-03    -29.1470E-03     6.45215E-03    -14.3536E+06    -28.4261E+06    -178.152E+06    -28.4311E+06    -178.147E+06    -14.3536E+06     791.533E+03         25.3772
             642     5.82958E-03     34.7885E-03     738.188E-03     569.322E-03    -4.94936E-03     376.083E-03     243.607E-03     682.871E-03    -501.080E-03     58.2687E-03    -29.1018E-03    -29.1669E-03    -29.0123E-03     58.1792E-03    -29.1669E-03     5.57911E-03    -18.2288E+06    -30.6787E+06    -195.674E+06    -30.6833E+06    -195.669E+06    -18.2288E+06     552.512E+03         25.1247
             643     4.85770E-03     34.7829E-03     914.602E-03     676.391E-03    -295.541E-03     495.354E-03     69.1576E-03     730.940E-03     436.921E-03     58.2980E-03    -29.0911E-03    -29.2068E-03    -29.0536E-03     58.2304E-03    -29.1769E-03     4.83650E-03    -23.2100E+06    -32.6429E+06    -211.172E+06    -32.6482E+06    -211.167E+06    -23.2100E+06     399.466E+03         24.9325
             644     3.88589E-03     34.7785E-03         1.08891     770.605E-03    -569.156E-03     634.374E-03    -114.619E-03     770.605E-03     42.9725E-03     58.3385E-03    -29.0839E-03    -29.2546E-03    -29.1177E-03     58.2942E-03    -29.1764E-03     3.90217E-03    -29.6270E+06    -34.4170E+06    -226.403E+06    -34.4233E+06    -226.397E+06    -29.6270E+06    -448.065E+03         24.7871
             645     2.91515E-03     34.7754E-03         1.60514     804.553E-03        -1.11567     698.456E-03    -208.978E-03     804.553E-03         1.10758     58.3111E-03    -29.0707E-03    -29.2404E-03    -29.1016E-03     58.2852E-03    -29.1836E-03     2.96983E-03    -33.7242E+06    -36.8126E+06    -237.448E+06    -36.0266E+06    -237.437E+06    -34.5217E+06    -1.31459E+06         24.6811
             646     1.94254E-03     34.7719E-03         2.15731     819.201E-03        -1.69290     828.965E-03    -364.555E-03     819.201E-03    -12.1609E-03     58.3284E-03    -29.0749E-03    -29.2534E-03    -29.0872E-03     58.3147E-03    -29.2274E-03     2.07780E-03    -34.8681E+06    -38.0438E+06    -241.300E+06    -37.2611E+06    -241.285E+06    -35.6656E+06    -906.505E+03         24.6093
             647     971.147E-06     34.7717E-03         4.02571         2.71294        -5.45573        -1.68914    -349.197E-03         3.32126         4.73936     58.5084E-03    -29.1004E-03    -29.4080E-03    -29.3129E-03     58.5038E-03    -29.1910E-03     930.418E-06    -35.3091E+06    -37.6865E+06    -241.199E+06    -37.3375E+06    -241.191E+06    -35.6661E+06    -228.017E+03         24.5672
             648     16.5231E-03     34.4705E-03         1.95024     24.6276E-03    -785.005E-03    -765.652E-03         1.93089     24.6276E-03    -454.582E-03     269.743E-03    -29.5858E-03    -240.157E-03    -66.4222E-03     96.0079E-03    -29.5858E-03     483.296E-03     153.017E+06     137.751E+06    -10.7901E+06    -10.7756E+06     145.104E+06     145.650E+06     33.6125E+03         72.3076
             649     15.5512E-03     34.0173E-03         1.94646     34.1415E-03    -745.816E-03    -731.819E-03         1.93246     34.1415E-03    -356.081E-03     162.748E-03    -29.2656E-03    -133.483E-03    -43.6782E-03     72.9438E-03    -29.2656E-03     269.538E-03     108.403E+06     78.2982E+06    -17.8881E+06    -17.8631E+06     108.379E+06     78.2982E+06    -189.026E+03         62.9399
             650     14.5787E-03     33.8834E-03         1.89420     64.5813E-03    -685.049E-03    -675.556E-03         1.88471     64.5813E-03    -294.825E-03     76.7011E-03    -28.9048E-03    -47.7962E-03    -29.1434E-03     58.0482E-03    -28.9048E-03     84.7736E-03     79.6649E+06     12.0217E+06    -20.7126E+06    -20.6706E+06     79.6228E+06     12.0217E+06    -1.99655E+06         51.9671
             651     13.6039E-03     33.8390E-03         1.81021     107.777E-03    -616.667E-03    -599.343E-03         1.79288     107.777E-03    -407.094E-03     61.2026E-03    -28.6714E-03    -32.5312E-03    -27.7832E-03     56.4545E-03    -28.6714E-03     40.8734E-03     67.7135E+06    -20.9673E+06    -32.2558E+06    -21.9360E+06     67.6856E+06    -31.2593E+06    -806.109E+03         42.3064
             652     12.6318E-03     33.7997E-03         1.69130     154.649E-03    -525.878E-03    -509.761E-03         1.67518     154.649E-03    -50.9177E-03     59.1959E-03    -28.6450E-03    -30.5509E-03    -28.2036E-03     56.8486E-03    -28.6450E-03     27.2814E-03     38.2141E+06    -21.9224E+06    -42.5779E+06    -21.9189E+06     38.2106E+06    -42.5779E+06     364.471E+03         35.3205
             653     11.6598E-03     33.7823E-03         1.55973     203.133E-03    -430.792E-03    -409.578E-03         1.53851     203.133E-03     392.670E-03     57.9148E-03    -28.6998E-03    -29.2150E-03    -28.4781E-03     57.2546E-03    -28.7765E-03     14.6528E-03    -4.59855E+06    -21.7465E+06    -44.5027E+06    -21.1319E+06    -17.7762E+06    -31.9397E+06     290.620E+03         30.9358
             654     10.6880E-03     33.7712E-03         1.41540     252.252E-03    -326.564E-03    -304.855E-03         1.39369     252.252E-03     374.519E-03     57.8136E-03    -28.8042E-03    -29.0093E-03    -28.5176E-03     57.4500E-03    -28.9324E-03     11.1981E-03    -16.3825E+06    -21.8770E+06    -65.9655E+06    -21.2820E+06    -65.9437E+06    -16.9992E+06     823.141E+03         28.4218
             655     9.71531E-03     33.7594E-03         1.25008     300.401E-03    -198.779E-03    -188.072E-03         1.23937     300.401E-03     45.9951E-03     58.0580E-03    -28.9871E-03    -29.0710E-03    -28.7146E-03     57.7531E-03    -29.0385E-03     10.2108E-03    -10.0266E+06    -22.8451E+06    -101.537E+06    -22.8999E+06    -101.482E+06    -10.0266E+06     1.83677E+06         27.0268
             656     8.74445E-03     33.7505E-03         1.12667     346.341E-03    -109.986E-03    -68.3153E-03         1.08500     346.341E-03    -382.377E-03     58.2141E-03    -29.0620E-03    -29.1522E-03    -28.9195E-03     58.0177E-03    -29.0982E-03     8.23275E-03    -8.77726E+06    -24.0471E+06    -130.958E+06    -24.0998E+06    -130.905E+06    -8.77726E+06     2.19252E+06         26.2270
             657     7.77249E-03     33.7427E-03         1.29746     389.215E-03    -317.883E-03     49.6299E-03     929.944E-03     389.215E-03        -1.24060     58.1914E-03    -29.0379E-03    -29.1535E-03    -28.9117E-03     58.0438E-03    -29.1320E-03     7.16679E-03    -11.2615E+06    -25.9050E+06    -156.201E+06    -25.9313E+06    -156.175E+06    -11.2615E+06     1.76343E+06         25.7274
             658     6.80103E-03     33.7356E-03         1.15823     429.988E-03    -221.470E-03     137.730E-03     799.031E-03     429.988E-03        -1.12969     58.2277E-03    -29.0619E-03    -29.1658E-03    -28.9419E-03     58.1077E-03    -29.1658E-03     6.45291E-03    -14.1681E+06    -28.3194E+06    -177.738E+06    -28.3301E+06    -177.727E+06    -14.1681E+06     1.07675E+06         25.3835
             659     5.82899E-03     33.7293E-03     867.489E-03     469.481E-03     20.5880E-03     230.981E-03     657.097E-03     469.481E-03    -633.628E-03     58.3189E-03    -29.1277E-03    -29.1912E-03    -29.0438E-03     58.2285E-03    -29.1847E-03     5.60089E-03    -18.5492E+06    -30.1785E+06    -195.967E+06    -30.1844E+06    -195.961E+06    -18.5492E+06     467.997E+03         25.1298
             660     4.85767E-03     33.7242E-03         1.12628     506.611E-03    -284.174E-03     322.546E-03     519.564E-03     506.611E-03     438.486E-03     58.3212E-03    -29.1187E-03    -29.2025E-03    -29.0599E-03     58.2559E-03    -29.1960E-03     4.75651E-03    -23.2072E+06    -31.3651E+06    -211.058E+06    -31.3703E+06    -211.052E+06    -23.2072E+06     149.005E+03         24.9370
             661     3.88609E-03     33.7195E-03         1.39918     536.927E-03    -595.015E-03     433.535E-03     370.627E-03     536.927E-03    -151.217E-03     58.3490E-03    -29.0864E-03    -29.2626E-03    -29.0904E-03     58.3048E-03    -29.2144E-03     3.90575E-03    -27.7904E+06    -32.5732E+06    -226.142E+06    -32.5740E+06    -226.142E+06    -27.7904E+06    -90.5375E+03         24.7914
             662     2.91413E-03     33.7160E-03         2.09635     561.590E-03        -1.31295     486.198E-03     297.203E-03     561.590E-03         1.27184     58.3965E-03    -29.1114E-03    -29.2851E-03    -29.1351E-03     58.3702E-03    -29.2351E-03     2.98574E-03     -31.559E+06    -34.8888E+06    -237.802E+06    -34.0927E+06    -237.800E+06    -32.3565E+06    -116.510E+03         24.6854
             663     1.94318E-03     33.7141E-03         2.98236     569.580E-03        -2.22114     585.372E-03     175.856E-03     569.580E-03    -518.021E-03     58.4161E-03    -29.1275E-03    -29.2886E-03    -29.1156E-03     58.4023E-03    -29.2867E-03     2.08136E-03    -33.4756E+06    -36.5730E+06    -242.010E+06    -35.7828E+06    -242.002E+06    -34.2731E+06    -768.718E+03         24.6136
             664     971.225E-06     33.7115E-03         5.13548         3.24630        -7.05280        -2.13461     199.357E-03         3.26423         6.06314     58.6357E-03    -29.1893E-03    -29.4464E-03    -29.3307E-03     58.6307E-03    -29.3000E-03     978.294E-06    -35.6283E+06    -37.7501E+06    -243.157E+06    -37.4037E+06    -243.146E+06    -35.9854E+06    -1.27084E+06         24.5712
             665     16.5170E-03     33.4029E-03         2.11933    -70.6151E-03    -806.989E-03    -788.552E-03         2.10089    -70.6151E-03    -459.992E-03     270.347E-03    -29.6934E-03    -240.654E-03    -66.6945E-03     96.3879E-03    -29.6934E-03     484.227E-03     154.372E+06     139.020E+06    -9.63168E+06    -9.61679E+06     146.053E+06     147.323E+06    -64.6687E+03         72.1996
             666     15.5499E-03     32.9542E-03         2.11721    -67.7092E-03    -754.558E-03    -740.604E-03         2.10325    -67.7092E-03    -378.495E-03     160.448E-03    -29.3418E-03    -131.106E-03    -43.7239E-03     73.0657E-03    -29.3418E-03     264.577E-03     109.701E+06     78.3339E+06    -15.9875E+06    -15.9570E+06     109.670E+06     78.3339E+06    -1.26809E+06         62.9135
             667     14.5762E-03     32.8279E-03         2.05128    -44.8458E-03    -672.649E-03    -661.024E-03         2.03965    -44.8458E-03    -338.612E-03     76.6157E-03    -28.9547E-03    -47.6610E-03    -29.0481E-03     58.0028E-03    -28.9547E-03     84.6993E-03     78.3242E+06     9.37701E+06    -21.2280E+06    -21.1889E+06     78.2851E+06     9.37701E+06    -1.13574E+06         52.0163
             668     13.6041E-03     32.7780E-03         1.96460    -11.3165E-03    -592.777E-03    -572.365E-03         1.94419    -11.3165E-03    -453.453E-03     61.6136E-03    -28.7251E-03    -32.8885E-03    -28.1367E-03     56.8618E-03    -28.7251E-03     40.9790E-03     65.7052E+06    -22.7474E+06    -33.6166E+06    -23.6910E+06     65.6836E+06    -32.6515E+06     220.844E+03         42.3861
             669     12.6316E-03     32.7425E-03         1.86870     24.7086E-03    -514.263E-03    -498.987E-03         1.85342     24.7086E-03    -106.836E-03     59.2413E-03    -28.6886E-03    -30.5527E-03    -28.3004E-03     56.9890E-03    -28.6886E-03     26.8659E-03     37.4745E+06    -22.7793E+06    -42.7631E+06    -22.7679E+06     37.4631E+06    -42.7631E+06     623.542E+03         35.3965
             670     11.6589E-03     32.7220E-03         1.75204     61.8135E-03    -422.453E-03    -410.944E-03         1.74053     61.8135E-03     303.334E-03     57.9179E-03    -28.8146E-03    -29.1033E-03    -28.4513E-03     57.2720E-03    -28.8207E-03     14.4301E-03    -5.33429E+06    -22.0612E+06    -44.9437E+06    -21.9321E+06    -18.4365E+06    -31.9706E+06     570.895E+03         30.9911
             671     10.6874E-03     32.7126E-03         1.61560     97.7999E-03    -311.992E-03    -300.722E-03         1.60433     97.7999E-03     285.776E-03     58.1160E-03    -28.9277E-03    -29.1882E-03    -28.8107E-03     57.7765E-03    -28.9658E-03     10.8587E-03    -17.3037E+06    -22.3671E+06    -67.0105E+06    -22.2740E+06    -66.9773E+06      -17.43E+06     1.18531E+06         28.4566
             672     9.71603E-03     32.7003E-03         1.49276     130.754E-03    -210.547E-03    -199.460E-03         1.48167     130.754E-03    -41.7501E-03     58.1328E-03    -28.9251E-03    -29.2077E-03    -28.7921E-03     57.8454E-03    -29.0534E-03     9.92649E-03    -10.8149E+06    -23.0736E+06    -102.386E+06    -23.1208E+06    -102.339E+06    -10.8149E+06     1.86546E+06         27.0473
             673     8.74364E-03     32.6911E-03         1.41499     161.137E-03    -153.075E-03    -117.344E-03         1.37926     161.137E-03    -439.367E-03     58.1458E-03    -28.9980E-03    -29.1478E-03    -28.8383E-03     57.9557E-03    -29.1175E-03     8.10191E-03    -9.09977E+06    -24.4854E+06    -131.268E+06    -24.5217E+06    -131.232E+06    -9.09977E+06     1.91368E+06         26.2390
             674     7.77253E-03     32.6837E-03         1.59993     189.517E-03    -361.593E-03    -40.3706E-03         1.27871     189.517E-03        -1.30981     58.3077E-03    -29.0991E-03    -29.2086E-03    -29.0071E-03     58.1616E-03    -29.1545E-03     7.13405E-03    -10.8046E+06    -25.8484E+06    -155.937E+06    -25.8769E+06    -155.908E+06    -10.8046E+06     1.88206E+06         25.7351
             675     6.80055E-03     32.6767E-03         1.48353     215.854E-03    -272.734E-03     28.7636E-03         1.18204     215.854E-03        -1.15134     58.3085E-03    -29.0988E-03    -29.2097E-03    -29.0151E-03     58.1923E-03    -29.1771E-03     6.35028E-03    -13.6695E+06    -27.2794E+06    -176.852E+06    -27.2933E+06    -176.838E+06    -13.6695E+06     1.31414E+06         25.3891
             676     5.82922E-03     32.6704E-03         1.24597     239.670E-03    -67.3349E-03     98.2991E-03         1.08034     239.670E-03    -732.777E-03     58.2906E-03    -29.0845E-03    -29.2062E-03    -29.0049E-03     58.2045E-03    -29.1996E-03     5.46363E-03    -17.5916E+06    -29.3748E+06    -195.490E+06     -29.378E+06    -195.487E+06    -17.5916E+06     214.908E+03         25.1344
             677     4.85754E-03     32.6650E-03         1.52502     261.899E-03    -379.046E-03     145.165E-03         1.00081     261.899E-03     455.873E-03     58.3448E-03    -29.1202E-03    -29.2246E-03    -29.0628E-03     58.2808E-03    -29.2180E-03     4.71694E-03    -22.3235E+06    -31.3122E+06    -211.026E+06    -31.3154E+06    -211.023E+06    -22.3235E+06    -362.887E+03         24.9411
             678     3.88589E-03     32.6609E-03         1.82951     281.745E-03    -709.184E-03     207.647E-03     912.681E-03     281.745E-03    -283.413E-03     58.3776E-03    -29.1239E-03    -29.2537E-03    -29.0808E-03     58.3345E-03    -29.2537E-03     3.84555E-03    -25.0265E+06    -32.8861E+06    -227.348E+06    -32.8912E+06    -227.343E+06    -25.0265E+06     223.798E+03         24.7954
             679     2.91444E-03     32.6570E-03         2.64796     302.840E-03        -1.54777     226.439E-03     873.751E-03     302.840E-03         1.43095     58.4482E-03    -29.1610E-03    -29.2872E-03    -29.1390E-03     58.4244E-03    -29.2853E-03     2.84197E-03    -28.6943E+06    -35.6825E+06    -238.408E+06    -35.6870E+06    -238.404E+06    -28.6943E+06     781.251E+03         24.6896
             680     1.94257E-03     32.6547E-03         3.81196     315.487E-03        -2.73847     313.109E-03     760.375E-03     315.487E-03    -959.914E-03     58.5545E-03    -29.2398E-03    -29.3147E-03    -29.2718E-03     58.5415E-03    -29.2698E-03     2.05724E-03    -34.3973E+06    -38.5323E+06    -240.619E+06    -38.5347E+06    -240.617E+06    -34.3973E+06     189.510E+03         24.6180
             681     971.611E-06     32.6527E-03         6.67260         3.18243        -8.45514        -2.55022     767.677E-03         3.18243         7.18024     58.4845E-03    -29.1730E-03    -29.3115E-03    -29.2101E-03     58.4786E-03    -29.2685E-03     1.16281E-03    -38.7830E+06    -41.5784E+06    -245.196E+06    -40.5394E+06    -245.190E+06    -39.8278E+06    -541.249E+03         24.5757
             682     16.5241E-03     32.3375E-03         2.31228    -169.833E-03    -836.265E-03    -818.504E-03         2.29452    -169.833E-03    -465.956E-03     270.303E-03    -29.6058E-03    -240.697E-03    -66.6941E-03     96.2999E-03    -29.6058E-03     484.255E-03     154.705E+06     138.571E+06    -9.36857E+06    -9.33099E+06     146.020E+06     147.218E+06    -687.197E+03         72.1200
             683     15.5498E-03     31.8981E-03         2.29631    -173.986E-03    -759.364E-03    -744.543E-03         2.28149    -173.986E-03    -408.413E-03     158.672E-03    -29.3214E-03    -129.350E-03    -41.1423E-03     70.4636E-03    -29.3214E-03     262.562E-03     108.146E+06     76.1323E+06    -17.9308E+06    -17.8845E+06     108.100E+06     76.1323E+06    -1.44295E+06         62.9077
             684     14.5758E-03     31.7674E-03         2.22016    -159.481E-03    -659.163E-03    -645.584E-03         2.20658    -159.481E-03    -378.912E-03     76.7343E-03    -29.0053E-03    -47.7290E-03    -29.2686E-03     58.2739E-03    -29.0053E-03     84.3461E-03     77.2791E+06     8.91927E+06    -23.4998E+06    -23.4719E+06     77.2513E+06     8.91927E+06     745.532E+03         52.0643
             685     13.6030E-03     31.7199E-03         2.14240    -135.632E-03    -580.607E-03    -557.842E-03         2.11964    -135.632E-03    -494.834E-03     61.8528E-03    -28.7670E-03    -33.0858E-03    -28.4261E-03     57.1931E-03    -28.7670E-03     40.7018E-03     65.5933E+06    -22.3986E+06    -33.5679E+06    -24.8172E+06     65.5801E+06    -31.1361E+06     700.625E+03         42.4640
             686     12.6311E-03     31.6819E-03         2.05016    -110.621E-03    -496.498E-03    -481.461E-03         2.03512    -110.621E-03    -145.570E-03     59.3825E-03    -28.7129E-03    -30.6696E-03    -28.4947E-03     57.2077E-03    -28.7129E-03     26.3377E-03     37.4134E+06    -23.6037E+06    -41.2195E+06    -23.5940E+06     37.4038E+06    -41.2195E+06     291.042E+03         35.4707
             687     11.6594E-03     31.6647E-03         1.94683    -86.2605E-03    -403.768E-03    -397.125E-03         1.94019    -86.2605E-03     246.041E-03     57.9911E-03    -28.8222E-03    -29.1689E-03    -28.5561E-03     57.3844E-03    -28.8283E-03     14.0646E-03    -5.29128E+06    -22.4881E+06    -45.0143E+06    -22.1620E+06    -19.2654E+06    -31.3663E+06     862.889E+03         31.0451
             688     10.6870E-03     31.6516E-03         1.84604    -64.2663E-03    -313.042E-03    -305.984E-03         1.83898    -64.2663E-03     244.903E-03     58.0607E-03    -28.9248E-03    -29.1359E-03    -28.7773E-03     57.7455E-03    -28.9681E-03     10.4607E-03    -16.9684E+06    -22.2769E+06    -68.5771E+06    -21.9697E+06    -68.5457E+06    -17.3070E+06     1.02368E+06         28.4898
             689     9.71586E-03     31.6419E-03         1.75918    -46.2709E-03    -233.924E-03    -221.225E-03         1.74648    -46.2709E-03    -83.2753E-03     58.1592E-03    -28.9192E-03    -29.2399E-03    -28.8416E-03     57.8945E-03    -29.0528E-03     9.56338E-03    -10.5219E+06    -22.2820E+06    -102.612E+06    -22.3114E+06    -102.583E+06    -10.5219E+06     1.43647E+06         27.0658
             690     8.74412E-03     31.6321E-03         1.70846    -32.2001E-03    -187.322E-03    -157.733E-03         1.67887    -32.2001E-03    -459.578E-03     58.1073E-03    -28.9490E-03    -29.1582E-03    -28.8044E-03     57.9210E-03    -29.1166E-03     8.00875E-03    -8.66129E+06    -23.0912E+06    -131.610E+06    -23.1244E+06    -131.577E+06    -8.66129E+06     1.84588E+06         26.2492
             691     7.77192E-03     31.6244E-03         1.90917    -20.5186E-03    -394.340E-03    -120.413E-03         1.63524    -20.5186E-03        -1.32784     58.2738E-03    -29.0787E-03    -29.1951E-03    -28.9762E-03     58.1388E-03    -29.1626E-03     6.85075E-03    -9.52284E+06    -25.2148E+06    -155.621E+06    -25.2347E+06    -155.601E+06    -9.52284E+06     1.52684E+06         25.7413
             692     6.80101E-03     31.6174E-03         1.84946    -9.96186E-03    -347.542E-03    -90.6568E-03         1.59257    -9.96186E-03        -1.15185     58.3306E-03    -29.1110E-03    -29.2196E-03    -29.0356E-03     58.2226E-03    -29.1870E-03     6.12960E-03    -12.2339E+06    -27.2501E+06    -176.198E+06    -27.2570E+06    -176.191E+06    -12.2339E+06     885.236E+03         25.3935
             693     5.82918E-03     31.6115E-03         1.67740    -1.37606E-03    -191.642E-03    -51.6265E-03         1.53738    -1.37606E-03    -788.644E-03     58.2724E-03    -29.0587E-03    -29.2137E-03    -28.9724E-03     58.1861E-03    -29.2137E-03     5.47715E-03    -15.2619E+06    -28.3604E+06    -194.431E+06    -28.3626E+06    -194.428E+06    -15.2619E+06     76.4973E+03         25.1381
             694     4.85731E-03     31.6063E-03         1.95773     5.72151E-03    -487.019E-03    -36.0204E-03         1.50673     5.72151E-03     464.146E-03     58.3393E-03    -29.0917E-03    -29.2475E-03    -29.0273E-03     58.2748E-03    -29.2475E-03     4.72390E-03    -19.3081E+06    -30.5911E+06    -212.082E+06    -30.5971E+06    -212.076E+06    -19.3081E+06    -107.514E+03         24.9445
             695     3.88596E-03     31.6014E-03         2.28852     13.2095E-03    -834.152E-03    -22.2648E-03         1.47663     13.2095E-03    -389.167E-03     58.4794E-03    -29.1661E-03    -29.3134E-03    -29.1682E-03     58.4377E-03    -29.2696E-03     3.78843E-03    -24.2833E+06    -34.0796E+06    -229.135E+06    -34.0881E+06    -229.126E+06    -24.2833E+06     670.218E+03         24.7985
             696     2.91428E-03     31.5986E-03         3.18599     27.1704E-03        -1.74830    -35.6364E-03         1.47333     27.1704E-03         1.56216     58.5355E-03    -29.1983E-03    -29.3371E-03    -29.2512E-03     58.5121E-03    -29.2609E-03     2.82460E-03    -28.0136E+06    -36.7128E+06    -237.278E+06    -36.7175E+06    -237.274E+06    -28.0136E+06     786.726E+03         24.6926
             697     1.94314E-03     31.5950E-03         4.52605     43.2319E-03        -3.10862     17.8770E-03         1.39955     43.2319E-03        -1.25892     58.4437E-03    -29.1386E-03    -29.3051E-03    -29.2031E-03     58.4328E-03    -29.2297E-03     1.87597E-03    -32.8605E+06    -39.0783E+06    -240.602E+06    -39.0796E+06    -240.601E+06    -32.8605E+06     342.433E+03         24.6212
             698     971.536E-06     31.5941E-03         7.84857         3.11270        -9.50007        -3.01546         1.36396         3.11270         7.99016     58.3928E-03    -28.9989E-03    -29.3939E-03    -29.2464E-03     58.3886E-03    -29.1422E-03     1.14762E-03    -38.5795E+06    -42.2874E+06    -246.173E+06    -41.2544E+06    -246.161E+06    -39.6243E+06     1.02902E+06         24.5792
             699     16.5296E-03     31.2905E-03         2.51136    -273.710E-03    -856.394E-03    -839.070E-03         2.49404    -273.710E-03    -474.787E-03     270.383E-03    -29.5257E-03    -240.857E-03    -65.9259E-03     95.4515E-03    -29.5257E-03     485.048E-03     154.179E+06     137.986E+06    -9.27528E+06    -9.24266E+06     145.254E+06     146.879E+06     17.3585E+03         72.0465
             700     15.5480E-03     30.8381E-03         2.48495    -286.005E-03    -759.804E-03    -744.467E-03         2.46961    -286.005E-03    -431.549E-03     160.984E-03    -29.3044E-03    -131.680E-03    -40.7760E-03     70.0804E-03    -29.3044E-03     267.360E-03     106.098E+06     75.5986E+06    -18.6858E+06    -18.6457E+06     106.058E+06     75.5986E+06     288.184E+03         62.8941
             701     14.5757E-03     30.7090E-03         2.41022    -280.532E-03    -655.045E-03    -641.661E-03         2.39684    -280.532E-03    -392.680E-03     76.8560E-03    -29.0193E-03    -47.8367E-03    -29.8013E-03     58.8206E-03    -29.0193E-03     83.6008E-03     77.1559E+06     11.1425E+06    -23.4098E+06    -23.3937E+06     77.1399E+06     11.1425E+06     1.13343E+06         52.1068
             702     13.6037E-03     30.6595E-03         2.33530    -266.225E-03    -572.714E-03    -551.147E-03         2.31373    -266.225E-03    -496.835E-03     61.6268E-03    -28.7620E-03    -32.8648E-03    -28.4134E-03     57.1754E-03    -28.7620E-03     39.7225E-03     66.6006E+06    -20.4573E+06    -32.1316E+06    -24.1971E+06     66.5880E+06    -28.3793E+06     652.355E+03         42.5392
             703     12.6313E-03     30.6235E-03         2.24102    -252.668E-03    -474.432E-03    -460.053E-03         2.22664    -252.668E-03    -149.051E-03     59.3113E-03    -28.6946E-03    -30.6167E-03    -28.5488E-03     57.2434E-03    -28.6946E-03     25.6783E-03     37.3638E+06    -24.1478E+06    -40.8139E+06    -24.1333E+06     37.3492E+06    -40.8139E+06     127.383E+03         35.5416
             704     11.6595E-03     30.6042E-03         2.15724    -241.901E-03    -387.145E-03    -381.354E-03         2.15145    -241.901E-03     241.067E-03     58.0491E-03    -28.8004E-03    -29.2487E-03    -28.6737E-03     57.4740E-03    -28.8004E-03     13.6876E-03    -4.84564E+06    -22.8164E+06    -46.0494E+06    -22.6166E+06    -20.0256E+06    -31.0693E+06     64.7876E+03         31.0962
             705     10.6882E-03     30.5938E-03         2.10338    -233.491E-03    -329.666E-03    -323.485E-03         2.09776    -234.054E-03     230.962E-03     57.8336E-03    -28.8430E-03    -28.9906E-03    -28.5888E-03     57.5326E-03    -28.9438E-03     10.1970E-03    -15.9544E+06    -21.4364E+06    -69.5497E+06    -21.2462E+06    -69.5275E+06    -16.1667E+06     499.472E+03         28.5206
             706     9.71553E-03     30.5818E-03         2.05734    -217.628E-03    -287.515E-03    -263.237E-03         2.04557    -230.137E-03    -107.586E-03     58.0114E-03    -28.9292E-03    -29.0822E-03    -28.7171E-03     57.7577E-03    -29.0406E-03     9.33224E-03    -9.51607E+06    -21.5838E+06    -103.683E+06    -21.5937E+06    -103.674E+06    -9.51607E+06     872.270E+03         27.0823
             707     8.74421E-03     30.5736E-03         2.02708    -197.699E-03    -268.494E-03    -209.965E-03         2.00222    -231.371E-03    -466.587E-03     58.2077E-03    -29.0440E-03    -29.1637E-03    -28.9278E-03     58.0306E-03    -29.1028E-03     7.83102E-03    -7.19866E+06    -22.5747E+06    -131.605E+06    -22.5934E+06    -131.586E+06    -7.19866E+06     1.37232E+06         26.2578
             708     7.77282E-03     30.5651E-03         2.22252    -215.330E-03    -442.866E-03    -190.145E-03         1.99152    -237.056E-03        -1.31811     58.1306E-03    -28.9597E-03    -29.1709E-03    -28.8462E-03     57.9978E-03    -29.1516E-03     6.78448E-03    -6.78572E+06    -23.5209E+06    -154.990E+06    -23.5344E+06    -154.976E+06    -6.78572E+06     801.291E+03         25.7461
             709     6.80057E-03     30.5585E-03         2.23215    -224.252E-03    -442.501E-03    -205.803E-03         2.01540    -244.205E-03        -1.12325     58.1625E-03    -28.9656E-03    -29.1970E-03    -28.8597E-03     58.0566E-03    -29.1970E-03     6.05948E-03    -9.34287E+06    -24.6977E+06    -176.447E+06    -24.7004E+06    -176.444E+06    -9.34287E+06     207.367E+03         25.3968
             710     5.82894E-03     30.5526E-03         2.14322    -230.602E-03    -352.675E-03    -224.082E-03         2.03458    -250.555E-03    -786.127E-03     58.3222E-03    -29.0965E-03    -29.2257E-03    -29.0097E-03     58.2354E-03    -29.2257E-03     5.49659E-03    -14.2263E+06    -27.1104E+06    -193.821E+06    -27.1168E+06    -193.815E+06    -14.2263E+06     425.227E+03         25.1408
             711     4.85764E-03     30.5470E-03         2.41485    -256.428E-03    -608.787E-03    -232.837E-03         2.03890    -256.428E-03     501.959E-03     58.4313E-03    -29.1532E-03    -29.2781E-03    -29.1136E-03     58.3685E-03    -29.2550E-03     4.64787E-03    -18.0208E+06    -30.3904E+06    -213.533E+06    -30.3998E+06    -213.524E+06    -18.0208E+06     760.840E+03         24.9471
             712     3.88564E-03     30.5429E-03         2.74196    -261.265E-03    -938.827E-03    -250.752E-03         2.05388    -261.265E-03    -395.560E-03     58.5078E-03    -29.1837E-03    -29.3241E-03    -29.2106E-03     58.4677E-03    -29.2571E-03     3.73139E-03    -23.3326E+06    -33.4768E+06    -229.462E+06    -33.4833E+06    -229.455E+06    -23.3326E+06     1.06803E+06         24.8009
             713     2.91475E-03     30.5385E-03         3.63233    -262.326E-03        -1.83363    -269.689E-03         2.06839    -262.326E-03         1.63281     58.4895E-03    -29.1879E-03    -29.3017E-03    -29.2404E-03     58.4658E-03    -29.2254E-03     2.82409E-03    -29.0710E+06    -35.6849E+06    -235.732E+06    -35.6907E+06    -235.726E+06    -29.0710E+06     145.207E+03         24.6948
             714     1.94317E-03     30.5370E-03         5.01896    -257.781E-03        -3.22987    -274.059E-03         2.06314    -257.781E-03        -1.38235     58.4127E-03    -29.1051E-03    -29.3075E-03    -29.2036E-03     58.4010E-03    -29.1973E-03     2.00702E-03    -32.4165E+06    -37.1388E+06    -241.746E+06    -37.1445E+06    -241.740E+06    -32.4165E+06     106.844E+03         24.6233
             715     971.269E-06     30.5346E-03         8.48915         3.02042        -9.97939        -3.53093         2.04069         3.02042         8.31400     58.3317E-03    -28.9810E-03    -29.3508E-03    -29.2781E-03     58.3270E-03    -29.0489E-03     1.06853E-03    -36.6837E+06    -39.8630E+06    -246.333E+06    -39.8830E+06    -246.313E+06    -36.6837E+06     704.127E+03         24.5814
             716     16.5221E-03     30.2381E-03         2.72879    -384.437E-03    -881.447E-03    -865.761E-03         2.71310    -384.437E-03    -467.618E-03     271.053E-03    -29.6400E-03    -241.413E-03    -65.5345E-03     95.1746E-03    -29.6400E-03     486.537E-03     152.554E+06     137.039E+06    -10.7295E+06    -10.6997E+06     143.279E+06     146.285E+06     206.803E+03         71.9268
             717     15.5484E-03     29.7775E-03         2.69470    -406.090E-03    -770.134E-03    -756.330E-03         2.68089    -406.090E-03    -422.741E-03     162.917E-03    -29.3688E-03    -133.548E-03    -43.7233E-03     73.0921E-03    -29.3688E-03     269.132E-03     106.121E+06     77.8786E+06    -18.6216E+06    -18.6058E+06     106.106E+06     77.8786E+06     1.31438E+06         62.8416
             718     14.5771E-03     29.6487E-03         2.62166    -409.903E-03    -659.239E-03    -647.853E-03         2.61028    -409.903E-03    -376.553E-03     76.6410E-03    -28.9936E-03    -47.6474E-03    -30.0350E-03     59.0287E-03    -28.9936E-03     82.6957E-03     77.4650E+06     12.8680E+06    -22.5488E+06    -22.5421E+06     77.4584E+06     12.8680E+06     685.641E+03         52.1391
             719     13.6045E-03     29.6010E-03         2.54296    -405.404E-03    -564.299E-03    -545.991E-03         2.52465    -405.404E-03    -472.974E-03     61.5780E-03    -28.7166E-03    -32.8613E-03    -28.4296E-03     57.1463E-03    -28.7166E-03     39.6507E-03     66.1440E+06    -20.3525E+06    -31.4721E+06    -23.4642E+06     66.1314E+06    -28.3478E+06     928.429E+03         42.6077
             720     12.6323E-03     29.5639E-03         2.46795    -396.597E-03    -482.142E-03    -462.987E-03         2.45517    -402.977E-03    -136.744E-03     59.1907E-03    -28.6504E-03    -30.5403E-03    -28.4523E-03     57.1027E-03    -28.6504E-03     25.7986E-03     38.0101E+06    -22.6719E+06    -40.0744E+06    -22.6562E+06     37.9943E+06    -40.0744E+06     409.319E+03         35.6081
             721     11.6603E-03     29.5453E-03         2.41582    -374.483E-03    -435.820E-03    -401.015E-03         2.41050    -403.960E-03     243.463E-03     57.8458E-03    -28.6939E-03    -29.1518E-03    -28.5071E-03     57.2702E-03    -28.7630E-03     13.6036E-03    -4.51188E+06    -22.1000E+06    -46.7298E+06    -21.8116E+06    -20.5140E+06    -31.0161E+06    -508.948E+03         31.1441
             722     10.6880E-03     29.5344E-03         2.38362    -344.539E-03    -419.264E-03    -350.532E-03         2.37914    -408.787E-03     216.928E-03     57.7595E-03    -28.7811E-03    -28.9785E-03    -28.5412E-03     57.4548E-03    -28.9137E-03     10.2490E-03    -16.1752E+06    -22.2301E+06    -70.4554E+06    -21.9527E+06    -70.4452E+06    -16.4628E+06     106.233E+03         28.5492
             723     9.71649E-03     29.5237E-03         2.36813    -319.479E-03    -418.703E-03    -310.151E-03         2.35880    -418.703E-03    -116.591E-03     57.9218E-03    -28.8674E-03    -29.0544E-03    -28.6398E-03     57.6539E-03    -29.0141E-03     9.56913E-03    -9.81968E+06    -23.0393E+06    -104.438E+06    -23.0469E+06    -104.430E+06    -9.81968E+06     740.137E+03         27.0974
             724     8.74438E-03     29.5134E-03         2.37284    -300.565E-03    -434.449E-03    -280.139E-03         2.35241    -434.449E-03    -459.864E-03     58.0025E-03    -28.9084E-03    -29.0941E-03    -28.7425E-03     57.8172E-03    -29.0747E-03     7.99427E-03    -9.39788E+06    -23.2472E+06    -131.167E+06    -23.2966E+06    -131.117E+06    -9.39788E+06    -526.632E+03         26.2653
             725     7.77270E-03     29.5068E-03         2.56343    -379.981E-03    -540.336E-03    -276.521E-03         2.37543    -455.793E-03        -1.28320     58.0863E-03    -28.9191E-03    -29.1672E-03    -28.8106E-03     57.9440E-03    -29.1334E-03     7.01110E-03    -9.17642E+06    -22.3276E+06    -155.702E+06    -22.3754E+06    -155.654E+06    -9.17642E+06    -1.05859E+06         25.7501
             726     6.80078E-03     29.4996E-03         2.61263    -402.859E-03    -565.084E-03    -311.534E-03         2.43676    -480.541E-03        -1.07379     58.1860E-03    -28.9801E-03    -29.2060E-03    -28.8849E-03     58.0764E-03    -29.1915E-03     6.16626E-03    -9.69038E+06    -23.6457E+06    -177.609E+06    -23.6609E+06    -177.594E+06    -9.69038E+06     659.635E+03         25.3994
             727     5.82909E-03     29.4934E-03         2.60276    -421.827E-03    -537.509E-03    -380.070E-03         2.52789    -504.398E-03    -722.511E-03     58.3318E-03    -29.1155E-03    -29.2164E-03    -29.0322E-03     58.2485E-03    -29.2164E-03     5.36607E-03    -14.6151E+06    -27.1488E+06    -194.099E+06    -27.1679E+06    -194.080E+06    -14.6151E+06     1.38368E+06         25.1429
             728     4.85726E-03     29.4881E-03         2.88728    -520.206E-03    -731.569E-03    -435.124E-03         2.59573    -525.095E-03     545.817E-03     58.4670E-03    -29.2041E-03    -29.2629E-03    -29.1671E-03     58.4068E-03    -29.2397E-03     4.56276E-03    -17.8239E+06    -30.0041E+06    -214.440E+06    -30.0230E+06    -214.422E+06    -17.8239E+06     1.50012E+06         24.9489
             729     3.88650E-03     29.4834E-03         3.18348    -541.967E-03        -1.01511    -488.436E-03         2.65680    -541.967E-03    -307.199E-03     58.4223E-03    -29.1581E-03    -29.2642E-03    -29.1396E-03     58.3807E-03    -29.2411E-03     3.79157E-03    -22.5241E+06    -32.3793E+06    -228.210E+06    -32.3959E+06    -228.194E+06    -22.5241E+06     1.17789E+06         24.8025
             730     2.91432E-03     29.4801E-03         3.96370    -556.695E-03        -1.79298    -514.334E-03         2.68505    -556.695E-03         1.60594     58.3858E-03    -29.1397E-03    -29.2462E-03    -29.1285E-03     58.3604E-03    -29.2319E-03     2.95128E-03    -29.7236E+06    -34.5446E+06    -235.402E+06    -34.5528E+06    -235.393E+06    -29.7236E+06     227.262E+03         24.6962
             731     1.94272E-03     29.4776E-03         5.23605    -563.835E-03        -3.05433    -566.507E-03         2.74823    -563.835E-03        -1.29509     58.5069E-03    -29.1858E-03    -29.3211E-03    -29.2841E-03     58.4942E-03    -29.2101E-03     2.04722E-03    -34.0102E+06    -36.8533E+06    -242.638E+06    -36.8632E+06    -242.628E+06    -34.0102E+06      91.902E+03         24.6247
             732     972.155E-06     29.4757E-03         8.46135         2.88124        -9.72136        -4.00905         2.74904         2.88124         7.99692     58.3411E-03    -29.0671E-03    -29.2740E-03    -29.2702E-03     58.3372E-03    -29.0671E-03     932.316E-06    -37.2301E+06    -39.6177E+06    -245.819E+06    -39.3937E+06    -245.798E+06    -37.4747E+06     259.564E+03         24.5828
             733     16.5147E-03     29.1678E-03         2.97272    -504.747E-03    -919.486E-03    -905.898E-03         2.95913    -504.747E-03    -452.122E-03     271.453E-03    -29.7072E-03    -241.746E-03    -66.4859E-03     96.1931E-03    -29.7072E-03     486.650E-03     153.026E+06     138.224E+06    -10.5231E+06    -10.4831E+06     143.448E+06     147.762E+06     392.911E+03         71.7780
             734     15.5499E-03     28.7170E-03         2.93847    -536.426E-03    -798.364E-03    -786.872E-03         2.92698    -536.426E-03    -396.293E-03     160.752E-03    -29.3730E-03    -131.379E-03    -44.3408E-03     73.7138E-03    -29.3730E-03     264.329E-03     106.529E+06     80.5239E+06    -17.7639E+06    -17.7565E+06     106.522E+06     80.5239E+06     367.216E+03         62.7803
             735     14.5767E-03     28.5892E-03         2.86638    -549.045E-03    -681.345E-03    -671.929E-03         2.85696    -549.045E-03    -352.482E-03     76.2019E-03    -28.9574E-03    -47.2446E-03    -29.6024E-03     58.5598E-03    -28.9574E-03     82.3804E-03     76.2176E+06     13.3100E+06    -22.4701E+06    -22.4612E+06     76.2087E+06     13.3100E+06     546.655E+03         52.1629
             736     13.6048E-03     28.5417E-03         2.80026    -542.568E-03    -602.787E-03    -576.118E-03         2.78417    -553.149E-03    -463.906E-03     61.6101E-03    -28.6876E-03    -32.9225E-03    -28.4501E-03     57.1378E-03    -28.6876E-03     39.8504E-03     65.8213E+06    -19.9605E+06    -31.3351E+06    -22.9465E+06     65.8093E+06    -28.3372E+06     661.810E+03         42.6673
             737     12.6325E-03     28.5049E-03         2.75061    -508.413E-03    -569.443E-03    -507.458E-03         2.73965    -559.432E-03    -141.175E-03     59.1477E-03    -28.6204E-03    -30.5272E-03    -28.4085E-03     57.0290E-03    -28.6204E-03     25.9837E-03     38.0566E+06    -20.6405E+06    -39.6194E+06    -20.6073E+06     38.0235E+06    -39.6194E+06     528.183E+03         35.6701
             738     11.6604E-03     28.4862E-03         2.70992    -449.540E-03    -569.848E-03    -445.297E-03         2.70568    -569.848E-03     229.116E-03     57.6651E-03    -28.6670E-03    -28.9981E-03    -28.3449E-03     57.0810E-03    -28.7361E-03     13.6932E-03    -5.56357E+06    -21.0233E+06    -46.3354E+06    -20.6683E+06    -20.6284E+06    -31.6255E+06     899.189E+03         31.1900
             739     10.6883E-03     28.4761E-03         2.68243    -391.303E-03    -586.147E-03    -387.537E-03         2.67867    -586.147E-03     212.176E-03     57.6986E-03    -28.7655E-03    -28.9331E-03    -28.4914E-03     57.3838E-03    -28.8924E-03     10.4108E-03    -17.6195E+06    -22.2825E+06    -71.2481E+06    -21.9606E+06    -71.1927E+06    -17.9968E+06     793.047E+03         28.5771
             740     9.71636E-03     28.4638E-03         2.69350    -368.513E-03    -609.438E-03    -361.385E-03         2.68637    -609.438E-03    -99.7642E-03     57.8531E-03    -28.8264E-03    -29.0267E-03    -28.5836E-03     57.5699E-03    -28.9863E-03     9.84818E-03    -12.6660E+06    -21.8135E+06    -103.801E+06    -21.8675E+06    -103.747E+06    -12.6660E+06    -612.482E+03         27.1125
             741     8.74443E-03     28.4559E-03         2.73794    -376.487E-03    -639.084E-03    -360.271E-03         2.72172    -639.084E-03    -442.024E-03     57.8723E-03    -28.8160E-03    -29.0563E-03    -28.6220E-03     57.6782E-03    -29.0563E-03     8.15607E-03    -12.2652E+06    -21.6021E+06    -130.456E+06    -21.6973E+06    -130.361E+06    -12.2652E+06    -1.92324E+06         26.2729
             742     7.77205E-03     28.4470E-03         2.93630    -517.149E-03    -692.155E-03    -391.524E-03         2.79232    -673.790E-03        -1.21877     58.0756E-03    -28.9310E-03    -29.1446E-03    -28.8047E-03     57.9348E-03    -29.1301E-03     6.97302E-03    -12.8807E+06    -24.4840E+06    -158.710E+06    -24.5317E+06    -158.663E+06    -12.8807E+06    -654.813E+03         25.7540
             743     6.80092E-03     28.4410E-03         3.01915    -555.947E-03    -730.727E-03    -439.821E-03         2.88466    -712.363E-03        -1.03788     58.3130E-03    -29.0732E-03    -29.2399E-03    -29.0217E-03     58.2002E-03    -29.1785E-03     6.27182E-03    -13.4783E+06    -27.7482E+06    -179.127E+06    -27.7653E+06    -179.110E+06    -13.4783E+06     1.22987E+06         25.4017
             744     5.82917E-03     28.4341E-03         3.06153    -573.807E-03    -751.826E-03    -528.356E-03         3.01608    -751.826E-03    -643.897E-03     58.3589E-03    -29.1211E-03    -29.2378E-03    -29.0822E-03     58.2731E-03    -29.1909E-03     5.44370E-03    -16.4913E+06    -29.4133E+06    -194.101E+06    -29.4349E+06    -194.079E+06    -16.4913E+06     1.54505E+06         25.1445
             745     4.85799E-03     28.4291E-03         3.33161    -746.438E-03    -856.264E-03    -624.661E-03         3.14161    -788.036E-03     507.669E-03     58.3043E-03    -29.0896E-03    -29.2146E-03    -29.0291E-03     58.2437E-03    -29.2146E-03     4.58201E-03    -20.5038E+06    -31.1078E+06    -214.743E+06    -31.1289E+06    -214.722E+06    -20.5038E+06     1.22571E+06         24.9500
             746     3.88565E-03     28.4243E-03         3.59989    -816.680E-03        -1.06418    -727.019E-03         3.26273    -816.680E-03    -216.029E-03     58.3361E-03    -29.0840E-03    -29.2521E-03    -29.0547E-03     58.2928E-03    -29.2381E-03     3.86227E-03    -25.1822E+06    -32.4533E+06    -227.756E+06    -32.4742E+06    -227.735E+06    -25.1822E+06     1.04113E+06         24.8033
             747     2.91442E-03     28.4215E-03         4.21102    -840.638E-03        -1.66737    -769.685E-03         3.31333    -840.638E-03         1.45519     58.4802E-03    -29.1932E-03    -29.2869E-03    -29.2062E-03     58.4541E-03    -29.2479E-03     2.99154E-03    -28.9839E+06    -34.1790E+06    -234.924E+06    -34.1896E+06    -234.914E+06    -28.9839E+06     1.05281E+06         24.6967
             748     1.94321E-03     28.4178E-03         5.19507    -847.934E-03        -2.63775    -868.856E-03         3.42618    -847.934E-03    -995.337E-03     58.4570E-03    -29.1641E-03    -29.2929E-03    -29.1965E-03     58.4454E-03    -29.2489E-03     1.92050E-03    -32.8953E+06    -36.8504E+06    -242.952E+06    -36.8570E+06    -242.945E+06    -32.8953E+06     553.759E+03         24.6250
             749     970.952E-06     28.4176E-03         7.77259         2.76176        -8.82287        -4.45033         3.40005         2.76176         7.06957     58.4626E-03    -29.0174E-03    -29.4451E-03    -29.3574E-03     58.4595E-03    -29.1022E-03     972.163E-06    -37.5091E+06    -39.6623E+06    -245.511E+06    -39.4325E+06    -245.496E+06    -37.7537E+06     970.652E+03         24.5832
             750     16.5274E-03     28.1082E-03         3.24419    -635.858E-03    -969.752E-03    -957.992E-03         3.23243    -635.858E-03    -437.391E-03     271.431E-03    -29.5240E-03    -241.907E-03    -67.8557E-03     97.3797E-03    -29.5240E-03     485.945E-03     153.556E+06     138.216E+06    -9.54070E+06    -9.52122E+06     143.969E+06     147.784E+06     1.20930E+06         71.6532
             751     15.5511E-03     27.6581E-03         3.22332    -677.153E-03    -851.583E-03    -841.721E-03         3.21345    -677.153E-03    -382.862E-03     159.209E-03    -29.2219E-03    -129.987E-03    -41.6962E-03     70.9182E-03    -29.2219E-03     263.224E-03     105.742E+06     79.8317E+06    -17.9242E+06    -17.9209E+06     105.739E+06     79.8317E+06     154.174E+03         62.7451
             752     14.5779E-03     27.5307E-03         3.16803    -689.153E-03    -752.649E-03    -736.065E-03         3.15939    -697.098E-03    -353.448E-03     75.6338E-03    -28.8967E-03    -46.7371E-03    -29.1210E-03     58.0178E-03    -28.8967E-03     81.7563E-03     76.1773E+06     13.7547E+06    -21.8919E+06    -21.8776E+06     76.1630E+06     13.7547E+06    -180.272E+03         52.1895
             753     13.6047E-03     27.4820E-03         3.12229    -662.040E-03    -714.314E-03    -654.794E-03         3.10790    -707.163E-03    -464.739E-03     61.0979E-03    -28.6441E-03    -32.4538E-03    -28.0607E-03     56.7048E-03    -28.6441E-03     39.3302E-03     65.3787E+06    -19.2753E+06    -32.4282E+06    -22.0447E+06     65.3599E+06    -29.6400E+06     4.63969E+03         42.7284
             754     12.6330E-03     27.4458E-03         3.07078    -586.658E-03    -719.752E-03    -577.608E-03         3.06173    -719.752E-03    -152.447E-03     58.9086E-03    -28.5935E-03    -30.3151E-03    -28.2060E-03     56.7995E-03    -28.5935E-03     25.7823E-03     36.2269E+06    -21.7567E+06    -42.4699E+06    -21.7133E+06     36.1835E+06    -42.4699E+06     839.505E+03         35.7322
             755     11.6603E-03     27.4279E-03         3.02484    -503.065E-03    -738.461E-03    -499.456E-03         3.02123    -738.461E-03     220.630E-03     57.6119E-03    -28.6357E-03    -28.9762E-03    -28.3052E-03     57.0322E-03    -28.7270E-03     13.7069E-03    -4.62162E+06    -21.4215E+06    -46.8713E+06    -20.2579E+06    -20.8865E+06    -31.7700E+06     1.64780E+06         31.2366
             756     10.6885E-03     27.4165E-03         3.01510    -451.267E-03    -764.943E-03    -447.805E-03         3.01164    -764.943E-03     212.056E-03     57.6194E-03    -28.7317E-03    -28.8877E-03    -28.4095E-03     57.2968E-03    -28.8873E-03     10.5329E-03    -16.1335E+06    -20.0422E+06    -70.4275E+06    -18.9202E+06    -70.3634E+06    -17.3195E+06     821.002E+03         28.6062
             757     9.71613E-03     27.4061E-03         3.04962    -441.568E-03    -799.341E-03    -436.916E-03         3.04496    -799.341E-03    -76.6608E-03     57.8310E-03    -28.8476E-03    -28.9834E-03    -28.5658E-03     57.5492E-03    -28.9834E-03     9.82364E-03    -12.6837E+06    -19.3634E+06    -102.500E+06    -19.4166E+06    -102.446E+06    -12.6837E+06    -1.08187E+06         27.1285
             758     8.74422E-03     27.3958E-03         3.12780    -473.341E-03    -840.367E-03    -459.092E-03         3.11355    -840.367E-03    -435.736E-03     57.9741E-03    -28.9103E-03    -29.0638E-03    -28.7229E-03     57.7867E-03    -29.0638E-03     8.00814E-03    -11.3747E+06    -22.5042E+06    -132.427E+06    -22.5664E+06    -132.364E+06    -11.3747E+06    -207.621E+03         26.2812
             759     7.77291E-03     27.3892E-03         3.33610    -631.479E-03    -885.594E-03    -525.311E-03         3.22993    -885.594E-03        -1.15406     58.0945E-03    -28.9642E-03    -29.1303E-03    -28.8277E-03     57.9580E-03    -29.1303E-03     6.88387E-03    -11.7649E+06    -25.9231E+06    -160.044E+06    -25.9412E+06    -160.026E+06    -11.7649E+06     1.40780E+06         25.7582
             760     6.80045E-03     27.3810E-03         3.46691    -706.973E-03    -932.688E-03    -608.327E-03         3.36826    -932.688E-03        -1.03000     58.2407E-03    -29.0311E-03    -29.2095E-03    -28.9658E-03     58.1284E-03    -29.1626E-03     6.24066E-03    -15.1500E+06    -28.3314E+06    -179.933E+06    -28.3380E+06    -179.926E+06    -15.1500E+06     889.464E+03         25.4038
             761     5.82947E-03     27.3755E-03         3.55012    -737.057E-03    -979.335E-03    -712.759E-03         3.52582    -979.335E-03    -571.140E-03     58.2805E-03    -29.0549E-03    -29.2256E-03    -29.0161E-03     58.1948E-03    -29.1787E-03     5.45640E-03    -19.0862E+06    -29.9361E+06    -194.631E+06    -29.9448E+06    -194.622E+06    -19.0862E+06      991.09E+03         25.1455
             762     4.85739E-03     27.3699E-03         3.75747    -899.025E-03        -1.02951    -805.705E-03         3.65916        -1.02452     411.020E-03     58.2990E-03    -29.0538E-03    -29.2452E-03    -29.0219E-03     58.2364E-03    -29.2145E-03     4.65311E-03    -21.7424E+06    -31.3786E+06    -214.159E+06    -31.3898E+06    -214.148E+06    -21.7424E+06     893.609E+03         24.9505
             763     3.88605E-03     27.3663E-03         3.99279        -1.02394        -1.14947    -943.317E-03         3.82490        -1.06220    -106.334E-03     58.4157E-03    -29.1383E-03    -29.2774E-03    -29.1410E-03     58.3737E-03    -29.2327E-03     3.80953E-03    -25.9835E+06    -33.7321E+06    -228.035E+06    -33.7436E+06    -228.024E+06    -25.9835E+06     990.502E+03         24.8033
             764     2.91445E-03     27.3612E-03         4.39451        -1.09307        -1.50313        -1.00180         3.89318        -1.09307         1.17007     58.3972E-03    -29.1351E-03    -29.2622E-03    -29.1353E-03     58.3728E-03    -29.2374E-03     2.88080E-03    -30.4565E+06    -35.3233E+06    -235.309E+06    -35.3325E+06    -235.300E+06    -30.4565E+06     958.089E+03         24.6963
             765     1.94284E-03     27.3601E-03         5.00484        -1.09499        -2.10378        -1.15054         4.05160        -1.09499    -510.850E-03     58.4344E-03    -29.1026E-03    -29.3318E-03    -29.1427E-03     58.4224E-03    -29.2797E-03     1.99762E-03    -31.6678E+06    -36.1781E+06    -242.845E+06    -36.1816E+06    -242.841E+06    -31.6678E+06     606.174E+03         24.6241
             766     971.597E-06     27.3575E-03         6.60030         2.65190        -7.44298        -4.81625         3.97358         2.65190         5.50546     58.5641E-03    -29.0677E-03    -29.4964E-03    -29.3336E-03     58.5596E-03    -29.2260E-03     1.08279E-03    -35.3169E+06    -38.7162E+06    -244.357E+06     -38.433E+06    -244.353E+06    -35.6045E+06     908.601E+03         24.5820
             767     16.5321E-03     27.0598E-03         3.55509    -777.982E-03        -1.04427        -1.03413         3.54496    -777.982E-03    -425.393E-03     271.328E-03    -29.3832E-03    -241.945E-03    -68.3489E-03     97.7321E-03    -29.3832E-03     485.596E-03     153.200E+06     136.446E+06    -10.7275E+06    -10.7178E+06     142.780E+06     146.856E+06     925.379E+03         71.5418
             768     15.5528E-03     26.6007E-03         3.56455    -826.925E-03    -945.139E-03    -936.238E-03         3.55565    -826.925E-03    -387.942E-03     161.167E-03    -29.0939E-03    -132.073E-03    -41.1988E-03     70.2926E-03    -29.0939E-03     268.148E-03     106.584E+06     78.7613E+06    -17.6183E+06    -17.6037E+06     106.570E+06     78.7613E+06     462.947E+03         62.7184
             769     14.5794E-03     26.4710E-03         3.53011    -826.179E-03    -876.843E-03    -842.816E-03         3.52185    -851.941E-03    -369.010E-03     75.4951E-03    -28.8239E-03    -46.6712E-03    -28.5560E-03     57.3799E-03    -28.8239E-03     82.8063E-03     76.3106E+06     12.4743E+06    -20.5501E+06    -20.1689E+06     76.2925E+06     12.1112E+06    -464.097E+03         52.2263
             770     13.6067E-03     26.4247E-03         3.47837    -765.290E-03    -866.216E-03    -752.454E-03         3.46553    -866.216E-03    -465.008E-03     60.9342E-03    -28.6053E-03    -32.3288E-03    -27.7032E-03     56.3086E-03    -28.6053E-03     40.1846E-03     63.5721E+06    -20.7102E+06    -32.8597E+06    -21.7919E+06     63.5501E+06    -31.7560E+06     477.781E+03         42.7962
             771     12.6323E-03     26.3866E-03         3.42111    -672.682E-03    -884.142E-03    -665.111E-03         3.41354    -884.142E-03    -164.025E-03     58.7304E-03    -28.5577E-03    -30.1727E-03    -27.9721E-03     56.5558E-03    -28.5837E-03     26.0866E-03     35.1898E+06    -21.5635E+06    -42.9700E+06    -21.5448E+06     35.1710E+06    -42.9700E+06     874.150E+03         35.7984
             772     11.6609E-03     26.3690E-03         3.38897    -595.277E-03    -909.153E-03    -592.074E-03         3.38576    -909.153E-03     214.501E-03     57.5375E-03    -28.6140E-03    -28.9235E-03    -28.2071E-03     56.9384E-03    -28.7312E-03     13.9614E-03    -4.51568E+06    -21.1508E+06    -47.3086E+06    -19.3465E+06    -21.7541E+06    -31.8745E+06     556.653E+03         31.2860
             773     10.6880E-03     26.3583E-03         3.39183    -548.470E-03    -942.525E-03    -545.611E-03         3.38897    -942.525E-03     188.183E-03     57.7206E-03    -28.7953E-03    -28.9252E-03    -28.4944E-03     57.3876E-03    -28.8932E-03     10.7147E-03    -15.0893E+06    -20.1899E+06    -69.5434E+06    -18.4010E+06    -69.5253E+06    -16.8963E+06     327.391E+03         28.6371
             774     9.71645E-03     26.3466E-03         3.44090    -547.134E-03    -984.351E-03    -545.057E-03         3.43883    -984.351E-03    -64.2917E-03     57.8984E-03    -28.9034E-03    -28.9950E-03    -28.6265E-03     57.6206E-03    -28.9942E-03     9.76142E-03    -10.6567E+06    -20.0851E+06    -102.786E+06    -20.1351E+06    -102.736E+06    -10.6567E+06     1.15860E+06         27.1457
             775     8.74454E-03     26.3377E-03         3.54941    -602.686E-03        -1.03262    -588.849E-03         3.53557        -1.03262    -432.820E-03     58.0012E-03    -28.9353E-03    -29.0658E-03    -28.7443E-03     57.8101E-03    -29.0658E-03     8.10496E-03    -10.5833E+06    -23.2448E+06    -134.635E+06    -23.3054E+06    -134.575E+06    -10.5833E+06     2.14402E+06         26.2899
             776     7.77239E-03     26.3295E-03         3.76133    -758.081E-03        -1.08386    -681.490E-03         3.68474        -1.08386        -1.08688     58.1694E-03    -29.0443E-03    -29.1251E-03    -28.9143E-03     58.0279E-03    -29.1136E-03     7.00970E-03    -11.8713E+06    -25.6160E+06    -159.370E+06    -25.6391E+06    -159.347E+06    -11.8713E+06     1.67199E+06         25.7622
             777     6.80143E-03     26.3229E-03         3.92630    -864.329E-03        -1.13472    -792.664E-03         3.85464        -1.13472        -1.02638     58.1506E-03    -28.9920E-03    -29.1586E-03    -28.8913E-03     58.0383E-03    -29.1470E-03     6.23725E-03    -14.5332E+06    -27.0425E+06    -179.608E+06    -27.0489E+06    -179.601E+06    -14.5332E+06     744.942E+03         25.4053
             778     5.82891E-03     26.3160E-03         4.05121    -931.406E-03        -1.18230    -918.182E-03         4.03799        -1.18230    -471.523E-03     58.1711E-03    -28.9923E-03    -29.1788E-03    -28.9123E-03     58.0890E-03    -29.1766E-03     5.32292E-03    -18.8230E+06    -28.1470E+06    -195.823E+06    -28.1483E+06    -195.821E+06    -18.8230E+06     167.811E+03         25.1455
             779     4.85751E-03     26.3117E-03         4.19731        -1.03510        -1.22815    -999.346E-03         4.16155        -1.22815     310.585E-03     58.4128E-03    -29.1588E-03    -29.2539E-03    -29.1330E-03     58.3541E-03    -29.2211E-03     4.51776E-03    -19.3914E+06    -30.2832E+06    -214.467E+06    -30.3021E+06    -214.448E+06    -19.3914E+06     1.30970E+06         24.9496
             780     3.88616E-03     26.3060E-03         4.38514        -1.17203        -1.28902        -1.13872         4.33081        -1.26800     95.4739E-03     58.4214E-03    -29.1622E-03    -29.2591E-03    -29.1516E-03     58.3800E-03    -29.2284E-03     3.78122E-03    -22.5763E+06    -32.6961E+06    -227.545E+06    -32.7177E+06    -227.523E+06    -22.5763E+06     1.15404E+06         24.8019
             781     2.91465E-03     26.3037E-03         4.58207        -1.27645        -1.40608        -1.20221         4.40307        -1.30132     805.861E-03     58.3294E-03    -29.0751E-03    -29.2544E-03    -29.0819E-03     58.3056E-03    -29.2237E-03     2.83910E-03    -29.3424E+06    -34.1104E+06    -234.869E+06    -34.1165E+06    -234.863E+06    -29.3424E+06     151.996E+03         24.6944
             782     1.94263E-03     26.3000E-03         4.88487        -1.27292        -1.70121        -1.37988         4.58840        -1.29779     160.226E-03     58.4182E-03    -29.0827E-03    -29.3355E-03    -29.1429E-03     58.4064E-03    -29.2636E-03     1.98596E-03    -32.2781E+06    -35.9066E+06    -243.155E+06    -35.9103E+06    -243.151E+06    -32.2781E+06     373.303E+03         24.6217
             783     971.443E-06     26.2989E-03         5.78532         2.12798        -5.99878        -5.05943         4.46915         2.50480         3.32009     58.5360E-03    -29.1358E-03    -29.4003E-03    -29.2329E-03     58.5308E-03    -29.2978E-03     1.20064E-03    -35.4217E+06    -37.8899E+06    -244.295E+06    -37.5450E+06    -244.293E+06    -35.7686E+06     150.325E+03         24.5789
             784     16.5244E-03     25.9998E-03         3.90224    -929.631E-03        -1.13540        -1.12566         3.89250    -929.631E-03    -436.412E-03     269.589E-03    -29.4395E-03    -240.150E-03    -67.7750E-03     97.2145E-03    -29.4395E-03     482.291E-03     154.704E+06     137.970E+06    -9.07359E+06    -9.05252E+06     143.356E+06     149.297E+06     966.500E+03         71.4291
             785     15.5544E-03     25.5424E-03         3.94935    -983.240E-03        -1.06193        -1.05230         3.94072    -984.232E-03    -401.351E-03     161.542E-03    -29.1054E-03    -132.437E-03    -42.1354E-03     71.2408E-03    -29.1054E-03     268.756E-03     106.944E+06     78.7249E+06    -15.8373E+06    -15.8012E+06     106.907E+06     78.7249E+06     638.862E+03         62.6898
             786     14.5787E-03     25.4150E-03         3.92515    -964.349E-03        -1.02175    -965.242E-03         3.91737        -1.01307    -378.630E-03     75.9651E-03    -28.8173E-03    -47.1478E-03    -28.1119E-03     56.9293E-03    -28.8173E-03     84.9610E-03     74.3799E+06     9.50915E+06    -21.1143E+06    -20.7162E+06     74.3449E+06     9.14606E+06     938.531E+03         52.2700
             787     13.6043E-03     25.3647E-03         3.86774    -880.846E-03        -1.03085    -869.391E-03         3.85629        -1.03085    -464.764E-03     61.2802E-03    -28.6291E-03    -32.6511E-03    -27.7846E-03     56.4137E-03    -28.6291E-03     41.2804E-03     62.3506E+06    -21.8832E+06    -33.0309E+06    -22.7113E+06     62.3280E+06    -32.1802E+06     436.558E+03         42.8680
             788     12.6337E-03     25.3290E-03         3.82434    -798.506E-03        -1.05226    -792.302E-03         3.81813        -1.05226    -175.506E-03     58.8957E-03    -28.5853E-03    -30.3105E-03    -28.0431E-03     56.6543E-03    -28.6112E-03     26.6102E-03     35.0579E+06    -20.4454E+06    -41.2048E+06    -20.4253E+06     35.0378E+06    -41.2048E+06     29.8185E+03         35.8688
             789     11.6594E-03     25.3103E-03         3.80805    -735.026E-03        -1.08019    -732.536E-03         3.80556        -1.08019     194.491E-03     57.6632E-03    -28.6845E-03    -28.9787E-03    -28.2827E-03     57.0355E-03    -28.7528E-03     14.2425E-03    -5.65433E+06    -20.0384E+06    -46.6741E+06    -18.9794E+06    -22.5236E+06    -30.8639E+06     185.406E+03         31.3382
             790     10.6885E-03     25.2990E-03         3.81364    -688.652E-03        -1.11633    -686.482E-03         3.81147        -1.11633     157.012E-03     57.8080E-03    -28.8653E-03    -28.9428E-03    -28.5647E-03     57.4723E-03    -28.9076E-03     10.7667E-03    -15.5920E+06    -20.5688E+06    -70.4140E+06    -19.5422E+06    -70.3856E+06    -16.6469E+06     934.324E+03         28.6693
             791     9.71622E-03     25.2880E-03         3.87047    -690.867E-03        -1.16117    -690.245E-03         3.86984        -1.16117    -50.0795E-03     57.9798E-03    -28.9616E-03    -29.0182E-03    -28.6925E-03     57.6964E-03    -29.0038E-03     9.86217E-03    -10.1932E+06    -20.5551E+06    -104.549E+06    -20.6402E+06    -104.464E+06    -10.1932E+06     2.51830E+06         27.1627
             792     8.74430E-03     25.2786E-03         3.99264    -758.431E-03        -1.21225    -744.599E-03         3.97881        -1.21225    -427.694E-03     58.0766E-03    -28.9979E-03    -29.0788E-03    -28.8144E-03     57.8827E-03    -29.0683E-03     8.17826E-03    -8.94913E+06    -21.7562E+06    -134.202E+06    -21.8413E+06    -134.117E+06    -8.94913E+06     2.86862E+06         26.2975
             793     7.77294E-03     25.2706E-03         4.20000    -909.452E-03        -1.26505    -857.227E-03         4.14777        -1.26505    -989.731E-03     58.1498E-03    -29.0245E-03    -29.1254E-03    -28.8926E-03     58.0065E-03    -29.1138E-03     7.05117E-03    -9.95723E+06    -23.3964E+06    -158.805E+06    -23.4286E+06    -158.773E+06    -9.95723E+06     1.77823E+06         25.7645
             794     6.80080E-03     25.2636E-03         4.37869        -1.02754        -1.31602    -975.337E-03         4.32649        -1.31602        -1.00870     58.2106E-03    -29.0048E-03    -29.2058E-03    -28.9496E-03     58.1001E-03    -29.1505E-03     6.18563E-03    -11.6110E+06    -25.6480E+06    -178.953E+06    -25.6566E+06    -178.945E+06    -11.6110E+06     959.697E+03         25.4046
             795     5.82948E-03     25.2580E-03         4.53219        -1.12339        -1.36254        -1.10834         4.51714        -1.36254    -332.099E-03     58.2644E-03    -29.0527E-03    -29.2118E-03    -29.0163E-03     58.1822E-03    -29.1659E-03     5.33517E-03    -16.6576E+06    -29.0663E+06    -196.598E+06    -29.0798E+06    -196.584E+06    -16.6576E+06     934.478E+03         25.1433
             796     4.85784E-03     25.2515E-03         4.65065        -1.20284        -1.40562        -1.19529         4.64310        -1.40562     207.734E-03     58.2908E-03    -29.1025E-03    -29.1883E-03    -29.0460E-03     58.2321E-03    -29.1861E-03     4.50318E-03    -20.5137E+06    -30.9038E+06    -214.831E+06    -30.9484E+06    -214.786E+06    -20.5137E+06     370.833E+03         24.9463
             797     3.88613E-03     25.2482E-03         4.81990        -1.32791        -1.45772        -1.32522         4.80144        -1.44195     384.592E-03     58.3258E-03    -29.1071E-03    -29.2187E-03    -29.0675E-03     58.2861E-03    -29.2187E-03     3.70311E-03    -20.7126E+06    -30.5197E+06    -227.029E+06    -30.5576E+06    -226.992E+06    -20.7126E+06    -414.814E+03         24.7979
             798     2.91427E-03     25.2437E-03         4.89909        -1.40139        -1.48897        -1.37656         4.85849        -1.47320     435.257E-03     58.4273E-03    -29.1631E-03    -29.2642E-03    -29.1834E-03     58.4031E-03    -29.2197E-03     2.86856E-03    -24.7178E+06    -32.7169E+06    -235.530E+06    -32.7269E+06    -235.520E+06    -24.7178E+06     585.774E+03         24.6899
             799     1.94356E-03     25.2419E-03         5.17328        -1.39502        -1.75758        -1.55840         5.04591        -1.46683     988.546E-03     58.4088E-03    -29.0812E-03    -29.3276E-03    -29.2284E-03     58.3982E-03    -29.1697E-03     1.84927E-03    -32.4837E+06    -36.2447E+06    -243.361E+06    -36.2531E+06    -243.352E+06    -32.4837E+06     590.257E+03         24.6167
             800     971.143E-06     25.2395E-03         5.77831         1.72331        -5.47568        -5.18040         4.91453         2.29181     784.243E-03     58.2577E-03    -28.9805E-03    -29.2771E-03    -29.1515E-03     58.2541E-03    -29.1025E-03     1.02532E-03    -35.7978E+06    -37.5647E+06    -244.643E+06    -36.4218E+06    -244.642E+06    -36.9419E+06    -347.324E+03         24.5735
             801     16.5264E-03     24.9323E-03         4.28862        -1.08860        -1.24204        -1.23291         4.27950        -1.08860    -442.135E-03     268.898E-03    -29.5311E-03    -239.367E-03    -67.0499E-03     96.5810E-03    -29.5311E-03     481.204E-03     154.537E+06     137.819E+06    -9.26981E+06    -9.24582E+06     143.121E+06     149.210E+06     165.823E+03         71.3366
             802     15.5525E-03     24.4886E-03         4.35523        -1.13300        -1.19520        -1.17186         4.34736        -1.14847    -399.861E-03     160.740E-03    -29.2069E-03    -131.533E-03    -42.2830E-03     71.4898E-03    -29.2069E-03     266.759E-03     105.032E+06     79.4148E+06    -17.6938E+06    -17.6621E+06     105.000E+06     79.4148E+06     1.16535E+06         62.6706
             803     14.5772E-03     24.3555E-03         4.34200        -1.10096        -1.18111        -1.09379         4.33484        -1.18111    -380.564E-03     76.8829E-03    -28.8923E-03    -47.9906E-03    -28.6046E-03     57.4969E-03    -28.8923E-03     86.3242E-03      73.968E+06     11.1441E+06    -21.9816E+06    -21.9499E+06     73.9363E+06     11.1441E+06     1.47284E+06         52.3181
             804     13.6058E-03     24.3069E-03         4.30947        -1.03323        -1.20133        -1.02341         4.29965        -1.20133    -455.707E-03     61.4356E-03    -28.6797E-03    -32.7559E-03    -27.8393E-03     56.5190E-03    -28.6797E-03     41.5834E-03     63.3000E+06    -20.3209E+06    -33.1882E+06    -21.8740E+06     63.2865E+06    -31.6216E+06    -64.3378E+03         42.9455
             805     12.6308E-03     24.2696E-03         4.28075    -968.113E-03        -1.22354    -963.447E-03         4.27608        -1.22354    -171.078E-03     59.2556E-03    -28.6498E-03    -30.6058E-03    -28.3134E-03     56.9632E-03    -28.6498E-03     26.9100E-03     33.6417E+06    -21.2811E+06    -42.4955E+06    -21.2467E+06     33.6072E+06    -42.4955E+06    -566.360E+03         35.9420
             806     11.6610E-03     24.2514E-03         4.26797    -908.932E-03        -1.25143    -906.454E-03         4.26550        -1.25143     198.100E-03     57.9577E-03    -28.7387E-03    -29.2190E-03    -28.5476E-03     57.3286E-03    -28.7810E-03     14.3452E-03    -5.87470E+06    -20.2510E+06    -46.6797E+06    -19.7188E+06    -22.9218E+06    -30.1648E+06     397.661E+03         31.3912
             807     10.6877E-03     24.2401E-03         4.28383    -872.878E-03        -1.28684    -870.591E-03         4.28154        -1.28684     157.033E-03     57.8634E-03    -28.8831E-03    -28.9803E-03    -28.5981E-03     57.5235E-03    -28.9254E-03     10.8344E-03    -15.2302E+06    -19.4697E+06    -72.0896E+06    -18.9944E+06    -72.0238E+06    -15.7713E+06     1.62911E+06         28.7003
             808     9.71613E-03     24.2290E-03         4.34176    -879.459E-03        -1.33002    -879.290E-03         4.34160        -1.33002    -10.7793E-03     58.0856E-03    -29.0123E-03    -29.0733E-03    -28.7936E-03     57.8059E-03    -29.0123E-03     9.80685E-03    -10.1703E+06    -20.3086E+06    -106.331E+06    -20.3933E+06    -106.246E+06    -10.1703E+06     2.60818E+06         27.1771
             809     8.74464E-03     24.2194E-03         4.45711    -942.225E-03        -1.37907    -928.374E-03         4.44326        -1.37907    -402.173E-03     58.1368E-03    -29.0406E-03    -29.0962E-03    -28.8783E-03     57.9456E-03    -29.0673E-03     8.12676E-03    -8.55021E+06    -21.9217E+06    -133.664E+06    -22.0124E+06    -133.573E+06    -8.55021E+06     3.09835E+06         26.3016
             810     7.77264E-03     24.2118E-03         4.64323        -1.07331        -1.42973        -1.03927         4.60918        -1.42973    -865.268E-03     58.1729E-03    -29.0197E-03    -29.1532E-03    -28.9256E-03     58.0333E-03    -29.1077E-03     6.95325E-03    -9.11691E+06    -23.7206E+06    -157.660E+06    -23.7658E+06    -157.615E+06    -9.11691E+06     2.17409E+06         25.7627
             811     6.80104E-03     24.2048E-03         4.82473        -1.19835        -1.47814        -1.15648         4.78286        -1.47814    -987.675E-03     58.2572E-03    -29.0305E-03    -29.2267E-03    -29.0165E-03     58.1540E-03    -29.1375E-03     5.97757E-03    -10.7018E+06    -26.2068E+06    -178.994E+06    -26.2193E+06    -178.982E+06    -10.7018E+06     1.30944E+06         25.3996
             812     5.82962E-03     24.1983E-03         4.99571        -1.31503        -1.52187        -1.28343         4.96411        -1.52187    -174.161E-03     58.2574E-03    -29.0665E-03    -29.1909E-03    -29.0305E-03     58.1776E-03    -29.1472E-03     5.27275E-03    -14.4698E+06    -28.0967E+06    -196.532E+06    -28.1114E+06    -196.517E+06    -14.4698E+06     1.31731E+06         25.1365
             813     4.85788E-03     24.1936E-03         5.10698        -1.38832        -1.56156        -1.37094         5.08960        -1.56156     98.8208E-03     58.2254E-03    -29.0723E-03    -29.1531E-03    -29.0131E-03     58.1662E-03    -29.1531E-03     4.50906E-03    -20.0038E+06    -29.9405E+06    -213.198E+06    -29.9711E+06    -213.168E+06    -20.0038E+06    -105.825E+03         24.9385
             814     3.88613E-03     24.1885E-03         5.31483        -1.49290        -1.67363        -1.50284         5.24357        -1.59243     674.517E-03     58.2756E-03    -29.1085E-03    -29.1671E-03    -29.0729E-03     58.2376E-03    -29.1647E-03     3.62486E-03    -24.9215E+06    -33.5296E+06    -227.984E+06    -33.5532E+06    -227.961E+06    -24.9215E+06    -975.809E+03         24.7895
             815     2.91494E-03     24.1855E-03         5.41252        -1.57221        -1.71779        -1.52888         5.27055        -1.61915     26.1563E-03     58.3575E-03    -29.1480E-03    -29.2094E-03    -29.1757E-03     58.3341E-03    -29.1584E-03     2.81802E-03    -27.8094E+06    -36.2533E+06    -237.658E+06    -36.2645E+06    -237.647E+06    -27.8094E+06    -127.315E+03         24.6810
             816     1.94273E-03     24.1821E-03         6.00205        -1.56555        -2.29585        -1.70073         5.45387        -1.61249         1.87224     58.3469E-03    -29.0841E-03    -29.2628E-03    -29.2528E-03     58.3369E-03    -29.0841E-03     1.78838E-03    -30.7048E+06    -37.2943E+06    -242.583E+06    -37.3045E+06    -242.573E+06    -30.7048E+06    -1.05986E+03         24.6073
             817     972.683E-06     24.1814E-03         6.84801         1.82950        -6.53602        -5.20275         5.32307         2.02118        -1.94084     57.9934E-03    -28.9069E-03    -29.0865E-03    -29.0336E-03     57.9901E-03    -28.9565E-03     983.771E-06    -35.9163E+06    -40.3563E+06    -245.386E+06    -39.2756E+06    -245.382E+06    -37.0011E+06     366.815E+03         24.5638
             818     16.5216E-03     23.8696E-03         4.69773        -1.25418        -1.35081        -1.34290         4.68983        -1.25418    -430.384E-03     269.798E-03    -29.6427E-03    -240.155E-03    -66.2263E-03     95.8689E-03    -29.6427E-03     483.493E-03     153.453E+06     136.349E+06    -10.8541E+06    -10.8413E+06     141.347E+06     148.442E+06    -36.0688E+03         71.2600
             819     15.5489E-03     23.4288E-03         4.78320        -1.28374        -1.33980        -1.29689         4.77631        -1.31976    -393.167E-03     160.304E-03    -29.3521E-03    -130.952E-03    -42.5828E-03     71.9348E-03    -29.3521E-03     265.043E-03     105.057E+06     80.9353E+06    -18.6344E+06    -18.6214E+06     105.044E+06     80.9353E+06     198.889E+03         62.6538
             820     14.5779E-03     23.2971E-03         4.79445        -1.25041        -1.35569        -1.24419         4.78822        -1.35569    -374.622E-03     77.7185E-03    -28.9925E-03    -48.7260E-03    -29.5665E-03     58.5590E-03    -28.9925E-03     86.7546E-03     74.6131E+06     13.2278E+06    -21.7041E+06    -21.6920E+06     74.6010E+06     13.2278E+06    -58.4057E+03         52.3666
             821     13.6026E-03     23.2486E-03         4.78669        -1.20936        -1.37701        -1.20145         4.77878        -1.37701    -432.150E-03     61.9338E-03    -28.7312E-03    -33.2026E-03    -28.3030E-03     57.0342E-03    -28.7312E-03     41.6644E-03     64.1677E+06    -18.9698E+06    -31.8080E+06    -20.6005E+06     64.1664E+06    -30.1759E+06     46.8940E+03         43.0252
             822     12.6326E-03     23.2101E-03         4.76960        -1.15782        -1.39872        -1.15436         4.76613        -1.39872    -155.881E-03     59.3420E-03    -28.6823E-03    -30.6597E-03    -28.4299E-03     57.1121E-03    -28.6823E-03     26.6582E-03     32.8389E+06    -19.7352E+06    -41.6586E+06    -19.6513E+06     32.7551E+06    -41.6586E+06     325.111E+03         36.0150
             823     11.6587E-03     23.1921E-03         4.76896        -1.11459        -1.42479        -1.11118         4.76555        -1.42479     237.377E-03     58.0882E-03    -28.8058E-03    -29.2824E-03    -28.6615E-03     57.4673E-03    -28.8058E-03     14.1891E-03    -7.67979E+06    -20.2873E+06    -47.2825E+06    -20.0468E+06    -24.8979E+06    -30.3049E+06     964.124E+03         31.4408
             824     10.6882E-03     23.1814E-03         4.79185        -1.09144        -1.45675        -1.08818         4.78859        -1.45675     191.806E-03     58.1179E-03    -28.9361E-03    -29.1818E-03    -28.8576E-03     57.7937E-03    -28.9361E-03     10.5996E-03    -15.4132E+06    -20.7718E+06    -72.9218E+06    -20.6458E+06    -72.8509E+06    -15.6102E+06     1.78286E+06         28.7262
             825     9.71625E-03     23.1695E-03         4.84836        -1.10134        -1.49492        -1.10064         4.84766        -1.49492     73.4337E-03     58.1303E-03    -29.0048E-03    -29.1255E-03    -28.8569E-03     57.8617E-03    -29.0048E-03     9.60983E-03    -10.3084E+06    -20.8163E+06    -107.772E+06    -20.8968E+06    -107.692E+06    -10.3084E+06     2.53456E+06         27.1852
             826     8.74440E-03     23.1607E-03         4.95600        -1.16241        -1.53771        -1.14836         4.94196        -1.53771    -329.017E-03     58.1936E-03    -29.0317E-03    -29.1619E-03    -28.9674E-03     58.0169E-03    -29.0495E-03     7.80043E-03    -8.29534E+06    -21.9595E+06    -133.937E+06    -22.0524E+06    -133.844E+06    -8.29534E+06     3.12269E+06         26.2985
             827     7.77290E-03     23.1526E-03         5.10165        -1.26068        -1.58192        -1.23915         5.08012        -1.58192    -715.420E-03     58.2175E-03    -29.0162E-03    -29.2013E-03    -29.0099E-03     58.0921E-03    -29.0822E-03     6.58960E-03    -7.10158E+06    -23.6978E+06    -156.042E+06    -23.7482E+06    -155.992E+06    -7.10158E+06     2.27471E+06         25.7533
             828     6.80168E-03     23.1456E-03         5.27115        -1.38012        -1.62446        -1.34204         5.23306        -1.62446    -943.653E-03     58.1776E-03    -29.0088E-03    -29.1688E-03    -28.9776E-03     58.0803E-03    -29.1028E-03     5.81333E-03    -9.07525E+06    -24.8929E+06    -178.949E+06    -24.9025E+06    -178.939E+06    -9.07525E+06     703.826E+03         25.3868
             829     5.82955E-03     23.1399E-03         5.45941        -1.51981        -1.66203        -1.46277         5.40237        -1.66203    -21.3028E-03     58.1834E-03    -29.0535E-03    -29.1299E-03    -29.0040E-03     58.1095E-03    -29.1055E-03     5.05583E-03    -13.6610E+06    -25.5305E+06    -196.110E+06    -25.5333E+06    -196.107E+06    -13.6610E+06     12.5535E+03         25.1219
             830     4.85806E-03     23.1341E-03         5.56594        -1.59796        -1.69473        -1.54020         5.50818        -1.69473    -25.3772E-03     58.2394E-03    -29.1045E-03    -29.1349E-03    -29.0761E-03     58.1877E-03    -29.1116E-03     4.22073E-03    -17.0971E+06    -27.5097E+06    -212.836E+06    -27.5145E+06    -212.831E+06    -17.0971E+06     634.865E+03         24.9229
             831     3.88666E-03     23.1303E-03         5.83286        -1.66083        -1.90625        -1.66076         5.64435        -1.71781     920.759E-03     58.2691E-03    -29.0944E-03    -29.1747E-03    -29.1398E-03     58.2351E-03    -29.0953E-03     3.42274E-03    -22.1659E+06    -30.9422E+06    -228.368E+06    -30.9554E+06    -228.355E+06    -22.1659E+06     967.626E+03         24.7734
             832     2.91468E-03     23.1261E-03         6.08000        -1.73648        -2.09953        -1.66951         5.64998        -1.73648    -435.020E-03     58.1557E-03    -29.0007E-03    -29.1550E-03    -29.0757E-03     58.1357E-03    -29.0600E-03     2.59610E-03    -28.0278E+06    -34.7056E+06    -238.101E+06    -34.7220E+06    -238.084E+06    -28.0278E+06    -591.836E+03         24.6646
             833     1.94398E-03     23.1238E-03         7.16940        -1.72408        -3.18244        -1.81929         5.80625        -1.72408         2.72641     58.0031E-03    -28.8883E-03    -29.1148E-03    -28.9297E-03     57.9931E-03    -29.0633E-03     1.83055E-03    -32.0866E+06    -37.9964E+06    -243.930E+06    -38.0052E+06    -243.921E+06    -32.0866E+06    -1.02682E+06         24.5906
             834     970.861E-06     23.1223E-03         9.23330         1.71024        -8.67543        -5.11265         5.67052         1.71024        -4.70031     58.1076E-03    -28.8496E-03    -29.2579E-03    -29.1213E-03     58.1029E-03    -28.9816E-03     946.324E-06    -37.4729E+06    -40.9549E+06    -245.620E+06    -40.8472E+06    -245.616E+06    -37.5850E+06     246.358E+03         24.5470
             835     16.5196E-03     22.8080E-03         5.12716        -1.41600        -1.47404        -1.45703         5.12048        -1.42632    -411.331E-03     270.330E-03    -29.7126E-03    -240.618E-03    -65.8636E-03     95.5762E-03    -29.7126E-03     484.762E-03     153.403E+06     136.250E+06    -10.1263E+06    -10.1166E+06     140.540E+06     149.103E+06     661.606E+03         71.1891
             836     15.5481E-03     22.3673E-03         5.23887        -1.44129        -1.49973        -1.43760         5.23310        -1.49764    -371.236E-03     158.801E-03    -29.4407E-03    -129.360E-03    -42.1041E-03     71.5448E-03    -29.4407E-03     262.007E-03     105.335E+06     80.9632E+06    -17.6182E+06    -17.6120E+06     105.329E+06     80.9632E+06    -663.383E+03         62.6418
             837     14.5737E-03     22.2387E-03         5.28073        -1.42173        -1.53603        -1.41686         5.27586        -1.53603    -346.008E-03     78.0528E-03    -29.0662E-03    -48.9866E-03    -30.1474E-03     59.2136E-03    -29.0662E-03     85.9112E-03     75.2767E+06     13.6988E+06    -20.8201E+06    -20.8058E+06     75.2624E+06     13.6988E+06    -1.02440E+06         52.4125
             838     13.6050E-03     22.1873E-03         5.28611        -1.39504        -1.55767        -1.38909         5.28017        -1.55767    -393.142E-03     62.2914E-03    -28.7693E-03    -33.5221E-03    -28.8479E-03     57.6172E-03    -28.7693E-03     40.9937E-03     62.1073E+06    -20.1372E+06    -33.0967E+06    -22.1241E+06     62.0752E+06    -31.0778E+06     188.096E+03         43.0970
             839     12.6310E-03     22.1524E-03         5.28646        -1.36425        -1.57818        -1.36182         5.28402        -1.57818    -126.856E-03     59.5523E-03    -28.6915E-03    -30.8608E-03    -28.6384E-03     57.3299E-03    -28.6915E-03     26.6184E-03     32.4353E+06    -21.9599E+06    -42.6370E+06    -21.8239E+06     32.2992E+06    -42.6370E+06     1.94369E+06         36.0795
             840     11.6601E-03     22.1323E-03         5.30198        -1.34367        -1.60111        -1.33936         5.29767        -1.60111     280.543E-03     58.2752E-03    -28.8001E-03    -29.4750E-03    -28.8875E-03     57.6876E-03    -28.8001E-03     13.7437E-03    -7.03157E+06    -21.6056E+06    -48.6483E+06    -21.5239E+06    -25.3368E+06    -30.4248E+06     1.91841E+06         31.4810
             841     10.6879E-03     22.1217E-03         5.32493        -1.32757        -1.62801        -1.32341         5.32077        -1.62801     234.036E-03     58.1747E-03    -28.9157E-03    -29.2590E-03    -28.9801E-03     57.8957E-03    -28.9157E-03     9.84358E-03    -15.3288E+06    -21.9053E+06    -73.9344E+06    -21.9684E+06    -73.8713E+06    -15.3288E+06     1.74048E+06         28.7413
             842     9.71657E-03     22.1110E-03         5.37936        -1.34354        -1.65945        -1.34133         5.37715        -1.65945     169.838E-03     58.2257E-03    -28.9672E-03    -29.2585E-03    -29.0189E-03     57.9861E-03    -28.9672E-03     9.08773E-03    -9.98903E+06    -23.0879E+06    -108.462E+06    -23.1584E+06    -108.391E+06    -9.98903E+06     2.38755E+06         27.1817
             843     8.74508E-03     22.1011E-03         5.47349        -1.40075        -1.69388        -1.38625         5.45899        -1.69388    -241.301E-03     58.1757E-03    -28.9781E-03    -29.1975E-03    -29.0414E-03     58.0196E-03    -28.9781E-03     7.31681E-03    -10.0074E+06    -23.3649E+06    -132.920E+06    -23.4605E+06    -132.825E+06    -10.0074E+06     1.32320E+06         26.2834
             844     7.77385E-03     22.0936E-03         5.58803        -1.47654        -1.72875        -1.46238         5.57387        -1.72875    -545.241E-03     58.0690E-03    -28.9547E-03    -29.1143E-03    -28.9591E-03     57.9621E-03    -29.0029E-03     6.09123E-03    -7.62456E+06    -21.2657E+06    -155.285E+06    -21.3252E+06    -155.225E+06    -7.62456E+06     26.3785E+03         25.7317
             845     6.80139E-03     22.0870E-03         5.73675        -1.58576        -1.76153        -1.54838         5.69937        -1.76153    -857.991E-03     58.0588E-03    -28.9804E-03    -29.0784E-03    -28.9446E-03     57.9732E-03    -29.0286E-03     5.42884E-03    -8.24624E+06    -21.5917E+06    -179.408E+06    -21.6156E+06    -179.385E+06    -8.24624E+06     759.005E+03         25.3618
             846     5.83039E-03     22.0806E-03         5.92494        -1.71704        -1.81186        -1.65482         5.83952        -1.78865     149.876E-03     58.0945E-03    -29.0150E-03    -29.0795E-03    -29.0161E-03     58.0311E-03    -29.0150E-03     4.67683E-03    -15.2080E+06    -26.3330E+06    -196.575E+06    -26.3609E+06    -196.547E+06    -15.2080E+06     1.17014E+06         25.0951
             847     4.85860E-03     22.0759E-03         6.03189        -1.78769        -1.85221        -1.71635         5.91807        -1.80973    -112.929E-03     58.1052E-03    -29.0025E-03    -29.1027E-03    -29.0576E-03     58.0601E-03    -29.0025E-03     3.94791E-03    -19.5951E+06    -30.0587E+06    -213.957E+06    -30.0695E+06    -213.946E+06    -19.5951E+06     1.10562E+06         24.8953
             848     3.88686E-03     22.0709E-03         6.34705        -1.80805        -2.15380        -1.80319         6.01021        -1.82183         1.16508     58.0510E-03    -28.9499E-03    -29.1012E-03    -29.0452E-03     58.0210E-03    -28.9757E-03     3.21371E-03    -23.4677E+06    -31.7221E+06    -228.035E+06    -31.7336E+06    -228.024E+06    -23.4677E+06     1.30349E+06         24.7454
             849     2.91592E-03     22.0678E-03         6.79530        -1.82854        -2.60290        -1.80410         5.99649        -1.82854    -847.161E-03     57.8565E-03    -28.8449E-03    -29.0116E-03    -28.8854E-03     57.8393E-03    -28.9539E-03     2.40743E-03    -28.6070E+06    -33.1687E+06    -237.424E+06    -33.1882E+06    -237.405E+06    -28.6070E+06     872.513E+03         24.6364
             850     1.94274E-03     22.0656E-03         8.40086        -1.80647        -4.21254        -1.91186         6.10017        -1.80647         3.51069     57.8332E-03    -28.7727E-03    -29.0605E-03    -28.8531E-03     57.8246E-03    -28.9715E-03     1.65218E-03    -33.8153E+06    -36.3311E+06    -244.723E+06    -36.3454E+06    -244.709E+06    -33.8153E+06    -225.737E+03         24.5625
             851     971.837E-06     22.0638E-03         12.0229         1.32667        -10.9629        -4.88944         5.94948         1.32667        -7.16023     57.9531E-03    -28.7186E-03    -29.2345E-03    -29.1157E-03     57.9500E-03    -28.8343E-03     621.993E-06    -37.8955E+06    -39.7783E+06    -246.682E+06    -39.6694E+06    -246.679E+06    -38.0075E+06    -215.071E+03         24.5190
             852     16.5226E-03     21.7435E-03         5.58313        -1.57820        -1.62125        -1.58905         5.57786        -1.60512    -380.861E-03     270.232E-03    -29.6551E-03    -240.577E-03    -65.5605E-03     95.2156E-03    -29.6551E-03     484.823E-03     153.682E+06     135.928E+06    -9.85367E+06    -9.84067E+06     140.484E+06     149.113E+06    -219.937E+03         71.1266
             853     15.5476E-03     21.3137E-03         5.72446        -1.60481        -1.68158        -1.60059         5.72024        -1.68158    -319.970E-03     158.793E-03    -29.4215E-03    -129.372E-03    -40.9136E-03     70.3351E-03    -29.4215E-03     262.698E-03     105.395E+06     79.7216E+06    -16.9518E+06    -16.9378E+06     105.381E+06     79.7216E+06    -258.354E+03         62.6320
             854     14.5761E-03     21.1736E-03         5.78954        -1.60588        -1.72194        -1.60237         5.78603        -1.72194    -298.904E-03     78.1413E-03    -29.0810E-03    -49.0604E-03    -30.3431E-03     59.4241E-03    -29.0810E-03     85.4087E-03     73.0631E+06     11.7552E+06    -21.4799E+06    -21.4569E+06     73.0401E+06     11.7552E+06     310.991E+03         52.4454
             855     13.6024E-03     21.1309E-03         5.81257        -1.59798        -1.74322        -1.59373         5.80832        -1.74322    -345.631E-03     62.1689E-03    -28.7885E-03    -33.3804E-03    -28.9730E-03     57.7615E-03    -28.7885E-03     39.9007E-03     59.7755E+06    -21.6319E+06    -33.2927E+06    -24.1191E+06     59.7173E+06    -30.7473E+06     1.31227E+06         43.1512
             856     12.6315E-03     21.0907E-03         5.83232        -1.59106        -1.76144        -1.58952         5.83078        -1.76144    -84.3961E-03     60.0492E-03    -28.6762E-03    -31.3730E-03    -29.2082E-03     57.8843E-03    -28.6762E-03     26.1452E-03     32.1284E+06    -23.9118E+06    -42.8706E+06    -23.7754E+06     31.9920E+06    -42.8706E+06     2.49710E+06         36.1258
             857     11.6604E-03     21.0736E-03         5.85680        -1.58683        -1.78006        -1.58193         5.85190        -1.78006     319.104E-03     58.3971E-03    -28.7375E-03    -29.6596E-03    -29.1530E-03     57.8905E-03    -28.7375E-03     12.8270E-03    -7.30264E+06    -22.5255E+06    -49.1790E+06    -22.5287E+06    -24.4959E+06    -31.9826E+06     2.38319E+06         31.5038
             858     10.6889E-03     21.0621E-03         5.88027        -1.58139        -1.80062        -1.57669         5.87557        -1.80062     269.274E-03     58.1498E-03    -28.8319E-03    -29.3179E-03    -29.0727E-03     57.9047E-03    -28.8319E-03     9.23511E-03    -17.3476E+06    -23.0288E+06    -75.1281E+06    -23.1942E+06    -74.9627E+06    -17.3476E+06     2.64122E+06         28.7390
             859     9.71753E-03     21.0516E-03         5.92250        -1.59585        -1.82407        -1.59220         5.91885        -1.82407     239.320E-03     58.2168E-03    -28.8532E-03    -29.3635E-03    -29.1623E-03     58.0155E-03    -28.8532E-03     8.31784E-03    -13.0430E+06    -23.6723E+06    -107.244E+06    -23.7943E+06    -107.122E+06    -13.0430E+06     1.45681E+06         27.1606
             860     8.74628E-03     21.0419E-03         5.98970        -1.63397        -1.84986        -1.61946         5.97519        -1.84986    -172.481E-03     57.9621E-03    -28.8326E-03    -29.1294E-03    -28.9985E-03     57.8311E-03    -28.8326E-03     6.69506E-03    -15.0581E+06    -21.9834E+06    -130.179E+06    -22.0875E+06    -130.075E+06    -15.0581E+06    -1.70930E+06         26.2506
             861     7.77406E-03     21.0351E-03         6.08353        -1.69961        -1.87546        -1.68839         6.07231        -1.87546    -380.333E-03     57.8845E-03    -28.8480E-03    -29.0365E-03    -28.9484E-03     57.7964E-03    -28.8480E-03     5.49116E-03    -14.9535E+06    -22.7264E+06    -158.013E+06    -22.7905E+06    -157.949E+06    -14.9535E+06    -1.22679E+06         25.6924
             862     6.80318E-03     21.0280E-03         6.21619        -1.80511        -1.89915        -1.76867         6.17783        -1.89723    -756.861E-03     57.8683E-03    -28.8694E-03    -28.9988E-03    -28.9335E-03     57.8029E-03    -28.8694E-03     4.74147E-03    -13.8698E+06    -26.0514E+06    -181.471E+06    -26.1058E+06    -181.417E+06    -13.8698E+06     2.31870E+06         25.3192
             863     5.83076E-03     21.0223E-03         6.38988        -1.89148        -1.98196        -1.84755         6.27658        -1.91258     338.294E-03     57.8037E-03    -28.8503E-03    -28.9534E-03    -28.9040E-03     57.7542E-03    -28.8503E-03     4.09994E-03    -17.9151E+06    -28.7093E+06    -196.502E+06    -28.7917E+06    -196.420E+06    -17.9151E+06     3.57737E+06         25.0509
             864     4.85929E-03     21.0168E-03         6.48959        -1.92202        -2.05752        -1.88777         6.31984        -1.92202    -133.133E-03     57.7567E-03    -28.8009E-03    -28.9558E-03    -28.8961E-03     57.7217E-03    -28.8256E-03     3.45048E-03    -23.6809E+06    -32.4383E+06    -213.872E+06    -32.4912E+06    -213.819E+06    -23.6809E+06     2.69048E+06         24.8503
             865     3.88783E-03     21.0128E-03         6.85134        -1.92293        -2.42824        -1.94667         6.36977        -1.92293         1.41525     57.5834E-03    -28.7320E-03    -28.8514E-03    -28.7559E-03     57.5590E-03    -28.8031E-03     2.86414E-03    -30.0918E+06    -35.5035E+06    -227.340E+06    -35.5172E+06    -227.326E+06    -30.0918E+06     683.563E+03         24.6999
             866     2.91494E-03     21.0096E-03         7.47951        -1.91729        -3.07581        -1.93531         6.33901        -1.91729        -1.12889     57.6327E-03    -28.7252E-03    -28.9075E-03    -28.8235E-03     57.6189E-03    -28.7954E-03     2.12491E-03    -32.8924E+06    -36.0976E+06    -237.287E+06    -36.1084E+06    -237.276E+06    -32.8924E+06     522.604E+03         24.5910
             867     1.94435E-03     21.0073E-03         9.48931        -1.88798        -5.10114        -1.99410         6.38227        -1.88798         4.13114     57.6538E-03    -28.6961E-03    -28.9577E-03    -28.8915E-03     57.6481E-03    -28.7566E-03     1.35557E-03    -32.6154E+06    -36.2878E+06    -244.021E+06    -36.3054E+06    -244.004E+06    -32.6154E+06     1.18250E+06         24.5174
             868     972.263E-06     21.0050E-03         14.4759     879.716E-03        -12.8520        -4.60191         6.22574     879.716E-03        -9.15603     57.3927E-03    -28.5018E-03    -28.8909E-03    -28.6398E-03     57.3902E-03    -28.7504E-03     862.533E-06    -36.3114E+06    -39.0666E+06    -247.269E+06    -38.7616E+06    -247.259E+06    -36.6272E+06     493.394E+03         24.4742
             869     16.5274E-03     20.7020E-03         6.05357        -1.73677        -1.79027        -1.73293         6.04973        -1.79027    -339.797E-03     271.246E-03    -29.6343E-03    -241.612E-03    -64.9712E-03     94.6056E-03    -29.6343E-03     487.377E-03     153.793E+06     135.795E+06    -9.80384E+06    -9.79552E+06     140.218E+06     149.361E+06    -426.415E+03         71.0367
             870     15.5467E-03     20.2478E-03         6.23050        -1.78173        -1.87081        -1.77888         6.22764        -1.87081    -270.946E-03     161.917E-03    -29.4244E-03    -132.493E-03    -41.9157E-03     71.3401E-03    -29.4244E-03     268.068E-03     105.479E+06     79.6251E+06    -17.0900E+06    -17.0749E+06     105.464E+06     79.6251E+06     298.270E+03         62.5818
             871     14.5751E-03     20.1175E-03         6.31867        -1.80497        -1.91234        -1.80235         6.31605        -1.91234    -264.544E-03     77.8294E-03    -29.0634E-03    -48.7660E-03    -30.7450E-03     59.8085E-03    -29.0634E-03     84.3550E-03     70.7521E+06     8.96720E+06    -23.1450E+06    -23.0990E+06     70.7061E+06     8.96720E+06     1.72299E+06         52.4431
             872     13.6038E-03     20.0685E-03         6.36191        -1.81853        -1.93230        -1.81545         6.35883        -1.93230    -305.151E-03     62.5648E-03    -28.7443E-03    -33.8205E-03    -29.5128E-03     58.2571E-03    -28.7443E-03     39.3640E-03     58.9055E+06    -22.9743E+06    -32.3386E+06    -24.5349E+06     58.8471E+06    -30.7196E+06     1.93843E+06         43.1770
             873     12.6330E-03     20.0317E-03         6.39341        -1.82874        -1.94742        -1.82773         6.39240        -1.94742    -51.3921E-03     60.1230E-03    -28.5894E-03    -31.5336E-03    -29.6780E-03     58.2674E-03    -28.5894E-03     24.3555E-03     31.7781E+06    -22.2637E+06    -41.9487E+06    -22.1363E+06     31.6508E+06    -41.9487E+06     1.88455E+06         36.1464
             874     11.6615E-03     20.0129E-03         6.42642        -1.84291        -1.96085        -1.83760         6.42111        -1.96085     351.072E-03     58.3146E-03    -28.6044E-03    -29.7102E-03    -29.2938E-03     57.8982E-03    -28.6044E-03     11.4286E-03    -7.81121E+06    -22.0610E+06    -50.5569E+06    -20.5863E+06    -26.0108E+06    -33.8320E+06     2.99112E+06         31.5017
             875     10.6903E-03     20.0037E-03         6.44749        -1.84581        -1.97415        -1.84073         6.44241        -1.97415     294.425E-03     58.1665E-03    -28.6693E-03    -29.4972E-03    -29.3122E-03     57.9814E-03    -28.6693E-03     7.97401E-03    -16.9119E+06    -21.5440E+06    -74.3116E+06    -20.2405E+06    -74.0590E+06    -18.4680E+06      3.1552E+06         28.7125
             876     9.71915E-03     19.9913E-03         6.46426        -1.84377        -1.98940        -1.83875         6.45924        -1.98940     292.719E-03     57.9430E-03    -28.6542E-03    -29.2887E-03    -29.1370E-03     57.7913E-03    -28.6542E-03     7.11035E-03    -15.2050E+06    -19.6294E+06    -103.149E+06    -19.7361E+06    -103.043E+06    -15.2050E+06    -101.163E+03         27.1159
             877     8.74738E-03     19.9842E-03         6.50926        -1.86939        -2.00671        -1.85521         6.49507        -2.00671    -103.006E-03     57.7277E-03    -28.6299E-03    -29.0979E-03    -29.0131E-03     57.6429E-03    -28.6299E-03     5.31636E-03    -16.6825E+06    -21.1880E+06    -130.568E+06    -21.2934E+06    -130.462E+06    -16.6825E+06    -1.07737E+06         26.1946
             878     7.77615E-03     19.9755E-03         6.58012        -1.92162        -2.02321        -1.91112         6.56962        -2.02321    -246.161E-03     57.5928E-03    -28.6309E-03    -28.9619E-03    -28.9050E-03     57.5359E-03    -28.6309E-03     4.33440E-03    -17.2203E+06    -25.9609E+06    -162.264E+06    -26.0552E+06    -162.169E+06    -17.2203E+06     1.86951E+06         25.6301
             879     6.80395E-03     19.9701E-03         6.68730        -1.99737        -2.05385        -1.97610         6.64751        -2.03534    -674.839E-03     57.5059E-03    -28.6192E-03    -28.8867E-03    -28.8454E-03     57.4646E-03    -28.6192E-03     3.69491E-03    -17.1626E+06    -29.7682E+06    -182.534E+06    -29.8324E+06    -182.469E+06    -17.1626E+06     3.10459E+06         25.2536
             880     5.83266E-03     19.9636E-03         6.83797        -2.04112        -2.16227        -2.03144         6.70713        -2.04112     468.273E-03     57.3187E-03    -28.5519E-03    -28.7668E-03    -28.7036E-03     57.2874E-03    -28.5838E-03     3.19728E-03    -20.1612E+06    -30.8787E+06    -196.437E+06    -30.9523E+06    -196.364E+06    -20.1612E+06     3.33321E+06         24.9836
             881     4.86063E-03     19.9589E-03         6.92588        -2.04163        -2.25800        -2.05069         6.71857        -2.04163    -146.944E-03     57.1470E-03    -28.5076E-03    -28.6394E-03    -28.5616E-03     57.1258E-03    -28.5642E-03     2.64167E-03    -23.9160E+06    -30.6980E+06    -212.265E+06    -30.7513E+06    -212.212E+06    -23.9160E+06     2.73260E+06         24.7822
             882     3.88798E-03     19.9549E-03         7.31829        -2.03498        -2.66547        -2.08468         6.73750        -2.03498         1.59206     57.1538E-03    -28.5198E-03    -28.6339E-03    -28.5753E-03     57.1404E-03    -28.5651E-03     2.05931E-03    -25.4193E+06    -31.5928E+06    -226.059E+06    -31.6205E+06    -226.031E+06    -25.4193E+06     1.49176E+06         24.6315
             883     2.91677E-03     19.9517E-03         8.06516        -2.02158        -3.43814        -2.06697         6.69399        -2.02158        -1.31677     57.1461E-03    -28.4458E-03    -28.7003E-03    -28.5965E-03     57.1378E-03    -28.5413E-03     1.66721E-03    -29.8032E+06    -34.9758E+06    -237.877E+06    -34.9961E+06    -237.857E+06    -29.8032E+06     1.09109E+06         24.5224
             884     1.94425E-03     19.9486E-03         10.3395        -1.99028        -5.73579        -2.08627         6.68995        -1.99028         4.55331     57.0352E-03    -28.3947E-03    -28.6405E-03    -28.5243E-03     57.0305E-03    -28.5063E-03     1.12987E-03    -33.3752E+06    -37.5667E+06    -243.956E+06    -37.5825E+06    -243.940E+06    -33.3752E+06     808.803E+03         24.4489
             885     971.873E-06     19.9490E-03         16.3444     368.215E-03        -14.0878        -4.30123         6.55779     368.215E-03        -10.5519     56.9504E-03    -28.1872E-03    -28.7632E-03    -28.5126E-03     56.9484E-03    -28.4357E-03     600.723E-06    -36.1067E+06    -38.8200E+06    -245.943E+06    -38.5186E+06    -245.929E+06    -36.4224E+06     420.381E+03         24.4060
             886     16.5172E-03     19.6480E-03         6.52789        -1.88335        -1.97945        -1.88042         6.52496        -1.97945    -308.384E-03     271.573E-03    -29.6972E-03    -241.876E-03    -64.4941E-03     94.1913E-03    -29.6972E-03     488.303E-03     153.443E+06     135.006E+06    -9.81899E+06    -9.81492E+06     139.357E+06     149.089E+06     155.333E+03         70.8767
             887     15.5465E-03     19.1828E-03         6.74212        -1.96195        -2.06277        -1.95970         6.73987        -2.06277    -251.718E-03     163.910E-03    -29.4697E-03    -134.440E-03    -43.9367E-03     73.4064E-03    -29.4697E-03     270.425E-03     104.393E+06     80.9924E+06    -18.1318E+06    -18.1274E+06     104.389E+06     80.9924E+06     714.101E+03         62.4614
             888     14.5763E-03     19.0593E-03         6.85809        -2.01172        -2.10456        -2.00952         6.85590        -2.10456    -252.609E-03     77.9290E-03    -29.0258E-03    -48.9032E-03    -31.8122E-03     60.8380E-03    -29.0258E-03     82.5656E-03     71.3404E+06     11.0534E+06    -22.8838E+06    -22.8440E+06     71.3005E+06     11.0534E+06     1.47055E+06         52.3898
             889     13.6048E-03     19.0059E-03         6.91547        -2.04360        -2.12271        -2.04115         6.91302        -2.12271    -280.758E-03     63.1423E-03    -28.6015E-03    -34.5408E-03    -30.4762E-03     59.0777E-03    -28.6015E-03     38.3696E-03     59.1040E+06    -21.4316E+06    -33.7385E+06    -22.1622E+06     59.0621E+06    -32.9660E+06     1.53674E+06         43.1627
             890     12.6354E-03     18.9717E-03         6.95818        -2.07223        -2.13430        -2.07151         6.95746        -2.13430    -33.2967E-03     59.9782E-03    -28.3881E-03    -31.5901E-03    -30.0468E-03     58.4349E-03    -28.3881E-03     22.0374E-03     30.2366E+06    -20.8079E+06    -44.5554E+06    -20.6769E+06     30.1056E+06    -44.5554E+06     1.55539E+06         36.1331
             891     11.6640E-03     18.9539E-03         6.99492        -2.09971        -2.14230        -2.09423         6.98945        -2.14230     371.373E-03     58.3566E-03    -28.3662E-03    -29.9904E-03    -29.6855E-03     58.0518E-03    -28.3662E-03     9.55188E-03    -6.62368E+06    -21.7156E+06    -51.0883E+06    -18.3799E+06    -27.1190E+06    -33.9287E+06     2.74045E+06         31.4686
             892     10.6935E-03     18.9431E-03         7.00180        -2.09788        -2.14891        -2.09261         6.99653        -2.14891     305.976E-03     57.9203E-03    -28.3850E-03    -29.5352E-03    -29.4369E-03     57.8219E-03    -28.3850E-03     5.71760E-03    -14.1305E+06    -19.5259E+06    -72.2696E+06    -16.3239E+06    -72.1291E+06    -17.4731E+06     1.98790E+06         28.6571
             893     9.72176E-03     18.9339E-03         7.00676        -2.09172        -2.15660        -2.08572         7.00075        -2.15660     326.920E-03     57.5502E-03    -28.3512E-03    -29.1990E-03    -29.1232E-03     57.4744E-03    -28.3512E-03     4.87177E-03    -11.8027E+06    -17.4423E+06    -101.005E+06    -17.5584E+06    -100.889E+06    -11.8027E+06     1.34381E+06         27.0432
             894     8.75058E-03     18.9240E-03         7.04109        -2.11473        -2.16518        -2.10110         7.02729        -2.16502    -47.0396E-03     57.2582E-03    -28.3131E-03    -28.9451E-03    -28.9088E-03     57.2219E-03    -28.3131E-03     3.27668E-03    -12.9740E+06    -22.5581E+06    -134.257E+06    -22.7572E+06    -134.058E+06    -12.9740E+06     3.26273E+06         26.1110
             895     7.77866E-03     18.9187E-03         7.08078        -2.14004        -2.17879        -2.13677         7.07052        -2.17180    -164.350E-03     57.0504E-03    -28.2732E-03    -28.7772E-03    -28.7559E-03     57.0291E-03    -28.2732E-03     2.49939E-03    -14.7393E+06    -26.3905E+06    -163.291E+06    -26.5420E+06    -163.139E+06    -14.7393E+06     4.47308E+06         25.5402
             896     6.80697E-03     18.9110E-03         7.14766        -2.16296        -2.22615        -2.17394         7.10740        -2.17491    -628.489E-03     56.7948E-03    -28.2203E-03    -28.5745E-03    -28.5588E-03     56.7790E-03    -28.2203E-03     2.15156E-03    -17.1555E+06    -28.0993E+06    -181.798E+06    -28.1847E+06    -181.713E+06    -17.1555E+06     3.45560E+06         25.1601
             897     5.83485E-03     18.9065E-03         7.26390        -2.17299        -2.33891        -2.20543         7.13043        -2.17299     510.044E-03     56.5580E-03    -28.1420E-03    -28.4160E-03    -28.3725E-03     56.5465E-03    -28.1739E-03     1.77849E-03    -20.0015E+06    -30.1863E+06    -196.332E+06    -30.2244E+06    -196.294E+06    -20.0015E+06     2.49086E+06         24.8880
             898     4.86214E-03     18.9014E-03         7.33643        -2.16662        -2.42753        -2.20917         7.11807        -2.16662    -177.523E-03     56.3754E-03    -28.1011E-03    -28.2743E-03    -28.2340E-03     56.3670E-03    -28.1330E-03     1.45198E-03    -24.6151E+06    -32.4140E+06    -210.511E+06    -32.4408E+06    -210.484E+06    -24.6151E+06     2.07934E+06         24.6854
             899     3.89043E-03     18.8974E-03         7.71364        -2.15580        -2.82508        -2.21213         7.10068        -2.15580         1.65081     56.3061E-03    -28.1027E-03    -28.2033E-03    -28.1956E-03     56.3017E-03    -28.1061E-03     1.13151E-03    -28.1942E+06    -35.1657E+06    -225.876E+06    -35.1997E+06    -225.842E+06    -28.1942E+06     2.41877E+06         24.5341
             900     2.91750E-03     18.8942E-03         8.51426        -2.13971        -3.64750        -2.19629         7.06305        -2.13971        -1.43918     56.1537E-03    -28.0091E-03    -28.1446E-03    -28.0522E-03     56.1499E-03    -28.0977E-03     863.894E-06    -29.7983E+06    -36.5187E+06    -237.621E+06    -36.5460E+06    -237.594E+06    -29.7983E+06     1.73499E+06         24.4245
             901     1.94478E-03     18.8925E-03         10.8827        -2.11656        -6.03605        -2.17257         7.01923        -2.11656         4.71361     56.1196E-03    -28.0028E-03    -28.1169E-03    -28.0292E-03     56.1172E-03    -28.0880E-03     570.545E-06    -34.1842E+06    -38.6143E+06    -243.060E+06    -38.0146E+06    -243.043E+06    -34.8009E+06     517.506E+03         24.3505
             902     972.830E-06     18.8901E-03         17.4335    -233.129E-03        -14.4717        -3.97488         6.93662    -233.129E-03        -11.2195     56.1550E-03    -27.8481E-03    -28.3069E-03    -28.3064E-03     56.1545E-03    -27.8481E-03     173.710E-06    -38.2102E+06    -40.8555E+06    -246.033E+06    -40.2591E+06    -246.013E+06    -38.8269E+06     60.3596E+03         24.3075
             903     16.5237E-03     18.5913E-03         6.98980        -2.01757        -2.16832        -2.01488         6.98711        -2.16832    -302.013E-03     272.112E-03    -29.6737E-03    -242.438E-03    -65.5206E-03     95.1943E-03    -29.6737E-03     488.788E-03     153.432E+06     133.954E+06    -10.2647E+06    -10.2497E+06     138.952E+06     148.420E+06     893.439E+03         70.6367
             904     15.5470E-03     18.1245E-03         7.23900        -2.12726        -2.25352        -2.12507         7.23680        -2.25352    -254.205E-03     164.288E-03    -29.3805E-03    -134.908E-03    -45.1565E-03     74.5370E-03    -29.3805E-03     270.267E-03     103.349E+06     80.2115E+06    -18.9867E+06    -18.9722E+06     103.334E+06     80.2115E+06     791.884E+03         62.2741
             905     14.5764E-03     17.9933E-03         7.38160        -2.20536        -2.29574        -2.20339         7.37963        -2.29574    -246.853E-03     78.0281E-03    -28.8596E-03    -49.1685E-03    -32.8682E-03     61.7277E-03    -28.8596E-03     79.8461E-03     71.2166E+06     12.0031E+06    -22.4700E+06    -22.4462E+06     71.1928E+06     12.0031E+06    -164.106E+03         52.2792
             906     13.6099E-03     17.9465E-03         7.46149        -2.26474        -2.31240        -2.26264         7.45939        -2.31240    -265.146E-03     62.9256E-03    -28.3463E-03    -34.5793E-03    -31.2733E-03     59.6196E-03    -28.3463E-03     34.8338E-03     59.1488E+06    -20.1931E+06    -34.3475E+06    -21.3901E+06     59.1051E+06    -33.1068E+06     717.293E+03         43.1004
             907     12.6380E-03     17.9101E-03         7.51645        -2.30374        -2.33060        -2.31327         7.51591        -2.32051    -17.8610E-03     59.9485E-03    -28.0564E-03    -31.8922E-03    -30.6207E-03     58.6771E-03    -28.0564E-03     19.2387E-03     29.2784E+06    -20.0872E+06    -45.2462E+06    -19.9538E+06     29.1449E+06    -45.2462E+06     1.96084E+06         36.0799
             908     11.6694E-03     17.8941E-03         7.54376        -2.31970        -2.34537        -2.33639         7.53877        -2.32370     370.054E-03     58.2568E-03    -27.9649E-03    -30.2918E-03    -30.1370E-03     58.1019E-03    -27.9649E-03     6.25345E-03    -7.36494E+06    -21.7345E+06    -50.0193E+06    -18.3922E+06    -26.7468E+06    -33.9797E+06     1.77004E+06         31.4013
             909     10.6977E-03     17.8844E-03         7.54765        -2.31546        -2.35275        -2.33901         7.54286        -2.32442     303.605E-03     57.3899E-03    -27.9229E-03    -29.4670E-03    -29.4335E-03     57.3563E-03    -27.9229E-03     3.05876E-03    -15.1686E+06    -20.8938E+06    -71.7538E+06    -17.7332E+06    -71.6579E+06    -18.4251E+06     1.94704E+06         28.5703
             910     9.72731E-03     17.8745E-03         7.55814        -2.31297        -2.36203        -2.34539         7.55273        -2.32419     322.945E-03     57.0201E-03    -27.8537E-03    -29.1664E-03    -29.1434E-03     56.9971E-03    -27.8537E-03     2.23720E-03    -11.2219E+06    -19.3483E+06    -103.733E+06    -19.6258E+06    -103.456E+06    -11.2219E+06     4.46347E+06         26.9405
             911     8.75498E-03     17.8673E-03         7.56867        -2.32038        -2.36101        -2.34611         7.55647        -2.32308    -39.9568E-03     56.5350E-03    -27.7676E-03    -28.7673E-03    -28.7577E-03     56.5253E-03    -27.7676E-03     549.028E-06    -10.6712E+06    -21.6260E+06    -135.656E+06    -21.9759E+06    -135.306E+06    -10.6712E+06     6.18389E+06         25.9977
             912     7.78326E-03     17.8599E-03         7.57191        -2.32060        -2.36472        -2.35534         7.56253        -2.32060    -139.263E-03     56.0686E-03    -27.6803E-03    -28.3884E-03    -28.3820E-03     56.0622E-03    -27.6803E-03     666.420E-09    -13.0437E+06    -24.0930E+06    -161.428E+06    -24.3132E+06    -161.208E+06    -13.0437E+06     5.35248E+06         25.4201
             913     6.81100E-03     17.8550E-03         7.60133        -2.31534        -2.40742        -2.36991         7.56383        -2.31534    -607.699E-03     55.7021E-03    -27.5981E-03    -28.1041E-03    -28.0980E-03     55.6961E-03    -27.5981E-03    -75.7934E-06    -16.5876E+06    -26.7050E+06    -180.663E+06    -26.8221E+06    -180.546E+06    -16.5876E+06     4.12068E+06         25.0354
             914     5.83805E-03     17.8492E-03         7.67052        -2.30669        -2.49611        -2.37196         7.54637        -2.30669     506.093E-03     55.4067E-03    -27.5234E-03    -27.8833E-03    -27.8789E-03     55.4022E-03    -27.5234E-03    -246.767E-06    -20.3351E+06    -29.1251E+06    -195.515E+06    -29.1935E+06    -195.447E+06    -20.3351E+06     3.27984E+06         24.7601
             915     4.86606E-03     17.8451E-03         7.72196        -2.29485        -2.56993        -2.36451         7.51654        -2.29485    -188.760E-03     55.1827E-03    -27.4651E-03    -27.7176E-03    -27.7149E-03     55.1800E-03    -27.4651E-03    -243.991E-06    -23.3443E+06    -32.0377E+06    -211.001E+06    -32.1280E+06    -210.911E+06    -23.3443E+06     3.78481E+06         24.5552
             916     3.89243E-03     17.8412E-03         8.04542        -2.28109        -2.91769        -2.33912         7.46685        -2.28109         1.61159     54.9068E-03    -27.4031E-03    -27.5036E-03    -27.4979E-03     54.9044E-03    -27.4065E-03    -162.578E-06    -29.4458E+06    -35.0222E+06    -224.281E+06    -35.0953E+06    -224.208E+06    -29.4458E+06     3.24435E+06         24.4023
             917     2.91968E-03     17.8383E-03         8.80156        -2.26524        -3.69111        -2.31901         7.42947        -2.26524        -1.44198     54.8024E-03    -27.3635E-03    -27.4390E-03    -27.4239E-03     54.8011E-03    -27.3772E-03    -222.674E-06    -32.9232E+06    -37.5746E+06    -236.006E+06    -37.5863E+06    -235.994E+06    -32.9232E+06     760.375E+03         24.2914
             918     1.94672E-03     17.8362E-03         11.0584        -2.25406        -5.96446        -2.26411         7.35804        -2.25406         4.59140     54.7107E-03    -27.2964E-03    -27.4143E-03    -27.3486E-03     54.7100E-03    -27.3614E-03    -55.4008E-06    -33.7209E+06    -40.1948E+06    -243.257E+06    -39.5885E+06    -243.246E+06    -34.3376E+06     667.762E+03         24.2166
             919     972.941E-06     17.8345E-03         17.6329    -846.347E-03        -13.9469        -3.65672         7.34276    -846.347E-03        -11.1321     54.6518E-03    -27.1187E-03    -27.5331E-03    -27.2490E-03     54.6508E-03    -27.4018E-03    -104.461E-06    -37.6180E+06    -43.2849E+06    -245.092E+06    -40.8929E+06    -245.076E+06    -40.0263E+06     535.443E+03         24.1731
             920     16.5208E-03     17.5323E-03         7.43745        -2.13874        -2.35347        -2.13635         7.43505        -2.35347    -289.686E-03     272.565E-03    -29.5238E-03    -243.041E-03    -67.8863E-03     97.4100E-03    -29.5238E-03     488.378E-03     153.955E+06     133.761E+06    -10.1565E+06    -10.1282E+06     138.699E+06     148.989E+06     1.66551E+06         70.3032
             921     15.5522E-03     17.0641E-03         7.70950        -2.27274        -2.44040        -2.27073         7.70750        -2.44040    -241.672E-03     165.329E-03    -29.1091E-03    -136.219E-03    -46.4925E-03     75.6016E-03    -29.1091E-03     271.565E-03     104.039E+06     80.0155E+06    -17.7060E+06    -17.6780E+06     104.011E+06     80.0155E+06     1.25427E+06         62.0073
             922     14.5843E-03     16.9291E-03         7.87977        -2.38013        -2.48389        -2.37855         7.87819        -2.48389    -223.136E-03     77.8667E-03    -28.4995E-03    -49.3671E-03    -33.7594E-03     62.2589E-03    -28.4995E-03     77.3722E-03     70.9694E+06     10.7487E+06    -21.6257E+06    -21.3706E+06     70.9526E+06     10.5104E+06    -477.653E+03         52.1004
             923     13.6135E-03     16.8852E-03         7.98874        -2.46656        -2.50625        -2.47126         7.98708        -2.49989    -238.443E-03     62.6214E-03    -27.9012E-03    -34.7202E-03    -32.2050E-03     60.1062E-03    -27.9012E-03     30.3932E-03     57.3669E+06    -22.5107E+06    -34.7850E+06    -23.1208E+06     57.3323E+06    -34.1403E+06     277.114E+03         42.9857
             924     12.6463E-03     16.8491E-03         8.05506        -2.50460        -2.54184        -2.54076         8.05468        -2.50530    -6.49791E-03     59.6636E-03    -27.5102E-03    -32.1535E-03    -31.2559E-03     58.7661E-03    -27.5102E-03     14.9509E-03     28.8558E+06    -21.3958E+06    -46.0838E+06    -21.3181E+06     28.7780E+06    -46.0838E+06     1.42918E+06         35.9858
             925     11.6755E-03     16.8340E-03         8.08612        -2.50411        -2.58088        -2.57681         8.08205        -2.50411     347.458E-03     57.5143E-03    -27.3378E-03    -30.1765E-03    -30.1288E-03     57.4665E-03    -27.3378E-03     1.98342E-03    -7.56320E+06    -22.4786E+06    -51.2853E+06    -19.1181E+06    -26.4338E+06    -35.7752E+06     1.82997E+06         31.2995
             926     10.7057E-03     16.8266E-03         8.09710        -2.49843        -2.59859        -2.59469         8.09320        -2.49843     283.654E-03     56.7879E-03    -27.2361E-03    -29.5517E-03    -29.5380E-03     56.7741E-03    -27.2361E-03    -402.505E-06    -16.9373E+06    -22.2736E+06    -73.6299E+06    -19.1106E+06    -73.4146E+06    -20.3155E+06     3.28856E+06         28.4527
             927     9.73314E-03     16.8164E-03         8.09672        -2.49008        -2.60155        -2.59741         8.09258        -2.49008     291.732E-03     56.2265E-03    -27.0954E-03    -29.1311E-03    -29.1045E-03     56.1999E-03    -27.0954E-03    -1.32913E-03    -12.8196E+06    -19.8826E+06    -106.511E+06    -20.2419E+06    -106.152E+06    -12.8196E+06     5.56500E+06         26.8090
             928     8.76291E-03     16.8098E-03         8.07744        -2.48038        -2.58841        -2.57844         8.06747        -2.48038    -55.6250E-03     55.4901E-03    -26.9416E-03    -28.5484E-03    -28.5108E-03     55.4524E-03    -26.9416E-03    -2.95982E-03    -10.6569E+06    -20.9016E+06    -135.181E+06    -21.3257E+06    -134.757E+06    -10.6569E+06     6.92577E+06         25.8557
             929     7.78999E-03     16.8045E-03         8.04205        -2.47039        -2.56485        -2.55690         8.03410        -2.47039    -141.105E-03     54.6995E-03    -26.8005E-03    -27.8990E-03    -27.8610E-03     54.6615E-03    -26.8005E-03    -3.11567E-03    -12.0923E+06    -22.9318E+06    -159.554E+06    -23.2709E+06    -159.214E+06    -12.0923E+06     6.62110E+06         25.2703
             930     6.81697E-03     16.7985E-03         8.04127        -2.45893        -2.58608        -2.55420         8.00939        -2.45893    -582.759E-03     54.1510E-03    -26.6768E-03    -27.4742E-03    -27.4402E-03     54.1170E-03    -26.6768E-03    -2.95819E-03    -15.6828E+06    -26.0118E+06    -179.483E+06    -26.2267E+06    -179.268E+06    -15.6828E+06     5.53879E+06         24.8794
             931     5.84435E-03     16.7944E-03         8.07130        -2.44462        -2.64712        -2.54247         7.96665        -2.44462     463.499E-03     53.6979E-03    -26.5568E-03    -27.1411E-03    -27.1131E-03     53.6698E-03    -26.5568E-03    -2.69729E-03    -21.4933E+06    -29.2817E+06    -195.034E+06    -29.4405E+06    -194.875E+06    -21.4933E+06     5.01016E+06         24.5989
             932     4.86996E-03     16.7899E-03         8.08755        -2.42785        -2.69093        -2.51945         7.91607        -2.42785    -170.205E-03     53.2976E-03    -26.4763E-03    -26.8213E-03    -26.7997E-03     53.2759E-03    -26.4763E-03    -2.32125E-03    -24.2098E+06    -31.8830E+06    -211.225E+06    -32.0274E+06    -211.080E+06    -24.2098E+06     4.87633E+06         24.3899
             933     3.89689E-03     16.7869E-03         8.32709        -2.41200        -2.95519        -2.46912         7.84102        -2.41200         1.49215     53.0276E-03    -26.4015E-03    -26.6261E-03    -26.6122E-03     53.0137E-03    -26.4015E-03    -1.87712E-03    -27.5226E+06    -33.1551E+06    -221.019E+06    -33.2391E+06    -220.934E+06    -27.5226E+06     3.57566E+06         24.2335
             934     2.92245E-03     16.7839E-03         8.95539        -2.39803        -3.60124        -2.44120         7.79535        -2.39803        -1.33809     52.8437E-03    -26.3333E-03    -26.5105E-03    -26.5017E-03     52.8350E-03    -26.3333E-03    -1.44379E-03    -31.6651E+06    -35.2920E+06    -232.978E+06    -35.3169E+06    -232.953E+06    -31.6651E+06     1.77421E+06         24.1200
             935     1.94838E-03     16.7820E-03         10.9367        -2.39683        -5.60544        -2.37394         7.70515        -2.39683         4.27698     52.6150E-03    -26.2342E-03    -26.3809E-03    -26.3101E-03     52.6089E-03    -26.2988E-03    -1.12245E-03    -32.9731E+06    -38.7906E+06    -243.849E+06    -38.8026E+06    -243.837E+06    -32.9731E+06     330.384E+03         24.0433
             936     974.401E-06     16.7810E-03         17.0314        -1.40681        -12.6974        -3.39837         7.73237        -1.40681        -10.3359     52.5078E-03    -25.9952E-03    -26.5126E-03    -26.2152E-03     52.5035E-03    -26.2883E-03    -363.553E-06    -36.3603E+06    -42.6526E+06    -245.128E+06    -40.8957E+06    -245.093E+06    -38.1519E+06     1.16849E+06         23.9987
             937     16.5327E-03     16.4850E-03         7.86909        -2.25181        -2.53395        -2.24996         7.86724        -2.53395    -260.605E-03     272.126E-03    -29.2980E-03    -242.828E-03    -71.1520E-03     100.450E-03    -29.2980E-03     485.504E-03     153.605E+06     133.611E+06    -10.1082E+06    -10.0918E+06     137.482E+06     149.717E+06     872.799E+03         69.8462
             938     15.5572E-03     15.9986E-03         8.15540        -2.40373        -2.62245        -2.40220         8.15387        -2.62245    -208.105E-03     166.813E-03    -28.7009E-03    -138.112E-03    -48.7009E-03     77.4018E-03    -28.7009E-03     273.214E-03     105.604E+06     81.5081E+06    -15.4488E+06    -15.4313E+06     105.586E+06     81.5081E+06     1.14773E+06         61.6336
             939     14.5894E-03     15.8674E-03         8.35284        -2.53951        -2.66771        -2.53846         8.35180        -2.66771    -180.350E-03     77.7113E-03    -27.9640E-03    -49.7473E-03    -35.0816E-03     63.0456E-03    -27.9640E-03     74.5186E-03     71.5728E+06     11.8810E+06    -20.2343E+06    -19.9699E+06     71.5467E+06     11.6427E+06     1.09497E+06         51.8416
             940     13.6243E-03     15.8211E-03         8.48494        -2.64637        -2.69687        -2.65812         8.48381        -2.68399    -202.226E-03     62.5348E-03    -27.2311E-03    -35.3037E-03    -33.4673E-03     60.6984E-03    -27.2311E-03     25.5425E-03     56.0474E+06    -21.4679E+06    -34.8856E+06    -22.7674E+06     56.0222E+06    -33.5608E+06     953.654E+03         42.8145
             941     12.6561E-03     15.7884E-03         8.57270        -2.68769        -2.75333        -2.75305         8.57242        -2.68769     97.0513E-06     58.7329E-03    -26.7187E-03    -32.0142E-03    -31.5472E-03     58.2659E-03    -26.7187E-03     9.45949E-03     28.2009E+06    -21.1002E+06    -46.5843E+06    -21.0564E+06     28.1570E+06    -46.5843E+06     778.408E+03         35.8502
             942     11.6864E-03     15.7764E-03         8.62478        -2.68240        -2.82116        -2.81768         8.62130        -2.68240     332.654E-03     56.6529E-03    -26.4645E-03    -30.1884E-03    -30.1422E-03     56.6067E-03    -26.4645E-03    -2.11773E-03    -8.18674E+06    -23.0803E+06    -52.5076E+06    -19.5645E+06    -27.5004E+06    -36.7097E+06     2.38644E+06         31.1658
             943     10.7146E-03     15.7679E-03         8.63126        -2.67063        -2.84350        -2.84016         8.62791        -2.67063     272.561E-03     56.0485E-03    -26.2737E-03    -29.7747E-03    -29.6948E-03     55.9685E-03    -26.2737E-03    -4.71269E-03    -17.7567E+06    -22.9165E+06    -75.4577E+06    -19.6284E+06    -75.1218E+06    -21.3807E+06     4.28483E+06         28.3093
             944     9.74544E-03     15.7600E-03         8.60284        -2.65583        -2.82583        -2.82250         8.59950        -2.65583     270.988E-03     54.9788E-03    -26.0392E-03    -28.9397E-03    -28.8331E-03     54.8723E-03    -26.0392E-03    -5.52638E-03    -14.0357E+06    -19.5185E+06    -108.032E+06    -19.9393E+06    -107.612E+06    -14.0357E+06     6.06433E+06         26.6541
             945     8.77158E-03     15.7542E-03         8.56422        -2.64013        -2.79846        -2.79035         8.55612        -2.64013    -52.1226E-03     53.9292E-03    -25.8126E-03    -28.1167E-03    -27.9636E-03     53.7762E-03    -25.8126E-03    -6.77230E-03    -11.6746E+06    -20.8428E+06    -135.475E+06    -21.3255E+06    -134.992E+06    -11.6746E+06     7.40738E+06         25.6903
             946     7.79962E-03     15.7497E-03         8.50392        -2.62463        -2.75741        -2.75129         8.49780        -2.62463    -157.068E-03     53.0272E-03    -25.6009E-03    -27.4263E-03    -27.2765E-03     52.8774E-03    -25.6009E-03    -6.63176E-03    -12.3768E+06    -23.1165E+06    -158.120E+06    -23.5729E+06    -157.664E+06    -12.3768E+06     7.80843E+06         25.0955
             947     6.82597E-03     15.7453E-03         8.47652        -2.60819        -2.76132        -2.73691         8.45210        -2.60819    -546.087E-03     52.1080E-03    -25.4149E-03    -26.6930E-03    -26.5658E-03     51.9807E-03    -25.4149E-03    -6.07214E-03    -14.5729E+06    -25.4851E+06    -177.839E+06    -25.8357E+06    -177.488E+06    -14.5729E+06     7.20832E+06         24.6960
             948     5.85122E-03     15.7408E-03         8.47491        -2.58866        -2.79737        -2.71978         8.39731        -2.58866     379.677E-03     51.3759E-03    -25.2543E-03    -26.1216E-03    -26.0138E-03     51.2681E-03    -25.2543E-03    -5.51232E-03    -19.2540E+06    -28.2133E+06    -194.475E+06    -28.4734E+06    -194.215E+06    -19.2540E+06     6.52987E+06         24.4077
             949     4.87735E-03     15.7380E-03         8.44742        -2.56707        -2.80399        -2.67877         8.32219        -2.56707    -149.186E-03     50.8404E-03    -25.1168E-03    -25.7236E-03    -25.6445E-03     50.7613E-03    -25.1168E-03    -4.71517E-03    -24.7033E+06    -30.5282E+06    -208.294E+06    -30.6990E+06    -208.123E+06    -24.7033E+06     5.31158E+06         24.1917
             950     3.90156E-03     15.7343E-03         8.58289        -2.54910        -2.96911        -2.60682         8.22060        -2.54910         1.30845     50.4226E-03    -25.0085E-03    -25.4141E-03    -25.3608E-03     50.3693E-03    -25.0085E-03    -3.80756E-03    -27.8667E+06    -32.9163E+06    -219.361E+06    -33.0098E+06    -219.267E+06    -27.8667E+06     4.09523E+06         24.0295
             951     2.92697E-03     15.7323E-03         9.05985        -2.53410        -3.46050        -2.58284         8.18219        -2.53410        -1.18216     50.0595E-03    -24.9199E-03    -25.1396E-03    -25.1082E-03     50.0281E-03    -24.9199E-03    -2.92982E-03    -31.1239E+06    -35.9078E+06    -230.584E+06    -35.5268E+06    -230.512E+06    -31.5775E+06     3.64587E+06         23.9113
             952     1.95152E-03     15.7302E-03         10.6371        -2.53907        -5.06082        -2.48766         8.06399        -2.53907         3.77837     49.8467E-03    -24.8234E-03    -25.0234E-03    -24.9977E-03     49.8310E-03    -24.8333E-03    -2.07553E-03    -35.2231E+06    -38.5840E+06    -242.106E+06    -38.1665E+06    -242.070E+06    -35.6767E+06     1.47957E+06         23.8312
             953     975.524E-06     15.7301E-03         15.8484        -1.92722        -10.9066        -3.17763         8.11936        -1.92722        -9.01169     49.5520E-03    -24.5594E-03    -24.9926E-03    -24.9740E-03     49.5434E-03    -24.5694E-03    -931.949E-06    -38.2799E+06    -41.6519E+06    -246.747E+06    -40.8804E+06    -246.706E+06    -39.0928E+06     443.684E+03         23.7844
             954     16.5295E-03     15.4220E-03         8.28323        -2.35876        -2.70958        -2.35743         8.28191        -2.70958    -220.682E-03     270.078E-03    -28.9893E-03    -241.089E-03    -75.2714E-03     104.261E-03    -28.9893E-03     478.567E-03     152.971E+06     133.732E+06    -9.68717E+06    -9.68355E+06     136.979E+06     149.720E+06     11.1373E+03         69.2451
             955     15.5681E-03     14.9374E-03         8.57962        -2.52860        -2.79902        -2.52748         8.57850        -2.79902    -159.129E-03     166.666E-03    -28.1264E-03    -138.540E-03    -51.5278E-03     79.6542E-03    -28.1264E-03     271.388E-03     104.603E+06     82.0577E+06    -16.2704E+06    -16.2514E+06     104.584E+06     82.0577E+06     664.163E+03         61.1489
             956     14.6019E-03     14.8027E-03         8.79585        -2.68557        -2.84605        -2.68496         8.79524        -2.84605    -120.394E-03     77.8352E-03    -27.2035E-03    -50.6317E-03    -36.5612E-03     63.7647E-03    -27.2035E-03     71.6204E-03     71.2947E+06     12.8612E+06    -20.7173E+06    -20.4982E+06     71.2543E+06     12.6826E+06     1.57175E+06         51.5022
             957     13.6364E-03     14.7561E-03         8.95078        -2.81386        -2.87503        -2.82494         8.95010        -2.86327    -159.650E-03     61.6526E-03    -26.3299E-03    -35.3227E-03    -34.1880E-03     60.5179E-03    -26.3299E-03     19.4552E-03     56.8576E+06    -19.2333E+06    -33.6626E+06    -20.5145E+06     56.8140E+06    -32.3378E+06     1.45734E+06         42.5819
             958     12.6692E-03     14.7307E-03         9.06387        -2.86619        -2.94723        -2.94698         9.06362        -2.86619     19.2323E-03     57.6894E-03    -25.7082E-03    -31.9812E-03    -31.7605E-03     57.4687E-03    -25.7082E-03     4.30598E-03     27.5923E+06    -20.4354E+06    -46.4361E+06    -20.2822E+06     27.4390E+06    -46.4361E+06     1.82007E+06         35.6727
             959     11.6985E-03     14.7176E-03         9.12168        -2.85869        -3.02697        -3.02389         9.11859        -2.85869     329.874E-03     56.0139E-03    -25.3442E-03    -30.6697E-03    -30.5094E-03     55.8536E-03    -25.3442E-03    -6.30882E-03    -9.02352E+06    -23.7335E+06    -52.8143E+06    -20.1835E+06    -28.5794E+06    -36.8083E+06     3.20847E+06         31.0053
             960     10.7300E-03     14.7114E-03         9.12227        -2.84403        -3.04811        -3.04515         9.11931        -2.84403     289.380E-03     54.7354E-03    -25.0453E-03    -29.6901E-03    -29.4542E-03     54.4995E-03    -25.0453E-03    -8.67852E-03    -17.6279E+06    -22.8101E+06    -76.6223E+06    -19.5833E+06    -76.2152E+06    -21.2618E+06     4.69187E+06         28.1478
             961     9.75640E-03     14.7049E-03         9.08801        -2.82584        -3.03062        -3.02797         9.08536        -2.82584     272.916E-03     53.4769E-03    -24.7164E-03    -28.7606E-03    -28.4646E-03     53.1809E-03    -24.7164E-03    -9.43731E-03    -14.2985E+06    -19.7013E+06    -109.765E+06    -20.1527E+06    -109.313E+06    -14.2985E+06     6.34198E+06         26.4846
             962     8.78557E-03     14.7007E-03         9.03490        -2.80643        -2.99441        -2.98852         9.02902        -2.80643    -27.3808E-03     52.1283E-03    -24.3924E-03    -27.7358E-03    -27.3662E-03     51.7587E-03    -24.3924E-03    -10.6019E-03    -11.9616E+06    -20.5901E+06    -135.738E+06    -21.1386E+06    -135.190E+06    -11.9616E+06     7.92495E+06         25.5107
             963     7.81089E-03     14.6973E-03         8.97298        -2.78658        -2.95595        -2.95216         8.96919        -2.78658    -173.993E-03     50.8672E-03    -24.1016E-03    -26.7656E-03    -26.4230E-03     50.5246E-03    -24.1016E-03    -10.1054E-03    -10.3861E+06    -21.6074E+06    -157.139E+06    -22.1085E+06    -156.638E+06    -10.3861E+06     8.17562E+06         24.9049
             964     6.83686E-03     14.6938E-03         8.92754        -2.76490        -2.94789        -2.93118         8.91082        -2.76490    -512.636E-03     49.7111E-03    -23.8363E-03    -25.8748E-03    -25.5664E-03     49.4026E-03    -23.8363E-03    -9.41949E-03    -11.3900E+06    -23.5095E+06    -176.199E+06    -23.9415E+06    -175.767E+06    -11.3900E+06     8.08966E+06         24.4942
             965     5.86176E-03     14.6913E-03         8.88056        -2.74036        -2.94960        -2.89818         8.82914        -2.74036     284.748E-03     48.5684E-03    -23.5976E-03    -24.9708E-03    -24.7253E-03     48.3228E-03    -23.5976E-03    -8.33178E-03    -16.5233E+06    -25.9961E+06    -192.260E+06    -26.3434E+06    -191.912E+06    -16.5233E+06     7.49027E+06         24.1949
             966     4.88506E-03     14.6877E-03         8.82512        -2.71373        -2.93436        -2.85286         8.74362        -2.71373    -128.293E-03     47.7548E-03    -23.3943E-03    -24.3605E-03    -24.1765E-03     47.5708E-03    -23.3943E-03    -7.10345E-03    -23.6213E+06    -28.7846E+06    -205.947E+06    -29.0390E+06    -205.693E+06    -23.6213E+06     6.62581E+06         23.9689
             967     3.90938E-03     14.6861E-03         8.86022        -2.69115        -3.00375        -2.76339         8.61985        -2.69115         1.07695     47.0602E-03    -23.2373E-03    -23.8229E-03    -23.7009E-03     46.9382E-03    -23.2373E-03    -5.74160E-03    -27.7401E+06    -32.4326E+06    -217.964E+06    -31.3026E+06    -217.747E+06    -29.0873E+06     6.19348E+06         23.7980
             968     2.93186E-03     14.6831E-03         9.16266        -2.67072        -3.32823        -2.74081         8.57523        -2.67072    -967.442E-03     46.5609E-03    -23.1363E-03    -23.4246E-03    -23.3522E-03     46.4885E-03    -23.1363E-03    -4.35377E-03    -30.3270E+06    -34.7468E+06    -228.456E+06    -33.0788E+06    -228.324E+06    -32.1278E+06     4.89508E+06         23.6728
             969     1.95442E-03     14.6831E-03         10.2606        -2.67300        -4.44835        -2.61798         8.43028        -2.67300         3.14554     46.3577E-03    -23.0417E-03    -23.3160E-03    -23.2822E-03     46.3239E-03    -23.0417E-03    -2.88136E-03    -33.2947E+06    -35.6289E+06    -239.337E+06    -35.2375E+06    -239.274E+06    -33.7483E+06     3.32149E+06         23.5874
             970     978.275E-06     14.6801E-03         14.3094        -2.36069        -8.82183        -3.01318         8.50077        -2.36069        -7.34247     45.9482E-03    -22.8326E-03    -23.1156E-03    -23.0438E-03     45.9338E-03    -22.8901E-03    -1.90428E-03    -36.4131E+06    -39.3098E+06    -245.402E+06    -38.5269E+06    -245.372E+06    -37.2260E+06     945.848E+03         23.5372
             971     16.5442E-03     14.3521E-03         8.67579        -2.46381        -2.87989        -2.46302         8.67500        -2.87989    -168.207E-03     265.919E-03    -28.5486E-03    -237.371E-03    -79.1800E-03     107.729E-03    -28.5486E-03     467.156E-03     152.106E+06     133.591E+06    -9.91809E+06    -9.91299E+06     136.324E+06     149.368E+06    -339.651E+03         68.5017
             972     15.5805E-03     13.8811E-03         8.98171        -2.65325        -2.96933        -2.65251         8.98098        -2.96933    -98.1026E-03     168.092E-03    -27.3994E-03    -140.693E-03    -54.5791E-03     81.9785E-03    -27.3994E-03     272.125E-03     102.718E+06     81.1745E+06    -18.0113E+06    -17.9872E+06     102.694E+06     81.1745E+06     826.992E+03         60.5380
             973     14.6155E-03     13.7321E-03         9.21158        -2.82128        -3.01769        -2.82094         9.21124        -3.01769    -58.8252E-03     78.5682E-03    -26.2615E-03    -52.3067E-03    -38.6821E-03     64.9436E-03    -26.2615E-03     69.3156E-03     70.7544E+06     11.9378E+06    -21.2973E+06    -21.0960E+06     70.7317E+06     11.7592E+06     1.20323E+06         51.0627
             974     13.6526E-03     13.6970E-03         9.38096        -2.96779        -3.04139        -2.97269         9.38062        -3.03616    -108.392E-03     60.1626E-03    -25.2439E-03    -34.9187E-03    -34.3425E-03     59.5864E-03    -25.2439E-03     13.7992E-03     56.3790E+06    -20.2865E+06    -33.7039E+06    -20.6670E+06     56.3066E+06    -33.2509E+06     1.73620E+06         42.2851
             975     12.6830E-03     13.6707E-03         9.50608        -3.03836        -3.10597        -3.10416         9.50583        -3.03992     52.5425E-03     57.0095E-03    -24.5214E-03    -32.4881E-03    -32.2516E-03     56.7730E-03    -24.5214E-03     31.7784E-06     28.0548E+06    -20.7092E+06    -45.2632E+06    -20.3236E+06     27.6692E+06    -45.2632E+06     3.47433E+06         35.4562
             976     11.7166E-03     13.6604E-03         9.56293        -3.03338        -3.18282        -3.18026         9.56036        -3.03338     319.174E-03     54.8094E-03    -24.0434E-03    -30.7660E-03    -30.4406E-03     54.4841E-03    -24.0434E-03    -10.1089E-03    -7.96571E+06    -23.4947E+06    -52.6552E+06    -20.0151E+06    -28.8376E+06    -35.2629E+06     4.18131E+06         30.8248
             977     10.7431E-03     13.6576E-03         9.56698        -3.01969        -3.21205        -3.20958         9.56451        -3.01969     299.570E-03     53.2507E-03    -23.6363E-03    -29.6144E-03    -29.2018E-03     52.8381E-03    -23.6363E-03    -11.5115E-03    -17.6125E+06    -23.0929E+06    -78.1157E+06    -20.1716E+06    -77.6178E+06    -21.0317E+06     5.23301E+06         27.9770
             978     9.77362E-03     13.6504E-03         9.54482        -3.00158        -3.20913        -3.20732         9.54300        -3.00158     260.621E-03     51.8316E-03    -23.1967E-03    -28.6349E-03    -28.0955E-03     51.2922E-03    -23.1967E-03    -12.8959E-03    -14.2129E+06    -20.8345E+06    -111.000E+06    -21.3513E+06    -110.483E+06    -14.2129E+06     6.72739E+06         26.3114
             979     8.79906E-03     13.6504E-03         9.50178        -2.98071        -3.18456        -3.18105         9.49827        -2.98071    -6.19484E-03     50.1234E-03    -22.7506E-03    -27.3728E-03    -26.7541E-03     49.5047E-03    -22.7506E-03    -13.6959E-03    -12.6497E+06    -21.7344E+06    -134.939E+06    -22.2224E+06    -134.451E+06    -12.6497E+06     7.32236E+06         25.3291
             980     7.82561E-03     13.6468E-03         9.44366        -2.95786        -3.15370        -3.15178         9.44175        -2.95786    -176.968E-03     48.4683E-03    -22.3510E-03    -26.1173E-03    -25.5295E-03     47.8805E-03    -22.3510E-03    -13.0779E-03    -10.1432E+06    -21.3159E+06    -155.849E+06    -21.7184E+06    -155.446E+06    -10.1432E+06     7.25311E+06         24.7116
             981     6.84966E-03     13.6462E-03         9.38737        -2.93206        -3.13941        -3.12863         9.37659        -2.93206    -478.197E-03     46.8891E-03    -21.9892E-03    -24.8999E-03    -24.3612E-03     46.3504E-03    -21.9892E-03    -12.2782E-03    -10.5217E+06    -21.3203E+06    -176.132E+06    -21.7627E+06    -175.690E+06    -10.5217E+06     8.24392E+06         24.2875
             982     5.87298E-03     13.6437E-03         9.30791        -2.90340        -3.11418        -3.08263         9.27635        -2.90340     195.272E-03     45.4441E-03    -21.6560E-03    -23.7881E-03    -23.3525E-03     45.0085E-03    -21.6560E-03    -10.8154E-03    -15.2711E+06    -23.5190E+06    -189.698E+06    -23.9969E+06    -189.220E+06    -15.2711E+06     8.80279E+06         23.9746
             983     4.89583E-03     13.6428E-03         9.22644        -2.87234        -3.08352        -3.03671         9.17963        -2.87234    -73.7205E-03     44.1521E-03    -21.3926E-03    -22.7596E-03    -22.4345E-03     43.8271E-03    -21.3926E-03    -9.18460E-03    -20.1994E+06    -26.1331E+06    -205.046E+06    -26.5540E+06    -204.625E+06    -20.1994E+06     8.56741E+06         23.7356
             984     3.91683E-03     13.6399E-03         9.18158        -2.84390        -3.08221        -2.94214         9.04151        -2.84390     853.561E-03     43.1933E-03    -21.1771E-03    -22.0163E-03    -21.7923E-03     42.9694E-03    -21.1771E-03    -7.48933E-03    -26.2850E+06    -29.6007E+06    -215.246E+06    -28.5883E+06    -214.911E+06    -27.6323E+06     7.86881E+06         23.5533
             985     2.93818E-03     13.6403E-03         9.31801        -2.81735        -3.24263        -2.90436         8.97974        -2.81735    -689.427E-03     42.5703E-03    -21.0324E-03    -21.5378E-03    -21.4067E-03     42.4391E-03    -21.0324E-03    -5.64266E-03    -28.8529E+06    -31.2867E+06    -224.493E+06    -30.1339E+06    -224.299E+06    -30.2002E+06     5.92624E+06         23.4187
             986     1.95949E-03     13.6368E-03         9.94971        -2.81154        -3.90455        -2.77754         8.82270        -2.81154         2.48388     42.0673E-03    -20.8904E-03    -21.1770E-03    -21.0354E-03     42.0045E-03    -20.9691E-03    -3.87018E-03    -29.1648E+06    -31.4791E+06    -236.922E+06    -31.5956E+06    -236.805E+06    -29.1648E+06     4.79949E+06         23.3264
             987     978.836E-06     13.6390E-03         12.6972        -2.69097        -6.78389        -2.94916         8.86250        -2.69097        -5.50328     41.8904E-03    -20.7995E-03    -21.0909E-03    -20.9297E-03     41.8653E-03    -20.9356E-03    -2.37161E-03    -30.8989E+06    -34.7297E+06    -240.653E+06    -33.1584E+06    -240.593E+06    -32.5299E+06     2.79492E+06         23.2719
             988     16.5540E-03     13.3043E-03         9.03365        -2.56107        -3.04377        -2.56063         9.03322        -3.04377    -125.421E-03     267.011E-03    -28.2621E-03    -238.749E-03    -86.0760E-03     114.338E-03    -28.2621E-03     463.905E-03     151.090E+06     133.673E+06    -10.8493E+06    -10.8143E+06     135.154E+06     149.574E+06    -661.933E+03         67.5628
             989     15.5867E-03     12.8050E-03         9.34945        -2.76397        -3.13178        -2.76352         9.34900        -3.13178    -59.0827E-03     170.061E-03    -26.6592E-03    -143.402E-03    -62.5763E-03     89.2355E-03    -26.6592E-03     268.431E-03     103.547E+06     82.7102E+06    -17.1627E+06    -17.1354E+06     103.519E+06     82.7102E+06     443.335E+03         59.7664
             990     14.6347E-03     12.6677E-03         9.58825        -2.93845        -3.18064        -2.93826         9.58807        -3.18064    -16.8829E-03     75.4857E-03    -25.2076E-03    -50.2781E-03    -39.2283E-03     64.4360E-03    -25.2076E-03     62.3347E-03     70.3263E+06     11.8499E+06    -20.9734E+06    -20.6908E+06     70.2492E+06     11.6442E+06     960.665E+03         50.5217
             991     13.6658E-03     12.6373E-03         9.76205        -3.08878        -3.20119        -3.08865         9.76192        -3.20119    -60.1502E-03     59.0628E-03    -24.0886E-03    -34.9742E-03    -34.4706E-03     58.5592E-03    -24.0886E-03     11.1993E-03     54.2762E+06    -22.0664E+06    -33.5601E+06    -22.3917E+06     54.1486E+06    -33.1072E+06     2.65379E+06         41.9217
             992     12.7028E-03     12.6094E-03         9.88782        -3.18457        -3.23923        -3.21530         9.88752        -3.20821     80.8580E-03     55.7359E-03    -23.2809E-03    -32.4550E-03    -32.2362E-03     55.5171E-03    -23.2809E-03    -3.12183E-03     27.9953E+06    -21.9502E+06    -43.1517E+06    -21.2982E+06     27.3433E+06    -43.1517E+06     4.17563E+06         35.2016
             993     11.7301E-03     12.6093E-03         9.95977        -3.20530        -3.30670        -3.30466         9.95774        -3.20530     302.491E-03     53.2760E-03    -22.7125E-03    -30.5635E-03    -30.1799E-03     52.8923E-03    -22.7125E-03    -11.2269E-03    -7.45748E+06    -22.1260E+06    -50.9565E+06    -19.9640E+06    -28.0837E+06    -32.4923E+06     5.16251E+06         30.6282
             994     10.7617E-03     12.6009E-03         9.98025        -3.19487        -3.35113        -3.34923         9.97835        -3.19487     279.916E-03     52.0165E-03    -22.1887E-03    -29.8278E-03    -29.3074E-03     51.4961E-03    -22.1887E-03    -12.9385E-03    -17.3900E+06    -21.2949E+06    -79.2974E+06    -20.0082E+06    -78.6745E+06    -19.2995E+06     5.89377E+06         27.8056
             995     9.78811E-03     12.6021E-03         9.96664        -3.17943        -3.35809        -3.35703         9.96557        -3.17943     218.211E-03     50.1380E-03    -21.6121E-03    -28.5259E-03    -27.8064E-03     49.4185E-03    -21.6121E-03    -14.8921E-03    -12.8850E+06    -19.8961E+06    -111.944E+06    -20.5211E+06    -111.319E+06    -12.8850E+06     7.51738E+06         26.1463
             996     8.81545E-03     12.5994E-03         9.94494        -3.16003        -3.35494        -3.35300         9.94301        -3.16003    -10.5425E-03     48.1415E-03    -21.0226E-03    -27.1189E-03    -26.2837E-03     47.3063E-03    -21.0226E-03    -15.7270E-03    -12.3219E+06    -20.5257E+06    -132.088E+06    -20.9494E+06    -131.664E+06    -12.3219E+06     6.40598E+06         25.1593
             997     7.84009E-03     12.6014E-03         9.89511        -3.13748        -3.32904        -3.32787         9.89395        -3.13748    -208.106E-03     46.0568E-03    -20.4879E-03    -25.5688E-03    -24.7345E-03     45.2224E-03    -20.4879E-03    -15.3165E-03    -11.0234E+06    -20.7489E+06    -155.445E+06    -20.9763E+06    -155.218E+06    -11.0234E+06     5.44016E+06         24.5312
             998     6.86360E-03     12.6002E-03         9.83654        -3.11173        -3.31257        -3.30625         9.83022        -3.11173    -440.669E-03     43.9964E-03    -20.0141E-03    -23.9822E-03    -23.2014E-03     43.2155E-03    -20.0141E-03    -14.4185E-03    -9.96960E+06    -21.1840E+06    -177.344E+06    -21.5634E+06    -176.964E+06    -9.96960E+06     7.60492E+06         24.0935
             999     5.88573E-03     12.6014E-03         9.74815        -3.08268        -3.28200        -3.26512         9.73127        -3.08268     117.340E-03     42.0558E-03    -19.5804E-03    -22.4754E-03    -21.8257E-03     41.4061E-03    -19.5804E-03    -12.7981E-03    -12.9513E+06    -21.5414E+06    -188.209E+06    -22.0551E+06    -187.695E+06    -12.9513E+06     9.22311E+06         23.7657
            1000     4.90626E-03     12.5999E-03         9.64746        -3.05112        -3.23676        -3.21558         9.62628        -3.05112     21.1968E-03     40.4259E-03    -19.2463E-03    -21.1796E-03    -20.6881E-03     39.9344E-03    -19.2463E-03    -10.8666E-03    -14.5044E+06    -22.5136E+06    -203.880E+06    -22.9999E+06    -203.394E+06    -14.5044E+06     9.33362E+06         23.5121
            1001     3.92622E-03     12.6010E-03         9.56168        -3.02073        -3.20110        -3.13325         9.49382        -3.02073     680.464E-03     39.1068E-03    -18.9606E-03    -20.1462E-03    -19.8147E-03     38.7754E-03    -18.9606E-03    -8.73469E-03    -20.0593E+06    -24.6813E+06    -211.505E+06    -24.7160E+06    -211.077E+06    -20.4528E+06     8.88013E+06         23.3165
            1002     2.94538E-03     12.5982E-03         9.58685        -2.98891        -3.25543        -3.09628         9.42770        -2.98891    -389.905E-03     38.1483E-03    -18.7518E-03    -19.3966E-03    -19.2041E-03     37.9559E-03    -18.7518E-03    -6.54024E-03    -25.6844E+06    -26.8195E+06    -219.931E+06    -26.4498E+06    -219.616E+06    -26.3692E+06     7.57142E+06         23.1708
            1003     1.96332E-03     12.6000E-03         9.83222        -2.97648        -3.53118        -2.95508         9.25612        -2.97648         1.85435     37.5225E-03    -18.5871E-03    -18.9355E-03    -18.7590E-03     37.4248E-03    -18.6658E-03    -4.54752E-03    -26.1435E+06    -27.7678E+06    -233.121E+06    -27.6320E+06    -232.965E+06    -26.4348E+06     5.49754E+06         23.0701
            1004     982.078E-06     12.5973E-03         11.3762        -2.99376        -5.06536        -2.97020         9.28100        -2.99376        -3.67678     37.2911E-03    -18.4266E-03    -18.8645E-03    -18.6006E-03     37.2587E-03    -18.6582E-03    -2.40547E-03    -26.5220E+06    -30.3214E+06    -234.893E+06    -28.7980E+06    -234.786E+06    -28.1530E+06     4.08709E+06         23.0103
            1005     16.5285E-03     12.1978E-03         9.35511        -2.64073        -3.19749        -2.64045         9.35483        -3.19749    -98.3827E-03     261.656E-03    -27.8418E-03    -233.814E-03    -92.2425E-03     120.084E-03    -27.8418E-03     447.294E-03     151.726E+06     134.140E+06    -9.52545E+06    -9.48368E+06     135.393E+06     150.431E+06    -789.229E+03         66.4475
            1006     15.6161E-03     11.7242E-03         9.67384        -2.84817        -3.28312        -2.84786         9.67353        -3.28312    -46.7496E-03     162.081E-03    -25.8148E-03    -136.266E-03    -64.6193E-03     90.4341E-03    -25.8148E-03     250.945E-03     101.760E+06     81.7098E+06    -17.1847E+06    -17.1465E+06     101.721E+06     81.7098E+06    -78.3898E+03         58.8668
            1007     14.6472E-03     11.6166E-03         9.91002        -3.02147        -3.33244        -3.02139         9.90995        -3.33244     7.25386E-03     73.7604E-03    -24.1916E-03    -49.5688E-03    -38.8467E-03     63.0384E-03    -24.1916E-03     61.0180E-03     68.6046E+06     12.2833E+06    -22.4095E+06    -22.0693E+06     68.4700E+06     12.0777E+06     2.04493E+06         49.8817
            1008     13.6845E-03     11.5666E-03         10.0843        -3.16687        -3.35673        -3.16684         10.0842        -3.35673    -34.4364E-03     57.9563E-03    -23.0240E-03    -34.9323E-03    -34.3953E-03     57.4192E-03    -23.0240E-03     10.6199E-03     53.9130E+06    -20.8147E+06    -33.5206E+06    -23.2587E+06     53.7371E+06    -30.9007E+06     3.60734E+06         41.4840
            1009     12.7149E-03     11.5615E-03         10.2208        -3.28941        -3.37563        -3.29592         10.2205        -3.36881     83.8817E-03     53.9434E-03    -22.1608E-03    -31.7826E-03    -31.6693E-03     53.8301E-03    -22.1608E-03    -3.81008E-03     27.2395E+06    -22.2081E+06    -41.4169E+06    -21.6234E+06     26.6548E+06    -41.4169E+06     3.90150E+06         34.9064
            1010     11.7462E-03     11.5496E-03         10.3133        -3.35752        -3.41530        -3.39991         10.3118        -3.37141     271.042E-03     52.3958E-03    -21.5106E-03    -30.8852E-03    -30.5556E-03     52.0662E-03    -21.5106E-03    -10.2846E-03     -7.7177E+06    -20.5852E+06    -49.2195E+06    -19.9194E+06    -27.6894E+06    -29.9136E+06     5.33863E+06         30.4182
            1011     10.7749E-03     11.5531E-03         10.3569        -3.36610        -3.46616        -3.46483         10.3555        -3.36610     241.660E-03     50.9200E-03    -20.8627E-03    -30.0573E-03    -29.5058E-03     50.3684E-03    -20.8627E-03    -13.2244E-03    -14.7357E+06    -19.9204E+06    -79.6886E+06    -20.0389E+06    -78.9890E+06    -15.3168E+06     6.15842E+06         27.6405
            1012     9.80385E-03     11.5494E-03         10.3628        -3.35484        -3.49112        -3.49059         10.3623        -3.35484     160.412E-03     48.8492E-03    -20.1305E-03    -28.7187E-03    -27.9144E-03     48.0449E-03    -20.1305E-03    -15.6266E-03    -9.71885E+06    -18.3645E+06    -110.361E+06    -18.8192E+06    -109.907E+06    -9.71885E+06     5.34902E+06         25.9992
            1013     8.83018E-03     11.5551E-03         10.3472        -3.33946        -3.49081        -3.48974         10.3461        -3.33946    -38.1046E-03     46.4038E-03    -19.3941E-03    -27.0096E-03    -26.0423E-03     45.4364E-03    -19.3941E-03    -16.7289E-03    -6.93609E+06    -15.8520E+06    -130.045E+06    -16.1895E+06    -129.707E+06    -6.93609E+06     4.95383E+06         25.0148
            1014     7.85456E-03     11.5553E-03         10.3046        -3.32171        -3.46741        -3.46606         10.3033        -3.32171    -265.817E-03     43.8760E-03    -18.7221E-03    -25.1539E-03    -24.1383E-03     42.8604E-03    -18.7221E-03    -16.5997E-03    -4.92401E+06    -17.1301E+06    -156.396E+06    -17.4096E+06    -156.117E+06    -4.92401E+06     6.03858E+06         24.3806
            1015     6.87759E-03     11.5601E-03         10.2599        -3.30149        -3.45619        -3.45238         10.2561        -3.30149    -418.672E-03     41.2809E-03    -18.1089E-03    -23.1720E-03    -22.2033E-03     40.3122E-03    -18.1089E-03    -15.6637E-03    -4.60257E+06    -19.1931E+06    -177.375E+06    -19.4781E+06    -177.090E+06    -4.60257E+06     6.53231E+06         23.9320
            1016     5.89801E-03     11.5608E-03         10.1834        -3.27787        -3.43476        -3.42759         10.1763        -3.27787     19.8388E-03     38.8110E-03    -17.5558E-03    -21.2552E-03    -20.4390E-03     37.9948E-03    -17.5558E-03    -13.8798E-03    -7.80083E+06    -19.1934E+06    -188.210E+06    -19.5456E+06    -187.858E+06    -7.80083E+06     7.52182E+06         23.5910
            1017     4.91728E-03     11.5638E-03         10.0944        -3.25067        -3.40178        -3.39528         10.0879        -3.25067     78.8199E-03     36.7646E-03    -17.1172E-03    -19.6474E-03    -19.0151E-03     36.1323E-03    -17.1172E-03    -11.8253E-03    -9.61364E+06    -19.1679E+06    -201.826E+06    -19.5550E+06    -201.439E+06    -9.61364E+06     8.36502E+06         23.3234
            1018     3.93525E-03     11.5631E-03         9.99316        -3.22330        -3.34999        -3.32536         9.96853        -3.22330     496.493E-03     35.0386E-03    -16.7680E-03    -18.2706E-03    -17.8494E-03     34.6174E-03    -16.7680E-03    -9.34453E-03    -12.4005E+06    -19.8419E+06    -209.061E+06    -19.8349E+06    -208.675E+06    -12.7940E+06     8.42918E+06         23.1144
            1019     2.95178E-03     11.5651E-03         9.97152        -3.19180        -3.35795        -3.30394         9.91751        -3.19180    -123.251E-03     33.7907E-03    -16.5141E-03    -17.2766E-03    -17.0332E-03     33.5473E-03    -16.5141E-03    -6.94115E-03    -17.4923E+06    -20.0200E+06    -216.256E+06    -19.4930E+06    -215.883E+06    -18.3922E+06     8.39813E+06         22.9570
            1020     1.96853E-03     11.5632E-03         9.97375        -3.17211        -3.38939        -3.16448         9.75270        -3.17597         1.25774     33.1345E-03    -16.3608E-03    -16.7737E-03    -16.6527E-03     33.0134E-03    -16.3608E-03    -4.79071E-03    -18.0926E+06    -20.8625E+06    -226.786E+06    -20.5885E+06    -226.554E+06    -18.5990E+06     6.56548E+06         22.8472
            1021     984.243E-06     11.5654E-03         10.5995        -3.28102        -3.90462        -3.07278         9.77151        -3.28489        -1.98920     32.5767E-03    -16.0518E-03    -16.5249E-03    -16.3317E-03     32.5363E-03    -16.2047E-03    -2.50770E-03    -19.6995E+06    -24.1057E+06    -228.778E+06    -23.2313E+06    -228.663E+06     -20.689E+06     4.14937E+06         22.7816
            1022     16.5917E-03     11.1002E-03         9.63407        -2.69589        -3.33724        -2.69569         9.63387        -3.33724    -79.4802E-03     257.652E-03    -27.1031E-03    -230.549E-03    -97.5088E-03     124.612E-03    -27.1031E-03     434.237E-03     152.440E+06     134.925E+06    -7.93042E+06    -7.89986E+06     135.855E+06     151.479E+06     436.950E+03         65.2230
            1023     15.6154E-03     10.6758E-03         9.94450        -2.90296        -3.42002        -2.90274         9.94427        -3.42002    -44.4781E-03     156.344E-03    -24.9487E-03    -131.395E-03    -60.0415E-03     84.9901E-03    -24.9487E-03     244.023E-03     98.3760E+06     79.8546E+06    -18.1029E+06    -18.0163E+06     98.2894E+06     79.8546E+06     1.86788E+06         57.8631
            1024     14.6587E-03     10.5356E-03         10.1772        -3.07293        -3.47093        -3.07289         10.1772        -3.47093     5.49299E-03     73.4924E-03    -23.3861E-03    -50.1063E-03    -39.2219E-03     62.6080E-03    -23.3861E-03     60.2350E-03     67.2188E+06     13.0412E+06    -23.6313E+06    -23.5187E+06     67.1062E+06     13.0412E+06     2.74683E+06         49.1270
            1025     13.6959E-03     10.5211E-03         10.3579        -3.21929        -3.49996        -3.21925         10.3578        -3.49996    -45.8123E-03     56.3887E-03    -22.1874E-03    -34.2013E-03    -33.8542E-03     56.0417E-03    -22.1874E-03     9.38378E-03     55.5512E+06    -18.7025E+06    -31.6232E+06    -23.6764E+06     55.4308E+06    -26.5289E+06     2.70945E+06         40.9692
            1026     12.7258E-03     10.4978E-03         10.5077        -3.35343        -3.51803        -3.35314         10.5074        -3.51803     58.1004E-03     53.0078E-03    -21.2884E-03    -31.7193E-03    -31.6172E-03     52.9057E-03    -21.2884E-03    -2.34940E-03     26.2996E+06    -21.7267E+06    -36.8990E+06    -21.4820E+06     26.0549E+06    -36.8990E+06     2.81212E+06         34.5696
            1027     11.7579E-03     10.5030E-03         10.6128        -3.45390        -3.53504        -3.46033         10.6119        -3.52773     214.180E-03     51.8322E-03    -20.5463E-03    -31.2859E-03    -31.0362E-03     51.5825E-03    -20.5463E-03    -8.94747E-03    -8.53280E+06    -20.0059E+06    -47.7001E+06    -20.2605E+06    -29.5366E+06    -26.4416E+06     4.73550E+06         30.1970
            1028     10.7874E-03     10.4968E-03         10.6848        -3.51001        -3.56692        -3.54643         10.6840        -3.52972     197.978E-03     50.1630E-03    -19.7739E-03    -30.3891E-03    -29.8802E-03     49.6541E-03    -19.7739E-03    -12.4798E-03    -10.2266E+06    -18.8203E+06    -77.5803E+06    -19.4241E+06    -76.8038E+06    -10.3994E+06     5.82953E+06         27.4857
            1029     9.81664E-03     10.5052E-03         10.7172        -3.52505        -3.59408        -3.59384         10.7170        -3.52505     97.7060E-03     47.7148E-03    -18.9000E-03    -28.8148E-03    -28.0424E-03     46.9424E-03    -18.9000E-03    -15.2573E-03    -6.52489E+06    -19.2591E+06    -106.360E+06    -19.4342E+06    -106.185E+06    -6.52489E+06     2.61711E+06         25.8776
            1030     8.84247E-03     10.5070E-03         10.7067        -3.51655        -3.59395        -3.59350         10.7062        -3.51655    -71.2351E-03     44.9423E-03    -18.0299E-03    -26.9124E-03    -25.9761E-03     44.0059E-03    -18.0299E-03    -16.2558E-03    -5.20967E+06    -18.5863E+06    -131.918E+06    -18.7142E+06    -131.791E+06    -5.20967E+06     1.99250E+06         24.9071
            1031     7.86768E-03     10.5157E-03         10.6819        -3.50686        -3.58029        -3.57820         10.6799        -3.50686    -317.842E-03     41.9840E-03    -17.2350E-03    -24.7490E-03    -23.7165E-03     40.9515E-03    -17.2350E-03    -16.4645E-03     1.03197E+06    -15.8340E+06    -157.019E+06    -16.0692E+06    -156.784E+06     1.03197E+06     4.63990E+06         24.2759
            1032     6.88886E-03     10.5195E-03         10.6639        -3.49503        -3.58754        -3.58425         10.6606        -3.49503    -425.514E-03     38.9356E-03    -16.4953E-03    -22.4403E-03    -21.4511E-03     37.9464E-03    -16.4953E-03    -15.4559E-03     2.62159E+06    -15.2056E+06    -176.279E+06    -15.3844E+06    -176.100E+06     2.62159E+06     5.22555E+06         23.8237
            1033     5.90924E-03     10.5264E-03         10.6152        -3.47922        -3.58409        -3.58178         10.6129        -3.47922    -112.332E-03     36.0978E-03    -15.8242E-03    -20.2737E-03    -19.4261E-03     35.2503E-03    -15.8242E-03    -13.7127E-03     -771.33E+03    -15.9021E+06    -188.635E+06    -16.0710E+06    -188.466E+06     -771.33E+03     5.18972E+06         23.4751
            1034     4.92697E-03     10.5284E-03         10.5564        -3.45801        -3.57858        -3.57756         10.5554        -3.45801     59.9780E-03     33.5560E-03    -15.2646E-03    -18.2913E-03    -17.6352E-03     32.8999E-03    -15.2646E-03    -11.5702E-03    -4.46088E+06    -15.2530E+06    -199.416E+06    -15.4533E+06    -199.216E+06    -4.46088E+06     5.69627E+06         23.1977
            1035     3.94309E-03     10.5328E-03         10.4501        -3.43448        -3.52070        -3.51430         10.4449        -3.43572     256.365E-03     31.5373E-03    -14.8437E-03    -16.6936E-03    -16.2416E-03     31.0853E-03    -14.8437E-03    -9.24934E-03    -4.90809E+06    -14.0823E+06    -208.186E+06    -14.2713E+06    -207.997E+06    -4.90809E+06     5.82848E+06         22.9779
            1036     2.95838E-03     10.5326E-03         10.4143        -3.41067        -3.50480        -3.49388         10.4046        -3.41191     70.3431E-03     30.0281E-03    -14.5318E-03    -15.4963E-03    -15.2310E-03     29.7628E-03    -14.5318E-03    -6.84741E-03    -6.40793E+06    -13.7799E+06    -214.032E+06    -13.8236E+06    -213.774E+06    -6.62298E+06     7.03992E+06         22.8103
            1037     1.97235E-03     10.5349E-03         10.3323        -3.35648        -3.48210        -3.38892         10.2838        -3.40113     687.466E-03     29.0727E-03    -14.3087E-03    -14.7640E-03    -14.6407E-03     28.9494E-03    -14.3087E-03    -4.51292E-03    -8.62558E+06    -14.5830E+06    -220.157E+06    -14.6103E+06    -219.914E+06    -8.84064E+06     6.85185E+06         22.6922
            1038     986.603E-06     10.5336E-03         10.4802        -3.38783        -3.59097        -3.25229         10.3093        -3.55563    -449.292E-03     28.4206E-03    -13.9959E-03    -14.4247E-03    -14.3797E-03     28.3755E-03    -13.9959E-03    -2.68670E-03    -11.5141E+06    -17.4003E+06    -222.903E+06    -16.4918E+06    -222.822E+06    -12.5036E+06     2.35537E+06         22.6210
            1039     16.5661E-03     10.0314E-03         9.87302        -2.73834        -3.46250        -2.73822         9.87291        -3.46250    -64.1994E-03     252.213E-03    -26.8065E-03    -225.406E-03    -101.233E-03     128.039E-03    -26.8065E-03     418.393E-03     151.979E+06     134.614E+06    -8.98252E+06    -8.96005E+06     134.594E+06     151.976E+06     1.00268E+06         63.8280
            1040     15.6320E-03     9.59038E-03         10.1663        -2.93527        -3.54165        -2.93516         10.1662        -3.54165    -39.1007E-03     154.226E-03    -24.4152E-03    -129.810E-03    -62.4003E-03     86.8155E-03    -24.4152E-03     237.055E-03     100.113E+06     83.2771E+06    -17.4950E+06    -17.3496E+06     99.3676E+06     83.8770E+06     3.49261E+06         56.7087
            1041     14.6719E-03     9.48639E-03         10.3999        -3.10507        -3.59445        -3.10505         10.3999        -3.59445    -4.26292E-03     70.3452E-03    -22.7884E-03    -47.5568E-03    -37.7336E-03     60.5219E-03    -22.7884E-03     57.3868E-03     68.0719E+06     16.0365E+06    -22.9615E+06    -22.8376E+06     67.9480E+06     16.0365E+06      2.5208E+06         48.2650
            1042     13.7010E-03     9.45375E-03         10.5882        -3.25417        -3.62854        -3.25410         10.5882        -3.62854    -57.3799E-03     55.1867E-03    -21.6185E-03    -33.5682E-03    -33.0903E-03     54.7089E-03    -21.6185E-03     10.3479E-03     55.2799E+06    -18.0305E+06    -30.7019E+06    -23.4264E+06     55.2599E+06    -25.2860E+06     757.188E+03         40.3771
            1043     12.7364E-03     9.45219E-03         10.7446        -3.38644        -3.65326        -3.38622         10.7444        -3.65326     24.6760E-03     52.6796E-03    -20.7068E-03    -31.9728E-03    -31.9205E-03     52.6273E-03    -20.7068E-03     88.8642E-06     24.7595E+06    -23.4751E+06    -34.6925E+06    -23.0173E+06     24.3018E+06    -34.6925E+06     2.60687E+06         34.1896
            1044     11.7644E-03     9.44322E-03         10.8642        -3.49705        -3.67094        -3.49663         10.8638        -3.67094     150.868E-03     51.2678E-03    -19.8985E-03    -31.3693E-03    -31.2157E-03     51.1142E-03    -19.8985E-03    -5.77368E-03    -9.48694E+06    -22.1377E+06    -45.4768E+06    -22.0824E+06    -30.8441E+06    -24.1750E+06     3.73746E+06         29.9629
            1045     10.7972E-03     9.45126E-03         10.9536        -3.58403        -3.68607        -3.58770         10.9532        -3.68201     145.674E-03     49.5261E-03    -19.0470E-03    -30.4791E-03    -30.1092E-03     49.1561E-03    -19.0470E-03    -10.5375E-03    -7.36664E+06    -19.7413E+06    -75.0038E+06    -20.1852E+06    -74.5598E+06    -7.36664E+06     3.29978E+06         27.3408
            1046     9.82396E-03     9.45441E-03         11.0051        -3.63276        -3.69969        -3.64483         11.0049        -3.68742     24.4438E-03     46.7218E-03    -18.1128E-03    -28.6090E-03    -28.0161E-03     46.1289E-03    -18.1128E-03    -13.1712E-03     1.23673E+06    -19.6805E+06    -102.119E+06    -19.7466E+06    -102.053E+06     1.23673E+06     1.86049E+06         25.7850
            1047     8.85205E-03     9.46612E-03         11.0306        -3.65694        -3.70607        -3.67368         11.0304        -3.68904    -116.199E-03     43.7293E-03    -17.1596E-03    -26.5697E-03    -25.8274E-03     42.9870E-03    -17.1596E-03    -14.2882E-03     225.592E+03    -20.3562E+06    -132.314E+06    -20.4024E+06    -132.268E+06     225.592E+03    -988.491E+03         24.8446
            1048     7.87491E-03     9.47324E-03         11.0396        -3.66861        -3.70608        -3.68262         11.0362        -3.68870    -381.789E-03     40.5172E-03    -16.2675E-03    -24.2497E-03    -23.4328E-03     39.7003E-03    -16.2675E-03    -14.3828E-03     3.13600E+06    -18.4452E+06    -159.265E+06    -18.5644E+06    -159.146E+06     3.13600E+06    -1.52673E+06         24.2307
            1049     6.89766E-03     9.48495E-03         11.0537        -3.67533        -3.72723        -3.71322         11.0499        -3.68550    -439.121E-03     37.3325E-03    -15.4448E-03    -21.8877E-03    -21.1012E-03     36.5459E-03    -15.4448E-03    -13.4932E-03     8.49710E+06    -14.3658E+06    -175.891E+06    -14.4778E+06    -175.779E+06     8.49710E+06     661.350E+03         23.7875
            1050     5.91626E-03     9.49084E-03         11.0387        -3.67702        -3.73890        -3.73761         11.0374        -3.67702    -236.078E-03     34.2281E-03    -14.6899E-03    -19.5382E-03    -18.8561E-03     33.5460E-03    -14.6899E-03    -11.9802E-03     8.79867E+06    -11.5060E+06    -188.903E+06    -11.5607E+06    -188.848E+06     8.79867E+06     1.45522E+06         23.4420
            1051     4.93371E-03     9.49945E-03         11.0055        -3.66215        -3.74976        -3.74826         11.0040        -3.66215     37.4745E-03     31.4809E-03    -14.0296E-03    -17.4513E-03    -16.9232E-03     30.9529E-03    -14.0296E-03    -10.0503E-03     5.80129E+06    -10.6012E+06    -198.752E+06    -10.6407E+06    -198.712E+06     5.80129E+06     1.85065E+06         23.1632
            1052     3.94909E-03     9.50225E-03         10.9219        -3.64395        -3.70840        -3.70460         10.9194        -3.64519     23.5761E-03     29.1900E-03    -13.4904E-03    -15.6996E-03    -15.3343E-03     28.8247E-03    -13.4904E-03    -8.00658E-03     3.93321E+06    -10.8501E+06    -207.822E+06    -10.9030E+06    -207.770E+06     3.93321E+06     2.74943E+06         22.9393
            1053     2.96307E-03     9.50708E-03         10.8941        -3.62557        -3.69718        -3.68862         10.8868        -3.62680     208.950E-03     27.3340E-03    -13.0708E-03    -14.2633E-03    -14.0418E-03     27.1125E-03    -13.0708E-03    -5.96999E-03     2.87750E+06    -10.8257E+06    -212.839E+06    -10.9176E+06    -212.747E+06     2.87750E+06     3.50696E+06         22.7660
            1054     1.97593E-03     9.50730E-03         10.8019        -3.54105        -3.69064        -3.59071         10.7855        -3.62457     142.088E-03     25.9802E-03    -12.7311E-03    -13.2491E-03    -13.1088E-03     25.8790E-03    -12.7703E-03    -3.84210E-03    -2.03072E+06    -10.3122E+06    -216.186E+06    -10.3998E+06    -216.098E+06    -2.03072E+06     3.18979E+06         22.6421
            1055     988.103E-06     9.50930E-03         10.9372        -3.53391        -3.82477        -3.44083         10.8441        -3.82477     909.404E-03     25.3067E-03    -12.5145E-03    -12.7922E-03    -12.6655E-03     25.2714E-03    -12.6058E-03    -2.24066E-03    -5.85001E+06    -11.1947E+06    -217.901E+06    -9.66645E+06    -217.865E+06    -7.41412E+06     522.002E+03         22.5667
            1056     16.5736E-03     8.90390E-03         10.0811        -2.77321        -3.57314        -2.77317         10.0810        -3.57314    -30.1440E-03     243.209E-03    -26.9239E-03    -216.286E-03    -102.047E-03     128.971E-03    -26.9239E-03     396.983E-03     152.543E+06     133.093E+06    -11.1381E+06    -10.9905E+06     132.945E+06     152.543E+06     1.59972E+06         62.2339
            1057     15.6380E-03     8.52816E-03         10.3558        -2.95637        -3.64915        -2.95633         10.3557        -3.64915    -6.36844E-03     145.598E-03    -24.2944E-03    -121.303E-03    -64.5800E-03     88.8743E-03    -24.2944E-03     216.315E-03     102.265E+06     84.9140E+06    -18.6587E+06    -18.4265E+06     99.7125E+06     87.2339E+06     2.93178E+06         55.3740
            1058     14.6712E-03     8.42295E-03         10.5847        -3.12483        -3.70349        -3.12481         10.5847        -3.70349     19.9181E-03     69.6867E-03    -22.5551E-03    -47.1316E-03    -36.4947E-03     59.0498E-03    -22.5551E-03     60.0888E-03     69.5155E+06     19.7284E+06    -21.2416E+06    -21.1239E+06     69.3978E+06     19.7284E+06     1.17339E+06         47.2781
            1059     13.7076E-03     8.40239E-03         10.7785        -3.27597        -3.74281        -3.27589         10.7784        -3.74281    -41.5980E-03     54.9737E-03    -21.4125E-03    -33.5612E-03    -32.8331E-03     54.2456E-03    -21.4125E-03     13.9210E-03     53.2519E+06    -18.6108E+06    -31.5256E+06    -23.6503E+06     53.0906E+06    -26.3249E+06     2.27780E+06         39.6961
            1060     12.7353E-03     8.39345E-03         10.9463        -3.40994        -3.77410        -3.40974         10.9461        -3.77410     10.6134E-03     52.4115E-03    -20.5162E-03    -31.8953E-03    -31.8078E-03     52.3240E-03    -20.5162E-03     4.23708E-03     23.5563E+06    -25.1506E+06    -34.8738E+06    -25.6199E+06     23.0029E+06    -33.8512E+06     3.39388E+06         33.7576
            1061     11.7701E-03     8.39487E-03         11.0780        -3.52058        -3.79956        -3.52039         11.0778        -3.79956     99.1938E-03     50.9731E-03    -19.7241E-03    -31.2490E-03    -31.1850E-03     50.9091E-03    -19.7241E-03    -1.27304E-03    -5.16846E+06    -24.1984E+06    -42.8273E+06    -24.8727E+06    -29.5657E+06    -17.7556E+06     2.24516E+06         29.7070
            1062     10.7975E-03     8.39749E-03         11.1706        -3.60184        -3.82025        -3.60171         11.1705        -3.82025     75.9450E-03     48.7366E-03    -18.8639E-03    -29.8727E-03    -29.6929E-03     48.5568E-03    -18.8639E-03    -6.77490E-03    -2.72728E+06    -23.2671E+06    -72.9299E+06    -23.5971E+06    -72.5999E+06    -2.72728E+06    -671.191E+03         27.2007
            1063     9.82862E-03     8.41116E-03         11.2416        -3.66418        -3.83740        -3.66376         11.2412        -3.83740    -66.9235E-03     45.9293E-03    -17.9502E-03    -27.9792E-03    -27.6790E-03     45.6292E-03    -17.9502E-03    -8.95266E-03     8.06937E+06    -19.2757E+06    -100.436E+06    -19.6535E+06    -100.058E+06     8.06937E+06    -2.87515E+06         25.7203
            1064     8.85273E-03     8.42053E-03         11.3088        -3.72437        -3.85133        -3.72378         11.3082        -3.85133    -179.603E-03     42.8929E-03    -17.0247E-03    -25.8682E-03    -25.4749E-03     42.4996E-03    -17.0247E-03    -9.87693E-03     10.6114E+06    -16.6212E+06    -130.376E+06    -16.8110E+06    -130.186E+06     10.6114E+06    -3.90142E+06         24.8313
            1065     7.87820E-03     8.43664E-03         11.3629        -3.77529        -3.86206        -3.77041         11.3580        -3.86206    -454.011E-03     39.8885E-03    -16.1224E-03    -23.7661E-03    -23.3394E-03     39.4618E-03    -16.1224E-03    -9.97977E-03     10.0168E+06    -17.2823E+06    -159.050E+06    -17.5923E+06    -158.740E+06     10.0168E+06    -6.25862E+06         24.2541
            1066     6.89863E-03     8.44677E-03         11.4148        -3.82334        -3.87931        -3.82936         11.4100        -3.86845    -431.094E-03     36.8156E-03    -15.2694E-03    -21.5461E-03    -21.1438E-03     36.4133E-03    -15.2694E-03    -9.23752E-03     13.0868E+06    -15.8881E+06    -178.514E+06    -16.3794E+06    -178.023E+06     13.0868E+06    -7.62945E+06         23.8377
            1067     5.91900E-03     8.46063E-03         11.4336        -3.85709        -3.88952        -3.87514         11.4308        -3.86870    -326.917E-03     33.8639E-03    -14.4684E-03    -19.3955E-03    -19.0416E-03     33.5100E-03    -14.4684E-03    -8.26621E-03     16.1459E+06    -12.2963E+06    -191.269E+06    -12.6229E+06    -190.943E+06     16.1459E+06    -5.65540E+06         23.5109
            1068     4.93569E-03     8.46782E-03         11.4354        -3.85965        -3.91464        -3.90602         11.4292        -3.86203     51.1700E-03     31.0674E-03    -13.7284E-03    -17.3390E-03    -17.0640E-03     30.7924E-03    -13.7284E-03    -6.94172E-03     15.4612E+06    -10.0997E+06    -201.385E+06    -10.1922E+06    -201.293E+06     15.4612E+06    -2.75114E+06         23.2441
            1069     3.95148E-03     8.47674E-03         11.3979        -3.85094        -3.90523        -3.89326         11.3859        -3.85094    -154.159E-03     28.5613E-03    -13.0677E-03    -15.4936E-03    -15.3015E-03     28.3691E-03    -13.0677E-03    -5.55785E-03     11.0601E+06    -9.86068E+06    -208.825E+06    -9.90109E+06    -208.785E+06     11.0601E+06    -1.29473E+06         23.0267
            1070     2.96499E-03     8.48032E-03         11.4093        -3.83347        -3.93311        -3.90026         11.3764        -3.83347     359.839E-03     26.4392E-03    -12.5076E-03    -13.9316E-03    -13.8169E-03     26.3244E-03    -12.5076E-03    -4.06634E-03     4.83083E+06    -10.3516E+06    -212.443E+06    -10.4067E+06    -212.388E+06     4.83083E+06    -1.69756E+06         22.8557
            1071     1.97776E-03     8.48487E-03         11.3434        -3.78526        -3.92394        -3.80252         11.2647        -3.82801    -350.643E-03     24.7441E-03    -12.0711E-03    -12.6731E-03    -12.5805E-03     24.6907E-03    -12.1102E-03    -2.66386E-03    -790.671E+03    -9.45674E+06    -215.004E+06    -9.52629E+06    -214.934E+06    -790.671E+03    -2.38594E+06         22.7312
            1072     988.487E-06     8.48554E-03         11.7468        -3.93229        -4.17230        -3.60881         11.3102        -4.05922         2.15607     23.8963E-03    -11.8579E-03    -12.0385E-03    -11.9290E-03     23.8782E-03    -11.9492E-03    -1.17110E-03    -5.20509E+06    -10.9074E+06    -216.966E+06    -9.38784E+06    -216.922E+06    -6.76919E+06    -556.020E+03         22.6543
            1073     16.5587E-03     7.75674E-03         10.2582        -2.79827        -3.66997        -2.79821         10.2582        -3.66997     37.5697E-03     236.801E-03    -27.0352E-03    -209.765E-03    -102.530E-03     129.565E-03    -27.0352E-03     380.943E-03     153.615E+06     134.175E+06    -11.4391E+06    -10.7891E+06     133.525E+06     153.615E+06     2.78641E+06         60.4726
            1074     15.6316E-03     7.46363E-03         10.5158        -2.97567        -3.74418        -2.97553         10.5157        -3.74418     67.7225E-03     130.421E-03    -24.4237E-03    -105.997E-03    -59.9752E-03     84.3989E-03    -24.4237E-03     185.963E-03     102.532E+06     85.4029E+06    -18.8352E+06    -18.4931E+06     98.9424E+06     88.6502E+06    -10.6631E+03         53.8801
            1075     14.6702E-03     7.36195E-03         10.7470        -3.14565        -3.79993        -3.14553         10.7469        -3.79993     74.7167E-03     69.4785E-03    -22.7386E-03    -46.7399E-03    -36.0144E-03     58.7531E-03    -22.7386E-03     60.4739E-03     66.9427E+06     19.2871E+06    -21.9839E+06    -21.7710E+06     66.7299E+06     19.2871E+06     2.39922E+06         46.1485
            1076     13.7012E-03     7.34608E-03         10.9475        -3.29687        -3.84381        -3.29677         10.9474        -3.84381    -16.7287E-03     55.0574E-03    -21.6648E-03    -33.3926E-03    -32.4965E-03     54.1614E-03    -21.6648E-03     16.7924E-03     51.6905E+06    -19.8389E+06    -30.8969E+06    -27.3638E+06     51.2467E+06    -22.9281E+06     5.63908E+06         38.9120
            1077     12.7354E-03     7.34114E-03         11.1214        -3.43141        -3.88087        -3.43123         11.1212        -3.88087     9.94062E-03     52.3046E-03    -20.8393E-03    -31.4652E-03    -31.1493E-03     51.9887E-03    -20.8393E-03     9.56240E-03     26.1956E+06    -23.3877E+06    -33.0840E+06    -29.5391E+06     25.7399E+06    -26.4769E+06     4.76307E+06         33.2595
            1078     11.7632E-03     7.33995E-03         11.2562        -3.53426        -3.91352        -3.53414         11.2561        -3.91352     51.5746E-03     50.4535E-03    -20.1313E-03    -30.3223E-03    -30.1758E-03     50.3071E-03    -20.1313E-03     4.01385E-03     774.821E+03    -22.7669E+06    -42.7158E+06    -28.5467E+06    -25.1082E+06    -11.0531E+06    -1.29796E+06         29.4177
            1079     10.7955E-03     7.35087E-03         11.3579        -3.60988        -3.94333        -3.60985         11.3579        -3.94333     11.7857E-03     47.8383E-03    -19.4032E-03    -28.4351E-03    -28.3765E-03     47.7797E-03    -19.4032E-03    -708.875E-06     4.71983E+06    -20.8571E+06    -70.7619E+06    -23.2803E+06    -68.3387E+06     4.71983E+06    -7.50607E+06         27.0565
            1080     9.82009E-03     7.36285E-03         11.4451        -3.67524        -3.97162        -3.67433         11.4442        -3.97162    -147.629E-03     45.3045E-03    -18.6524E-03    -26.6521E-03    -26.5669E-03     45.2194E-03    -18.6524E-03    -1.83065E-03     14.0262E+06    -17.3928E+06    -102.777E+06    -18.7422E+06    -101.428E+06     14.0262E+06    -10.1632E+06         25.6784
            1081     8.84779E-03     7.38034E-03         11.5314        -3.74163        -3.99870        -3.74059         11.5303        -3.99870    -226.204E-03     42.9798E-03    -17.8916E-03    -25.0882E-03    -24.9888E-03     42.8803E-03    -17.8916E-03    -2.41023E-03     19.8426E+06    -14.3725E+06    -131.151E+06    -15.4508E+06    -130.073E+06     19.8426E+06    -10.1256E+06         24.8656
            1082     7.86993E-03     7.39483E-03         11.6388        -3.83456        -4.02280        -3.82839         11.6326        -4.02280    -496.195E-03     40.6135E-03    -17.1097E-03    -23.5038E-03    -23.3908E-03     40.5005E-03    -17.1097E-03    -2.38607E-03     22.2578E+06    -10.7312E+06    -157.209E+06    -11.7446E+06    -156.195E+06     22.2578E+06    -11.4682E+06         24.3485
            1083     6.89338E-03     7.41269E-03         11.7377        -3.93217        -4.04065        -3.92612         11.7316        -4.04065    -418.745E-03     38.2563E-03    -16.3248E-03    -21.9316E-03    -21.8339E-03     38.1587E-03    -16.3248E-03    -2.32145E-03     24.1325E+06    -10.1278E+06    -181.579E+06    -11.2198E+06    -180.487E+06     24.1325E+06    -13.5297E+06         23.9806
            1084     5.91261E-03     7.42511E-03         11.7922        -3.99711        -4.05146        -3.99119         11.7863        -4.05146    -412.538E-03     35.7105E-03    -15.5176E-03    -20.1929E-03    -20.1063E-03     35.6239E-03    -15.5176E-03    -2.07377E-03     22.4289E+06    -12.5612E+06    -197.241E+06    -13.3940E+06    -196.409E+06     22.4289E+06    -12.0098E+06         23.6924
            1085     4.93213E-03     7.43914E-03         11.8435        -4.03725        -4.08162        -4.05033         11.8297        -4.05477     69.8578E-03     33.0852E-03    -14.7126E-03    -18.3726E-03    -18.3075E-03     33.0201E-03    -14.7126E-03    -1.85169E-03     17.6429E+06    -13.8134E+06    -205.976E+06    -14.3424E+06    -205.447E+06     17.6429E+06    -9.31860E+06         23.4550
            1086     3.94802E-03     7.44743E-03         11.8521        -4.05205        -4.09208        -4.06264         11.8226        -4.05205    -317.072E-03     30.4861E-03    -13.9561E-03    -16.5301E-03    -16.4812E-03     30.4373E-03    -13.9561E-03    -1.52785E-03     10.8013E+06    -12.2588E+06    -211.252E+06    -12.6489E+06    -210.862E+06     10.8013E+06    -7.80851E+06         23.2584
            1087     2.96338E-03     7.45604E-03         11.9244        -4.03957        -4.17712        -4.09760         11.8449        -4.03957     537.331E-03     28.1629E-03    -13.2980E-03    -14.8649E-03    -14.8388E-03     28.1368E-03    -13.2980E-03    -1.19037E-03     2.10403E+06    -10.9793E+06    -214.499E+06    -11.2633E+06    -214.215E+06     2.10403E+06    -6.99807E+06         23.1010
            1088     1.97606E-03     7.46008E-03         11.9651        -4.02796        -4.24252        -4.03138         11.7539        -4.02796    -809.071E-03     26.3569E-03    -12.7896E-03    -13.5674E-03    -13.5535E-03     26.3431E-03    -12.7896E-03    -778.614E-06    -3.58556E+06    -12.1902E+06    -217.528E+06    -12.3827E+06    -217.336E+06    -3.58556E+06    -6.19307E+06         22.9843
            1089     988.944E-06     7.46411E-03         12.7993        -4.25838        -4.84990        -3.79425         11.7436        -4.25838         3.38128     25.0834E-03    -12.3503E-03    -12.7331E-03    -12.7282E-03     25.0785E-03    -12.3503E-03    -1.23859E-06    -9.25160E+06    -15.3726E+06    -221.345E+06    -15.0610E+06    -221.247E+06    -9.66155E+06    -2.37261E+06         22.9108
            1090     16.5770E-03     6.64115E-03         10.3931        -2.82001        -3.75464        -2.81970         10.3928        -3.75464     117.564E-03     223.911E-03    -27.1291E-03    -196.782E-03    -98.9504E-03     126.079E-03    -27.1291E-03     355.122E-03     152.793E+06     134.675E+06    -11.2226E+06    -10.3982E+06     133.850E+06     152.793E+06     872.191E+03         58.5508
            1091     15.6290E-03     6.39398E-03         10.6577        -3.00234        -3.82697        -3.00191         10.6573        -3.82697     147.128E-03     117.978E-03    -24.7361E-03    -93.2418E-03    -52.4723E-03     77.2084E-03    -24.7361E-03     164.989E-03     100.523E+06     87.4351E+06    -17.4464E+06    -17.0306E+06     97.6620E+06     89.8804E+06     2.23388E+06         52.2325
            1092     14.6614E-03     6.30612E-03         10.8981        -3.17155        -3.88369        -3.17132         10.8979        -3.88369     108.963E-03     68.9927E-03    -23.2824E-03    -45.7104E-03    -35.5096E-03     58.7920E-03    -23.2824E-03     59.4103E-03     62.5851E+06     22.4959E+06    -27.3747E+06    -26.6631E+06     61.8735E+06     22.4959E+06     7.18909E+06         44.8700
            1093     13.6943E-03     6.28759E-03         11.0981        -3.31729        -3.93111        -3.31718         11.0979        -3.93111    -4.83069E-03     54.2600E-03    -22.3437E-03    -31.9163E-03    -30.7699E-03     53.1136E-03    -22.3437E-03     19.2234E-03     52.3871E+06    -14.5942E+06    -33.1811E+06    -32.2841E+06     51.4901E+06    -14.5942E+06     8.46062E+06         38.0157
            1094     12.7226E-03     6.28941E-03         11.2666        -3.44150        -3.97349        -3.44136         11.2665        -3.97349     5.01356E-03     51.5202E-03    -21.6896E-03    -29.8306E-03    -29.1268E-03     50.8164E-03    -21.6896E-03     14.7413E-03     33.7554E+06    -19.0579E+06    -33.1064E+06    -32.3236E+06     32.9726E+06    -19.0579E+06     2.82243E+06         32.6843
            1095     11.7536E-03     6.28730E-03         11.4013        -3.53688        -4.01323        -3.53676         11.4012        -4.01323     12.2681E-03     48.9810E-03    -21.2186E-03    -27.7624E-03    -27.2834E-03     48.5020E-03    -21.2186E-03     10.6701E-03     7.49483E+06    -15.8633E+06    -42.7809E+06    -27.1958E+06    -16.1699E+06    -7.78368E+06    -7.39630E+06         29.0859
            1096     10.7781E-03     6.30368E-03         11.5123        -3.60949        -4.05197        -3.60944         11.5123        -4.05197    -23.8086E-03     46.8280E-03    -20.8269E-03    -26.0011E-03    -25.6743E-03     46.5012E-03    -20.8269E-03     7.98442E-03     4.50515E+06    -19.2710E+06    -71.4016E+06    -24.3821E+06    -66.2905E+06     4.50515E+06    -14.4809E+06         26.9013
            1097     9.80518E-03     6.31750E-03         11.6168        -3.67687        -4.09112        -3.67559         11.6156        -4.09112    -186.691E-03     45.5704E-03    -20.4384E-03    -25.1320E-03    -24.7302E-03     45.1686E-03    -20.4384E-03     8.55056E-03     15.2645E+06    -17.5770E+06    -105.700E+06    -21.6468E+06    -101.630E+06     15.2645E+06    -17.5189E+06         25.6538
            1098     8.82797E-03     6.33628E-03         11.7302        -3.75781        -4.13058        -3.75649         11.7288        -4.13058    -233.107E-03     44.6501E-03    -19.9950E-03    -24.6551E-03    -24.2477E-03     44.2428E-03    -19.9950E-03     8.39763E-03     22.1863E+06    -12.7994E+06    -134.886E+06    -16.3353E+06    -131.350E+06     22.1863E+06    -19.7653E+06         24.9426
            1099     7.85298E-03     6.35464E-03         11.8757        -3.87789        -4.16754        -3.87073         11.8686        -4.16754    -510.313E-03     43.6390E-03    -19.4775E-03    -24.1614E-03    -23.8029E-03     43.2804E-03    -19.4775E-03     8.12632E-03     27.4807E+06    -8.49736E+06    -160.871E+06    -11.3908E+06    -157.977E+06     27.4807E+06    -20.0413E+06         24.5091
            1100     6.87506E-03     6.37198E-03         12.0200        -4.00895        -4.19759        -4.00165         12.0127        -4.19759    -403.381E-03     42.3441E-03    -18.8802E-03    -23.4639E-03    -23.1517E-03     42.0319E-03    -18.8802E-03     7.36272E-03     30.7037E+06    -7.36338E+06    -187.189E+06    -9.26922E+06    -185.283E+06     30.7037E+06    -17.9060E+06         24.2123
            1101     5.89847E-03     6.38975E-03         12.1242        -4.11128        -4.21890        -4.10109         12.1140        -4.21890    -496.153E-03     40.5667E-03    -18.1662E-03    -22.4005E-03    -22.1676E-03     40.3338E-03    -18.1662E-03     6.35451E-03     26.6587E+06    -9.44454E+06    -202.483E+06    -10.6996E+06    -201.228E+06     26.6587E+06    -15.4253E+06         23.9847
            1102     4.91839E-03     6.40346E-03         12.2060        -4.18558        -4.24118        -4.17099         12.1827        -4.23252     88.3514E-03     38.3335E-03    -17.3708E-03    -20.9628E-03    -20.7875E-03     38.1583E-03    -17.3708E-03     5.26580E-03     15.4393E+06    -12.5317E+06    -210.369E+06    -13.7200E+06    -209.180E+06     15.4393E+06    -15.1425E+06         23.7968
            1103     3.93867E-03     6.41720E-03         12.2691        -4.22915        -4.27184        -4.20680         12.2157        -4.24080    -485.824E-03     35.9098E-03    -16.5906E-03    -19.3192E-03    -19.2083E-03     35.7989E-03    -16.5906E-03     4.08584E-03     5.17215E+06    -14.2480E+06    -216.677E+06    -15.3162E+06    -215.609E+06     5.17215E+06    -14.4114E+06         23.6385
            1104     2.95541E-03     6.42600E-03         12.4112        -4.23911        -4.40689        -4.26391         12.2682        -4.23911     707.458E-03     33.5145E-03    -15.8902E-03    -17.6243E-03    -17.5596E-03     33.4498E-03    -15.8902E-03     2.89551E-03    -3.05034E+06    -15.0943E+06    -220.166E+06    -15.7483E+06    -219.512E+06    -3.05034E+06    -11.2247E+06         23.5091
            1105     1.97192E-03     6.43424E-03         12.6062        -4.23575        -4.62562        -4.22698         12.2075        -4.23575        -1.28096     31.5808E-03    -15.2947E-03    -16.2861E-03    -16.2558E-03     31.5505E-03    -15.2947E-03     1.95015E-03    -10.3748E+06    -17.5364E+06    -224.087E+06    -17.8071E+06    -223.816E+06    -10.3748E+06    -7.02697E+06         23.4113
            1106     986.156E-06     6.43696E-03         14.0510        -4.48126        -5.83042        -3.99243         12.2130        -4.48126         4.55119     29.9952E-03    -14.7024E-03    -15.2928E-03    -15.1622E-03     29.9841E-03    -14.8219E-03     1.16796E-03    -17.1451E+06    -20.3982E+06    -228.617E+06    -19.9701E+06    -228.532E+06    -17.6579E+06    -3.81068E+06         23.3484
            1107     16.5675E-03     5.54814E-03         10.4927        -2.84155        -3.82623        -2.84073         10.4919        -3.82623     201.435E-03     210.750E-03    -27.5965E-03    -183.154E-03    -92.6884E-03     120.285E-03    -27.5965E-03     331.262E-03     148.630E+06     129.662E+06    -11.9324E+06    -11.4993E+06     129.229E+06     148.630E+06     1.17106E+06         56.4030
            1108     15.6086E-03     5.32557E-03         10.7921        -3.03430        -3.89536        -3.03359         10.7914        -3.89536     190.502E-03     113.248E-03    -25.4175E-03    -87.8307E-03    -49.5545E-03     74.9720E-03    -25.4175E-03     155.235E-03     96.1330E+06     85.2115E+06    -21.0817E+06    -19.7898E+06     92.3947E+06     87.6578E+06     8.46299E+06         50.3774
            1109     14.6518E-03     5.24116E-03         11.0305        -3.19026        -3.95246        -3.19005         11.0303        -3.95246     98.3200E-03     67.2614E-03    -24.1811E-03    -43.0803E-03    -34.2854E-03     58.4665E-03    -24.1811E-03     55.2282E-03     63.0025E+06     31.2867E+06    -33.5094E+06    -31.7955E+06     61.2886E+06     31.2867E+06     11.4776E+06         43.4277
            1110     13.6795E-03     5.24052E-03         11.2172        -3.31939        -4.00332        -3.31926         11.2171        -4.00332    -26.2342E-03     52.4115E-03    -23.4657E-03    -28.9458E-03    -27.2922E-03     50.7579E-03    -23.4657E-03     22.7068E-03     58.7329E+06    -1.90152E+06    -31.7068E+06    -30.8672E+06     57.8933E+06    -1.90152E+06     5.15857E+06         37.0038
            1111     12.7071E-03     5.23118E-03         11.3726        -3.42824        -4.05167        -3.42810         11.3725        -4.05167    -17.5037E-03     49.3423E-03    -22.8948E-03    -26.4475E-03    -24.4388E-03     47.5867E-03    -23.1480E-03     21.8164E-03     41.9452E+06    -13.8360E+06    -26.6331E+06    -24.4923E+06     41.0418E+06    -15.0733E+06    -3.48142E+06         32.0354
            1112     11.7297E-03     5.24444E-03         11.5120        -3.52235        -4.09923        -3.52224         11.5119        -4.09923    -11.4769E-03     47.5035E-03    -22.3482E-03    -25.1553E-03    -22.8424E-03     45.9852E-03    -23.1427E-03     19.5568E-03     9.29802E+06    -14.7958E+06    -36.9478E+06    -23.8066E+06    -8.31232E+06    -10.3267E+06    -9.86087E+06         28.7172
            1113     10.7524E-03     5.25366E-03         11.6349        -3.59705        -4.14731        -3.59698         11.6348        -4.14731    -49.9637E-03     46.7971E-03    -22.1499E-03    -24.6472E-03    -22.0871E-03     45.3596E-03    -23.2725E-03     18.8271E-03    -791.709E+03    -16.7404E+06    -70.4652E+06    -24.8766E+06    -62.3290E+06    -791.709E+03    -18.0356E+06         26.7408
            1114     9.77381E-03     5.27455E-03         11.7657        -3.67818        -4.19696        -3.67688         11.7644        -4.19696    -204.311E-03     47.6617E-03    -22.8068E-03    -24.8549E-03    -22.6698E-03     46.0579E-03    -23.3881E-03     20.3469E-03     8.51088E+06    -15.6131E+06    -108.978E+06    -23.3456E+06    -101.245E+06     8.51088E+06    -25.3463E+06         25.6490
            1115     8.79738E-03     5.28916E-03         11.9181        -3.78548        -4.24699        -3.78418         11.9168        -4.24699    -216.445E-03     48.4909E-03    -23.3931E-03    -25.0978E-03    -23.6505E-03     47.0437E-03    -23.3931E-03     19.9106E-03     14.1643E+06    -14.0481E+06    -139.816E+06    -20.8262E+06    -133.038E+06     14.1643E+06    -28.0800E+06         25.0603
            1116     7.82143E-03     5.30995E-03         12.0898        -3.92224        -4.29444        -3.91488         12.0825        -4.29444    -503.465E-03     49.0580E-03    -23.2797E-03    -25.7783E-03    -24.4426E-03     47.7223E-03    -23.2797E-03     19.2787E-03     20.0451E+06    -13.2199E+06    -169.992E+06    -18.5467E+06    -164.665E+06     20.0451E+06    -27.9023E+06         24.7295
            1117     6.84673E-03     5.32755E-03         12.2599        -4.06805        -4.33567        -4.06005         12.2519        -4.33567    -346.461E-03     49.1577E-03    -23.0093E-03    -26.1484E-03    -25.0188E-03     48.0281E-03    -23.0093E-03     17.8759E-03      23.318E+06    -13.3079E+06    -196.763E+06    -16.8711E+06    -193.200E+06      23.318E+06    -24.7893E+06         24.5229
            1118     5.87120E-03     5.34588E-03         12.4171        -4.21088        -4.36731        -4.19609         12.4023        -4.36731    -546.152E-03     48.4175E-03    -22.5404E-03    -25.8771E-03    -25.0010E-03     47.5415E-03    -22.5404E-03     15.6547E-03     19.2306E+06    -12.1103E+06    -209.290E+06    -14.4733E+06    -206.927E+06     19.2306E+06    -20.9247E+06         24.3754
            1119     4.89651E-03     5.36312E-03         12.5239        -4.30653        -4.39110        -4.27279         12.4901        -4.39110     122.414E-03     47.0107E-03    -21.9294E-03    -25.0814E-03    -24.4293E-03     46.3587E-03    -21.9294E-03     13.3407E-03     8.50489E+06    -12.6933E+06    -215.143E+06    -14.3373E+06    -213.499E+06     8.50489E+06    -18.0278E+06         24.2573
            1120     3.91919E-03     5.37720E-03         12.6379        -4.37138        -4.44992        -4.33182         12.5589        -4.41057    -611.786E-03     45.1234E-03    -21.2633E-03    -23.8601E-03    -23.4312E-03     44.6945E-03    -21.2633E-03     10.5570E-03    -4.75889E+06    -17.2596E+06    -223.869E+06    -18.5496E+06    -222.579E+06    -4.75889E+06    -16.1927E+06         24.1567
            1121     2.94209E-03     5.39067E-03         12.8464        -4.42244        -4.61043        -4.39840         12.6344        -4.42244     876.078E-03     43.0529E-03    -20.6220E-03    -22.4309E-03    -22.1815E-03     42.8035E-03    -20.6220E-03     7.84842E-03    -13.2854E+06    -21.4842E+06    -229.403E+06    -22.2968E+06    -228.590E+06    -13.2854E+06    -12.7682E+06         24.0720
            1122     1.96210E-03     5.39858E-03         13.2252        -4.43671        -4.99600        -4.38901         12.6182        -4.43671        -1.71879     41.0636E-03    -20.0778E-03    -20.9858E-03    -20.8620E-03     40.9398E-03    -20.0778E-03     5.30694E-03    -19.2013E+06    -23.5560E+06    -232.664E+06    -23.8732E+06    -232.346E+06    -19.2013E+06    -7.49389E+06         24.0061
            1123     981.911E-06     5.40571E-03         15.3263        -4.67386        -6.86715        -4.22089         12.6800        -4.67386         5.62354     39.6744E-03    -19.5925E-03    -20.0819E-03    -19.9226E-03     39.6345E-03    -19.7120E-03     2.76462E-03    -23.9906E+06    -26.0700E+06    -235.916E+06    -25.1756E+06    -235.839E+06    -24.9623E+06    -3.93889E+06         23.9627
            1124     16.5396E-03     4.45301E-03         10.6034        -2.87062        -3.88137        -2.86887         10.6016        -3.88137     294.944E-03     201.542E-03    -28.7738E-03    -172.768E-03    -88.1173E-03     116.891E-03    -28.7738E-03     311.881E-03      142.76E+06     123.896E+06    -12.5222E+06    -11.0474E+06     122.422E+06      142.76E+06     6.90572E+06         53.9698
            1125     15.6029E-03     4.24447E-03         10.9150        -3.05413        -3.94646        -3.05343         10.9143        -3.94646     179.975E-03     111.167E-03    -26.6201E-03    -84.5466E-03    -53.1596E-03     79.7797E-03    -26.6201E-03     141.338E-03     92.2374E+06     83.2916E+06    -26.8698E+06    -24.2935E+06     87.0829E+06     85.8699E+06     13.4833E+06         48.2961
            1126     14.6321E-03     4.19154E-03         11.1280        -3.18167        -4.00405        -3.18155         11.1279        -4.00405     47.3174E-03     63.5869E-03    -23.8840E-03    -39.7029E-03    -30.9385E-03     56.4103E-03    -25.4718E-03     49.0786E-03     72.8461E+06     44.7937E+06    -27.9186E+06    -26.4699E+06     71.3974E+06     44.7937E+06     7.65156E+06         41.8534
            1127     13.6595E-03     4.18168E-03         11.2955        -3.29247        -4.05940        -3.29229         11.2953        -4.05940    -74.9729E-03     49.4083E-03    -22.7550E-03    -26.6533E-03    -20.9132E-03     46.0558E-03    -25.1426E-03     28.1427E-03     64.9461E+06     5.86447E+06    -26.4070E+06    -23.0508E+06     64.6163E+06     2.83806E+06    -1.91291E+06         35.9168
            1128     12.6768E-03     4.19345E-03         11.4435        -3.39439        -4.11472        -3.39421         11.4433        -4.11472    -60.6102E-03     48.4624E-03    -22.9753E-03    -25.4871E-03    -19.0410E-03     44.3619E-03    -25.3210E-03     31.9052E-03     44.0871E+06    -21.3877E+06    -32.4029E+06    -24.0313E+06     43.6349E+06    -29.3071E+06    -3.73496E+06         31.3561
            1129     11.6947E-03     4.19059E-03         11.5857        -3.48746        -4.17086        -3.48733         11.5856        -4.17086    -47.8697E-03     47.4469E-03    -21.5699E-03    -25.8770E-03    -18.6675E-03     44.5445E-03    -25.8770E-03     27.3682E-03     12.1892E+06    -24.9765E+06    -40.7755E+06    -25.7213E+06    -898.066E+03    -26.9434E+06    -9.99912E+06         28.3542
            1130     10.7142E-03     4.21521E-03         11.7334        -3.57891        -4.22847        -3.57879         11.7333        -4.22847    -76.3977E-03     48.9001E-03    -22.3192E-03    -26.5809E-03    -19.3175E-03     45.8985E-03    -26.5809E-03     28.2749E-03    -6.86948E+06    -19.3407E+06    -68.0264E+06    -23.8107E+06    -56.0095E+06    -14.4164E+06    -21.2143E+06         26.6104
            1131     9.73302E-03     4.22165E-03         11.8985        -3.68642        -4.28743        -3.68531         11.8974        -4.28743    -204.524E-03     51.5182E-03    -24.2277E-03    -27.2906E-03    -21.5034E-03     48.7282E-03    -27.2248E-03     28.4034E-03    -4.70494E+06    -14.9286E+06    -110.044E+06    -23.1399E+06    -100.311E+06    -6.22675E+06    -28.9162E+06         25.6892
            1132     8.75723E-03     4.24304E-03         12.0703        -3.80315        -4.34681        -3.80205         12.0692        -4.34681    -183.328E-03     53.4616E-03    -25.6309E-03    -27.8307E-03    -23.2701E-03     51.0159E-03    -27.7458E-03     27.3537E-03    -1.44751E+06    -14.2514E+06    -145.623E+06    -23.1649E+06    -136.573E+06    -1.58406E+06    -33.0512E+06         25.2334
            1133     7.78055E-03     4.25717E-03         12.2747        -3.96113        -4.40384        -3.95477         12.2683        -4.40384    -454.287E-03     55.6957E-03    -26.9606E-03    -28.7351E-03    -25.2978E-03     53.4352E-03    -28.1374E-03     26.9738E-03     2.19761E+06    -14.5460E+06    -179.194E+06    -21.8288E+06    -171.911E+06     2.19761E+06    -33.5521E+06         25.0147
            1134     6.80777E-03     4.27628E-03         12.4645        -4.11503        -4.45514        -4.10742         12.4569        -4.45514    -253.071E-03     57.2100E-03    -27.6960E-03    -29.5140E-03    -26.9864E-03     55.3503E-03    -28.3639E-03     24.9923E-03     7.43774E+06    -14.7862E+06    -207.018E+06    -20.3134E+06    -201.490E+06     7.43774E+06    -31.8671E+06         24.9090
            1135     5.83563E-03     4.29365E-03         12.6526        -4.27656        -4.49793        -4.26001         12.6360        -4.49793    -520.391E-03     57.9787E-03    -28.2492E-03    -29.7294E-03    -28.1058E-03     56.4644E-03    -28.3586E-03     22.7599E-03     3.87287E+06    -16.2510E+06    -220.942E+06    -19.9949E+06    -217.198E+06     3.87287E+06    -27.1271E+06         24.8546
            1136     4.86394E-03     4.31119E-03         12.8004        -4.40143        -4.53283        -4.36168         12.7606        -4.53283     192.897E-03     57.9869E-03    -28.1679E-03    -29.8190E-03    -28.6974E-03     56.8653E-03    -28.1679E-03     19.6477E-03    -3.46342E+06    -18.3996E+06    -224.893E+06    -20.4132E+06    -222.880E+06    -3.46342E+06    -19.8507E+06         24.8214
            1137     3.89307E-03     4.32778E-03         12.9616        -4.49545        -4.61116        -4.44921         12.8661        -4.56196    -665.207E-03     57.3026E-03    -27.8541E-03    -29.4485E-03    -28.6809E-03     56.5350E-03    -27.8541E-03     16.1422E-03    -13.1373E+06    -21.7098E+06    -230.878E+06    -22.7086E+06    -229.879E+06    -13.1373E+06    -14.2015E+06         24.7953
            1138     2.92067E-03     4.34117E-03         13.2080        -4.58708        -4.77205        -4.50920         12.9451        -4.58708         1.03086     56.2158E-03    -27.4789E-03    -28.7370E-03    -28.2798E-03     55.7587E-03    -27.4789E-03     12.2836E-03    -23.2094E+06    -26.6002E+06    -238.171E+06    -27.1984E+06    -237.573E+06    -23.2094E+06    -10.9929E+06         24.7716
            1139     1.94837E-03     4.35327E-03         13.7698        -4.61205        -5.32076        -4.55736         13.0064        -4.61205        -2.02776     54.9397E-03    -27.1342E-03    -27.8055E-03    -27.5873E-03     54.7214E-03    -27.1342E-03     8.26192E-03    -27.4190E+06    -30.0848E+06    -241.235E+06    -30.4125E+06    -240.907E+06    -27.4190E+06    -8.09669E+06         24.7508
            1140     973.666E-06     4.35923E-03         16.3408        -4.74553        -7.76078        -4.50343         13.0834        -4.74553         6.43404     53.9652E-03    -26.8159E-03    -27.1493E-03    -27.0303E-03     53.8934E-03    -26.8630E-03     4.51389E-03    -29.5147E+06    -32.8894E+06    -243.287E+06    -32.1436E+06    -243.164E+06    -30.3836E+06    -3.80252E+06         24.7358
            1141     16.5026E-03     3.31119E-03         10.7519        -2.89739        -3.91627        -2.89427         10.7487        -3.91627     361.290E-03     198.490E-03    -30.2605E-03    -168.230E-03    -90.5906E-03     120.851E-03    -30.2605E-03     292.691E-03     139.957E+06     120.464E+06    -12.8148E+06    -10.3571E+06     118.007E+06     139.957E+06     12.5872E+06         51.3902
            1142     15.5671E-03     3.17430E-03         11.0173        -3.04008        -3.97796        -3.03971         11.0169        -3.97796     104.441E-03     101.292E-03    -27.5950E-03    -73.6974E-03    -54.3266E-03     82.3933E-03    -28.0668E-03     103.266E-03     97.9888E+06     88.6964E+06    -20.4483E+06    -18.6168E+06     91.7108E+06     93.1428E+06     7.56927E+06         46.1711
            1143     14.6132E-03     3.12367E-03         11.1769        -3.13327        -4.03788        -3.13316         11.1768        -4.03788    -32.4626E-03     55.7804E-03    -22.2626E-03    -33.5177E-03    -22.9294E-03     50.0896E-03    -27.1602E-03     38.2293E-03     80.3524E+06     48.3306E+06    -14.9253E+06    -14.1636E+06     79.5907E+06     48.3306E+06     492.008E+03         40.3113
            1144     13.6234E-03     3.15746E-03         11.3293        -3.23855        -4.09940        -3.23823         11.3289        -4.09940    -128.552E-03     48.5694E-03    -21.1615E-03    -27.4079E-03    -15.6614E-03     43.0693E-03    -27.4079E-03     35.3282E-03     64.1093E+06     1.87774E+06    -24.4213E+06    -20.8163E+06     63.5307E+06    -1.14867E+06     2.48657E+06         34.8961
            1145     12.6360E-03     3.13122E-03         11.4815        -3.34371        -4.16229        -3.34346         11.4812        -4.16229    -96.2802E-03     48.8121E-03    -20.7518E-03    -28.0603E-03    -16.2493E-03     44.3096E-03    -28.0603E-03     33.2936E-03     48.4136E+06    -20.5054E+06    -42.4887E+06    -26.3319E+06     47.6235E+06    -35.8721E+06    -930.514E+03         30.7713
            1146     11.6566E-03     3.15855E-03         11.6332        -3.44323        -4.22693        -3.44309         11.6330        -4.22693    -76.3848E-03     48.2221E-03    -19.2248E-03    -28.9973E-03    -16.0065E-03     45.0037E-03    -28.9973E-03     28.6636E-03     17.6987E+06    -29.1524E+06    -53.0792E+06    -24.4819E+06     7.77099E+06    -47.8221E+06    -11.5535E+06         28.1012
            1147     10.6684E-03     3.15849E-03         11.8014        -3.55259        -4.29359        -3.55244         11.8013        -4.29359    -72.6528E-03     52.0755E-03    -21.9341E-03    -30.1414E-03    -18.6089E-03     48.7503E-03    -30.1414E-03     30.3802E-03    -8.84413E+06    -33.8158E+06    -70.5652E+06    -23.4508E+06    -49.6291E+06    -40.1452E+06    -22.2944E+06         26.5917
            1148     9.69347E-03     3.17509E-03         11.9978        -3.68538        -4.36119        -3.68452         11.9969        -4.36119    -171.378E-03     54.8855E-03    -23.6424E-03    -31.2431E-03    -20.9006E-03     52.1437E-03    -31.2431E-03     28.6975E-03    -11.4118E+06    -32.8701E+06    -109.465E+06    -22.2483E+06    -98.6283E+06    -32.8701E+06    -30.2408E+06         25.8370
            1149     8.71207E-03     3.18623E-03         12.1880        -3.81363        -4.42908        -3.81277         12.1871        -4.42908    -139.449E-03     58.1952E-03    -25.9170E-03    -32.2782E-03    -23.3838E-03     55.6621E-03    -32.2782E-03     28.6168E-03    -11.2064E+06    -29.2686E+06    -149.986E+06    -20.8440E+06    -140.620E+06    -28.9971E+06    -34.5479E+06         25.5089
            1150     7.73935E-03     3.20100E-03         12.4107        -3.97773        -4.49550        -3.97319         12.4062        -4.49550    -360.367E-03     61.5191E-03    -28.2990E-03    -33.2200E-03    -26.0855E-03     59.3055E-03    -33.2200E-03     27.6897E-03    -11.7319E+06    -28.1884E+06    -185.776E+06    -21.0350E+06    -177.948E+06    -26.7141E+06    -35.7042E+06         25.3988
            1151     6.76560E-03     3.21544E-03         12.6231        -4.13898        -4.55768        -4.13288         12.6170        -4.55768    -152.491E-03     64.4386E-03    -30.3633E-03    -34.0753E-03    -28.4864E-03     62.5617E-03    -34.0753E-03     26.2981E-03    -10.6496E+06    -24.6850E+06    -217.831E+06    -21.9170E+06    -211.907E+06    -19.3419E+06    -33.7227E+06         25.3928
            1152     5.79593E-03     3.23171E-03         12.8471        -4.32154        -4.61225        -4.30779         12.8334        -4.61225    -415.804E-03     67.1384E-03    -32.3518E-03    -34.7866E-03    -30.8448E-03     65.5937E-03    -34.7490E-03     24.4541E-03    -14.0886E+06    -22.7852E+06    -233.702E+06    -24.5535E+06    -229.907E+06    -16.1151E+06    -27.8611E+06         25.4333
            1153     4.82789E-03     3.24766E-03         13.0296        -4.47302        -4.65826        -4.43735         12.9939        -4.65826     258.201E-03     69.0782E-03    -33.6196E-03    -35.4586E-03    -32.7048E-03     67.9093E-03    -35.2045E-03     21.6477E-03    -20.0332E+06    -26.1167E+06    -237.693E+06    -27.8213E+06    -235.640E+06    -20.3808E+06    -20.3180E+06         25.4902
            1154     3.86113E-03     3.26341E-03         13.2392        -4.60128        -4.75357        -4.56960         13.1483        -4.69435    -654.012E-03     70.4013E-03    -34.4907E-03    -35.9106E-03    -34.0728E-03     69.5850E-03    -35.5122E-03     18.2975E-03    -23.1478E+06    -28.6562E+06    -240.538E+06    -29.1817E+06    -239.665E+06    -23.4953E+06    -13.1776E+06         25.5467
            1155     2.89566E-03     3.27790E-03         13.4807        -4.72569        -4.88159        -4.62199         13.2211        -4.72569         1.07566     71.1881E-03    -35.1357E-03    -36.0524E-03    -35.0074E-03     70.6864E-03    -35.6789E-03     14.3455E-03    -28.8730E+06    -31.2693E+06    -244.450E+06    -31.6128E+06    -244.107E+06    -28.8730E+06    -8.27468E+06         25.5938
            1156     1.93021E-03     3.28889E-03         14.1111        -4.74617        -5.49322        -4.72824         13.3461        -4.74617        -2.09701     71.5247E-03    -35.5120E-03    -36.0127E-03    -35.5575E-03     71.2848E-03    -35.7273E-03     9.85106E-03    -33.5459E+06    -35.2671E+06    -248.173E+06    -35.4561E+06    -247.984E+06    -33.5459E+06    -5.80860E+06         25.6277
            1157     966.149E-06     3.29762E-03         16.6661        -4.66365        -8.12868        -4.83619         13.3736        -4.66365         6.55101     71.4556E-03    -35.6213E-03    -35.8343E-03    -35.6721E-03     71.3719E-03    -35.6998E-03     5.64046E-03    -37.7241E+06    -40.1024E+06    -251.543E+06    -40.0016E+06    -251.459E+06    -37.9081E+06    -2.49261E+06         25.6480
            1158     16.4867E-03     2.18904E-03         10.9517        -2.91785        -3.93079        -2.91388         10.9477        -3.93079     361.146E-03     183.794E-03    -31.0853E-03    -152.709E-03    -99.2699E-03     130.355E-03    -31.0853E-03     232.247E-03     139.274E+06     122.921E+06    -6.96047E+06    -5.55356E+06     121.514E+06     139.274E+06     3.01225E+06         49.1328
            1159     15.5707E-03     2.06838E-03         11.0821        -2.98968        -3.99121        -2.98959         11.0820        -3.99121     11.4841E-03     71.9936E-03    -22.8670E-03    -49.1266E-03    -36.7402E-03     65.8306E-03    -29.0903E-03     47.6234E-03     101.743E+06     88.4053E+06    -783.093E+03     620.738E+03     96.2155E+06     92.5294E+06     242.993E+03         44.4745
            1160     14.5744E-03     2.12005E-03         11.1823        -3.06263        -4.05598        -3.06246         11.1821        -4.05598    -86.5823E-03     47.9935E-03    -18.9573E-03    -29.0363E-03    -14.6355E-03     43.6718E-03    -29.0363E-03     30.1412E-03      73.652E+06     38.5405E+06    -12.0807E+06    -10.1925E+06     71.7639E+06     38.5405E+06     6.85440E+06         39.1387
            1161     13.5823E-03     2.08298E-03         11.3244        -3.16589        -4.12432        -3.16550         11.3240        -4.12432    -150.185E-03     49.8936E-03    -20.0924E-03    -29.8012E-03    -15.6134E-03     45.4146E-03    -29.8012E-03     32.5382E-03     69.5807E+06     8.63616E+06    -17.9485E+06    -16.8651E+06     68.4972E+06     8.63616E+06     6.69851E+06         34.2092
            1162     12.6109E-03     2.10258E-03         11.4842        -3.27838        -4.19480        -3.27811         11.4840        -4.19480    -105.783E-03     48.1159E-03    -17.4309E-03    -30.6850E-03    -14.9113E-03     45.5963E-03    -30.6850E-03     24.7017E-03     55.3719E+06    -8.86584E+06    -35.5462E+06    -15.3833E+06     54.4758E+06    -28.1326E+06    -1.16703E+06         30.4945
            1163     11.6130E-03     2.10249E-03         11.6581        -3.39754        -4.26728        -3.39743         11.6580        -4.26728    -70.6059E-03     50.0584E-03    -18.2663E-03    -31.7921E-03    -15.9349E-03     47.7269E-03    -31.7921E-03     24.2920E-03     21.2671E+06    -21.4521E+06    -65.3238E+06    -16.1300E+06     15.9450E+06    -65.3238E+06    -8.60810E+06         28.1211
            1164     10.6399E-03     2.11038E-03         11.8424        -3.52142        -4.34174        -3.52133         11.8424        -4.34174    -46.6802E-03     53.6492E-03    -20.4872E-03    -33.1620E-03    -18.4016E-03     51.5636E-03    -33.1620E-03     23.8629E-03    -2.49655E+06    -45.5756E+06    -84.0408E+06    -16.5678E+06    -41.0498E+06    -74.4952E+06    -19.6851E+06         26.8137
            1165     9.65212E-03     2.11867E-03         12.0518        -3.66564        -4.41742        -3.66520         12.0513        -4.41742    -108.027E-03     57.1703E-03    -22.5238E-03    -34.6465E-03    -20.7635E-03     55.4100E-03    -34.6465E-03     22.9377E-03    -7.10112E+06    -65.1219E+06    -111.774E+06    -16.3789E+06    -98.1819E+06    -69.4367E+06    -28.2493E+06         26.1991
            1166     8.67855E-03     2.12736E-03         12.2705        -3.81563        -4.49329        -3.81514         12.2700        -4.49329    -74.8446E-03     61.4336E-03    -25.2969E-03    -36.1368E-03    -23.6899E-03     59.8267E-03    -36.1368E-03     22.7544E-03    -10.1452E+06    -63.9700E+06    -151.736E+06    -17.3440E+06    -144.537E+06    -63.9700E+06    -30.5449E+06         25.9772
            1167     7.70101E-03     2.13728E-03         12.5083        -3.98314        -4.56803        -3.98074         12.5059        -4.56803    -235.998E-03     65.4373E-03    -27.8278E-03    -37.6095E-03    -26.4387E-03     64.0482E-03    -37.6095E-03     22.1498E-03    -14.5535E+06     -60.277E+06    -190.355E+06    -20.1630E+06    -184.746E+06     -60.277E+06    -30.1540E+06         25.9580
            1168     6.72988E-03     2.14860E-03         12.7482        -4.15669        -4.63958        -4.15314         12.7446        -4.63958    -74.0842E-03     69.8612E-03    -30.7762E-03    -39.0850E-03    -29.5623E-03     68.6474E-03    -39.0850E-03     21.4323E-03    -20.3988E+06    -51.1518E+06    -225.980E+06    -24.4647E+06    -221.914E+06    -51.1518E+06    -27.9799E+06         26.0374
            1169     5.76006E-03     2.15988E-03         13.0139        -4.36834        -4.70270        -4.35967         13.0052        -4.70270    -307.981E-03     74.1431E-03    -33.6775E-03    -40.4656E-03    -32.6889E-03     73.1545E-03    -40.4656E-03     20.0524E-03    -25.1944E+06    -42.6363E+06    -245.631E+06    -28.1356E+06    -242.974E+06    -42.3522E+06    -23.5996E+06         26.1615
            1170     4.79435E-03     2.17260E-03         13.2044        -4.52217        -4.75651        -4.49916         13.1814        -4.75651     222.979E-03     78.2227E-03    -36.5390E-03    -41.6838E-03    -35.7708E-03     77.4545E-03    -41.6838E-03     18.2205E-03    -29.6018E+06    -39.7883E+06    -248.923E+06    -31.3605E+06    -247.448E+06    -39.5042E+06    -17.4465E+06         26.3002
            1171     3.83132E-03     2.18554E-03         13.4424        -4.67346        -4.86157        -4.67700         13.3808        -4.79648    -556.559E-03     81.9542E-03    -39.2109E-03    -42.7433E-03    -38.6671E-03     81.4104E-03    -42.7433E-03     15.7279E-03    -33.1331E+06    -38.7216E+06    -250.668E+06    -34.8121E+06    -250.011E+06    -37.6997E+06    -11.2810E+06         26.4342
            1172     2.87087E-03     2.19697E-03         13.6280        -4.81442        -4.92613        -4.73253         13.4462        -4.82625     908.882E-03     85.0446E-03    -41.4284E-03    -43.6163E-03    -41.0895E-03     84.7058E-03    -43.6163E-03     12.6243E-03    -35.5204E+06    -38.3797E+06    -251.613E+06    -36.9477E+06    -251.421E+06    -37.1443E+06    -5.76229E+06         26.5500
            1173     1.91279E-03     2.20729E-03         14.1493        -4.81880        -5.43215        -4.87302         13.6020        -4.83063        -1.79767     87.5019E-03    -43.2196E-03    -44.2822E-03    -43.0480E-03     87.3302E-03    -44.2822E-03     9.00253E-03    -38.0644E+06    -40.1658E+06    -253.620E+06    -40.0166E+06    -253.584E+06    -38.2503E+06    -2.30158E+06         26.6387
            1174     955.145E-06     2.21377E-03         15.9881        -4.45303        -7.64115        -5.18652         13.5335        -4.45303         5.53999     89.1206E-03    -44.3645E-03    -44.7561E-03    -44.4411E-03     89.0615E-03    -44.6204E-03     5.05606E-03    -41.2243E+06    -43.6605E+06    -255.621E+06    -42.9377E+06    -255.610E+06    -41.9585E+06    -468.021E+03         26.6952
            1175     16.5442E-03     1.03821E-03         11.1566        -2.95109        -3.93360        -2.94865         11.1541        -3.93360     246.866E-03     160.504E-03    -31.9908E-03    -128.513E-03    -101.375E-03     133.366E-03    -31.9908E-03     162.531E-03     128.315E+06     118.499E+06      843.14E+03     1.85980E+06     117.482E+06     128.315E+06    -1.22214E+06         47.8673
            1176     15.5378E-03     1.07731E-03         11.1092        -2.93920        -3.99408        -2.93917         11.1092        -3.99408    -24.6451E-03     57.3262E-03    -24.0615E-03    -33.2647E-03    -23.3396E-03     53.5613E-03    -30.2216E-03     31.9650E-03     90.4019E+06     79.3025E+06    -6.00442E+06    -3.31483E+06     86.8935E+06     80.1212E+06     10.3131E+06         43.7123
            1177     14.5396E-03     1.04431E-03         11.1669        -2.99862        -4.06321        -2.99851         11.1668        -4.06321    -72.4820E-03     49.6445E-03    -18.9939E-03    -30.6507E-03    -16.3976E-03     47.0483E-03    -30.6507E-03     23.5299E-03     76.5849E+06     43.2637E+06    -13.4830E+06    -10.9703E+06     74.0722E+06     43.2637E+06     10.1058E+06         38.7550
            1178     13.5757E-03     1.04897E-03         11.3003        -3.09974        -4.13684        -3.09952         11.3001        -4.13684    -103.323E-03     48.2787E-03    -16.7835E-03    -31.4951E-03    -15.3298E-03     46.8249E-03    -31.4951E-03     16.9795E-03     77.4212E+06     17.5624E+06    -9.88009E+06    -8.91732E+06     76.4584E+06     17.5624E+06     2.08835E+06         34.1934
            1179     12.5692E-03     1.04902E-03         11.4738        -3.22488        -4.21316        -3.22474         11.4737        -4.21316    -75.7698E-03     48.0665E-03    -15.5487E-03    -32.5178E-03    -14.5911E-03     47.1089E-03    -32.5178E-03     13.6876E-03     57.9036E+06    -6.02854E+06    -30.4122E+06    -8.80684E+06     57.5630E+06    -27.2934E+06     460.236E+03         30.7705
            1180     11.6017E-03     1.05302E-03         11.6606        -3.35547        -4.29151        -3.35543         11.6605        -4.29151    -43.4040E-03     51.4421E-03    -17.7278E-03    -33.7143E-03    -16.7846E-03     50.4989E-03    -33.7143E-03     14.0532E-03     26.3536E+06    -10.4447E+06    -74.8512E+06    -7.98034E+06     23.8892E+06    -74.8512E+06    -3.87396E+06         28.6037
            1181     10.6072E-03     1.05671E-03         11.8558        -3.48893        -4.37197        -3.48891         11.8557        -4.37197    -21.4713E-03     54.3550E-03    -19.1918E-03    -35.1632E-03    -18.4543E-03     53.6175E-03    -35.1632E-03     13.2028E-03     1.80152E+06    -43.1872E+06    -101.622E+06    -7.69476E+06    -33.6910E+06    -101.622E+06    -11.7432E+06         27.4348
            1182     9.63370E-03     1.05961E-03         12.0741        -3.64080        -4.45405        -3.64072         12.0740        -4.45405    -37.8441E-03     58.5271E-03    -21.6617E-03    -36.8654E-03    -21.0093E-03     57.8747E-03    -36.8654E-03     12.7020E-03    -6.83996E+06    -88.2244E+06    -117.355E+06    -10.8691E+06    -98.0330E+06    -103.517E+06    -17.2100E+06         26.9148
            1183     8.65153E-03     1.06466E-03         12.3116        -3.80500        -4.53654        -3.80489         12.3115        -4.53654    -18.6913E-03     62.8660E-03    -24.2074E-03    -38.6585E-03    -23.6737E-03     62.3322E-03    -38.6585E-03     12.2772E-03    -13.0534E+06    -99.5692E+06    -151.715E+06    -16.1612E+06    -148.608E+06    -99.5692E+06    -18.5387E+06         26.7645
            1184     7.67790E-03     1.07012E-03         12.5858        -3.99961        -4.61683        -3.99885         12.5850        -4.61683    -119.055E-03     67.7113E-03    -27.1894E-03    -40.5219E-03    -26.6948E-03     67.2166E-03    -40.5219E-03     12.1330E-03    -19.3159E+06    -93.1724E+06    -193.020E+06    -21.4818E+06    -190.854E+06    -93.1724E+06    -17.6716E+06         26.8074
            1185     6.70447E-03     1.07522E-03         12.8534        -4.19185        -4.69207        -4.19067         12.8522        -4.69207    -26.1460E-03     72.9484E-03    -30.5015E-03    -42.4469E-03    -30.0835E-03     72.5303E-03    -42.4469E-03     11.7818E-03    -25.5259E+06    -82.0798E+06    -230.136E+06    -27.0885E+06    -228.573E+06    -82.0798E+06    -16.1605E+06         26.9462
            1186     5.73652E-03     1.08196E-03         13.1279        -4.40600        -4.75808        -4.40260         13.1245        -4.75808    -179.233E-03     78.4116E-03    -34.0320E-03    -44.3796E-03    -33.6857E-03     78.0653E-03    -44.3796E-03     11.1600E-03    -31.0027E+06    -67.6575E+06    -253.183E+06    -32.1316E+06    -252.054E+06    -67.6575E+06    -14.3281E+06         27.1300
            1187     4.77069E-03     1.08874E-03         13.3158        -4.55708        -4.81463        -4.54848         13.3072        -4.81463     110.422E-03     84.0887E-03    -37.8588E-03    -46.2300E-03    -37.5868E-03     83.8168E-03    -46.2300E-03     10.3158E-03    -35.4968E+06    -56.3617E+06    -258.019E+06    -36.1131E+06    -257.403E+06    -56.3617E+06    -10.2614E+06         27.3285
            1188     3.80996E-03     1.09555E-03         13.5456        -4.71996        -4.90231        -4.74346         13.5221        -4.85531    -337.844E-03     89.7450E-03    -41.8136E-03    -47.9314E-03    -41.6176E-03     89.5490E-03    -47.9314E-03     9.01512E-03    -39.4062E+06    -49.0748E+06    -257.578E+06    -39.6261E+06    -257.358E+06    -49.0748E+06    -5.64174E+06         27.5204
            1189     2.85302E-03     1.10299E-03         13.6412        -4.81706        -4.93136        -4.79328         13.5705        -4.88436     518.788E-03     94.9154E-03    -45.5060E-03    -49.4094E-03    -45.3836E-03     94.7930E-03    -49.4094E-03     7.31557E-03    -42.0268E+06    -44.5699E+06    -257.375E+06    -42.1201E+06    -257.314E+06    -44.5381E+06    -2.87015E+06         27.6887
            1190     1.89908E-03     1.10843E-03         13.9764        -4.80847        -5.25432        -4.97032         13.7597        -4.87577        -1.04733     99.2096E-03    -48.6326E-03    -50.5770E-03    -48.5701E-03     99.1471E-03    -50.5770E-03     5.24114E-03    -41.8819E+06    -44.2336E+06    -257.004E+06    -44.0559E+06    -256.996E+06    -42.0678E+06    -1.05983E+06         27.8199
            1191     949.543E-06     1.11221E-03         14.6474        -4.23241        -6.50800        -5.47165         13.6110        -4.23241         3.23854     102.147E-03    -50.7152E-03    -51.4322E-03    -50.8767E-03     102.128E-03    -51.2509E-03     2.70883E-03    -42.9033E+06    -45.9670E+06    -257.522E+06    -45.4321E+06    -257.507E+06    -43.4535E+06    -434.716E+03         27.9051
            1192     971.286E-06     59.1283E-03         16.6020    -211.844E-03        -14.6691    -244.710E-03         2.17762    -211.844E-03        -10.7021     58.4634E-03    -29.1030E-03    -29.3604E-03    -29.2286E-03     58.4583E-03    -29.2297E-03     1.24343E-03    -34.8981E+06    -39.2228E+06    -242.339E+06    -37.5569E+06    -242.334E+06    -36.5691E+06     242.332E+03         24.5495
            1193     1.94305E-03     59.1294E-03         8.45236    -234.357E-03        -6.49184    -257.251E-03         2.21777    -234.357E-03         5.77197     58.5337E-03    -29.1950E-03    -29.3387E-03    -29.2580E-03     58.5209E-03    -29.2629E-03     2.06471E-03    -31.7385E+06    -36.0265E+06    -241.029E+06    -36.0289E+06    -241.026E+06    -31.7385E+06     499.551E+03         24.5895
            1194     2.91464E-03     59.1325E-03         5.10296    -254.743E-03        -3.11528    -339.632E-03         2.32731    -254.743E-03        -1.16642     58.5729E-03    -29.2315E-03    -29.3414E-03    -29.2702E-03     58.5487E-03    -29.2786E-03     2.86203E-03    -28.8696E+06    -34.4001E+06    -234.377E+06    -34.4029E+06    -234.374E+06    -28.8696E+06     137.999E+03         24.6580
            1195     3.88532E-03     59.1351E-03         3.92370    -290.031E-03        -1.89633    -453.378E-03         2.48075    -290.031E-03         1.67409     58.4616E-03    -29.1478E-03    -29.3138E-03    -29.1373E-03     58.4212E-03    -29.2840E-03     3.73177E-03    -23.6639E+06    -32.0859E+06    -225.358E+06    -32.0897E+06    -225.354E+06    -23.6639E+06     51.3414E+03         24.7594
            1196     4.85771E-03     59.1405E-03         3.21690    -336.371E-03        -1.13538    -586.076E-03         2.66759    -336.371E-03    -381.320E-03     58.3586E-03    -29.1039E-03    -29.2547E-03    -29.0429E-03     58.2976E-03    -29.2547E-03     4.59426E-03    -19.7934E+06    -29.3712E+06    -211.314E+06    -29.3752E+06    -211.310E+06    -19.7934E+06     540.104E+03         24.8986
            1197     5.82874E-03     59.1449E-03         3.24548    -388.971E-03        -1.10515    -706.377E-03         2.84671    -388.971E-03    -25.5265E-03     58.2577E-03    -29.0494E-03    -29.2083E-03    -28.9626E-03     58.1709E-03    -29.2083E-03     5.48270E-03    -17.4829E+06    -27.4009E+06    -192.789E+06    -27.4022E+06    -192.787E+06    -17.4829E+06     449.964E+03         25.0812
            1198     6.80092E-03     59.1519E-03         3.23794    -443.975E-03        -1.03554    -824.177E-03         3.02658    -443.975E-03        -1.60898     58.1436E-03    -28.9647E-03    -29.1789E-03    -28.8551E-03     58.0339E-03    -29.1789E-03     6.17239E-03    -11.9856E+06    -25.5128E+06    -175.155E+06    -25.5187E+06    -175.149E+06    -11.9856E+06     800.139E+03         25.3168
            1199     7.77260E-03     59.1577E-03         3.30840    -501.707E-03        -1.03731    -965.001E-03         3.23609    -501.707E-03        -1.06223     58.0833E-03    -28.9470E-03    -29.1363E-03    -28.8116E-03     57.9479E-03    -29.1363E-03     6.84353E-03    -8.40485E+06    -23.8639E+06    -153.899E+06    -23.8965E+06    -153.866E+06    -8.40485E+06     1.85451E+06         25.6242
            1200     8.74417E-03     59.1666E-03         3.52423    -562.932E-03        -1.17727        -1.11011         3.45707    -562.932E-03    -409.786E-03     57.9571E-03    -28.8744E-03    -29.0827E-03    -28.7033E-03     57.7860E-03    -29.0827E-03     7.68980E-03    -6.43570E+06    -21.9419E+06    -129.362E+06    -21.9792E+06    -129.325E+06    -6.43570E+06     1.89066E+06         26.0445
            1201     9.71647E-03     59.1740E-03         3.65756    -625.246E-03        -1.23021        -1.21848         3.64583    -625.246E-03     437.184E-03     57.8110E-03    -28.7947E-03    -29.0163E-03    -28.5448E-03     57.5502E-03    -29.0054E-03     9.39934E-03    -7.11910E+06    -20.4543E+06    -99.4332E+06    -20.4826E+06    -99.4050E+06    -7.11910E+06     1.35641E+06         26.6771
            1202     10.6883E-03     59.1872E-03         3.83932    -685.559E-03        -1.33407        -1.30235         3.80759    -685.559E-03     691.726E-03     57.6018E-03    -28.7003E-03    -28.9015E-03    -28.4055E-03     57.2961E-03    -28.8906E-03     10.2448E-03    -13.4152E+06    -19.8927E+06    -63.0553E+06    -19.9357E+06    -63.0124E+06    -13.4152E+06     1.19795E+06         27.7539
            1203     11.6606E-03     59.1959E-03         3.98008    -742.604E-03        -1.39938        -1.36294         3.94363    -742.604E-03     822.707E-03     57.5372E-03    -28.6124E-03    -28.9248E-03    -28.2362E-03     56.9641E-03    -28.7279E-03     13.5173E-03     1.07931E+06    -20.0415E+06    -38.9886E+06    -20.0600E+06     -11.825E+06    -26.0658E+06     812.414E+03         29.7645
            1204     12.6327E-03     59.2166E-03         4.06607    -796.956E-03        -1.41067        -1.40392         4.05933    -796.956E-03     207.731E-03     58.9081E-03    -28.5943E-03    -30.3138E-03    -28.2112E-03     56.8055E-03    -28.5943E-03     25.8051E-03     47.9555E+06    -21.4913E+06    -34.6261E+06    -21.4813E+06     47.9454E+06    -34.6261E+06     369.091E+03         33.5730
            1205     13.6049E-03     59.2501E-03         4.16353    -849.415E-03        -1.43137        -1.42871         4.16087    -849.415E-03    -217.994E-03     61.0167E-03    -28.6337E-03    -32.3830E-03    -27.9067E-03     56.5404E-03    -28.6337E-03     39.5814E-03     78.2495E+06    -16.6510E+06    -28.0417E+06    -21.9148E+06     78.2201E+06    -22.7484E+06    -659.779E+03         40.3103
            1206     14.5789E-03     59.3017E-03         4.25353    -903.171E-03        -1.43728        -1.43426         4.25052    -903.171E-03    -248.797E-03     75.3069E-03    -28.8867E-03    -46.4202E-03    -29.2696E-03     58.1563E-03    -28.8867E-03     81.0053E-03     88.2511E+06     18.3129E+06    -19.8619E+06    -19.8289E+06     88.2180E+06     18.3129E+06    -422.844E+03         50.6718
            1207     15.5501E-03     59.4233E-03         4.37479    -980.558E-03        -1.44594        -1.43470         4.36355    -980.558E-03    -438.530E-03     168.175E-03    -29.2755E-03    -138.900E-03    -46.3255E-03     75.6010E-03    -29.2755E-03     278.543E-03     111.463E+06     77.7013E+06    -16.5086E+06    -16.4787E+06     111.433E+06     77.7013E+06     1.37411E+06         63.5981
            1208     16.5185E-03     59.9159E-03         4.53930        -1.10040        -1.44913        -1.43400         4.52417        -1.10040    -587.470E-03     270.721E-03    -29.6137E-03    -241.107E-03    -66.2691E-03     95.8828E-03    -29.6137E-03     485.382E-03     148.130E+06     134.948E+06    -9.82388E+06    -9.77053E+06     144.279E+06     138.746E+06    -83.4276E+03         75.4058
            1209     971.297E-06     60.1861E-03         16.7165    -244.755E-03        -14.7286    -615.631E-03         2.60355    -244.755E-03        -10.7192     58.6382E-03    -29.1539E-03    -29.4843E-03    -29.3992E-03     58.6339E-03    -29.2347E-03     1.09710E-03    -34.8956E+06    -37.5386E+06    -242.293E+06    -37.5524E+06    -242.280E+06    -34.8956E+06     389.869E+03         24.5476
            1210     1.94288E-03     60.1892E-03         8.68020    -448.696E-03        -6.47702    -521.383E-03         2.72456    -448.696E-03         5.81049     58.4488E-03    -29.1454E-03    -29.3034E-03    -29.1347E-03     58.4368E-03    -29.3020E-03     1.98323E-03    -32.3378E+06    -35.5893E+06    -241.403E+06    -35.5902E+06    -241.402E+06    -32.3378E+06    -75.6807E+03         24.5874
            1211     2.91419E-03     60.1910E-03         5.39490    -488.638E-03        -3.14457    -615.332E-03         2.86566    -488.638E-03        -1.15375     58.4606E-03    -29.1676E-03    -29.2930E-03    -29.1742E-03     58.4360E-03    -29.2618E-03     2.88175E-03    -28.6913E+06    -32.9096E+06    -233.878E+06    -32.9098E+06    -233.878E+06    -28.6913E+06    -135.231E+03         24.6559
            1212     3.88618E-03     60.1951E-03         4.30675    -534.430E-03        -2.00373    -724.767E-03         3.02779    -534.430E-03         1.68005     58.5230E-03    -29.1997E-03    -29.3233E-03    -29.2168E-03     58.4812E-03    -29.2644E-03     3.80666E-03    -23.9409E+06    -31.4772E+06    -225.695E+06    -31.4776E+06    -225.695E+06    -23.9409E+06    -242.536E+03         24.7577
            1213     4.85706E-03     60.1985E-03         3.66947    -585.325E-03        -1.31181    -845.089E-03         3.20275    -585.325E-03    -386.765E-03     58.3934E-03    -29.1057E-03    -29.2877E-03    -29.0732E-03     58.3317E-03    -29.2586E-03     4.62761E-03    -18.8886E+06    -29.6656E+06    -212.177E+06    -29.6666E+06    -212.176E+06    -18.8886E+06     127.626E+03         24.8971
            1214     5.82934E-03     60.2048E-03         3.73297    -641.343E-03        -1.31804    -985.488E-03         3.40042    -641.343E-03    -18.0573E-03     58.2362E-03    -29.0158E-03    -29.2204E-03    -28.9321E-03     58.1524E-03    -29.2204E-03     5.38879E-03    -15.0989E+06    -27.7623E+06    -192.941E+06    -27.7714E+06    -192.932E+06    -15.0989E+06     896.462E+03         25.0798
            1215     6.80075E-03     60.2098E-03         3.78484    -702.187E-03        -1.30499        -1.13023         3.61009    -702.187E-03        -1.59746     58.2315E-03    -29.0454E-03    -29.1860E-03    -28.9381E-03     58.1242E-03    -29.1860E-03     6.10480E-03    -11.6881E+06    -26.6364E+06    -175.789E+06    -26.6517E+06    -175.774E+06    -11.6881E+06     1.36212E+06         25.3154
            1216     7.77238E-03     60.2178E-03         3.87216    -765.430E-03        -1.31811        -1.25911         3.81316    -765.430E-03        -1.04648     58.1489E-03    -28.9991E-03    -29.1498E-03    -28.8673E-03     58.0171E-03    -29.1498E-03     6.76224E-03    -8.53726E+06    -24.4953E+06    -154.746E+06    -24.5123E+06    -154.729E+06    -8.53726E+06     1.40212E+06         25.6221
            1217     8.74440E-03     60.2243E-03         4.06658    -828.861E-03        -1.43348        -1.37814         4.01124    -828.861E-03    -402.717E-03     58.0300E-03    -28.9293E-03    -29.1007E-03    -28.7552E-03     57.8559E-03    -29.1007E-03     7.73643E-03    -6.34894E+06    -22.2699E+06    -129.505E+06    -22.2962E+06    -129.479E+06    -6.34894E+06     1.58024E+06         26.0405
            1218     9.71566E-03     60.2343E-03         4.21478    -891.737E-03        -1.50002        -1.49026         4.20502    -891.737E-03     435.969E-03     57.9190E-03    -28.8901E-03    -29.0289E-03    -28.6292E-03     57.6581E-03    -29.0289E-03     9.44006E-03    -6.76983E+06    -20.5549E+06    -99.1562E+06    -20.5880E+06    -99.1232E+06    -6.76983E+06     1.57168E+06         26.6679
            1219     10.6881E-03     60.2443E-03         4.38431    -952.220E-03        -1.58920        -1.56336         4.35847    -952.220E-03     674.322E-03     57.6663E-03    -28.7495E-03    -28.9167E-03    -28.4432E-03     57.3599E-03    -28.9167E-03     10.2624E-03    -13.0807E+06    -19.2371E+06    -63.0143E+06    -19.2912E+06    -62.9602E+06    -13.0807E+06     1.37251E+06         27.7337
            1220     11.6598E-03     60.2566E-03         4.48735        -1.00761        -1.61941        -1.59033         4.45827        -1.00761     781.194E-03     57.5995E-03    -28.6632E-03    -28.9363E-03    -28.2883E-03     57.0431E-03    -28.7547E-03     13.4017E-03     930.967E+03    -19.6968E+06    -38.7538E+06    -19.7045E+06    -11.8608E+06    -25.9544E+06     1.39471E+06         29.7248
            1221     12.6329E-03     60.2728E-03         4.54383        -1.05813        -1.60500        -1.59976         4.53858        -1.05813     164.214E-03     58.9419E-03    -28.6252E-03    -30.3166E-03    -28.1893E-03     56.8145E-03    -28.6252E-03     25.8001E-03     48.8492E+06    -21.0172E+06    -33.2158E+06    -20.9850E+06     48.8170E+06    -33.2158E+06     848.861E+03         33.5083
            1222     13.6044E-03     60.3128E-03         4.62060        -1.10557        -1.60858        -1.60525         4.61727        -1.10557    -265.578E-03     61.4941E-03    -28.6926E-03    -32.8016E-03    -28.4124E-03     57.1049E-03    -28.6926E-03     39.5240E-03     80.0960E+06    -13.3418E+06    -27.6421E+06    -22.1258E+06     80.0633E+06    -18.8254E+06    -315.478E+03         40.2300
            1223     14.5769E-03     60.3557E-03         4.67794        -1.15363        -1.58812        -1.58424         4.67406        -1.15363    -301.828E-03     76.3829E-03    -28.9776E-03    -47.4053E-03    -30.1048E-03     59.0824E-03    -28.9776E-03     81.7287E-03     87.6433E+06     19.0203E+06    -22.5330E+06    -22.4964E+06     87.6068E+06     19.0203E+06     1.91833E+03         50.6163
            1224     15.5485E-03     60.4905E-03         4.74458        -1.22390        -1.55139        -1.53974         4.73292        -1.22390    -478.742E-03     167.257E-03    -29.2654E-03    -137.992E-03    -42.9286E-03     72.1940E-03    -29.2654E-03     278.866E-03     108.932E+06     73.9248E+06    -18.0578E+06    -18.0260E+06     108.900E+06     73.9248E+06     907.032E+03         63.6655
            1225     16.5316E-03     60.9683E-03         4.84325        -1.32501        -1.51324        -1.48878         4.82843        -1.33466    -596.765E-03     271.493E-03    -29.4928E-03    -242.000E-03    -66.0808E-03     95.5736E-03    -29.4928E-03     487.295E-03     148.628E+06     134.849E+06    -8.81117E+06    -8.74559E+06     144.909E+06     138.502E+06    -44.7882E+03         75.6215
            1226     971.393E-06     61.2471E-03         16.4579    -319.295E-03        -14.3740        -1.08974         3.17365    -319.295E-03        -10.4104     58.5895E-03    -29.1892E-03    -29.4003E-03    -29.3577E-03     58.5856E-03    -29.2278E-03     1.03869E-03    -36.3020E+06    -37.6990E+06    -242.400E+06    -37.6777E+06    -242.386E+06    -36.3373E+06     714.841E+03         24.5459
            1227     1.94256E-03     61.2470E-03         8.77513    -727.454E-03        -6.27425    -817.123E-03         3.31800    -727.454E-03         5.73151     58.5192E-03    -29.2078E-03    -29.3114E-03    -29.2062E-03     58.5069E-03    -29.3007E-03     2.00181E-03    -31.9031E+06    -35.5606E+06    -240.690E+06    -35.5631E+06    -240.688E+06    -31.9031E+06    -50.6932E+03         24.5859
            1228     2.91471E-03     61.2507E-03         5.66262    -772.735E-03        -3.10823    -905.176E-03         3.45956    -772.735E-03        -1.06292     58.3787E-03    -29.1098E-03    -29.2689E-03    -29.0852E-03     58.3541E-03    -29.2689E-03     2.88881E-03    -28.0111E+06    -33.6435E+06    -234.131E+06    -33.6477E+06    -234.127E+06    -28.0111E+06    -648.220E+03         24.6544
            1229     3.88583E-03     61.2534E-03         4.71344    -821.258E-03        -2.10505        -1.02454         3.63294    -821.258E-03         1.69823     58.4185E-03    -29.1405E-03    -29.2780E-03    -29.1278E-03     58.3767E-03    -29.2488E-03     3.79805E-03    -22.8967E+06    -31.1173E+06    -226.040E+06    -31.1212E+06    -226.036E+06    -22.8967E+06    -512.294E+03         24.7563
            1230     4.85765E-03     61.2586E-03         4.16516    -873.504E-03        -1.50255        -1.12924         3.79185    -873.504E-03    -329.502E-03     58.4557E-03    -29.1507E-03    -29.3049E-03    -29.1520E-03     58.3949E-03    -29.2430E-03     4.60116E-03    -18.3342E+06    -29.5696E+06    -213.160E+06    -29.5775E+06    -213.152E+06    -18.3342E+06     628.062E+03         24.8963
            1231     5.82883E-03     61.2626E-03         4.26312    -929.499E-03        -1.54673        -1.27636         3.99275    -929.499E-03     6.89012E-03     58.3842E-03    -29.1226E-03    -29.2616E-03    -29.0727E-03     58.3014E-03    -29.2288E-03     5.36191E-03    -14.2683E+06    -28.2710E+06    -193.942E+06    -28.2927E+06    -193.920E+06    -14.2683E+06     1.67821E+06         25.0795
            1232     6.80071E-03     61.2700E-03         4.34870    -991.447E-03        -1.56950        -1.42915         4.20834    -991.447E-03        -1.55566     58.2800E-03    -29.0745E-03    -29.2055E-03    -28.9683E-03     58.1738E-03    -29.2055E-03     6.07632E-03    -10.5820E+06    -26.1291E+06    -175.730E+06    -26.1491E+06    -175.710E+06    -10.5820E+06     1.69981E+06         25.3151
            1233     7.77232E-03     61.2758E-03         4.45394        -1.05571        -1.60056        -1.55198         4.40535        -1.05571        -1.02851     58.1399E-03    -28.9790E-03    -29.1610E-03    -28.8480E-03     58.0090E-03    -29.1610E-03     6.73434E-03    -8.90914E+06    -24.1227E+06    -155.001E+06    -24.1344E+06    -154.989E+06    -8.90914E+06     1.21367E+06         25.6214
            1234     8.74393E-03     61.2841E-03         4.62307        -1.11821        -1.69131        -1.64507         4.57684        -1.11821    -374.971E-03     58.0446E-03    -28.9357E-03    -29.1089E-03    -28.7581E-03     57.8671E-03    -29.1089E-03     7.81250E-03    -7.02085E+06    -22.4929E+06    -130.077E+06    -22.5107E+06    -130.059E+06    -7.02085E+06     1.31121E+06         26.0382
            1235     9.71633E-03     61.2925E-03         4.74965        -1.17767        -1.73861        -1.72949         4.74053        -1.17767     450.527E-03     58.0002E-03    -28.9599E-03    -29.0402E-03    -28.6982E-03     57.7383E-03    -29.0402E-03     9.47678E-03    -7.26784E+06    -20.9948E+06    -99.3734E+06    -21.0264E+06    -99.3418E+06    -7.26784E+06     1.52344E+06         26.6612
            1236     10.6875E-03     61.3042E-03         4.88919        -1.23310        -1.80401        -1.78172         4.86690        -1.23310     668.233E-03     57.7924E-03    -28.8557E-03    -28.9367E-03    -28.5523E-03     57.4890E-03    -28.9367E-03     10.2257E-03    -13.1272E+06    -19.7214E+06    -62.7671E+06    -19.7765E+06    -62.7120E+06    -13.1272E+06     1.41335E+06         27.7166
            1237     11.6603E-03     61.3142E-03         4.97591        -1.28293        -1.82287        -1.79782         4.95086        -1.28293     769.269E-03     57.8126E-03    -28.7053E-03    -29.1073E-03    -28.4557E-03     57.2410E-03    -28.7854E-03     13.5725E-03     926.396E+03    -19.3736E+06    -38.4265E+06    -19.3850E+06    -11.8550E+06    -25.6337E+06     1.15823E+06         29.6880
            1238     12.6310E-03     61.3337E-03         5.00875        -1.32753        -1.79072        -1.78603         5.00406        -1.32753     159.755E-03     58.9847E-03    -28.6635E-03    -30.3212E-03    -28.2599E-03     56.9234E-03    -28.6635E-03     25.5189E-03     49.2810E+06    -20.1002E+06    -32.4410E+06    -20.0618E+06     49.2425E+06    -32.4410E+06     985.986E+03         33.4449
            1239     13.6054E-03     61.3686E-03         5.03993        -1.36797        -1.75776        -1.75470         5.03686        -1.36797    -266.593E-03     61.9976E-03    -28.7321E-03    -33.2655E-03    -28.6447E-03     57.3769E-03    -28.7321E-03     40.5180E-03     80.4616E+06    -14.2337E+06    -27.4925E+06    -22.1965E+06     80.3992E+06    -19.4673E+06     1.90214E+06         40.1498
            1240     14.5747E-03     61.4217E-03         5.05658        -1.40760        -1.70537        -1.70152         5.05273        -1.40760    -316.974E-03     76.6212E-03    -29.0132E-03    -47.6080E-03    -29.9212E-03     58.9344E-03    -29.0132E-03     82.9107E-03     88.0764E+06     17.9072E+06    -22.8812E+06    -22.8324E+06     88.0276E+06     17.9072E+06     1.32885E+06         50.5676
            1241     15.5481E-03     61.5439E-03         5.08113        -1.46738        -1.63915        -1.62822         5.07020        -1.46738    -489.435E-03     163.841E-03    -29.3094E-03    -134.532E-03    -41.9306E-03     71.2400E-03    -29.3094E-03     272.519E-03     110.296E+06     75.6591E+06    -17.5906E+06    -17.5694E+06     110.274E+06     75.6591E+06    -1.25147E+06         63.7153
            1242     16.5274E-03     62.0143E-03         5.11637        -1.49756        -1.61713        -1.53447         5.10243        -1.56629    -596.978E-03     272.366E-03    -29.5418E-03    -242.825E-03    -66.6251E-03     96.1669E-03    -29.5418E-03     488.704E-03     148.337E+06     135.046E+06    -9.35140E+06    -9.30148E+06     144.231E+06     139.103E+06    -1.42961E+06         75.8067
            1243     971.568E-06     62.3045E-03         15.8613    -452.240E-03        -13.6270        -1.64046         3.87478    -452.240E-03        -9.71845     58.4923E-03    -29.1864E-03    -29.3059E-03    -29.2339E-03     58.4886E-03    -29.2547E-03     825.490E-06    -36.2502E+06    -37.8524E+06    -242.548E+06    -37.0969E+06    -242.538E+06     -37.016E+06    -744.024E+03         24.5445
            1244     1.94324E-03     62.3075E-03         8.78300        -1.06590        -5.92663        -1.14184         3.99821        -1.06590         5.57658     58.4840E-03    -29.2108E-03    -29.2731E-03    -29.2106E-03     58.4730E-03    -29.2625E-03     1.90973E-03    -31.9063E+06    -35.6293E+06    -240.319E+06    -35.6333E+06    -240.315E+06    -31.9063E+06     5.45606E+03         24.5847
            1245     2.91393E-03     62.3086E-03         5.91104        -1.10103        -3.02014        -1.19276         4.08366        -1.10103    -886.443E-03     58.4594E-03    -29.1922E-03    -29.2672E-03    -29.1724E-03     58.4345E-03    -29.2621E-03     2.88698E-03    -27.3122E+06    -33.9490E+06    -233.665E+06    -33.9539E+06    -233.660E+06    -27.3122E+06    -552.524E+03         24.6533
            1246     3.88619E-03     62.3131E-03         5.15295        -1.14130        -2.21494        -1.33194         4.26995        -1.14130         1.70791     58.3772E-03    -29.1181E-03    -29.2590E-03    -29.0825E-03     58.3364E-03    -29.2540E-03     3.75628E-03    -22.8308E+06    -32.2051E+06    -227.253E+06    -32.2117E+06    -227.246E+06    -22.8308E+06    -238.240E+03         24.7554
            1247     4.85762E-03     62.3168E-03         4.73077        -1.19313        -1.74258        -1.45895         4.44714        -1.19313    -233.576E-03     58.4323E-03    -29.1609E-03    -29.2714E-03    -29.1346E-03     58.3732E-03    -29.2386E-03     4.51677E-03    -18.8464E+06    -30.5739E+06    -214.309E+06    -30.5852E+06    -214.298E+06    -18.8464E+06     1.12551E+06         24.8956
            1248     5.82918E-03     62.3228E-03         4.85429        -1.25031        -1.81371        -1.59730         4.63789        -1.25031     32.0493E-03     58.4612E-03    -29.1999E-03    -29.2613E-03    -29.1494E-03     58.3779E-03    -29.2285E-03     5.38618E-03    -14.3957E+06    -28.0471E+06    -194.277E+06    -28.0647E+06    -194.259E+06    -14.3957E+06     1.61551E+06         25.0791
            1249     6.80035E-03     62.3281E-03         4.92347        -1.30986        -1.82407        -1.71187         4.81126        -1.30986        -1.50630     58.3017E-03    -29.0871E-03    -29.2146E-03    -28.9792E-03     58.1938E-03    -29.2146E-03     6.12026E-03    -10.0023E+06    -25.3483E+06    -176.246E+06    -25.3672E+06    -176.227E+06    -10.0023E+06     1.66247E+06         25.3150
            1250     7.77235E-03     62.3355E-03         5.03457        -1.36932        -1.86793        -1.82722         4.99387        -1.36932        -1.01203     58.1745E-03    -29.0032E-03    -29.1713E-03    -28.8700E-03     58.0413E-03    -29.1713E-03     6.79452E-03    -8.10405E+06    -23.5206E+06    -154.808E+06    -23.5410E+06    -154.787E+06    -8.10405E+06     1.61910E+06         25.6211
            1251     8.74421E-03     62.3425E-03         5.18295        -1.42691        -1.94424        -1.90588         5.14459        -1.42691    -358.405E-03     58.1448E-03    -29.0112E-03    -29.1336E-03    -28.8459E-03     57.9698E-03    -29.1239E-03     7.77012E-03    -6.39300E+06    -22.1278E+06    -130.079E+06    -22.1471E+06    -130.060E+06    -6.39300E+06     1.43795E+06         26.0365
            1252     9.71547E-03     62.3520E-03         5.25637        -1.47919        -1.94603        -1.93792         5.24826        -1.47919     452.926E-03     58.0519E-03    -28.9816E-03    -29.0703E-03    -28.7380E-03     57.7986E-03    -29.0606E-03     9.32966E-03    -6.56811E+06    -20.5469E+06    -99.4098E+06    -20.5681E+06    -99.3885E+06    -6.56811E+06     1.26971E+06         26.6551
            1253     10.6879E-03     62.3628E-03         5.35077        -1.52476        -1.97685        -1.95653         5.33044        -1.52476     672.792E-03     57.9131E-03    -28.9190E-03    -28.9941E-03    -28.6550E-03     57.6161E-03    -28.9611E-03     10.1298E-03    -12.6575E+06    -19.6374E+06    -62.8371E+06    -19.6905E+06    -62.7840E+06    -12.6575E+06     1.31912E+06         27.6999
            1254     11.6589E-03     62.3738E-03         5.41812        -1.56456        -1.98730        -1.96437         5.39518        -1.56456     772.492E-03     57.9089E-03    -28.8030E-03    -29.1059E-03    -28.5174E-03     57.3297E-03    -28.8123E-03     13.6581E-03     1.40848E+06    -20.1500E+06    -39.0442E+06    -20.1694E+06    -11.7704E+06    -25.8459E+06     1.19857E+06         29.6509
            1255     12.6323E-03     62.3922E-03         5.42894        -1.59983        -1.94373        -1.93925         5.42447        -1.59983     170.363E-03     59.3368E-03    -28.6977E-03    -30.6392E-03    -28.5890E-03     57.2867E-03    -28.6977E-03     25.6503E-03     48.4374E+06    -21.8319E+06    -34.2050E+06    -21.7836E+06     48.3891E+06    -34.2050E+06     1.66013E+06         33.3787
            1256     13.6022E-03     62.4286E-03         5.42118        -1.63072        -1.88152        -1.87896         5.41861        -1.63072    -252.912E-03     61.7627E-03    -28.7438E-03    -33.0188E-03    -28.2318E-03     56.9757E-03    -28.7438E-03     40.9576E-03     78.7233E+06    -18.6020E+06    -27.7248E+06    -22.0837E+06     78.6418E+06    -24.1616E+06     2.74721E+06         40.0663
            1257     14.5771E-03     62.4808E-03         5.39182        -1.65598        -1.79967        -1.79241         5.38842        -1.65983    -309.839E-03     75.9817E-03    -28.9887E-03    -46.9929E-03    -29.1314E-03     58.1201E-03    -28.9887E-03     83.2681E-03     89.8099E+06     16.4271E+06    -19.7746E+06    -19.7188E+06     89.7541E+06     16.4271E+06     1.31706E+06         50.5192
            1258     15.5502E-03     62.6033E-03         5.37156        -1.65679        -1.75196        -1.69117         5.36133        -1.70735    -487.340E-03     163.623E-03    -29.3583E-03    -134.264E-03    -44.0332E-03     73.3916E-03    -29.3583E-03     270.629E-03     114.549E+06     79.0458E+06    -15.2253E+06    -15.2075E+06     114.532E+06     79.0458E+06    -929.334E+03         63.7585
            1259     16.5178E-03     63.0701E-03         5.35143        -1.57026        -1.79583        -1.56085         5.33786        -1.79167    -604.723E-03     273.969E-03    -29.6651E-03    -244.303E-03    -67.3650E-03     97.0300E-03    -29.6651E-03     491.497E-03     148.958E+06     134.640E+06    -8.81826E+06    -8.77833E+06     144.218E+06     139.340E+06    -1.17955E+06         75.9822
            1260     971.186E-06     63.3648E-03         15.0101    -618.284E-03        -12.6062        -2.20448         4.60835    -618.284E-03        -8.74153     58.4578E-03    -29.1244E-03    -29.3335E-03    -29.2873E-03     58.4543E-03    -29.1669E-03     888.526E-06    -34.8059E+06    -38.0583E+06    -242.182E+06    -37.3402E+06    -242.170E+06    -35.5364E+06    -730.056E+03         24.5428
            1261     1.94270E-03     63.3653E-03         8.76032        -1.43216        -5.53519        -1.51378         4.73891        -1.43216         5.33377     58.4267E-03    -29.1647E-03    -29.2620E-03    -29.1775E-03     58.4157E-03    -29.2382E-03     1.89470E-03    -32.2147E+06    -35.2485E+06    -240.494E+06    -35.2549E+06    -240.488E+06    -32.2147E+06    -806.303E+03         24.5833
            1262     2.91499E-03     63.3687E-03         6.21475        -1.46563        -2.95943        -1.53839         4.79370        -1.46563    -697.533E-03     58.4727E-03    -29.2108E-03    -29.2619E-03    -29.2061E-03     58.4478E-03    -29.2417E-03     2.90360E-03    -27.3762E+06    -33.0374E+06    -233.070E+06    -33.0425E+06    -233.065E+06    -27.3762E+06    -170.570E+03         24.6522
            1263     3.88562E-03     63.3714E-03         5.65382        -1.50034        -2.35967        -1.67072         4.96487        -1.50034         1.64926     58.5487E-03    -29.2296E-03    -29.3191E-03    -29.2335E-03     58.5089E-03    -29.2754E-03     3.71511E-03    -20.1908E+06    -31.0896E+06    -228.323E+06    -31.0938E+06    -228.319E+06    -20.1908E+06     513.168E+03         24.7544
            1264     4.85744E-03     63.3763E-03         5.33624        -1.54748        -1.99838        -1.78984         5.12770        -1.54748    -167.793E-03     58.4446E-03    -29.1516E-03    -29.2930E-03    -29.1155E-03     58.3850E-03    -29.2695E-03     4.53472E-03    -16.5487E+06    -28.4705E+06    -215.490E+06    -28.4836E+06    -215.477E+06    -16.5487E+06     1.26631E+06         24.8945
            1265     5.82890E-03     63.3815E-03         5.46541        -1.59967        -2.08055        -1.91284         5.29771        -1.59967     31.9086E-03     58.3306E-03    -29.0993E-03    -29.2313E-03    -29.0175E-03     58.2487E-03    -29.2313E-03     5.33999E-03    -14.2581E+06    -26.7798E+06    -194.581E+06    -26.7950E+06    -194.566E+06    -14.2581E+06     1.44959E+06         25.0781
            1266     6.80087E-03     63.3876E-03         5.53004        -1.65307        -2.09571        -2.00654         5.44086        -1.65307        -1.45789     58.3398E-03    -29.1210E-03    -29.2188E-03    -29.0215E-03     58.2329E-03    -29.2113E-03     6.09235E-03    -9.74180E+06    -25.0582E+06    -176.840E+06    -25.0766E+06    -176.822E+06    -9.74180E+06     1.58740E+06         25.3143
            1267     7.77221E-03     63.3941E-03         5.61259        -1.70439        -2.12090        -2.08558         5.57728        -1.70439        -1.00820     58.2963E-03    -29.1088E-03    -29.1875E-03    -28.9833E-03     58.1633E-03    -29.1800E-03     6.80351E-03    -7.14495E+06    -22.9355E+06    -154.678E+06    -22.9604E+06    -154.653E+06    -7.14495E+06     1.81307E+06         25.6202
            1268     8.74373E-03     63.4020E-03         5.70084        -1.75110        -2.14976        -2.11826         5.66935        -1.75110    -359.582E-03     58.2039E-03    -29.0542E-03    -29.1497E-03    -28.8846E-03     58.0246E-03    -29.1400E-03     7.85848E-03    -5.36258E+06    -21.0026E+06    -129.904E+06    -21.0271E+06    -129.880E+06    -5.36258E+06     1.60769E+06         26.0341
            1269     9.71570E-03     63.4110E-03         5.73566        -1.79085        -2.12855        -2.12162         5.72873        -1.79085     451.444E-03     58.1316E-03    -29.0005E-03    -29.1311E-03    -28.7917E-03     57.8700E-03    -29.0783E-03     9.49791E-03    -5.94472E+06    -19.7711E+06    -99.5136E+06    -19.8056E+06    -99.4791E+06    -5.94472E+06     1.58036E+06         26.6482
            1270     10.6871E-03     63.4219E-03         5.79072        -1.82370        -2.13345        -2.11503         5.77230        -1.82370     682.673E-03     58.0069E-03    -28.9467E-03    -29.0602E-03    -28.7112E-03     57.6955E-03    -28.9842E-03     10.3891E-03    -11.8353E+06    -19.4477E+06    -63.0658E+06    -19.5226E+06    -62.9908E+06    -11.8353E+06     1.58318E+06         27.6819
            1271     11.6596E-03     63.4332E-03         5.81302        -1.85062        -2.11309        -2.09295         5.79289        -1.85062     748.509E-03     58.0161E-03    -28.8371E-03    -29.1790E-03    -28.6014E-03     57.4433E-03    -28.8419E-03     13.7054E-03     1.32742E+06    -20.1826E+06    -38.0618E+06    -20.1493E+06    -12.1186E+06    -24.6491E+06     2.02799E+06         29.6115
            1272     12.6304E-03     63.4510E-03         5.78815        -1.87291        -2.04808        -2.04403         5.78409        -1.87291     149.979E-03     59.4296E-03    -28.7166E-03    -30.7130E-03    -28.4947E-03     57.2113E-03    -28.7166E-03     26.4077E-03     47.8363E+06    -21.2883E+06    -34.4008E+06    -21.1785E+06     47.7265E+06    -34.4008E+06     2.29930E+06         33.3096
            1273     13.6034E-03     63.4899E-03         5.75154        -1.87512        -1.98733        -1.96844         5.74863        -1.89110    -278.826E-03     61.4564E-03    -28.7475E-03    -32.7089E-03    -28.0418E-03     56.7893E-03    -28.7475E-03     40.5877E-03     79.1616E+06    -17.4914E+06    -28.2099E+06    -21.1440E+06     79.1255E+06    -24.5211E+06     1.32275E+06         39.9783
            1274     14.5766E-03     63.5346E-03         5.68484        -1.83307        -1.93732        -1.85883         5.68103        -1.90775    -335.543E-03     76.1820E-03    -28.9829E-03    -47.1991E-03    -29.0366E-03     58.0196E-03    -28.9829E-03     83.4065E-03     90.9772E+06     16.8352E+06    -18.1562E+06    -18.1418E+06     90.9627E+06     16.8352E+06     52.4297E+03         50.4617
            1275     15.5485E-03     63.6686E-03         5.60848        -1.72855        -1.94171        -1.71767         5.59759        -1.94171    -513.211E-03     164.303E-03    -29.3540E-03    -134.949E-03    -44.2730E-03     73.6270E-03    -29.3540E-03     272.173E-03     115.522E+06     78.9324E+06    -13.5264E+06    -13.5213E+06     115.517E+06     78.9324E+06    -484.854E+03         63.8013
            1276     16.5241E-03     64.1301E-03         5.53243        -1.56459        -2.00926        -1.55025         5.51810        -2.00926    -629.366E-03     272.872E-03    -29.6777E-03    -243.194E-03    -67.0841E-03     96.7618E-03    -29.6777E-03     489.350E-03     149.128E+06     135.131E+06    -8.03936E+06    -8.03149E+06     144.994E+06     139.258E+06     165.966E+03         76.1539
            1277     971.921E-06     64.4234E-03         13.9892    -805.339E-03        -11.4032        -2.81504         5.40110    -805.339E-03        -7.60023     58.3069E-03    -29.0625E-03    -29.2444E-03    -29.2252E-03     58.3028E-03    -29.0776E-03     996.529E-06    -34.2952E+06    -37.7053E+06    -242.047E+06    -36.9313E+06    -242.041E+06    -35.0745E+06     133.657E+03         24.5408
            1278     1.94317E-03     64.4248E-03         8.75435        -1.83450        -5.13537        -1.92922         5.54820        -1.83450         4.97058     58.5102E-03    -29.1779E-03    -29.3324E-03    -29.2953E-03     58.4992E-03    -29.2038E-03     1.93139E-03    -31.2064E+06    -34.8840E+06    -239.783E+06    -34.8918E+06    -239.775E+06    -31.2064E+06    -1.20848E+06         24.5816
            1279     2.91408E-03     64.4271E-03         6.62356        -1.87311        -2.97355        -1.95621         5.60622        -1.87311    -534.156E-03     58.5129E-03    -29.1882E-03    -29.3247E-03    -29.2434E-03     58.4890E-03    -29.2456E-03     2.84452E-03    -28.0437E+06    -33.3931E+06    -233.419E+06    -33.4017E+06    -233.411E+06    -28.0437E+06    -286.127E+03         24.6507
            1280     3.88625E-03     64.4312E-03         6.23050        -1.90610        -2.54393        -2.04742         5.73399        -1.90610         1.51800     58.5365E-03    -29.2205E-03    -29.3160E-03    -29.2186E-03     58.4959E-03    -29.2774E-03     3.74768E-03    -21.9865E+06    -32.0719E+06    -229.096E+06    -32.0782E+06    -229.090E+06    -21.9865E+06     1.00246E+06         24.7529
            1281     4.85711E-03     64.4351E-03         5.96134        -1.94127        -2.24365        -2.09876         5.81646        -1.94127    -132.750E-03     58.4575E-03    -29.1598E-03    -29.2976E-03    -29.1226E-03     58.3967E-03    -29.2741E-03     4.58805E-03    -17.4660E+06    -29.6552E+06    -216.312E+06    -29.6687E+06    -216.299E+06    -17.4660E+06     1.16796E+06         24.8930
            1282     5.82918E-03     64.4405E-03         6.07594        -1.97790        -2.32899        -2.20435         5.95130        -1.97790    -17.3605E-03     58.3201E-03    -29.0845E-03    -29.2357E-03    -29.0004E-03     58.2361E-03    -29.2357E-03     5.40665E-03    -14.3396E+06    -26.5645E+06    -194.818E+06    -26.5808E+06    -194.801E+06    -14.3396E+06     1.36909E+06         25.0765
            1283     6.80054E-03     64.4466E-03         6.14221        -2.01817        -2.35945        -2.28671         6.06947        -2.01817        -1.43667     58.3382E-03    -29.1188E-03    -29.2194E-03    -29.0193E-03     58.2312E-03    -29.2119E-03     6.10619E-03    -9.94681E+06    -24.2323E+06    -177.356E+06    -24.2495E+06    -177.339E+06    -9.94681E+06     1.56315E+06         25.3126
            1284     7.77221E-03     64.4536E-03         6.16800        -2.05575        -2.34527        -2.31209         6.13482        -2.05575        -1.03974     58.3115E-03    -29.1235E-03    -29.1881E-03    -28.9949E-03     58.1755E-03    -29.1805E-03     6.87753E-03    -7.35959E+06    -22.3398E+06    -155.208E+06    -22.3675E+06    -155.181E+06    -7.35959E+06     1.85848E+06         25.6181
            1285     8.74390E-03     64.4610E-03         6.18165        -2.08581        -2.31932        -2.29255         6.15488        -2.08581    -365.545E-03     58.2150E-03    -29.0715E-03    -29.1435E-03    -28.8892E-03     58.0320E-03    -29.1428E-03     7.95773E-03    -5.18936E+06    -20.7892E+06    -129.992E+06    -20.8318E+06    -129.950E+06    -5.18936E+06     2.09586E+06         26.0305
            1286     9.71560E-03     64.4701E-03         6.19183        -2.10901        -2.29152        -2.28578         6.18609        -2.10901     432.047E-03     58.1782E-03    -29.0392E-03    -29.1390E-03    -28.8257E-03     57.9099E-03    -29.0842E-03     9.60932E-03    -5.70664E+06    -19.9627E+06    -99.9403E+06    -20.0253E+06    -99.8776E+06    -5.70664E+06     2.17884E+06         26.6398
            1287     10.6875E-03     64.4814E-03         6.20822        -2.12701        -2.27566        -2.25979         6.19235        -2.12701     661.927E-03     58.0780E-03    -28.9895E-03    -29.0885E-03    -28.7663E-03     57.7606E-03    -28.9943E-03     10.5001E-03    -11.3311E+06    -19.4821E+06    -63.1208E+06    -19.6332E+06    -62.9696E+06    -11.3311E+06     2.21834E+06         27.6622
            1288     11.6586E-03     64.4922E-03         6.17754        -2.12150        -2.23580        -2.20118         6.16066        -2.13922     703.481E-03     58.0168E-03    -28.8491E-03    -29.1677E-03    -28.5618E-03     57.4156E-03    -28.8539E-03     13.9692E-03     881.076E+03    -19.3500E+06    -37.4690E+06    -19.3895E+06    -12.8455E+06    -23.7028E+06     2.18214E+06         29.5700
            1289     12.6314E-03     64.5110E-03         6.10423        -2.08208        -2.18545        -2.11747         6.10045        -2.14629     96.4004E-03     59.1999E-03    -28.7193E-03    -30.4805E-03    -28.2623E-03     56.9817E-03    -28.7193E-03     26.4740E-03     48.3225E+06    -19.5772E+06    -32.4046E+06    -19.4883E+06     48.2335E+06    -32.4046E+06     1.88819E+06         33.2378
            1290     13.6041E-03     64.5470E-03         6.02578        -2.01217        -2.15798        -2.01700         6.02186        -2.14924    -338.965E-03     61.7775E-03    -28.7603E-03    -33.0172E-03    -28.4471E-03     57.2074E-03    -28.7603E-03     40.3821E-03     82.2601E+06    -14.4810E+06    -26.0977E+06    -19.5975E+06     82.2389E+06    -20.9600E+06     257.015E+03         39.8830
            1291     14.5750E-03     64.5967E-03         5.91856        -1.88887        -2.15079        -1.88376         5.91345        -2.15079    -396.744E-03     76.2834E-03    -29.0258E-03    -47.2577E-03    -29.4982E-03     58.5240E-03    -29.0258E-03     82.4791E-03     91.7218E+06     18.8850E+06    -18.6415E+06    -18.6339E+06     91.7142E+06     18.8850E+06    -799.837E+03         50.3828
            1292     15.5509E-03     64.7233E-03         5.79021        -1.72106        -2.16877        -1.70855         5.77770        -2.16877    -569.366E-03     164.532E-03    -29.3915E-03    -135.140E-03    -44.0206E-03     73.4121E-03    -29.3915E-03     272.685E-03     113.817E+06     78.5380E+06    -15.3496E+06    -15.3427E+06     113.810E+06     78.5380E+06    -311.886E+03         63.8108
            1293     16.5189E-03     65.1965E-03         5.66686        -1.53501        -2.21796        -1.51954         5.65139        -2.21796    -657.656E-03     270.652E-03    -29.6794E-03    -240.973E-03    -65.6728E-03     95.3522E-03    -29.6794E-03     485.606E-03     148.148E+06     135.255E+06    -9.41352E+06    -9.40183E+06     144.763E+06     138.628E+06     438.564E+03         76.2935
            1294     971.457E-06     65.4818E-03         12.8792        -1.04731        -10.0761        -3.50111         6.30422        -1.04731        -6.29624     58.3714E-03    -29.0913E-03    -29.2801E-03    -29.2459E-03     58.3675E-03    -29.1216E-03     980.970E-06    -32.0776E+06    -34.9598E+06    -240.207E+06    -34.1631E+06    -240.204E+06    -32.8770E+06    -272.925E+03         24.5387
            1295     1.94305E-03     65.4842E-03         8.79956        -2.29603        -4.74251        -2.38090         6.43795        -2.29603         4.51291     58.5397E-03    -29.1961E-03    -29.3436E-03    -29.2904E-03     58.5293E-03    -29.2388E-03     1.85482E-03    -27.4859E+06    -33.2490E+06    -238.881E+06    -33.2531E+06    -238.877E+06    -27.4859E+06    -382.443E+03         24.5795
            1296     2.91455E-03     65.4863E-03         7.11295        -2.32621        -3.03769        -2.37283         6.44809        -2.32621    -318.602E-03     58.5633E-03    -29.2159E-03    -29.3474E-03    -29.2645E-03     58.5393E-03    -29.2748E-03     2.84860E-03    -24.9478E+06    -31.6334E+06    -235.110E+06    -31.6401E+06    -235.103E+06    -24.9478E+06     346.735E+03         24.6488
            1297     3.88555E-03     65.4900E-03         6.86468        -2.34579        -2.76229        -2.42793         6.53032        -2.34579         1.38004     58.4531E-03    -29.1651E-03    -29.2880E-03    -29.1320E-03     58.4115E-03    -29.2794E-03     3.79177E-03    -21.4387E+06    -29.8808E+06    -230.310E+06    -29.8934E+06    -230.298E+06    -21.4387E+06     1.53327E+06         24.7510
            1298     4.85776E-03     65.4944E-03         6.64274        -2.36476        -2.52551        -2.43333         6.55056        -2.36476    -70.9823E-03     58.4426E-03    -29.1593E-03    -29.2833E-03    -29.1200E-03     58.3817E-03    -29.2616E-03     4.60097E-03    -16.9488E+06    -28.0661E+06    -215.538E+06    -28.0762E+06    -215.528E+06    -16.9488E+06     1.16361E+06         24.8910
            1299     5.82880E-03     65.4994E-03         6.70723        -2.38263        -2.58007        -2.48950         6.61667        -2.38263    -79.1301E-03     58.4148E-03    -29.1607E-03    -29.2540E-03    -29.0970E-03     58.3294E-03    -29.2324E-03     5.44893E-03    -14.5531E+06    -26.3737E+06    -195.683E+06    -26.3828E+06    -195.674E+06    -14.5531E+06     1.01821E+06         25.0744
            1300     6.80063E-03     65.5059E-03         6.70846        -2.40146        -2.56963        -2.50777         6.64659        -2.40146        -1.43476     58.3131E-03    -29.1032E-03    -29.2099E-03    -28.9908E-03     58.2007E-03    -29.2099E-03     6.25531E-03    -11.0303E+06    -24.3910E+06    -177.937E+06    -24.4088E+06    -177.920E+06    -11.0303E+06     1.63756E+06         25.3102
            1301     7.77231E-03     65.5125E-03         6.69183        -2.41692        -2.53711        -2.50337         6.65808        -2.41692        -1.10577     58.2668E-03    -29.0901E-03    -29.1768E-03    -28.9528E-03     58.1296E-03    -29.1768E-03     6.91309E-03    -7.95287E+06    -22.5363E+06    -156.149E+06    -22.5688E+06    -156.117E+06    -7.95287E+06     2.00787E+06         25.6150
            1302     8.74394E-03     65.5204E-03         6.66866        -2.41595        -2.50927        -2.47436         6.64534        -2.42753    -405.266E-03     58.2514E-03    -29.1072E-03    -29.1442E-03    -28.9300E-03     58.0694E-03    -29.1394E-03     7.93355E-03    -5.60491E+06    -21.1938E+06    -130.427E+06    -21.2532E+06    -130.368E+06    -5.60491E+06     2.50488E+06         26.0255
            1303     9.71551E-03     65.5292E-03         6.62362        -2.38518        -2.48275        -2.43107         6.61975        -2.43298     364.843E-03     58.2337E-03    -29.0866E-03    -29.1471E-03    -28.8766E-03     57.9632E-03    -29.0866E-03     9.65456E-03    -5.73416E+06    -20.0696E+06    -99.9451E+06    -20.1671E+06    -99.8476E+06    -5.73416E+06     2.70154E+06         26.6298
            1304     10.6871E-03     65.5407E-03         6.57953        -2.34790        -2.46276        -2.36511         6.56695        -2.43297     599.306E-03     58.0510E-03    -28.9590E-03    -29.0920E-03    -28.7375E-03     57.7338E-03    -28.9964E-03     10.4919E-03    -11.5757E+06    -19.0915E+06    -63.6313E+06    -19.2978E+06    -63.4250E+06    -11.5757E+06     2.72158E+06         27.6406
            1305     11.6594E-03     65.5515E-03         6.50157        -2.28420        -2.43661        -2.27999         6.48806        -2.42732     642.817E-03     57.9733E-03    -28.8162E-03    -29.1572E-03    -28.5375E-03     57.3911E-03    -28.8536E-03     13.7640E-03     1.45682E+06    -19.2075E+06    -37.5300E+06    -19.3340E+06    -12.2886E+06    -23.6580E+06     1.93721E+06         29.5262
            1306     12.6313E-03     65.5693E-03         6.38461        -2.17359        -2.41717        -2.16999         6.38100        -2.41717     45.4017E-03     59.3784E-03    -28.7298E-03    -30.6486E-03    -28.5298E-03     57.2596E-03    -28.7298E-03     25.9770E-03     49.4898E+06    -19.6119E+06    -31.8955E+06    -19.5871E+06     49.4650E+06    -31.8955E+06     830.014E+03         33.1608
            1307     13.6028E-03     65.6073E-03         6.25248        -2.03857        -2.40311        -2.03362         6.24753        -2.40311    -392.862E-03     62.0760E-03    -28.7924E-03    -33.2837E-03    -28.6850E-03     57.4774E-03    -28.7924E-03     40.5355E-03     83.5267E+06    -13.1401E+06    -25.8456E+06    -19.4085E+06     83.5165E+06    -19.5669E+06    -95.0616E+03         39.7762
            1308     14.5755E-03     65.6566E-03         6.09102        -1.87328        -2.38726        -1.86646         6.08420        -2.38726    -464.825E-03     76.4072E-03    -29.0887E-03    -47.3185E-03    -29.9816E-03     59.0703E-03    -29.0887E-03     82.1441E-03     92.4104E+06     21.2333E+06    -19.3703E+06    -19.3544E+06     92.3946E+06     21.2333E+06     80.7471E+03         50.2817
            1309     15.5450E-03     65.7820E-03         5.92241        -1.68847        -2.38693        -1.67351         5.90745        -2.38693    -639.909E-03     165.076E-03    -29.4127E-03    -135.663E-03    -43.0472E-03     72.4599E-03    -29.4127E-03     273.990E-03     112.425E+06     77.2227E+06    -17.4980E+06    -17.4704E+06     112.397E+06     77.2227E+06     1.37906E+06         63.8042
            1310     16.5234E-03     66.2568E-03         5.75644        -1.49034        -2.41668        -1.47328         5.73938        -2.41668    -690.796E-03     271.365E-03    -29.6251E-03    -241.740E-03    -65.1878E-03     94.8129E-03    -29.6251E-03     487.481E-03     147.809E+06     133.758E+06    -9.55107E+06    -9.52535E+06     144.580E+06     136.961E+06     1.04962E+06         76.4305
            1311     971.412E-06     66.5419E-03         11.8037        -1.33153        -8.75460        -4.22964         7.27872        -1.33153        -4.78326     58.5460E-03    -29.1551E-03    -29.3910E-03    -29.3368E-03     58.5421E-03    -29.2054E-03     1.14332E-03    -32.5359E+06    -35.1021E+06    -239.637E+06    -35.0886E+06    -239.630E+06    -32.5561E+06    -315.181E+03         24.5365
            1312     1.94276E-03     66.5426E-03         8.93218        -2.79195        -4.41930        -2.83499         7.34787        -2.79195         4.03584     58.4563E-03    -29.1760E-03    -29.2803E-03    -29.1633E-03     58.4436E-03    -29.2803E-03     1.98727E-03    -28.1881E+06    -33.0673E+06    -238.768E+06    -33.0830E+06    -238.752E+06    -28.1881E+06     586.438E+03         24.5773
            1313     2.91433E-03     66.5460E-03         7.66156        -2.79798        -3.15138        -2.76242         7.27260        -2.79798    -16.1752E-03     58.4591E-03    -29.1823E-03    -29.2768E-03    -29.1665E-03     58.4346E-03    -29.2682E-03     2.90562E-03    -24.5640E+06    -31.8818E+06    -237.451E+06    -31.9034E+06    -237.429E+06    -24.5640E+06     1.86384E+06         24.6467
            1314     3.88615E-03     66.5487E-03         7.54132        -2.79013        -3.03026        -2.81174         7.32825        -2.79558         1.26656     58.4606E-03    -29.1650E-03    -29.2955E-03    -29.1641E-03     58.4185E-03    -29.2544E-03     3.78827E-03    -22.4014E+06    -30.0634E+06    -230.553E+06    -30.0792E+06    -230.537E+06    -22.4014E+06     1.67927E+06         24.7489
            1315     4.85737E-03     66.5534E-03         7.36408        -2.79353        -2.85223        -2.79417         7.31148        -2.79898     22.7377E-03     58.4256E-03    -29.1360E-03    -29.2897E-03    -29.1258E-03     58.3612E-03    -29.2354E-03     4.73799E-03    -19.3847E+06    -28.1472E+06    -214.917E+06    -28.1575E+06    -214.907E+06    -19.3847E+06     1.29253E+06         24.8887
            1316     5.82917E-03     66.5588E-03         7.34344        -2.77203        -2.85883        -2.76838         7.27910        -2.79815    -137.385E-03     58.4040E-03    -29.1487E-03    -29.2553E-03    -29.0966E-03     58.3185E-03    -29.2219E-03     5.45590E-03    -14.9141E+06    -26.5391E+06    -196.614E+06    -26.5470E+06    -196.607E+06    -14.9141E+06     1.11790E+06         25.0718
            1317     6.80064E-03     66.5645E-03         7.26406        -2.73818        -2.82380        -2.71561         7.21020        -2.79250        -1.43221     58.3375E-03    -29.1221E-03    -29.2154E-03    -29.0206E-03     58.2242E-03    -29.2036E-03     6.27710E-03    -10.9927E+06    -24.4269E+06    -178.199E+06    -24.4412E+06    -178.185E+06    -10.9927E+06     1.43288E+06         25.3072
            1318     7.77225E-03     66.5720E-03         7.21377        -2.71732        -2.79855        -2.69667         7.17860        -2.78403        -1.17866     58.2754E-03    -29.1034E-03    -29.1720E-03    -28.9624E-03     58.1344E-03    -29.1720E-03     7.00609E-03    -8.46198E+06    -22.4554E+06    -157.263E+06    -22.4910E+06    -157.228E+06    -8.46198E+06     2.10357E+06         25.6111
            1319     8.74387E-03     66.5792E-03         7.14353        -2.65842        -2.78192        -2.64612         7.12343        -2.77413    -476.166E-03     58.2552E-03    -29.1146E-03    -29.1406E-03    -28.9346E-03     58.0675E-03    -29.1329E-03     8.05519E-03    -6.46272E+06    -20.9385E+06    -131.203E+06    -21.0119E+06    -131.129E+06    -6.46272E+06     2.77132E+06         26.0194
            1320     9.71559E-03     66.5888E-03         7.02321        -2.55070        -2.75944        -2.54868         7.02119        -2.75944     271.104E-03     58.2188E-03    -29.0794E-03    -29.1394E-03    -28.8590E-03     57.9384E-03    -29.0794E-03     9.82703E-03    -6.33090E+06    -19.7055E+06    -99.9348E+06    -19.8118E+06    -99.8284E+06    -6.33090E+06     2.86346E+06         26.6184
            1321     10.6872E-03     66.5997E-03         6.90455        -2.44316        -2.73820        -2.43353         6.89493        -2.73820     533.523E-03     58.0883E-03    -28.9539E-03    -29.1345E-03    -28.7730E-03     57.7643E-03    -28.9912E-03     10.6078E-03    -11.7859E+06    -18.5075E+06    -63.5304E+06    -18.6735E+06    -63.3644E+06    -11.7859E+06     2.51586E+06         27.6171
            1322     11.6589E-03     66.6106E-03         6.77020        -2.32610        -2.71138        -2.31578         6.75988        -2.71138     570.412E-03     58.1616E-03    -28.8180E-03    -29.3436E-03    -28.7199E-03     57.5753E-03    -28.8553E-03     13.8403E-03     2.34795E+06    -18.4466E+06    -37.6642E+06    -18.4918E+06    -11.3975E+06    -23.8735E+06     2.19820E+06         29.4793
            1323     12.6304E-03     66.6293E-03         6.60697        -2.18376        -2.68100        -2.18041         6.60363        -2.68100     743.560E-06     59.6829E-03    -28.7535E-03    -30.9294E-03    -28.7271E-03     57.4806E-03    -28.7535E-03     26.4905E-03     51.0983E+06    -19.7986E+06    -30.6055E+06    -19.7357E+06     51.0354E+06    -30.6055E+06     962.393E+03         33.0783
            1324     13.6026E-03     66.6667E-03         6.42993        -2.02815        -2.64768        -2.02225         6.42403        -2.64768    -434.518E-03     62.0181E-03    -28.8170E-03    -33.2012E-03    -28.4250E-03     57.2420E-03    -28.8170E-03     41.2260E-03     82.6501E+06    -14.1715E+06    -26.0054E+06    -21.4539E+06     82.6384E+06    -18.7113E+06     464.920E+03         39.6626
            1325     14.5743E-03     66.7164E-03         6.22596        -1.84262        -2.61332        -1.83434         6.21768        -2.61332    -516.237E-03     76.9294E-03    -29.0678E-03    -47.8617E-03    -29.5620E-03     58.6298E-03    -29.0678E-03     84.4391E-03     90.4414E+06     18.4125E+06    -21.1820E+06    -21.1317E+06     90.3911E+06     18.4125E+06     2.01396E+06         50.1841
            1326     15.5482E-03     66.8440E-03         6.02361        -1.64988        -2.59401        -1.63265         6.00637        -2.59401    -695.695E-03     163.390E-03    -29.3511E-03    -134.039E-03    -41.7438E-03     71.0949E-03    -29.3511E-03     271.779E-03     113.213E+06     75.1573E+06    -16.9088E+06    -16.8526E+06     113.157E+06     75.1573E+06     1.85038E+06         63.8068
            1327     16.5288E-03     67.3047E-03         5.81167        -1.44000        -2.60364        -1.42149         5.79315        -2.60364    -716.915E-03     271.729E-03    -29.5732E-03    -242.156E-03    -65.9680E-03     95.5412E-03    -29.5732E-03     487.810E-03     149.280E+06     134.333E+06    -8.69144E+06    -8.66793E+06     146.215E+06     137.374E+06     294.748E+03         76.5725
            1328     971.315E-06     67.6002E-03         10.8604        -1.59045        -7.59414        -4.91920         8.18544        -1.59045        -3.08490     58.4483E-03    -29.1619E-03    -29.2864E-03    -29.2337E-03     58.4439E-03    -29.2102E-03     966.515E-06    -33.7429E+06    -37.1967E+06    -240.539E+06    -35.9926E+06    -240.531E+06    -34.9554E+06     421.225E+03         24.5337
            1329     1.94306E-03     67.6021E-03         9.18370        -3.24305        -4.26313        -3.28769         8.22723        -3.26203         3.53438     58.3793E-03    -29.1521E-03    -29.2271E-03    -29.1385E-03     58.3656E-03    -29.2271E-03     2.11142E-03    -31.6937E+06    -34.7701E+06    -240.763E+06    -34.7884E+06    -240.745E+06    -31.6937E+06     801.237E+03         24.5748
            1330     2.91465E-03     67.6044E-03         8.30133        -3.23844        -3.39829        -3.18450         8.10652        -3.25742     291.151E-03     58.4076E-03    -29.1650E-03    -29.2426E-03    -29.1584E-03     58.3820E-03    -29.2237E-03     2.95130E-03    -27.1084E+06    -31.9494E+06    -238.672E+06    -31.9700E+06    -238.651E+06    -27.1084E+06     1.65695E+06         24.6443
            1331     3.88603E-03     67.6080E-03         8.24229        -3.19865        -3.36469        -3.19954         8.12001        -3.24152         1.13954     58.4716E-03    -29.1883E-03    -29.2833E-03    -29.1981E-03     58.4298E-03    -29.2317E-03     3.79244E-03    -21.9036E+06    -29.4029E+06    -229.627E+06    -29.4162E+06    -229.614E+06    -21.9036E+06     1.52673E+06         24.7465
            1332     4.85760E-03     67.6124E-03         8.05402        -3.14525        -3.22951        -3.12256         8.02941        -3.22759     99.1370E-03     58.4268E-03    -29.1691E-03    -29.2577E-03    -29.1379E-03     58.3631E-03    -29.2252E-03     4.70189E-03    -18.6694E+06    -27.6319E+06    -215.108E+06    -27.6406E+06    -215.099E+06    -18.6694E+06     1.23460E+06         24.8860
            1333     5.82917E-03     67.6177E-03         7.96471        -3.08729        -3.20780        -3.04659         7.92210        -3.20587    -225.803E-03     58.3441E-03    -29.1259E-03    -29.2182E-03    -29.0500E-03     58.2564E-03    -29.2064E-03     5.52325E-03    -15.3698E+06    -26.3917E+06    -197.426E+06    -26.4140E+06    -197.404E+06    -15.3698E+06     1.64449E+06         25.0688
            1334     6.80066E-03     67.6240E-03         7.84990        -3.01183        -3.17949        -2.96416         7.80223        -3.17949        -1.42600     58.3318E-03    -29.1245E-03    -29.2073E-03    -29.0289E-03     58.2159E-03    -29.1871E-03     6.34570E-03    -11.6458E+06    -25.4769E+06    -178.415E+06    -25.5045E+06    -178.387E+06    -11.6458E+06     1.87513E+06         25.3037
            1335     7.77239E-03     67.6305E-03         7.73054        -2.92701        -3.15032        -2.89068         7.69421        -3.15032        -1.24107     58.2731E-03    -29.1072E-03    -29.1660E-03    -28.9684E-03     58.1259E-03    -29.1575E-03     7.15776E-03    -9.61538E+06    -23.9171E+06    -157.918E+06    -23.9432E+06    -157.892E+06    -9.61538E+06     1.75457E+06         25.6067
            1336     8.74404E-03     67.6389E-03         7.56270        -2.79018        -3.11757        -2.77300         7.54552        -3.11757    -515.353E-03     58.2095E-03    -29.0873E-03    -29.1222E-03    -28.8950E-03     58.0136E-03    -29.1187E-03     8.22928E-03    -7.26027E+06    -21.2350E+06    -132.154E+06    -21.2908E+06    -132.098E+06    -7.26027E+06     2.29259E+06         26.0125
            1337     9.71564E-03     67.6475E-03         7.38213        -2.63903        -3.07922        -2.63784         7.38094        -3.07922     209.339E-03     58.1639E-03    -29.0534E-03    -29.1105E-03    -28.8151E-03     57.8762E-03    -29.0611E-03     9.95203E-03    -6.36879E+06    -18.4633E+06    -99.4225E+06    -18.5250E+06    -99.3608E+06    -6.36879E+06     2.13406E+06         26.6057
            1338     10.6876E-03     67.6593E-03         7.19962        -2.49216        -3.03515        -2.48444         7.19189        -3.03515     491.374E-03     58.0690E-03    -28.9598E-03    -29.1092E-03    -28.7536E-03     57.7260E-03    -28.9725E-03     10.9098E-03    -11.5150E+06    -17.0614E+06    -63.3724E+06    -17.1542E+06    -63.2795E+06    -11.5150E+06     1.77453E+06         27.5919
            1339     11.6590E-03     67.6701E-03         6.99243        -2.32938        -2.98581        -2.32127         6.98432        -2.98581     511.429E-03     58.1531E-03    -28.8207E-03    -29.3324E-03    -28.6673E-03     57.5007E-03    -28.8334E-03     14.5832E-03     2.71123E+06    -17.0579E+06    -38.4900E+06    -17.0219E+06    -11.9215E+06    -23.8932E+06     2.40600E+06         29.4302
            1340     12.6311E-03     67.6886E-03         6.77002        -2.15494        -2.93312        -2.15153         6.76661        -2.93312    -42.7834E-03     59.5244E-03    -28.7209E-03    -30.8035E-03    -28.4141E-03     57.1350E-03    -28.7209E-03     27.5690E-03     51.7504E+06    -19.1592E+06    -29.9617E+06    -18.9638E+06     51.5550E+06    -29.9617E+06     2.98845E+06         32.9948
            1341     13.6027E-03     67.7266E-03         6.55530        -1.98746        -2.87869        -1.98046         6.54831        -2.87869    -477.520E-03     61.8408E-03    -28.7628E-03    -33.0779E-03    -28.0725E-03     56.8354E-03    -28.7628E-03     42.1416E-03     82.8850E+06    -14.8702E+06    -25.6138E+06    -22.0228E+06     82.7412E+06    -18.3174E+06     3.18362E+06         39.5525
            1342     14.5771E-03     67.7739E-03         6.32789        -1.80352        -2.82517        -1.79387         6.31824        -2.82517    -559.366E-03     76.7185E-03    -28.9756E-03    -47.7428E-03    -29.0439E-03     58.0195E-03    -28.9756E-03     85.0862E-03     90.2523E+06     16.4532E+06    -21.8386E+06    -21.7427E+06     90.1564E+06     16.4532E+06     1.91166E+06         50.0976
            1343     15.5503E-03     67.9043E-03         6.09390        -1.60636        -2.78697        -1.58793         6.07547        -2.78697    -726.170E-03     162.125E-03    -29.3122E-03    -132.813E-03    -43.1239E-03     72.4361E-03    -29.3122E-03     268.578E-03     114.319E+06     75.0094E+06    -16.2731E+06    -16.2280E+06     114.273E+06     75.0094E+06     103.407E+03         63.8041
            1344     16.5197E-03     68.3567E-03         5.83446        -1.38420        -2.77556        -1.36513         5.81538        -2.77556    -725.843E-03     271.524E-03    -29.6316E-03    -241.892E-03    -66.7928E-03     96.4244E-03    -29.6316E-03     486.751E-03     149.679E+06     135.611E+06    -8.47142E+06    -8.46353E+06     147.208E+06     138.075E+06    -130.612E+03         76.7042
            1345     971.719E-06     68.6591E-03         10.1800        -1.79249        -6.76892        -5.57032         8.98137        -1.79249        -1.29993     58.2813E-03    -29.0247E-03    -29.2566E-03    -29.2386E-03     58.2766E-03    -29.0379E-03     1.03296E-03    -32.6756E+06    -36.7969E+06    -241.741E+06    -35.5917E+06    -241.733E+06    -33.8881E+06     1.10298E+06         24.5311
            1346     1.94310E-03     68.6610E-03         9.54509        -3.64284        -4.27721        -3.74566         9.06503        -3.69433         2.93713     58.4133E-03    -29.1664E-03    -29.2469E-03    -29.2221E-03     58.4020E-03    -29.1799E-03     1.94276E-03    -30.3086E+06    -34.1697E+06    -241.133E+06    -34.1771E+06    -241.126E+06    -30.3086E+06     1.04497E+06         24.5723
            1347     2.91458E-03     68.6633E-03         9.01398        -3.64495        -3.75283        -3.62559         8.93822        -3.69644     577.954E-03     58.4145E-03    -29.1886E-03    -29.2259E-03    -29.1843E-03     58.3901E-03    -29.2058E-03     2.86622E-03    -28.2189E+06    -32.7858E+06    -238.521E+06    -32.7914E+06    -238.516E+06    -28.2189E+06     122.407E+03         24.6418
            1348     3.88613E-03     68.6672E-03         8.92399        -3.56406        -3.72873        -3.56243         8.86596        -3.67234     963.934E-03     58.4216E-03    -29.1860E-03    -29.2357E-03    -29.1624E-03     58.3791E-03    -29.2167E-03     3.83717E-03    -23.4872E+06    -30.4088E+06    -230.231E+06    -30.4205E+06    -230.220E+06    -23.4872E+06     720.988E+03         24.7439
            1349     4.85763E-03     68.6713E-03         8.69443        -3.42597        -3.63829        -3.41799         8.68645        -3.63829     153.458E-03     58.3895E-03    -29.1745E-03    -29.2150E-03    -29.1123E-03     58.3273E-03    -29.2150E-03     4.64696E-03    -18.6322E+06    -28.5438E+06    -215.952E+06    -28.5697E+06    -215.926E+06    -18.6322E+06     1.94794E+06         24.8833
            1350     5.82918E-03     68.6768E-03         8.56889        -3.35084        -3.59566        -3.32518         8.54322        -3.59566    -331.438E-03     58.2946E-03    -29.1023E-03    -29.1923E-03    -29.0146E-03     58.2069E-03    -29.1923E-03     5.51467E-03    -15.4516E+06    -26.8301E+06    -198.174E+06    -26.8670E+06    -198.137E+06    -15.4516E+06     2.15740E+06         25.0657
            1351     6.80109E-03     68.6827E-03         8.40463        -3.24554        -3.55047        -3.20334         8.36244        -3.55047        -1.39505     58.2589E-03    -29.0831E-03    -29.1757E-03    -28.9729E-03     58.1402E-03    -29.1673E-03     6.42025E-03    -11.5946E+06    -25.0396E+06    -178.733E+06    -25.0829E+06    -178.690E+06    -11.5946E+06     2.32861E+06         25.3001
            1352     7.77244E-03     68.6901E-03         8.19624        -3.09446        -3.50033        -3.05804         8.15983        -3.50033        -1.27281     58.2369E-03    -29.0917E-03    -29.1453E-03    -28.9507E-03     58.0876E-03    -29.1368E-03     7.20910E-03    -9.18168E+06    -23.7490E+06    -157.681E+06    -23.7862E+06    -157.644E+06    -9.18168E+06     2.10177E+06         25.6020
            1353     8.74418E-03     68.6974E-03         7.94064        -2.89396        -3.44377        -2.87958         7.92626        -3.44377    -511.439E-03     58.1536E-03    -29.0547E-03    -29.0989E-03    -28.8643E-03     57.9511E-03    -29.0867E-03     8.35628E-03    -9.09815E+06    -21.8951E+06    -131.660E+06    -21.9282E+06    -131.626E+06    -9.09815E+06     881.344E+03         26.0053
            1354     9.71607E-03     68.7072E-03         7.69946        -2.70776        -3.38136        -2.70673         7.69844        -3.38136     184.011E-03     58.1115E-03    -29.0204E-03    -29.0911E-03    -28.7892E-03     57.8173E-03    -29.0281E-03     10.0716E-03    -8.58475E+06    -19.6380E+06    -99.3110E+06    -19.6740E+06    -99.2750E+06    -8.58475E+06     721.034E+03         26.5925
            1355     10.6875E-03     68.7180E-03         7.45543        -2.52599        -3.31428        -2.51942         7.44887        -3.31428     467.753E-03     57.8433E-03    -28.8499E-03    -28.9933E-03    -28.5571E-03     57.4996E-03    -28.9424E-03     10.8964E-03    -12.1610E+06    -18.3583E+06     -64.622E+06    -18.4693E+06    -64.5110E+06    -12.1610E+06     1.78609E+06         27.5657
            1356     11.6602E-03     68.7294E-03         7.18319        -2.32387        -3.24269        -2.31716         7.17649        -3.24269     470.557E-03     57.8631E-03    -28.6952E-03    -29.1679E-03    -28.3996E-03     57.1874E-03    -28.7878E-03     14.7627E-03     1.95229E+06    -19.2342E+06    -39.2022E+06    -19.1947E+06    -12.7837E+06    -24.5057E+06     2.77181E+06         29.3805
            1357     12.6319E-03     68.7478E-03         6.90176        -2.11765        -3.16820        -2.11400         6.89811        -3.16820    -75.3435E-03     59.1133E-03    -28.6513E-03    -30.4621E-03    -28.2070E-03     56.8583E-03    -28.6513E-03     26.8663E-03     50.6355E+06    -20.7935E+06    -32.3370E+06    -20.5397E+06     50.3816E+06    -32.3370E+06     4.02127E+06         32.9118
            1358     13.6060E-03     68.7845E-03         6.64185        -1.93142        -3.09287        -1.92381         6.63424        -3.09287    -502.890E-03     61.2054E-03    -28.6677E-03    -32.5376E-03    -27.6783E-03     56.3460E-03    -28.6677E-03     41.1300E-03     83.3814E+06    -15.4343E+06    -25.8034E+06    -20.1385E+06     83.2024E+06    -20.9202E+06     4.11240E+06         39.4449
            1359     14.5769E-03     68.8342E-03         6.38569        -1.74422        -3.01997        -1.73373         6.37520        -3.01997    -583.295E-03     76.6269E-03    -28.8893E-03    -47.7376E-03    -28.9666E-03     57.8559E-03    -28.8893E-03     85.3024E-03     93.6901E+06     18.9536E+06    -18.5544E+06    -18.4693E+06     93.6050E+06     18.9536E+06     1.71566E+06         50.0121
            1360     15.5505E-03     68.9614E-03         6.12029        -1.54328        -2.96247        -1.52458         6.10159        -2.96247    -736.475E-03     164.319E-03    -29.2674E-03    -135.052E-03    -44.7403E-03     74.0077E-03    -29.2674E-03     272.131E-03     115.257E+06     77.2502E+06    -16.2722E+06    -16.2455E+06     115.230E+06     77.2502E+06    -129.177E+03         63.8124
            1361     16.5214E-03     69.4263E-03         5.82306        -1.31471        -2.92887        -1.29591         5.80427        -2.92887    -718.464E-03     271.469E-03    -29.6245E-03    -241.844E-03    -67.1071E-03     96.7316E-03    -29.6245E-03     486.430E-03     147.886E+06     135.006E+06    -10.1554E+06    -10.1508E+06     146.059E+06     136.829E+06    -549.526E+03         76.8494
            1362     971.752E-06     69.7188E-03         10.0850        -1.99360        -6.52880        -6.20613         9.76229        -1.99360     543.537E-03     58.2833E-03    -29.0174E-03    -29.2659E-03    -29.2572E-03     58.2794E-03    -29.0223E-03     1.16161E-03    -33.0132E+06    -36.7974E+06    -243.509E+06    -36.3091E+06    -243.493E+06    -33.5176E+06     1.56756E+06         24.5300
            1363     1.94301E-03     69.7196E-03         10.0232        -4.03629        -4.41538        -4.16041         9.84406        -4.11210         2.31092     58.4225E-03    -29.1684E-03    -29.2541E-03    -29.2245E-03     58.4116E-03    -29.1870E-03     1.84694E-03    -29.0962E+06    -34.1193E+06    -241.516E+06    -34.1281E+06    -241.507E+06    -29.0962E+06     1.28075E+06         24.5708
            1364     2.91450E-03     69.7226E-03         9.69380        -4.01278        -4.12051        -3.99941         9.66713        -4.10721     878.500E-03     58.4283E-03    -29.1901E-03    -29.2382E-03    -29.1821E-03     58.4028E-03    -29.2208E-03     2.95221E-03    -25.1664E+06    -32.4863E+06    -237.248E+06    -32.5058E+06    -237.228E+06    -25.1664E+06     1.07384E+06         24.6400
            1365     3.88612E-03     69.7257E-03         9.56005        -3.89973        -4.08181        -3.89223         9.53925        -4.06851     761.576E-03     58.4072E-03    -29.1649E-03    -29.2423E-03    -29.1402E-03     58.3662E-03    -29.2260E-03     3.76696E-03    -22.6911E+06    -32.0938E+06    -232.081E+06    -32.1151E+06    -232.060E+06    -22.6911E+06     1.20582E+06         24.7418
            1366     4.85771E-03     69.7307E-03         9.30667        -3.71185        -4.01725        -3.70965         9.30447        -4.01725     231.350E-03     58.3195E-03    -29.1092E-03    -29.2103E-03    -29.0481E-03     58.2584E-03    -29.2103E-03     4.59108E-03    -19.0889E+06    -30.3278E+06    -217.332E+06    -30.3558E+06    -217.304E+06    -19.0889E+06     2.10464E+06         24.8808
            1367     5.82939E-03     69.7354E-03         9.10792        -3.58286        -3.95593        -3.56825         9.09332        -3.95593    -402.516E-03     58.2888E-03    -29.1022E-03    -29.1866E-03    -29.0164E-03     58.2030E-03    -29.1866E-03     5.46099E-03    -14.4633E+06    -27.4705E+06    -197.341E+06    -27.4931E+06    -197.318E+06    -14.4633E+06     1.63515E+06         25.0628
            1368     6.80084E-03     69.7420E-03         8.86956        -3.42536        -3.88965        -3.38720         8.83140        -3.88965        -1.34427     58.2224E-03    -29.0624E-03    -29.1600E-03    -28.9470E-03     58.1070E-03    -29.1600E-03     6.32318E-03    -10.9436E+06    -24.0842E+06    -179.547E+06    -24.1061E+06    -179.525E+06    -10.9436E+06     1.31492E+06         25.2965
            1369     7.77289E-03     69.7488E-03         8.60625        -3.24229        -3.81758        -3.20606         8.57002        -3.81758        -1.28514     58.1753E-03    -29.0473E-03    -29.1279E-03    -28.9022E-03     58.0301E-03    -29.1279E-03     7.10303E-03    -7.07045E+06    -20.6886E+06    -157.356E+06    -20.7253E+06    -157.319E+06    -7.07045E+06     1.96168E+06         25.5972
            1370     8.74450E-03     69.7568E-03         8.29355        -3.00595        -3.74010        -2.99462         8.28222        -3.74010    -500.090E-03     58.1614E-03    -29.0689E-03    -29.0926E-03    -28.8873E-03     57.9677E-03    -29.0804E-03     8.17399E-03    -6.02922E+06    -19.3541E+06    -129.874E+06    -19.3903E+06    -129.838E+06    -6.02922E+06     1.04142E+06         25.9978
            1371     9.71608E-03     69.7659E-03         7.97748        -2.76807        -3.65657        -2.76699         7.97640        -3.65657     156.859E-03     57.9820E-03    -28.9396E-03    -29.0425E-03    -28.6822E-03     57.6997E-03    -29.0175E-03     9.84443E-03    -7.55573E+06    -19.5202E+06    -101.107E+06    -19.5711E+06    -101.056E+06    -7.55573E+06     1.05237E+06         26.5789
            1372     10.6883E-03     69.7774E-03         7.66361        -2.54032        -3.56759        -2.53471         7.65800        -3.56759     448.074E-03     57.7484E-03    -28.7653E-03    -28.9831E-03    -28.5028E-03     57.4247E-03    -28.9219E-03     10.5657E-03    -12.3552E+06    -19.8152E+06    -66.2298E+06    -20.0761E+06    -65.9689E+06    -12.3552E+06     2.65464E+06         27.5395
            1373     11.6601E-03     69.7873E-03         7.33767        -2.31074        -3.47464        -2.30518         7.33211        -3.47464     437.218E-03     57.6892E-03    -28.6778E-03    -29.0114E-03    -28.2906E-03     57.0482E-03    -28.7576E-03     14.3051E-03     912.090E+03    -20.7023E+06    -39.3713E+06    -20.7685E+06    -13.0428E+06    -25.3502E+06     3.43658E+06         29.3307
            1374     12.6326E-03     69.8079E-03         7.01158        -2.08543        -3.38003        -2.08178         7.00792        -3.38003    -79.5640E-03     58.9072E-03    -28.6106E-03    -30.2966E-03    -28.0954E-03     56.7060E-03    -28.6106E-03     26.4860E-03     49.7579E+06    -21.4938E+06    -33.9205E+06    -21.2820E+06     49.5461E+06    -33.9205E+06     3.36507E+06         32.8287
            1375     13.6031E-03     69.8424E-03         6.70712        -1.87897        -3.28566        -1.87140         6.69956        -3.28566    -502.241E-03     61.0017E-03    -28.6264E-03    -32.3753E-03    -27.7745E-03     56.4009E-03    -28.6264E-03     40.0438E-03     84.5420E+06    -15.6812E+06    -25.5657E+06    -19.2081E+06     84.4735E+06    -21.9703E+06     2.52029E+06         39.3342
            1376     14.5805E-03     69.8910E-03         6.40449        -1.66928        -3.19424        -1.65889         6.39411        -3.19424    -578.070E-03     76.2705E-03    -28.8588E-03    -47.4117E-03    -28.8970E-03     57.7558E-03    -28.8588E-03     84.1698E-03     95.2079E+06     19.0127E+06    -17.8227E+06    -17.7715E+06     95.1567E+06     19.0127E+06     2.31284E+06         49.9175
            1377     15.5527E-03     70.0236E-03         6.10625        -1.46193        -3.11701        -1.44363         6.08795        -3.11701    -724.782E-03     164.625E-03    -29.1853E-03    -135.439E-03    -43.0955E-03     72.2808E-03    -29.1853E-03     274.032E-03     116.543E+06     78.4019E+06    -15.8837E+06    -15.8476E+06     116.507E+06     78.4019E+06     1.47661E+06         63.8290
            1378     16.5253E-03     70.4894E-03         5.78576        -1.23588        -3.06097        -1.21760         5.76748        -3.06097    -703.244E-03     271.722E-03    -29.4936E-03    -242.229E-03    -67.5541E-03     97.0478E-03    -29.4936E-03     486.837E-03     148.583E+06     135.931E+06    -9.09392E+06    -9.08788E+06     146.966E+06     137.541E+06    -122.495E+03         77.0066
            1379     971.334E-06     70.7771E-03         10.6760        -2.20670        -6.95367        -6.77986         10.5022        -2.20670         2.45973     58.3713E-03    -29.0932E-03    -29.2781E-03    -29.1219E-03     58.3666E-03    -29.2447E-03     1.11312E-03    -34.7941E+06    -37.2781E+06    -245.233E+06    -36.5934E+06    -245.213E+06    -35.4995E+06     1.13195E+06         24.5295
            1380     1.94311E-03     70.7790E-03         10.5759        -4.41317        -4.64712        -4.49603         10.5064        -4.49471         1.70188     58.3622E-03    -29.1235E-03    -29.2387E-03    -29.1415E-03     58.3509E-03    -29.2094E-03     1.93165E-03    -29.3870E+06    -35.0691E+06    -243.116E+06    -35.0838E+06    -243.101E+06    -29.3870E+06     1.65879E+06         24.5699
            1381     2.91475E-03     70.7811E-03         10.3071        -4.33540        -4.46736        -4.29610         10.2678        -4.46736         1.19452     58.4584E-03    -29.1766E-03    -29.2818E-03    -29.1972E-03     58.4334E-03    -29.2362E-03     2.89734E-03    -22.0960E+06    -32.1605E+06    -238.548E+06    -32.2017E+06    -238.506E+06    -22.0960E+06     2.73577E+06         24.6389
            1382     3.88597E-03     70.7854E-03         10.1296        -4.19591        -4.41185        -4.18745         10.1212        -4.41185     578.079E-03     58.4472E-03    -29.1703E-03    -29.2769E-03    -29.1492E-03     58.4074E-03    -29.2581E-03     3.72983E-03    -16.3163E+06    -29.6719E+06    -232.642E+06    -29.7226E+06    -232.592E+06    -16.3163E+06     3.07931E+06         24.7404
            1383     4.85766E-03     70.7888E-03         9.84815        -3.97734        -4.34755        -3.97221         9.84303        -4.34755     316.642E-03     58.3692E-03    -29.1393E-03    -29.2299E-03    -29.0829E-03     58.3102E-03    -29.2274E-03     4.50916E-03    -15.7552E+06    -27.6771E+06    -216.968E+06    -27.6986E+06    -216.946E+06    -15.7552E+06     1.75866E+06         24.8789
            1384     5.82934E-03     70.7950E-03         9.55561        -3.77298        -4.26942        -3.76470         9.54733        -4.26942    -469.923E-03     58.2867E-03    -29.0987E-03    -29.1881E-03    -29.0145E-03     58.2026E-03    -29.1881E-03     5.40832E-03    -14.2110E+06    -25.5275E+06    -195.991E+06    -25.5329E+06    -195.985E+06    -14.2110E+06     861.808E+03         25.0604
            1385     6.80099E-03     70.8006E-03         9.26622        -3.58364        -4.18353        -3.54737         9.22994        -4.18353        -1.29391     58.2534E-03    -29.0736E-03    -29.1798E-03    -28.9769E-03     58.1432E-03    -29.1663E-03     6.18544E-03    -10.8558E+06    -23.9476E+06    -179.819E+06    -23.9511E+06    -179.816E+06    -10.8558E+06     703.540E+03         25.2932
            1386     7.77257E-03     70.8079E-03         8.96697        -3.38374        -4.09315        -3.34637         8.92960        -4.09315        -1.30950     58.1909E-03    -29.0514E-03    -29.1395E-03    -28.9227E-03     58.0487E-03    -29.1260E-03     7.02482E-03    -9.44201E+06    -21.9459E+06    -157.647E+06    -21.9556E+06    -157.637E+06    -9.44201E+06     621.429E+03         25.5923
            1387     8.74426E-03     70.8159E-03         8.59698        -3.10880        -3.99839        -3.09974         8.58792        -3.99839    -505.922E-03     58.0637E-03    -28.9793E-03    -29.0844E-03    -28.7950E-03     57.8794E-03    -29.0844E-03     7.98184E-03    -6.19742E+06    -19.6375E+06    -130.272E+06    -19.6819E+06    -130.227E+06    -6.19742E+06     1.59073E+06         25.9899
            1388     9.71610E-03     70.8250E-03         8.21680        -2.82461        -3.89677        -2.82333         8.21551        -3.89677     115.372E-03     57.9103E-03    -28.8648E-03    -29.0456E-03    -28.6239E-03     57.6453E-03    -29.0214E-03     9.52373E-03    -6.36564E+06    -18.8924E+06    -103.043E+06    -19.0222E+06    -102.913E+06    -6.36564E+06     3.00904E+06         26.5653
            1389     10.6883E-03     70.8356E-03         7.83198        -2.54850        -3.78859        -2.54368         7.82717        -3.78859     428.949E-03     57.7990E-03    -28.8078E-03    -28.9912E-03    -28.5627E-03     57.4813E-03    -28.9186E-03     10.4758E-03    -11.9703E+06    -18.7065E+06    -66.9119E+06    -19.0363E+06    -66.5821E+06    -11.9703E+06     3.41411E+06         27.5138
            1390     11.6598E-03     70.8476E-03         7.45637        -2.29272        -3.67644        -2.28818         7.45183        -3.67644     400.097E-03     57.6087E-03    -28.7235E-03    -28.8852E-03    -28.2580E-03     57.0155E-03    -28.7575E-03     13.8372E-03     1.23313E+06    -18.6797E+06    -39.4811E+06    -18.7470E+06    -13.8720E+06    -24.3087E+06     3.46674E+06         29.2820
            1391     12.6326E-03     70.8645E-03         7.09367        -2.05310        -3.56375        -2.04956         7.09013        -3.56375    -86.3841E-03     58.7511E-03    -28.6041E-03    -30.1470E-03    -27.9384E-03     56.5425E-03    -28.6041E-03     26.2714E-03     50.8958E+06    -19.5448E+06    -32.0839E+06    -19.3525E+06     50.7035E+06    -32.0839E+06     2.76882E+06         32.7465
            1392     13.6073E-03     70.9032E-03         6.74641        -1.82650        -3.45237        -1.81895         6.73886        -3.45237    -501.365E-03     61.6580E-03    -28.6524E-03    -33.0056E-03    -28.5666E-03     57.2190E-03    -28.6524E-03     39.8518E-03     85.8340E+06    -14.1981E+06    -26.9116E+06    -21.6129E+06     85.7970E+06    -19.4599E+06     1.86799E+06         39.2192
            1393     14.5746E-03     70.9487E-03         6.40433        -1.59948        -3.34415        -1.58947         6.39432        -3.34415    -565.444E-03     76.0684E-03    -28.9109E-03    -47.1576E-03    -29.0801E-03     57.9910E-03    -28.9109E-03     82.4659E-03     94.9826E+06     18.9372E+06    -20.6157E+06    -20.5539E+06     94.9207E+06     18.9372E+06     2.53791E+06         49.8092
            1394     15.5500E-03     71.0813E-03         6.07367        -1.38155        -3.24840        -1.36298         6.05509        -3.24840    -719.369E-03     162.809E-03    -29.1792E-03    -133.630E-03    -41.1095E-03     70.2887E-03    -29.1792E-03     271.742E-03     118.254E+06     77.2682E+06    -14.9940E+06    -14.9413E+06     118.201E+06     77.2682E+06     1.82878E+06         63.8189
            1395     16.5325E-03     71.5435E-03         5.73028        -1.15667        -3.17149        -1.13768         5.71129        -3.17149    -708.279E-03     272.514E-03    -29.4437E-03    -243.071E-03    -68.0612E-03     97.5049E-03    -29.4437E-03     488.222E-03     149.815E+06     135.556E+06    -8.51763E+06    -8.51136E+06     148.346E+06     137.018E+06     300.076E+03         77.1544
            1396     971.431E-06     71.8357E-03         11.7196        -2.35184        -7.90533        -7.26921         11.0835        -2.35184         4.32778     58.3683E-03    -29.0150E-03    -29.3533E-03    -29.2019E-03     58.3635E-03    -29.1616E-03     1.03312E-03    -36.8874E+06    -39.0840E+06    -246.978E+06    -38.8927E+06    -246.968E+06    -37.0885E+06     440.243E+03         24.5276
            1397     1.94318E-03     71.8377E-03         11.1568        -4.76386        -4.93013        -4.76732         11.0323        -4.80210         1.07456     58.4275E-03    -29.1429E-03    -29.2846E-03    -29.1965E-03     58.4146E-03    -29.2182E-03     2.09170E-03    -31.1313E+06    -36.2962E+06    -244.738E+06    -36.3251E+06    -244.709E+06    -31.1313E+06     2.03095E+06         24.5683
            1398     2.91425E-03     71.8405E-03         10.8723        -4.65509        -4.76619        -4.55931         10.7708        -4.76055         1.48919     58.4787E-03    -29.1970E-03    -29.2817E-03    -29.2054E-03     58.4564E-03    -29.2510E-03     2.75444E-03    -24.8788E+06    -34.1807E+06    -241.120E+06    -34.2362E+06    -241.065E+06    -24.8788E+06     3.25733E+06         24.6373
            1399     3.88632E-03     71.8437E-03         10.6004        -4.43893        -4.69398        -4.42282         10.5843        -4.69398     378.094E-03     58.4305E-03    -29.1624E-03    -29.2680E-03    -29.1288E-03     58.3928E-03    -29.2640E-03     3.59628E-03    -18.4426E+06    -30.3850E+06    -232.635E+06    -30.4331E+06    -232.587E+06    -18.4426E+06     2.89719E+06         24.7388
            1400     4.85757E-03     71.8486E-03         10.2724        -4.18809        -4.61673        -4.17314         10.2574        -4.61673     369.891E-03     58.3924E-03    -29.1564E-03    -29.2361E-03    -29.1000E-03     58.3335E-03    -29.2335E-03     4.51708E-03    -15.8883E+06    -26.5801E+06    -214.846E+06    -26.5958E+06    -214.830E+06    -15.8883E+06     1.21683E+06         24.8772
            1401     5.82907E-03     71.8533E-03         9.93515        -3.95053        -4.52509        -3.94386         9.92848        -4.52509    -573.654E-03     58.3373E-03    -29.1319E-03    -29.2054E-03    -29.0558E-03     58.2525E-03    -29.1967E-03     5.42627E-03    -14.8016E+06    -24.2492E+06    -195.979E+06    -24.2583E+06    -195.970E+06    -14.8016E+06     906.211E+03         25.0582
            1402     6.80090E-03     71.8601E-03         9.61018        -3.74004        -4.42627        -3.70272         9.57286        -4.42627        -1.26996     58.3330E-03    -29.1273E-03    -29.2057E-03    -29.0404E-03     58.2238E-03    -29.1835E-03     6.16906E-03    -10.7254E+06    -23.0380E+06    -179.587E+06    -23.0488E+06    -179.576E+06    -10.7254E+06     1.13664E+06         25.2900
            1403     7.77238E-03     71.8667E-03         9.25793        -3.50120        -4.32214        -3.46086         9.21760        -4.32214        -1.35589     58.1732E-03    -29.0159E-03    -29.1573E-03    -28.8900E-03     58.0337E-03    -29.1438E-03     6.94844E-03    -9.52085E+06    -22.1487E+06    -157.534E+06    -22.1600E+06    -157.523E+06    -9.52085E+06     687.183E+03         25.5872
            1404     8.74419E-03     71.8750E-03         8.82845        -3.18191        -4.21210        -3.17414         8.82068        -4.21210    -513.335E-03     57.9656E-03    -28.8769E-03    -29.0886E-03    -28.6911E-03     57.7797E-03    -29.0886E-03     8.00314E-03    -8.47519E+06    -21.6718E+06    -133.105E+06    -21.7306E+06    -133.047E+06    -8.47519E+06     1.90256E+06         25.9820
            1405     9.71637E-03     71.8834E-03         8.40699        -2.87427        -4.09489        -2.87284         8.40556        -4.09489     71.4711E-03     57.9855E-03    -28.9301E-03    -29.0554E-03    -28.6963E-03     57.7232E-03    -29.0269E-03     9.49375E-03    -7.06487E+06    -20.3037E+06    -103.575E+06    -20.4478E+06    -103.431E+06    -7.06487E+06     3.26651E+06         26.5519
            1406     10.6878E-03     71.8954E-03         7.97831        -2.57099        -3.97159        -2.56702         7.97434        -3.97159     396.341E-03     57.7641E-03    -28.8108E-03    -28.9533E-03    -28.5277E-03     57.4525E-03    -28.9247E-03     10.3701E-03    -12.1140E+06    -18.3381E+06    -66.8246E+06    -18.5952E+06    -66.5674E+06    -12.1140E+06     3.25267E+06         27.4890
            1407     11.6603E-03     71.9056E-03         7.55637        -2.28607        -3.84448        -2.28250         7.55280        -3.84448     356.431E-03     57.6988E-03    -28.6571E-03    -29.0416E-03    -28.3672E-03     57.1382E-03    -28.7710E-03     13.5261E-03     1.56751E+06    -18.3100E+06    -39.4731E+06    -18.3287E+06    -14.3344E+06    -23.5524E+06     3.19222E+06         29.2351
            1408     12.6324E-03     71.9238E-03         7.14558        -2.01901        -3.71671        -2.01519         7.14177        -3.71671    -117.496E-03     59.0511E-03    -28.6377E-03    -30.4134E-03    -28.3364E-03     56.9741E-03    -28.6377E-03     25.5587E-03     51.9191E+06    -19.6848E+06    -30.7599E+06    -19.4853E+06     51.7196E+06    -30.7599E+06     3.11488E+06         32.6639
            1409     13.6030E-03     71.9610E-03         6.76231        -1.77565        -3.59041        -1.76756         6.75422        -3.59041    -520.191E-03     61.8720E-03    -28.6873E-03    -33.1847E-03    -28.4744E-03     57.1616E-03    -28.6873E-03     40.8174E-03     85.3209E+06    -15.0845E+06    -26.9598E+06    -21.8487E+06     85.1977E+06    -20.0725E+06     3.25617E+06         39.1037
            1410     14.5769E-03     72.0131E-03         6.39896        -1.54642        -3.46773        -1.53565         6.38819        -3.46773    -582.792E-03     75.1965E-03    -28.9273E-03    -46.2692E-03    -28.6675E-03     57.5948E-03    -28.9273E-03     81.5965E-03     95.3373E+06     18.3215E+06    -20.7605E+06    -20.6594E+06     95.2362E+06     18.3215E+06     2.31042E+06         49.7083
            1411     15.5522E-03     72.1309E-03         6.03865        -1.31963        -3.35630        -1.29938         6.01841        -3.35630    -747.367E-03     162.914E-03    -29.2571E-03    -133.657E-03    -43.3450E-03     72.6022E-03    -29.2571E-03     270.068E-03     120.765E+06     77.9441E+06    -14.5342E+06    -14.4940E+06     120.725E+06     77.9441E+06     757.902E+03         63.8037
            1412     16.5215E-03     72.6027E-03         5.67184        -1.09465        -3.26081        -1.07462         5.65181        -3.26081    -719.086E-03     272.722E-03    -29.5862E-03    -243.135E-03    -67.8704E-03     97.4566E-03    -29.5862E-03     488.577E-03     150.866E+06     136.239E+06    -7.95444E+06    -7.93802E+06     149.861E+06     137.227E+06     1.04975E+06         77.3050
            1413     971.795E-06     72.8950E-03         12.9989        -2.42011        -9.16452        -7.65402         11.4884        -2.42011         6.06664     58.3865E-03    -29.0404E-03    -29.3461E-03    -29.3422E-03     58.3827E-03    -29.0404E-03     1.03510E-03    -39.9536E+06    -42.7366E+06    -248.351E+06    -42.3296E+06    -248.346E+06    -40.3653E+06     765.922E+03         24.5245
            1414     1.94276E-03     72.8966E-03         11.7541        -5.02764        -5.30820        -4.99246         11.4383        -5.02764     421.691E-03     58.4860E-03    -29.1755E-03    -29.3104E-03    -29.2452E-03     58.4736E-03    -29.2285E-03     2.01579E-03    -36.1172E+06    -39.8572E+06    -247.244E+06    -39.8796E+06    -247.222E+06    -36.1172E+06     1.51965E+06         24.5654
            1415     2.91470E-03     72.8996E-03         11.3636        -4.91478        -5.04725        -4.77563         11.1617        -4.98452         1.74638     58.4379E-03    -29.1889E-03    -29.2490E-03    -29.1714E-03     58.4131E-03    -29.2418E-03     2.89862E-03    -32.4489E+06    -36.9083E+06    -242.241E+06    -36.9440E+06    -242.205E+06    -32.4489E+06     2.52488E+06         24.6348
            1416     3.88550E-03     72.9028E-03         10.9590        -4.63103        -4.91045        -4.59141         10.9193        -4.91045     133.962E-03     58.4345E-03    -29.1840E-03    -29.2505E-03    -29.1515E-03     58.3947E-03    -29.2432E-03     3.69611E-03    -26.0719E+06    -33.6409E+06    -231.038E+06    -33.6590E+06    -231.020E+06    -26.0719E+06     976.093E+03         24.7366
            1417     4.85766E-03     72.9072E-03         10.5930        -4.35537        -4.82170        -4.32561         10.5633        -4.82170     391.585E-03     58.3717E-03    -29.1366E-03    -29.2351E-03    -29.0766E-03     58.3118E-03    -29.2351E-03     4.55678E-03    -19.4375E+06    -30.0291E+06    -214.275E+06    -30.0373E+06    -214.267E+06    -19.4375E+06     277.577E+03         24.8752
            1418     5.82928E-03     72.9127E-03         10.2369        -4.10798        -4.72107        -4.09863         10.2275        -4.72107    -701.033E-03     58.4012E-03    -29.1744E-03    -29.2268E-03    -29.1028E-03     58.3166E-03    -29.2138E-03     5.42607E-03    -15.7603E+06    -27.3095E+06    -196.287E+06    -27.3286E+06    -196.268E+06    -15.7603E+06     421.741E+03         25.0558
            1419     6.80052E-03     72.9188E-03         9.87154        -3.86489        -4.61379        -3.82460         9.83125        -4.61379        -1.27013     58.3297E-03    -29.1167E-03    -29.2130E-03    -29.0173E-03     58.2172E-03    -29.1999E-03     6.24971E-03    -11.3355E+06    -24.0665E+06    -179.599E+06    -24.0848E+06    -179.581E+06    -11.3355E+06     427.803E+03         25.2864
            1420     7.77224E-03     72.9262E-03         9.46338        -3.58212        -4.49838        -3.53801         9.41926        -4.49838        -1.40613     58.1395E-03    -28.9748E-03    -29.1647E-03    -28.8399E-03     58.0046E-03    -29.1647E-03     6.84427E-03    -7.92904E+06    -21.8608E+06    -158.511E+06    -21.8886E+06    -158.483E+06    -7.92904E+06     1.64731E+06         25.5821
            1421     8.74441E-03     72.9330E-03         8.99091        -3.23421        -4.37558        -3.22711         8.98380        -4.37558    -528.821E-03     58.0688E-03    -28.9585E-03    -29.1103E-03    -28.7757E-03     57.8860E-03    -29.1103E-03     7.91816E-03    -6.53886E+06    -20.6800E+06    -134.106E+06    -20.7360E+06    -134.050E+06    -6.53886E+06     2.44247E+06         25.9744
            1422     9.71577E-03     72.9434E-03         8.54788        -2.91781        -4.24639        -2.91599         8.54606        -4.24639     26.6348E-03     57.9919E-03    -28.9455E-03    -29.0464E-03    -28.6880E-03     57.7301E-03    -29.0421E-03     9.50025E-03    -6.49897E+06    -18.8436E+06    -104.018E+06    -18.9242E+06    -103.937E+06    -6.49897E+06     2.51638E+06         26.5392
            1423     10.6880E-03     72.9535E-03         8.09815        -2.60516        -4.11240        -2.60205         8.09504        -4.11240     358.830E-03     57.7988E-03    -28.8064E-03    -28.9924E-03    -28.5612E-03     57.4991E-03    -28.9379E-03     10.1755E-03    -12.1126E+06    -17.8837E+06    -67.3617E+06    -18.1198E+06    -67.1256E+06    -12.1126E+06     2.96323E+06         27.4651
            1424     11.6599E-03     72.9648E-03         7.63345        -2.29105        -3.97482        -2.28844         7.63083        -3.97482     309.737E-03     57.9777E-03    -28.7118E-03    -29.2659E-03    -28.6057E-03     57.3975E-03    -28.7917E-03     13.7246E-03     1.09163E+06    -18.6504E+06    -39.4408E+06    -18.6610E+06    -14.3408E+06    -23.9978E+06     3.46116E+06         29.1891
            1425     12.6311E-03     72.9835E-03         7.18511        -1.99994        -3.83584        -1.99578         7.18095        -3.83584    -144.950E-03     59.4260E-03    -28.6735E-03    -30.7525E-03    -28.6426E-03     57.3161E-03    -28.6735E-03     25.9518E-03     51.7374E+06    -20.0574E+06    -31.9351E+06    -19.7988E+06     51.4789E+06    -31.9351E+06     3.86048E+06         32.5827
            1426     13.6045E-03     73.0203E-03         6.77961        -1.75069        -3.69830        -1.74197         6.77090        -3.69830    -541.856E-03     61.2604E-03    -28.6989E-03    -32.5615E-03    -27.7818E-03     56.4807E-03    -28.6989E-03     40.7669E-03     85.5189E+06    -15.6559E+06    -25.4283E+06    -19.2312E+06     85.3774E+06    -21.7115E+06     3.52879E+06         38.9939
            1427     14.5776E-03     73.0701E-03         6.38644        -1.50833        -3.56452        -1.49598         6.37409        -3.56452    -620.341E-03     74.7050E-03    -28.9389E-03    -45.7662E-03    -29.0379E-03     57.9767E-03    -28.9389E-03     80.3056E-03     97.3211E+06     19.8144E+06    -17.2503E+06    -17.1643E+06     97.2351E+06     19.8144E+06     1.89999E+06         49.6155
            1428     15.5502E-03     73.1900E-03         6.00177        -1.27542        -3.44004        -1.25333         5.97967        -3.44004    -784.655E-03     164.739E-03    -29.3420E-03    -135.397E-03    -45.4652E-03     74.8072E-03    -29.3420E-03     271.444E-03     121.360E+06     79.0433E+06    -15.6782E+06    -15.6397E+06     121.322E+06     79.0433E+06     1.36024E+06         63.8126
            1429     16.5176E-03     73.6706E-03         5.60948        -1.04840        -3.32741        -1.02793         5.58900        -3.32741    -720.731E-03     272.901E-03    -29.6815E-03    -243.219E-03    -66.7096E-03     96.3911E-03    -29.6815E-03     489.616E-03     150.332E+06     136.347E+06    -9.27317E+06    -9.25236E+06     149.783E+06     136.875E+06     1.34919E+06         77.4872
            1430     971.342E-06     73.9543E-03         14.3300        -2.43900        -10.5066        -7.93364         11.7571        -2.43900         7.68145     58.4435E-03    -29.1096E-03    -29.3340E-03    -29.2188E-03     58.4388E-03    -29.2200E-03     1.20965E-03    -41.6370E+06    -43.1239E+06    -249.679E+06    -42.7232E+06    -249.668E+06    -42.0487E+06     1.33489E+06         24.5213
            1431     1.94293E-03     73.9558E-03         12.2955        -5.17887        -5.73595        -5.14783         11.7074        -5.17887    -179.111E-03     58.4310E-03    -29.1174E-03    -29.3136E-03    -29.1874E-03     58.4183E-03    -29.2309E-03     2.05072E-03    -39.3770E+06    -42.0374E+06    -249.367E+06    -42.0496E+06    -249.355E+06    -39.3770E+06     1.44659E+06         24.5622
            1432     2.91424E-03     73.9581E-03         11.7245        -5.06770        -5.29472        -4.90568         11.4012        -5.13343         1.96443     58.3982E-03    -29.1367E-03    -29.2615E-03    -29.1534E-03     58.3713E-03    -29.2179E-03     3.01315E-03    -37.0342E+06    -40.1681E+06    -242.068E+06    -40.1785E+06    -242.058E+06    -37.0342E+06     883.804E+03         24.6318
            1433     3.88644E-03     73.9622E-03         11.2152        -4.78989        -5.05352        -4.71498         11.1403        -5.05352    -85.1977E-03     58.4307E-03    -29.1777E-03    -29.2530E-03    -29.1714E-03     58.3890E-03    -29.2176E-03     3.80753E-03    -31.3368E+06    -37.8110E+06    -228.395E+06    -37.8208E+06    -228.385E+06    -31.3368E+06    -619.204E+03         24.7340
            1434     4.85727E-03     73.9660E-03         10.8285        -4.49693        -4.96046        -4.44857         10.7801        -4.96046     412.834E-03     58.4886E-03    -29.2051E-03    -29.2835E-03    -29.1875E-03     58.4272E-03    -29.2397E-03     4.60891E-03    -22.7587E+06    -34.2942E+06    -214.106E+06    -34.3358E+06    -214.064E+06    -22.7587E+06    -1.50665E+06         24.8726
            1435     5.82886E-03     73.9719E-03         10.4203        -4.20499        -4.85445        -4.19036         10.4057        -4.85445    -813.340E-03     58.3675E-03    -29.1157E-03    -29.2518E-03    -29.0482E-03     58.2815E-03    -29.2332E-03     5.47181E-03    -16.9185E+06    -29.7266E+06    -196.469E+06    -29.7707E+06    -196.425E+06    -16.9185E+06    -1.44378E+06         25.0526
            1436     6.80059E-03     73.9780E-03         10.0272        -3.94075        -4.73942        -3.89625         9.98274        -4.73942        -1.27118     58.2211E-03    -29.0154E-03    -29.2056E-03    -28.9087E-03     58.1100E-03    -29.2013E-03     6.20346E-03    -13.6004E+06    -26.7826E+06    -180.036E+06    -26.7957E+06    -180.023E+06    -13.6004E+06    -639.307E+03         25.2824
            1437     7.77259E-03     73.9847E-03         9.60066        -3.64878        -4.61625        -3.59997         9.55185        -4.61625        -1.46312     58.1903E-03    -29.0320E-03    -29.1582E-03    -28.8928E-03     58.0510E-03    -29.1582E-03     6.94568E-03    -11.0464E+06    -23.8284E+06    -160.382E+06    -23.8503E+06    -160.360E+06    -11.0464E+06     764.856E+03         25.5770
            1438     8.74366E-03     73.9928E-03         9.10158        -3.28275        -4.48609        -3.27560         9.09444        -4.48609    -567.381E-03     58.1346E-03    -29.0242E-03    -29.1104E-03    -28.8347E-03     57.9451E-03    -29.1104E-03     8.07347E-03    -8.35386E+06    -20.5280E+06    -134.202E+06    -20.5696E+06    -134.160E+06    -8.35386E+06     1.86137E+06         25.9673
            1439     9.71594E-03     74.0016E-03         8.63316        -2.94958        -4.34940        -2.94694         8.63052        -4.34940    -31.0529E-03     57.9792E-03    -28.9331E-03    -29.0461E-03    -28.6684E-03     57.7126E-03    -29.0442E-03     9.58304E-03    -8.13189E+06    -18.6025E+06    -104.417E+06    -18.6616E+06    -104.358E+06    -8.13189E+06     2.12749E+06         26.5272
            1440     10.6878E-03     74.0129E-03         8.15986        -2.62299        -4.20783        -2.62048         8.15735        -4.20783     327.405E-03     57.9177E-03    -28.8938E-03    -29.0239E-03    -28.6591E-03     57.6044E-03    -28.9453E-03     10.4121E-03    -12.4245E+06    -17.2674E+06    -67.7352E+06    -17.0437E+06    -67.5675E+06    -12.8158E+06     2.40994E+06         27.4421
            1441     11.6593E-03     74.0239E-03         7.68147        -2.30304        -4.06307        -2.30113         7.67955        -4.06307     269.118E-03     58.0180E-03    -28.7999E-03    -29.2181E-03    -28.5948E-03     57.3948E-03    -28.7999E-03     14.2174E-03     296.493E+03    -17.1860E+06    -40.2428E+06    -16.6173E+06    -15.6893E+06    -24.8257E+06     3.61274E+06         29.1440
            1442     12.6318E-03     74.0429E-03         7.22251        -2.01085        -3.91740        -2.00683         7.21849        -3.91740    -149.894E-03     59.2746E-03    -28.6668E-03    -30.6079E-03    -28.3769E-03     57.0436E-03    -28.6668E-03     26.6554E-03     51.2949E+06    -18.0566E+06    -32.8340E+06    -17.6693E+06     50.9076E+06    -32.8340E+06     4.22010E+06         32.5054
            1443     13.6025E-03     74.0796E-03         6.79275        -1.74803        -3.77313        -1.73925         6.78398        -3.77313    -543.146E-03     61.3893E-03    -28.7065E-03    -32.6828E-03    -28.1385E-03     56.8450E-03    -28.7065E-03     40.0875E-03     88.3566E+06    -12.6032E+06    -25.0026E+06    -18.0040E+06     88.2676E+06    -19.5127E+06     2.76997E+06         38.8887
            1444     14.5774E-03     74.1258E-03         6.36966        -1.48857        -3.63179        -1.47604         6.35712        -3.63179    -623.883E-03     76.6125E-03    -28.9952E-03    -47.6174E-03    -30.2814E-03     59.2766E-03    -28.9952E-03     82.3284E-03     97.0440E+06     20.3617E+06    -18.5527E+06    -18.4758E+06     96.9672E+06     20.3617E+06     2.74345E+06         49.5204
            1445     15.5454E-03     74.2580E-03         5.96983        -1.25652        -3.49676        -1.23460         5.94791        -3.49676    -779.890E-03     164.605E-03    -29.3779E-03    -135.227E-03    -43.8821E-03     73.2600E-03    -29.3779E-03     272.243E-03     121.433E+06     77.5261E+06    -16.7699E+06    -16.6308E+06     121.294E+06     77.5261E+06     4.07548E+06         63.8265
            1446     16.5264E-03     74.7220E-03         5.54824        -1.02215        -3.36843        -1.00194         5.52803        -3.36843    -712.165E-03     271.563E-03    -29.6440E-03    -241.919E-03    -65.3450E-03     94.9889E-03    -29.6440E-03     487.805E-03     152.449E+06     136.303E+06    -8.89105E+06     -8.8128E+06     151.921E+06     136.753E+06     1.59575E+06         77.6709
            1447     971.329E-06     75.0126E-03         15.5105        -2.41097        -11.7423        -8.09761         11.8658        -2.41097         9.09900     58.4106E-03    -29.0961E-03    -29.3145E-03    -29.1991E-03     58.4057E-03    -29.2065E-03     1.17889E-03    -43.1504E+06    -44.5791E+06    -251.182E+06    -44.2489E+06    -251.172E+06    -43.4899E+06     385.125E+03         24.5186
            1448     1.94322E-03     75.0148E-03         12.6827        -5.24295        -6.09191        -5.19759         11.7884        -5.24295    -675.526E-03     58.4285E-03    -29.1465E-03    -29.2820E-03    -29.1886E-03     58.4154E-03    -29.2268E-03     2.10291E-03    -37.9338E+06    -41.1733E+06    -249.781E+06    -41.1861E+06    -249.768E+06    -37.9338E+06     298.940E+03         24.5592
            1449     2.91459E-03     75.0173E-03         11.9449        -5.15168        -5.46231        -4.96845         11.4934        -5.19405         2.15476     58.5027E-03    -29.1930E-03    -29.3097E-03    -29.2375E-03     58.4786E-03    -29.2411E-03     2.88128E-03    -32.5600E+06    -38.1493E+06    -241.026E+06    -38.1565E+06    -241.019E+06    -32.5600E+06    -342.262E+03         24.6288
            1450     3.88565E-03     75.0207E-03         11.3540        -4.90254        -5.11534        -4.78595         11.2375        -5.11534    -244.700E-03     58.4653E-03    -29.1645E-03    -29.3008E-03    -29.1835E-03     58.4238E-03    -29.2403E-03     3.77544E-03    -28.8289E+06    -35.5202E+06    -226.354E+06    -35.5360E+06    -226.338E+06    -28.8289E+06    -1.40013E+06         24.7308
            1451     4.85754E-03     75.0258E-03         10.9396        -4.58509        -5.02346        -4.51549         10.8700        -5.02346     454.606E-03     58.4466E-03    -29.1683E-03    -29.2782E-03    -29.1476E-03     58.3820E-03    -29.2344E-03     4.72818E-03    -24.6506E+06    -33.2564E+06    -211.960E+06    -33.3183E+06    -211.898E+06    -24.6506E+06    -3.05964E+06         24.8690
            1452     5.82876E-03     75.0306E-03         10.4910        -4.25355        -4.91583        -4.23258         10.4700        -4.91583    -888.195E-03     58.3261E-03    -29.0893E-03    -29.2367E-03    -29.0146E-03     58.2371E-03    -29.2226E-03     5.55961E-03    -19.8104E+06    -31.0016E+06    -197.331E+06    -31.0664E+06    -197.267E+06    -19.8104E+06    -2.90861E+06         25.0486
            1453     6.80075E-03     75.0369E-03         10.0960        -3.99268        -4.79798        -3.94369         10.0470        -4.79798        -1.25871     58.2140E-03    -29.0230E-03    -29.1910E-03    -28.9085E-03     58.0995E-03    -29.1910E-03     6.30181E-03    -15.6986E+06    -27.7435E+06    -180.480E+06    -27.7729E+06    -180.451E+06    -15.6986E+06    -1.81166E+06         25.2781
            1454     7.77207E-03     75.0439E-03         9.67423        -3.70661        -4.67333        -3.65281         9.62043        -4.67333        -1.52344     58.1841E-03    -29.0386E-03    -29.1455E-03    -28.8935E-03     58.0390E-03    -29.1455E-03     7.09067E-03    -13.6806E+06    -24.6749E+06    -161.066E+06    -24.6940E+06    -161.047E+06    -13.6806E+06    -1.31654E+06         25.5721
            1455     8.74443E-03     75.0516E-03         9.15537        -3.32335        -4.54161        -3.31567         9.14769        -4.54161    -609.122E-03     58.0712E-03    -28.9746E-03    -29.0966E-03    -28.7832E-03     57.8798E-03    -29.0966E-03     8.12824E-03    -11.0851E+06    -21.7908E+06    -135.755E+06    -21.8190E+06    -135.727E+06    -11.0851E+06    -108.911E+03         25.9605
            1456     9.71580E-03     75.0607E-03         8.65809        -2.96702        -4.40179        -2.96353         8.65459        -4.40179    -88.7678E-03     58.0455E-03    -28.9579E-03    -29.0876E-03    -28.7316E-03     57.7661E-03    -29.0345E-03     9.78988E-03    -8.99432E+06    -17.9182E+06    -103.945E+06    -17.9513E+06    -103.912E+06    -8.99432E+06     285.813E+03         26.5159
            1457     10.6876E-03     75.0718E-03         8.16405        -2.62480        -4.25586        -2.62279         8.16204        -4.25586     293.679E-03     57.9361E-03    -28.9174E-03    -29.0187E-03    -28.6641E-03     57.6032E-03    -28.9391E-03     10.7354E-03    -11.9281E+06    -16.6635E+06    -68.4709E+06    -15.1320E+06    -68.4015E+06    -13.5291E+06     987.387E+03         27.4199
            1458     11.6598E-03     75.0832E-03         7.69245        -2.31686        -4.10720        -2.31543         7.69102        -4.10720     236.065E-03     57.7870E-03    -28.7634E-03    -29.0236E-03    -28.3656E-03     57.1507E-03    -28.7851E-03     14.3292E-03     204.212E+03    -16.5897E+06    -42.1935E+06    -14.7414E+06    -18.1375E+06    -25.7001E+06     3.11372E+06         29.1003
            1459     12.6316E-03     75.1015E-03         7.23292        -2.02933        -3.95853        -2.02561         7.22921        -3.95853    -144.378E-03     59.1018E-03    -28.6370E-03    -30.4647E-03    -28.2085E-03     56.8455E-03    -28.6370E-03     26.7867E-03     51.2642E+06    -16.0674E+06    -32.7527E+06    -15.6645E+06     50.8613E+06    -32.7527E+06     4.36353E+06         32.4296
            1460     13.6061E-03     75.1387E-03         6.78398        -1.75306        -3.81097        -1.74491         6.77583        -3.81097    -522.954E-03     62.0876E-03    -28.6999E-03    -33.3877E-03    -28.7603E-03     57.4602E-03    -28.6999E-03     40.7724E-03      89.514E+06    -10.9247E+06    -26.2481E+06    -18.4710E+06     89.3119E+06    -18.4997E+06     4.40900E+06         38.7817
            1461     14.5740E-03     75.1875E-03         6.35403        -1.49524        -3.66544        -1.48358         6.34238        -3.66544    -601.243E-03     77.4970E-03    -29.0000E-03    -48.4969E-03    -30.0709E-03     59.0710E-03    -29.0000E-03     84.6801E-03     96.2363E+06     20.4725E+06    -19.8964E+06    -19.6941E+06     96.0340E+06     20.4725E+06     4.57087E+06         49.4257
            1462     15.5495E-03     75.3178E-03         5.93733        -1.25944        -3.52291        -1.23891         5.91680        -3.52291    -752.590E-03     163.708E-03    -29.3510E-03    -134.357E-03    -43.1801E-03     72.5312E-03    -29.3510E-03     271.667E-03     122.774E+06     77.3920E+06    -14.3197E+06    -14.1438E+06     122.598E+06     77.3920E+06     4.63856E+06         63.8270
            1463     16.5206E-03     75.7748E-03         5.48060        -1.00498        -3.38051    -985.812E-03         5.46143        -3.38051    -690.369E-03     270.731E-03    -29.6260E-03    -241.105E-03    -65.6942E-03     95.3202E-03    -29.6260E-03     485.840E-03     156.037E+06     136.930E+06    -6.61515E+06    -6.51701E+06     155.740E+06     137.129E+06     2.75808E+06         77.8161
            1464     971.752E-06     76.0721E-03         16.4115        -2.31584        -12.7681        -8.13494         11.7784        -2.31584         10.2370     58.4405E-03    -29.0648E-03    -29.3757E-03    -29.3719E-03     58.4367E-03    -29.0648E-03     1.07935E-03    -41.6069E+06    -45.0869E+06    -249.896E+06    -44.7585E+06    -249.885E+06    -41.9463E+06    -540.704E+03         24.5157
            1465     1.94268E-03     76.0734E-03         12.8927        -5.20980        -6.35847        -5.15232         11.6865        -5.20980        -1.09279     58.5319E-03    -29.2328E-03    -29.2990E-03    -29.2610E-03     58.5192E-03    -29.2582E-03     2.03000E-03    -37.7151E+06    -42.6501E+06    -249.333E+06    -42.6608E+06    -249.323E+06    -37.7151E+06    -923.017E+03         24.5561
            1466     2.91431E-03     76.0766E-03         12.0174        -5.15235        -5.55944        -4.97166         11.4405        -5.16329         2.31393     58.4832E-03    -29.1951E-03    -29.2881E-03    -29.2009E-03     58.4582E-03    -29.2573E-03     2.93675E-03    -34.8851E+06    -40.2039E+06    -239.766E+06    -39.6362E+06    -239.726E+06    -35.4924E+06    -1.48719E+06         24.6252
            1467     3.88587E-03     76.0800E-03         11.3371        -4.92627        -5.10239        -4.77823         11.1786        -5.09190    -381.889E-03     58.4062E-03    -29.1470E-03    -29.2592E-03    -29.1325E-03     58.3609E-03    -29.2283E-03     3.93244E-03    -32.4397E+06    -36.7800E+06    -223.917E+06    -36.2343E+06    -223.855E+06    -33.0471E+06    -2.88563E+06         24.7267
            1468     4.85729E-03     76.0844E-03         10.9010        -4.59874        -5.00300        -4.50896         10.8112        -5.00300     485.546E-03     58.2918E-03    -29.0891E-03    -29.2028E-03    -29.0224E-03     58.2252E-03    -29.2028E-03     4.81898E-03    -29.3699E+06    -34.5637E+06    -210.533E+06    -34.6245E+06    -210.472E+06    -29.3699E+06    -3.25157E+06         24.8646
            1469     5.82930E-03     76.0899E-03         10.4639        -4.27833        -4.89924        -4.25067         10.4362        -4.89924    -945.739E-03     58.2612E-03    -29.0769E-03    -29.1843E-03    -28.9888E-03     58.1732E-03    -29.1843E-03     5.52475E-03    -23.9705E+06    -32.8440E+06    -196.935E+06    -32.9435E+06    -196.835E+06    -23.9705E+06    -3.90532E+06         25.0443
            1470     6.80052E-03     76.0957E-03         10.0807        -4.02295        -4.78666        -3.97142         10.0291        -4.78666        -1.22536     58.2462E-03    -29.0841E-03    -29.1621E-03    -28.9643E-03     58.1264E-03    -29.1621E-03     6.44761E-03    -19.1077E+06    -29.5193E+06    -180.326E+06    -29.6493E+06    -180.196E+06    -19.1077E+06    -4.17805E+06         25.2739
            1471     7.77267E-03     76.1029E-03         9.65729        -3.73210        -4.66623        -3.67593         9.60113        -4.66623        -1.53874     58.1277E-03    -29.0038E-03    -29.1238E-03    -28.8555E-03     57.9793E-03    -29.1238E-03     7.17718E-03    -16.3213E+06    -25.7047E+06    -161.383E+06    -25.8182E+06    -161.270E+06    -16.3213E+06    -3.61635E+06         25.5675
            1472     8.74379E-03     76.1105E-03         9.13275        -3.34185        -4.53719        -3.33422         9.12511        -4.53719    -613.484E-03     58.0188E-03    -28.9398E-03    -29.0790E-03    -28.7575E-03     57.8217E-03    -29.0642E-03     8.22790E-03    -14.4832E+06    -21.2438E+06    -135.676E+06    -21.3091E+06    -135.482E+06    -14.6116E+06    -3.83736E+06         25.9544
            1473     9.71623E-03     76.1197E-03         8.63393        -2.98326        -4.39903        -2.97923         8.62990        -4.39903    -108.273E-03     57.9946E-03    -28.9293E-03    -29.0653E-03    -28.7016E-03     57.7009E-03    -28.9993E-03     10.0369E-03    -12.8747E+06    -17.6140E+06    -105.025E+06    -17.6406E+06    -104.870E+06    -13.0031E+06    -2.79376E+06         26.5056
            1474     10.6879E-03     76.1313E-03         8.14194        -2.64392        -4.25442        -2.64204         8.14006        -4.25442     283.887E-03     57.8075E-03    -28.8442E-03    -28.9633E-03    -28.5521E-03     57.4642E-03    -28.9121E-03     10.8868E-03    -14.1662E+06    -18.2428E+06    -71.4770E+06    -16.4806E+06    -71.4212E+06    -15.9842E+06     337.419E+03         27.3992
            1475     11.6598E-03     76.1416E-03         7.66292        -2.32913        -4.10665        -2.32790         7.66169        -4.10665     219.966E-03     57.7449E-03    -28.7144E-03    -29.0306E-03    -28.3607E-03     57.1170E-03    -28.7563E-03     14.2679E-03    -1.26793E+06    -18.3965E+06    -43.9963E+06    -16.4414E+06    -19.7089E+06    -27.5105E+06     2.57450E+06         29.0580
            1476     12.6329E-03     76.1603E-03         7.19478        -2.03330        -3.95786        -2.02968         7.19116        -3.95786    -143.580E-03     59.2569E-03    -28.6166E-03    -30.6403E-03    -28.3946E-03     57.0112E-03    -28.6166E-03     26.7378E-03     49.9384E+06    -18.0202E+06    -34.6281E+06    -17.6820E+06     49.6002E+06    -34.6281E+06     4.46596E+06         32.3511
            1477     13.6026E-03     76.1983E-03         6.75397        -1.76856        -3.80974        -1.76130         6.74671        -3.80974    -495.284E-03     61.8863E-03    -28.6626E-03    -33.2237E-03    -28.3717E-03     57.0343E-03    -28.6626E-03     41.4951E-03     87.9895E+06    -14.8172E+06    -27.6609E+06    -19.7685E+06     87.5911E+06    -22.3112E+06     6.45491E+06         38.6675
            1478     14.5778E-03     76.2483E-03         6.32802        -1.51880        -3.66334        -1.50839         6.31761        -3.66334    -565.880E-03     76.6214E-03    -28.9216E-03    -47.6997E-03    -29.2000E-03     58.1217E-03    -28.9216E-03     84.5904E-03     97.4036E+06     17.9373E+06    -18.8981E+06    -18.5866E+06     97.0921E+06     17.9373E+06     5.53465E+06         49.3236
            1479     15.5503E-03     76.3739E-03         5.88544        -1.26349        -3.51565        -1.24492         5.86687        -3.51565    -714.486E-03     164.195E-03    -29.2707E-03    -134.924E-03    -43.6404E-03     72.9111E-03    -29.2707E-03     272.612E-03     122.511E+06     76.7761E+06    -14.1337E+06    -14.0500E+06     122.427E+06     76.7761E+06     2.98933E+06         63.8186
            1480     16.5234E-03     76.8421E-03         5.40051    -987.625E-03        -3.36019    -970.386E-03         5.38327        -3.36019    -650.872E-03     271.076E-03    -29.5900E-03    -241.486E-03    -66.5700E-03     96.1600E-03    -29.5900E-03     486.037E-03     157.941E+06     138.024E+06    -7.85864E+06    -7.80807E+06     157.891E+06     138.024E+06     2.86150E+06         77.9512
            1481     971.258E-06     77.1311E-03         16.9299        -2.15532        -13.4681        -8.05311         11.5149        -2.15532         11.0114     58.4944E-03    -29.1404E-03    -29.3540E-03    -29.3384E-03     58.4894E-03    -29.1510E-03     1.18137E-03    -41.6502E+06    -45.2030E+06    -248.669E+06    -44.9695E+06    -248.647E+06    -41.9063E+06     746.447E+03         24.5125
            1482     1.94295E-03     77.1328E-03         12.9085        -5.09055        -6.51258        -5.03861         11.4345        -5.09055        -1.39301     58.5288E-03    -29.2349E-03    -29.2939E-03    -29.2447E-03     58.5151E-03    -29.2705E-03     2.13309E-03    -38.8805E+06    -42.9647E+06    -248.058E+06    -43.0000E+06    -248.023E+06    -38.8805E+06    -339.039E+03         24.5526
            1483     2.91422E-03     77.1354E-03         11.9060        -5.04919        -5.56675        -4.88140         11.2207        -5.04919         2.42053     58.3827E-03    -29.1523E-03    -29.2305E-03    -29.1237E-03     58.3542E-03    -29.2305E-03     3.10073E-03    -39.6056E+06    -42.1785E+06    -236.652E+06    -41.6406E+06    -236.583E+06    -40.2130E+06    -2.82159E+06         24.6213
            1484     3.88595E-03     77.1389E-03         11.1559        -4.85663        -5.01337        -4.69163         10.9617        -4.98414    -510.295E-03     58.3069E-03    -29.1195E-03    -29.1875E-03    -29.0734E-03     58.2608E-03    -29.1875E-03     3.99090E-03    -38.0378E+06    -41.1223E+06    -221.946E+06    -40.6321E+06    -221.829E+06    -38.6452E+06    -4.46076E+06         24.7225
            1485     4.85761E-03     77.1435E-03         10.7261        -4.54980        -4.90139        -4.44576         10.6221        -4.90139     496.895E-03     58.2494E-03    -29.0783E-03    -29.1712E-03    -29.0132E-03     58.1843E-03    -29.1712E-03     4.74341E-03    -32.7906E+06    -37.6326E+06    -209.178E+06    -37.8005E+06    -209.010E+06    -32.7906E+06    -5.03742E+06         24.8603
            1486     5.82901E-03     77.1486E-03         10.3108        -4.24625        -4.80577        -4.21339         10.2779        -4.80577    -961.898E-03     58.2053E-03    -29.0527E-03    -29.1526E-03    -28.9626E-03     58.1152E-03    -29.1526E-03     5.58925E-03    -26.5731E+06    -33.3841E+06    -194.282E+06    -33.6541E+06    -194.012E+06    -26.5731E+06    -6.26830E+06         25.0403
            1487     6.80109E-03     77.1549E-03         9.94744        -4.00232        -4.70196        -3.95010         9.89523        -4.70196        -1.16654     58.1920E-03    -29.0595E-03    -29.1326E-03    -28.9409E-03     58.0735E-03    -29.1326E-03     6.41563E-03    -21.5782E+06    -29.4255E+06    -180.143E+06    -29.7578E+06    -179.810E+06    -21.5782E+06    -6.94198E+06         25.2703
            1488     7.77219E-03     77.1618E-03         9.53182        -3.71175        -4.58914        -3.65588         9.47596        -4.58914        -1.49860     58.0602E-03    -28.9736E-03    -29.0866E-03    -28.8251E-03     57.9116E-03    -29.0866E-03     7.17474E-03    -19.5097E+06    -24.7726E+06    -160.614E+06    -25.2363E+06    -160.151E+06    -19.5097E+06    -7.36572E+06         25.5639
            1489     8.74484E-03     77.1693E-03         9.03090        -3.33907        -4.46695        -3.33255         9.02437        -4.46695    -566.157E-03     57.9890E-03    -28.9432E-03    -29.0458E-03    -28.7541E-03     57.7851E-03    -29.0310E-03     8.36936E-03    -17.2359E+06    -21.6373E+06    -134.968E+06    -22.0005E+06    -134.476E+06    -17.3643E+06    -6.96064E+06         25.9497
            1490     9.71598E-03     77.1788E-03         8.56780        -3.01112        -4.33654        -3.00671         8.56339        -4.33654    -71.7235E-03     57.9007E-03    -28.9070E-03    -28.9937E-03    -28.6322E-03     57.6111E-03    -28.9789E-03     9.97783E-03    -15.1090E+06    -21.0471E+06    -108.658E+06    -21.1422E+06    -108.434E+06    -15.2374E+06    -3.97519E+06         26.4969
            1491     10.6884E-03     77.1897E-03         8.09404        -2.68310        -4.20007        -2.68071         8.09165        -4.20007     315.802E-03     57.6819E-03    -28.7925E-03    -28.8894E-03    -28.4609E-03     57.3503E-03    -28.8894E-03     10.6849E-03    -16.9182E+06    -20.6422E+06    -74.3865E+06    -20.0078E+06    -74.3299E+06    -17.6093E+06    -661.785E+03         27.3802
            1492     11.6607E-03     77.2008E-03         7.60407        -2.35163        -4.05884        -2.35028         7.60272        -4.05884     230.546E-03     57.8933E-03    -28.6948E-03    -29.1985E-03    -28.5221E-03     57.2623E-03    -28.7401E-03     14.3106E-03    -4.51790E+06    -20.0961E+06    -44.8109E+06    -19.2540E+06    -21.7468E+06    -28.4241E+06     1.89368E+06         29.0165
            1493     12.6314E-03     77.2194E-03         7.13367        -2.05061        -3.91440        -2.04719         7.13026        -3.91440    -121.917E-03     59.1890E-03    -28.5918E-03    -30.5971E-03    -28.2939E-03     56.8857E-03    -28.5918E-03     26.9899E-03     47.0692E+06    -20.5451E+06    -38.1079E+06    -20.2016E+06     46.7258E+06    -38.1079E+06     4.53551E+06         32.2711
            1494     13.6058E-03     77.2577E-03         6.69778        -1.78798        -3.76940        -1.78172         6.69152        -3.76940    -459.453E-03     61.2699E-03    -28.5942E-03    -32.6756E-03    -27.7107E-03     56.3049E-03    -28.5942E-03     41.6977E-03     86.5963E+06    -18.7893E+06    -29.8042E+06    -20.1836E+06     86.2106E+06    -28.0242E+06     6.32842E+06         38.5499
            1495     14.5777E-03     77.3052E-03         6.25953        -1.52601        -3.62430        -1.51709         6.25061        -3.62430    -521.061E-03     76.1484E-03    -28.8171E-03    -47.3313E-03    -28.6763E-03     57.4934E-03    -28.8171E-03     84.6956E-03     99.4833E+06     13.3849E+06    -19.7699E+06    -19.4536E+06     99.1671E+06     13.3849E+06     5.68570E+06         49.2155
            1496     15.5510E-03     77.4354E-03         5.80206        -1.25747        -3.47256        -1.24117         5.78576        -3.47256    -665.158E-03     164.880E-03    -29.1529E-03    -135.727E-03    -43.4239E-03     72.5769E-03    -29.1529E-03     274.470E-03     124.242E+06     74.0163E+06    -18.2710E+06    -18.1602E+06     124.131E+06     74.0163E+06     3.35430E+06         63.8134
            1497     16.5258E-03     77.8998E-03         5.31099    -977.679E-03        -3.30562    -962.321E-03         5.29563        -3.30562    -611.028E-03     271.230E-03    -29.4866E-03    -241.744E-03    -67.1379E-03     96.6245E-03    -29.4866E-03     486.131E-03     158.006E+06     136.212E+06    -11.9887E+06    -11.9352E+06     157.953E+06     136.212E+06     955.179E+03         78.1078
            1498     971.625E-06     78.1897E-03         17.0055        -1.95306        -13.7593        -7.86735         11.1136        -1.95306         11.3999     58.5023E-03    -29.1890E-03    -29.3133E-03    -29.2580E-03     58.4974E-03    -29.2394E-03     1.15733E-03    -46.5627E+06    -48.6802E+06    -248.259E+06    -47.6032E+06    -248.227E+06    -47.6717E+06    -254.380E+03         24.5091
            1499     1.94281E-03     78.1922E-03         12.6743        -4.89351        -6.49274        -4.82941         11.0109        -4.89351        -1.53484     58.4194E-03    -29.1668E-03    -29.2526E-03    -29.1547E-03     58.4073E-03    -29.2526E-03     2.01472E-03    -41.2348E+06    -43.6465E+06    -245.136E+06    -43.5680E+06    -245.061E+06    -41.3891E+06    -2.19667E+06         24.5492
            1500     2.91459E-03     78.1940E-03         11.5895        -4.85073        -5.45772        -4.69400         10.8258        -4.85073         2.50268     58.3938E-03    -29.1692E-03    -29.2245E-03    -29.1428E-03     58.3673E-03    -29.2245E-03     2.96634E-03    -36.8306E+06    -40.1819E+06    -232.844E+06    -40.2728E+06    -232.753E+06    -36.8306E+06    -4.13442E+06         24.6180
            1501     3.88597E-03     78.1982E-03         10.8160        -4.70944        -4.83375        -4.53222         10.5964        -4.79139    -542.211E-03     58.3173E-03    -29.1199E-03    -29.1974E-03    -29.0764E-03     58.2738E-03    -29.1974E-03     3.88360E-03    -33.6459E+06    -37.8932E+06    -219.111E+06    -38.0760E+06    -218.928E+06    -33.6459E+06    -5.49562E+06         24.7193
            1502     4.85745E-03     78.2022E-03         10.4179        -4.44170        -4.71884        -4.32701         10.3032        -4.71884     544.533E-03     58.2480E-03    -29.0732E-03    -29.1748E-03    -29.0180E-03     58.1846E-03    -29.1665E-03     4.67770E-03    -30.5122E+06    -34.3828E+06    -205.675E+06    -34.8022E+06    -205.256E+06    -30.5122E+06    -8.18128E+06         24.8571
            1503     5.82942E-03     78.2077E-03         10.0133        -4.13855        -4.63430        -4.10326         9.97797        -4.63430    -909.581E-03     58.2197E-03    -29.0710E-03    -29.1487E-03    -28.9893E-03     58.1297E-03    -29.1405E-03     5.58829E-03    -26.5359E+06    -30.4443E+06    -191.746E+06    -31.0448E+06    -191.145E+06    -26.5359E+06    -9.67742E+06         25.0373
            1504     6.80059E-03     78.2138E-03         9.68172        -3.91805        -4.54069        -3.86649         9.63016        -4.54069        -1.07250     58.1298E-03    -29.0082E-03    -29.1216E-03    -28.8938E-03     58.0154E-03    -29.1216E-03     6.30040E-03    -21.2525E+06    -26.4745E+06    -178.627E+06    -27.1846E+06    -177.917E+06    -21.2525E+06    -10.1563E+06         25.2677
            1505     7.77311E-03     78.2205E-03         9.30949        -3.65970        -4.43918        -3.60590         9.25569        -4.43918        -1.42202     58.0725E-03    -28.9880E-03    -29.0844E-03    -28.8501E-03     57.9303E-03    -29.0803E-03     7.01663E-03    -18.6759E+06    -23.7445E+06    -159.533E+06    -24.5249E+06    -158.752E+06    -18.6759E+06    -10.0272E+06         25.5615
            1506     8.74408E-03     78.2282E-03         8.86350        -3.33035        -4.32995        -3.32531         8.85846        -4.32995    -494.270E-03     57.9735E-03    -28.9329E-03    -29.0406E-03    -28.7479E-03     57.7843E-03    -29.0364E-03     8.07096E-03    -16.4569E+06    -23.3094E+06    -136.819E+06    -23.8257E+06    -136.302E+06    -16.4569E+06    -7.36769E+06         25.9464
            1507     9.71663E-03     78.2376E-03         8.44554        -3.03583        -4.21358        -3.03115         8.44086        -4.21358    -15.7516E-03     57.8428E-03    -28.8625E-03    -28.9803E-03    -28.5904E-03     57.5707E-03    -28.9803E-03     9.65157E-03    -15.1861E+06    -22.8725E+06    -111.345E+06    -23.0916E+06    -111.126E+06    -15.1861E+06    -4.34484E+06         26.4897
            1508     10.6882E-03     78.2484E-03         7.99139        -2.71661        -4.09038        -2.71340         7.98819        -4.09038     362.720E-03     57.7619E-03    -28.8234E-03    -28.9385E-03    -28.5618E-03     57.4429E-03    -28.8811E-03     10.4949E-03    -18.0684E+06    -22.3561E+06    -76.2212E+06    -21.1087E+06    -76.0441E+06    -19.4930E+06    -2.84491E+06         27.3626
            1509     11.6601E-03     78.2597E-03         7.52155        -2.39431        -3.96081        -2.39250         7.51974        -3.96081     266.591E-03     57.7352E-03    -28.6851E-03    -29.0501E-03    -28.3675E-03     57.1010E-03    -28.7335E-03     14.2590E-03    -7.50987E+06    -21.2521E+06    -47.6177E+06    -19.6538E+06    -26.4658E+06    -30.2601E+06     664.429E+03         28.9759
            1510     12.6330E-03     78.2791E-03         7.06204        -2.09427        -3.82634        -2.09128         7.05905        -3.82634    -65.1064E-03     58.8306E-03    -28.5417E-03    -30.2890E-03    -28.0498E-03     56.6148E-03    -28.5650E-03     26.5302E-03     44.5509E+06    -20.1655E+06    -39.9402E+06    -19.7705E+06     44.1559E+06    -39.9402E+06     4.38868E+06         32.1932
            1511     13.6049E-03     78.3141E-03         6.60744        -1.80541        -3.68854        -1.80063         6.60267        -3.68854    -397.942E-03     60.9528E-03    -28.5528E-03    -32.4000E-03    -27.6851E-03     56.2379E-03    -28.5528E-03     40.5459E-03     86.2145E+06    -19.8256E+06    -31.4328E+06    -20.4271E+06     85.9753E+06    -30.5922E+06     4.99416E+06         38.4342
            1512     14.5792E-03     78.3655E-03         6.15340        -1.52269        -3.54707        -1.51533         6.14604        -3.54707    -467.853E-03     75.4104E-03    -28.7720E-03    -46.6384E-03    -28.3776E-03     57.1496E-03    -28.7720E-03     83.1595E-03     99.4414E+06     11.3005E+06    -19.9327E+06    -19.6250E+06     99.1337E+06     11.3005E+06     5.95156E+06         49.1055
            1513     15.5548E-03     78.4906E-03         5.69372        -1.25055        -3.39350        -1.23536         5.67853        -3.39350    -632.755E-03     164.197E-03    -29.0786E-03    -135.118E-03    -42.6005E-03     71.6791E-03    -29.0786E-03     273.712E-03     128.717E+06     73.8516E+06    -16.3248E+06    -16.0463E+06     128.439E+06     73.8516E+06     5.81099E+06         63.8150
            1514     16.5276E-03     78.9648E-03         5.20145    -970.552E-03        -3.21770    -955.843E-03         5.18674        -3.21770    -591.284E-03     272.151E-03    -29.4052E-03    -242.746E-03    -67.9082E-03     97.3133E-03    -29.4052E-03     487.649E-03     161.533E+06     136.029E+06    -9.85136E+06    -9.74559E+06     161.427E+06     136.029E+06     1.82815E+06         78.2931
            1515     971.017E-06     79.2497E-03         16.6114        -1.67233        -13.6518        -7.58099         10.5406        -1.67233         11.4500     58.5699E-03    -29.1988E-03    -29.3711E-03    -29.3181E-03     58.5665E-03    -29.2484E-03     1.07708E-03    -44.6464E+06    -47.9506E+06    -244.921E+06    -47.1663E+06    -244.853E+06    -45.4993E+06    -1.76256E+06         24.5061
            1516     1.94295E-03     79.2503E-03         12.1717        -4.60400        -6.28456        -4.51744         10.4046        -4.60400        -1.51160     58.4639E-03    -29.1895E-03    -29.2744E-03    -29.1781E-03     58.4524E-03    -29.2744E-03     1.89319E-03    -42.8164E+06    -45.1859E+06    -240.127E+06    -45.1618E+06    -239.997E+06    -42.9706E+06    -4.96123E+06         24.5467
            1517     2.91425E-03     79.2537E-03         11.0680        -4.55871        -5.23225        -4.42205         10.2578        -4.55871         2.58018     58.3833E-03    -29.1417E-03    -29.2416E-03    -29.1179E-03     58.3595E-03    -29.2416E-03     2.86310E-03    -38.4523E+06    -41.6986E+06    -229.166E+06    -41.9119E+06    -228.953E+06    -38.4523E+06    -6.02908E+06         24.6159
            1518     3.88580E-03     79.2567E-03         10.3070        -4.47676        -4.56306        -4.29820         10.0739        -4.50851    -455.648E-03     58.2748E-03    -29.0773E-03    -29.1975E-03    -29.0360E-03     58.2335E-03    -29.1975E-03     3.75574E-03    -34.8148E+06    -38.2061E+06    -214.866E+06    -38.1088E+06    -214.481E+06    -35.2972E+06    -7.89518E+06         24.7173
            1519     4.85773E-03     79.2614E-03         9.96989        -4.27083        -4.45053        -4.14717         9.84622        -4.45053     635.759E-03     58.2440E-03    -29.0821E-03    -29.1619E-03    -29.0266E-03     58.1803E-03    -29.1536E-03     4.70082E-03    -32.9484E+06    -35.1514E+06    -200.616E+06    -35.3866E+06    -199.898E+06    -33.4307E+06    -10.6303E+06         24.8553
            1520     5.82884E-03     79.2666E-03         9.59551        -3.98423        -4.38258        -3.94938         9.56066        -4.38258    -820.511E-03     58.2072E-03    -29.0664E-03    -29.1408E-03    -28.9883E-03     58.1208E-03    -29.1326E-03     5.47267E-03    -29.7998E+06    -32.0126E+06    -189.572E+06    -33.0100E+06    -188.575E+06    -29.7998E+06    -12.3933E+06         25.0358
            1521     6.80116E-03     79.2726E-03         9.30842        -3.79234        -4.30474        -3.74304         9.25912        -4.30474    -966.377E-03     58.1516E-03    -29.0315E-03    -29.1201E-03    -28.9225E-03     58.0425E-03    -29.1201E-03     6.15598E-03    -24.1609E+06    -29.6239E+06    -176.256E+06    -30.7336E+06    -175.146E+06    -24.1609E+06    -12.6317E+06         25.2664
            1522     7.77215E-03     79.2794E-03         9.00883        -3.59067        -4.22041        -3.54041         8.95857        -4.22041        -1.32609     58.1022E-03    -29.0059E-03    -29.0963E-03    -28.8737E-03     57.9658E-03    -29.0921E-03     6.87390E-03    -21.0021E+06    -27.9146E+06    -160.171E+06    -28.8699E+06    -159.216E+06    -21.0021E+06    -11.0997E+06         25.5602
            1523     8.74451E-03     79.2874E-03         8.63107        -3.31289        -4.13050        -3.30926         8.62744        -4.13050    -414.567E-03     57.9861E-03    -28.9329E-03    -29.0532E-03    -28.7623E-03     57.8078E-03    -29.0455E-03     7.84575E-03    -19.4341E+06    -25.1097E+06    -139.262E+06    -25.8184E+06    -138.554E+06    -19.4341E+06    -8.71792E+06         25.9440
            1524     9.71596E-03     79.2959E-03         8.24682        -3.03602        -4.03289        -3.03150         8.24229        -4.03289     39.1365E-03     57.9057E-03    -28.9120E-03    -28.9937E-03    -28.6625E-03     57.6463E-03    -28.9839E-03     9.41876E-03    -16.4992E+06    -21.6426E+06    -112.078E+06    -21.0358E+06    -111.379E+06    -17.8051E+06    -7.57867E+06         26.4835
            1525     10.6883E-03     79.3077E-03         7.82682        -2.73665        -3.92652        -2.73264         7.82280        -3.92652     405.308E-03     57.7792E-03    -28.8283E-03    -28.9509E-03    -28.5785E-03     57.4656E-03    -28.8871E-03     10.4067E-03    -16.6922E+06    -23.1794E+06    -79.2863E+06    -18.1214E+06    -78.8342E+06    -22.2024E+06    -4.79388E+06         27.3461
            1526     11.6600E-03     79.3185E-03         7.39426        -2.43761        -3.81261        -2.43497         7.39162        -3.81261     320.336E-03     57.5844E-03    -28.6597E-03    -28.9247E-03    -28.2732E-03     57.0080E-03    -28.7348E-03     13.6519E-03    -9.10136E+06    -22.5949E+06    -51.7718E+06    -18.3301E+06    -31.4220E+06    -33.7159E+06    -382.966E+03         28.9374
            1527     12.6328E-03     79.3364E-03         6.94701        -2.13451        -3.69185        -2.13176         6.94425        -3.69185     2.17593E-03     58.8005E-03    -28.5363E-03    -30.2642E-03    -28.0713E-03     56.6309E-03    -28.5596E-03     26.0371E-03     41.0803E+06    -18.7205E+06    -43.1409E+06    -18.4584E+06     40.8182E+06    -43.1409E+06     3.17091E+06         32.1187
            1528     13.6050E-03     79.3751E-03         6.49268        -1.83396        -3.56482        -1.83070         6.48942        -3.56482    -326.617E-03     61.0643E-03    -28.5608E-03    -32.5035E-03    -28.0211E-03     56.5820E-03    -28.5608E-03     39.7276E-03     85.7791E+06    -19.2586E+06    -33.5632E+06    -19.7804E+06     85.4762E+06    -32.7385E+06     5.39184E+06         38.3219
            1529     14.5778E-03     79.4204E-03         6.04092        -1.54432        -3.43110        -1.53810         6.03470        -3.43110    -421.524E-03     75.3646E-03    -28.8101E-03    -46.5545E-03    -28.9212E-03     57.7313E-03    -28.8101E-03     81.6204E-03     98.9372E+06     9.11968E+06    -20.2401E+06    -19.7385E+06     98.6162E+06     8.93913E+06     5.52950E+06         48.9959
            1530     15.5498E-03     79.5511E-03         5.57493        -1.26044        -3.27978        -1.24588         5.56038        -3.27978    -613.083E-03     162.569E-03    -29.1429E-03    -133.426E-03    -42.2848E-03     71.4277E-03    -29.1429E-03     270.130E-03     129.837E+06     72.4939E+06    -14.3857E+06    -14.1786E+06     129.630E+06     72.4939E+06     4.80248E+06         63.8090
            1531     16.5295E-03     80.0154E-03         5.07171    -973.261E-03        -3.09811    -959.059E-03         5.05751        -3.09811    -574.621E-03     272.397E-03    -29.4644E-03    -242.933E-03    -67.3725E-03     96.8368E-03    -29.4644E-03     488.446E-03     166.467E+06     137.950E+06    -6.93485E+06    -6.81662E+06     166.349E+06     137.950E+06     4.15874E+06         78.4946
            1532     971.721E-06     80.3085E-03         15.7361        -1.28707        -13.1713        -7.17404         9.73883        -1.28707         11.1603     58.5213E-03    -29.2002E-03    -29.3211E-03    -29.3075E-03     58.5175E-03    -29.2100E-03     1.09069E-03    -45.0947E+06    -50.3384E+06    -240.849E+06    -48.4702E+06    -240.794E+06    -47.0172E+06    -1.24602E+06         24.5038
            1533     1.94255E-03     80.3098E-03         11.4166        -4.21168        -5.92786        -4.13920         9.62794        -4.21168        -1.37483     58.5281E-03    -29.2253E-03    -29.3027E-03    -29.2530E-03     58.5155E-03    -29.2625E-03     2.00411E-03    -45.6039E+06    -47.7604E+06    -233.265E+06    -47.8763E+06    -233.102E+06    -45.6507E+06    -5.06271E+06         24.5453
            1534     2.91413E-03     80.3125E-03         10.3674        -4.17748        -4.91180        -4.08732         9.54296        -4.17748         2.60960     58.3613E-03    -29.1333E-03    -29.2280E-03    -29.1146E-03     58.3366E-03    -29.2220E-03     2.92226E-03     -45.071E+06    -47.6459E+06    -223.868E+06    -46.0881E+06    -223.384E+06    -47.1120E+06    -8.74617E+06         24.6150
            1535     3.88597E-03     80.3156E-03         9.64434        -4.14050        -4.24055        -4.00476         9.41177        -4.14372    -348.134E-03     58.2750E-03    -29.0946E-03    -29.1805E-03    -29.0589E-03     58.2333E-03    -29.1744E-03     3.77752E-03    -42.6151E+06    -45.4108E+06    -209.946E+06    -43.7661E+06    -209.114E+06    -45.0916E+06    -11.4846E+06         24.7167
            1536     4.85717E-03     80.3204E-03         9.38230        -4.00900        -4.12799        -3.90562         9.25572        -4.10479     688.775E-03     58.2340E-03    -29.0772E-03    -29.1567E-03    -29.0157E-03     58.1724E-03    -29.1567E-03     4.62207E-03    -38.2754E+06    -40.7921E+06    -196.181E+06    -41.3609E+06    -195.130E+06    -38.7578E+06    -12.6284E+06         24.8550
            1537     5.82930E-03     80.3255E-03         9.07519        -3.79303        -4.05819        -3.76008         9.04224        -4.05819    -744.712E-03     58.1966E-03    -29.0519E-03    -29.1447E-03    -28.9690E-03     58.1137E-03    -29.1447E-03     5.35771E-03    -33.1543E+06    -37.5127E+06    -185.737E+06    -38.9155E+06    -184.334E+06    -33.1543E+06    -14.2224E+06         25.0355
            1538     6.80029E-03     80.3316E-03         8.85952        -3.65102        -4.00301        -3.60593         8.81444        -4.00301    -873.474E-03     58.2052E-03    -29.0779E-03    -29.1273E-03    -28.9686E-03     58.0960E-03    -29.1273E-03     6.15882E-03    -29.3550E+06    -34.6097E+06    -174.941E+06    -36.1371E+06    -173.413E+06    -29.3550E+06    -14.4844E+06         25.2662
            1539     7.77250E-03     80.3386E-03         8.62630        -3.49387        -3.94176        -3.44866         8.58108        -3.94176        -1.21096     58.1333E-03    -29.0322E-03    -29.1011E-03    -28.9034E-03     58.0010E-03    -29.0975E-03     6.77894E-03    -27.2770E+06    -31.3773E+06    -160.676E+06    -32.8030E+06    -159.250E+06    -27.2770E+06    -13.3837E+06         25.5597
            1540     8.74385E-03     80.3459E-03         8.30727        -3.25468        -3.87422        -3.25223         8.30481        -3.87422    -335.522E-03     58.0218E-03    -28.9733E-03    -29.0485E-03    -28.8055E-03     57.8470E-03    -29.0415E-03     7.75293E-03    -23.6286E+06    -28.6359E+06    -138.932E+06    -27.5777E+06    -136.986E+06    -26.6319E+06    -14.0291E+06         25.9424
            1541     9.71586E-03     80.3554E-03         7.97283        -3.01168        -3.79774        -3.00689         7.96804        -3.79774     110.103E-03     58.0076E-03    -28.9672E-03    -29.0404E-03    -28.7595E-03     57.7471E-03    -28.9876E-03     9.45859E-03    -19.6272E+06    -25.7182E+06    -114.779E+06    -22.3107E+06    -112.910E+06    -24.9043E+06    -12.6971E+06         26.4783
            1542     10.6873E-03     80.3660E-03         7.60651        -2.74785        -3.71162        -2.74245         7.60111        -3.71162     465.290E-03     57.7903E-03    -28.8317E-03    -28.9586E-03    -28.5825E-03     57.4918E-03    -28.9093E-03     10.1509E-03    -18.5018E+06    -27.0370E+06    -85.0889E+06    -19.3344E+06    -84.2563E+06    -27.0370E+06    -6.95253E+06         27.3315
            1543     11.6600E-03     80.3775E-03         7.20248        -2.45848        -3.61637        -2.45489         7.19890        -3.61637     371.144E-03     57.7344E-03    -28.6852E-03    -29.0492E-03    -28.4272E-03     57.1900E-03    -28.7628E-03     13.2727E-03    -10.7932E+06    -23.7450E+06    -54.8522E+06    -17.5577E+06    -35.0694E+06    -36.7633E+06    -2.29398E+06         28.9021
            1544     12.6314E-03     80.3952E-03         6.78047        -2.16408        -3.51182        -2.16135         6.77775        -3.51182     52.7851E-03     58.9585E-03    -28.5944E-03    -30.3641E-03    -28.2697E-03     56.8640E-03    -28.5944E-03     25.5921E-03     36.3879E+06    -18.2344E+06    -47.0523E+06    -17.9990E+06     36.1525E+06    -47.0523E+06     1.83827E+06         32.0478
            1545     13.6049E-03     80.4330E-03         6.35881        -1.87987        -3.39905        -1.87749         6.35643        -3.39905    -277.806E-03     61.1600E-03    -28.5884E-03    -32.5715E-03    -28.1627E-03     56.7512E-03    -28.5884E-03     39.4313E-03     83.4294E+06    -19.6036E+06    -38.7756E+06    -19.2597E+06     83.0856E+06    -38.7756E+06     5.77131E+06         38.2148
            1546     14.5762E-03     80.4816E-03         5.91546        -1.58530        -3.27712        -1.57924         5.90940        -3.27712    -406.445E-03     75.8597E-03    -28.8668E-03    -46.9928E-03    -29.4642E-03     58.3311E-03    -28.8668E-03     81.8163E-03     101.435E+06     9.90596E+06    -22.6491E+06    -18.9908E+06     101.149E+06     6.53353E+06     5.28845E+06         48.8974
            1547     15.5506E-03     80.6077E-03         5.43838        -1.28436        -3.13162        -1.27013         5.42415        -3.13162    -604.707E-03     162.826E-03    -29.2697E-03    -133.556E-03    -43.4372E-03     72.7070E-03    -29.2697E-03     269.508E-03     129.792E+06     71.2925E+06    -17.0019E+06    -16.8971E+06     129.687E+06     71.2925E+06     3.68208E+06         63.8145
            1548     16.5187E-03     81.0717E-03         4.91326    -982.422E-03        -2.94698    -968.583E-03         4.89942        -2.94698    -563.111E-03     272.839E-03    -29.5916E-03    -243.247E-03    -66.3534E-03     95.9449E-03    -29.5916E-03     489.889E-03     166.959E+06     136.356E+06    -10.1653E+06    -10.0920E+06     166.886E+06     136.356E+06     2.95866E+06         78.7115
            1549     971.307E-06     81.3674E-03         14.4684    -856.756E-03        -12.3392        -6.67528         8.80455    -856.756E-03         10.5260     58.4010E-03    -29.1376E-03    -29.2634E-03    -29.2372E-03     58.3962E-03    -29.1590E-03     1.06305E-03    -48.7990E+06    -53.9942E+06    -236.962E+06    -51.2293E+06    -236.935E+06    -51.5910E+06    -1.52408E+06         24.5022
            1550     1.94297E-03     81.3694E-03         10.4576        -3.75368        -5.43029        -3.70823         8.73550        -3.75368        -1.18555     58.4432E-03    -29.1598E-03    -29.2834E-03    -29.2334E-03     58.4310E-03    -29.1976E-03     2.05135E-03    -48.4441E+06    -50.4788E+06    -224.653E+06    -49.5998E+06    -224.367E+06    -49.6089E+06    -6.00653E+06         24.5446
            1551     2.91434E-03     81.3711E-03         9.52833        -3.73700        -4.50970        -3.71179         8.73041        -3.73700         2.53705     58.4871E-03    -29.1910E-03    -29.2962E-03    -29.2551E-03     58.4625E-03    -29.2074E-03     2.88275E-03    -46.1398E+06    -49.6000E+06    -216.692E+06    -48.0180E+06    -215.984E+06    -48.4292E+06    -10.6731E+06         24.6153
            1552     3.88546E-03     81.3751E-03         8.87037        -3.72364        -3.88112        -3.66218         8.65143        -3.72364    -263.602E-03     58.3948E-03    -29.1514E-03    -29.2434E-03    -29.1545E-03     58.3547E-03    -29.2003E-03     3.73220E-03    -44.4569E+06    -47.6577E+06    -204.246E+06    -46.9708E+06    -202.939E+06    -46.4511E+06    -13.9854E+06         24.7176
            1553     4.85730E-03     81.3791E-03         8.67392        -3.65797        -3.77180        -3.60394         8.55225        -3.70415     680.833E-03     58.2616E-03    -29.0732E-03    -29.1884E-03    -29.0126E-03     58.2010E-03    -29.1884E-03     4.55902E-03    -40.4136E+06    -42.3777E+06    -192.034E+06    -43.9337E+06    -190.277E+06    -40.6146E+06    -15.9207E+06         24.8559
            1554     5.82847E-03     81.3847E-03         8.44924        -3.54748        -3.67860        -3.51699         8.41876        -3.67860    -662.799E-03     58.2619E-03    -29.0890E-03    -29.1729E-03    -29.0056E-03     58.1785E-03    -29.1729E-03     5.38715E-03    -34.6945E+06    -38.3064E+06    -181.951E+06    -40.0226E+06    -180.034E+06    -34.8954E+06    -16.3681E+06         25.0364
            1555     6.80064E-03     81.3906E-03         8.33093        -3.47799        -3.64784        -3.43733         8.29028        -3.64784    -782.038E-03     58.2535E-03    -29.1012E-03    -29.1523E-03    -28.9955E-03     58.1478E-03    -29.1523E-03     6.05784E-03    -32.0078E+06    -34.6429E+06    -173.006E+06    -36.7919E+06    -170.857E+06    -32.0078E+06    -17.0125E+06         25.2667
            1556     7.77173E-03     81.3976E-03         8.15103        -3.35111        -3.61165        -3.31099         8.11091        -3.61165        -1.08999     58.1810E-03    -29.0652E-03    -29.1158E-03    -28.9370E-03     58.0492E-03    -29.1122E-03     6.76386E-03    -28.0800E+06    -32.1999E+06    -159.009E+06    -32.0841E+06    -156.163E+06    -31.0420E+06    -18.4548E+06         25.5598
            1557     8.74359E-03     81.4051E-03         7.88647        -3.14726        -3.56695        -3.14581         7.88501        -3.56695    -248.834E-03     58.1277E-03    -29.0279E-03    -29.0998E-03    -28.8897E-03     57.9515E-03    -29.0618E-03     7.79404E-03    -24.1677E+06    -30.5690E+06    -137.861E+06    -27.9128E+06    -134.551E+06    -30.1330E+06    -18.7311E+06         25.9415
            1558     9.71534E-03     81.4140E-03         7.62700        -2.95964        -3.51283        -2.95413         7.62149        -3.51283     198.590E-03     58.0680E-03    -28.9704E-03    -29.0976E-03    -28.7915E-03     57.8117E-03    -29.0201E-03     9.39369E-03    -23.7169E+06    -29.5582E+06    -118.860E+06    -26.6355E+06    -116.171E+06    -29.3288E+06    -15.5710E+06         26.4743
            1559     10.6873E-03     81.4256E-03         7.31912        -2.73497        -3.44914        -2.72766         7.31181        -3.44914     534.495E-03     57.9145E-03    -28.8773E-03    -29.0372E-03    -28.6888E-03     57.6212E-03    -28.9325E-03     10.0755E-03    -21.2936E+06    -33.9935E+06    -90.5801E+06    -23.6861E+06    -88.1876E+06    -33.9935E+06    -11.9657E+06         27.3188
            1560     11.6587E-03     81.4356E-03         6.95770        -2.46686        -3.37499        -2.46220         6.95304        -3.37499     418.047E-03     57.9518E-03    -28.7707E-03    -29.1810E-03    -28.5999E-03     57.3965E-03    -28.7966E-03     13.4099E-03    -14.2422E+06    -28.8683E+06    -59.1134E+06    -19.3229E+06    -40.2019E+06    -42.6991E+06    -6.82876E+06         28.8694
            1561     12.6314E-03     81.4551E-03         6.58120        -2.19671        -3.28978        -2.19392         6.57841        -3.28978     99.7487E-03     59.2318E-03    -28.6602E-03    -30.5716E-03    -28.5080E-03     57.1682E-03    -28.6602E-03     25.5877E-03     30.2017E+06    -18.9319E+06    -48.8818E+06    -18.0643E+06     29.3341E+06    -48.8818E+06     739.049E+03         31.9796
            1562     13.6022E-03     81.4913E-03         6.18448        -1.91917        -3.19428        -1.91721         6.18251        -3.19428    -244.855E-03     61.3217E-03    -28.6531E-03    -32.6686E-03    -28.2442E-03     56.8973E-03    -28.6531E-03     39.5009E-03     80.9713E+06    -19.1119E+06    -40.5176E+06    -18.8263E+06     80.6857E+06    -40.5176E+06     5.28176E+06         38.1099
            1563     14.5767E-03     81.5404E-03         5.74934        -1.61956        -3.08626        -1.61364         5.74342        -3.08626    -397.500E-03     76.0889E-03    -28.9273E-03    -47.1616E-03    -29.7346E-03     58.6619E-03    -28.9273E-03     82.0171E-03     102.326E+06     8.68736E+06    -25.2001E+06    -19.5765E+06     101.989E+06     3.40075E+06     6.32182E+06         48.8008
            1564     15.5471E-03     81.6683E-03         5.27453        -1.31498        -2.94859        -1.30125         5.26080        -2.94859    -588.639E-03     162.848E-03    -29.3280E-03    -133.520E-03    -42.9737E-03     72.3017E-03    -29.3280E-03     269.532E-03     132.267E+06     69.7175E+06    -17.7441E+06    -17.5295E+06     132.053E+06     69.7175E+06     5.20076E+06         63.8383
            1565     16.5239E-03     82.1332E-03         4.72661    -994.020E-03        -2.76287    -980.615E-03         4.71321        -2.76287    -547.120E-03     272.846E-03    -29.6132E-03    -243.233E-03    -65.5343E-03     95.1476E-03    -29.6132E-03     490.410E-03     168.801E+06     135.259E+06    -11.0991E+06    -11.0506E+06     168.752E+06     135.259E+06     1.48192E+06         78.9360
            1566     971.488E-06     82.4265E-03         12.9924    -423.675E-03        -11.2824        -6.17515         7.88518    -423.675E-03         9.64523     58.4466E-03    -29.1813E-03    -29.2652E-03    -29.2398E-03     58.4425E-03    -29.2027E-03     997.406E-06    -50.4426E+06    -53.9873E+06    -230.727E+06    -52.1200E+06    -230.583E+06    -52.4540E+06    -3.01661E+06         24.5014
            1567     1.94295E-03     82.4282E-03         9.39531        -3.28585        -4.82151        -3.23590         7.80971        -3.28585    -952.060E-03     58.4409E-03    -29.1810E-03    -29.2599E-03    -29.2183E-03     58.4296E-03    -29.2113E-03     1.93242E-03    -48.5512E+06    -50.6363E+06    -214.802E+06    -49.9081E+06    -214.310E+06    -49.7707E+06    -8.50692E+06         24.5443
            1568     2.91412E-03     82.4309E-03         8.58634        -3.27321        -4.02234        -3.27932         7.84333        -3.27321         2.41055     58.5299E-03    -29.2079E-03    -29.3220E-03    -29.2666E-03     58.5058E-03    -29.2392E-03     2.85245E-03    -44.7159E+06    -48.0847E+06    -209.484E+06    -48.7086E+06    -208.612E+06    -44.9644E+06    -11.7161E+06         24.6157
            1569     3.88548E-03     82.4342E-03         8.00094        -3.27125        -3.45821        -3.25964         7.80238        -3.27125    -150.157E-03     58.4777E-03    -29.1706E-03    -29.3071E-03    -29.2056E-03     58.4364E-03    -29.2309E-03     3.77192E-03    -43.1856E+06    -46.3160E+06    -196.719E+06    -46.9648E+06    -195.210E+06    -44.0458E+06    -14.6960E+06         24.7188
            1570     4.85676E-03     82.4382E-03         7.88543        -3.25377        -3.38306        -3.25600         7.77144        -3.26684     678.663E-03     58.3884E-03    -29.1443E-03    -29.2441E-03    -29.1238E-03     58.3273E-03    -29.2035E-03     4.58895E-03    -42.7686E+06    -44.0912E+06    -185.380E+06    -45.3563E+06    -182.808E+06    -44.0758E+06    -18.7281E+06         24.8575
            1571     5.82873E-03     82.4438E-03         7.73723        -3.22628        -3.28503        -3.22433         7.71076        -3.26053    -552.214E-03     58.3397E-03    -29.1411E-03    -29.1986E-03    -29.0574E-03     58.2546E-03    -29.1972E-03     5.42745E-03    -38.0057E+06    -39.9493E+06    -179.434E+06    -41.7684E+06    -176.170E+06    -39.4502E+06    -20.8705E+06         25.0377
            1572     6.79960E-03     82.4499E-03         7.68947        -3.21109        -3.27197        -3.19588         7.65341        -3.25112    -677.276E-03     58.2905E-03    -29.1024E-03    -29.1880E-03    -28.9960E-03     58.1841E-03    -29.1880E-03     6.08721E-03    -31.8034E+06    -33.6221E+06    -170.393E+06    -35.8242E+06    -166.936E+06    -33.0586E+06    -21.3092E+06         25.2675
            1573     7.77174E-03     82.4566E-03         7.58542        -3.14384        -3.25128        -3.12279         7.55049        -3.23741    -964.090E-03     58.2256E-03    -29.0782E-03    -29.1474E-03    -28.9437E-03     58.0911E-03    -29.1474E-03     6.82874E-03    -28.1997E+06    -31.6153E+06    -155.672E+06    -32.4744E+06    -151.593E+06    -31.4195E+06    -22.2293E+06         25.5600
            1574     8.74333E-03     82.4642E-03         7.39906        -3.01204        -3.21606        -3.01137         7.39838        -3.21606    -158.325E-03     58.2449E-03    -29.0890E-03    -29.1559E-03    -28.9586E-03     58.0658E-03    -29.1072E-03     7.88376E-03    -26.4980E+06    -31.0730E+06    -138.525E+06    -31.0885E+06    -134.295E+06    -30.7120E+06    -21.1670E+06         25.9407
            1575     9.71464E-03     82.4735E-03         7.20169        -2.86678        -3.18534        -2.86059         7.19550        -3.18534     284.832E-03     58.2338E-03    -29.0444E-03    -29.1893E-03    -28.9094E-03     57.9832E-03    -29.0737E-03     9.30409E-03    -22.8730E+06    -29.2314E+06    -121.068E+06    -27.0376E+06    -117.133E+06    -29.0019E+06    -18.9948E+06         26.4703
            1576     10.6865E-03     82.4840E-03         6.95621        -2.68183        -3.14432        -2.67243         6.94681        -3.14432     595.002E-03     58.0612E-03    -28.9509E-03    -29.1102E-03    -28.7905E-03     57.7707E-03    -28.9802E-03     10.0425E-03    -19.2873E+06    -35.7094E+06    -93.6726E+06    -23.4957E+06    -89.4643E+06    -35.7094E+06    -16.9641E+06         27.3059
            1577     11.6586E-03     82.4957E-03         6.66529        -2.46231        -3.09255        -2.45597         6.65895        -3.09255     478.712E-03     58.1399E-03    -28.8499E-03    -29.2900E-03    -28.7328E-03     57.5827E-03    -28.8499E-03     13.4598E-03    -15.9525E+06    -35.4039E+06    -65.0643E+06    -22.2568E+06    -47.3184E+06    -46.8456E+06    -11.6149E+06         28.8361
            1578     12.6297E-03     82.5133E-03         6.33057        -2.21126        -3.02867        -2.20805         6.32736        -3.02867     161.402E-03     59.3269E-03    -28.7132E-03    -30.6137E-03    -28.5377E-03     57.2510E-03    -28.7132E-03     25.6659E-03     24.3774E+06    -24.0601E+06    -53.5456E+06    -20.2019E+06     20.5192E+06    -53.5456E+06    -3.48557E+06         31.9101
            1579     13.6032E-03     82.5515E-03         5.94791        -1.92928        -2.95154        -1.92799         5.94662        -2.95154    -187.226E-03     61.6098E-03    -28.7016E-03    -32.9081E-03    -28.4633E-03     57.1649E-03    -28.7016E-03     39.7272E-03     76.4914E+06    -19.1812E+06    -44.7459E+06    -18.8852E+06     76.1954E+06    -44.7459E+06     3.99086E+06         37.9988
            1580     14.5736E-03     82.5986E-03         5.53531        -1.63836        -2.85839        -1.63343         5.53038        -2.85839    -352.187E-03     76.8545E-03    -28.9713E-03    -47.8832E-03    -29.9465E-03     58.9178E-03    -28.9713E-03     83.4049E-03     101.800E+06     6.10517E+06    -26.0483E+06    -18.0746E+06     101.347E+06    -1.41570E+06     7.32257E+06         48.6892
            1581     15.5467E-03     82.7310E-03         5.06867        -1.33455        -2.72998        -1.32228         5.05640        -2.72998    -546.633E-03     161.273E-03    -29.3435E-03    -131.930E-03    -41.4069E-03     70.7504E-03    -29.3435E-03     267.454E-03     134.646E+06     66.9793E+06    -14.8121E+06    -14.5101E+06     134.344E+06     66.9793E+06     6.27638E+06         63.8352
            1582     16.5240E-03     83.1817E-03         4.50961        -1.00062        -2.54421    -988.356E-03         4.49735        -2.54421    -514.118E-03     272.079E-03    -29.6025E-03    -242.476E-03    -65.0856E-03     94.6881E-03    -29.6025E-03     489.114E-03     173.953E+06     137.015E+06    -7.63853E+06    -7.50323E+06     173.818E+06     137.015E+06     3.60380E+06         79.1208
            1583     971.235E-06     83.4860E-03         11.4111     17.0672E-03        -10.1230        -5.68765         6.97576     17.0672E-03         8.65507     58.5721E-03    -29.1676E-03    -29.4045E-03    -29.3819E-03     58.5685E-03    -29.1866E-03     1.02468E-03    -59.2098E+06    -60.7242E+06    -221.859E+06    -59.6743E+06    -221.587E+06    -60.5314E+06    -5.27293E+06         24.5011
            1584     1.94246E-03     83.4873E-03         8.28393        -2.81624        -4.16519        -2.74548         6.86422        -2.81624    -644.623E-03     58.4425E-03    -29.1792E-03    -29.2633E-03    -29.1697E-03     58.4301E-03    -29.2604E-03     2.00015E-03    -56.1442E+06    -58.3280E+06    -205.461E+06    -58.6844E+06    -204.823E+06    -56.4256E+06    -9.54186E+06         24.5440
            1585     2.91404E-03     83.4903E-03         7.58039        -2.79655        -3.47860        -2.79191         6.89370        -2.79655         2.31299     58.3965E-03    -29.1549E-03    -29.2416E-03    -29.1298E-03     58.3714E-03    -29.2416E-03     2.94005E-03    -51.7682E+06    -54.9947E+06    -201.157E+06    -56.1202E+06    -199.791E+06    -52.0083E+06    -13.5202E+06         24.6157
            1586     3.88559E-03     83.4933E-03         7.06702        -2.79652        -2.99028        -2.81540         6.89215        -2.79652     8.33899E-03     58.4486E-03    -29.1905E-03    -29.2580E-03    -29.1906E-03     58.4056E-03    -29.2150E-03     3.84249E-03    -48.1526E+06    -50.3740E+06    -188.499E+06    -51.6642E+06    -186.071E+06    -49.2900E+06    -17.6544E+06         24.7192
            1587     4.85688E-03     83.4981E-03         7.03903        -2.80402        -2.98088        -2.87507         6.93321        -2.80402     712.315E-03     58.5113E-03    -29.2160E-03    -29.2953E-03    -29.2318E-03     58.4478E-03    -29.2160E-03     4.70085E-03    -44.0623E+06    -45.2620E+06    -177.814E+06    -47.4644E+06    -174.412E+06    -45.2620E+06    -20.7608E+06         24.8584
            1588     5.82770E-03     83.5026E-03         6.95519        -2.81501        -2.90946        -2.88901         6.93474        -2.81501    -421.997E-03     58.4089E-03    -29.1495E-03    -29.2594E-03    -29.0983E-03     58.3214E-03    -29.2232E-03     5.50460E-03    -39.7943E+06    -41.5267E+06    -173.771E+06    -44.9155E+06    -169.083E+06    -41.0941E+06    -24.4057E+06         25.0385
            1589     6.80003E-03     83.5093E-03         6.95729        -2.82344        -2.92152        -2.89086         6.92663        -2.82344    -571.019E-03     58.3146E-03    -29.1017E-03    -29.2129E-03    -28.9897E-03     58.2026E-03    -29.2129E-03     6.24793E-03    -35.3108E+06    -37.0324E+06    -168.183E+06    -41.5091E+06    -162.452E+06     -36.566E+06    -26.6506E+06         25.2676
            1590     7.77116E-03     83.5155E-03         6.93786        -2.81963        -2.92547        -2.88684         6.90868        -2.82908    -820.632E-03     58.3334E-03    -29.1406E-03    -29.1929E-03    -29.0140E-03     58.1968E-03    -29.1828E-03     6.89813E-03    -30.1287E+06    -33.1906E+06    -154.182E+06    -35.9939E+06    -148.482E+06    -33.0253E+06    -25.6792E+06         25.5590
            1591     8.74269E-03     83.5238E-03         6.84672        -2.78507        -2.88753        -2.84203         6.84644        -2.83030    -67.8589E-03     58.3049E-03    -29.1362E-03    -29.1688E-03    -28.9768E-03     58.1213E-03    -29.1445E-03     7.97473E-03    -25.0852E+06    -31.8059E+06    -138.591E+06    -30.9400E+06    -132.867E+06    -31.6744E+06    -24.7146E+06         25.9379
            1592     9.71457E-03     83.5324E-03         6.70648        -2.71434        -2.84030        -2.72459         6.69909        -2.82266     366.114E-03     58.3189E-03    -29.0958E-03    -29.2231E-03    -28.9572E-03     58.0567E-03    -29.0994E-03     9.52853E-03    -21.2665E+06    -32.2066E+06    -122.359E+06    -27.4571E+06    -116.168E+06    -32.2066E+06    -24.0863E+06         26.4634
            1593     10.6858E-03     83.5438E-03         6.52168        -2.58741        -2.80372        -2.57502         6.50929        -2.80372     666.039E-03     58.2620E-03    -29.0211E-03    -29.2409E-03    -28.9309E-03     57.9520E-03    -29.0211E-03     10.3870E-03    -18.3023E+06    -37.7653E+06    -97.4216E+06    -24.3015E+06    -91.4224E+06    -37.7653E+06    -20.8100E+06         27.2895
            1594     11.6573E-03     83.5541E-03         6.28967        -2.40390        -2.77334        -2.39444         6.28021        -2.77334     568.869E-03     58.2111E-03    -28.8952E-03    -29.3159E-03    -28.7309E-03     57.6261E-03    -28.8952E-03     13.8297E-03    -14.0467E+06    -40.2673E+06    -69.7596E+06    -21.5710E+06    -53.4614E+06    -49.0412E+06    -15.6292E+06         28.7982
            1595     12.6297E-03     83.5737E-03         5.99603        -2.17372        -2.72945        -2.16922         5.99153        -2.72945     249.424E-03     59.5284E-03    -28.7437E-03    -30.7847E-03    -28.6587E-03     57.4024E-03    -28.7437E-03     26.0636E-03     20.5984E+06    -30.0344E+06    -59.5440E+06    -20.9424E+06     11.5064E+06    -59.5440E+06    -7.83852E+06         31.8331
            1596     13.6010E-03     83.6091E-03         5.65130        -1.91159        -2.67047        -1.91110         5.65081        -2.67047    -95.4179E-03     61.7662E-03    -28.7093E-03    -33.0569E-03    -28.5196E-03     57.2289E-03    -28.7093E-03     40.1700E-03     68.8506E+06    -20.8971E+06    -55.1150E+06    -20.6892E+06     68.6426E+06    -55.1150E+06     943.473E+03         37.8743
            1597     14.5744E-03     83.6607E-03         5.26654        -1.63422        -2.59308        -1.63064         5.26296        -2.59308    -276.880E-03     76.8849E-03    -28.9525E-03    -47.9325E-03    -29.4769E-03     58.4294E-03    -28.9525E-03     84.3887E-03     99.6644E+06     2.52152E+06    -31.8481E+06    -18.0834E+06     99.3818E+06    -10.9606E+06     5.25377E+06         48.5572
            1598     15.5470E-03     83.7880E-03         4.80860        -1.32766        -2.47490        -1.31741         4.79835        -2.47490    -487.350E-03     159.949E-03    -29.3400E-03    -130.609E-03    -41.2859E-03     70.6259E-03    -29.3400E-03     265.092E-03     135.681E+06     62.8717E+06    -13.7638E+06    -13.5321E+06     135.449E+06     62.8717E+06     5.58785E+06         63.7917
            1599     16.5222E-03     84.2371E-03         4.26265    -996.280E-03        -2.29046    -985.684E-03         4.25205        -2.29046    -467.427E-03     271.838E-03    -29.6374E-03    -242.201E-03    -65.2418E-03     94.8791E-03    -29.6374E-03     488.462E-03     178.059E+06     137.674E+06    -7.49196E+06    -7.34622E+06     177.914E+06     137.674E+06     4.77991E+06         79.2579
            1600     971.180E-06     84.5451E-03         9.77293     473.396E-03        -8.93639        -5.14656         5.98310     473.396E-03         7.68336     58.5788E-03    -29.1569E-03    -29.4219E-03    -29.3503E-03     58.5746E-03    -29.2244E-03     1.03475E-03    -58.9224E+06    -60.3152E+06    -210.905E+06    -60.0868E+06    -210.602E+06    -59.4535E+06    -5.93364E+06         24.5005
            1601     1.94261E-03     84.5469E-03         7.14160        -2.31926        -3.51053        -2.25526         5.88633        -2.31926    -315.783E-03     58.4569E-03    -29.1724E-03    -29.2845E-03    -29.1858E-03     58.4434E-03    -29.2576E-03     2.12012E-03    -57.1416E+06    -59.1020E+06    -195.317E+06    -59.0331E+06    -194.462E+06    -58.0652E+06    -10.5385E+06         24.5436
            1602     2.91402E-03     84.5490E-03         6.56040        -2.30311        -2.94341        -2.30990         5.92689        -2.30311         2.23077     58.4593E-03    -29.1838E-03    -29.2755E-03    -29.1843E-03     58.4330E-03    -29.2487E-03     3.00669E-03    -52.5580E+06    -55.2155E+06    -189.877E+06    -56.5313E+06    -187.928E+06    -53.1906E+06    -15.7152E+06         24.6153
            1603     3.88523E-03     84.5531E-03         6.11535        -2.30973        -2.51749        -2.36695         5.96480        -2.30973     172.456E-03     58.4273E-03    -29.1878E-03    -29.2394E-03    -29.1483E-03     58.3839E-03    -29.2355E-03     3.87199E-03    -48.8127E+06    -50.1927E+06    -179.865E+06    -53.4663E+06    -176.314E+06    -49.0899E+06    -20.9821E+06         24.7186
            1604     4.85666E-03     84.5570E-03         6.14128        -2.32751        -2.55194        -2.45392         6.04325        -2.32751     746.872E-03     58.4145E-03    -29.1528E-03    -29.2616E-03    -29.1240E-03     58.3469E-03    -29.2229E-03     4.83660E-03    -45.8595E+06    -46.3867E+06    -172.076E+06    -50.9326E+06    -167.437E+06    -45.9529E+06    -23.5662E+06         24.8577
            1605     5.82838E-03     84.5627E-03         6.10642        -2.35058        -2.51862        -2.50377         6.09157        -2.35058    -278.647E-03     58.4675E-03    -29.1463E-03    -29.3212E-03    -29.1529E-03     58.3778E-03    -29.2248E-03     5.60201E-03    -41.3589E+06    -42.5039E+06    -165.669E+06    -48.1791E+06    -159.938E+06    -41.4152E+06    -25.7395E+06         25.0377
            1606     6.79918E-03     84.5677E-03         6.17977        -2.37422        -2.58829        -2.56297         6.15445        -2.37422    -451.424E-03     58.4318E-03    -29.1495E-03    -29.2823E-03    -29.0946E-03     58.3154E-03    -29.2208E-03     6.36048E-03    -37.1222E+06    -39.7465E+06    -162.298E+06    -45.5433E+06    -154.680E+06    -38.9431E+06    -29.7224E+06         25.2661
            1607     7.77099E-03     84.5757E-03         6.22374        -2.39761        -2.62579        -2.60247         6.20042        -2.39761    -654.758E-03     58.3248E-03    -29.1394E-03    -29.1855E-03    -29.0005E-03     58.1759E-03    -29.1754E-03     7.20169E-03    -31.4328E+06    -41.0442E+06    -154.685E+06    -40.8849E+06    -145.266E+06    -41.0104E+06    -32.3425E+06         25.5557
            1608     8.74249E-03     84.5823E-03         6.20420        -2.41768        -2.60629        -2.60595         6.20385        -2.41768     45.1993E-03     58.2806E-03    -29.1248E-03    -29.1559E-03    -28.9421E-03     58.0800E-03    -29.1378E-03     8.32548E-03    -25.0379E+06    -38.5756E+06    -140.247E+06    -34.3881E+06    -130.897E+06    -38.5756E+06    -31.0395E+06         25.9317
            1609     9.71395E-03     84.5923E-03         6.14303        -2.42366        -2.56128        -2.54424         6.13257        -2.43023     475.815E-03     58.2813E-03    -29.0963E-03    -29.1851E-03    -28.8950E-03     57.9949E-03    -29.0999E-03     9.95412E-03    -20.2747E+06    -36.0442E+06    -123.481E+06    -29.1518E+06    -114.604E+06    -36.0442E+06    -28.7585E+06         26.4523
            1610     10.6860E-03     84.6025E-03         6.01375        -2.38402        -2.49137        -2.42561         5.99569        -2.43172     773.161E-03     58.1771E-03    -28.9785E-03    -29.1986E-03    -28.8204E-03     57.8329E-03    -29.0125E-03     10.9410E-03    -16.4713E+06    -42.3532E+06    -102.498E+06    -25.3214E+06    -93.6481E+06    -42.3532E+06    -26.0473E+06         27.2677
            1611     11.6575E-03     84.6145E-03         5.81525        -2.26512        -2.43013        -2.26041         5.80063        -2.42022     681.303E-03     58.2879E-03    -28.8506E-03    -29.4373E-03    -28.7633E-03     57.6480E-03    -28.8846E-03     14.5315E-03    -13.0478E+06    -46.5945E+06    -75.9268E+06    -22.7542E+06    -58.8943E+06    -53.9207E+06    -20.0476E+06         28.7538
            1612     12.6294E-03     84.6311E-03         5.57710        -2.08255        -2.39406        -2.07563         5.57018        -2.39406     362.975E-03     59.7059E-03    -28.7383E-03    -30.9675E-03    -28.6803E-03     57.4187E-03    -28.7383E-03     27.0522E-03     14.5434E+06    -33.9074E+06    -64.2963E+06    -21.2994E+06     1.93545E+06    -64.2963E+06    -11.2510E+06         31.7472
            1613     13.6011E-03     84.6715E-03         5.29065        -1.86070        -2.35276        -1.86041         5.29036        -2.35276     2.83288E-03     61.8455E-03    -28.6812E-03    -33.1643E-03    -28.4059E-03     57.0872E-03    -28.6812E-03     41.1739E-03     60.8961E+06    -21.9548E+06    -62.6676E+06    -21.5158E+06     60.4570E+06    -62.6676E+06    -2.41342E+06         37.7370
            1614     14.5737E-03     84.7156E-03         4.93255        -1.59295        -2.29145        -1.59050         4.93010        -2.29145    -206.390E-03     76.8193E-03    -28.8865E-03    -47.9327E-03    -29.2052E-03     58.0917E-03    -28.8865E-03     84.9404E-03     97.5404E+06    -4.27155E+06    -39.4677E+06    -21.7548E+06     97.4776E+06    -21.9217E+06     2.48844E+06         48.4068
            1615     15.5477E-03     84.8511E-03         4.49544        -1.29243        -2.18386        -1.28390         4.48691        -2.18386    -427.799E-03     159.916E-03    -29.3011E-03    -130.615E-03    -42.0478E-03     71.3489E-03    -29.3011E-03     264.741E-03     134.898E+06     53.8328E+06    -18.2490E+06    -18.1604E+06     134.809E+06     53.8328E+06     3.53590E+06         63.7193
            1616     16.5207E-03     85.2915E-03         3.98759    -984.468E-03        -2.00329    -975.154E-03         3.97827        -2.00329    -426.637E-03     270.616E-03    -29.6495E-03    -240.967E-03    -64.7059E-03     94.3554E-03    -29.6495E-03     486.199E-03     179.240E+06     134.287E+06    -10.7799E+06    -10.7280E+06     179.188E+06     134.287E+06     3.04719E+06         79.3665
            1617     971.400E-06     85.6050E-03         8.18636     966.912E-03        -7.83637        -4.59059         4.94058     966.912E-03         6.78798     58.4366E-03    -29.1606E-03    -29.2760E-03    -29.2126E-03     58.4321E-03    -29.2195E-03     1.13659E-03    -56.6334E+06    -59.7927E+06    -198.852E+06    -57.6721E+06    -198.482E+06    -59.1238E+06    -5.68743E+06         24.4993
            1618     1.94272E-03     85.6059E-03         6.01565        -1.80367        -2.89747        -1.77389         4.89207        -1.80367    -48.4920E-03     58.5296E-03    -29.2069E-03    -29.3227E-03    -29.2963E-03     58.5161E-03    -29.2198E-03     2.13169E-03    -55.3613E+06    -57.9001E+06    -182.660E+06    -57.5539E+06    -181.416E+06    -56.9514E+06    -12.0618E+06         24.5426
            1619     2.91375E-03     85.6091E-03         5.55972        -1.80277        -2.43786        -1.84965         4.97151        -1.80277         2.14408     58.5220E-03    -29.2158E-03    -29.3062E-03    -29.2351E-03     58.4950E-03    -29.2598E-03     3.04898E-03    -50.0342E+06    -52.9950E+06    -178.091E+06    -54.6884E+06    -175.374E+06    -51.0583E+06    -17.7973E+06         24.6141
            1620     3.88518E-03     85.6120E-03         5.16475        -1.82069        -2.04857        -1.91466         5.03083        -1.82069     345.125E-03     58.4274E-03    -29.1686E-03    -29.2588E-03    -29.1228E-03     58.3816E-03    -29.2588E-03     3.97790E-03    -45.3748E+06    -48.6595E+06    -170.540E+06    -52.1287E+06    -166.439E+06    -46.0064E+06    -21.8778E+06         24.7170
            1621     4.85672E-03     85.6167E-03         5.21652        -1.84626        -2.10199        -2.00471         5.11924        -1.84626     784.437E-03     58.3917E-03    -29.1540E-03    -29.2377E-03    -29.0873E-03     58.3250E-03    -29.2377E-03     4.81657E-03    -42.1487E+06    -45.2332E+06    -164.497E+06    -49.9172E+06    -158.713E+06    -43.2490E+06    -25.5222E+06         24.8554
            1622     5.82803E-03     85.6216E-03         5.21708        -1.87701        -2.09596        -2.08415         5.20528        -1.87701    -130.715E-03     58.3994E-03    -29.1242E-03    -29.2752E-03    -29.0942E-03     58.3079E-03    -29.2137E-03     5.63799E-03    -37.5264E+06    -42.1603E+06    -158.949E+06    -45.7995E+06    -151.332E+06    -41.5042E+06    -29.2565E+06         25.0347
            1623     6.79954E-03     85.6282E-03         5.35107        -1.91179        -2.21483        -2.19411         5.33035        -1.91179    -298.355E-03     58.4270E-03    -29.1325E-03    -29.2945E-03    -29.0974E-03     58.3033E-03    -29.2059E-03     6.56317E-03    -31.8052E+06    -38.2879E+06    -154.645E+06    -41.3696E+06    -145.418E+06    -37.9509E+06    -32.2163E+06         25.2622
            1624     7.77084E-03     85.6338E-03         5.44525        -1.94913        -2.28852        -2.27080         5.42753        -1.94913    -461.694E-03     58.3087E-03    -29.1156E-03    -29.1932E-03    -28.9830E-03     58.1491E-03    -29.1661E-03     7.45318E-03    -28.2690E+06    -40.2794E+06    -149.641E+06    -39.9241E+06    -137.986E+06    -40.2794E+06    -35.6321E+06         25.5501
            1625     8.74259E-03     85.6425E-03         5.48284        -1.98394        -2.30963        -2.30768         5.48089        -1.98394     201.676E-03     58.1805E-03    -29.0650E-03    -29.1155E-03    -28.8566E-03     57.9641E-03    -29.1075E-03     8.64486E-03    -24.8013E+06    -43.7326E+06    -141.634E+06    -38.2628E+06    -128.173E+06    -43.7326E+06    -37.1249E+06         25.9229
            1626     9.71439E-03     85.6507E-03         5.49267        -2.01227        -2.31152        -2.29491         5.47606        -2.01227     625.628E-03     58.1600E-03    -29.0468E-03    -29.1133E-03    -28.7863E-03     57.8465E-03    -29.0602E-03     10.3939E-03    -19.9396E+06    -42.0782E+06    -126.936E+06    -33.4799E+06    -113.396E+06    -42.0782E+06    -35.3116E+06         26.4379
            1627     10.6858E-03     85.6626E-03         5.42345        -2.03068        -2.24330        -2.21617         5.39631        -2.03068     902.504E-03     57.9907E-03    -28.9451E-03    -29.0456E-03    -28.6561E-03     57.6351E-03    -28.9791E-03     11.0946E-03    -16.3432E+06    -45.9295E+06    -108.108E+06    -28.8792E+06    -95.5719E+06    -45.9295E+06    -31.3763E+06         27.2421
            1628     11.6585E-03     85.6721E-03         5.27791        -2.00663        -2.13979        -2.08791         5.25575        -2.03635     800.885E-03     58.1263E-03    -28.8071E-03    -29.3192E-03    -28.5833E-03     57.4244E-03    -28.8411E-03     15.0249E-03    -12.6178E+06    -53.7908E+06    -82.0889E+06    -25.8142E+06    -64.6567E+06    -58.0265E+06    -25.3815E+06         28.7043
            1629     12.6293E-03     85.6930E-03         5.08870        -1.91746        -2.05810        -1.93751         5.07788        -2.02723     478.448E-03     59.4565E-03    -28.6825E-03    -30.7740E-03    -28.4224E-03     57.1049E-03    -28.6825E-03     27.5817E-03     8.69436E+06    -41.3170E+06    -69.1518E+06    -24.0160E+06    -8.60669E+06    -69.1518E+06    -15.9432E+06         31.6548
            1630     13.6032E-03     85.7268E-03         4.84541        -1.75267        -2.00237        -1.75180         4.84455        -2.00237     95.7085E-03     61.8385E-03    -28.5887E-03    -33.2498E-03    -28.2994E-03     56.8881E-03    -28.5887E-03     41.9049E-03     53.0499E+06    -24.4220E+06    -71.3937E+06    -23.3604E+06     51.9884E+06    -71.3937E+06    -5.52705E+06         37.5921
            1631     14.5748E-03     85.7795E-03         4.53347        -1.51273        -1.95634        -1.51093         4.53168        -1.95634    -148.169E-03     76.5942E-03    -28.7617E-03    -47.8325E-03    -28.9262E-03     57.6879E-03    -28.7617E-03     85.3410E-03     95.7636E+06    -9.45152E+06    -46.5586E+06    -23.1365E+06     95.7142E+06    -32.8242E+06     840.161E+03         48.2473
            1632     15.5485E-03     85.9042E-03         4.14236        -1.23985        -1.86016        -1.23215         4.13466        -1.86016    -386.217E-03     161.955E-03    -29.1760E-03    -132.779E-03    -42.6695E-03     71.8455E-03    -29.1760E-03     268.952E-03     133.521E+06     44.9732E+06    -20.4276E+06    -20.3823E+06     133.475E+06     44.9732E+06     2.54014E+06         63.6474
            1633     16.5197E-03     86.3602E-03         3.68477    -968.582E-03        -1.68667    -959.846E-03         3.67604        -1.68667    -398.707E-03     269.656E-03    -29.5488E-03    -240.107E-03    -64.3988E-03     93.9476E-03    -29.5488E-03     484.515E-03     179.160E+06     130.267E+06    -11.0487E+06    -11.0157E+06     179.127E+06     130.267E+06     1.31550E+06         79.4686
            1634     971.518E-06     86.6635E-03         6.78272         1.44999        -6.91503        -4.04210         3.90978         1.44999         6.06495     58.4927E-03    -29.1294E-03    -29.3633E-03    -29.3190E-03     58.4876E-03    -29.1686E-03     1.05257E-03    -53.9282E+06    -56.8221E+06    -185.192E+06    -54.9000E+06    -184.691E+06    -56.3506E+06    -7.13394E+06         24.4979
            1635     1.94251E-03     86.6661E-03         4.98585        -1.29429        -2.37161        -1.29201         3.90626        -1.29429     191.857E-03     58.4717E-03    -29.1624E-03    -29.3093E-03    -29.2245E-03     58.4577E-03    -29.2332E-03     2.17530E-03    -51.8584E+06    -54.2096E+06    -168.744E+06    -54.6010E+06    -167.223E+06    -52.9881E+06    -12.7834E+06         24.5404
            1636     2.91385E-03     86.6681E-03         4.59175        -1.30382        -1.96563        -1.37195         3.99807        -1.30382         2.12557     58.4706E-03    -29.1703E-03    -29.3003E-03    -29.1952E-03     58.4419E-03    -29.2468E-03     3.12139E-03    -48.0910E+06    -50.8592E+06    -166.047E+06    -53.3457E+06    -162.929E+06    -48.7226E+06    -18.4975E+06         24.6114
            1637     3.88531E-03     86.6717E-03         4.21235        -1.32862        -1.58408        -1.44931         4.07758        -1.32862     535.235E-03     58.4725E-03    -29.1967E-03    -29.2758E-03    -29.1847E-03     58.4258E-03    -29.2411E-03     4.02870E-03    -43.0019E+06    -48.4506E+06    -160.716E+06    -50.7566E+06    -155.427E+06    -45.9852E+06    -23.7010E+06         24.7137
            1638     4.85645E-03     86.6760E-03         4.30325        -1.36140        -1.66812        -1.55848         4.19361        -1.36140     877.212E-03     58.4014E-03    -29.1726E-03    -29.2288E-03    -29.1037E-03     58.3319E-03    -29.2282E-03     4.89827E-03    -36.4314E+06    -44.0752E+06    -155.216E+06    -45.8109E+06    -147.387E+06    -42.5249E+06    -28.8974E+06         24.8512
            1639     5.82791E-03     86.6813E-03         4.31843        -1.40026        -1.66884        -1.65839         4.30798        -1.40026     37.4795E-03     58.2972E-03    -29.0962E-03    -29.2010E-03    -28.9995E-03     58.2005E-03    -29.2010E-03     5.79193E-03    -31.6743E+06    -40.2948E+06    -151.746E+06    -41.5739E+06    -141.847E+06    -40.2948E+06    -32.9199E+06         25.0294
            1640     6.79977E-03     86.6868E-03         4.46373        -1.44267        -1.79037        -1.77247         4.44582        -1.44267    -126.265E-03     58.2720E-03    -29.0644E-03    -29.2076E-03    -28.9666E-03     58.1471E-03    -29.1805E-03     6.58777E-03    -27.6639E+06    -37.0504E+06    -149.162E+06    -39.1403E+06    -137.686E+06    -37.0504E+06    -35.4215E+06         25.2559
            1641     7.77121E-03     86.6942E-03         4.60515        -1.48828        -1.90163        -1.88821         4.59172        -1.48828    -259.931E-03     58.2635E-03    -29.0758E-03    -29.1877E-03    -28.9538E-03     58.1062E-03    -29.1524E-03     7.39820E-03    -23.5743E+06    -35.0378E+06    -142.561E+06    -36.5642E+06    -129.571E+06    -35.0378E+06    -37.0124E+06         25.5425
            1642     8.74278E-03     86.7006E-03         4.70396        -1.53385        -1.96976        -1.96365         4.69785        -1.53385     372.095E-03     58.1396E-03    -29.0374E-03    -29.1022E-03    -28.8315E-03     57.9255E-03    -29.0940E-03     8.59042E-03    -19.7149E+06    -39.0000E+06    -136.945E+06    -35.0969E+06    -121.563E+06    -39.0000E+06    -39.4590E+06         25.9126
            1643     9.71458E-03     86.7106E-03         4.76145        -1.57414        -2.00597        -1.97971         4.73519        -1.57414     778.154E-03     57.9512E-03    -28.9165E-03    -29.0346E-03    -28.6158E-03     57.6400E-03    -29.0242E-03     10.3334E-03    -17.1627E+06    -42.9150E+06    -128.936E+06    -34.2565E+06    -111.842E+06    -42.9150E+06    -40.2121E+06         26.4220
            1644     10.6868E-03     86.7207E-03         4.76045        -1.60584        -1.99127        -1.95168         4.72086        -1.60584         1.02153     57.8630E-03    -28.8621E-03    -29.0009E-03    -28.5598E-03     57.4926E-03    -28.9328E-03     11.2991E-03    -14.5229E+06    -48.3365E+06    -113.815E+06    -31.3297E+06    -97.0078E+06    -48.3365E+06    -37.1671E+06         27.2144
            1645     11.6579E-03     86.7321E-03         4.68273        -1.62685        -1.90936        -1.87644         4.64981        -1.62685     920.874E-03     57.8298E-03    -28.7791E-03    -29.0507E-03    -28.3567E-03     57.1358E-03    -28.7791E-03     14.9822E-03    -9.81814E+06    -61.1450E+06    -87.8738E+06    -27.4820E+06    -69.1914E+06    -62.1636E+06    -31.8779E+06         28.6519
            1646     12.6321E-03     86.7498E-03         4.53104        -1.61995        -1.78304        -1.75221         4.51380        -1.63354     597.568E-03     59.1290E-03    -28.6059E-03    -30.5231E-03    -28.1723E-03     56.7782E-03    -28.6059E-03     27.3957E-03     5.05567E+06    -49.6962E+06    -75.2005E+06    -24.6800E+06    -20.3388E+06    -74.8222E+06    -21.9437E+06         31.5584
            1647     13.6027E-03     86.7880E-03         4.32607        -1.55436        -1.66333        -1.59156         4.32358        -1.62364     199.566E-03     61.4372E-03    -28.4665E-03    -32.9707E-03    -27.9384E-03     56.4049E-03    -28.4665E-03     42.0434E-03     44.7851E+06    -27.1823E+06    -81.6036E+06    -23.5704E+06     41.1732E+06    -81.6036E+06    -9.49348E+06         37.4422
            1648     14.5768E-03     86.8356E-03         4.08072        -1.40010        -1.59400        -1.39999         4.07897        -1.59236    -90.5174E-03     75.8197E-03    -28.5939E-03    -47.2258E-03    -28.3912E-03     56.9851E-03    -28.5939E-03     84.8259E-03     91.1641E+06    -14.4628E+06    -52.6877E+06    -22.2786E+06     91.0687E+06    -44.7766E+06    -1.34892E+06         48.0833
            1649     15.5521E-03     86.9635E-03         3.75920        -1.18108        -1.50905        -1.17435         3.75247        -1.50905    -346.440E-03     162.708E-03    -28.9578E-03    -133.751E-03    -41.3311E-03     70.2889E-03    -28.9578E-03     271.756E-03     133.370E+06     38.2354E+06    -17.6327E+06    -17.6148E+06     133.352E+06     38.2354E+06     800.910E+03         63.5918
            1650     16.5287E-03     87.4245E-03         3.36120    -953.940E-03        -1.34505    -946.157E-03         3.35342        -1.34505    -362.937E-03     269.886E-03    -29.3366E-03    -240.550E-03    -65.4467E-03     94.7832E-03    -29.3366E-03     484.580E-03     180.295E+06     128.065E+06    -9.69353E+06    -9.68385E+06     180.286E+06     128.065E+06    -404.990E+03         79.5859
            1651     970.851E-06     87.7236E-03         5.68769         1.90178        -6.26513        -3.47363         2.89620         1.90178         5.68016     58.5939E-03    -29.1628E-03    -29.4311E-03    -29.3577E-03     58.5883E-03    -29.2305E-03     1.16680E-03    -47.4457E+06    -49.8058E+06    -170.422E+06    -48.5898E+06    -169.749E+06    -49.3343E+06    -7.59414E+06         24.4960
            1652     1.94258E-03     87.7252E-03         4.09364    -787.239E-03        -1.97958    -798.883E-03         2.91295    -787.239E-03     391.783E-03     58.4045E-03    -29.1424E-03    -29.2621E-03    -29.1384E-03     58.3906E-03    -29.2521E-03     2.15662E-03    -46.6712E+06    -48.7830E+06    -155.791E+06    -49.0154E+06    -154.235E+06    -47.9951E+06    -12.6150E+06         24.5374
            1653     2.91417E-03     87.7277E-03         3.68243    -801.316E-03        -1.55609    -876.019E-03         3.00235    -801.316E-03         2.18615     58.4419E-03    -29.1720E-03    -29.2700E-03    -29.1881E-03     58.4140E-03    -29.2260E-03     3.08573E-03    -43.4124E+06    -47.9046E+06    -152.925E+06    -48.8202E+06    -149.220E+06    -46.2016E+06    -18.6251E+06         24.6073
            1654     3.88506E-03     87.7314E-03         3.28285    -831.655E-03        -1.14856    -987.954E-03         3.12224    -831.655E-03     720.070E-03     58.3949E-03    -29.1589E-03    -29.2360E-03    -29.1455E-03     58.3468E-03    -29.2013E-03     4.06308E-03    -38.3587E+06    -47.0361E+06    -147.677E+06    -46.6855E+06    -140.265E+06    -46.1210E+06    -26.8269E+06         24.7086
            1655     4.85663E-03     87.7353E-03         3.40825    -873.479E-03        -1.25844        -1.11617         3.26598    -873.479E-03         1.00508     58.3020E-03    -29.1129E-03    -29.1891E-03    -29.0436E-03     58.2287E-03    -29.1852E-03     5.03012E-03    -33.4114E+06    -43.5543E+06    -146.293E+06    -43.9098E+06    -135.795E+06    -43.5543E+06    -32.6516E+06         24.8452
            1656     5.82836E-03     87.7405E-03         3.41181    -920.808E-03        -1.23856        -1.22540         3.39866    -920.808E-03     210.320E-03     58.2707E-03    -29.0922E-03    -29.1785E-03    -28.9968E-03     58.1720E-03    -29.1752E-03     5.85235E-03    -29.5232E+06    -39.0925E+06    -144.724E+06    -41.7154E+06    -132.532E+06    -39.0925E+06    -35.3524E+06         25.0223
            1657     6.79943E-03     87.7464E-03         3.56744    -970.209E-03        -1.36215        -1.34351         3.54881    -970.209E-03     59.1053E-03     58.2052E-03    -29.0481E-03    -29.1572E-03    -28.9224E-03     58.0796E-03    -29.1572E-03     6.60387E-03    -25.5012E+06    -35.9349E+06    -142.906E+06    -39.2034E+06    -129.204E+06    -35.9349E+06    -37.6182E+06         25.2473
            1658     7.77148E-03     87.7528E-03         3.72904        -1.02207        -1.48327        -1.47204         3.71781        -1.02207    -61.1176E-03     58.1102E-03    -28.9804E-03    -29.1298E-03    -28.8326E-03     57.9542E-03    -29.1216E-03     7.35663E-03    -20.5994E+06    -34.3807E+06    -137.966E+06    -36.3682E+06    -122.197E+06    -34.3807E+06    -39.9190E+06         25.5323
            1659     8.74298E-03     87.7607E-03         3.87210        -1.07462        -1.58629        -1.57325         3.85905        -1.07462     510.442E-03     58.0064E-03    -28.9308E-03    -29.0755E-03    -28.7278E-03     57.7951E-03    -29.0673E-03     8.52101E-03    -15.5658E+06    -35.2987E+06    -131.681E+06    -33.2462E+06    -114.000E+06    -35.2987E+06    -41.6267E+06         25.9001
            1660     9.71481E-03     87.7686E-03         3.98261        -1.12343        -1.66288        -1.62203         3.94176        -1.12343     903.012E-03     57.8872E-03    -28.8553E-03    -29.0319E-03    -28.5902E-03     57.5795E-03    -28.9893E-03     10.2693E-03    -11.2732E+06    -40.3879E+06    -126.394E+06    -30.5277E+06    -107.140E+06    -40.3879E+06    -42.8976E+06         26.4045
            1661     10.6869E-03     87.7799E-03         4.03619        -1.16526        -1.69096        -1.63264         3.97787        -1.16526         1.13604     57.7067E-03    -28.7399E-03    -28.9668E-03    -28.4539E-03     57.3418E-03    -28.8879E-03     11.1948E-03    -7.75858E+06    -48.3698E+06    -116.899E+06    -28.3433E+06    -96.3139E+06    -48.3698E+06    -42.6283E+06         27.1852
            1662     11.6599E-03     87.7905E-03         4.00577        -1.19789        -1.64471        -1.59646         3.95753        -1.19789         1.02876     57.7202E-03    -28.6556E-03    -29.0646E-03    -28.3359E-03     57.0688E-03    -28.7329E-03     14.5695E-03    -3.95016E+06    -63.3865E+06    -94.5999E+06    -25.9102E+06    -72.6399E+06    -63.3865E+06    -38.5451E+06         28.5979
            1663     12.6304E-03     87.8082E-03         3.90692        -1.21744        -1.54254        -1.51610         3.88047        -1.21744     703.554E-03     58.9239E-03    -28.5557E-03    -30.3682E-03    -28.0386E-03     56.5943E-03    -28.5557E-03     27.0558E-03     4.13804E+06    -56.1420E+06    -81.2829E+06    -22.9407E+06    -32.0550E+06    -78.2912E+06    -29.1954E+06         31.4602
            1664     13.6055E-03     87.8459E-03         3.76112        -1.22162        -1.40983        -1.40467         3.75595        -1.22162     294.242E-03     60.6234E-03    -28.3547E-03    -32.2688E-03    -27.3773E-03     55.7320E-03    -28.3547E-03     41.1943E-03     36.5087E+06    -29.3681E+06    -92.3729E+06    -20.1500E+06     27.2906E+06    -92.3729E+06    -15.6613E+06         37.2909
            1665     14.5785E-03     87.8933E-03         3.58386        -1.17157        -1.30065        -1.26492         3.58191        -1.20535    -29.5012E-03     75.2226E-03    -28.4176E-03    -46.8050E-03    -28.0263E-03     56.4439E-03    -28.4176E-03     84.1543E-03     85.4823E+06    -16.5973E+06    -61.7685E+06    -18.0486E+06     84.8809E+06    -59.7160E+06    -5.28663E+06         47.9192
            1666     15.5520E-03     88.0208E-03         3.34041        -1.04721        -1.19395        -1.09839         3.33417        -1.13654    -312.775E-03     160.808E-03    -28.8007E-03    -132.007E-03    -40.5467E-03     69.3474E-03    -28.8007E-03     268.558E-03     133.743E+06     33.0690E+06    -16.7371E+06    -14.4252E+06     133.695E+06     30.8059E+06    -2.06865E+06         63.5199
            1667     16.5335E-03     88.4756E-03         3.00460    -872.957E-03        -1.03831    -919.104E-03         2.99675    -984.318E-03    -348.505E-03     269.931E-03    -29.2347E-03    -240.697E-03    -66.2821E-03     95.5167E-03    -29.2347E-03     484.268E-03     181.204E+06     126.270E+06    -8.54060E+06    -8.52100E+06     181.184E+06     126.270E+06    -606.436E+03         79.7137
            1668     971.511E-06     88.7836E-03         4.91865         2.33735        -5.91968        -2.88166         1.88063         2.33735         5.55443     58.5056E-03    -29.1606E-03    -29.3451E-03    -29.3014E-03     58.5008E-03    -29.1995E-03     1.22688E-03    -42.2019E+06    -44.4373E+06    -156.475E+06    -42.8122E+06    -155.864E+06    -44.4373E+06    -6.93552E+06         24.4931
            1669     1.94265E-03     88.7842E-03         3.40143    -280.703E-03        -1.78874    -318.571E-03         1.93126    -280.703E-03     484.098E-03     58.4918E-03    -29.1879E-03    -29.3039E-03    -29.2478E-03     58.4775E-03    -29.2298E-03     2.14361E-03    -41.7251E+06    -45.2519E+06    -143.216E+06    -44.0456E+06    -141.411E+06    -44.7368E+06    -12.6149E+06         24.5337
            1670     2.91355E-03     88.7878E-03         2.88985    -305.435E-03        -1.25896    -404.360E-03         2.03525    -305.435E-03         2.23998     58.3420E-03    -29.1287E-03    -29.2133E-03    -29.1100E-03     58.3132E-03    -29.2033E-03     3.14769E-03    -36.1950E+06    -44.5722E+06    -137.010E+06    -41.9869E+06    -131.734E+06    -44.0571E+06    -21.1927E+06         24.6022
            1671     3.88548E-03     88.7904E-03         2.40469    -343.722E-03    -757.783E-03    -530.476E-03         2.17738    -343.722E-03     820.982E-03     58.2363E-03    -29.0657E-03    -29.1706E-03    -29.0168E-03     58.1874E-03    -29.1706E-03     4.08443E-03    -31.7270E+06    -41.0228E+06    -133.623E+06    -40.4857E+06    -124.865E+06    -41.0228E+06    -28.5377E+06         24.7023
            1672     4.85697E-03     88.7950E-03         2.52604    -391.245E-03    -859.286E-03    -652.002E-03         2.31875    -391.245E-03         1.09477     58.2654E-03    -29.1009E-03    -29.1645E-03    -29.0322E-03     58.1933E-03    -29.1612E-03     4.99980E-03    -29.1068E+06    -37.3003E+06    -135.921E+06    -40.6299E+06    -124.398E+06    -37.3003E+06    -32.9526E+06         24.8378
            1673     5.82805E-03     88.7997E-03         2.49800    -442.779E-03    -800.982E-03    -775.335E-03         2.47236    -442.779E-03     356.746E-03     58.2090E-03    -29.0606E-03    -29.1484E-03    -28.9652E-03     58.1104E-03    -29.1451E-03     5.84115E-03    -25.9034E+06    -35.5773E+06    -136.308E+06    -40.1857E+06    -122.026E+06    -35.5773E+06    -37.0027E+06         25.0134
            1674     6.80018E-03     88.8057E-03         2.68393    -497.946E-03    -947.236E-03    -918.364E-03         2.65506    -497.946E-03     237.554E-03     58.1191E-03    -28.9965E-03    -29.1226E-03    -28.8673E-03     57.9899E-03    -29.1226E-03     6.69449E-03    -21.1083E+06    -33.6286E+06    -136.645E+06    -37.5607E+06    -120.192E+06    -33.6286E+06    -40.2633E+06         25.2366
            1675     7.77126E-03     88.8122E-03         2.84787    -555.798E-03        -1.06129        -1.04661         2.83318    -555.798E-03     122.407E-03     57.9509E-03    -28.8805E-03    -29.0704E-03    -28.7168E-03     57.7873E-03    -29.0704E-03     7.51410E-03    -14.7504E+06    -33.8003E+06    -132.275E+06    -33.7002E+06    -113.325E+06    -33.8003E+06    -43.1472E+06         25.5197
            1676     8.74355E-03     88.8192E-03         3.01610    -613.177E-03        -1.17951        -1.15145         2.98804    -613.177E-03     654.783E-03     57.8237E-03    -28.8156E-03    -29.0081E-03    -28.5991E-03     57.6072E-03    -29.0081E-03     8.62662E-03    -9.36786E+06    -34.9794E+06    -128.374E+06    -30.3475E+06    -107.394E+06    -34.9794E+06    -45.3145E+06         25.8853
            1677     9.71559E-03     88.8279E-03         3.17197    -667.287E-03        -1.29267        -1.22733         3.10662    -667.287E-03         1.02036     57.8642E-03    -28.8603E-03    -29.0039E-03    -28.6163E-03     57.5477E-03    -28.9314E-03     10.4027E-03    -4.66715E+06    -39.5172E+06    -123.343E+06    -27.7307E+06    -100.279E+06    -39.5172E+06    -46.8795E+06         26.3851
            1678     10.6872E-03     88.8385E-03         3.26298    -715.800E-03        -1.34919        -1.26191         3.17570    -715.800E-03         1.23751     57.6790E-03    -28.7589E-03    -28.9201E-03    -28.4762E-03     57.3124E-03    -28.8363E-03     11.2275E-03     4.50587E+03    -47.9503E+06    -116.906E+06    -24.6692E+06    -92.2327E+06    -47.9503E+06    -47.6483E+06         27.1547
            1679     11.6589E-03     88.8488E-03         3.27154    -756.491E-03        -1.33201        -1.26206         3.20160    -756.491E-03         1.11159     57.5140E-03    -28.6083E-03    -28.9056E-03    -28.1482E-03     56.8339E-03    -28.6857E-03     14.7607E-03     3.18116E+06    -63.1624E+06    -100.743E+06    -21.9735E+06     -75.588E+06    -63.1624E+06    -44.3769E+06         28.5439
            1680     12.6328E-03     88.8672E-03         3.23128    -786.331E-03        -1.27663        -1.23793         3.19258    -786.331E-03     780.055E-03     58.7275E-03    -28.5034E-03    -30.2242E-03    -27.8650E-03     56.3684E-03    -28.5034E-03     27.3217E-03     7.05381E+06    -62.1933E+06      -86.41E+06    -20.7409E+06    -41.7730E+06    -79.0357E+06    -35.6382E+06         31.3650
            1681     13.6040E-03     88.9025E-03         3.15332    -803.414E-03        -1.19639        -1.18748         3.14441    -803.414E-03     358.534E-03     60.5465E-03    -28.2715E-03    -32.2750E-03    -27.4519E-03     55.7234E-03    -28.2715E-03     40.9315E-03     30.6115E+06    -35.8861E+06    -99.9392E+06    -18.4218E+06     13.1472E+06    -99.9392E+06    -23.2536E+06         37.1465
            1682     14.5793E-03     88.9503E-03         3.05229    -801.972E-03        -1.11131        -1.10920         3.05018    -801.972E-03     22.3554E-03     74.7870E-03    -28.3037E-03    -46.4834E-03    -28.0119E-03     56.3156E-03    -28.3037E-03     83.1903E-03     78.2008E+06    -19.2565E+06    -72.8134E+06    -16.9358E+06     75.8802E+06    -72.8134E+06    -11.1242E+06         47.7631
            1683     15.5554E-03     89.0780E-03         2.88671    -748.395E-03        -1.00951        -1.00327         2.88047    -748.395E-03    -281.800E-03     160.627E-03    -28.7484E-03    -131.878E-03    -42.3236E-03     71.0720E-03    -28.7484E-03     267.052E-03     131.253E+06     25.0401E+06    -22.0250E+06    -15.5038E+06     131.078E+06     18.6940E+06    -4.15678E+06         63.4470
            1684     16.5227E-03     89.5310E-03         2.62109    -610.434E-03    -888.866E-03    -880.520E-03         2.61274    -610.434E-03    -339.302E-03     270.432E-03    -29.2602E-03    -241.172E-03    -66.1103E-03     95.3705E-03    -29.2602E-03     485.424E-03     179.642E+06     119.467E+06    -9.36960E+06    -9.34165E+06     179.614E+06     119.467E+06    -1.26938E+06         79.8721
            1685     971.387E-06     89.8423E-03         4.59939         2.70512        -5.97659        -2.29528     918.077E-03         2.70512         5.63690     58.5461E-03    -29.1650E-03    -29.3811E-03    -29.3476E-03     58.5409E-03    -29.1933E-03     1.06323E-03    -27.7337E+06    -30.7579E+06    -142.014E+06    -29.5061E+06    -141.320E+06    -29.6797E+06    -8.39587E+06         24.4885
            1686     1.94241E-03     89.8450E-03         3.03771     190.538E-03        -1.89886     129.048E-03         1.00981     190.538E-03     432.919E-03     58.4587E-03    -29.1604E-03    -29.2983E-03    -29.2100E-03     58.4441E-03    -29.2341E-03     2.20389E-03    -24.0966E+06    -29.5315E+06    -127.674E+06    -26.7138E+06    -125.057E+06    -29.5315E+06    -14.9898E+06         24.5284
            1687     2.91416E-03     89.8465E-03         2.28861     156.713E-03        -1.12704     39.8029E-03         1.12177     156.713E-03         2.28136     58.2987E-03    -29.0865E-03    -29.2123E-03    -29.0766E-03     58.2681E-03    -29.1915E-03     3.20213E-03    -19.8156E+06    -28.4256E+06    -120.200E+06    -25.8087E+06    -114.207E+06    -28.4256E+06    -23.3976E+06         24.5960
            1688     3.88551E-03     89.8502E-03         1.65636     116.245E-03    -473.858E-03    -62.8740E-03         1.24538     116.245E-03     829.498E-03     58.3047E-03    -29.1066E-03    -29.1980E-03    -29.0783E-03     58.2555E-03    -29.1772E-03     4.13316E-03    -18.2289E+06    -24.9277E+06    -121.035E+06    -26.4803E+06    -112.783E+06    -24.9277E+06    -27.8828E+06         24.6949
            1689     4.85682E-03     89.8542E-03         1.72258     71.7820E-03    -519.777E-03    -166.594E-03         1.36940     71.7820E-03         1.14297     58.2436E-03    -29.0758E-03    -29.1678E-03    -29.0075E-03     58.1754E-03    -29.1678E-03     4.85888E-03    -16.0245E+06    -22.3395E+06    -122.772E+06    -26.7357E+06    -112.060E+06    -22.3395E+06    -31.8487E+06         24.8287
            1690     5.82885E-03     89.8592E-03         1.60266     22.3435E-03    -370.914E-03    -309.981E-03         1.54172     22.3435E-03     447.862E-03     58.0967E-03    -28.9660E-03    -29.1307E-03    -28.8683E-03     57.9990E-03    -29.1307E-03     5.80416E-03    -13.2822E+06    -23.2646E+06    -124.429E+06    -26.8362E+06    -110.875E+06    -23.2646E+06    -36.2296E+06         25.0023
            1691     6.79986E-03     89.8648E-03         1.79964    -33.5153E-03    -524.177E-03    -461.785E-03         1.73725    -33.5153E-03     382.615E-03     57.9581E-03    -28.8871E-03    -29.0711E-03    -28.7544E-03     57.8255E-03    -29.0711E-03     6.76765E-03    -9.53522E+06    -26.4973E+06    -125.978E+06    -27.4775E+06    -108.036E+06    -26.4973E+06    -41.7083E+06         25.2237
            1692     7.77243E-03     89.8711E-03         1.96194    -93.1392E-03    -631.264E-03    -601.341E-03         1.93202    -93.1392E-03     279.049E-03     57.8236E-03    -28.8201E-03    -29.0035E-03    -28.6553E-03     57.6588E-03    -29.0035E-03     7.54088E-03    -4.42469E+06    -29.8166E+06    -125.648E+06    -26.4041E+06    -103.669E+06    -29.8166E+06    -46.6844E+06         25.5052
            1693     8.74396E-03     89.8781E-03         2.16579    -153.079E-03    -778.678E-03    -716.345E-03         2.10345    -153.079E-03     807.714E-03     57.7442E-03    -28.7995E-03    -28.9447E-03    -28.5791E-03     57.5238E-03    -28.9447E-03     8.68224E-03    -175.362E+03    -31.3733E+06    -124.037E+06    -24.1036E+06    -100.109E+06    -31.3733E+06     -48.837E+06         25.8685
            1694     9.71583E-03     89.8866E-03         2.35357    -210.349E-03    -916.802E-03    -804.888E-03         2.24165    -210.349E-03         1.13591     57.6844E-03    -28.7845E-03    -28.8999E-03    -28.4839E-03     57.3539E-03    -28.8699E-03     10.6113E-03     5.02659E+06    -34.7711E+06    -118.630E+06    -21.6826E+06    -91.9203E+06    -34.7711E+06    -50.8379E+06         26.3640
            1695     10.6882E-03     89.8975E-03         2.47953    -263.067E-03    -999.820E-03    -861.840E-03         2.34155    -263.067E-03         1.32466     57.5057E-03    -28.6962E-03    -28.8095E-03    -28.3578E-03     57.1260E-03    -28.7682E-03     11.4092E-03     7.51430E+06    -44.8551E+06    -115.790E+06    -20.5674E+06    -87.7083E+06    -44.8551E+06    -51.7079E+06         27.1246
            1696     11.6608E-03     89.9069E-03         2.52261    -309.906E-03        -1.00859    -901.878E-03         2.41590    -309.906E-03         1.18299     57.3309E-03    -28.5696E-03    -28.7612E-03    -28.0351E-03     56.6535E-03    -28.6184E-03     14.7450E-03     7.71402E+06    -61.5283E+06    -105.272E+06    -20.5690E+06    -76.9886E+06    -61.5283E+06    -48.8506E+06         28.4937
            1697     12.6329E-03     89.9244E-03         2.52451    -348.292E-03    -985.137E-03    -925.778E-03         2.46515    -348.292E-03     848.398E-03     58.4808E-03    -28.4350E-03    -30.0458E-03    -27.7147E-03     56.1497E-03    -28.4350E-03     27.0881E-03     11.2994E+06    -67.0077E+06    -90.4448E+06    -19.2542E+06    -48.7275E+06    -78.1715E+06    -42.2732E+06         31.2781
            1698     13.6077E-03     89.9610E-03         2.50853    -376.438E-03    -952.599E-03    -936.757E-03         2.49269    -376.438E-03     428.161E-03     60.7817E-03    -28.2125E-03    -32.5691E-03    -27.7460E-03     55.9586E-03    -28.2125E-03     41.0553E-03     26.7827E+06    -46.5146E+06    -101.545E+06    -19.3544E+06    -377.454E+03    -101.545E+06    -30.7203E+06         37.0145
            1699     14.5789E-03     90.0074E-03         2.48763    -388.734E-03    -931.314E-03    -927.872E-03         2.48419    -388.734E-03     80.2825E-03     75.0978E-03    -28.2355E-03    -46.8623E-03    -28.6561E-03     56.8916E-03    -28.2355E-03     83.0242E-03     67.8985E+06    -24.2359E+06    -83.1027E+06    -19.1329E+06     62.7954E+06    -83.1027E+06    -16.4448E+06         47.6227
            1700     15.5523E-03     90.1341E-03         2.39579    -349.804E-03    -887.308E-03    -882.124E-03         2.39060    -349.804E-03    -229.211E-03     162.728E-03    -28.6654E-03    -134.063E-03    -43.2375E-03     71.9029E-03    -28.6654E-03     270.772E-03     125.267E+06     17.6213E+06    -31.1884E+06    -15.7241E+06     124.803E+06     2.62143E+06    -6.09289E+06         63.4159
            1701     16.5275E-03     90.5989E-03         2.22222    -227.583E-03    -837.137E-03    -829.944E-03         2.21503    -227.583E-03    -293.432E-03     270.527E-03    -29.1943E-03    -241.333E-03    -65.2082E-03     94.4024E-03    -29.1943E-03     486.310E-03     177.382E+06     111.347E+06    -9.44716E+06    -9.41775E+06     177.352E+06     111.347E+06    -2.21820E+06         80.0732
            1702     971.040E-06     90.9026E-03         4.77799         2.96764        -6.42930        -1.75311     101.794E-03         2.96764         5.95547     58.5444E-03    -29.1063E-03    -29.4381E-03    -29.3625E-03     58.5381E-03    -29.1756E-03     1.27395E-03    -10.5892E+06    -13.6685E+06    -125.237E+06    -12.5427E+06    -124.361E+06    -12.5903E+06    -8.70739E+06         24.4801
            1703     1.94287E-03     90.9041E-03         3.01909     596.345E-03        -2.29858     547.103E-03     173.407E-03     596.345E-03     290.173E-03     58.2781E-03    -29.0814E-03    -29.1966E-03    -29.0705E-03     58.2637E-03    -29.1932E-03     2.15367E-03    -10.8595E+06    -16.3955E+06    -110.114E+06    -14.0208E+06    -106.953E+06    -16.3955E+06    -16.5278E+06         24.5196
            1704     2.91426E-03     90.9062E-03         2.04798     573.045E-03        -1.31383     501.681E-03     232.466E-03     573.045E-03         2.35324     58.2773E-03    -29.0972E-03    -29.1801E-03    -29.1074E-03     58.2470E-03    -29.1397E-03     3.18951E-03    -10.9669E+06    -17.7868E+06    -105.115E+06    -16.8650E+06    -99.2169E+06    -17.7868E+06    -22.7143E+06         24.5865
            1705     3.88561E-03     90.9098E-03         1.29076     544.938E-03    -543.882E-03     404.929E-03     341.945E-03     544.938E-03     810.754E-03     58.2510E-03    -29.0734E-03    -29.1776E-03    -29.0607E-03     58.2013E-03    -29.1406E-03     4.14555E-03    -8.61066E+06    -15.4864E+06    -108.891E+06    -17.1272E+06    -100.374E+06    -15.4864E+06    -27.7782E+06         24.6840
            1706     4.85723E-03     90.9137E-03         1.25027     448.390E-03    -428.042E-03     299.695E-03     462.731E-03     508.188E-03         1.20315     58.1073E-03    -28.9858E-03    -29.1214E-03    -28.9135E-03     58.0349E-03    -29.1214E-03     4.98923E-03    -4.46722E+06    -13.5184E+06    -110.985E+06    -15.3213E+06    -100.131E+06    -13.5184E+06    -32.1258E+06         24.8158
            1707     5.82857E-03     90.9183E-03     969.094E-03     404.604E-03    -119.171E-03     166.346E-03     623.779E-03     464.402E-03     492.532E-03     57.9857E-03    -28.8991E-03    -29.0865E-03    -28.8005E-03     57.8871E-03    -29.0865E-03     5.83126E-03     124.084E+03    -11.7030E+06    -112.914E+06    -13.1557E+06    -99.6342E+06    -11.7030E+06    -36.2632E+06         24.9876
            1708     6.80123E-03     90.9238E-03         1.04354     370.590E-03    -169.661E-03     29.1835E-03     800.992E-03     414.297E-03     481.866E-03     57.8378E-03    -28.8127E-03    -29.0251E-03    -28.6823E-03     57.7074E-03    -29.0251E-03     6.69671E-03     6.09729E+06    -12.6778E+06    -111.603E+06    -11.6624E+06    -93.8435E+06    -12.6778E+06    -41.8233E+06         25.2073
            1709     7.77239E-03     90.9301E-03         1.13599     315.318E-03    -209.636E-03    -126.409E-03         1.00906     359.025E-03     390.246E-03     57.7609E-03    -28.7961E-03    -28.9648E-03    -28.6330E-03     57.5978E-03    -28.9648E-03     7.49983E-03     9.17679E+06    -15.9385E+06    -114.966E+06    -12.5531E+06    -93.2364E+06    -15.9385E+06    -47.1114E+06         25.4873
            1710     8.74466E-03     90.9369E-03         1.36097     300.278E-03    -420.324E-03    -264.685E-03         1.20533     300.278E-03     912.833E-03     57.6698E-03    -28.7735E-03    -28.8963E-03    -28.5527E-03     57.4490E-03    -28.8963E-03     8.67976E-03     12.3242E+06    -20.8232E+06    -116.002E+06    -13.2239E+06    -90.4541E+06    -20.8232E+06    -51.0999E+06         25.8486
            1711     9.71692E-03     90.9453E-03         1.57454     242.118E-03    -577.924E-03    -365.235E-03         1.36185     242.118E-03         1.20918     57.4885E-03    -28.6675E-03    -28.8211E-03    -28.3468E-03     57.1679E-03    -28.8211E-03     10.4448E-03     15.1773E+06    -25.0557E+06    -112.697E+06    -13.1080E+06    -84.4121E+06    -25.0557E+06    -53.0665E+06         26.3406
            1712     10.6891E-03     90.9557E-03         1.73163     187.145E-03    -686.391E-03    -443.882E-03         1.48912     187.145E-03         1.38971     57.3009E-03    -28.5691E-03    -28.7318E-03    -28.2160E-03     56.9400E-03    -28.7240E-03     11.1011E-03     13.6017E+06    -34.7234E+06    -112.054E+06    -14.6662E+06    -83.7864E+06    -34.7234E+06    -52.4545E+06         27.0941
            1713     11.6614E-03     90.9652E-03         1.78994     136.186E-03    -702.064E-03    -515.917E-03         1.60380     136.186E-03         1.25791     57.3625E-03    -28.5345E-03    -28.8280E-03    -28.1660E-03     56.7493E-03    -28.5833E-03     14.1075E-03     13.4476E+06    -51.8381E+06    -105.032E+06    -16.8298E+06    -74.7545E+06    -51.8381E+06    -51.5518E+06         28.4463
            1714     12.6344E-03     90.9822E-03         1.82008     91.2049E-03    -695.821E-03    -588.287E-03         1.71254     91.2049E-03     938.981E-03     58.5748E-03    -28.4171E-03    -30.1577E-03    -27.9628E-03     56.3799E-03    -28.4171E-03     26.1928E-03     16.8851E+06    -67.0545E+06    -91.1133E+06    -17.3028E+06    -52.6018E+06    -71.3781E+06    -48.3762E+06         31.1954
            1715     13.6064E-03     91.0177E-03         1.84577     53.5812E-03    -693.122E-03    -659.892E-03         1.81254     53.5812E-03     528.420E-03     60.4657E-03    -28.1948E-03    -32.2709E-03    -27.5537E-03     55.7485E-03    -28.1948E-03     40.4263E-03     24.3974E+06    -55.6834E+06    -98.6172E+06    -16.8737E+06    -14.4123E+06    -98.6172E+06    -37.4329E+06         36.8871
            1716     14.5810E-03     91.0667E-03         1.88722     29.2790E-03    -719.106E-03    -711.032E-03         1.87915     29.2790E-03     172.736E-03     75.3079E-03    -28.1635E-03    -47.1444E-03    -28.7866E-03     56.9501E-03    -28.1635E-03     83.5959E-03     59.2678E+06    -27.8881E+06    -90.2185E+06    -16.6254E+06     48.0051E+06    -90.2185E+06    -21.7740E+06         47.4907
            1717     15.5547E-03     91.1914E-03         1.88247     54.0676E-03    -740.964E-03    -737.915E-03         1.87942     54.0676E-03    -139.393E-03     163.369E-03    -28.5002E-03    -134.869E-03    -42.1794E-03     70.6796E-03    -28.5002E-03     272.955E-03     118.184E+06     9.64913E+06    -39.5156E+06    -14.7528E+06     117.142E+06    -14.0710E+06    -9.45054E+06         63.4034
            1718     16.5296E-03     91.6583E-03         1.82442     158.694E-03    -778.701E-03    -773.666E-03         1.81939     158.694E-03    -226.981E-03     270.393E-03    -29.0023E-03    -241.391E-03    -64.4847E-03     93.4870E-03    -29.0023E-03     486.786E-03     172.958E+06     101.278E+06    -9.34131E+06    -9.24813E+06     172.865E+06     101.278E+06    -3.27933E+06         80.2820
            1719     971.616E-06     91.9629E-03         5.28433         3.13135        -7.11100        -1.21089    -615.782E-03         3.13135         6.43408     58.2733E-03    -29.0174E-03    -29.2559E-03    -29.2099E-03     58.2684E-03    -29.0585E-03     1.14806E-03    -1.08013E+06    -2.01594E+06    -108.063E+06    -2.11019E+06    -107.112E+06    -1.93653E+06    -8.67210E+06         24.4648
            1720     1.94288E-03     91.9630E-03         3.22250     959.078E-03        -2.87738     951.614E-03    -606.499E-03     959.078E-03     109.012E-03     58.2688E-03    -29.0818E-03    -29.1870E-03    -29.1310E-03     58.2539E-03    -29.1228E-03     2.16606E-03     1.82404E+06    -585.475E+03    -93.1807E+06    -1.26423E+06    -90.2586E+06    -419.307E+03    -15.7943E+06         24.5040
            1721     2.91445E-03     91.9662E-03         2.18558     957.837E-03        -1.84993     956.419E-03    -620.775E-03     957.837E-03         2.46391     58.2185E-03    -29.0451E-03    -29.1734E-03    -29.0744E-03     58.1886E-03    -29.1142E-03     3.21228E-03     4.50757E+06    -448.936E+03    -89.5354E+06    -1.19063E+06    -84.0034E+06    -282.768E+03    -21.9005E+06         24.5697
            1722     3.88590E-03     91.9690E-03         1.37124     946.344E-03        -1.03571     847.087E-03    -511.557E-03     946.344E-03     800.281E-03     58.0370E-03    -28.9256E-03    -29.1114E-03    -28.8930E-03     57.9883E-03    -29.0953E-03     4.08041E-03     7.59816E+06     842.782E+03    -94.7248E+06    -823.596E+03    -86.3030E+06     842.782E+03    -27.9066E+06         24.6652
            1723     4.85780E-03     91.9729E-03         1.28086     812.120E-03    -827.603E-03     740.910E-03    -393.231E-03     917.698E-03         1.25898     57.9327E-03    -28.8807E-03    -29.0520E-03    -28.8048E-03     57.8568E-03    -29.0520E-03     5.10522E-03     9.88481E+06     470.917E+03    -100.014E+06    -966.182E+03    -89.1626E+06     470.917E+03    -32.6368E+06         24.7951
            1724     5.82979E-03     91.9776E-03     929.507E-03     770.908E-03    -446.998E-03     638.574E-03    -266.678E-03     881.520E-03     509.592E-03     57.8683E-03    -28.8658E-03    -29.0025E-03    -28.7620E-03     57.7646E-03    -29.0025E-03     5.97754E-03     14.0728E+06    -91.6894E+03    -100.841E+06    -487.120E+03    -86.2813E+06    -91.6894E+03    -38.0076E+06         24.9649
            1725     6.80087E-03     91.9826E-03     887.870E-03     699.242E-03    -343.916E-03     511.586E-03    -108.274E-03     839.884E-03     554.422E-03     57.7237E-03    -28.7756E-03    -28.9481E-03    -28.6379E-03     57.5860E-03    -28.9481E-03     6.86905E-03     19.0270E+06    -1.15958E+06    -100.190E+06     895.324E+03    -82.0579E+06    -1.15958E+06    -42.8076E+06         25.1826
            1726     7.77364E-03     91.9890E-03     879.536E-03     600.769E-03    -237.241E-03     353.651E-03     97.9511E-03     791.462E-03     450.521E-03     57.6200E-03    -28.7302E-03    -28.8898E-03    -28.5547E-03     57.4445E-03    -28.8898E-03     7.76387E-03     21.4331E+06    -4.18532E+06    -102.860E+06     978.420E+03    -82.4054E+06    -4.18532E+06    -46.0583E+06         25.4606
            1727     8.74536E-03     91.9955E-03     964.764E-03     619.139E-03    -339.357E-03     210.779E-03     296.145E-03     737.622E-03     947.422E-03     57.5751E-03    -28.7491E-03    -28.8260E-03    -28.5236E-03     57.3424E-03    -28.8188E-03     8.91419E-03     23.0004E+06    -10.2446E+06    -103.868E+06    -1.46833E+06    -79.3992E+06    -10.2446E+06    -49.9365E+06         25.8202
            1728     9.71725E-03     92.0040E-03         1.07129     619.006E-03    -445.060E-03     96.1621E-03     466.673E-03     682.403E-03         1.22561     57.4494E-03    -28.6545E-03    -28.7949E-03    -28.3784E-03     57.1324E-03    -28.7541E-03     10.4008E-03     21.3831E+06    -16.5733E+06    -105.344E+06    -5.47121E+06    -78.4899E+06    -16.5733E+06    -51.7687E+06         26.3097
            1729     10.6899E-03     92.0135E-03         1.14724     628.350E-03    -530.138E-03    -1.22337E-03     618.321E-03     628.350E-03         1.42213     57.2791E-03    -28.5741E-03    -28.7049E-03    -28.2518E-03     56.9153E-03    -28.6635E-03     11.1526E-03     19.9662E+06    -27.2303E+06    -106.134E+06    -7.96897E+06    -78.1989E+06    -27.2303E+06    -52.3421E+06         27.0569
            1730     11.6622E-03     92.0241E-03         1.16833     576.118E-03    -502.225E-03    -104.854E-03     770.957E-03     576.118E-03         1.30800     57.4339E-03    -28.5309E-03    -28.9030E-03    -28.2758E-03     56.8132E-03    -28.5374E-03     14.2623E-03     21.2555E+06    -43.8256E+06    -101.055E+06    -9.38590E+06    -70.4140E+06    -43.8256E+06    -52.9052E+06         28.3931
            1731     12.6340E-03     92.0397E-03         1.17621     526.792E-03    -464.503E-03    -228.300E-03     940.003E-03     526.792E-03         1.03053     58.8188E-03    -28.3941E-03    -30.4248E-03    -28.2080E-03     56.6021E-03    -28.3941E-03     26.3685E-03     23.3845E+06    -63.3708E+06    -88.6366E+06    -11.6358E+06    -52.8892E+06    -64.0978E+06    -51.3525E+06         31.1078
            1732     13.6072E-03     92.0763E-03         1.19119     481.419E-03    -438.042E-03    -356.065E-03         1.10921     481.419E-03     628.771E-03     60.4782E-03    -28.1859E-03    -32.2923E-03    -27.6571E-03     55.8430E-03    -28.1859E-03     40.1385E-03     24.2974E+06    -62.5728E+06    -97.2972E+06    -12.6868E+06    -27.4110E+06    -95.4749E+06    -43.1800E+06         36.7519
            1733     14.5815E-03     92.1208E-03         1.27723     446.391E-03    -491.914E-03    -471.811E-03         1.25713     446.391E-03     268.133E-03     75.1312E-03    -28.0833E-03    -47.0479E-03    -28.2415E-03     56.3248E-03    -28.0833E-03     83.9155E-03     51.6547E+06    -34.0507E+06    -99.1155E+06    -13.4984E+06     31.1024E+06    -99.1155E+06    -27.0799E+06         47.3457
            1734     15.5545E-03     92.2534E-03         1.36905     456.083E-03    -587.618E-03    -585.096E-03         1.36652     456.083E-03    -60.8631E-03     161.966E-03    -28.2981E-03    -133.668E-03    -40.8082E-03     69.1063E-03    -28.2981E-03     271.592E-03     109.218E+06    -2.67388E+06    -47.6390E+06    -12.8248E+06     107.293E+06    -35.5637E+06    -12.7495E+06         63.3676
            1735     16.5353E-03     92.7073E-03         1.43877     539.720E-03    -720.912E-03    -716.958E-03         1.43481     539.720E-03    -183.587E-03     270.602E-03    -28.7952E-03    -241.807E-03    -64.3026E-03     93.0977E-03    -28.7952E-03     487.629E-03     167.381E+06     86.6980E+06    -7.87960E+06    -7.66597E+06     167.167E+06     86.6980E+06    -4.22813E+06         80.4772
            1736     971.614E-06     93.0209E-03         5.92427         3.24870        -7.88808    -629.093E-03        -1.33472         3.24870         6.94379     58.0394E-03    -28.9807E-03    -29.0587E-03    -29.0521E-03     58.0345E-03    -28.9824E-03     1.06109E-03     8.85236E+06     7.26412E+06    -89.7497E+06     6.99972E+06    -88.2459E+06     7.61303E+06    -10.5213E+06         24.4380
            1737     1.94331E-03     93.0235E-03         3.50586         1.31533        -3.53427         1.33512        -1.36352         1.31533    -113.404E-03     58.0860E-03    -28.9653E-03    -29.1207E-03    -29.0466E-03     58.0697E-03    -29.0232E-03     2.32235E-03     14.8216E+06     11.4642E+06    -77.5395E+06     10.9852E+06    -73.8692E+06     11.6304E+06    -17.6112E+06         24.4758
            1738     2.91444E-03     93.0253E-03         2.45327         1.32398        -2.50018         1.34145        -1.38836         1.32398         2.54613     57.9251E-03    -28.8668E-03    -29.0583E-03    -28.8735E-03     57.8922E-03    -29.0187E-03     3.33532E-03     20.7366E+06     15.5455E+06    -75.3363E+06     14.5807E+06    -69.3465E+06     15.7117E+06    -22.9491E+06         24.5394
            1739     3.88664E-03     93.0283E-03         1.65300         1.31968        -1.70420         1.25394        -1.30514         1.31968     772.904E-03     57.8081E-03    -28.8214E-03    -28.9867E-03    -28.7675E-03     57.7543E-03    -28.9867E-03     4.28578E-03     23.5113E+06     17.7317E+06    -81.1279E+06     15.6639E+06    -73.2805E+06     17.7317E+06    -27.5152E+06         24.6325
            1740     4.85832E-03     93.0319E-03         1.58214         1.22352        -1.54935         1.17704        -1.22114         1.30041         1.27779     57.7096E-03    -28.7696E-03    -28.9400E-03    -28.6879E-03     57.6279E-03    -28.9400E-03     5.27430E-03     26.9381E+06     17.5311E+06    -86.2613E+06     16.2321E+06    -75.5553E+06     17.5311E+06    -32.8711E+06         24.7596
            1741     5.83018E-03     93.0365E-03         1.27390         1.17928        -1.20819         1.08474        -1.11364         1.27390     490.079E-03     57.5630E-03    -28.6938E-03    -28.8692E-03    -28.5768E-03     57.4460E-03    -28.8692E-03     6.31831E-03     31.6332E+06     14.3099E+06    -87.2385E+06     16.9439E+06    -72.5491E+06     14.3099E+06    -38.9578E+06         24.9263
            1742     6.80281E-03     93.0417E-03         1.24024         1.05411        -1.05450     963.454E-03    -963.846E-03         1.24024     604.546E-03     57.4890E-03    -28.6755E-03    -28.8135E-03    -28.5244E-03     57.3322E-03    -28.8078E-03     7.32496E-03     33.5894E+06     11.2397E+06    -89.6439E+06     16.1965E+06    -72.2510E+06     11.2397E+06    -42.8328E+06         25.1410
            1743     7.77431E-03     93.0472E-03         1.19905     909.560E-03    -868.686E-03     821.127E-03    -780.253E-03         1.19905     479.438E-03     57.4230E-03    -28.6635E-03    -28.7595E-03    -28.4643E-03     57.2181E-03    -28.7538E-03     8.35879E-03     33.8249E+06     8.04315E+06    -91.8110E+06     14.4060E+06    -72.3920E+06     8.04315E+06    -45.3442E+06         25.4164
            1744     8.74675E-03     93.0546E-03         1.15265     882.503E-03    -790.765E-03     695.667E-03    -603.929E-03         1.15265     961.794E-03     57.3855E-03    -28.6614E-03    -28.7241E-03    -28.4218E-03     57.1175E-03    -28.6957E-03     9.55654E-03     31.9732E+06     2.89093E+06    -92.4319E+06     11.1205E+06    -71.5792E+06     2.89093E+06    -46.3260E+06         25.7738
            1745     9.71910E-03     93.0621E-03         1.12575     899.192E-03    -775.185E-03     576.695E-03    -430.989E-03         1.10406         1.21910     57.4438E-03    -28.6394E-03    -28.8044E-03    -28.4394E-03     57.0788E-03    -28.6394E-03     11.1505E-03     30.4106E+06    -3.68758E+06    -93.7865E+06     7.07137E+06    -70.4473E+06    -3.68758E+06    -48.3664E+06         26.2610
            1746     10.6908E-03     93.0723E-03         1.09243     915.271E-03    -753.603E-03     454.740E-03    -254.741E-03         1.05410         1.42621     57.3600E-03    -28.5512E-03    -28.8088E-03    -28.3845E-03     56.9422E-03    -28.5577E-03     11.9557E-03     29.9779E+06    -16.7632E+06    -97.1702E+06     3.50823E+06    -70.7006E+06    -16.7632E+06    -51.5466E+06         27.0028
            1747     11.6633E-03     93.0815E-03         1.05822     827.318E-03    -627.746E-03     311.833E-03    -56.6511E-03         1.00261         1.32869     57.4158E-03    -28.4357E-03    -28.9801E-03    -28.2630E-03     56.7052E-03    -28.4422E-03     15.2245E-03     29.8060E+06    -35.1428E+06    -95.1313E+06     183.991E+03    -65.5093E+06    -35.1428E+06    -52.9694E+06         28.3239
            1748     12.6360E-03     93.0991E-03         1.01868     707.519E-03    -465.663E-03     145.605E-03     164.357E-03     950.578E-03         1.08209     58.7660E-03    -28.3109E-03    -30.4551E-03    -28.1348E-03     56.4457E-03    -28.3109E-03     27.1807E-03     30.7034E+06    -54.9146E+06    -85.0480E+06    -3.11733E+06    -51.2272E+06    -54.9146E+06    -52.3737E+06         31.0067
            1749     13.6085E-03     93.1326E-03     987.096E-03     575.320E-03    -298.650E-03    -41.4775E-03     406.293E-03     898.950E-03     678.581E-03     60.9846E-03    -28.1192E-03    -32.8654E-03    -28.0697E-03     56.1889E-03    -28.1192E-03     41.0330E-03     26.2927E+06    -63.8536E+06    -97.1210E+06    -7.90251E+06    -36.3386E+06    -90.4407E+06    -46.0368E+06         36.6036
            1750     14.5804E-03     93.1798E-03         1.01400     550.420E-03    -296.231E-03    -238.642E-03     653.693E-03     853.140E-03     304.433E-03     75.0129E-03    -27.9647E-03    -47.0482E-03    -28.1370E-03     56.1017E-03    -27.9647E-03     83.9974E-03     43.8345E+06    -40.2847E+06    -109.642E+06    -10.6530E+06     14.2029E+06    -109.642E+06    -32.2034E+06         47.1829
            1751     15.5591E-03     93.3055E-03         1.07487     642.565E-03    -435.703E-03    -432.269E-03     868.061E-03     845.943E-03    -36.7163E-03     161.520E-03    -28.0909E-03    -133.429E-03    -40.4073E-03     68.4981E-03    -28.0909E-03     271.441E-03     96.5790E+06    -12.0937E+06    -61.9576E+06    -9.71345E+06     92.1568E+06    -59.9155E+06    -16.9156E+06         63.3107
            1752     16.5317E-03     93.7659E-03         1.16493     806.098E-03    -658.930E-03    -655.053E-03         1.06191     905.241E-03    -160.237E-03     271.561E-03    -28.5814E-03    -242.979E-03    -64.0393E-03     92.6206E-03    -28.5814E-03     490.108E-03     160.772E+06     73.5454E+06    -11.9060E+06     -6.4709E+06     160.389E+06     68.4937E+06    -4.92620E+06         80.6704
            1753     971.800E-06     94.0813E-03         6.55850         3.34198        -8.63131    -26.9387E-03        -2.04587         3.34198         7.32868     57.7830E-03    -28.8052E-03    -28.9778E-03    -28.9307E-03     57.7755E-03    -28.8448E-03     1.46396E-03     33.4547E+06     30.7847E+06    -68.5510E+06     31.7634E+06    -67.1292E+06     31.0542E+06    -9.61241E+06         24.3905
            1754     1.94311E-03     94.0822E-03         3.80312         1.66044        -4.19606         1.66912        -2.06205         1.66044    -366.654E-03     57.5811E-03    -28.7171E-03    -28.8640E-03    -28.7340E-03     57.5613E-03    -28.8273E-03     2.56425E-03     32.8627E+06     26.8527E+06    -59.5405E+06     28.6951E+06    -55.3729E+06     26.8527E+06    -18.7532E+06         24.4258
            1755     2.91584E-03     94.0845E-03         2.72736         1.66509        -3.13304         1.67594        -2.08162         1.66509         2.57214     57.4389E-03    -28.6566E-03    -28.7823E-03    -28.6183E-03     57.4006E-03    -28.7823E-03     3.58718E-03     35.0528E+06     27.9006E+06    -62.7505E+06     28.4619E+06    -56.1596E+06     27.9006E+06    -24.4297E+06         24.4864
            1756     3.88738E-03     94.0871E-03         1.97735         1.66455        -2.39187         1.63877        -2.05329         1.66455     695.200E-03     57.3712E-03    -28.6182E-03    -28.7530E-03    -28.5525E-03     57.3054E-03    -28.7530E-03     4.70954E-03     39.3338E+06     31.4640E+06    -68.8600E+06     30.6847E+06    -60.2109E+06     31.4640E+06    -29.2868E+06         24.5760
            1757     4.85958E-03     94.0908E-03         1.90556         1.60919        -2.27587         1.59318        -2.01047         1.65617         1.27307     57.2273E-03    -28.5250E-03    -28.7023E-03    -28.4207E-03     57.1230E-03    -28.7023E-03     5.92695E-03     45.3999E+06     32.4741E+06    -72.2281E+06     33.8175E+06    -60.6457E+06     32.4741E+06    -34.8626E+06         24.6988
            1758     5.83194E-03     94.0949E-03         1.63994         1.57292        -1.98076         1.50376        -1.91160         1.63994     455.576E-03     57.0896E-03    -28.4542E-03    -28.6355E-03    -28.3043E-03     56.9397E-03    -28.6355E-03     7.11258E-03     48.6755E+06     30.8311E+06    -74.7842E+06     34.7989E+06    -60.9076E+06     30.8311E+06    -38.9174E+06         24.8610
            1759     6.80398E-03     94.1000E-03         1.61517         1.46667        -1.85239         1.40306        -1.78879         1.61517     640.760E-03     57.0608E-03    -28.4837E-03    -28.5771E-03    -28.2874E-03     56.8588E-03    -28.5714E-03     8.24352E-03     48.9888E+06     27.3828E+06    -78.2355E+06     33.3150E+06    -62.5617E+06     27.3828E+06    -41.7408E+06         25.0715
            1760     7.77672E-03     94.1061E-03         1.58339         1.33541        -1.68363         1.28459        -1.63281         1.58339     517.053E-03     57.0389E-03    -28.4928E-03    -28.5461E-03    -28.2642E-03     56.7811E-03    -28.5168E-03     9.33983E-03     47.0384E+06     22.9153E+06    -81.5797E+06     30.4677E+06    -65.0090E+06     22.9153E+06    -42.9627E+06         25.3430
            1761     8.74895E-03     94.1123E-03         1.54587         1.25781        -1.56129         1.16268        -1.46616         1.54587     994.151E-03     57.0365E-03    -28.4354E-03    -28.6011E-03    -28.2305E-03     56.6877E-03    -28.4572E-03     10.8155E-03     44.7380E+06     16.5550E+06    -82.9463E+06     27.4099E+06    -65.6182E+06     16.5550E+06    -43.5572E+06         25.6973
            1762     9.72114E-03     94.1209E-03         1.50426         1.20533        -1.45824         1.03754        -1.29044         1.50426         1.21501     57.1950E-03    -28.3999E-03    -28.7950E-03    -28.3198E-03     56.7197E-03    -28.3999E-03     12.6680E-03     44.3101E+06     9.90782E+06    -81.1336E+06     24.3321E+06    -61.1556E+06     9.90782E+06    -45.7867E+06         26.1823
            1763     10.6938E-03     94.1304E-03         1.45869         1.13402        -1.33199     893.511E-03        -1.09148         1.45869         1.41510     57.2955E-03    -28.3382E-03    -28.9573E-03    -28.4196E-03     56.7578E-03    -28.3382E-03     13.5405E-03     42.1011E+06    -2.92427E+06    -85.1651E+06     19.6965E+06    -62.7605E+06    -2.92427E+06    -48.3669E+06         26.9202
            1764     11.6656E-03     94.1401E-03         1.40824     978.342E-03        -1.11680     712.777E-03    -851.239E-03         1.40824         1.32897     57.3668E-03    -28.2398E-03    -29.1270E-03    -28.2697E-03     56.5096E-03    -28.2398E-03     16.7921E-03     39.2516E+06    -22.9995E+06    -85.3075E+06     13.4025E+06    -59.4584E+06    -22.9995E+06    -50.2302E+06         28.2294
            1765     12.6383E-03     94.1561E-03         1.35354     750.075E-03    -823.194E-03     497.157E-03    -570.276E-03         1.35354         1.08734     58.9616E-03    -28.1411E-03    -30.8205E-03    -28.2827E-03     56.4238E-03    -28.1411E-03     28.6371E-03     37.0532E+06    -42.2890E+06    -78.6385E+06     6.62655E+06    -48.2118E+06    -42.2890E+06    -50.6767E+06         30.8832
            1766     13.6112E-03     94.1912E-03         1.29528     473.996E-03    -478.230E-03     248.491E-03    -252.725E-03         1.29528     679.949E-03     61.2854E-03    -27.9879E-03    -33.2975E-03    -28.3048E-03     56.2928E-03    -27.9879E-03     42.0412E-03     30.4000E+06    -60.7175E+06    -89.3989E+06     694.157E+03    -42.2185E+06    -78.1921E+06    -46.1525E+06         36.4365
            1767     14.5851E-03     94.2370E-03         1.23836     307.082E-03    -241.796E-03    -14.8406E-03     80.1274E-03         1.23836     294.206E-03     74.9112E-03    -27.8193E-03    -47.0919E-03    -28.6179E-03     56.4372E-03    -27.8193E-03     83.4670E-03     41.3792E+06    -45.0264E+06    -109.463E+06    -4.55558E+06     908.446E+03    -109.463E+06    -35.8393E+06         47.0022
            1768     15.5573E-03     94.3595E-03         1.21347     405.247E-03    -293.339E-03    -285.693E-03     397.601E-03         1.21347    -33.6178E-03     161.433E-03    -27.8702E-03    -133.563E-03    -40.5358E-03     68.4061E-03    -27.8702E-03     271.132E-03     83.2314E+06    -15.3294E+06    -81.2310E+06    -7.76461E+06     75.6666E+06    -81.2310E+06    -21.1745E+06         63.2356
            1769     16.5400E-03     94.8228E-03         1.24562     718.823E-03    -606.182E-03    -602.243E-03     714.884E-03         1.24562    -137.946E-03     271.844E-03    -28.3063E-03    -243.538E-03    -62.7116E-03     91.0179E-03    -28.3063E-03     491.914E-03     150.139E+06     64.1279E+06    -25.9192E+06    -6.26316E+06     149.422E+06     45.1888E+06    -5.87152E+06         80.8665
            1770     971.892E-06     95.1397E-03         7.05337         3.37229        -9.18024     559.885E-03        -2.68676         3.37229         7.53220     56.9679E-03    -28.3530E-03    -28.6149E-03    -28.5349E-03     56.9586E-03    -28.4236E-03     1.59683E-03     54.7070E+06     51.8963E+06    -48.8950E+06     53.6100E+06    -47.7980E+06     51.8963E+06    -8.71921E+06         24.3083
            1771     1.94480E-03     95.1412E-03         4.05496         1.97042        -4.77997         1.98588        -2.71088         1.97042    -578.775E-03     56.7901E-03    -28.3479E-03    -28.4422E-03    -28.3306E-03     56.7636E-03    -28.4330E-03     2.93862E-03     55.3466E+06     51.3731E+06    -39.7572E+06     51.9175E+06    -36.3292E+06     51.3743E+06    -17.3841E+06         24.3410
            1772     2.91626E-03     95.1428E-03         2.99293         1.98034        -3.73734         2.01334        -2.75775         1.98034         2.57065     56.7013E-03    -28.3062E-03    -28.3951E-03    -28.2617E-03     56.6476E-03    -28.3859E-03     4.17759E-03     57.5768E+06     49.5430E+06    -48.1507E+06     51.2439E+06    -41.8190E+06     49.5442E+06    -24.8785E+06         24.3977
            1773     3.88912E-03     95.1457E-03         2.29381         1.98807        -3.05594         1.99976        -2.76189         1.98807     621.816E-03     56.4713E-03    -28.1540E-03    -28.3173E-03    -28.0583E-03     56.3756E-03    -28.3173E-03     5.58734E-03     61.2817E+06     46.8327E+06    -54.0779E+06     51.7438E+06    -44.5400E+06     46.8327E+06    -31.6795E+06         24.4822
            1774     4.86172E-03     95.1486E-03         2.20988         1.97302        -2.96725         1.97229        -2.74552         1.98889         1.26538     56.3382E-03    -28.0929E-03    -28.2454E-03    -27.9404E-03     56.1858E-03    -28.2454E-03     7.07859E-03     63.4287E+06     45.3165E+06    -60.0422E+06     51.4537E+06    -48.0671E+06     45.3165E+06    -36.5193E+06         24.5995
            1775     5.83444E-03     95.1530E-03         1.99517         1.95978        -2.74247         1.91649        -2.68699         1.98299     447.067E-03     56.2991E-03    -28.1070E-03    -28.1920E-03    -27.9026E-03     56.0802E-03    -28.1776E-03     8.50393E-03     63.3982E+06     42.6708E+06    -64.1420E+06     50.2131E+06    -50.9569E+06     42.6708E+06    -38.8229E+06         24.7560
            1776     6.80739E-03     95.1578E-03         1.98184         1.87665        -2.64247         1.83893        -2.59262         1.96972     687.259E-03     56.2513E-03    -28.0930E-03    -28.1584E-03    -27.8395E-03     55.9507E-03    -28.1112E-03     9.96847E-03     62.3975E+06     38.1398E+06    -67.6674E+06     48.1969E+06    -53.4667E+06     38.1398E+06    -40.4838E+06         24.9607
            1777     7.77989E-03     95.1637E-03         1.94829         1.76326        -2.48500         1.72403        -2.44577         1.94829     574.525E-03     56.2858E-03    -28.0474E-03    -28.2384E-03    -27.8457E-03     55.8954E-03    -28.0496E-03     11.3440E-03     60.9330E+06     32.0694E+06    -73.2776E+06     46.3986E+06    -58.7432E+06     32.0694E+06    -41.6227E+06         25.2275
            1778     8.75281E-03     95.1700E-03         1.91820         1.65490        -2.33487         1.58722        -2.26720         1.91820         1.01856     56.4226E-03    -27.9884E-03    -28.4342E-03    -27.9156E-03     55.9039E-03    -27.9884E-03     13.0874E-03     59.8847E+06     24.9495E+06    -74.1690E+06     44.6450E+06    -58.9293E+06     24.9495E+06    -42.3674E+06         25.5786
            1779     9.72580E-03     95.1786E-03         1.88097         1.55573        -2.18580         1.44657        -2.07664         1.88097         1.19941     56.7027E-03    -27.9523E-03    -28.7505E-03    -28.0539E-03     56.0062E-03    -27.9523E-03     15.2526E-03     56.9182E+06     19.7771E+06    -71.1030E+06     40.5631E+06    -54.7480E+06     19.7771E+06    -42.5529E+06         26.0619
            1780     10.6980E-03     95.1885E-03         1.83733         1.43470        -2.00830         1.28302        -1.85662         1.83733         1.39293     56.9097E-03    -27.9164E-03    -28.9932E-03    -28.2315E-03     56.1479E-03    -27.9164E-03     16.0223E-03     51.0452E+06     8.17401E+06    -73.7253E+06     33.4963E+06    -56.1763E+06     8.17401E+06    -43.2093E+06         26.7980
            1781     11.6707E-03     95.1979E-03         1.78614         1.22753        -1.73562         1.06797        -1.57607         1.78614         1.30967     57.4259E-03    -27.8545E-03    -29.5714E-03    -28.4616E-03     56.3160E-03    -27.8545E-03     19.2036E-03     46.1264E+06    -11.6729E+06    -73.3884E+06     25.2558E+06    -52.5178E+06    -11.6729E+06    -45.1085E+06         28.0996
            1782     12.6430E-03     95.2138E-03         1.72729     939.967E-03        -1.37169     801.294E-03        -1.23301         1.72729         1.07430     59.3911E-03    -27.8165E-03    -31.5746E-03    -28.6412E-03     56.4577E-03    -27.8165E-03     31.1083E-03     43.3038E+06    -29.4833E+06    -68.7756E+06     17.6892E+06    -43.1610E+06    -29.4833E+06    -46.7650E+06         30.7292
            1783     13.6145E-03     95.2501E-03         1.66146     590.102E-03    -937.071E-03     506.063E-03    -853.032E-03         1.66146     667.326E-03     61.8399E-03    -27.7309E-03    -34.1090E-03    -28.6701E-03     56.4010E-03    -27.7309E-03     44.1482E-03     34.1824E+06    -57.0650E+06    -78.9038E+06     9.93594E+06    -46.8832E+06    -64.8391E+06    -43.9982E+06         36.2448
            1784     14.5868E-03     95.2929E-03         1.59361     238.801E-03    -497.340E-03     192.220E-03    -450.759E-03         1.59361     286.156E-03     75.6613E-03    -27.5980E-03    -48.0633E-03    -29.4100E-03     57.0080E-03    -27.5980E-03     84.8023E-03     40.9301E+06    -46.8145E+06    -101.659E+06     2.17140E+06    -8.05583E+06    -101.659E+06    -35.6588E+06         46.8015
            1785     15.5626E-03     95.4182E-03         1.55044     123.533E-03    -312.418E-03    -160.732E-03    -28.1528E-03         1.55044    -28.6111E-03     161.356E-03    -27.5980E-03    -133.758E-03    -41.1756E-03     68.7736E-03    -27.5980E-03     270.727E-03     70.1377E+06    -13.9595E+06    -97.3270E+06    -4.61073E+06     60.7889E+06    -97.3270E+06    -22.3840E+06         63.1393
            1786     16.5368E-03     95.8705E-03         1.55283     407.042E-03    -566.851E-03    -561.626E-03     401.817E-03         1.55283    -121.911E-03     270.977E-03    -27.9535E-03    -243.023E-03    -60.7515E-03     88.7050E-03    -27.9535E-03     491.759E-03     135.376E+06     53.0133E+06    -43.5008E+06    -6.07963E+06     134.252E+06     16.7164E+06    -7.37211E+06         81.0519
            1787     973.019E-06     96.1973E-03         7.27242         3.33215        -9.39814         1.14425        -3.26997         3.33215         7.48539     55.5035E-03    -27.6594E-03    -27.8441E-03    -27.8000E-03     55.4922E-03    -27.6922E-03     1.70874E-03     67.4884E+06     64.2670E+06    -30.6141E+06     66.1374E+06    -29.3543E+06     64.3582E+06    -9.56333E+06         24.1758
            1788     1.94546E-03     96.1986E-03         4.20099         2.25501        -5.24374         2.32029        -3.36304         2.25501    -682.613E-03     55.2963E-03    -27.5688E-03    -27.7275E-03    -27.5699E-03     55.2569E-03    -27.6870E-03     3.47095E-03     69.0015E+06     62.9581E+06    -21.4368E+06     65.3091E+06    -17.7456E+06     62.9592E+06    -17.5382E+06         24.2055
            1789     2.91908E-03     96.2005E-03         3.21418         2.28303        -4.29096         2.35034        -3.42712         2.28303         2.52502     55.1089E-03    -27.4862E-03    -27.6227E-03    -27.4100E-03     55.0235E-03    -27.6134E-03     5.20356E-03     72.9905E+06     60.6746E+06    -31.1974E+06     65.6968E+06    -23.9049E+06     60.6758E+06    -26.2312E+06         24.2578
            1790     3.89201E-03     96.2023E-03         2.59212         2.30026        -3.69632         2.34293        -3.44713         2.30026     598.128E-03     54.9822E-03    -27.4333E-03    -27.5489E-03    -27.3088E-03     54.8302E-03    -27.5214E-03     6.96453E-03     75.5158E+06     55.2770E+06    -39.8569E+06     65.1438E+06    -29.4849E+06     55.2770E+06    -32.9679E+06         24.3368
            1791     4.86557E-03     96.2057E-03         2.51749         2.30878        -3.63627         2.33121        -3.45000         2.30878         1.25746     54.9321E-03    -27.4099E-03    -27.5222E-03    -27.2335E-03     54.6911E-03    -27.4576E-03     8.78710E-03     77.1713E+06     53.3133E+06    -48.1090E+06     64.6347E+06    -35.5724E+06     53.3133E+06    -37.5723E+06         24.4477
            1792     5.83894E-03     96.2095E-03         2.35538         2.31199        -3.47879         2.30897        -3.43238         2.31199     460.656E-03     54.8890E-03    -27.4000E-03    -27.4890E-03    -27.1422E-03     54.5435E-03    -27.4013E-03     10.5305E-03     78.5050E+06     51.8468E+06    -55.2227E+06     64.8798E+06    -41.5975E+06     51.8468E+06    -40.4242E+06         24.5974
            1793     6.81229E-03     96.2145E-03         2.34133         2.24703        -3.38998         2.23828        -3.34817         2.30825     725.081E-03     54.9062E-03    -27.3440E-03    -27.5622E-03    -27.0813E-03     54.4253E-03    -27.3440E-03     12.4037E-03     78.1529E+06     49.5818E+06    -59.9599E+06     64.8802E+06    -46.6872E+06     49.5818E+06    -40.6818E+06         24.7959
            1794     7.78627E-03     96.2200E-03         2.29351         2.14196        -3.22262         2.10836        -3.18902         2.29351     620.621E-03     55.1113E-03    -27.2967E-03    -27.8145E-03    -27.1869E-03     54.4836E-03    -27.2967E-03     14.2525E-03     76.3036E+06     45.8506E+06    -64.7780E+06     63.0481E+06    -51.5226E+06     45.8506E+06    -41.1101E+06         25.0582
            1795     8.75951E-03     96.2270E-03         2.26678         2.00805        -3.04530         1.95403        -2.99129         2.26678         1.02874     55.4796E-03    -27.2563E-03    -28.2233E-03    -27.4130E-03     54.6693E-03    -27.2563E-03     16.2399E-03     71.8926E+06     37.9465E+06    -67.6971E+06     58.7525E+06    -54.5570E+06     37.9465E+06    -40.6991E+06         25.4070
            1796     9.73257E-03     96.2349E-03         2.23026         1.87159        -2.85651         1.79267        -2.77759         2.23026         1.15982     55.9451E-03    -27.2601E-03    -28.6850E-03    -27.6257E-03     54.8858E-03    -27.2601E-03     18.6639E-03     66.3619E+06     34.8706E+06    -64.1736E+06     53.7989E+06    -51.6107E+06     34.8706E+06    -38.3788E+06         25.8899
            1797     10.7058E-03     96.2462E-03         2.18512         1.71386        -2.63740         1.60476        -2.52830         2.18512         1.35057     56.4610E-03    -27.2662E-03    -29.1947E-03    -28.0492E-03     55.3155E-03    -27.2662E-03     19.5606E-03     60.1865E+06     25.2456E+06    -64.0912E+06     47.7377E+06    -51.6424E+06     25.2456E+06    -37.0593E+06         26.6272
            1798     11.6782E-03     96.2545E-03         2.13033         1.47383        -2.32242         1.35869        -2.20728         2.13033         1.28605     57.4745E-03    -27.2574E-03    -30.2171E-03    -28.6337E-03     55.8910E-03    -27.2574E-03     22.9695E-03     54.1908E+06     5.87919E+06    -60.3444E+06     38.9471E+06    -45.1006E+06     5.87919E+06    -38.2045E+06         27.9265
            1799     12.6493E-03     96.2737E-03         2.06564         1.15870        -1.91907         1.06029        -1.82066         2.06564         1.06965     59.6518E-03    -27.2922E-03    -32.3596E-03    -28.8217E-03     56.1138E-03    -27.2922E-03     34.5603E-03     48.6416E+06    -10.6569E+06    -56.8876E+06     28.8834E+06    -37.1293E+06    -10.6569E+06    -40.9281E+06         30.5409
            1800     13.6229E-03     96.3056E-03         1.99175     777.453E-03        -1.43730     725.970E-03        -1.38582         1.99175     657.280E-03     62.7658E-03    -27.2716E-03    -35.4942E-03    -29.1468E-03     56.4184E-03    -27.2716E-03     48.0677E-03     36.1325E+06    -46.5708E+06    -71.3080E+06     18.5626E+06    -51.3928E+06    -48.9161E+06    -38.3830E+06         36.0303
            1801     14.5944E-03     96.3543E-03         1.91244     369.446E-03    -922.857E-03     351.015E-03    -904.426E-03         1.91244     279.648E-03     77.0291E-03    -27.2070E-03    -49.8221E-03    -30.3945E-03     57.6015E-03    -27.2070E-03     88.2494E-03     40.3530E+06    -44.4083E+06    -90.9502E+06     6.83980E+06    -13.1136E+06    -88.7317E+06    -31.4324E+06         46.5908
            1802     15.5659E-03     96.4721E-03         1.84979     24.7360E-03    -487.099E-03    -72.5937E-03    -389.770E-03         1.84979    -13.0251E-03     162.234E-03    -27.1873E-03    -135.047E-03    -41.9559E-03     69.1432E-03    -27.1873E-03     272.487E-03     57.2906E+06    -12.2243E+06    -105.183E+06    -2.79085E+06     47.8571E+06    -105.183E+06    -21.7306E+06         63.0482
            1803     16.5457E-03     96.9301E-03         1.82122     142.051E-03    -545.517E-03    -531.330E-03     127.863E-03         1.82122    -96.3916E-03     269.952E-03    -27.5015E-03    -242.451E-03    -59.2481E-03     86.7496E-03    -27.5015E-03     491.115E-03     120.704E+06     50.7210E+06    -57.4680E+06    -4.71747E+06     118.934E+06     -259.22E+03    -8.30921E+06         81.2397
            1804     973.845E-06     97.2538E-03         7.20258         3.30433        -9.34051         1.71596        -3.85390         3.30433         7.13138     53.1943E-03    -26.5490E-03    -26.6454E-03    -26.6075E-03     53.1739E-03    -26.5664E-03     2.35899E-03     86.7190E+06     81.5540E+06    -12.3650E+06     85.3346E+06    -11.0718E+06     81.6452E+06    -9.68219E+06         23.9782
            1805     1.94803E-03     97.2541E-03         4.25700         2.53764        -5.62348         2.64654        -4.01301         2.53764    -716.963E-03     52.9265E-03    -26.3800E-03    -26.5465E-03    -26.3817E-03     52.8645E-03    -26.4829E-03     4.26324E-03     86.7558E+06     73.9472E+06    -1.61696E+06     82.2081E+06     2.93068E+06     73.9472E+06    -18.9205E+06         24.0052
            1806     2.92228E-03     97.2554E-03         3.39543         2.58072        -4.80328         2.67344        -4.08129         2.58072         2.42206     52.7534E-03    -26.3104E-03    -26.4430E-03    -26.2092E-03     52.6199E-03    -26.4107E-03     6.35806E-03     88.4082E+06     72.3118E+06    -13.0315E+06     80.0178E+06    -4.64111E+06     72.3118E+06    -27.8794E+06         24.0530
            1807     3.89694E-03     97.2577E-03         2.88296         2.60627        -4.32413         2.68209        -4.12326         2.60627     591.668E-03     52.7684E-03    -26.3274E-03    -26.4410E-03    -26.1883E-03     52.5306E-03    -26.3423E-03     8.52354E-03     90.0608E+06     68.8636E+06    -26.0968E+06     78.5925E+06    -14.6286E+06     68.8636E+06    -34.5573E+06         24.1262
            1808     4.87108E-03     97.2604E-03         2.82561         2.62180        -4.28624         2.67380        -4.13443         2.62180         1.20727     52.7139E-03    -26.2652E-03    -26.4487E-03    -26.0619E-03     52.3270E-03    -26.2652E-03     10.8701E-03     91.6597E+06     62.4928E+06    -35.8402E+06     77.5842E+06    -21.7646E+06     62.4928E+06    -39.8750E+06         24.2304
            1809     5.84566E-03     97.2646E-03         2.68779         2.62979        -4.15524         2.64974        -4.11719         2.62979     440.008E-03     52.7014E-03    -26.2069E-03    -26.4945E-03    -25.9243E-03     52.1313E-03    -26.2069E-03     13.2107E-03     90.4312E+06     59.1404E+06    -48.2928E+06     76.2003E+06    -34.0619E+06     59.1404E+06    -41.9949E+06         24.3736
            1810     6.82072E-03     97.2686E-03         2.66319         2.57237        -4.06154         2.57244        -4.02726         2.62883     740.204E-03     52.9269E-03    -26.1479E-03    -26.7790E-03    -25.9838E-03     52.1317E-03    -26.1479E-03     15.6480E-03     87.0900E+06     55.0035E+06    -54.2168E+06     73.7049E+06    -40.8316E+06     55.0035E+06    -41.3592E+06         24.5672
            1811     7.79491E-03     97.2752E-03         2.61486         2.45704        -3.87904         2.42799        -3.85000         2.61486     656.226E-03     53.3515E-03    -26.1295E-03    -27.2219E-03    -26.1874E-03     52.3169E-03    -26.1295E-03     17.9385E-03     81.7200E+06     52.6001E+06    -59.2286E+06     69.7994E+06    -47.3080E+06     52.6001E+06    -39.0145E+06         24.8266
            1812     8.76944E-03     97.2814E-03         2.58684         2.29910        -3.67421         2.25438        -3.62949         2.58684         1.01816     54.0493E-03    -26.1243E-03    -27.9250E-03    -26.5914E-03     52.7157E-03    -26.1243E-03     20.4928E-03       74.28E+06     45.0657E+06    -62.1630E+06     63.7450E+06    -51.6280E+06     45.0657E+06    -36.3258E+06         25.1752
            1813     9.74324E-03     97.2911E-03         2.54704         2.12896        -3.44350         2.06843        -3.38296         2.54704         1.11097     54.8389E-03    -26.1592E-03    -28.6797E-03    -27.0187E-03     53.1779E-03    -26.1592E-03     23.1321E-03     68.6589E+06     39.5348E+06    -59.4076E+06     57.9972E+06    -48.7458E+06     39.5348E+06    -35.3602E+06         25.6610
            1814     10.7168E-03     97.3010E-03         2.49684         1.93670        -3.17943         1.85269        -3.09542         2.49684         1.29462     55.8556E-03    -26.2399E-03    -29.6157E-03    -27.7395E-03     53.9794E-03    -26.2399E-03     24.8040E-03     63.4830E+06     33.2285E+06    -60.1875E+06     53.9932E+06    -50.6977E+06     33.2285E+06    -32.8118E+06         26.4043
            1815     11.6888E-03     97.3134E-03         2.43581         1.67796        -2.83429         1.58743        -2.74375         2.43581         1.25355     57.2493E-03    -26.3217E-03    -30.9276E-03    -28.5560E-03     54.8777E-03    -26.3217E-03     28.2383E-03     55.9130E+06     19.1654E+06    -50.5978E+06     46.7146E+06    -41.3995E+06     19.1654E+06    -29.5167E+06         27.7097
            1816     12.6620E-03     97.3292E-03         2.36387         1.34391        -2.39713         1.26710        -2.32032         2.36387         1.04931     60.0890E-03    -26.4722E-03    -33.6168E-03    -29.1399E-03     55.6121E-03    -26.4722E-03     39.2653E-03     47.4838E+06     9.62989E+06    -41.9559E+06     34.6133E+06    -29.0854E+06     9.62989E+06    -30.8784E+06         30.3222
            1817     13.6324E-03     97.3653E-03         2.28072     923.933E-03        -1.86214     885.325E-03        -1.82353         2.28072     645.616E-03     63.7617E-03    -26.5618E-03    -37.1998E-03    -29.7692E-03     56.3310E-03    -26.5618E-03     52.5257E-03     32.3012E+06    -30.5251E+06    -68.2223E+06     21.1117E+06    -57.0328E+06    -30.5251E+06    -29.7802E+06         35.8010
            1818     14.6044E-03     97.4110E-03         2.18862     466.864E-03        -1.28105     453.439E-03        -1.26762         2.18862     277.228E-03     78.5830E-03    -26.5662E-03    -52.0168E-03    -31.0305E-03     57.5966E-03    -26.5662E-03     92.9665E-03     42.6940E+06    -36.2307E+06    -87.2889E+06     8.33839E+06    -15.7030E+06    -73.4610E+06    -24.0641E+06         46.3875
            1819     15.5768E-03     97.5344E-03         2.10608    -771.381E-06    -699.398E-03    -11.0713E-03    -689.099E-03         2.10608     13.1053E-03     163.203E-03    -26.5694E-03    -136.633E-03    -42.0101E-03     68.5795E-03    -26.5694E-03     275.603E-03     50.2124E+06    -10.9480E+06    -97.8984E+06    -1.89149E+06     41.1559E+06    -97.8984E+06    -20.0480E+06         63.0068
            1820     16.5543E-03     97.9799E-03         2.04728    -17.1643E-03    -594.046E-03    -509.741E-03    -101.469E-03         2.04728    -54.8957E-03     268.713E-03    -26.9759E-03    -241.737E-03    -59.3939E-03     86.3698E-03    -26.9759E-03     489.170E-03     107.444E+06     61.0598E+06    -58.0604E+06    -3.60394E+06     102.707E+06     11.3397E+06    -8.98435E+06         81.5082
            1821     975.706E-06     98.3062E-03         6.85456         3.34197        -9.08038         2.25793        -4.48375         3.34197         6.50862     49.6650E-03    -24.7906E-03    -24.8745E-03    -24.8107E-03     49.6326E-03    -24.8219E-03     2.86053E-03     99.1625E+06     91.4966E+06     6.36399E+06     97.2157E+06     8.31081E+06     91.4966E+06    -11.3144E+06         23.7045
            1822     1.95158E-03     98.3070E-03         4.22813         2.82744        -5.92777         2.93687        -4.63651         2.82744    -676.172E-03     49.5530E-03    -24.7121E-03    -24.8408E-03    -24.7272E-03     49.4568E-03    -24.7296E-03     5.17056E-03     98.6245E+06     83.9712E+06     18.3959E+06     93.0437E+06     23.9766E+06     83.9712E+06    -19.7448E+06         23.7293
            1823     2.92724E-03     98.3079E-03         3.54521         2.87241        -5.28290         2.97614        -4.71382         2.87241         2.25469     49.5571E-03    -24.6879E-03    -24.8691E-03    -24.6449E-03     49.3428E-03    -24.6979E-03     7.76595E-03     98.5620E+06     79.9606E+06     5.09710E+06     89.0898E+06     14.5692E+06     79.9606E+06    -28.0370E+06         23.7732
            1824     3.90309E-03     98.3098E-03         3.15054         2.90252        -4.92179         3.00093        -4.77218         2.90252     557.664E-03     49.4685E-03    -24.6281E-03    -24.8404E-03    -24.4374E-03     49.0755E-03    -24.6381E-03     10.5626E-03     98.9463E+06     73.7344E+06    -11.1348E+06     85.9321E+06     1.87944E+06     73.7344E+06    -35.3834E+06         23.8410
            1825     4.87930E-03     98.3127E-03         3.09534         2.92147        -4.88898         2.98053        -4.77418         2.92147         1.09699     49.4205E-03    -24.5322E-03    -24.8883E-03    -24.2612E-03     48.7934E-03    -24.5322E-03     13.3845E-03     96.1449E+06     62.4787E+06    -24.6754E+06     81.1632E+06    -9.69371E+06     62.4787E+06    -39.7991E+06         23.9398
            1826     5.85595E-03     98.3155E-03         2.96528         2.92901        -4.76400         2.93673        -4.73545         2.92901     387.028E-03     49.6529E-03    -24.4568E-03    -25.1960E-03    -24.2620E-03     48.7188E-03    -24.4568E-03     16.3948E-03     90.0693E+06     53.8498E+06    -41.1089E+06     75.4055E+06    -26.4451E+06     53.8498E+06    -41.2569E+06         24.0792
            1827     6.83177E-03     98.3210E-03         2.93840         2.85240        -4.64746         2.84015        -4.62170         2.92490     712.690E-03     50.1318E-03    -24.4099E-03    -25.7219E-03    -24.4198E-03     48.8297E-03    -24.4099E-03     19.4663E-03     82.4206E+06     46.7247E+06    -50.0472E+06     69.2550E+06    -36.8816E+06     46.7247E+06    -39.5368E+06         24.2711
            1828     7.80821E-03     98.3264E-03         2.90639         2.70537        -4.44903         2.68079        -4.42445         2.90639     671.460E-03     50.8831E-03    -24.4216E-03    -26.4615E-03    -24.7590E-03     49.1806E-03    -24.4216E-03     22.4597E-03     74.2415E+06     43.4636E+06    -56.5423E+06     63.2857E+06    -45.5866E+06     43.4636E+06    -36.0386E+06         24.5316
            1829     8.78359E-03     98.3346E-03         2.87281         2.52294        -4.20938         2.48561        -4.17205         2.87281     989.820E-03     51.9497E-03    -24.4650E-03    -27.4848E-03    -25.3022E-03     49.7672E-03    -24.4650E-03     25.7093E-03     67.0727E+06     38.1101E+06    -59.7795E+06     58.2666E+06    -50.9735E+06     38.1101E+06    -32.0683E+06         24.8854
            1830     9.75856E-03     98.3438E-03         2.82596         2.31811        -3.93218         2.26917        -3.88325         2.82596         1.06350     53.3539E-03    -24.5557E-03    -28.7982E-03    -26.1079E-03     50.6636E-03    -24.5557E-03     28.9738E-03     58.4554E+06     32.7504E+06    -53.8807E+06     50.1924E+06    -45.6176E+06     32.7504E+06    -29.1705E+06         25.3819
            1831     10.7324E-03     98.3557E-03         2.76746         2.09550        -3.62265         2.02879        -3.55593         2.76746         1.22415     54.8513E-03    -24.7362E-03    -30.1151E-03    -27.0915E-03     51.8277E-03    -24.7362E-03     31.2650E-03     47.5383E+06     27.9278E+06    -59.3013E+06     39.9882E+06    -51.7511E+06     27.9278E+06    -27.2399E+06         26.1412
            1832     11.7062E-03     98.3685E-03         2.69790         1.82428        -3.24833         1.75086        -3.17490         2.69790         1.20088     56.9673E-03    -24.9226E-03    -32.0447E-03    -28.4074E-03     53.3300E-03    -24.9226E-03     34.9724E-03     37.9207E+06     15.0102E+06    -49.8441E+06     31.9536E+06    -43.8770E+06     15.0102E+06    -21.9798E+06         27.4664
            1833     12.6767E-03     98.3868E-03         2.61684         1.46499        -2.77145         1.40161        -2.70807         2.61684         1.02021     60.7701E-03    -25.2308E-03    -35.5393E-03    -29.6726E-03     54.9035E-03    -25.2308E-03     45.5057E-03     34.2023E+06     11.7357E+06    -29.5191E+06     22.9956E+06    -22.0201E+06     15.4435E+06    -19.4000E+06         30.0950
            1834     13.6488E-03     98.4231E-03         2.52283         1.01442        -2.18962     982.126E-03        -2.15733         2.52283     637.294E-03     65.0588E-03    -25.5083E-03    -39.5506E-03    -30.6307E-03     56.1389E-03    -25.5083E-03     58.2715E-03     20.9566E+06    -22.1369E+06    -66.7122E+06     11.0966E+06    -60.5599E+06    -18.4291E+06     -18.779E+06         35.5850
            1835     14.6189E-03     98.4696E-03         2.41765     534.112E-03        -1.56836     522.200E-03        -1.55645         2.41765     289.721E-03     79.8812E-03    -25.6455E-03    -54.2357E-03    -31.3934E-03     57.0388E-03    -25.6455E-03     98.0936E-03     44.7514E+06    -33.5418E+06    -79.1054E+06     929.096E+03    -13.4837E+06    -55.3413E+06    -18.9321E+06         46.2321
            1836     15.5919E-03     98.5930E-03         2.31620     25.3385E-03    -923.499E-03     23.8533E-03    -922.014E-03         2.31620     60.7318E-03     164.055E-03    -25.7919E-03    -138.263E-03    -42.7242E-03     68.5162E-03    -25.7919E-03     278.528E-03     48.3233E+06    -15.0587E+06    -70.0575E+06    -4.21380E+06     37.4784E+06    -70.0575E+06    -19.0336E+06         63.0760
            1837     16.5712E-03     99.0376E-03         2.22877    -85.8131E-03    -688.610E-03    -506.942E-03    -267.481E-03         2.22877    -358.131E-06     267.780E-03    -26.4116E-03    -241.368E-03    -62.5362E-03     88.9477E-03    -26.4116E-03     486.064E-03     98.1768E+06     71.4154E+06    -46.1204E+06    -4.57308E+06     87.2836E+06     40.7613E+06    -9.12737E+06         82.0623
            1838     978.030E-06     99.3549E-03         6.32976         3.42742        -8.68909         2.77421        -5.13354         3.42742         5.71621     45.1528E-03    -22.5067E-03    -22.6461E-03    -22.5865E-03     45.1071E-03    -22.5206E-03     3.22640E-03     106.182E+06     98.7574E+06     27.9566E+06     102.191E+06     30.6068E+06     100.099E+06    -12.2969E+06         23.3509
            1839     1.95585E-03     99.3555E-03         4.14796         3.12242        -6.18671         3.20825        -5.24699         3.12242    -558.891E-03     45.0852E-03    -22.4782E-03    -22.6069E-03    -22.4608E-03     44.9391E-03    -22.4782E-03     6.04672E-03     106.488E+06     92.2176E+06     37.1058E+06     99.7144E+06     43.8791E+06     92.2176E+06    -20.3776E+06         23.3738
            1840     2.93393E-03     99.3564E-03         3.65272         3.15772        -5.71730         3.23923        -5.30381         3.15772         2.03504     45.0839E-03    -22.4150E-03    -22.6689E-03    -22.3345E-03     44.7495E-03    -22.4150E-03     9.25009E-03     106.523E+06     83.3185E+06     22.2840E+06     95.8970E+06     32.9099E+06     83.3185E+06    -27.9491E+06         23.4150
            1841     3.91200E-03     99.3580E-03         3.37145         3.18255        -5.46583         3.26923        -5.36361         3.18255     536.639E-03     45.0656E-03    -22.3344E-03    -22.7313E-03    -22.1239E-03     44.4583E-03    -22.3344E-03     12.5769E-03     103.429E+06     73.7096E+06     4.15740E+06     90.3029E+06     17.2836E+06     73.7096E+06    -33.6233E+06         23.4803
            1842     4.89080E-03     99.3599E-03         3.31787         3.19786        -5.42772         3.23658        -5.34643         3.19786     953.188E-03     45.2474E-03    -22.2423E-03    -23.0051E-03    -22.0293E-03     44.2716E-03    -22.2423E-03     15.9750E-03     96.5159E+06     62.2465E+06    -13.7724E+06     82.8109E+06    -67.3598E+03     62.2465E+06    -36.3543E+06         23.5781
            1843     5.86876E-03     99.3638E-03         3.20992         3.17910        -5.30002         3.16846        -5.27942         3.19997     331.002E-03     45.7383E-03    -22.1701E-03    -23.5682E-03    -22.1178E-03     44.2879E-03    -22.1701E-03     19.6002E-03     85.0690E+06     48.8137E+06    -32.0234E+06     72.4703E+06    -19.4247E+06     48.8137E+06    -36.1357E+06         23.7188
            1844     6.84751E-03     99.3681E-03         3.18813         3.05992        -5.14330         3.04133        -5.12463         3.18805     655.617E-03     46.5373E-03    -22.1369E-03    -24.4004E-03    -22.3638E-03     44.5007E-03    -22.1369E-03     23.4359E-03     71.6224E+06     36.0349E+06    -45.8473E+06     60.9379E+06    -35.1628E+06     36.0349E+06    -33.6266E+06         23.9152
            1845     7.82506E-03     99.3752E-03         3.16049         2.88325        -4.91759         2.86284        -4.89719         3.16049     654.446E-03     47.6856E-03    -22.1691E-03    -25.5164E-03    -22.8471E-03     45.0163E-03    -22.1691E-03     27.1846E-03     58.6337E+06     28.0208E+06    -53.5070E+06     49.9103E+06    -44.7837E+06     28.0208E+06    -29.8950E+06         24.1849
            1846     8.80251E-03     99.3831E-03         3.11752         2.67510        -4.63936         2.64450        -4.60876         3.11752     934.143E-03     49.2868E-03    -22.2832E-03    -27.0036E-03    -23.6293E-03     45.9126E-03    -22.2832E-03     31.1134E-03     45.2125E+06     23.6210E+06    -59.6759E+06     38.5449E+06    -53.0084E+06     23.6210E+06    -25.3872E+06         24.5550
            1847     9.77918E-03     99.3941E-03         3.06080         2.44352        -4.31925         2.40404        -4.27978         3.06080     995.130E-03     51.3913E-03    -22.4632E-03    -28.9281E-03    -24.8320E-03     47.2952E-03    -22.4632E-03     35.1317E-03     32.1223E+06     20.2778E+06    -52.0343E+06     27.4922E+06    -47.4043E+06     20.2778E+06    -18.9291E+06         25.0763
            1848     10.7541E-03     99.4078E-03         2.99216         2.19673        -3.96789         2.14268        -3.91384         2.99216         1.14691     53.6219E-03    -22.7732E-03    -30.8486E-03    -26.4197E-03     49.1929E-03    -22.7732E-03     37.4979E-03     25.9971E+06     14.0113E+06    -53.8361E+06     15.8298E+06    -49.9854E+06     20.3279E+06    -15.9999E+06         25.8690
            1849     11.7274E-03     99.4212E-03         2.91214         1.89849        -3.54871         1.83738        -3.48759         2.91214         1.13783     56.6422E-03    -23.1108E-03    -33.5314E-03    -28.3190E-03     51.4298E-03    -23.1108E-03     41.8920E-03     15.6686E+06     1.19869E+06    -51.6440E+06     5.30314E+06    -47.5952E+06     7.51526E+06    -14.7923E+06         27.2341
            1850     12.6994E-03     99.4448E-03         2.82006         1.52229        -3.03782         1.46692        -2.98245         2.82006     993.813E-03     61.3540E-03    -23.5879E-03    -37.7661E-03    -30.3179E-03     53.9058E-03    -23.5879E-03     52.0306E-03     16.4355E+06    -44.6934E+03    -27.9570E+06    -1.03873E+06    -21.1964E+06     10.6689E+06    -11.1511E+06         29.9040
            1851     13.6687E-03     99.4789E-03         2.71476         1.06600        -2.43435         1.03608        -2.40442         2.71476     641.925E-03     66.3132E-03    -24.0821E-03    -42.2311E-03    -32.0114E-03     56.0935E-03    -24.0821E-03     63.3083E-03     10.8428E+06    -26.7042E+06    -64.3824E+06    -5.53889E+06    -58.7144E+06    -15.9905E+06    -11.8088E+06         35.4379
            1852     14.6382E-03     99.5306E-03         2.59739     570.233E-03        -1.78103     558.298E-03        -1.76910         2.59739     321.308E-03     80.7303E-03    -24.4954E-03    -56.2349E-03    -32.9728E-03     57.4682E-03    -24.4954E-03     100.598E-03     49.8885E+06    -30.0679E+06    -65.8271E+06    -9.10109E+06    -3.08198E+06    -33.8235E+06    -17.5312E+06         46.1842
            1853     15.6108E-03     99.6477E-03         2.47824     34.4231E-03        -1.08570     30.9748E-03        -1.08225         2.47824     117.645E-03     164.826E-03    -24.9490E-03    -139.877E-03    -46.0711E-03     71.0201E-03    -24.9490E-03     278.815E-03     52.7424E+06    -22.7066E+06    -45.7679E+06    -11.0516E+06     33.8316E+06    -38.5121E+06    -20.3252E+06         63.3248
            1854     16.5830E-03     100.103E-03         2.36348    -127.598E-03    -763.792E-03    -520.137E-03    -371.253E-03         2.36348     40.5632E-03     266.360E-03    -25.8528E-03    -240.507E-03    -67.6096E-03     93.4624E-03    -25.8528E-03     480.554E-03     89.9522E+06     64.2821E+06    -36.6301E+06    -7.75883E+06     69.7866E+06     55.5765E+06    -10.9010E+06         83.0679
            1855     980.432E-06     100.399E-03         5.75419         3.55032        -8.27908         3.23231        -5.75719         3.55032         4.81462     39.6523E-03    -19.7274E-03    -19.9249E-03    -19.8542E-03     39.5817E-03    -19.7274E-03     3.78304E-03     113.787E+06     105.729E+06     49.3967E+06     109.058E+06     52.7845E+06     107.071E+06    -11.1987E+06         22.9228
            1856     1.96122E-03     100.399E-03         4.09191         3.40812        -6.46532         3.47503        -5.84844         3.40812    -383.887E-03     39.5056E-03    -19.6819E-03    -19.8237E-03    -19.5989E-03     39.2808E-03    -19.6819E-03     6.98162E-03     113.479E+06     95.0796E+06     55.0557E+06     104.952E+06     63.5827E+06     95.0796E+06    -20.1483E+06         22.9451
            1857     2.94211E-03     100.400E-03         3.74082         3.43051        -6.12987         3.46356        -5.85261         3.43051         1.77935     39.4718E-03    -19.5682E-03    -19.9036E-03    -19.4181E-03     38.9863E-03    -19.5682E-03     10.4703E-03     108.458E+06     80.7150E+06     37.2536E+06     96.9769E+06     48.7351E+06     80.7150E+06    -25.9317E+06         22.9866
            1858     3.92349E-03     100.401E-03         3.54660         3.44124        -5.95297         3.48061        -5.88698         3.44124     519.060E-03     39.6654E-03    -19.4618E-03    -20.2037E-03    -19.3219E-03     38.7836E-03    -19.4618E-03     14.1689E-03     98.0336E+06     64.9321E+06     16.6411E+06     86.0750E+06     28.5996E+06     64.9321E+06    -28.7057E+06         23.0546
            1859     4.90407E-03     100.403E-03         3.50824         3.42165        -5.89516         3.42951        -5.83988         3.44510     818.863E-03     40.1465E-03    -19.3816E-03    -20.7648E-03    -19.3281E-03     38.7097E-03    -19.3816E-03     18.2292E-03     82.6438E+06     48.3849E+06    -4.09786E+06     72.1016E+06     6.44427E+06     48.3849E+06    -28.2173E+06         23.1580
            1860     5.88561E-03     100.406E-03         3.43583         3.34203        -5.73778         3.32800        -5.72327         3.43535     295.087E-03     40.9696E-03    -19.3383E-03    -21.6313E-03    -19.5015E-03     38.8398E-03    -19.3383E-03     22.4476E-03     64.0732E+06     31.2896E+06    -24.6170E+06     55.8721E+06    -16.4158E+06     31.2896E+06    -25.5782E+06         23.3082
            1861     6.86597E-03     100.411E-03         3.41029         3.18341        -5.53458         3.16991        -5.52108         3.41029     589.650E-03     42.2000E-03    -19.3452E-03    -22.8548E-03    -19.8957E-03     39.2409E-03    -19.3452E-03     26.8660E-03     45.7664E+06     15.7719E+06    -40.9154E+06     39.4097E+06    -34.5586E+06     15.7719E+06    -22.4301E+06         23.5193
            1862     7.84653E-03     100.418E-03         3.36931         2.98262        -5.26768         2.96618        -5.25124         3.36931     614.586E-03     43.8809E-03    -19.4444E-03    -24.4365E-03    -20.5932E-03     40.0375E-03    -19.4444E-03     31.2807E-03     27.9580E+06     7.46381E+06    -51.2364E+06     23.3682E+06    -46.6466E+06     7.46381E+06    -18.2517E+06         23.8115
            1863     8.82595E-03     100.428E-03         3.31349         2.75502        -4.95389         2.73057        -4.92944         3.31349     858.745E-03     46.2863E-03    -19.6715E-03    -26.6148E-03    -21.8458E-03     41.5173E-03    -19.6715E-03     35.8734E-03     15.3863E+06     4.65155E+06    -58.3905E+06     9.27348E+06    -55.4389E+06     7.81279E+06    -13.4353E+06         24.2139
            1864     9.80347E-03     100.441E-03         3.24508         2.51030        -4.60354         2.47982        -4.57306         3.24508     900.094E-03     49.2370E-03    -19.9932E-03    -29.2438E-03    -23.6182E-03     43.6114E-03    -19.9932E-03     40.3557E-03     10.2526E+06    -1.26255E+06    -53.8640E+06    -1.24748E+06    -52.1241E+06     8.49767E+06    -8.90175E+06         24.7791
            1865     10.7798E-03     100.456E-03         3.16543         2.23930        -4.21108         2.19611        -4.16789         3.16543         1.04863     52.3943E-03    -20.4748E-03    -31.9196E-03    -25.9778E-03     46.4526E-03    -20.4748E-03     43.0433E-03     15.7469E+06    -7.46794E+06    -49.7616E+06    -7.59772E+06    -48.8347E+06     14.9497E+06    -5.67629E+06         25.6281
            1866     11.7529E-03     100.474E-03         3.07394         1.91084        -3.74411         1.85897        -3.69224         3.07394         1.06868     56.3150E-03    -21.0426E-03    -35.2724E-03    -28.6817E-03     49.7243E-03    -21.0426E-03     47.2594E-03     11.1767E+06    -10.8719E+06    -47.6521E+06    -12.6306E+06    -45.8541E+06     11.1373E+06    -6.64862E+06         27.0603
            1867     12.7240E-03     100.498E-03         2.97030         1.52886        -3.20936         1.48077        -3.16126         2.97030     945.753E-03     61.9566E-03    -21.7362E-03    -40.2204E-03    -31.4617E-03     53.1979E-03    -21.7362E-03     57.0909E-03     13.1617E+06    -10.5023E+06    -29.9502E+06    -16.1217E+06    -24.2914E+06     13.1223E+06    -6.11203E+06         29.8036
            1868     13.6923E-03     100.540E-03         2.85426         1.07659        -2.59443         1.04928        -2.56712         2.85426     628.615E-03     68.0140E-03    -22.4850E-03    -45.5290E-03    -34.7053E-03     57.1903E-03    -22.4850E-03     66.6462E-03     6.88336E+06    -29.2573E+06     -57.194E+06    -16.7973E+06    -50.9473E+06    -11.8232E+06    -10.4442E+06         35.4172
            1869     14.6589E-03     100.587E-03         2.72552     562.411E-03        -1.90497     550.282E-03        -1.89284         2.72552     339.445E-03     82.2282E-03    -23.3288E-03    -58.8994E-03    -37.2875E-03     60.6163E-03    -23.3288E-03     99.6308E-03     51.2807E+06    -10.0531E+06    -56.1856E+06    -14.9190E+06     10.0141E+06    -10.0531E+06    -18.8988E+06         46.2798
            1870     15.6249E-03     100.712E-03         2.58942     15.7844E-03        -1.17405     10.9529E-03        -1.16921         2.58942     146.127E-03     165.858E-03    -24.2252E-03    -141.633E-03    -52.1429E-03     76.3681E-03    -24.2252E-03     276.225E-03     55.9641E+06    -13.4512E+06    -37.3586E+06    -12.7879E+06     31.7150E+06    -13.7728E+06    -20.2587E+06         63.7491
            1871     16.5900E-03     101.167E-03         2.44826    -153.396E-03    -810.228E-03    -538.597E-03    -425.026E-03         2.44826     58.3504E-03     264.511E-03    -25.4559E-03    -239.056E-03    -72.4543E-03     97.9102E-03    -25.4559E-03     473.816E-03     81.8034E+06     50.0112E+06    -33.9797E+06    -10.5980E+06     53.7392E+06     54.6937E+06    -14.8013E+06         84.2655
            1872     983.947E-06     101.436E-03         5.24564         3.69575        -7.96780         3.59760        -6.31977         3.69575         3.88373     32.9595E-03    -16.3929E-03    -16.5666E-03    -16.4542E-03     32.8583E-03    -16.4042E-03     4.08902E-03     109.506E+06     96.6781E+06     66.4682E+06     102.998E+06     73.5795E+06     96.0752E+06    -11.0798E+06         22.4377
            1873     1.96787E-03     101.436E-03         4.08759         3.65932        -6.76952         3.70995        -6.39188         3.65932    -227.624E-03     32.8967E-03    -16.3088E-03    -16.5879E-03    -16.2765E-03     32.5853E-03    -16.3088E-03     7.56973E-03     106.251E+06     81.2030E+06     67.0677E+06     93.4764E+06     80.4456E+06     80.6001E+06    -16.8628E+06         22.4629
            1874     2.95202E-03     101.436E-03         3.83888         3.66919        -6.53175         3.66153        -6.35575         3.67054         1.50373     33.0669E-03    -16.2204E-03    -16.8465E-03    -16.1773E-03     32.3977E-03    -16.2204E-03     11.2331E-03     93.1985E+06     63.0175E+06     47.3209E+06     80.5336E+06     59.9858E+06     63.0175E+06    -19.6066E+06         22.5101
            1875     3.93591E-03     101.437E-03         3.69709         3.65522        -6.38304         3.64572        -6.34308         3.66662     460.011E-03     33.4749E-03    -16.1296E-03    -17.3453E-03    -16.1304E-03     32.2600E-03    -16.1296E-03     15.2736E-03     73.1524E+06     41.0432E+06     23.8532E+06     64.1269E+06      33.598E+06     40.3239E+06    -18.6882E+06         22.5873
            1876     4.92062E-03     101.439E-03         3.67385         3.57332        -6.27661         3.55799        -6.24216         3.65474     683.289E-03     34.2949E-03    -16.0804E-03    -18.2146E-03    -16.2628E-03     32.3432E-03    -16.0804E-03     19.6498E-03     50.9179E+06     20.4523E+06     1.68753E+06     45.4330E+06     7.89171E+06     19.7331E+06    -15.0429E+06         22.7045
            1877     5.90410E-03     101.442E-03         3.62791         3.42384        -6.06842         3.41433        -6.05892         3.62791     270.515E-03     35.6190E-03    -16.1091E-03    -19.5099E-03    -16.6310E-03     32.7401E-03    -16.1091E-03     24.3151E-03     29.6489E+06     4.31545E+06    -20.7189E+06     26.2946E+06    -17.3645E+06     4.31545E+06    -10.9147E+06         22.8742
            1878     6.88776E-03     101.448E-03         3.58510         3.23165        -5.80966         3.22199        -5.79999         3.58510     531.481E-03     37.4304E-03    -16.2248E-03    -21.2056E-03    -17.2773E-03     33.5021E-03    -16.2248E-03     29.1475E-03     10.2890E+06    -6.75434E+06    -38.8848E+06     6.97432E+06    -36.7070E+06    -5.61751E+06    -6.36181E+06         23.1127
            1879     7.87029E-03     101.456E-03         3.52725         3.01030        -5.50198         2.99692        -5.48860         3.52725     583.133E-03     39.8972E-03    -16.4550E-03    -23.4422E-03    -18.4233E-03     34.8783E-03    -16.4550E-03     34.0783E-03    -2.29572E+06    -14.0371E+06    -49.9412E+06    -9.80573E+06    -48.4676E+06    -8.00069E+06    -3.51547E+06         23.4420
            1880     8.85135E-03     101.468E-03         3.45659         2.77223        -5.15940         2.75252        -5.13969         3.45659     783.597E-03     43.1643E-03    -16.8323E-03    -26.3320E-03    -20.2090E-03     37.0413E-03    -16.8323E-03     39.2877E-03    -1.41769E+06    -19.0207E+06    -57.2177E+06    -19.2991E+06    -56.2351E+06    -2.12192E+06    -3.53475E+06         23.8934
            1881     9.83084E-03     101.483E-03         3.37490         2.50745        -4.77389         2.48298        -4.74942         3.37490     820.007E-03     47.1762E-03    -17.3505E-03    -29.8257E-03    -22.7439E-03     40.0943E-03    -17.3505E-03     44.4283E-03     6.77673E+06    -21.1339E+06    -55.0060E+06    -21.5901E+06    -54.5498E+06     6.77673E+06    -2.66318E+06         24.5216
            1882     10.8067E-03     101.503E-03         3.28241         2.21087        -4.33805         2.17589        -4.30306         3.28241     953.271E-03     51.3287E-03    -18.0343E-03    -33.2944E-03    -25.9479E-03     43.9822E-03    -18.0343E-03     47.5746E-03     16.3530E+06    -19.7672E+06    -49.4174E+06    -20.2799E+06    -48.9046E+06     16.3530E+06    -2.15991E+06         25.4513
            1883     11.7801E-03     101.524E-03         3.17888         1.87605        -3.84709         1.83289        -3.80394         3.17888     981.196E-03     56.5165E-03    -18.8673E-03    -37.6491E-03    -29.8717E-03     48.7390E-03    -18.8673E-03     51.8123E-03     19.5086E+06    -15.7022E+06    -42.8991E+06    -16.4163E+06    -42.1850E+06     19.5086E+06    -3.39084E+06         26.9830
            1884     12.7488E-03     101.554E-03         3.06416         1.48596        -3.28818         1.44653        -3.24874         3.06416     859.149E-03     63.1858E-03    -19.8665E-03    -43.3193E-03    -33.9025E-03     53.7689E-03    -19.8665E-03     60.4205E-03     22.7510E+06    -11.9638E+06    -27.8895E+06    -13.8950E+06    -25.9583E+06     22.7510E+06    -3.03754E+06         29.8358
            1885     13.7159E-03     101.598E-03         2.93744         1.02641        -2.64811         1.00364        -2.62533         2.93744     575.394E-03     71.2575E-03    -20.9774E-03    -50.2801E-03    -39.3088E-03     60.2862E-03    -20.9774E-03     69.6299E-03     11.7099E+06    -19.1009E+06    -41.9783E+06    -12.8378E+06    -37.1434E+06     611.850E+03    -10.3636E+06         35.5500
            1886     14.6742E-03     101.656E-03         2.79789     516.529E-03        -1.94436     505.558E-03        -1.93339         2.79789     322.776E-03     85.7684E-03    -22.3729E-03    -63.3955E-03    -44.7924E-03     67.1653E-03    -22.3729E-03     97.1397E-03     47.9919E+06     11.2151E+06    -39.1034E+06    -10.7662E+06     19.6547E+06     11.2151E+06    -19.7393E+06         46.4949
            1887     15.6339E-03     101.774E-03         2.64631    -19.3074E-03        -1.20141    -23.6810E-03        -1.19704         2.64631     138.458E-03     166.644E-03    -23.7971E-03    -142.847E-03    -59.2999E-03     83.0969E-03    -23.7971E-03     269.396E-03     50.8390E+06     322.135E+03    -32.0720E+06    -8.76465E+06     28.1212E+06    -267.398E+03    -19.6531E+06         64.1477
            1888     16.5903E-03     102.245E-03         2.48028    -167.206E-03    -827.820E-03    -560.111E-03    -434.915E-03         2.48028     61.7624E-03     260.715E-03    -25.3187E-03    -235.396E-03    -74.1265E-03     99.4452E-03    -25.3187E-03     464.606E-03     77.4468E+06     43.4766E+06    -27.4471E+06    -5.64061E+06     47.0978E+06     52.0191E+06    -13.8364E+06         85.0377
            1889     987.462E-06     102.466E-03         4.84513         3.82730        -7.76434         3.85642        -6.77562         3.82730         2.99964     25.6574E-03    -12.7211E-03    -12.9363E-03    -12.8018E-03     25.5341E-03    -12.7324E-03     3.98582E-03     102.535E+06     80.0562E+06     71.1356E+06     82.7018E+06     91.5724E+06     79.4527E+06    -9.01300E+06         21.9277
            1890     1.97506E-03     102.466E-03         4.09900         3.85004        -7.04093         3.88298        -6.82491         3.85004    -111.720E-03     25.7520E-03    -12.6746E-03    -13.0774E-03    -12.6910E-03     25.3656E-03    -12.6746E-03     7.44721E-03     96.9609E+06     64.9173E+06     60.4400E+06     71.4960E+06     89.9804E+06     60.8419E+06    -9.95303E+06         21.9599
            1891     2.96251E-03     102.466E-03         3.93843         3.84434        -6.88175         3.82535        -6.77792         3.85359         1.21007     26.2014E-03    -12.6304E-03    -13.5710E-03    -12.7231E-03     25.3535E-03    -12.6304E-03     11.2548E-03     72.7418E+06     45.8420E+06     39.5507E+06     54.7303E+06     62.9457E+06     40.4586E+06    -7.82185E+06         22.0186
            1892     3.95022E-03     102.466E-03         3.83962         3.78692        -6.73399         3.76446        -6.71152         3.83962     380.189E-03     27.0384E-03    -12.6199E-03    -14.4185E-03    -12.9002E-03     25.5201E-03    -12.6199E-03     15.3812E-03     45.0427E+06     21.9643E+06     17.1901E+06     34.4691E+06     32.0319E+06     17.6961E+06    -3.20326E+06         22.1120
            1893     4.93705E-03     102.468E-03         3.81234         3.65035        -6.56133         3.63046        -6.54144         3.81234     537.579E-03     28.2851E-03    -12.6504E-03    -15.6347E-03    -13.2092E-03     25.8596E-03    -12.6504E-03     19.8702E-03     21.8888E+06    -2.70928E+06    -6.77936E+06     12.7016E+06     4.76452E+06    -5.06596E+06     1.76073E+06         22.2506
            1894     5.92413E-03     102.473E-03         3.76806         3.45520        -6.30622         3.44875        -6.29978         3.76806     246.388E-03     30.0918E-03    -12.7862E-03    -17.3056E-03    -13.7722E-03     26.5584E-03    -12.7862E-03     24.7470E-03     1.11676E+06    -17.7545E+06    -31.2621E+06    -7.99478E+06    -22.1506E+06    -17.7545E+06     6.52805E+06         22.4487
            1895     6.91010E-03     102.479E-03         3.70741         3.22747        -5.98782         3.22006        -5.98042         3.70741     494.307E-03     32.6916E-03    -13.0500E-03    -19.6416E-03    -14.8482E-03     27.8982E-03    -13.0500E-03     30.0666E-03    -12.9918E+06    -20.7197E+06    -46.8744E+06    -23.0918E+06    -39.6808E+06    -17.8132E+06     9.02112E+06         22.7245
            1896     7.89462E-03     102.489E-03         3.63241         2.98439        -5.63983         2.97264        -5.62808         3.63241     572.073E-03     36.0379E-03    -13.4424E-03    -22.5955E-03    -16.5190E-03     29.9614E-03    -13.4424E-03     35.6499E-03    -11.0226E+06    -26.1919E+06    -51.5208E+06    -30.6228E+06    -47.0899E+06    -11.0226E+06     7.22078E+06         23.1020
            1897     8.87745E-03     102.503E-03         3.54595         2.72504        -5.25977         2.70797        -5.24270         3.54595     734.652E-03     40.2628E-03    -13.9932E-03    -26.2696E-03    -18.9084E-03     32.9016E-03    -13.9932E-03     41.6709E-03    -495.160E+03    -32.1894E+06    -54.2926E+06    -33.5589E+06    -52.9231E+06    -495.160E+03     2.86897E+06         23.6147
            1898     9.85719E-03     102.522E-03         3.44909         2.43250        -4.82808         2.41049        -4.80606         3.44909     777.683E-03     45.3024E-03    -14.7033E-03    -30.5991E-03    -22.1537E-03     36.8570E-03    -14.7033E-03     47.6777E-03     9.34031E+06    -30.2935E+06    -55.0549E+06    -32.0240E+06    -53.3244E+06     9.34031E+06    -1.88255E+06         24.3219
            1899     10.8341E-03     102.546E-03         3.34183         2.11383        -4.35225         2.08289        -4.32131         3.34183     891.636E-03     50.6811E-03    -15.6049E-03    -35.0762E-03    -26.4042E-03     42.0091E-03    -15.6049E-03     51.6204E-03     18.8139E+06    -23.0433E+06    -48.5170E+06    -24.8903E+06    -46.6700E+06     18.8139E+06    -4.74583E+06         25.3546
            1900     11.8059E-03     102.573E-03         3.22490         1.77596        -3.83946         1.73950        -3.80299         3.22490     896.374E-03     57.4347E-03    -16.7301E-03    -40.7047E-03    -31.7456E-03     48.4756E-03    -16.7301E-03     56.5095E-03     23.6547E+06    -16.1592E+06    -42.4948E+06    -17.5998E+06    -41.0542E+06     23.6547E+06    -5.56881E+06         27.0164
            1901     12.7728E-03     102.611E-03         3.09838         1.38435        -3.26127         1.35157        -3.22848         3.09838     775.121E-03     66.2414E-03    -18.1141E-03    -48.1273E-03    -38.1998E-03     56.3138E-03    -18.1141E-03     64.3862E-03     28.9499E+06    -5.56710E+06    -28.5132E+06    -9.12516E+06    -24.9552E+06     28.9499E+06    -6.23338E+06         30.0085
            1902     13.7329E-03     102.660E-03         2.96088     925.932E-03        -2.60432     906.824E-03        -2.58521         2.96088     517.261E-03     76.8947E-03    -19.7218E-03    -57.1729E-03    -46.1401E-03     65.8619E-03    -19.7218E-03     73.6399E-03     18.8935E+06    -4.97666E+06    -29.9920E+06    -2.63007E+06    -24.8262E+06     11.3811E+06    -10.0760E+06         35.8135
            1903     14.6868E-03     102.733E-03         2.81145     439.637E-03        -1.90632     430.017E-03        -1.89670         2.81145     296.924E-03     92.7977E-03    -21.7691E-03    -71.0286E-03    -55.0060E-03     76.7751E-03    -21.7691E-03     96.7326E-03     53.5113E+06     25.0142E+06    -26.2874E+06    -1.91741E+06     29.1413E+06     25.0142E+06    -18.4735E+06         46.7217
            1904     15.6304E-03     102.851E-03         2.64671    -65.9779E-03        -1.17368    -69.7940E-03        -1.16986         2.64671     127.866E-03     164.857E-03    -23.7821E-03    -141.075E-03    -65.7136E-03     89.4957E-03    -23.7821E-03     254.704E-03     55.5058E+06     4.62918E+06    -30.5878E+06    -596.101E+03     25.7820E+06     4.36128E+06    -18.9085E+06         64.2380
            1905     16.5855E-03     103.311E-03         2.45887    -170.747E-03    -819.206E-03    -581.447E-03    -408.506E-03         2.45887     59.6831E-03     253.003E-03    -25.5116E-03    -227.491E-03    -70.6147E-03     96.1263E-03    -25.5116E-03     450.089E-03     79.6856E+06     35.5171E+06    -28.0367E+06    -589.905E+03     38.2301E+06     49.5258E+06    -9.31799E+06         84.9715
            1906     991.040E-06     103.488E-03         4.55570         3.91753        -7.64556         4.02338        -7.11324         3.91753         2.23538     18.3926E-03    -9.05106E-03    -9.34156E-03    -9.19802E-03     18.2491E-03    -9.05106E-03     3.65837E-03     101.424E+06     54.0979E+06     50.7059E+06     52.3339E+06     100.566E+06     53.3274E+06    -1.36461E+06         21.4339
            1907     1.98202E-03     103.488E-03         4.09965         3.97387        -7.25233         3.98773        -7.14041         3.97387     1.33660E-03     18.7352E-03    -9.10274E-03    -9.63245E-03    -9.18926E-03     18.2920E-03    -9.10274E-03     6.80749E-03     90.4922E+06     41.0074E+06     34.7898E+06     40.2511E+06     89.2735E+06     36.7648E+06     1.67059E+06         21.4764
            1908     2.97317E-03     103.488E-03         4.00017         3.94532        -7.12775         3.91903        -7.07032         3.96902     949.961E-03     19.5356E-03    -9.14979E-03    -10.3859E-03    -9.42843E-03     18.5782E-03    -9.14979E-03     10.3567E-03     60.0287E+06     23.4339E+06     12.9321E+06     22.2154E+06     56.1289E+06     18.0505E+06     8.89475E+06         21.5507
            1909     3.96351E-03     103.489E-03         3.94638         3.84343        -6.97742         3.83117        -6.96516         3.94638     324.495E-03     20.7934E-03    -9.24371E-03    -11.5497E-03    -9.83000E-03     19.0737E-03    -9.24371E-03     14.3518E-03     33.4665E+06     1.26747E+06    -10.8702E+06     1.42408E+06     24.7211E+06    -2.28143E+06     16.0126E+06         21.6644
            1910     4.95368E-03     103.492E-03         3.90733         3.66998        -6.75399         3.65879        -6.74280         3.90733     426.810E-03     22.5193E-03    -9.39775E-03    -13.1216E-03    -10.3712E-03     19.7689E-03    -9.39775E-03     18.8870E-03     12.2879E+06    -18.3626E+06    -35.0559E+06    -18.6445E+06    -2.48603E+06    -20.0000E+06     21.1531E+06         21.8289
            1911     5.94294E-03     103.496E-03         3.84885         3.44594        -6.45013         3.44104        -6.44523         3.84885     248.473E-03     24.9787E-03    -9.66587E-03    -15.3128E-03    -11.2868E-03     20.9527E-03    -9.66587E-03     24.0619E-03    -7.35133E+06    -26.5533E+06    -53.5789E+06    -33.9128E+06    -27.0175E+06    -26.5533E+06     22.5721E+06         22.0594
            1912     6.93112E-03     103.505E-03         3.77307         3.18717        -6.08721         3.18074        -6.08078         3.77307     475.059E-03     28.2490E-03    -10.0561E-03    -18.1929E-03    -12.6928E-03     22.7489E-03    -10.0561E-03     29.9226E-03    -17.8116E+06    -25.4182E+06    -58.2088E+06    -41.3007E+06    -38.0363E+06    -22.1017E+06     18.2027E+06         22.3759
            1913     7.91778E-03     103.517E-03         3.68260         2.91223        -5.69102         2.90154        -5.68034         3.68260     558.498E-03     32.3751E-03    -10.5889E-03    -21.7862E-03    -14.7741E-03     25.3630E-03    -10.5889E-03     36.2983E-03    -11.3319E+06    -29.8759E+06    -54.9258E+06    -41.8802E+06    -42.9215E+06    -11.3319E+06     11.2953E+06         22.8049
            1914     8.90178E-03     103.534E-03         3.57989         2.61184        -5.25251         2.59605        -5.23672         3.57989     703.034E-03     37.5927E-03    -11.2944E-03    -26.2983E-03    -17.7432E-03     29.0375E-03    -11.2944E-03     43.4540E-03     1.70730E+06    -34.7799E+06    -51.3330E+06    -38.1333E+06    -47.9796E+06     1.70730E+06     5.06262E+06         23.3849
            1915     9.88277E-03     103.558E-03         3.46625         2.29095        -4.77294         2.27054        -4.75254         3.46625     743.137E-03     43.7951E-03    -12.1849E-03    -31.6102E-03    -21.7542E-03     33.9392E-03    -12.1849E-03     50.7782E-03     12.8077E+06    -31.2441E+06    -47.5351E+06    -33.1940E+06    -45.5851E+06     12.8077E+06    -2.27701E+06         24.1818
            1916     10.8592E-03     103.588E-03         3.34326         1.96261        -4.26614         1.93449        -4.23801         3.34326     834.026E-03     50.6413E-03    -13.3082E-03    -37.3331E-03    -27.1158E-03     40.4241E-03    -13.3082E-03     56.2628E-03     19.2633E+06    -23.1880E+06    -47.2983E+06    -27.4395E+06    -43.0469E+06     19.2633E+06    -8.91421E+06         25.3341
            1917     11.8300E-03     103.623E-03         3.21212         1.61329        -3.72285         1.58031        -3.68988         3.21212     831.898E-03     59.4516E-03    -14.7379E-03    -44.7137E-03    -34.2492E-03     48.9871E-03    -14.7379E-03     62.5656E-03     23.3754E+06    -15.0523E+06    -45.4595E+06    -19.4042E+06    -41.1076E+06     23.3754E+06    -10.2409E+06         27.1453
            1918     12.7936E-03     103.668E-03         3.07280         1.22698        -3.13051         1.19578        -3.09931         3.07280     733.909E-03     71.4084E-03    -16.5437E-03    -54.8647E-03    -43.5536E-03     60.0973E-03    -16.5437E-03     72.0745E-03     29.1037E+06    -1.18200E+06    -31.4261E+06    -11.7438E+06    -20.8643E+06     29.1037E+06    -11.6686E+06         30.2835
            1919     13.7467E-03     103.733E-03         2.92447     791.303E-03        -2.48016     771.883E-03        -2.46074         2.92447     500.357E-03     85.3063E-03    -18.7230E-03    -66.5834E-03    -54.5524E-03     73.2754E-03    -18.7230E-03     81.9814E-03     21.5004E+06     2.78357E+06    -31.6952E+06    -3.44497E+06    -18.2672E+06     14.3009E+06    -15.8740E+06         36.1321
            1920     14.6893E-03     103.814E-03         2.76595     331.592E-03        -1.79243     321.009E-03        -1.78185         2.76595     296.772E-03     104.004E-03    -21.4624E-03    -82.5418E-03    -66.3067E-03     87.7691E-03    -21.4624E-03     104.897E-03     60.1951E+06     33.1250E+06    -21.5154E+06     2.91333E+06     35.7664E+06     33.1250E+06    -17.4738E+06         46.8364
            1921     15.6214E-03     103.954E-03         2.59055    -137.045E-03        -1.08066    -143.160E-03        -1.07455         2.59055     144.224E-03     161.353E-03    -24.0660E-03    -137.287E-03    -71.7262E-03     95.7922E-03    -24.0660E-03     237.199E-03     52.7785E+06     3.89462E+06    -33.0681E+06    -1.37469E+06     23.1462E+06     1.83340E+06    -13.8128E+06         63.8649
            1922     16.5718E-03     104.354E-03         2.38628    -169.926E-03    -780.808E-03    -609.179E-03    -341.555E-03         2.38628     73.7936E-03     240.671E-03    -25.9470E-03    -214.724E-03    -63.7093E-03     89.6563E-03    -25.9470E-03     426.782E-03     73.3698E+06     25.9352E+06    -36.0965E+06    -6.07219E+06     26.9852E+06     42.2954E+06    -8.47147E+06         84.2098
            1923     994.420E-06     104.503E-03         4.35856         3.99732        -7.63481         4.07928        -7.35553         3.99732         1.68343     11.8056E-03    -5.76630E-03    -6.03934E-03    -5.88538E-03     11.6517E-03    -5.76630E-03     3.08727E-03     94.4317E+06     21.6579E+06     16.9372E+06     19.4958E+06     92.7173E+06     20.8137E+06     9.63362E+06         20.9978
            1924     1.98862E-03     104.503E-03         4.08829         4.03067        -7.39491         4.02624        -7.33807         4.03588     92.0402E-03     12.5523E-03    -5.90906E-03    -6.64323E-03    -6.18625E-03     12.0953E-03    -5.90906E-03     5.68997E-03     82.0949E+06     10.6970E+06    -2.19449E+06     4.30806E+06     76.3624E+06     9.92694E+06     18.8736E+06         21.0515
            1925     2.98208E-03     104.504E-03         4.02295         3.97070        -7.27028         3.94139        -7.23835         4.02033     774.530E-03     13.7187E-03    -6.10521E-03    -7.61347E-03    -6.62111E-03     12.7263E-03    -6.10521E-03     8.84490E-03     53.7508E+06    -3.09767E+06    -26.2680E+06    -12.8884E+06     40.3712E+06    -3.09767E+06     28.6366E+06         21.1414
            1926     3.97538E-03     104.505E-03         3.98775         3.83910        -7.10045         3.83198        -7.09333         3.98775     319.061E-03     15.2211E-03    -6.30795E-03    -8.91315E-03    -7.12327E-03     13.4312E-03    -6.30795E-03     12.5315E-03     33.3289E+06    -17.7543E+06    -48.8617E+06    -28.2897E+06     12.7568E+06    -17.7543E+06     35.4715E+06         21.2749
            1927     4.96798E-03     104.508E-03         3.93803         3.64186        -6.84124         3.63494        -6.83432         3.93803     381.248E-03     17.4380E-03    -6.58389E-03    -10.8541E-03    -7.94970E-03     14.5336E-03    -6.58389E-03     17.0795E-03     14.6640E+06    -25.0085E+06    -64.3340E+06    -39.5360E+06    -10.1340E+06    -25.0085E+06     36.4173E+06         21.4639
            1928     5.95951E-03     104.515E-03         3.86745         3.38736        -6.49579         3.38345        -6.49188         3.86745     269.956E-03     20.4629E-03    -6.96001E-03    -13.5029E-03    -9.16151E-03     16.1215E-03    -6.96001E-03     22.6005E-03    -2.59743E+06    -24.7046E+06    -68.2031E+06    -43.9649E+06    -26.8356E+06    -24.7046E+06     31.5769E+06         21.7242
            1929     6.94961E-03     104.525E-03         3.77798         3.09570        -6.08831         3.08972        -6.08233         3.77798     463.767E-03     24.2719E-03    -7.43867E-03    -16.8333E-03    -10.7878E-03     18.2264E-03    -7.43867E-03     29.0533E-03    -12.0325E+06    -21.8070E+06    -61.9068E+06    -44.1331E+06    -32.2961E+06    -19.3170E+06     22.8663E+06         22.0772
            1930     7.93794E-03     104.540E-03         3.67217         2.77732        -5.63445         2.76780        -5.62493         3.67217     536.262E-03     29.0679E-03    -8.06365E-03    -21.0042E-03    -13.1294E-03     21.1931E-03    -8.06365E-03     36.4020E-03    -9.97102E+06    -26.1271E+06    -53.9351E+06    -43.2116E+06    -36.8506E+06    -9.97102E+06     13.4984E+06         22.5540
            1931     8.92359E-03     104.561E-03         3.55288         2.44394        -5.14336         2.43001        -5.12942         3.55288     649.345E-03     35.1171E-03    -8.86667E-03    -26.2504E-03    -16.4563E-03     25.3229E-03    -8.86667E-03     44.8931E-03     1.42678E+06    -32.3401E+06    -46.5038E+06    -39.2456E+06    -39.5983E+06     1.42678E+06     3.17293E+06         23.1998
            1932     9.90564E-03     104.590E-03         3.42290         2.10496        -4.62439         2.08652        -4.60595         3.42290     692.065E-03     42.6222E-03    -9.89354E-03    -32.7287E-03    -21.1849E-03     31.0784E-03    -9.89354E-03     54.2019E-03     13.2967E+06    -28.1368E+06    -41.2249E+06    -31.3576E+06    -38.0042E+06     13.2967E+06    -4.49596E+06         24.0893
            1933     10.8822E-03     104.628E-03         3.28476         1.76641        -4.08650         1.74096        -4.06105         3.28476     768.309E-03     51.2461E-03    -11.2158E-03    -40.0302E-03    -27.7812E-03     38.9970E-03    -11.2158E-03     62.0731E-03     21.4892E+06    -17.9532E+06    -42.4435E+06    -24.6624E+06    -35.7343E+06     21.4892E+06    -10.6482E+06         25.3668
            1934     11.8521E-03     104.672E-03         3.14001         1.41866        -3.52555         1.38785        -3.49473         3.14001     773.550E-03     62.6593E-03    -12.9255E-03    -49.7339E-03    -36.8533E-03     49.7788E-03    -12.9255E-03     71.4904E-03     23.6003E+06    -9.44062E+06    -48.3341E+06    -18.0606E+06    -39.7140E+06     23.6003E+06    -15.5728E+06         27.3265
            1935     12.8111E-03     104.733E-03         2.98864         1.04169        -2.92717         1.01000        -2.89549         2.98864     705.757E-03     77.5798E-03    -15.0936E-03    -62.4862E-03    -48.2001E-03     63.2937E-03    -15.0936E-03     84.6317E-03     26.8343E+06     3.59475E+06    -34.6832E+06    -12.2728E+06    -18.8157E+06     26.8343E+06    -14.4691E+06         30.5874
            1936     13.7595E-03     104.811E-03         2.82981     627.703E-03        -2.28226     604.980E-03        -2.25954         2.82981     510.078E-03     95.2839E-03    -17.7549E-03    -77.5290E-03    -61.8278E-03     79.5827E-03    -17.7549E-03     99.0881E-03     20.8961E+06     7.41196E+06    -30.8199E+06    -11.2097E+06    -7.02231E+06     15.7201E+06    -18.8733E+06         36.4080
            1937     14.6933E-03     104.913E-03         2.66224     197.158E-03        -1.61027     181.378E-03        -1.59449         2.66224     328.556E-03     116.400E-03    -21.0016E-03    -95.3986E-03    -74.9378E-03     95.9394E-03    -21.0016E-03     124.750E-03     48.2007E+06     26.6059E+06    -29.9650E+06    -12.2199E+06     30.4556E+06     26.6059E+06    -19.9327E+06         46.7662
            1938     15.6180E-03     105.061E-03         2.47838    -219.361E-03    -937.479E-03    -239.713E-03    -917.127E-03         2.47838     177.482E-03     161.905E-03    -24.0400E-03    -137.865E-03    -77.1921E-03     101.232E-03    -24.0400E-03     233.043E-03     40.8246E+06    -715.973E+03    -39.1298E+06    -9.44114E+06     15.3834E+06    -4.96340E+06    -11.2733E+06         63.1527
            1939     16.5564E-03     105.414E-03         2.26474    -149.090E-03    -725.525E-03    -645.305E-03    -229.311E-03         2.26474     101.146E-03     228.544E-03    -26.0943E-03    -202.450E-03    -60.1219E-03     86.2162E-03    -26.0943E-03     401.942E-03     69.4000E+06     24.4649E+06    -31.6679E+06    -3.42603E+06     25.5923E+06     40.0307E+06    -6.36536E+06         83.1570
            1940     997.034E-06     105.513E-03         4.22136         4.01097        -7.63550         4.07824        -7.49238         4.01097         1.26479     6.71764E-03    -3.23863E-03    -3.47901E-03    -3.33712E-03     6.57576E-03    -3.23863E-03     2.26180E-03     69.4956E+06    -13.2863E+06    -27.6526E+06    -20.9519E+06     62.8690E+06    -13.3604E+06     23.0834E+06         20.6520
            1941     1.99343E-03     105.513E-03         4.05140         4.01190        -7.45351         3.99873        -7.42434         4.03540     163.216E-03     7.66347E-03    -3.45303E-03    -4.21043E-03    -3.78584E-03     7.23887E-03    -3.45303E-03     4.29759E-03     66.0781E+06    -15.2603E+06    -46.4181E+06    -30.4859E+06      50.146E+06    -15.2603E+06     37.8399E+06         20.7130
            1942     2.98937E-03     105.514E-03         4.00834         3.91986        -7.30908         3.90121        -7.29043         4.00834     641.993E-03     9.01183E-03    -3.72910E-03    -5.28273E-03    -4.33468E-03     8.06378E-03    -3.72910E-03     7.01813E-03     46.0904E+06    -19.1221E+06    -65.0495E+06    -39.0784E+06     20.1193E+06    -19.1221E+06     46.3781E+06         20.8139
            1943     3.98461E-03     105.516E-03         3.96541         3.77043        -7.10871         3.76566        -7.10394         3.96541     314.097E-03     10.8517E-03    -4.02325E-03    -6.82848E-03    -5.04666E-03     9.06991E-03    -4.02325E-03     10.5622E-03     31.1091E+06    -22.2769E+06    -74.9222E+06    -43.7310E+06      -82.06E+03    -22.2769E+06     48.1797E+06         20.9621
            1944     4.97914E-03     105.521E-03         3.90403         3.54714        -6.80851         3.54223        -6.80360         3.90403     367.750E-03     13.3871E-03    -4.37177E-03    -9.01534E-03    -6.03661E-03     10.4084E-03    -4.37177E-03     15.1414E-03     17.7719E+06    -22.5299E+06    -75.6575E+06    -44.3070E+06    -13.5786E+06    -22.5299E+06     43.9627E+06         21.1688
            1945     5.97243E-03     105.529E-03         3.82028         3.25833        -6.41978         3.25503        -6.41648         3.82028     292.784E-03     16.6403E-03    -4.79152E-03    -11.8488E-03    -7.31326E-03     12.1048E-03    -4.79152E-03     20.7885E-03     3.13970E+06    -21.6116E+06    -70.1360E+06    -43.4717E+06    -23.5245E+06    -21.6116E+06     35.2054E+06         21.4504
            1946     6.96461E-03     105.541E-03         3.71594         2.93200        -5.96424         2.92656        -5.95881         3.71594     438.719E-03     20.8454E-03    -5.31118E-03    -15.5343E-03    -9.05667E-03     14.3679E-03    -5.31118E-03     27.7826E-03    -6.39759E+06    -17.8063E+06    -60.4479E+06    -42.1191E+06    -25.6694E+06    -16.8633E+06     25.1384E+06         21.8308
            1947     7.95450E-03     105.559E-03         3.59446         2.58465        -5.46485         2.57603        -5.45623         3.59446     507.337E-03     26.1232E-03    -5.97687E-03    -20.1463E-03    -11.4821E-03     17.4589E-03    -5.97687E-03     36.0529E-03    -6.08213E+06    -19.3094E+06    -48.0059E+06    -38.1001E+06    -27.8568E+06    -7.44054E+06     13.9765E+06         22.3461
            1948     8.94198E-03     105.584E-03         3.45984         2.23538        -4.93864         2.22303        -4.92630         3.45984     594.564E-03     32.9565E-03    -6.82245E-03    -26.1340E-03    -14.9842E-03     21.8066E-03    -6.82245E-03     46.1791E-03     3.49417E+06    -24.7564E+06    -38.0038E+06    -33.9742E+06    -28.7861E+06     3.49417E+06     3.01990E+06         23.0495
            1949     9.92513E-03     105.620E-03         3.31578         1.89151        -4.39482         1.87482        -4.37813         3.31578     636.837E-03     41.6958E-03    -7.91152E-03    -33.7843E-03    -20.1908E-03     28.1023E-03    -7.91152E-03     57.9226E-03     12.3551E+06    -22.3303E+06    -39.2596E+06    -30.8963E+06    -30.6936E+06     12.3551E+06    -6.78221E+06         24.0236
            1950     10.9032E-03     105.666E-03         3.16471         1.54648        -3.83355         1.52309        -3.81016         3.16471     705.247E-03     52.1658E-03    -9.34222E-03    -42.8236E-03    -27.7082E-03     37.0505E-03    -9.34222E-03     69.2982E-03     19.9350E+06    -15.2472E+06    -39.9578E+06    -26.1051E+06    -29.0998E+06     19.9350E+06    -11.8581E+06         25.4149
            1951     11.8712E-03     105.723E-03         3.00798         1.20276        -3.26203         1.17346        -3.23272         3.00798     715.848E-03     66.1501E-03    -11.2218E-03    -54.9283E-03    -38.0059E-03     49.2277E-03    -11.2218E-03     83.7392E-03     22.9416E+06    -6.52281E+06    -46.8697E+06    -21.9364E+06    -31.4561E+06     22.9416E+06    -18.3293E+06         27.5013
            1952     12.8301E-03     105.797E-03         2.84573     841.435E-03        -2.66531     809.124E-03        -2.63300         2.84573     668.274E-03     83.6197E-03    -13.6006E-03    -70.0191E-03    -50.5672E-03     64.1678E-03    -13.6006E-03     101.894E-03     22.5171E+06     2.98729E+06    -42.6745E+06    -15.5627E+06    -24.1245E+06     22.5171E+06    -19.2641E+06         30.8427
            1953     13.7761E-03     105.895E-03         2.67703     449.450E-03        -2.02935     424.419E-03        -2.00432         2.67703     494.781E-03     104.127E-03    -16.5051E-03    -87.6216E-03    -64.9919E-03     81.4970E-03    -16.5051E-03     123.293E-03     22.4345E+06     12.4561E+06    -25.6097E+06    -12.6106E+06     1.54838E+06     20.3431E+06    -14.1592E+06         36.5686
            1954     14.7080E-03     106.017E-03         2.50115     62.6529E-03        -1.38819     39.1455E-03        -1.36468         2.50115     346.670E-03     126.216E-03    -19.9237E-03    -106.293E-03    -78.1204E-03     98.0441E-03    -19.9237E-03     151.278E-03     39.6036E+06     26.3235E+06    -20.8434E+06    -13.0950E+06     31.8551E+06     26.3235E+06    -17.6062E+06         46.5103
            1955     15.6327E-03     106.175E-03         2.31160    -243.793E-03    -812.652E-03    -335.889E-03    -720.557E-03         2.31160     208.849E-03     163.962E-03    -23.1174E-03    -140.845E-03    -80.5228E-03     103.640E-03    -23.1174E-03     237.963E-03     29.0793E+06    -10.5049E+06    -41.5522E+06    -10.1167E+06     1.95184E+06    -14.8130E+06    -17.7752E+06         62.2691
            1956     16.5780E-03     106.494E-03         2.09576    -67.3153E-03    -698.236E-03    -679.205E-03    -86.3462E-03         2.09576     123.554E-03     215.629E-03    -25.5324E-03    -190.096E-03    -63.7197E-03     89.2521E-03    -25.5324E-03     372.345E-03     71.2408E+06     17.9424E+06    -36.6008E+06    -8.59441E+06     22.6397E+06     38.5372E+06    -9.56033E+06         81.8942
            1957     998.329E-06     106.517E-03         4.08693         3.91295        -7.53563         4.01802        -7.46672         3.91295     924.850E-03     3.61620E-03    -1.72314E-03    -1.89306E-03    -1.76211E-03     3.48864E-03    -1.72652E-03     1.50646E-03     32.1532E+06    -35.6175E+06    -64.9753E+06    -43.3802E+06     10.5580E+06    -35.6175E+06     35.9100E+06         20.4099
            1958     1.99646E-03     106.518E-03         3.96525         3.91338        -7.40103         3.91001        -7.38666         3.95425     189.132E-03     4.35025E-03    -1.88566E-03    -2.46459E-03    -2.07378E-03     3.95944E-03    -1.88566E-03     3.09354E-03     46.4622E+06    -29.6502E+06    -80.0982E+06    -47.7790E+06     14.1430E+06    -29.6502E+06     53.6403E+06         20.4711
            1959     2.99407E-03     106.520E-03         3.92117         3.80112        -7.22313         3.79060        -7.21260         3.92117     506.608E-03     5.69531E-03    -2.12486E-03    -3.57045E-03    -2.67064E-03     4.79550E-03    -2.12486E-03     5.41373E-03     38.9345E+06    -25.8839E+06    -86.4497E+06    -49.2068E+06     1.69156E+06    -25.8839E+06     56.9592E+06         20.5749
            1960     3.99111E-03     106.523E-03         3.86893         3.63187        -6.98804         3.62880        -6.98497         3.86893     277.885E-03     7.74200E-03    -2.43437E-03    -5.30762E-03    -3.52232E-03     5.95669E-03    -2.43437E-03     8.90380E-03     27.8129E+06    -21.5624E+06    -83.1826E+06    -45.6714E+06    -9.69822E+06    -21.5624E+06     52.3607E+06         20.7289
            1961     4.98686E-03     106.529E-03         3.79609         3.37929        -6.64752         3.37601        -6.64424         3.79609     318.641E-03     10.3653E-03    -2.79439E-03    -7.57087E-03    -4.53992E-03     7.33431E-03    -2.79439E-03     13.3935E-03     19.3725E+06    -19.1588E+06    -76.5912E+06    -41.1571E+06    -16.0617E+06    -19.1588E+06     46.2080E+06         20.9437
            1962     5.98200E-03     106.539E-03         3.69909         3.05854        -6.21225         3.05556        -6.20927         3.69909     289.791E-03     13.7446E-03    -3.21761E-03    -10.5269E-03    -5.82099E-03     9.03860E-03    -3.21761E-03     19.1476E-03     9.52439E+06    -17.6656E+06    -68.2902E+06    -38.7218E+06    -20.0440E+06    -17.6656E+06     37.7559E+06         21.2362
            1963     6.97526E-03     106.554E-03         3.58041         2.70536        -5.71617         2.70032        -5.71113         3.58041     411.800E-03     18.1272E-03    -3.73687E-03    -14.3904E-03    -7.51734E-03     11.2542E-03    -3.73687E-03     26.5125E-03     991.421E+03    -12.9499E+06    -56.8435E+06    -37.5806E+06    -18.2715E+06    -12.9499E+06     27.0352E+06         21.6328
            1964     7.96716E-03     106.574E-03         3.44561         2.35593        -5.19730         2.34779        -5.18915         3.44561     480.033E-03     23.6666E-03    -4.38528E-03    -19.2813E-03    -9.85310E-03     14.2384E-03    -4.38528E-03     35.5123E-03    -1.95503E+06    -12.1403E+06    -44.6399E+06    -36.6048E+06    -16.4139E+06    -5.71650E+06     14.5559E+06         22.1741
            1965     8.95606E-03     106.604E-03         3.29938         2.00091        -4.64969         1.98927        -4.63805         3.29938     555.583E-03     31.0930E-03    -5.21232E-03    -25.8807E-03    -13.3164E-03     18.5287E-03    -5.21232E-03     47.1907E-03     3.80331E+06    -15.8185E+06    -35.0299E+06    -32.7077E+06    -18.1406E+06     3.80331E+06     2.52202E+06         22.9205
            1966     9.94166E-03     106.645E-03         3.14437         1.65177        -4.08749         1.63610        -4.07182         3.14437     590.258E-03     40.9293E-03    -6.28809E-03    -34.6412E-03    -18.6124E-03     24.9005E-03    -6.28809E-03     61.6826E-03     12.7421E+06    -17.6123E+06    -32.8887E+06    -28.3247E+06    -22.1763E+06     12.7421E+06    -5.52719E+06         23.9599
            1967     10.9200E-03     106.702E-03         2.98292         1.31112        -3.51953         1.28913        -3.49755         2.98292     646.957E-03     52.9046E-03    -7.70604E-03    -45.1985E-03    -26.2657E-03     33.9717E-03    -7.70604E-03     77.2321E-03     18.8642E+06    -13.2933E+06    -36.5615E+06    -26.1268E+06    -23.7280E+06     18.8642E+06    -11.5514E+06         25.4378
            1968     11.8921E-03     106.770E-03         2.81603     966.182E-03        -2.93703     939.200E-03        -2.91005         2.81603     642.679E-03     68.7739E-03    -9.58153E-03    -59.1923E-03    -36.7818E-03     46.3633E-03    -9.58153E-03     97.0282E-03     25.2471E+06    -3.40094E+06    -39.7976E+06    -23.6227E+06    -19.5759E+06     25.2471E+06    -18.0632E+06         27.6154
            1969     12.8512E-03     106.863E-03         2.64395     626.505E-03        -2.35004     595.347E-03        -2.31888         2.64395     602.439E-03     88.3244E-03    -11.9644E-03    -76.3600E-03    -49.9801E-03     61.9445E-03    -11.9644E-03     120.462E-03     22.1201E+06     2.63872E+06    -48.0229E+06    -19.4871E+06    -25.8970E+06     22.1201E+06    -24.4157E+06         30.9949
            1970     13.7994E-03     106.976E-03         2.46698     279.884E-03        -1.74770     253.427E-03        -1.72124         2.46698     458.601E-03     109.864E-03    -14.8494E-03    -95.0148E-03    -63.9526E-03     78.8020E-03    -14.8494E-03     146.635E-03     24.9055E+06     17.4711E+06    -30.9480E+06    -7.41502E+06    -4.46192E+06     23.3056E+06    -20.2664E+06         36.5890
            1971     14.7370E-03     107.122E-03         2.28513    -48.4663E-03        -1.15165    -84.9008E-03        -1.11522         2.28513     347.388E-03     133.052E-03    -18.2462E-03    -114.806E-03    -78.6355E-03     96.8816E-03    -18.2462E-03     174.799E-03     46.0808E+06     36.6577E+06    -3.05557E+06     4.43584E+06     38.5894E+06     36.6577E+06    -14.5419E+06         46.1030
            1972     15.6641E-03     107.289E-03         2.09387    -207.491E-03    -715.847E-03    -404.912E-03    -518.426E-03         2.09387     222.796E-03     162.402E-03    -21.5026E-03    -140.899E-03    -82.3549E-03     103.858E-03    -21.5026E-03     236.722E-03     30.8927E+06    -11.8960E+06    -38.7900E+06     571.492E+03    -2.11514E+06    -18.2497E+06    -14.3239E+06         61.2507
            1973     16.5926E-03     107.584E-03         1.88158     62.5979E-03    -694.805E-03    -688.527E-03     56.3199E-03         1.88158     122.785E-03     207.402E-03    -24.4250E-03    -182.977E-03    -74.1392E-03     98.5642E-03    -24.4250E-03     347.957E-03     75.7411E+06     9.46467E+06    -42.0628E+06    -5.56053E+06     14.2816E+06     34.4219E+06    -6.91079E+06         80.2952
            1974     999.046E-06     107.520E-03         3.84321         3.75568        -7.28366         3.81026        -7.25070         3.75568     666.093E-03     2.04213E-03    -987.707E-06    -1.05443E-03    -965.538E-06     1.96715E-03    -1.00161E-03     791.098E-06    -26.5091E+06    -81.0325E+06    -100.659E+06    -76.5503E+06    -49.9628E+06    -81.6877E+06     32.0797E+06         20.2687
            1975     1.99807E-03     107.521E-03         3.78288         3.73256        -7.17658         3.73544        -7.16974         3.77316     181.311E-03     2.42700E-03    -1.02934E-03    -1.39766E-03    -1.07296E-03     2.10890E-03    -1.03594E-03     2.04185E-03     11.2484E+06    -59.5936E+06    -97.4878E+06    -60.4249E+06    -25.8144E+06    -59.5936E+06     51.5023E+06         20.3226
            1976     2.99684E-03     107.524E-03         3.73994         3.60679        -6.98673         3.60118        -6.98112         3.73994     367.237E-03     3.69678E-03    -1.21173E-03    -2.48504E-03    -1.59382E-03     2.80555E-03    -1.21173E-03     4.29497E-03     27.4554E+06    -35.9409E+06    -89.4329E+06    -46.1330E+06    -15.8445E+06    -35.9409E+06     56.0184E+06         20.4189
            1977     3.99453E-03     107.528E-03         3.68184         3.41245        -6.71477         3.41080        -6.71312         3.68184     198.146E-03     5.70749E-03    -1.48148E-03    -4.22601E-03    -2.41859E-03     3.90007E-03    -1.48148E-03     7.63125E-03     25.9421E+06    -23.2925E+06    -85.4028E+06    -40.4435E+06    -19.0172E+06    -23.2925E+06     54.2733E+06         20.5671
            1978     4.99195E-03     107.535E-03         3.60008         3.14059        -6.34495         3.13872        -6.34307         3.60008     243.807E-03     8.28910E-03    -1.80984E-03    -6.47927E-03    -3.40755E-03     5.21739E-03    -1.80984E-03     11.9610E-03     20.6431E+06    -18.9769E+06    -81.2146E+06    -40.8129E+06    -19.7586E+06    -18.9769E+06     49.7696E+06         20.7788
            1979     5.98771E-03     107.547E-03         3.49402         2.80975        -5.88723         2.80717        -5.88464         3.49402     264.581E-03     11.7110E-03    -2.20565E-03    -9.50532E-03    -4.64868E-03     6.85432E-03    -2.20565E-03     17.8013E-03     14.7575E+06    -15.2857E+06    -69.0701E+06    -40.2780E+06    -14.0346E+06    -15.2857E+06     39.3073E+06         21.0714
            1980     6.98273E-03     107.563E-03         3.36705         2.45114        -5.37285         2.44653        -5.36824         3.36705     379.210E-03     16.1479E-03    -2.69346E-03    -13.4544E-03    -6.23630E-03     8.92976E-03    -2.69346E-03     25.3969E-03     6.96987E+06    -8.50295E+06    -49.7737E+06    -33.4531E+06    -9.35074E+06    -8.50295E+06     25.3188E+06         21.4722
            1981     7.97549E-03     107.587E-03         3.22457         2.09600        -4.83644         2.08830        -4.82873         3.22457     448.556E-03     21.8769E-03    -3.29794E-03    -18.5789E-03    -8.41877E-03     11.7167E-03    -3.29794E-03     35.0614E-03     4.51898E+06    -1.99435E+06    -32.8359E+06    -24.5191E+06    -6.82471E+06     1.03253E+06     14.0005E+06         22.0252
            1982     8.96640E-03     107.620E-03         3.07107         1.74296        -4.28123         1.73192        -4.27019         3.07107     514.770E-03     29.7102E-03    -4.06026E-03    -25.6499E-03    -11.6598E-03     15.7201E-03    -4.06026E-03     48.0724E-03     8.22923E+06    -3.55071E+06    -29.4253E+06    -23.9161E+06    -9.05992E+06     8.22923E+06     6.35437E+06         22.7946
            1983     9.95306E-03     107.668E-03         2.90878         1.38993        -3.71025         1.37604        -3.69636         2.90878     526.019E-03     40.1855E-03    -5.04729E-03    -35.1382E-03    -16.4769E-03     21.5242E-03    -5.04729E-03     64.9554E-03     14.1782E+06    -8.58091E+06    -31.7151E+06    -26.9542E+06    -13.3418E+06     14.1782E+06    -2.16042E+06         23.8716
            1984     10.9361E-03     107.732E-03         2.73948         1.05047        -3.13904         1.03135        -3.11991         2.73948     560.421E-03     53.0911E-03    -6.34556E-03    -46.7456E-03    -23.5194E-03     29.8649E-03    -6.34556E-03     84.1857E-03     22.7604E+06    -4.21249E+06    -32.6170E+06    -22.8267E+06    -14.0028E+06     22.7604E+06    -12.7132E+06         25.4009
            1985     11.9092E-03     107.814E-03         2.56468     724.988E-03        -2.56912     701.447E-03        -2.54558         2.56468     551.708E-03     70.4076E-03    -8.05916E-03    -62.3484E-03    -33.7344E-03     41.7935E-03    -8.05916E-03     108.937E-03     30.2631E+06     3.55907E+06    -33.1185E+06    -15.5799E+06    -13.9795E+06     30.2631E+06    -18.1289E+06         27.6294
            1986     12.8749E-03     107.922E-03         2.38567     422.596E-03        -2.01063     394.107E-03        -1.98214         2.38567     517.804E-03     91.2669E-03    -10.2721E-03    -80.9949E-03    -46.9685E-03     57.2406E-03    -10.2721E-03     136.844E-03     30.2951E+06     9.98898E+06    -37.5249E+06    -12.2974E+06    -15.2385E+06     30.2951E+06    -23.4279E+06         31.0126
            1987     13.8263E-03     108.056E-03         2.20377     129.719E-03        -1.44983     101.704E-03        -1.42181         2.20377     414.035E-03     113.447E-03    -13.0198E-03    -100.427E-03    -61.9590E-03     74.9788E-03    -13.0198E-03     164.081E-03     26.3047E+06     18.7740E+06    -38.5973E+06    -10.2928E+06    -8.56861E+06     25.3429E+06    -28.8200E+06         36.4608
            1988     14.7685E-03     108.213E-03         2.01894    -128.956E-03    -916.323E-03    -182.857E-03    -862.421E-03         2.01894     329.170E-03     139.119E-03    -16.3801E-03    -122.739E-03    -79.1828E-03     95.5629E-03    -16.3801E-03     194.807E-03     41.4038E+06     34.6396E+06    -20.5895E+06    -6.85780E+06     27.6721E+06     34.6396E+06    -19.8042E+06         45.5570
            1989     15.6863E-03     108.420E-03         1.82974    -149.979E-03    -617.022E-03    -439.520E-03    -327.482E-03         1.82974     212.997E-03     161.630E-03    -19.8875E-03    -141.743E-03    -88.9106E-03     108.798E-03    -19.8875E-03     228.499E-03     30.1178E+06    -9.60729E+06    -45.5673E+06    -3.22293E+06    -2.83845E+06    -18.9954E+06    -9.14942E+06         60.1012
            1990     16.6319E-03     108.655E-03         1.62575     185.592E-03    -669.369E-03    -665.465E-03     181.688E-03         1.62575     108.947E-03     199.575E-03    -23.4914E-03    -176.083E-03    -86.0127E-03     109.504E-03    -23.4914E-03     316.882E-03     74.3118E+06     6.19932E+06    -43.6397E+06    -2.27653E+06     8.14688E+06     31.0011E+06    -4.14094E+06         78.7761
            1991     998.637E-06     108.521E-03         3.53553         3.48113        -6.85628         3.51064        -6.83819         3.48793     478.132E-03     1.58994E-03    -786.662E-06    -803.274E-06    -774.883E-06     1.57453E-03    -799.648E-06     288.540E-06    -79.5254E+06    -162.016E+06    -165.350E+06    -156.664E+06    -86.6835E+06    -163.544E+06     10.0801E+06         20.2251
            1992     1.99792E-03     108.522E-03         3.48959         3.44612        -6.74950         3.44408        -6.74563         3.48776     127.779E-03     1.66137E-03    -763.908E-06    -897.464E-06    -732.182E-06     1.50269E-03    -770.512E-06     1.06468E-03    -42.4161E+06    -133.235E+06    -148.150E+06    -125.674E+06    -58.4349E+06    -139.692E+06     20.1647E+06         20.2672
            1993     2.99722E-03     108.526E-03         3.45303         3.32030        -6.56518         3.31716        -6.56203         3.45303     253.552E-03     2.42675E-03    -847.656E-06    -1.57909E-03    -974.887E-06     1.82254E-03    -847.656E-06     2.80517E-03    -11.8918E+06    -91.2076E+06    -123.641E+06    -88.7533E+06    -35.1477E+06    -102.839E+06     31.4880E+06         20.3465
            1994     3.99635E-03     108.531E-03         3.39337         3.11352        -6.28034         3.11279        -6.27961         3.39337     117.644E-03     4.11855E-03    -1.05794E-03    -3.06061E-03    -1.61958E-03     2.67753E-03    -1.05794E-03     5.73379E-03     1.03348E+06    -59.9922E+06    -96.7965E+06    -56.6901E+06    -33.0262E+06     -66.039E+06     39.5269E+06         20.4756
            1995     4.99384E-03     108.540E-03         3.30838         2.83985        -5.89995         2.83891        -5.89900         3.30838     174.103E-03     6.70737E-03    -1.36006E-03    -5.34731E-03    -2.56088E-03     3.92094E-03    -1.36006E-03     10.1558E-03     14.1917E+06    -33.8968E+06    -72.9092E+06    -32.5169E+06    -26.2006E+06    -33.8968E+06     42.9761E+06         20.6689
            1996     5.99099E-03     108.552E-03         3.20013         2.51897        -5.44681         2.51700        -5.44484         3.20013     222.482E-03     10.2172E-03    -1.72077E-03    -8.49639E-03    -3.77429E-03     5.49506E-03    -1.72077E-03     16.2501E-03     26.0440E+06    -11.7365E+06    -54.9798E+06    -20.0399E+06    -8.89582E+06    -11.7365E+06     38.3899E+06         20.9456
            1997     6.98613E-03     108.571E-03         3.07235         2.17117        -4.93545         2.16726        -4.93154         3.07235     331.636E-03     14.6704E-03    -2.16120E-03    -12.5092E-03    -5.28182E-03     7.44301E-03    -2.16120E-03     24.0113E-03     20.7337E+06    -1.20981E+06    -42.2634E+06    -21.9510E+06     421.282E+03    -1.20981E+06     27.4529E+06         21.3348
            1998     7.98070E-03     108.597E-03         2.92865         1.80794        -4.38586         1.80166        -4.37958         2.92865     385.743E-03     20.4045E-03    -2.69481E-03    -17.7097E-03    -7.23307E-03     9.92788E-03    -2.69481E-03     34.0218E-03     11.4246E+06     1.09688E+06    -35.6332E+06    -27.6424E+06     1.70678E+06     2.82392E+06     15.4311E+06         21.8813
            1999     8.97251E-03     108.635E-03         2.77256         1.45496        -3.82996         1.44652        -3.82152         2.77256     419.689E-03     28.4063E-03    -3.36618E-03    -25.0402E-03    -10.0684E-03     13.4345E-03    -3.36618E-03     47.9811E-03     12.3023E+06     1.11333E+06    -28.4685E+06    -21.8212E+06    -2.98721E+06     9.75554E+06     5.97432E+06         22.6493
            2000     9.96208E-03     108.687E-03         2.60715         1.11317        -3.27103         1.10281        -3.26068         2.60715     420.742E-03     39.1884E-03    -4.22966E-03    -34.9588E-03    -14.1345E-03     18.3641E-03    -4.22966E-03     66.5958E-03     22.9701E+06     6.10428E+06    -19.8253E+06    -10.6013E+06    -3.11965E+06     22.9701E+06    -1.31293E+06         23.7313
            2001     10.9459E-03     108.759E-03         2.43447     787.864E-03        -2.71518     773.474E-03        -2.70079         2.43447     443.254E-03     52.6881E-03    -5.33467E-03    -47.3534E-03    -20.2360E-03     25.5707E-03    -5.33467E-03     88.8296E-03     30.8559E+06     5.47340E+06    -20.6613E+06    -11.0371E+06    -4.15078E+06     30.8559E+06    -8.06354E+06         25.2735
            2002     11.9266E-03     108.850E-03         2.25666     503.767E-03        -2.18377     485.131E-03        -2.16514         2.25666     442.305E-03     71.0285E-03    -6.79495E-03    -64.2335E-03    -29.6924E-03     36.4873E-03    -6.79495E-03     117.796E-03     33.5208E+06     6.73508E+06    -29.6102E+06    -15.5824E+06    -7.29275E+06     33.5208E+06    -16.6154E+06         27.5122
            2003     12.8944E-03     108.976E-03         2.07563     248.019E-03        -1.66443     222.552E-03        -1.63896         2.07563     428.982E-03     93.1243E-03    -8.75808E-03    -84.3662E-03    -43.2114E-03     51.9695E-03    -8.75808E-03     149.530E-03     34.8245E+06     12.1153E+06    -33.2296E+06    -14.5811E+06    -6.53315E+06     34.8245E+06    -21.5037E+06         30.8619
            2004     13.8532E-03     109.125E-03         1.89249    -503.537E-06        -1.14256    -29.9811E-03        -1.11308         1.89249     354.842E-03     117.233E-03    -11.3523E-03    -105.880E-03    -60.4957E-03     71.8480E-03    -11.3523E-03     179.343E-03     30.4683E+06     15.1309E+06    -35.9808E+06    -17.4894E+06    -2.55520E+06     29.6630E+06    -23.4477E+06         36.1374
            2005     14.7898E-03     109.312E-03         1.70769    -174.259E-03    -693.378E-03    -249.739E-03    -617.899E-03         1.70769     272.360E-03     144.491E-03    -14.6548E-03    -129.836E-03    -79.3449E-03     93.9998E-03    -14.6548E-03     212.488E-03     30.4160E+06     24.2409E+06    -36.2023E+06    -24.0647E+06     14.0936E+06     28.4256E+06    -20.4040E+06         44.8374
            2006     15.7242E-03     109.534E-03         1.52160    -76.2602E-03    -521.223E-03    -440.541E-03    -156.943E-03         1.52160     169.650E-03     173.638E-03    -18.5237E-03    -155.114E-03    -101.766E-03     120.289E-03    -18.5237E-03     242.047E-03     10.3381E+06    -12.8390E+06    -53.9716E+06    -25.4913E+06    -8.90406E+06    -22.0772E+06    -15.7422E+06         58.8745
            2007     16.5986E-03     109.789E-03         1.32986     280.614E-03    -615.375E-03    -613.087E-03     278.326E-03         1.32986     84.7742E-03     194.198E-03    -22.8480E-03    -171.349E-03    -97.3001E-03     120.148E-03    -22.8480E-03     289.654E-03     53.1666E+06     2.16431E+06    -42.2793E+06    -13.0115E+06     4.12671E+06     21.9364E+06    -14.4751E+06         77.9545
            2008     998.446E-06     109.523E-03         3.15768         3.06658        -6.22254         3.14057        -6.21224         3.07338     323.388E-03     2.71182E-03    -1.33706E-03    -1.37476E-03    -1.35571E-03     2.70832E-03    -1.35260E-03    -7.31970E-06    -87.1183E+06    -176.434E+06    -182.776E+06    -178.624E+06    -88.1254E+06    -179.579E+06    -6.66367E+06         20.2820
            2009     1.99629E-03     109.524E-03         3.09719         3.04732        -6.12566         3.04797        -6.12363         3.09451     63.0193E-03     2.76939E-03    -1.36138E-03    -1.40801E-03    -1.37344E-03     2.73482E-03    -1.36138E-03     345.681E-06    -64.4811E+06    -162.633E+06    -176.058E+06    -167.242E+06    -66.8401E+06    -169.090E+06    -10.8176E+06         20.3150
            2010     2.99474E-03     109.527E-03         3.05988         2.93306        -5.94998         2.93154        -5.94845         3.05988     144.272E-03     2.86303E-03    -1.31249E-03    -1.55054E-03    -1.30781E-03     2.68002E-03    -1.37222E-03     1.30742E-03    -46.3568E+06    -140.585E+06    -158.641E+06    -143.739E+06    -49.6271E+06    -152.216E+06    -5.07008E+06         20.3764
            2011     3.99313E-03     109.533E-03         3.00303         2.74160        -5.68297         2.74126        -5.68263         3.00303     52.1619E-03     3.55984E-03    -1.36197E-03    -2.19787E-03    -1.46068E-03     2.88238E-03    -1.42170E-03     3.35981E-03    -33.9673E+06    -118.453E+06    -128.721E+06    -109.806E+06    -44.6918E+06    -126.644E+06     2.24803E+06         20.4783
            2012     4.99235E-03     109.542E-03         2.92160         2.47783        -5.31629         2.47738        -5.31584         2.92160     114.557E-03     5.37325E-03    -1.50942E-03    -3.86383E-03    -2.08207E-03     3.59149E-03    -1.50942E-03     7.13669E-03    -15.2000E+06    -83.8376E+06    -107.120E+06    -69.7839E+06    -35.1399E+06    -101.234E+06     8.41557E+06         20.6373
            2013     5.98986E-03     109.557E-03         2.81712         2.17308        -4.87597         2.17180        -4.87469         2.81712     168.202E-03     8.35945E-03    -1.72023E-03    -6.63922E-03    -3.07973E-03     4.79996E-03    -1.72023E-03     12.7106E-03     8.46152E+06    -38.1007E+06    -83.5130E+06    -31.5912E+06    -13.2958E+06    -68.2652E+06     15.2445E+06         20.8759
            2014     6.98690E-03     109.577E-03         2.69332         1.83866        -4.37867         1.83606        -4.37606         2.69332     250.499E-03     12.7176E-03    -2.14951E-03    -10.5681E-03    -4.43880E-03     6.58832E-03    -2.14951E-03     20.4897E-03     27.7153E+06    -6.98501E+06    -49.9918E+06    -5.78003E+06    -1.58441E+06    -21.8970E+06     23.8631E+06         21.2272
            2015     7.98092E-03     109.607E-03         2.55364         1.49477        -3.85053         1.49083        -3.84659         2.55364     283.476E-03     18.6819E-03    -2.67400E-03    -16.0079E-03    -6.31246E-03     8.98647E-03    -2.67400E-03     31.1275E-03     37.0475E+06     11.8377E+06    -28.6119E+06    -1.03654E+06     9.47213E+06     11.8377E+06     24.0398E+06         21.7378
            2016     8.97414E-03     109.646E-03         2.40120         1.15220        -3.30997         1.14735        -3.30513         2.40120     291.976E-03     26.8072E-03    -3.25212E-03    -23.5551E-03    -8.88063E-03     12.1328E-03    -3.25212E-03     45.7634E-03     26.8287E+06     13.9245E+06    -24.9879E+06    -12.6601E+06     8.90084E+06     19.5246E+06     10.7795E+06         22.4714
            2017     9.96440E-03     109.703E-03         2.23897     834.982E-03        -2.78336     829.033E-03        -2.77741         2.23897     286.463E-03     37.1481E-03    -3.95834E-03    -33.1897E-03    -12.0859E-03     16.0443E-03    -3.95834E-03     64.4625E-03     21.2793E+06     10.4417E+06    -30.3344E+06    -23.2193E+06     3.32654E+06     21.2793E+06     -50.217E+03         23.5204
            2018     10.9540E-03     109.779E-03         2.07020     557.803E-03        -2.28068     549.010E-03        -2.27188         2.07020     308.767E-03     50.8043E-03    -4.85208E-03    -45.9522E-03    -16.9993E-03     21.8514E-03    -4.85208E-03     88.5763E-03     29.9097E+06     11.2277E+06    -25.8103E+06    -18.8629E+06     4.28023E+06     29.9097E+06    -6.81542E+06         25.0324
            2019     11.9345E-03     109.882E-03         1.89664     313.038E-03        -1.79007     300.040E-03        -1.77707         1.89664     323.149E-03     70.0351E-03    -6.06439E-03    -63.9707E-03    -25.7410E-03     31.8054E-03    -6.06439E-03     120.939E-03     40.2471E+06     11.0336E+06    -18.6084E+06    -10.2010E+06     2.62624E+06     40.2471E+06    -12.6338E+06         27.2321
            2020     12.9114E-03     110.018E-03         1.71883     96.6217E-03        -1.30946     74.9406E-03        -1.28777         1.71883     333.678E-03     93.9327E-03    -7.78501E-03    -86.1477E-03    -39.7846E-03     47.5696E-03    -7.78501E-03     157.254E-03     42.9600E+06     9.99818E+06    -24.4622E+06    -10.4068E+06    -4.05727E+06     42.9600E+06    -15.9930E+06         30.4854
            2021     13.8688E-03     110.194E-03         1.53847    -95.3797E-03    -846.988E-03    -124.101E-03    -818.267E-03         1.53847     278.046E-03     119.504E-03    -10.1608E-03    -109.343E-03    -57.5063E-03     67.6671E-03    -10.1608E-03     191.322E-03     40.8201E+06     14.7782E+06    -24.8730E+06    -11.5536E+06     1.45884E+06     40.8201E+06    -17.0934E+06         35.5308
            2022     14.8173E-03     110.399E-03         1.35727    -165.250E-03    -511.222E-03    -285.303E-03    -391.169E-03         1.35727     195.469E-03     149.203E-03    -13.2701E-03    -135.933E-03    -78.0118E-03     91.2819E-03    -13.2701E-03     229.186E-03     37.3967E+06     21.9549E+06    -23.0411E+06    -10.6730E+06      9.5867E+06     37.3967E+06    -11.5302E+06         43.8450
            2023     15.7356E-03     110.650E-03         1.17405     24.8400E-03    -448.387E-03    -423.857E-03     309.695E-06         1.17405     122.944E-03     189.138E-03    -17.0353E-03    -172.103E-03    -102.399E-03     119.435E-03    -17.0353E-03     283.811E-03     19.0452E+06     3.40692E+06    -32.5738E+06    -10.5661E+06    -4.46537E+06     4.90986E+06    -11.3433E+06         57.5881
            2024     16.6483E-03     110.978E-03     993.583E-03     356.808E-03    -542.358E-03    -541.134E-03     355.584E-03     993.583E-03     49.5666E-03     203.753E-03    -21.5805E-03    -182.173E-03    -111.541E-03     133.121E-03    -21.5805E-03     294.603E-03     48.9499E+06     8.34634E+06    -26.0925E+06    -5.53194E+06     1.92113E+06     34.8146E+06    -17.8943E+06         77.1227
            2025     997.045E-06     110.527E-03         2.62286         2.57016        -5.36916         2.61823        -5.36453         2.57016     169.375E-03     5.22324E-03    -2.58061E-03    -2.64262E-03    -2.62594E-03     5.21964E-03    -2.59369E-03    -324.449E-06    -70.6116E+06    -134.750E+06    -142.323E+06    -138.201E+06    -72.4617E+06    -137.023E+06    -10.9487E+06         20.4415
            2026     1.99429E-03     110.528E-03         2.59025         2.55776        -5.30286         2.56058        -5.30196         2.58653    -33.5651E-03     5.41588E-03    -2.66655E-03    -2.74933E-03    -2.74408E-03     5.41063E-03    -2.66655E-03    -251.285E-06    -51.9965E+06    -129.367E+06    -141.277E+06    -137.815E+06    -55.4594E+06    -129.367E+06    -16.9297E+06         20.4733
            2027     2.99071E-03     110.531E-03         2.56175         2.46452        -5.16219         2.46403        -5.16170         2.56175     15.7132E-03     5.54545E-03    -2.67655E-03    -2.86890E-03    -2.78652E-03     5.52281E-03    -2.73628E-03     260.192E-06    -43.9660E+06    -125.296E+06    -141.316E+06    -136.267E+06    -49.0149E+06    -125.296E+06    -21.1619E+06         20.5266
            2028     3.98809E-03     110.537E-03         2.51429         2.29220        -4.92348         2.29203        -4.92331         2.51429    -10.7004E-03     5.72448E-03    -2.70115E-03    -3.02333E-03    -2.80602E-03     5.56690E-03    -2.76088E-03     1.53425E-03    -36.7383E+06    -121.622E+06    -137.309E+06    -128.383E+06    -43.5200E+06    -123.766E+06    -23.8598E+06         20.6089
            2029     4.98463E-03     110.547E-03         2.44150         2.04577        -4.58176         2.04561        -4.58160         2.44150     37.2058E-03     6.35917E-03    -2.74707E-03    -3.61210E-03    -2.97196E-03     5.71903E-03    -2.74707E-03     4.06632E-03    -25.1394E+06    -107.890E+06    -139.610E+06    -112.368E+06    -34.9847E+06    -125.287E+06    -27.7175E+06         20.7335
            2030     5.98214E-03     110.561E-03         2.34547         1.76546        -4.17309         1.76475        -4.17238         2.34547     94.3361E-03     7.83771E-03    -2.79675E-03    -5.04096E-03    -3.32343E-03     6.12019E-03    -2.79675E-03     8.15187E-03    -12.8574E+06    -84.4994E+06    -126.780E+06    -87.2882E+06    -22.1852E+06    -114.664E+06    -24.2188E+06         20.9229
            2031     6.97861E-03     110.584E-03         2.23066         1.46055        -3.71243         1.45914        -3.71102         2.23066     169.868E-03     10.8637E-03    -3.04041E-03    -7.82333E-03    -4.09514E-03     7.13556E-03    -3.04041E-03     14.6009E-03     5.85061E+06    -60.1429E+06    -87.9172E+06    -50.4193E+06    -16.7352E+06    -75.0549E+06    -10.7957E+06         21.2111
            2032     7.97585E-03     110.614E-03         2.10071         1.15281        -3.22942         1.15079        -3.22740         2.10071     183.714E-03     15.9854E-03    -3.37730E-03    -12.6081E-03    -5.61526E-03     8.99257E-03    -3.37730E-03     24.4242E-03     30.1929E+06    -18.0243E+06    -48.7421E+06    -8.63234E+06     2.50596E+06    -30.4471E+06     6.41781E+06         21.6470
            2033     8.96925E-03     110.658E-03         1.95896     853.090E-03        -2.74306     850.911E-03        -2.74088         1.95896     171.985E-03     23.7536E-03    -3.89390E-03    -19.8597E-03    -7.86882E-03     11.7627E-03    -3.89390E-03     38.8786E-03     45.1495E+06     24.2072E+06    -27.5479E+06     14.8623E+06     13.0318E+06     13.9147E+06     18.5325E+06         22.2975
            2034     9.96049E-03     110.716E-03         1.80840     580.377E-03        -2.27247     578.016E-03        -2.27011         1.80840     157.674E-03     34.1521E-03    -4.55792E-03    -29.5941E-03    -10.7941E-03     15.3520E-03    -4.55792E-03     58.1090E-03     50.7578E+06     43.0418E+06    -24.2674E+06     12.5493E+06     11.7446E+06     45.2384E+06     15.2815E+06         23.2599
            2035     10.9476E-03     110.797E-03         1.65182     352.546E-03        -1.82899     348.547E-03        -1.82499         1.65182     180.000E-03     47.8390E-03    -5.26228E-03    -42.5767E-03    -15.1685E-03     20.4308E-03    -5.26228E-03     83.0994E-03     47.3439E+06     35.3187E+06    -20.5853E+06    -2.67619E+06     17.8056E+06     46.9478E+06     1.37527E+06         24.6821
            2036     11.9363E-03     110.906E-03         1.48957     150.449E-03        -1.38992     142.147E-03        -1.38161         1.48957     214.627E-03     67.4029E-03    -6.26830E-03    -61.1346E-03    -23.1059E-03     29.3742E-03    -6.26830E-03     117.308E-03     47.2457E+06     14.9189E+06    -19.0444E+06    -12.9818E+06     8.85625E+06     47.2457E+06    -8.41480E+06         26.7682
            2037     12.9105E-03     111.058E-03         1.32117    -19.4605E-03    -966.121E-03    -37.6789E-03    -947.902E-03         1.32117     244.009E-03     92.3388E-03    -7.74448E-03    -84.5943E-03    -35.5070E-03     43.2515E-03    -7.74448E-03     158.318E-03     55.6333E+06     14.1359E+06    -20.8683E+06    -8.86745E+06     2.13510E+06     55.6333E+06    -14.7495E+06         29.8300
            2038     13.8780E-03     111.251E-03         1.14934    -136.087E-03    -592.389E-03    -177.148E-03    -551.328E-03         1.14934     214.561E-03     119.103E-03    -9.75369E-03    -109.349E-03    -51.4120E-03     61.1657E-03    -9.75369E-03     198.487E-03     57.6114E+06     14.6714E+06    -18.7623E+06    -4.03413E+06    -56.8135E+03     57.6114E+06    -14.6170E+06         34.5567
            2039     14.8266E-03     111.479E-03     975.936E-03    -92.2094E-03    -390.379E-03    -295.083E-03    -187.505E-03     975.936E-03     140.513E-03     152.038E-03    -12.3843E-03    -139.653E-03    -71.5741E-03     83.9584E-03    -12.3843E-03     246.368E-03     57.1572E+06     27.7328E+06    -15.6948E+06     5.14384E+06     6.89419E+06     57.1572E+06    -13.6750E+06         42.4162
            2040     15.7698E-03     111.764E-03     799.078E-03     146.839E-03    -395.707E-03    -389.625E-03     140.756E-03     799.078E-03     91.9909E-03     189.370E-03    -15.5862E-03    -173.783E-03    -92.3720E-03     107.958E-03    -15.5862E-03     302.644E-03     48.4706E+06     30.3863E+06    -24.8151E+06     22.4603E+06    -6.02251E+06     37.6041E+06    -10.5703E+06         55.8096
            2041     16.7064E-03     112.102E-03     672.804E-03     368.459E-03    -447.195E-03    -446.060E-03     414.788E-03     625.340E-03     29.4621E-03     218.093E-03    -20.1650E-03    -197.928E-03    -127.506E-03     147.671E-03    -20.1650E-03     306.902E-03     77.6523E+06     28.5304E+06    -24.1309E+06     15.9027E+06    -636.778E+03     66.7858E+06     1.81230E+06         74.4313
            2042     995.646E-06     111.533E-03         1.98961         1.95413        -4.30721         1.98659        -4.30418         1.95413     22.9483E-03     8.62516E-03    -4.27092E-03    -4.35423E-03    -4.33504E-03     8.61827E-03    -4.28322E-03    -583.041E-06    -55.0822E+06    -97.7093E+06    -105.241E+06    -103.647E+06    -56.6767E+06    -97.7093E+06    -8.06304E+06         20.6981
            2043     1.99088E-03     111.536E-03         1.98559         1.96556        -4.29360         1.97897        -4.29218         1.97077    -154.168E-03     8.96965E-03    -4.37815E-03    -4.59150E-03    -4.57285E-03     8.95100E-03    -4.37815E-03    -945.555E-06    -38.3819E+06    -95.7076E+06    -104.564E+06    -101.639E+06    -41.3075E+06    -95.7076E+06    -13.4022E+06         20.7367
            2044     2.98653E-03     111.539E-03         1.96917         1.91153        -4.20722         1.91710        -4.20626         1.96263    -116.101E-03     9.54513E-03    -4.55365E-03    -4.99148E-03    -4.96754E-03     9.52119E-03    -4.55365E-03    -1.04225E-03    -29.1921E+06    -88.2420E+06    -105.735E+06    -99.0152E+06    -35.9115E+06    -88.2420E+06    -20.8601E+06         20.7965
            2045     3.98050E-03     111.545E-03         1.93039         1.76737        -4.00728         1.76651        -4.00642         1.93039    -93.9862E-03     10.1462E-03    -4.75217E-03    -5.39401E-03    -5.36992E-03     10.1221E-03    -4.75217E-03    -236.477E-06    -20.1550E+06    -82.2908E+06    -106.666E+06    -95.1594E+06    -31.6615E+06    -82.2908E+06    -28.9949E+06         20.8796
            2046     4.97517E-03     111.554E-03         1.87145         1.55133        -3.70953         1.55126        -3.70946         1.87145    -24.2892E-03     10.6073E-03    -4.92702E-03    -5.68023E-03    -5.57554E-03     10.5026E-03    -4.92702E-03     1.44455E-03    -7.74881E+06    -80.1260E+06    -110.321E+06    -94.9462E+06    -23.1233E+06    -80.1260E+06    -36.5038E+06         20.9932
            2047     5.96894E-03     111.569E-03         1.78950         1.30356        -3.35045         1.30324        -3.35013         1.78950     36.8615E-03     11.2308E-03    -5.08128E-03    -6.14954E-03    -5.70091E-03     10.7822E-03    -5.08128E-03     4.05643E-03    -4.52638E+06    -80.3132E+06    -114.243E+06    -96.5113E+06    -22.2577E+06    -80.3132E+06    -40.0506E+06         21.1530
            2048     6.96387E-03     111.591E-03         1.68983         1.04860        -2.95395         1.04789        -2.95324         1.68983     101.752E-03     12.6408E-03    -5.23991E-03    -7.40090E-03    -6.04573E-03     11.2856E-03    -5.23991E-03     8.55263E-03    -4.36950E+06    -77.2240E+06    -110.016E+06    -91.7300E+06    -22.6560E+06    -77.2240E+06    -39.6551E+06         21.3856
            2049     7.95676E-03     111.623E-03         1.57662     792.276E-03        -2.53881     791.482E-03        -2.53802         1.57662     98.5086E-03     15.4383E-03    -5.41926E-03    -10.0190E-03    -6.70020E-03     12.1195E-03    -5.41926E-03     15.9480E-03     4.84249E+06    -54.8216E+06    -101.041E+06    -71.3673E+06    -12.4087E+06    -67.2444E+06    -33.2162E+06         21.7335
            2050     8.95129E-03     111.668E-03         1.45328     558.830E-03        -2.13530     558.261E-03        -2.13473         1.45328     72.0135E-03     20.6377E-03    -5.75082E-03    -14.8869E-03    -7.82979E-03     13.5806E-03    -5.75082E-03     27.5942E-03     24.9861E+06    -20.1945E+06    -74.3276E+06    -30.6957E+06    -6.22301E+06    -32.6173E+06    -13.8636E+06         22.2621
            2051     9.94442E-03     111.730E-03         1.32271     351.970E-03        -1.74590     351.386E-03        -1.74531         1.32271     46.7618E-03     29.3975E-03    -6.26305E-03    -23.1344E-03    -10.1753E-03     16.4384E-03    -6.26305E-03     44.9000E-03     47.1901E+06     20.2181E+06    -27.0303E+06     11.4098E+06     8.74999E+06     20.2181E+06     6.21188E+06         23.0718
            2052     10.9356E-03     111.814E-03         1.18583     165.715E-03        -1.36185     164.401E-03        -1.36053         1.18583     68.0623E-03     42.6114E-03    -6.93933E-03    -35.6720E-03    -14.2517E-03     21.1911E-03    -6.93933E-03     69.6056E-03     66.8581E+06     51.3802E+06    -4.60915E+06     29.0184E+06     22.8299E+06     61.7808E+06     17.5989E+06         24.3101
            2053     11.9158E-03     111.929E-03         1.04177     17.9228E-03    -995.380E-03     11.1271E-03    -988.584E-03         1.04177     137.928E-03     63.0165E-03    -7.81919E-03    -55.1973E-03    -20.8955E-03     28.7147E-03    -7.81919E-03     107.254E-03     81.6440E+06     49.8005E+06    -2.87179E+06     22.5486E+06     24.3802E+06     81.6440E+06     10.2990E+06         26.1599
            2054     12.8970E-03     112.090E-03     890.409E-03    -86.5793E-03    -659.076E-03    -107.375E-03    -638.280E-03     890.409E-03     188.238E-03     88.2628E-03    -8.95089E-03    -79.3119E-03    -30.7586E-03     39.7095E-03    -8.95089E-03     152.024E-03     79.8411E+06     30.2478E+06    -5.46809E+06     8.87289E+06     15.9068E+06     79.8411E+06    -6.10778E+06         28.8935
            2055     13.8690E-03     112.296E-03     733.971E-03    -109.364E-03    -404.390E-03    -205.147E-03    -308.608E-03     733.971E-03     177.860E-03     114.406E-03    -10.4961E-03    -103.910E-03    -44.1107E-03     54.6068E-03    -10.4961E-03     194.644E-03     75.6392E+06     23.5069E+06    -14.2653E+06     10.8051E+06    -1.56341E+06     75.6392E+06    -13.4301E+06         33.1496
            2056     14.8360E-03     112.545E-03     573.420E-03     24.9103E-03    -314.778E-03    -284.953E-03    -4.91517E-03     573.420E-03     114.065E-03     145.962E-03    -12.6098E-03    -133.353E-03    -62.6044E-03     75.2142E-03    -12.6098E-03     242.846E-03     80.6536E+06     40.1801E+06    -12.3843E+06     18.0439E+06     9.75196E+06     80.6536E+06    -15.1200E+06         40.3259
            2057     15.7821E-03     112.851E-03     474.480E-03     184.859E-03    -327.345E-03    -324.660E-03     249.109E-03     407.544E-03     77.2265E-03     184.409E-03    -15.4974E-03    -168.911E-03    -92.2754E-03     107.773E-03    -15.4974E-03     290.167E-03     46.1585E+06     20.7438E+06    -40.6955E+06     3.15314E+06    -14.7685E+06     37.8221E+06    -10.7539E+06         52.8175
            2058     16.6947E-03     113.216E-03     487.323E-03     192.821E-03    -319.517E-03    -317.830E-03     439.031E-03     239.426E-03     26.9399E-03     227.208E-03    -20.1426E-03    -207.065E-03    -133.489E-03     153.632E-03    -20.1426E-03     323.318E-03     64.1675E+06     15.2074E+06    -52.5106E+06    -15.4789E+06    -13.4879E+06     55.8311E+06    -239.177E+03         70.7923
            2059     993.620E-06     112.544E-03         1.32508         1.22823        -3.10253         1.32040        -3.09785         1.22823    -85.5990E-03     13.2293E-03    -6.52068E-03    -6.70866E-03    -6.67938E-03     13.2124E-03    -6.53298E-03    -1.08795E-03    -39.9347E+06    -61.2182E+06    -68.8244E+06    -63.8496E+06    -43.9828E+06    -62.1449E+06    -5.63781E+06         21.0389
            2060     1.98701E-03     112.546E-03         1.31584         1.27994        -3.13905         1.31122        -3.13443         1.27994    -246.847E-03     13.7972E-03    -6.70501E-03    -7.09218E-03    -7.05209E-03     13.7571E-03    -6.70501E-03    -1.79289E-03    -22.9185E+06    -58.3864E+06    -67.0835E+06    -61.9724E+06    -28.0295E+06    -58.3864E+06    -13.0719E+06         21.0899
            2061     2.97905E-03     112.551E-03         1.29351         1.26457        -3.08633         1.27301        -3.08399         1.28272    -189.877E-03     14.7303E-03    -6.94474E-03    -7.78555E-03    -7.73074E-03     14.6755E-03    -6.94474E-03    -2.21600E-03    -11.4892E+06    -55.6472E+06    -68.5445E+06    -59.1237E+06    -20.9099E+06    -55.6472E+06    -20.5997E+06         21.1688
            2062     3.97157E-03     112.557E-03         1.26431         1.17337        -2.95368         1.17167        -2.95197         1.26431    -147.853E-03     15.8522E-03    -7.28653E-03    -8.56571E-03    -8.51204E-03     15.7986E-03    -7.28653E-03    -2.17010E-03    -4.65246E+06    -49.2245E+06    -72.4558E+06    -58.9831E+06    -18.1251E+06    -49.2245E+06    -26.8809E+06         21.2749
            2063     4.96215E-03     112.568E-03         1.22304         1.00264        -2.72469         1.00245        -2.72450         1.22304    -45.3075E-03     16.9390E-03    -7.66893E-03    -9.27003E-03    -9.22937E-03     16.8983E-03    -7.66893E-03    -1.49887E-03     2.07279E+06    -42.4650E+06    -75.5954E+06    -61.5889E+06    -11.9337E+06    -42.4650E+06    -29.5726E+06         21.4110
            2064     5.95297E-03     112.583E-03         1.15962     793.131E-03        -2.42126     793.012E-03        -2.42114         1.15962     10.6029E-03     18.1229E-03    -8.08280E-03    -10.0401E-03    -9.99406E-03     18.0769E-03    -8.08280E-03    -62.0273E-06     3.05635E+06    -36.4273E+06    -81.4939E+06    -65.3671E+06    -13.0705E+06    -36.4273E+06    -32.9539E+06         21.5847
            2065     6.94171E-03     112.606E-03         1.07948     595.296E-03        -2.10379     595.114E-03        -2.10361         1.07948     43.3897E-03     19.3365E-03    -8.48597E-03    -10.8506E-03    -10.6337E-03     19.1197E-03    -8.48597E-03     2.77685E-03     4.47364E+06    -35.2523E+06    -89.6012E+06    -69.9772E+06    -15.1503E+06    -35.2523E+06    -38.1874E+06         21.8108
            2066     7.93164E-03     112.638E-03     989.011E-03     422.130E-03        -1.79193     421.833E-03        -1.79163     989.011E-03     22.5426E-03     20.9183E-03    -8.87788E-03    -12.0404E-03    -11.1942E-03     20.0720E-03    -8.87788E-03     7.74305E-03     7.98733E+06    -35.8132E+06    -98.1194E+06    -77.1255E+06    -13.0065E+06    -35.8132E+06    -41.8623E+06         22.1174
            2067     8.91948E-03     112.682E-03     891.460E-03     265.891E-03        -1.48688     264.328E-03        -1.48531     891.460E-03    -34.5912E-03     23.6711E-03    -9.27252E-03    -14.3986E-03    -12.0103E-03     21.2828E-03    -9.27252E-03     15.2818E-03     3.41836E+06    -39.6242E+06    -102.480E+06    -80.3081E+06    -18.7536E+06    -39.6242E+06    -42.0563E+06         22.5521
            2068     9.90774E-03     112.744E-03     787.877E-03     131.829E-03        -1.19535     129.709E-03        -1.19323     787.877E-03    -66.1984E-03     28.2949E-03    -9.72720E-03    -18.5677E-03    -13.0232E-03     22.7504E-03    -9.72720E-03     27.5298E-03     4.77357E+06    -28.4996E+06    -80.9518E+06    -64.2436E+06    -11.9347E+06    -28.4996E+06    -30.6772E+06         23.1961
            2069     10.8932E-03     112.832E-03     678.143E-03     13.6267E-03    -904.917E-03     12.6842E-03    -903.975E-03     678.143E-03    -22.3543E-03     37.1953E-03    -10.3990E-03    -26.7963E-03    -15.2065E-03     25.6055E-03    -10.3990E-03     47.5002E-03     34.1424E+06     16.8164E+06    -53.5009E+06    -26.2495E+06     3.65140E+06     20.0560E+06    -9.21662E+06         24.1732
            2070     11.8837E-03     112.949E-03     560.481E-03    -77.2668E-03    -627.159E-03    -83.4197E-03    -621.006E-03     560.481E-03     74.0380E-03     53.4117E-03    -11.2349E-03    -42.1768E-03    -19.7385E-03     30.9735E-03    -11.2349E-03     79.6540E-03     73.1506E+06     52.5828E+06    -21.9873E+06     6.59351E+06     26.9017E+06     70.2509E+06     9.55802E+06         25.6373
            2071     12.8637E-03     113.118E-03     433.746E-03    -103.526E-03    -400.769E-03    -154.600E-03    -349.696E-03     433.746E-03     142.657E-03     74.6326E-03    -12.2615E-03    -62.3711E-03    -26.2547E-03     38.5162E-03    -12.2615E-03     120.092E-03     101.923E+06     43.8672E+06     8.05048E+06     18.1970E+06     33.7207E+06     101.923E+06     10.0011E+06         27.8428
            2072     13.8381E-03     113.331E-03     333.590E-03    -49.6146E-03    -285.830E-03    -216.311E-03    -84.4971E-03     298.953E-03     153.051E-03     99.1981E-03    -13.4946E-03    -85.7035E-03    -36.7271E-03     50.2216E-03    -13.4946E-03     163.027E-03     98.2507E+06     29.2921E+06    -8.30673E+06     10.0368E+06     10.9486E+06     98.2507E+06    -6.08318E+06         31.3834
            2073     14.7988E-03     113.592E-03     299.472E-03     18.3329E-03    -259.519E-03    -249.151E-03     151.029E-03     156.407E-03     100.454E-03     131.403E-03    -15.2852E-03    -116.118E-03    -57.2518E-03     72.5369E-03    -15.2852E-03     210.173E-03     78.1529E+06     21.5729E+06    -33.1144E+06    -14.5251E+06     2.98350E+06     78.1529E+06    -5.64734E+06         37.4878
            2074     15.7479E-03     113.922E-03     351.216E-03     16.8217E-03    -266.887E-03    -230.978E-03     328.093E-03     4.03589E-03     56.0244E-03     177.883E-03    -18.2715E-03    -159.612E-03    -93.8946E-03     112.166E-03    -18.2715E-03     266.367E-03     52.8790E+06     1.69903E+06    -39.6207E+06    -29.2773E+06    -8.64436E+06     52.8790E+06    -1.58866E+06         48.1535
            2075     16.6447E-03     114.359E-03     437.523E-03    -25.9175E-03    -298.132E-03    -170.671E-03     435.891E-03    -151.748E-03     6.12435E-03     213.732E-03    -22.1532E-03    -191.579E-03    -109.632E-03     131.785E-03    -22.1532E-03     322.271E-03     39.5453E+06    -2.39067E+06    -48.4763E+06    -35.2983E+06    -13.9259E+06     37.9024E+06    -14.4413E+06         66.7566
            2076     990.598E-06     113.560E-03     594.396E-03     514.379E-03        -1.84074     586.092E-03        -1.83243     514.379E-03    -173.114E-03     19.2348E-03    -9.32519E-03    -9.90962E-03    -9.51406E-03     19.2136E-03    -9.69958E-03    -1.45790E-03    -9.01236E+06    -22.5958E+06    -38.2432E+06    -16.1612E+06    -30.1677E+06    -23.5225E+06    -9.29822E+06         21.4261
            2077     1.98073E-03     113.563E-03     586.800E-03     553.345E-03        -1.87597     576.921E-03        -1.86609     553.345E-03    -282.436E-03     19.8995E-03    -9.68037E-03    -10.2191E-03    -10.1771E-03     19.8574E-03    -9.68037E-03    -2.20521E-03    -479.172E+03    -24.2609E+06    -33.2194E+06    -18.8051E+06    -14.8934E+06    -24.2609E+06    -13.9593E+06         21.4916
            2078     2.97103E-03     113.568E-03     566.825E-03     552.804E-03        -1.86279     557.954E-03        -1.85637     555.253E-03    -218.327E-03     21.2196E-03    -9.99366E-03    -11.2259E-03    -11.1598E-03     21.1534E-03    -9.99366E-03    -2.89680E-03     4.45327E+06    -25.7376E+06    -36.2984E+06     -23.133E+06    -8.71215E+06    -25.7376E+06    -18.2227E+06         21.5967
            2079     3.95865E-03     113.577E-03     543.546E-03     493.768E-03        -1.77986     491.164E-03        -1.77643     542.717E-03    -145.710E-03     22.9805E-03    -10.4910E-03    -12.4895E-03    -12.3951E-03     22.8861E-03    -10.4910E-03    -3.64999E-03     5.34815E+06    -19.8820E+06    -41.5945E+06    -28.2345E+06    -8.01186E+06    -19.8820E+06    -20.8472E+06         21.7417
            2080     4.94630E-03     113.588E-03     513.295E-03     376.696E-03        -1.61883     376.219E-03        -1.61835     513.295E-03    -52.2093E-03     25.0222E-03    -11.1163E-03    -13.9059E-03    -13.8077E-03     24.9240E-03    -11.1163E-03    -3.88319E-03     7.49673E+06    -9.60760E+06    -44.0633E+06    -31.4221E+06    -6.42573E+06    -8.32629E+06    -21.6517E+06         21.9275
            2081     5.93122E-03     113.606E-03     467.896E-03     241.417E-03        -1.40911     241.294E-03        -1.40898     467.896E-03    -2.72099E-03     27.3231E-03    -11.8002E-03    -15.5229E-03    -15.4451E-03     27.2453E-03    -11.8002E-03    -3.50800E-03     8.78650E+06    -3.95022E+06    -47.1719E+06    -35.2345E+06    -4.43229E+06    -2.66891E+06    -22.3556E+06         22.1576
            2082     6.91542E-03     113.629E-03     410.598E-03     115.169E-03        -1.18116     113.642E-03        -1.17964     410.598E-03    -5.16104E-03     29.8581E-03    -12.5544E-03    -17.3037E-03    -17.2403E-03     29.7947E-03    -12.5544E-03    -2.65433E-03     11.1096E+06    -7.00920E+06     -55.085E+06    -42.7349E+06    -5.94917E+06    -2.30054E+06    -24.5728E+06         22.4396
            2083     7.89686E-03     113.662E-03     346.460E-03     29.4657E-03    -980.282E-03     24.5232E-03    -975.340E-03     346.460E-03    -61.8012E-03     32.5288E-03    -13.3863E-03    -19.1425E-03    -19.0416E-03     32.4279E-03    -13.3863E-03    -840.197E-06     12.6673E+06    -8.58355E+06    -63.4361E+06    -51.2509E+06    -6.10753E+06    -1.99394E+06    -26.2565E+06         22.7884
            2084     8.87730E-03     113.709E-03     278.815E-03    -20.5285E-03    -809.454E-03    -38.9005E-03    -791.082E-03     278.815E-03    -140.312E-03     35.2860E-03    -14.2880E-03    -20.9980E-03    -20.7149E-03     35.0030E-03    -14.2880E-03     3.01570E-03     10.9424E+06    -6.09859E+06    -75.0044E+06    -59.0670E+06    -10.1193E+06    -974.224E+03    -31.3354E+06         23.2302
            2085     9.85380E-03     113.771E-03     210.977E-03    -53.4706E-03    -655.566E-03    -89.2465E-03    -616.489E-03     207.677E-03    -180.537E-03     38.7245E-03    -15.2252E-03    -23.4993E-03    -22.3658E-03     37.5910E-03    -15.2252E-03     9.69313E-03     6.96173E+06    -9.86177E+06    -88.1061E+06    -68.0667E+06    -18.0806E+06    -4.85894E+06    -36.9607E+06         23.8065
            2086     10.8335E-03     113.856E-03     154.727E-03    -102.517E-03    -494.147E-03    -126.471E-03    -446.573E-03     131.107E-03    -125.214E-03     44.1437E-03    -16.2747E-03    -27.8689E-03    -24.7636E-03     41.0383E-03    -16.2747E-03     20.2833E-03     7.27585E+06    -9.21923E+06    -88.8185E+06    -73.1619E+06    -15.4705E+06    -2.12941E+06    -33.5923E+06         24.5748
            2087     11.8026E-03     113.976E-03     127.947E-03    -154.588E-03    -352.546E-03    -159.408E-03    -265.990E-03     46.2109E-03    -29.2485E-03     51.6455E-03    -17.5396E-03    -34.1059E-03    -27.1006E-03     44.6402E-03    -17.5396E-03     37.7327E-03     29.6431E+06     14.3455E+06    -71.5913E+06    -58.2786E+06     3.93250E+06     26.7434E+06    -20.5849E+06         25.6246
            2088     12.7740E-03     114.140E-03     131.961E-03    -151.779E-03    -292.251E-03    -189.326E-03    -73.6345E-03    -49.1088E-03     57.1166E-03     60.8266E-03    -18.9374E-03    -41.8892E-03    -27.6203E-03     46.5577E-03    -18.9374E-03     63.5846E-03     80.1169E+06     39.7995E+06    -38.0813E+06    -29.7087E+06     31.4269E+06     80.1169E+06    -8.66553E+06         27.1783
            2089     13.7468E-03     114.354E-03     178.719E-03    -104.772E-03    -315.134E-03    -202.282E-03     116.626E-03    -155.532E-03     100.415E-03     76.9537E-03    -20.3274E-03    -56.6263E-03    -31.8380E-03     52.1654E-03    -20.3274E-03     99.6949E-03     103.193E+06     32.0313E+06    -35.8325E+06    -19.9307E+06     16.1296E+06     103.193E+06     9.86886E+06         29.7581
            2090     14.7134E-03     114.629E-03     283.954E-03    -98.0263E-03    -363.893E-03    -182.171E-03     279.284E-03    -275.078E-03     59.4089E-03     109.885E-03    -22.2306E-03    -87.6542E-03    -51.8590E-03     74.0896E-03    -22.2306E-03     150.176E-03     107.863E+06     24.6960E+06    -40.3565E+06    -19.2670E+06     3.60656E+06     107.863E+06     16.8709E+06         34.2296
            2091     15.6375E-03     114.988E-03     385.994E-03    -91.3128E-03    -431.336E-03    -113.354E-03     385.385E-03    -408.687E-03     798.824E-06     154.632E-03    -25.0470E-03    -129.585E-03    -77.9557E-03     103.003E-03    -25.0470E-03     218.325E-03     111.509E+06     31.1912E+06    -19.4167E+06    -1.11713E+06     12.8917E+06     111.509E+06    -1.94347E+06         42.0413
            2092     16.5572E-03     115.448E-03     426.767E-03    -14.5347E-03    -538.760E-03    -12.8181E-03     425.051E-03    -538.760E-03    -35.4363E-03     163.297E-03    -27.3206E-03    -135.977E-03    -61.1667E-03     88.4873E-03    -27.3206E-03     254.272E-03     64.9684E+06     25.6017E+06    -27.5791E+06     7.87395E+06    -5.54704E+06     60.6640E+06    -2.69212E+06         56.7512
            2093     987.319E-06     114.583E-03     127.369E-03    -130.475E-03    -866.176E-03    -134.234E-03    -574.843E-03    -160.205E-03    -166.539E-03     26.3167E-03    -12.6799E-03    -13.6368E-03    -13.2497E-03     26.3040E-03    -13.0543E-03    -1.32064E-03     33.7513E+06     22.8117E+06    -16.4361E+06     28.8542E+06    -13.5766E+06     24.8492E+06    -9.75110E+06         21.7604
            2094     1.97456E-03     114.585E-03     149.535E-03    -159.443E-03    -907.368E-03    -195.319E-03    -562.514E-03    -159.443E-03    -196.371E-03     27.2057E-03    -13.2260E-03    -13.9798E-03    -13.9514E-03     27.1774E-03    -13.2260E-03    -2.09760E-03     25.3154E+06     8.88575E+06    -11.7199E+06     19.0182E+06    -5.42277E+06     8.88575E+06    -11.5620E+06         21.8383
            2095     2.95964E-03     114.594E-03     172.704E-03    -183.454E-03    -955.785E-03    -241.116E-03    -541.965E-03    -183.454E-03    -176.450E-03     28.8956E-03    -13.6672E-03    -15.2284E-03    -15.1777E-03     28.8449E-03    -13.6672E-03    -2.88562E-03     21.2422E+06     4.39122E+06    -11.0571E+06     8.34757E+06    -1.51878E+06     7.74752E+06    -11.5987E+06         21.9676
            2096     3.94455E-03     114.603E-03     178.225E-03    -232.195E-03    -939.255E-03    -291.769E-03    -490.102E-03    -211.354E-03    -132.841E-03     31.4601E-03    -14.3461E-03    -17.1139E-03    -17.0395E-03     31.3856E-03    -14.3461E-03    -3.64717E-03     20.9124E+06     5.51793E+06    -15.5814E+06    -466.710E+03    -2.80468E+06     14.1203E+06    -11.4591E+06         22.1516
            2097     4.92596E-03     114.618E-03     182.810E-03    -294.941E-03    -874.207E-03    -335.312E-03    -408.658E-03    -242.369E-03    -84.0975E-03     34.7961E-03    -15.2074E-03    -19.5887E-03    -19.4901E-03     34.6975E-03    -15.2074E-03    -4.52091E-03     19.8392E+06     6.81689E+06    -17.3267E+06    -6.97581E+06    -1.22490E+06     17.5301E+06    -12.0957E+06         22.3924
            2098     5.90598E-03     114.638E-03     186.227E-03    -347.206E-03    -787.661E-03    -361.767E-03    -312.105E-03    -274.768E-03    -62.5446E-03     38.7868E-03    -16.2746E-03    -22.5121E-03    -22.3881E-03     38.6628E-03    -16.2746E-03    -5.48437E-03     23.1788E+06     6.50740E+06    -19.8704E+06    -11.4746E+06    -1.31009E+06     22.6004E+06    -11.6693E+06         22.6927
            2099     6.88207E-03     114.666E-03     176.085E-03    -375.261E-03    -692.010E-03    -374.214E-03    -209.334E-03    -307.639E-03    -85.6535E-03     43.6698E-03    -17.5603E-03    -26.1096E-03    -25.9575E-03     43.5178E-03    -17.5603E-03    -6.49473E-03     31.2417E+06     4.64798E+06    -21.6590E+06    -14.9870E+06    -1.44569E+06     30.6634E+06    -10.9077E+06         23.0576
            2100     7.85398E-03     114.702E-03     163.716E-03    -370.509E-03    -626.234E-03    -370.593E-03    -121.557E-03    -340.876E-03    -146.606E-03     48.9854E-03    -19.0320E-03    -29.9534E-03    -29.7663E-03     48.7983E-03    -19.0320E-03    -7.58125E-03     35.3447E+06     4.89319E+06    -24.7224E+06    -18.2469E+06    -1.58231E+06     35.3447E+06    -12.1098E+06         23.4986
            2101     8.82150E-03     114.751E-03     145.773E-03    -342.469E-03    -588.250E-03    -351.562E-03    -58.3104E-03    -375.073E-03    -202.353E-03     54.8280E-03    -20.6830E-03    -34.1450E-03    -33.8824E-03     54.5654E-03    -20.6830E-03    -8.65016E-03     36.0191E+06     4.33163E+06    -30.5144E+06    -24.5894E+06    -1.59336E+06     36.0191E+06    -12.9772E+06         24.0336
            2102     9.78796E-03     114.816E-03     134.034E-03    -312.024E-03    -564.391E-03    -333.919E-03     4.15584E-03    -412.619E-03    -257.157E-03     62.3111E-03    -22.6142E-03    -39.6968E-03    -39.2751E-03     61.8894E-03    -22.6142E-03    -10.3223E-03     36.9360E+06     272.845E+03    -42.1615E+06    -33.5466E+06    -8.34210E+06     36.9360E+06    -16.1260E+06         24.6659
            2103     10.7408E-03     114.906E-03     137.967E-03    -305.741E-03    -533.976E-03    -313.231E-03     68.0672E-03    -456.586E-03    -256.424E-03     69.8878E-03    -24.8603E-03    -45.0275E-03    -44.3176E-03     69.1779E-03    -24.8603E-03    -10.9339E-03     40.0555E+06    -1.72537E+06    -52.3684E+06    -39.3215E+06    -14.7722E+06     40.0555E+06    -20.5559E+06         25.3735
            2104     11.6922E-03     115.027E-03     165.698E-03    -292.551E-03    -525.579E-03    -279.856E-03     136.280E-03    -508.856E-03    -196.824E-03     74.5472E-03    -27.2812E-03    -47.2660E-03    -45.9007E-03     73.1819E-03    -27.2812E-03    -7.97171E-03     51.9041E+06     9.37813E+06    -55.2002E+06    -40.9565E+06    -4.86558E+06     51.9041E+06    -25.1648E+06         26.1757
            2105     12.6381E-03     115.182E-03     232.706E-03    -247.801E-03    -570.494E-03    -234.082E-03     218.987E-03    -570.494E-03    -127.674E-03     77.0374E-03    -29.6851E-03    -47.3523E-03    -44.3370E-03     74.0221E-03    -29.6851E-03    -2.39090E-03     67.1776E+06     19.6262E+06    -51.3005E+06    -43.5493E+06     11.8751E+06     67.1776E+06    -18.2838E+06         27.2382
            2106     13.5856E-03     115.382E-03     313.979E-03    -174.977E-03    -643.501E-03    -164.863E-03     303.866E-03    -643.501E-03    -73.4708E-03     82.5819E-03    -32.1784E-03    -50.4035E-03    -43.8603E-03     76.0387E-03    -32.1784E-03     8.27607E-03     82.7388E+06     15.9735E+06    -51.7753E+06    -31.0129E+06    -4.78891E+06     82.7388E+06     3.85631E+06         28.8884
            2107     14.5254E-03     115.653E-03     378.735E-03    -72.2300E-03    -731.984E-03    -66.1074E-03     372.612E-03    -731.984E-03    -57.7378E-03     95.4660E-03    -34.4632E-03    -61.0028E-03    -48.5130E-03     83.6485E-03    -35.1354E-03     39.7499E-03     124.224E+06     37.1214E+06    -27.8055E+06     1.37982E+06     7.93603E+06     124.224E+06     7.14614E+06         31.4652
            2108     15.4531E-03     116.037E-03     413.847E-03     47.9904E-03    -832.205E-03     51.6774E-03     410.160E-03    -832.205E-03    -56.8047E-03     99.1391E-03    -22.5457E-03    -76.5934E-03    -38.6524E-03     76.3539E-03    -37.7015E-03     92.4080E-03     115.532E+06     40.7960E+06    -15.7493E+06     9.70434E+06     27.2547E+06     103.620E+06     275.659E+03         35.6992
            2109     16.4025E-03     116.449E-03     414.907E-03     159.261E-03    -923.019E-03     161.346E-03     412.822E-03    -923.019E-03    -43.4878E-03     79.1765E-03    -7.31947E-03    -71.8570E-03    -7.81770E-03     46.3949E-03    -38.5772E-03     104.178E-03     55.1245E+06     17.6079E+06    -51.5809E+06     12.8167E+06    -2.54819E+06     10.8829E+06     10.5688E+06         41.9865


