********************************************************************************
Field Output Report, written Tue May  6 10:48:19 2025

Source 1
---------

   ODB: D:/AISI_1020/Vel_40/aisi_1020_2a_32_rd_500_cal_75_v_40_fric_050.odb
   Step: Step-1
   Frame: Increment   2434721: Step Time =   0.3132

Loc 1 : Nodal values from source 1

Output sorted by column "Node Label".

Field Output reported at nodes for region: DIE_2A_32_D0_36-1.Region_1
   Computation algorithm: EXTRAPOLATE_COMPUTE_AVERAGE
   Averaged at nodes
   Averaging regions: ODB_REGIONS

      Node Label     COORD.COOR1     COORD.COOR2
                          @Loc 1          @Loc 1
-------------------------------------------------
               1     21.8134E-03     168.735E-03


Field Output reported at nodes for region: DIE_2A_32_D0_36-1.Region_2
   Computation algorithm: EXTRAPOLATE_COMPUTE_AVERAGE
   Averaged at nodes
   Averaging regions: ODB_REGIONS

      Node Label     COORD.COOR1     COORD.COOR2
                          @Loc 1          @Loc 1
-------------------------------------------------
               1     21.8134E-03     168.735E-03


Field Output reported at nodes for part: WIRE_1-1
   Computation algorithm: EXTRAPOLATE_COMPUTE_AVERAGE
   Averaged at nodes
   Averaging regions: ODB_REGIONS

      Node Label     COORD.COOR1     COORD.COOR2    ER.Max. Prin    ER.Mid. Prin    ER.Min. Prin         ER.ER11         ER.ER22         ER.ER33         ER.ER12    PE.Max. Prin    PE.Mid. Prin    PE.Min. Prin         PE.PE11         PE.PE22         PE.PE33         PE.PE12     S.Max. Prin     S.Mid. Prin     S.Min. Prin           S.S11           S.S22           S.S33           S.S12            TEMP
                          @Loc 1          @Loc 1          @Loc 1          @Loc 1          @Loc 1          @Loc 1          @Loc 1          @Loc 1          @Loc 1          @Loc 1          @Loc 1          @Loc 1          @Loc 1          @Loc 1          @Loc 1          @Loc 1          @Loc 1          @Loc 1          @Loc 1          @Loc 1          @Loc 1          @Loc 1          @Loc 1          @Loc 1
-----------------------------------------------------------------------------------------------------------------------------------------------------------------------------------------------------------------------------------------------------------------------------------------------------------------------------------------------------------------------------------------------------------------
               1     16.9881E-03     62.5169E-03         1.81581    -525.051E-03    -535.337E-03    -524.932E-03         1.81570    -535.337E-03     33.2957E-03     134.230E-03    -58.8415E-03    -75.3553E-03    -57.0738E-03     115.949E-03    -58.8415E-03     118.272E-03     142.277E+06     140.957E+06    -4.47128E+06    -4.47101E+06     142.277E+06     140.957E+06     103.658E+03         60.7530
               2    -853.215E-09     61.7368E-03         3.85259     742.512E-03        -3.81374        -1.91555         1.95440     742.512E-03         6.61489     117.249E-03    -58.5106E-03    -58.7385E-03    -58.5095E-03     117.248E-03    -58.7385E-03     808.155E-06    -73.1368E+06    -77.5593E+06    -283.608E+06    -74.0802E+06    -283.575E+06    -76.6494E+06     1.26532E+06         29.3122
               3     2.70183E-06     122.935E-09         1.98208    -514.623E-03    -568.877E-03    -506.222E-03         1.97368    -568.877E-03    -289.176E-03     267.361E-03    -133.096E-03    -134.263E-03    -134.252E-03     267.350E-03    -133.096E-03     4.31084E-03    -60.4927E+06    -62.0735E+06    -277.739E+06    -62.1179E+06    -277.694E+06    -60.4927E+06    -3.09593E+06         41.0337
               4     16.5290E-03     122.935E-09         2.30713    -505.152E-03    -702.047E-03    -699.102E-03         2.30418    -505.152E-03     188.188E-03     286.745E-03    -79.0293E-03    -208.214E-03    -174.700E-03     253.231E-03    -79.0293E-03     248.715E-03     156.008E+06     138.011E+06     11.1734E+06     14.6320E+06     134.552E+06     156.008E+06     20.6573E+06         52.0177
               5     16.3377E-03     125.433E-03     34.5052E-03     32.6632E-03    -29.4195E-03    -27.4693E-03     30.7129E-03     34.5052E-03     21.6585E-03     41.3322E-03     38.0291E-03    -79.3681E-03     40.2833E-03     39.0780E-03    -79.3681E-03     3.07525E-03     37.6847E+06    -25.9507E+06    -61.7665E+06     33.7923E+06    -22.0583E+06    -61.7665E+06     15.2495E+06         48.9017
               6     2.61015E-06     122.056E-03     143.580E-03     31.9589E-03    -203.768E-03    -197.233E-03     25.4236E-03     143.580E-03    -77.4037E-03     54.3365E-03    -26.2669E-03    -28.0712E-03    -28.0304E-03     54.2958E-03    -26.2669E-03    -3.66589E-03     88.6985E+06     86.5942E+06     5.35864E+06     86.3765E+06     5.57640E+06     88.6985E+06    -4.20026E+06         23.5429
               7     16.0454E-03     62.3836E-03         1.82680    -531.885E-03    -541.209E-03    -535.832E-03         1.82657    -537.028E-03    -10.7516E-03     150.327E-03    -58.8447E-03    -91.4659E-03    -58.4811E-03     117.343E-03    -58.8447E-03     163.007E-03     131.909E+06     130.050E+06    -8.66067E+06    -8.64936E+06     130.698E+06     131.249E+06     159.384E+03         59.2271
               8     15.0987E-03     62.1413E-03         1.83980    -537.570E-03    -545.394E-03    -542.298E-03         1.83958    -540.445E-03    -13.0831E-03     153.689E-03    -58.7905E-03    -94.9019E-03    -59.2785E-03     118.066E-03    -58.7905E-03     172.448E-03     115.155E+06     101.613E+06    -16.6057E+06    -16.5466E+06     113.897E+06     102.812E+06    -1.38932E+06         55.5219
               9     14.1526E-03     61.9934E-03         1.83991    -531.847E-03    -544.396E-03    -532.514E-03         1.83981    -543.628E-03     453.647E-06     131.774E-03    -58.6493E-03    -73.1332E-03    -57.6786E-03     116.319E-03    -58.6493E-03     104.878E-03     105.952E+06     66.8298E+06    -21.6798E+06    -21.6218E+06     105.894E+06     66.8298E+06    -1.96134E+06         50.8810
              10     13.2104E-03     61.9102E-03         1.84122    -527.118E-03    -546.404E-03    -527.026E-03         1.84113    -546.404E-03    -5.08202E-03     120.764E-03    -58.4946E-03    -62.2995E-03    -56.9192E-03     115.384E-03    -58.4946E-03     60.8000E-03     98.2631E+06     30.3253E+06    -26.1144E+06    -26.0854E+06     98.2341E+06     30.3253E+06     60.4476E+03         46.1530
              11     12.2640E-03     61.8596E-03         1.85246    -530.270E-03    -552.425E-03    -533.909E-03         1.85237    -548.696E-03     18.2630E-03     117.726E-03    -58.2749E-03    -59.4923E-03    -57.0317E-03     115.414E-03    -58.4240E-03     38.9582E-03     67.7196E+06     2.11170E+06    -28.7611E+06    -28.7298E+06     67.6883E+06     2.11170E+06     1.14343E+06         41.9585
              12     11.3202E-03     61.8256E-03         1.86348    -539.977E-03    -555.929E-03    -545.657E-03         1.86338    -550.141E-03    -6.56128E-03     116.624E-03    -58.1550E-03    -58.4952E-03    -57.2340E-03     115.694E-03    -58.4859E-03     25.0838E-03     15.9626E+06    -18.2013E+06    -31.3492E+06    -29.6187E+06     4.51779E+06    -8.48696E+06     718.802E+03         38.4545
              13     10.3761E-03     61.8044E-03         1.85996    -543.001E-03    -553.211E-03    -544.798E-03         1.85970    -551.152E-03     10.3449E-03     117.080E-03    -58.4195E-03    -58.6681E-03    -57.8574E-03     116.452E-03    -58.6013E-03     20.9707E-03    -8.56838E+06    -30.6976E+06    -59.8679E+06    -31.4206E+06    -59.1449E+06    -8.56838E+06     267.644E+03         35.6738
              14     9.43426E-03     61.7812E-03         1.85553    -541.483E-03    -552.474E-03    -540.853E-03         1.85490    -552.474E-03    -18.2150E-03     117.011E-03    -58.2470E-03    -58.7603E-03    -57.8732E-03     116.579E-03    -58.7028E-03     16.9732E-03    -8.29624E+06    -33.1054E+06    -106.416E+06    -33.1350E+06    -106.386E+06    -8.29624E+06     203.504E+03         33.6580
              15     8.48825E-03     61.7681E-03         1.87325    -548.217E-03    -562.694E-03    -556.930E-03         1.87245    -553.176E-03    -2.11832E-03     116.799E-03    -57.9898E-03    -58.8089E-03    -57.7971E-03     116.606E-03    -58.8089E-03     11.4299E-03    -9.08866E+06    -35.4760E+06    -142.426E+06    -35.4959E+06    -142.406E+06    -9.08866E+06    -45.0331E+03         32.3603
              16     7.54544E-03     61.7578E-03         1.88373    -552.274E-03    -567.532E-03    -566.840E-03         1.88304    -552.274E-03     4.73857E-03     117.162E-03    -58.2452E-03    -58.9238E-03    -58.1372E-03     117.054E-03    -58.9238E-03     8.62388E-03    -9.87698E+06    -40.2113E+06    -177.665E+06    -40.2431E+06    -177.634E+06    -9.87698E+06     621.052E+03         31.5455
              17     6.60220E-03     61.7510E-03         1.86559    -544.423E-03    -557.552E-03    -547.737E-03         1.86317    -551.812E-03     59.8097E-03     117.395E-03    -58.3991E-03    -59.0093E-03    -58.3377E-03     117.333E-03    -59.0093E-03     6.45340E-03    -14.8405E+06    -47.1977E+06    -214.376E+06    -47.2457E+06    -214.328E+06    -14.8405E+06     1.81976E+06         30.9533
              18     5.65824E-03     61.7444E-03         1.86088    -541.207E-03    -554.123E-03    -531.232E-03         1.85090    -554.123E-03    -96.5524E-03     117.562E-03    -58.5195E-03    -59.0575E-03    -58.4914E-03     117.533E-03    -59.0575E-03     4.31570E-03    -22.2091E+06    -53.6130E+06    -237.628E+06    -53.6456E+06    -237.596E+06    -22.2091E+06     1.16225E+06         30.4752
              19     4.71451E-03     61.7418E-03         1.89796    -551.385E-03    -579.388E-03    -548.831E-03         1.87293    -556.911E-03     98.3624E-03     117.745E-03    -58.6859E-03    -59.0725E-03    -58.6734E-03     117.732E-03    -59.0725E-03     2.89026E-03    -31.0841E+06    -58.3340E+06    -251.087E+06    -58.3483E+06    -251.073E+06    -31.0841E+06     431.391E+03         30.0945
              20     3.77257E-03     61.7397E-03         1.95390    -556.582E-03    -631.403E-03    -566.025E-03         1.88852    -556.582E-03    -202.745E-03     117.923E-03    -58.8726E-03    -59.0627E-03    -58.8817E-03     117.918E-03    -59.0487E-03     1.72600E-03    -42.0673E+06    -62.3421E+06    -262.093E+06    -62.3443E+06    -262.091E+06    -42.0673E+06     149.836E+03         29.8028
              21     2.82868E-03     61.7391E-03         2.04060    -556.801E-03    -714.674E-03    -548.543E-03         1.87447    -556.801E-03     292.896E-03     118.034E-03    -58.9264E-03    -59.1167E-03    -59.0620E-03     118.032E-03    -58.9798E-03     879.643E-06    -53.9857E+06    -67.6764E+06    -271.137E+06    -67.6787E+06    -271.135E+06    -53.9857E+06     48.3915E+03         29.5886
              22     1.88640E-03     61.7383E-03         2.29833    -564.989E-03    -963.910E-03    -537.791E-03         1.87221    -564.989E-03    -579.986E-03     117.879E-03    -58.8202E-03    -59.0647E-03    -59.0432E-03     117.878E-03    -58.8410E-03     368.643E-06    -65.6038E+06    -72.4153E+06    -277.940E+06    -72.3716E+06    -277.936E+06    -65.6511E+06     716.682E+03         29.4394
              23     944.073E-06     61.7374E-03         3.17454     85.3589E-03        -2.48616        -1.22887         1.91725     85.3589E-03         1.93935     117.474E-03    -58.6311E-03    -58.8459E-03    -58.7312E-03     117.473E-03    -58.7450E-03     411.568E-06    -72.1161E+06    -75.8608E+06    -281.856E+06    -74.0758E+06    -281.837E+06    -73.9197E+06     1.06411E+06         29.3458
              24     716.201E-09     60.6136E-03         3.95029     990.671E-03        -4.13758        -2.23350         2.04621     990.671E-03         6.86273     117.554E-03    -58.4339E-03    -59.1212E-03    -59.0718E-03     117.553E-03    -58.4815E-03     1.12505E-03    -72.1629E+06    -79.9511E+06    -283.415E+06    -76.4736E+06    -283.380E+06    -75.6755E+06     2.46437E+06         29.3128
              25     544.816E-09     59.4896E-03         3.84294         1.39273        -4.45415        -2.55968         1.94847         1.39273         6.96452     118.317E-03    -58.7534E-03    -59.5652E-03    -59.5634E-03     118.315E-03    -58.7534E-03     1.13662E-03    -71.9456E+06    -77.6447E+06    -281.101E+06    -76.2661E+06    -281.056E+06    -73.3691E+06    -1.37746E+06         29.3367
              26    -242.852E-09     58.3653E-03         3.78851         1.59747        -4.57132        -2.77464         1.99183         1.59747         6.86622     118.171E-03    -58.8445E-03    -59.3290E-03    -59.3278E-03     118.169E-03    -58.8445E-03     896.520E-06    -74.2737E+06    -76.0775E+06    -282.661E+06    -74.6971E+06    -282.618E+06    -75.6972E+06    -2.56312E+06         29.3403
              27     834.392E-09     57.2403E-03         3.83860         1.72850        -4.73504        -3.00808         2.11163         1.72850         6.87595     117.346E-03    -58.3104E-03    -59.0377E-03    -59.0372E-03     117.345E-03    -58.3104E-03     5.11640E-06    -74.8909E+06    -76.3102E+06    -285.774E+06    -75.2839E+06    -285.761E+06    -75.9299E+06     515.086E+03         29.3178
              28    -67.2776E-09     56.1215E-03         3.86022         1.91403        -4.95387        -3.24223         2.14858         1.91403         6.97329     117.466E-03    -58.4796E-03    -58.9880E-03    -58.8907E-03     117.462E-03    -58.5730E-03     823.517E-06    -74.5457E+06    -77.7900E+06    -285.103E+06    -76.7838E+06    -285.071E+06    -75.5847E+06    -487.433E+03         29.3034
              29    -90.3063E-09     54.9916E-03         3.99643         1.94260        -5.09231        -3.35490         2.25903         1.94260         7.14752     117.934E-03    -58.6654E-03    -59.2702E-03    -59.1719E-03     117.929E-03    -58.7587E-03     1.83619E-03    -74.4909E+06    -79.1997E+06    -285.661E+06    -76.7320E+06    -285.625E+06    -76.9943E+06    -2.70741E+06         29.2977
              30     1.01918E-06     53.8698E-03         4.23140         1.92860        -5.31175        -3.47069         2.39033         1.92860         7.53082     116.824E-03    -57.9852E-03    -58.8399E-03    -58.8367E-03     116.821E-03    -57.9852E-03     1.50332E-03    -74.6777E+06    -77.1845E+06    -284.429E+06    -74.7081E+06    -284.402E+06    -77.1811E+06       7.668E+03         29.2842
              31    -376.652E-09     52.7505E-03         4.39039         2.03707        -5.56706        -3.56458         2.38791         2.03707         7.98151     116.959E-03    -58.2701E-03    -58.6889E-03    -58.6871E-03     116.957E-03    -58.2701E-03     899.848E-06    -71.9235E+06    -72.5728E+06    -279.524E+06    -72.5928E+06    -279.504E+06    -71.9235E+06     2.00026E+06         29.2791
              32     527.679E-09     51.6254E-03         4.49807         2.11257        -5.71935        -3.55181         2.33053         2.11257         8.35281     117.770E-03    -58.6752E-03    -59.0943E-03    -59.0941E-03     117.769E-03    -58.6752E-03    -104.680E-06    -75.0128E+06    -76.5392E+06    -285.307E+06    -76.5635E+06    -285.283E+06    -75.0128E+06    -570.845E+03         29.2860
              33     131.930E-09     50.5020E-03         4.67953         2.08057        -5.84740        -3.52929         2.36142         2.08057         8.72430     117.470E-03    -58.4884E-03    -58.9809E-03    -58.9757E-03     117.465E-03    -58.4884E-03     1.12305E-03    -75.9795E+06    -77.2656E+06    -287.675E+06    -76.8784E+06    -287.657E+06    -76.3851E+06    -1.56671E+06         29.2901
              34     130.723E-09     49.3764E-03         4.87352         2.00342        -5.96167        -3.51826         2.43011         2.00342         9.05597     117.447E-03    -58.6104E-03    -58.8353E-03    -58.8297E-03     117.442E-03    -58.6104E-03     1.77961E-03    -73.1113E+06    -75.1548E+06    -285.088E+06    -73.1162E+06    -285.083E+06    -75.1548E+06     509.044E+03         29.2967
              35    -9.20399E-09     48.2558E-03         5.13632         1.82786        -6.04870        -3.41230         2.49992         1.82786         9.49310     117.602E-03    -58.5634E-03    -59.0383E-03    -59.0376E-03     117.601E-03    -58.5634E-03     639.183E-06    -73.6742E+06    -75.8353E+06    -286.974E+06    -74.2073E+06    -286.964E+06    -75.3121E+06     1.45395E+06         29.3068
              36     767.323E-09     47.1317E-03         5.40229         1.63074        -6.08921        -3.21844         2.53153         1.63074         9.94754     117.640E-03    -58.4236E-03    -59.2201E-03    -59.2197E-03     117.640E-03    -58.4236E-03     462.439E-06    -73.6304E+06    -76.0129E+06    -287.778E+06    -76.0182E+06    -287.772E+06    -73.6304E+06     768.117E+03         29.3074
              37     1.37998E-09     46.0071E-03         5.56001         1.50921        -6.14220        -3.05548         2.47330         1.50921         10.3123     117.513E-03    -58.3558E-03    -59.1597E-03    -59.1587E-03     117.512E-03    -58.3558E-03     808.432E-06    -75.2016E+06    -78.1139E+06    -289.696E+06    -77.0620E+06    -289.695E+06    -76.2546E+06    -327.535E+03         29.2998
              38     751.050E-09     44.8852E-03         5.79819         1.22848        -6.09966        -2.84486         2.54339         1.22848         10.6074     117.202E-03    -58.3515E-03    -58.8515E-03    -58.8499E-03     117.201E-03    -58.3515E-03     7.02665E-06    -76.9056E+06    -78.3595E+06    -290.565E+06    -76.9092E+06    -290.562E+06    -78.3595E+06    -855.933E+03         29.2947
              39    -584.086E-09     43.7631E-03         6.06808     885.070E-03        -5.99313        -2.56343         2.63837     885.070E-03         10.8800     117.415E-03    -58.6062E-03    -58.8090E-03    -58.8070E-03     117.413E-03    -58.6062E-03     107.335E-06    -75.8108E+06    -77.5516E+06    -289.575E+06    -77.1540E+06    -289.572E+06    -76.2117E+06    -224.211E+03         29.2980
              40     801.873E-09     42.6373E-03         6.26988     672.843E-03        -5.98083        -2.29433         2.58338     672.843E-03         11.2352     118.108E-03    -58.7956E-03    -59.3155E-03    -59.3110E-03     118.104E-03    -58.7956E-03     1.72985E-03    -76.5895E+06    -78.5702E+06    -290.255E+06    -77.9434E+06    -290.241E+06    -77.2302E+06    -891.501E+03         29.3057
              41    -44.4660E-09     41.5110E-03         6.42776     394.928E-03        -5.86496        -1.96893         2.53173     394.928E-03         11.4376     117.654E-03    -58.5437E-03    -59.1146E-03    -59.1095E-03     117.649E-03    -58.5437E-03     1.85311E-03    -74.6587E+06    -76.9660E+06    -288.486E+06    -74.6718E+06    -288.473E+06    -76.9660E+06    -1.14006E+06         29.3045
              42     321.590E-09     40.3921E-03         6.58468     35.6611E-03        -5.65684        -1.62330         2.55113     35.6611E-03         11.5069     116.714E-03    -58.1324E-03    -58.5837E-03    -58.5810E-03     116.712E-03    -58.1324E-03     173.322E-06    -74.1313E+06    -76.8500E+06    -288.518E+06    -75.1845E+06    -288.517E+06    -75.7980E+06     393.443E+03         29.3016
              43     237.552E-09     39.2696E-03         6.76212    -309.256E-03        -5.49498        -1.35722         2.62436    -309.256E-03         11.5922     117.561E-03    -58.5000E-03    -59.0614E-03    -59.0578E-03     117.558E-03    -58.5000E-03     377.018E-06    -76.4788E+06    -77.8606E+06    -289.590E+06    -77.8752E+06    -289.576E+06    -76.4788E+06     1.54411E+06         29.3148
              44     272.671E-09     38.1433E-03         6.84688    -611.868E-03        -5.26848        -1.07478         2.65317    -611.868E-03         11.5266     118.708E-03    -59.1633E-03    -59.5466E-03    -59.5439E-03     118.705E-03    -59.1633E-03     1.13676E-03    -74.9741E+06    -75.5490E+06    -287.288E+06    -75.3269E+06    -287.265E+06    -75.2192E+06     189.074E+03         29.3216
              45    -65.0974E-09     37.0180E-03         6.83543    -863.497E-03        -4.99780    -679.611E-03         2.51724    -863.497E-03         11.3888     117.591E-03    -58.6363E-03    -58.9579E-03    -58.9568E-03     117.590E-03    -58.6363E-03     769.300E-06    -77.5147E+06    -79.8235E+06    -290.553E+06    -77.5483E+06    -290.519E+06    -79.8235E+06     595.912E+03         29.2991
              46     427.116E-09     35.8970E-03         6.83280        -1.12032        -4.74127    -367.880E-03         2.45941        -1.12032         11.2234     116.432E-03    -57.9936E-03    -58.4408E-03    -58.4397E-03     116.431E-03    -57.9936E-03     681.774E-06    -75.4728E+06    -80.7916E+06    -291.168E+06    -78.7521E+06    -291.144E+06    -77.5365E+06     1.48170E+06         29.2786
              47     61.7975E-09     34.7757E-03         6.84510        -1.41668        -4.45165    -169.949E-03         2.56340        -1.41668         10.9610     117.076E-03    -58.2185E-03    -58.8593E-03    -58.8575E-03     117.074E-03    -58.2185E-03     889.096E-06    -73.0986E+06    -76.6942E+06    -288.708E+06    -76.4057E+06    -288.656E+06    -73.4391E+06    -2.47087E+06         29.2879
              48     687.982E-09     33.6495E-03         6.80084        -1.69187        -4.11609     112.699E-03         2.57205        -1.69187         10.6351     117.997E-03    -58.5948E-03    -59.4015E-03    -59.3993E-03     117.995E-03    -58.5948E-03     1.17964E-03    -74.6667E+06    -75.7730E+06    -288.893E+06    -74.7305E+06    -288.830E+06    -75.7730E+06    -1.21669E+06         29.3092
              49     61.6185E-09     32.5280E-03         6.79048        -1.89486        -3.90672     369.532E-03         2.51422        -1.89486         10.4794     118.071E-03    -58.6784E-03    -59.3929E-03    -59.3925E-03     118.070E-03    -58.6784E-03     279.282E-06    -75.3439E+06    -76.3545E+06    -289.974E+06    -75.3611E+06    -289.957E+06    -76.3545E+06     1.88271E+06         29.3182
              50     517.001E-09     31.4028E-03         6.80377        -2.04428        -3.78434     501.253E-03         2.51818        -2.04428         10.3942     117.546E-03    -58.6179E-03    -58.9303E-03    -58.9263E-03     117.545E-03    -58.6202E-03     660.071E-06    -77.4172E+06    -78.0616E+06    -291.576E+06    -77.8323E+06    -291.561E+06    -77.6621E+06    -303.446E+03         29.3108
              51    -521.592E-09     30.2789E-03         6.77761        -2.17524        -3.60442     646.121E-03         2.52707        -2.17524         10.2097     117.502E-03    -58.5381E-03    -58.9666E-03    -58.9624E-03     117.500E-03    -58.5404E-03     1.11071E-03    -76.4091E+06    -77.4169E+06    -291.242E+06    -76.8190E+06    -291.231E+06    -77.0174E+06    -1.17200E+06         29.2984
              52     1.30989E-06     29.1571E-03         6.69358        -2.26872        -3.43774     750.142E-03         2.50570        -2.26872         9.97803     117.524E-03    -58.4012E-03    -59.1268E-03    -59.1264E-03     117.523E-03    -58.4012E-03     170.515E-06    -76.2436E+06     -77.268E+06    -293.068E+06    -76.6608E+06    -293.067E+06    -76.8520E+06     211.412E+03         29.2888
              53    -745.495E-09     28.0332E-03         6.64133        -2.28012        -3.39874     825.242E-03         2.41734        -2.28012         9.91160     117.367E-03    -58.4416E-03    -58.9272E-03    -58.7392E-03     117.365E-03    -58.6278E-03     596.101E-06    -74.9497E+06    -75.9204E+06    -292.916E+06    -75.3724E+06    -292.910E+06    -75.5044E+06     1.12178E+06         29.2764
              54     377.498E-09     26.9090E-03         6.59396        -2.26849        -3.34958     911.767E-03         2.33261        -2.26849         9.84151     117.124E-03    -58.1804E-03    -58.9439E-03    -58.7558E-03     117.122E-03    -58.3666E-03     1.08315E-03    -73.2984E+06    -73.9149E+06    -290.512E+06    -73.3157E+06    -290.495E+06    -73.9149E+06    -328.580E+03         29.2564
              55     708.791E-09     25.7859E-03         6.55600        -2.30590        -3.26469     834.448E-03         2.45686        -2.30590         9.68339     116.346E-03    -57.7755E-03    -58.5702E-03    -58.5690E-03     116.345E-03    -57.7755E-03     884.699E-06    -76.9900E+06    -77.1946E+06    -292.859E+06    -77.1499E+06    -292.842E+06    -77.0518E+06    -349.435E+03         29.2437
              56    -300.745E-09     24.6676E-03         6.45435        -2.27221        -3.21353     793.930E-03         2.44688        -2.27221         9.52424     116.904E-03    -58.3023E-03    -58.6004E-03    -58.5988E-03     116.903E-03    -58.3023E-03     1.06064E-03    -76.1999E+06    -77.1160E+06    -290.743E+06    -77.1302E+06    -290.729E+06    -76.1999E+06    -189.982E+03         29.2478
              57     459.107E-09     23.5398E-03         6.21003        -2.10271        -3.16337     843.897E-03         2.20277        -2.10271         9.27391     117.009E-03    -58.3083E-03    -58.6997E-03    -58.6970E-03     117.006E-03    -58.3083E-03    -379.807E-06    -75.6243E+06    -77.4007E+06    -289.907E+06    -76.4208E+06    -289.884E+06    -76.6274E+06    -2.20712E+06         29.2389
              58     106.291E-09     22.4225E-03         5.98606        -2.00574        -3.04498     704.120E-03         2.23696        -2.00574         8.89399     115.976E-03    -57.6992E-03    -58.2768E-03    -58.2742E-03     115.973E-03    -57.6992E-03    -432.912E-06    -78.4260E+06    -80.2556E+06    -292.953E+06    -79.2759E+06    -292.930E+06    -79.4291E+06    -274.997E+03         29.2042
              59     402.850E-09     21.2979E-03         5.75876        -1.92486        -2.90182     505.382E-03         2.35156        -1.92486         8.46129     116.374E-03    -57.9535E-03    -58.4205E-03    -58.4187E-03     116.372E-03    -57.9535E-03     1.11032E-03    -80.3093E+06    -81.1823E+06    -293.800E+06    -81.1530E+06    -293.783E+06    -80.3559E+06     30.8163E+03         29.1650
              60    -32.9676E-09     20.1732E-03         5.35662        -1.71521        -2.73966     404.730E-03         2.21223        -1.71521         7.89190     115.469E-03    -57.5044E-03    -57.9652E-03    -57.9623E-03     115.466E-03    -57.5044E-03     1.42308E-03    -77.6293E+06    -77.7784E+06    -290.666E+06    -77.6378E+06    -290.658E+06    -77.7784E+06    -818.553E+03         29.0977
              61     516.327E-09     19.0552E-03         4.85035        -1.47196        -2.46306     277.834E-03         2.10945        -1.47196         7.07781     112.997E-03    -56.2013E-03    -56.7977E-03    -56.7961E-03     112.996E-03    -56.2013E-03     817.910E-06    -78.5665E+06    -80.8145E+06    -291.951E+06    -78.6027E+06    -291.915E+06    -80.8145E+06     2.08533E+06         28.9702
              62     86.2177E-09     17.9398E-03         4.40396        -1.29541        -2.16370     106.600E-03         2.13365        -1.29541         6.24263     111.407E-03    -55.3363E-03    -56.0753E-03    -56.0742E-03     111.406E-03    -55.3363E-03    -511.318E-06    -76.3882E+06    -82.2584E+06    -290.817E+06    -80.1528E+06    -290.777E+06    -78.5337E+06     2.59087E+06         28.7885
              63     715.709E-09     16.8247E-03         3.88903        -1.15090        -1.80758    -18.4383E-03         2.09989        -1.15090         5.28496     109.280E-03    -54.2624E-03    -55.0214E-03    -55.0186E-03     109.277E-03    -54.2624E-03    -1.35924E-03    -73.1433E+06    -78.2656E+06    -288.679E+06    -76.9407E+06    -288.606E+06    -74.5409E+06    -2.09348E+06         28.5289
              64    -67.2971E-09     15.7097E-03         3.40588    -995.176E-03        -1.46539    -131.450E-03         2.07194    -995.176E-03         4.33522     104.617E-03    -51.9598E-03    -52.6593E-03    -52.3123E-03     104.614E-03    -52.3035E-03    -1.41639E-03    -76.9492E+06    -81.0651E+06    -292.056E+06    -77.0499E+06    -291.955E+06    -81.0651E+06    -872.977E+03         28.1430
              65    -627.349E-09     14.6056E-03         2.95244    -834.233E-03        -1.18334    -291.478E-03         2.06058    -834.233E-03         3.38491     97.8323E-03    -48.6434E-03    -49.1914E-03    -48.8381E-03     97.8227E-03    -48.9871E-03    -2.17016E-03    -74.7374E+06    -78.0186E+06    -286.821E+06    -75.3396E+06    -286.781E+06    -77.4558E+06      2.7342E+06         27.6154
              66     1.00412E-06     13.5071E-03         2.55915    -741.710E-03    -932.770E-03    -379.016E-03         2.00539    -741.710E-03         2.54250     89.1590E-03    -44.2993E-03    -44.8587E-03    -44.8283E-03     89.1286E-03    -44.2993E-03    -3.89389E-03    -74.6225E+06    -76.3661E+06    -286.588E+06    -76.4672E+06    -286.487E+06    -74.6225E+06    -2.26356E+06         26.9633
              67    -354.630E-09     12.4249E-03         2.32661    -687.702E-03    -733.083E-03    -418.061E-03         2.01951    -695.623E-03         1.79597     79.9890E-03    -39.7873E-03    -40.1980E-03    -40.1593E-03     79.9504E-03    -39.7873E-03    -4.30664E-03    -71.7249E+06    -75.6054E+06    -284.920E+06    -73.0077E+06    -284.818E+06    -74.4246E+06    -2.20041E+06         26.2967
              68     387.109E-09     11.3430E-03         2.12145    -582.408E-03    -646.410E-03    -498.421E-03         1.98138    -590.328E-03         1.20316     71.0892E-03    -35.4263E-03    -35.6583E-03    -35.6173E-03     71.0482E-03    -35.4263E-03    -4.14791E-03    -60.2720E+06    -64.5714E+06    -272.064E+06     -61.915E+06    -272.020E+06    -62.9718E+06     2.85341E+06         25.8298
              69    -71.6597E-09     10.2779E-03         2.05664    -538.727E-03    -642.600E-03    -523.118E-03         1.98495    -586.517E-03     835.839E-03     62.3103E-03    -30.8847E-03    -31.4219E-03    -31.3778E-03     62.2662E-03    -30.8847E-03    -4.06592E-03    -52.2770E+06    -55.0850E+06    -263.381E+06    -55.1265E+06    -263.340E+06    -52.2770E+06     2.73463E+06         25.7132
              70     744.075E-09     9.21978E-03         1.96727    -493.134E-03    -603.935E-03    -533.797E-03         1.94492    -540.924E-03     432.396E-03     56.6710E-03    -28.0794E-03    -28.5896E-03    -28.5567E-03     56.6380E-03    -28.0794E-03    -3.33891E-03    -44.2767E+06    -46.4337E+06    -256.505E+06    -46.4635E+06    -256.475E+06    -44.2767E+06    -740.674E+03         25.9739
              71    -475.014E-09     8.16444E-03         1.81745    -437.673E-03    -524.804E-03    -491.811E-03         1.80858    -461.794E-03     278.557E-03     56.5755E-03    -28.1921E-03    -28.3801E-03    -28.3661E-03     56.5616E-03    -28.1921E-03    -1.81652E-03    -44.0037E+06    -45.6815E+06    -257.922E+06    -44.9799E+06    -257.894E+06     -44.733E+06    -884.794E+03         26.6091
              72     536.312E-09     7.10665E-03         1.87645    -476.711E-03    -512.504E-03    -481.463E-03         1.86952    -500.831E-03     110.592E-03     64.7922E-03    -32.3604E-03    -32.4309E-03    -32.4267E-03     64.7881E-03    -32.3604E-03     540.136E-06    -46.5395E+06    -47.3058E+06    -261.110E+06    -46.5859E+06    -261.101E+06    -47.2688E+06     1.41513E+06         27.6347
              73    -465.431E-09     6.03484E-03         1.94151    -522.073E-03    -538.343E-03    -537.562E-03         1.94072    -522.073E-03    -82.7994E-03     85.2021E-03    -42.3695E-03    -42.8344E-03    -42.7984E-03     85.1662E-03    -42.3695E-03     3.97525E-03    -49.2417E+06    -50.9837E+06    -265.377E+06    -50.9992E+06    -265.361E+06    -49.2417E+06    -328.702E+03         29.0970
              74     1.30568E-06     4.93207E-03         1.95402    -497.947E-03    -566.042E-03    -495.245E-03         1.94672    -561.446E-03    -212.889E-03     119.410E-03    -59.3788E-03    -60.0311E-03    -59.7242E-03     119.323E-03    -59.5982E-03     7.91177E-03    -55.5738E+06    -59.6727E+06    -273.211E+06    -57.2896E+06    -273.200E+06    -57.9677E+06    -1.23494E+06         31.0765
              75    -1.73115E-06     3.78653E-03         1.83625    -434.368E-03    -526.604E-03    -450.474E-03         1.82361    -497.867E-03    -339.708E-03     165.113E-03    -82.4064E-03    -82.7012E-03    -82.3890E-03     165.021E-03    -82.6258E-03     9.44554E-03    -60.3077E+06    -62.7176E+06    -276.145E+06    -60.3081E+06    -276.145E+06    -62.7176E+06    -55.4745E+03         33.7918
              76     1.91722E-06     2.57672E-03         1.74127    -419.524E-03    -452.481E-03    -424.588E-03         1.71338    -419.524E-03    -466.503E-03     213.560E-03    -106.681E-03    -106.873E-03    -106.803E-03     213.490E-03    -106.681E-03     9.39187E-03    -62.3364E+06    -62.5813E+06    -276.962E+06    -62.3538E+06    -276.945E+06    -62.5813E+06     1.48633E+06         37.0080
              77    -1.72883E-06     1.30739E-03         1.88608    -475.823E-03    -507.169E-03    -453.421E-03         1.85946    -502.950E-03    -458.007E-03     252.122E-03    -125.710E-03    -126.410E-03    -126.373E-03     252.084E-03    -125.710E-03     6.91063E-03    -59.9030E+06    -60.9222E+06    -276.446E+06    -60.7329E+06    -276.406E+06    -60.1318E+06    -181.993E+03         39.8370
              78     870.434E-06     122.935E-09         1.90546    -470.570E-03    -534.689E-03    -466.310E-03         1.90120    -534.689E-03    -128.150E-03     264.168E-03    -131.000E-03    -133.162E-03    -131.560E-03     264.144E-03    -132.579E-03     5.95378E-03    -59.3378E+06    -60.5117E+06    -276.069E+06    -60.1557E+06    -276.042E+06    -59.7213E+06    -2.30411E+06         40.8967
              79     1.74868E-03     122.935E-09         1.82040    -445.410E-03    -489.260E-03    -444.744E-03         1.81973    -489.260E-03    -36.0699E-03     255.522E-03    -124.894E-03    -130.617E-03    -124.833E-03     255.461E-03    -130.617E-03     9.39940E-03    -57.7984E+06    -59.0337E+06    -274.633E+06    -57.8140E+06    -274.617E+06    -59.0337E+06    -1.81916E+06         40.4734
              80     2.63216E-03     122.935E-09         1.80833    -461.066E-03    -475.397E-03    -460.423E-03         1.80768    -475.397E-03    -65.3563E-03     243.534E-03    -116.199E-03    -127.309E-03    -116.079E-03     243.415E-03    -127.309E-03     12.9499E-03    -57.2184E+06    -59.0955E+06    -274.703E+06    -58.2742E+06    -274.673E+06    -58.0702E+06     412.195E+03         39.7469
              81     3.52569E-03     122.935E-09         1.81400    -464.478E-03    -473.533E-03    -465.920E-03         1.81386    -471.951E-03    -34.5819E-03     229.582E-03    -106.237E-03    -123.290E-03    -106.056E-03     229.401E-03    -123.290E-03     15.5179E-03    -57.6023E+06    -59.3695E+06    -274.848E+06    -59.3974E+06    -274.820E+06    -57.6023E+06     560.617E+03         38.7694
              82     4.42902E-03     122.935E-09         1.83556    -472.317E-03    -484.251E-03    -484.059E-03         1.83537    -472.317E-03    -1.25506E-03     214.299E-03    -95.4728E-03    -118.746E-03    -95.2394E-03     214.065E-03    -118.746E-03     16.9464E-03    -57.1374E+06    -63.0857E+06    -276.456E+06    -57.9282E+06    -276.407E+06    -62.3438E+06    -3.05087E+06         37.6684
              83     5.34289E-03     122.935E-09         1.85650    -475.613E-03    -500.117E-03    -500.025E-03         1.85641    -475.613E-03     24.2934E-03     198.993E-03    -85.0424E-03    -113.879E-03    -84.7529E-03     198.703E-03    -113.879E-03     18.0772E-03    -52.4966E+06    -69.5277E+06    -277.284E+06    -52.7154E+06    -277.065E+06    -69.5277E+06    -6.63199E+06         36.5789
              84     6.26673E-03     122.935E-09         1.85005    -472.833E-03    -492.508E-03    -486.952E-03         1.85001    -478.357E-03    -7.76135E-03     184.794E-03    -75.8296E-03    -108.927E-03    -75.4871E-03     184.451E-03    -108.927E-03     18.8549E-03    -45.5141E+06    -75.2728E+06    -262.103E+06    -45.8252E+06    -261.791E+06    -75.2728E+06    -8.19454E+06         35.6435
              85     7.19772E-03     122.935E-09         1.83736    -469.109E-03    -478.376E-03    -469.053E-03         1.83730    -478.376E-03    -22.8243E-03     171.860E-03    -67.8208E-03    -104.018E-03    -67.4391E-03     171.479E-03    -104.018E-03     19.0980E-03    -37.3854E+06    -88.0770E+06    -224.263E+06    -38.0397E+06    -223.609E+06    -88.0770E+06    -10.3026E+06         35.0362
              86     8.13730E-03     122.935E-09         1.85686    -474.514E-03    -490.970E-03    -487.145E-03         1.85678    -478.257E-03    -27.3945E-03     159.938E-03    -60.7139E-03    -99.2174E-03    -60.3014E-03     159.525E-03    -99.2174E-03     19.0473E-03    -28.4055E+06    -112.634E+06    -172.720E+06    -29.4436E+06    -171.682E+06    -112.634E+06    -12.1535E+06         34.9036
              87     9.08126E-03     122.935E-09         1.87959    -480.109E-03    -506.523E-03    -506.358E-03         1.87942    -480.109E-03    -39.1931E-03     149.427E-03    -54.7380E-03    -94.7204E-03    -54.2862E-03     148.975E-03    -94.7204E-03     19.1672E-03    -18.1524E+06    -106.082E+06    -132.021E+06    -19.9490E+06    -112.884E+06    -123.422E+06    -12.2589E+06         35.3037
              88     10.0333E-03     122.935E-09         1.89796    -482.977E-03    -515.397E-03    -515.195E-03         1.89776    -482.977E-03    -44.0534E-03     140.604E-03    -50.0427E-03    -90.6351E-03    -49.4606E-03     140.022E-03    -90.6351E-03     20.9135E-03    -3.53179E+06    -48.5410E+06    -112.910E+06    -13.3381E+06    -38.7347E+06    -112.910E+06    -7.15636E+06         36.2485
              89     10.9816E-03     122.935E-09         1.91853    -486.093E-03    -523.426E-03    -523.211E-03         1.91831    -486.093E-03    -45.7171E-03     133.434E-03    -46.5066E-03    -87.0311E-03    -45.8624E-03     132.790E-03    -87.0311E-03     21.4885E-03     29.4285E+06    -13.5639E+06    -80.2531E+06    -13.4845E+06     29.3491E+06    -80.2531E+06    -1.83372E+06         37.7319
              90     11.9475E-03     122.935E-09         1.92160    -488.741E-03    -514.990E-03    -514.824E-03         1.92144    -488.741E-03    -10.6028E-03     128.185E-03    -44.3190E-03    -83.9023E-03    -43.4534E-03     127.320E-03    -83.9023E-03     24.0456E-03     68.9766E+06    -9.06289E+06    -32.1800E+06    -12.4595E+06     68.9161E+06    -28.7229E+06    -1.85022E+06         39.7217
              91     12.8889E-03     122.935E-09         1.93003    -490.555E-03    -511.435E-03    -511.323E-03         1.92992    -490.555E-03     32.7177E-03     126.679E-03    -45.3894E-03    -81.2625E-03    -44.2509E-03     125.541E-03    -81.2625E-03     27.8999E-03     93.9541E+06     26.5345E+06    -7.08468E+06    -7.07546E+06     93.9449E+06     26.5345E+06    -964.833E+03         42.1550
              92     13.8662E-03     122.935E-09         1.96995    -492.649E-03    -531.384E-03    -531.313E-03         1.96988    -492.649E-03     20.3630E-03     132.707E-03    -53.5106E-03    -79.2523E-03    -50.7620E-03     129.958E-03    -79.2523E-03     43.1155E-03     103.477E+06     76.5821E+06    -5.51638E+06    -4.69010E+06     102.651E+06     76.5821E+06     6.17144E+06         44.9453
              93     14.7620E-03     122.935E-09         2.02972    -495.751E-03    -551.836E-03    -551.749E-03         2.02963    -495.751E-03    -19.5459E-03     136.055E-03    -58.3553E-03    -77.7716E-03    -53.2726E-03     130.973E-03    -77.7716E-03     61.8261E-03     111.458E+06     101.065E+06    -6.31294E+06    -4.26459E+06     102.090E+06     108.386E+06    -1.48267E+06         48.0038
              94     15.7396E-03     122.935E-09         2.18495    -501.340E-03    -630.382E-03    -628.823E-03         2.18339    -501.340E-03     72.7961E-03     210.377E-03    -67.9589E-03    -142.675E-03    -112.888E-03     190.713E-03    -78.0829E-03     157.160E-03     137.855E+06     121.536E+06     2.67553E+06     5.63158E+06     118.580E+06     137.855E+06     2.17351E+06         50.8034
              95     16.6889E-03     1.46334E-03         2.19280    -510.486E-03    -674.322E-03    -666.325E-03         2.18481    -510.486E-03     282.209E-03     251.219E-03    -76.6653E-03    -174.778E-03    -132.669E-03     209.110E-03    -76.6653E-03     248.985E-03     142.428E+06     126.457E+06    -7.75013E+06    -5.88538E+06     124.592E+06     142.428E+06     7.23551E+06         51.8945
              96     16.7547E-03     2.54004E-03         2.03799    -520.549E-03    -621.733E-03    -610.280E-03         2.02654    -520.549E-03     347.738E-03     192.150E-03    -72.2305E-03    -119.948E-03    -79.1549E-03     151.356E-03    -72.2305E-03     210.050E-03     142.561E+06     125.924E+06    -7.26914E+06    -6.37608E+06     125.031E+06     142.561E+06     3.74102E+06         51.9591
              97     16.8388E-03     3.66087E-03         1.97314    -529.111E-03    -589.395E-03    -581.197E-03         1.96494    -529.111E-03     288.082E-03     164.632E-03    -67.7644E-03    -96.9481E-03    -77.2604E-03     144.945E-03    -67.7644E-03     131.269E-03     145.176E+06     129.314E+06     2.05881E+06     2.87534E+06     128.497E+06     145.176E+06     8.78769E+06         52.4815
              98     16.8890E-03     4.79513E-03         1.95184    -535.974E-03    -588.121E-03    -582.563E-03         1.94628    -535.974E-03     236.400E-03     167.070E-03    -63.7000E-03    -103.486E-03    -96.8624E-03     160.447E-03    -63.7000E-03     82.3567E-03     135.642E+06     123.891E+06    -3.91128E+06    -3.58975E+06     123.570E+06     135.642E+06     6.01110E+06         53.1740
              99     16.9328E-03     6.02339E-03         1.94557    -541.628E-03    -579.140E-03    -575.040E-03         1.94147    -541.628E-03     203.035E-03     171.597E-03    -61.0659E-03    -110.639E-03    -104.951E-03     165.909E-03    -61.0659E-03     79.0081E-03     136.362E+06     126.346E+06    -6.93302E+06    -6.42414E+06     125.837E+06     136.362E+06     8.21180E+06         53.8659
             100     16.9575E-03     7.20679E-03         1.93816    -547.794E-03    -564.809E-03    -562.666E-03         1.93602    -547.794E-03     135.863E-03     166.216E-03    -59.5531E-03    -106.765E-03    -99.9513E-03     159.402E-03    -59.5531E-03     85.1448E-03     137.861E+06     128.386E+06    -7.38115E+06    -7.12484E+06     128.130E+06     137.861E+06     4.96572E+06         54.5148
             101     16.9746E-03     8.37879E-03         1.96208    -555.332E-03    -578.908E-03    -578.484E-03         1.96166    -555.332E-03     62.5617E-03     162.367E-03    -58.6789E-03    -103.815E-03    -96.3033E-03     154.854E-03    -58.6789E-03     88.1075E-03     140.364E+06     129.717E+06    -3.08432E+06    -3.05961E+06     129.692E+06     140.364E+06     1.80487E+06         55.1261
             102     16.9811E-03     9.56443E-03         1.99693    -563.232E-03    -587.362E-03    -587.236E-03         1.99680    -563.232E-03     34.9560E-03     161.367E-03    -58.2754E-03    -103.147E-03    -94.0516E-03     152.272E-03    -58.2754E-03     96.2013E-03     142.167E+06     131.602E+06    -4.91843E+06    -4.89913E+06     131.583E+06     142.167E+06     1.56063E+06         55.6939
             103     16.9834E-03     10.7302E-03         2.01883    -570.853E-03    -587.111E-03    -587.062E-03         2.01878    -570.853E-03     22.3419E-03     157.804E-03    -58.2194E-03    -99.6339E-03    -89.2069E-03     147.377E-03    -58.2194E-03     101.470E-03     143.472E+06     133.304E+06    -3.15436E+06    -3.14534E+06     133.295E+06     143.472E+06     1.10955E+06         56.2121
             104     16.9854E-03     11.8820E-03         2.03736    -578.273E-03    -594.693E-03    -594.664E-03         2.03733    -578.273E-03     17.2413E-03     151.518E-03    -58.2826E-03    -93.3455E-03    -82.3333E-03     140.506E-03    -58.2826E-03     101.447E-03     143.105E+06     133.422E+06    -3.09174E+06    -3.08255E+06     133.413E+06     143.105E+06    -35.1422E+03         56.6835
             105     16.9879E-03     13.0317E-03         2.06190    -586.261E-03    -598.062E-03    -598.018E-03         2.06185    -586.261E-03     21.0615E-03     146.723E-03    -58.3974E-03    -88.4681E-03    -76.0793E-03     134.335E-03    -58.3974E-03     104.939E-03     144.488E+06     134.915E+06    -1.68135E+06    -1.66864E+06     134.902E+06     144.488E+06     151.810E+03         57.1106
             106     16.9857E-03     14.1789E-03         2.08603    -595.262E-03    -603.132E-03    -603.090E-03         2.08599    -595.262E-03     20.4422E-03     142.398E-03    -58.5688E-03    -83.8770E-03    -69.7064E-03     128.227E-03    -58.5688E-03     109.551E-03     144.804E+06     136.871E+06    -2.41693E+06    -2.40845E+06     136.863E+06     144.804E+06     934.375E+03         57.5022
             107     16.9884E-03     15.3067E-03         2.11658    -605.708E-03    -618.926E-03    -618.733E-03         2.11639    -605.708E-03    -24.3449E-03     138.706E-03    -58.6722E-03    -79.9852E-03    -64.7438E-03     123.464E-03    -58.6722E-03     111.357E-03     143.187E+06     137.716E+06    -4.37306E+06    -4.36300E+06     137.706E+06     143.187E+06    -610.455E+03         57.8700
             108     16.9874E-03     16.4348E-03         2.15945    -616.717E-03    -636.235E-03    -636.030E-03         2.15925    -616.717E-03    -20.6091E-03     138.787E-03    -58.6735E-03    -80.0688E-03    -64.6010E-03     123.319E-03    -58.6735E-03     112.174E-03     144.127E+06     138.579E+06    -3.77840E+06    -3.76816E+06     138.568E+06     144.127E+06    -581.949E+03         58.2037
             109     16.9876E-03     17.5758E-03         2.17844    -624.846E-03    -636.352E-03    -634.982E-03         2.17833    -626.106E-03     33.4655E-03     137.923E-03    -58.7458E-03    -79.1493E-03    -62.4418E-03     121.216E-03    -58.7458E-03     115.557E-03     144.272E+06     138.803E+06    -3.84816E+06    -3.83844E+06     138.793E+06     144.272E+06    -560.952E+03         58.4690
             110     16.9883E-03     18.6994E-03         2.18055    -624.953E-03    -634.724E-03    -624.789E-03         2.18038    -634.724E-03     42.8163E-03     135.094E-03    -58.8522E-03    -76.2020E-03    -57.7216E-03     116.614E-03    -58.8522E-03     119.367E-03     141.766E+06     134.909E+06    -4.92295E+06    -4.91306E+06     134.899E+06     141.766E+06    -1.04853E+06         58.6516
             111     16.9885E-03     19.8174E-03         2.19584    -625.659E-03    -645.164E-03    -625.546E-03         2.19572    -645.164E-03     5.97307E-03     135.460E-03    -58.8360E-03    -76.5860E-03    -57.5974E-03     116.471E-03    -58.8360E-03     121.092E-03     142.514E+06     134.159E+06    -4.79541E+06    -4.79433E+06     134.158E+06     142.514E+06    -355.664E+03         58.7747
             112     16.9893E-03     20.9473E-03         2.23610    -646.752E-03    -658.673E-03    -647.639E-03         2.23606    -657.746E-03    -10.6660E-03     137.904E-03    -58.7786E-03    -79.0939E-03    -59.6787E-03     118.488E-03    -58.7786E-03     123.871E-03     142.685E+06     136.289E+06    -3.37984E+06    -3.37968E+06     136.289E+06     142.685E+06    -122.530E+03         58.8607
             113     16.9876E-03     22.0760E-03         2.28364    -667.499E-03    -670.631E-03    -668.279E-03         2.28349    -669.704E-03     33.2296E-03     137.782E-03    -58.8104E-03    -78.9509E-03    -59.5552E-03     118.386E-03    -58.8104E-03     123.732E-03     142.945E+06     137.367E+06    -3.84536E+06    -3.84329E+06     137.365E+06     142.945E+06     362.175E+03         58.9207
             114     16.9885E-03     23.1904E-03         2.29219    -660.488E-03    -679.141E-03    -660.145E-03         2.29185    -679.141E-03     63.4485E-03     134.618E-03    -58.8397E-03    -75.7667E-03    -57.7138E-03     116.565E-03    -58.8397E-03     117.829E-03     143.371E+06     138.149E+06    -4.01228E+06    -4.00757E+06     138.144E+06     143.371E+06     817.280E+03         58.9674
             115     16.9895E-03     24.3122E-03         2.28686    -650.533E-03    -688.178E-03    -650.332E-03         2.28666    -688.178E-03     37.9122E-03     134.305E-03    -58.8347E-03    -75.4569E-03    -57.5117E-03     116.359E-03    -58.8347E-03     117.322E-03     144.182E+06     139.967E+06    -2.87978E+06    -2.84061E+06     139.928E+06     144.182E+06     2.05329E+06         59.0114
             116     16.9875E-03     25.4451E-03         2.33070    -672.621E-03    -698.338E-03    -672.608E-03         2.33069    -698.338E-03     11.9492E-03     135.457E-03    -58.8278E-03    -76.6056E-03    -58.0489E-03     116.901E-03    -58.8278E-03     119.846E-03     143.384E+06     140.370E+06    -4.64640E+06    -4.58902E+06     140.313E+06     143.384E+06     383.422E+03         59.0576
             117     16.9901E-03     26.5563E-03         2.36299    -685.578E-03    -707.289E-03    -685.349E-03         2.36276    -707.289E-03     44.5354E-03     135.594E-03    -58.7783E-03    -76.7856E-03    -58.9484E-03     117.757E-03    -58.7783E-03     117.796E-03     142.895E+06     140.526E+06    -5.79488E+06    -5.76985E+06     140.501E+06     142.895E+06    -1.78776E+06         59.1058
             118     16.9880E-03     27.6897E-03         2.35686    -662.200E-03    -714.882E-03    -661.925E-03         2.35659    -714.882E-03     54.8613E-03     136.501E-03    -58.7658E-03    -77.7150E-03    -59.5893E-03     118.375E-03    -58.7658E-03     119.207E-03     145.035E+06     142.541E+06    -3.49546E+06    -3.45690E+06     142.503E+06     145.035E+06     1.03095E+06         59.1547
             119     16.9897E-03     28.8206E-03         2.37822    -674.330E-03    -723.753E-03    -674.229E-03         2.37812    -723.753E-03     35.0818E-03     136.296E-03    -58.8156E-03    -77.4414E-03    -57.8391E-03     116.694E-03    -58.8156E-03     123.346E-03     143.864E+06     141.737E+06    -4.02635E+06    -3.99137E+06     141.702E+06     143.864E+06     1.37707E+06         59.2055
             120     16.9886E-03     29.9302E-03         2.41395    -702.374E-03    -732.768E-03    -702.150E-03         2.41373    -732.768E-03     50.1139E-03     135.603E-03    -58.8131E-03    -76.7763E-03    -57.8884E-03     116.715E-03    -58.8131E-03     120.808E-03     142.285E+06     140.175E+06    -5.57063E+06    -5.56782E+06     140.172E+06     142.285E+06    -608.433E+03         59.2586
             121     16.9888E-03     31.0630E-03         2.41961    -686.547E-03    -739.526E-03    -686.326E-03         2.41939    -739.526E-03     49.5283E-03     135.961E-03    -58.8163E-03    -77.1497E-03    -58.4599E-03     117.271E-03    -58.8163E-03     120.493E-03     143.775E+06     141.826E+06    -4.64421E+06    -4.63709E+06     141.819E+06     143.775E+06     198.055E+03         59.3107
             122     16.9885E-03     32.1854E-03         2.42290    -676.541E-03    -745.256E-03    -676.499E-03         2.42286    -745.256E-03     16.9544E-03     136.431E-03    -58.8468E-03    -77.5414E-03    -57.7988E-03     116.688E-03    -58.8468E-03     123.847E-03     145.942E+06     144.031E+06    -2.82846E+06    -2.82346E+06     144.026E+06     145.942E+06     516.742E+03         59.3598
             123     16.9885E-03     33.3070E-03         2.44897    -699.645E-03    -750.943E-03    -699.252E-03         2.44857    -750.943E-03     50.8959E-03     134.189E-03    -58.8615E-03    -75.2540E-03    -56.4092E-03     115.344E-03    -58.8615E-03     119.857E-03     143.791E+06     141.369E+06    -4.32272E+06    -4.32122E+06     141.367E+06     143.791E+06    -401.874E+03         59.4034
             124     16.9895E-03     34.4224E-03         2.44815    -701.577E-03    -755.053E-03    -700.960E-03         2.44753    -755.053E-03     87.4151E-03     133.777E-03    -58.8456E-03    -74.8847E-03    -56.4379E-03     115.331E-03    -58.8456E-03     118.471E-03     142.399E+06     138.800E+06    -4.71398E+06    -4.70792E+06     138.794E+06     142.399E+06    -894.009E+03         59.4429
             125     16.9884E-03     35.5497E-03         2.42927    -680.017E-03    -758.585E-03    -679.773E-03         2.42903    -758.585E-03     26.4077E-03     136.505E-03    -58.8055E-03    -77.6640E-03    -58.7433E-03     117.584E-03    -58.8055E-03     121.560E-03     143.253E+06     139.827E+06    -4.18746E+06    -4.18203E+06     139.821E+06     143.253E+06    -338.717E+03         59.4827
             126     16.9885E-03     36.6811E-03         2.44167    -693.830E-03    -762.324E-03    -693.803E-03         2.44164    -762.324E-03    -4.11515E-03     136.990E-03    -58.8076E-03    -78.1433E-03    -59.0489E-03     117.896E-03    -58.8076E-03     122.363E-03     142.055E+06     137.420E+06    -4.97389E+06    -4.92942E+06     137.375E+06     142.055E+06    -1.50488E+06         59.5241
             127     16.9886E-03     37.7913E-03         2.46129    -709.242E-03    -764.298E-03    -709.224E-03         2.46127    -764.298E-03     15.0524E-03     135.704E-03    -58.7900E-03    -76.8761E-03    -58.9991E-03     117.827E-03    -58.7900E-03     117.927E-03     140.603E+06     133.459E+06    -4.92850E+06    -4.88420E+06     133.414E+06     140.603E+06    -1.54026E+06         59.5686
             128     16.9891E-03     38.9245E-03         2.44598    -687.341E-03    -764.655E-03    -687.257E-03         2.44590    -764.655E-03     29.5799E-03     135.597E-03    -58.7926E-03    -76.7613E-03    -59.0731E-03     117.909E-03    -58.7926E-03     117.311E-03     141.841E+06     133.419E+06    -2.93074E+06    -2.92787E+06     133.416E+06     141.841E+06    -190.624E+03         59.6167
             129     16.9881E-03     40.0495E-03         2.42810    -679.781E-03    -764.367E-03    -679.707E-03         2.42803    -764.367E-03     21.6190E-03     135.357E-03    -58.8387E-03    -76.4977E-03    -58.1678E-03     117.027E-03    -58.8387E-03     119.115E-03     141.511E+06     132.101E+06    -2.82499E+06    -2.81989E+06     132.096E+06     141.511E+06    -828.344E+03         59.6673
             130     16.9885E-03     41.1655E-03         2.43262    -688.515E-03    -763.095E-03    -688.513E-03         2.43262    -763.095E-03     4.26540E-03     133.680E-03    -58.8414E-03    -74.8190E-03    -57.1084E-03     115.969E-03    -58.8414E-03     116.257E-03     142.507E+06     133.473E+06    -2.61639E+06    -2.57961E+06     133.436E+06     142.507E+06     1.09017E+06         59.7202
             131     16.9903E-03     42.2915E-03         2.42641    -684.658E-03    -761.009E-03    -684.637E-03         2.42639    -761.009E-03    -6.60933E-03     134.731E-03    -58.8191E-03    -75.8767E-03    -57.3015E-03     116.156E-03    -58.8191E-03     119.420E-03     144.634E+06     138.944E+06    -2.38717E+06    -2.33624E+06     138.893E+06     144.634E+06     2.63677E+06         59.7737
             132     16.9875E-03     43.4223E-03         2.41073    -684.567E-03    -758.143E-03    -684.542E-03         2.41070    -758.143E-03    -4.50815E-03     137.459E-03    -58.8237E-03    -78.6245E-03    -58.8165E-03     117.651E-03    -58.8237E-03     124.705E-03     142.091E+06     139.941E+06    -6.90173E+06    -6.88300E+06     139.922E+06     142.091E+06     1.47227E+06         59.8226
             133     16.9878E-03     44.5421E-03         2.38968    -675.527E-03    -753.520E-03    -675.519E-03         2.38968    -753.520E-03     2.61937E-03     136.576E-03    -58.8586E-03    -77.7299E-03    -58.3538E-03     117.200E-03    -58.8586E-03     122.911E-03     142.268E+06     141.011E+06    -5.81226E+06    -5.79081E+06     140.989E+06     142.268E+06     1.55780E+06         59.8666
             134     16.9883E-03     45.6627E-03         2.36848    -661.820E-03    -747.297E-03    -661.803E-03         2.36846    -747.297E-03     5.97515E-03     134.722E-03    -58.8701E-03    -75.8537E-03    -56.7478E-03     115.616E-03    -58.8701E-03     120.961E-03     144.037E+06     143.196E+06    -4.02313E+06    -3.98859E+06     143.317E+06     143.881E+06     143.463E+03         59.9102
             135     16.9896E-03     46.7858E-03         2.35315    -663.071E-03    -740.220E-03    -663.055E-03         2.35314    -740.220E-03     11.3103E-03     135.680E-03    -58.8181E-03    -76.8480E-03    -58.0686E-03     116.900E-03    -58.8181E-03     120.604E-03     143.264E+06     142.187E+06     -5.0523E+06    -5.02679E+06     142.317E+06     143.108E+06    -1.93329E+06         59.9532
             136     16.9878E-03     47.9074E-03         2.32669    -654.600E-03    -732.173E-03    -654.590E-03         2.32668    -732.173E-03     9.32045E-03     135.118E-03    -58.8016E-03    -76.2969E-03    -58.7602E-03     117.581E-03    -58.8016E-03     116.613E-03     143.526E+06     142.602E+06    -4.15725E+06    -4.14326E+06     142.591E+06     143.524E+06    -384.644E+03         59.9944
             137     16.9898E-03     49.0336E-03         2.29036    -639.373E-03    -722.885E-03    -639.358E-03         2.29035    -722.885E-03     13.1458E-03     135.246E-03    -58.8136E-03    -76.3880E-03    -58.2244E-03     117.082E-03    -58.8136E-03     118.514E-03     144.674E+06     144.121E+06    -1.97196E+06    -1.96643E+06     144.668E+06     144.121E+06     94.9164E+03         60.0391
             138     16.9878E-03     50.1572E-03         2.26442    -640.238E-03    -711.997E-03    -640.137E-03         2.26432    -711.997E-03     29.1194E-03     136.327E-03    -58.7955E-03    -77.4625E-03    -59.0502E-03     117.915E-03    -58.7955E-03     119.916E-03     143.910E+06     143.177E+06    -2.95840E+06    -2.95370E+06     143.905E+06     143.177E+06     29.0341E+03         60.0900
             139     16.9895E-03     51.2841E-03         2.23013    -632.280E-03    -700.256E-03    -632.185E-03         2.23004    -700.256E-03     23.0887E-03     135.934E-03    -58.8165E-03    -77.0657E-03    -58.5280E-03     117.396E-03    -58.8165E-03     120.022E-03     143.144E+06     141.886E+06    -5.23646E+06    -5.23369E+06     143.142E+06     141.886E+06     288.260E+03         60.1443
             140     16.9876E-03     52.4067E-03         2.18587    -616.769E-03    -688.038E-03    -616.724E-03         2.18583    -688.038E-03     15.4386E-03     134.491E-03    -58.8565E-03    -75.6008E-03    -56.8720E-03     115.762E-03    -58.8565E-03     119.714E-03     144.539E+06     142.641E+06    -3.71223E+06    -3.71189E+06     144.538E+06     142.641E+06    -212.851E+03         60.2027
             141     16.9904E-03     53.5242E-03         2.16322    -615.206E-03    -674.280E-03    -615.160E-03         2.16317    -674.280E-03     15.0638E-03     135.658E-03    -58.8303E-03    -76.8213E-03    -57.9067E-03     116.743E-03    -58.8303E-03     120.998E-03     144.341E+06     143.046E+06    -3.78869E+06    -3.78721E+06     144.340E+06     143.046E+06     251.166E+03         60.2676
             142     16.9870E-03     54.6576E-03         2.13052    -604.072E-03    -659.475E-03    -603.892E-03         2.13034    -659.475E-03     30.3491E-03     137.790E-03    -58.7990E-03    -79.0045E-03    -59.4829E-03     118.269E-03    -58.7990E-03     124.108E-03     143.298E+06     141.481E+06    -5.16982E+06    -5.16809E+06     143.296E+06     141.481E+06     477.811E+03         60.3310
             143     16.9897E-03     55.7812E-03         2.07847    -588.783E-03    -644.233E-03    -588.591E-03         2.07827    -644.233E-03     39.1741E-03     137.111E-03    -58.8418E-03    -78.2422E-03    -58.0319E-03     116.901E-03    -58.8418E-03     125.536E-03     142.664E+06     141.299E+06    -5.39204E+06    -5.39104E+06     142.641E+06     141.321E+06    -67.0002E+03         60.3873
             144     16.9876E-03     56.9000E-03         2.04124    -588.385E-03    -627.800E-03    -588.356E-03         2.04121    -627.800E-03     17.4902E-03     136.478E-03    -58.8519E-03    -77.5557E-03    -58.0068E-03     116.929E-03    -58.8519E-03     123.176E-03     142.611E+06     142.488E+06    -4.42707E+06    -4.42444E+06     142.586E+06     142.511E+06    -601.891E+03         60.4439
             145     16.9886E-03     58.0230E-03         2.00000    -569.939E-03    -610.261E-03    -569.920E-03         1.99998    -610.261E-03     13.0594E-03     135.134E-03    -58.8471E-03    -76.2431E-03    -58.2439E-03     117.134E-03    -58.8471E-03     117.985E-03     143.343E+06     143.147E+06    -2.55919E+06    -2.55305E+06     143.337E+06     143.147E+06    -930.021E+03         60.5000
             146     16.9883E-03     59.1440E-03         1.94625    -547.045E-03    -592.021E-03    -546.842E-03         1.94605    -592.021E-03     35.0852E-03     135.104E-03    -58.8444E-03    -76.2465E-03    -57.9136E-03     116.771E-03    -58.8444E-03     118.972E-03     142.045E+06     140.625E+06    -3.76157E+06    -3.75701E+06     140.716E+06     141.950E+06    -386.042E+03         60.5579
             147     16.9890E-03     60.2726E-03         1.90550    -548.775E-03    -573.183E-03    -548.559E-03         1.90528    -573.183E-03     39.8967E-03     135.717E-03    -58.8213E-03    -76.8824E-03    -58.1031E-03     116.938E-03    -58.8213E-03     120.653E-03     141.046E+06     139.305E+06    -4.73568E+06    -4.73514E+06     139.721E+06     140.629E+06     273.824E+03         60.6208
             148     16.9886E-03     61.3941E-03         1.86121    -539.660E-03    -554.486E-03    -539.582E-03         1.86113    -554.486E-03     25.7026E-03     136.047E-03    -58.8191E-03    -77.2093E-03    -58.4325E-03     117.270E-03    -58.8191E-03     120.848E-03     141.572E+06     140.987E+06    -3.75388E+06    -3.75371E+06     141.572E+06     140.987E+06     74.7372E+03         60.6873
             149     16.9906E-03     63.6389E-03         1.76941    -513.278E-03    -518.788E-03    -517.011E-03         1.76933    -514.969E-03     27.6519E-03     134.264E-03    -58.8620E-03    -75.3666E-03    -56.0523E-03     114.949E-03    -58.8620E-03     121.231E-03     143.185E+06     141.371E+06    -3.48031E+06    -3.45615E+06     142.499E+06     142.033E+06    -1.17519E+06         60.8146
             150     16.9871E-03     64.7630E-03         1.70812    -489.275E-03    -498.126E-03    -493.057E-03         1.70808    -494.308E-03     17.0074E-03     137.130E-03    -58.8162E-03    -78.2792E-03    -58.7984E-03     117.649E-03    -58.8162E-03     123.504E-03     141.528E+06     139.458E+06    -4.33864E+06    -4.31418E+06     139.434E+06     141.528E+06    -1.11455E+06         60.8731
             151     16.9899E-03     65.8871E-03         1.66948    -469.315E-03    -490.103E-03    -485.058E-03         1.66947    -474.347E-03     152.230E-06     138.060E-03    -58.7954E-03    -79.2399E-03    -59.7718E-03     118.591E-03    -58.7954E-03     124.079E-03     141.303E+06     137.452E+06    -4.50882E+06    -4.50715E+06     137.450E+06     141.303E+06     479.465E+03         60.9250
             152     16.9877E-03     67.0198E-03         1.64010    -455.681E-03    -492.719E-03    -492.713E-03         1.64010    -455.681E-03    -5.65393E-03     136.448E-03    -58.8531E-03    -77.5817E-03    -57.5627E-03     116.429E-03    -58.8531E-03     124.642E-03     142.376E+06     138.181E+06    -2.53315E+06    -2.53148E+06     138.179E+06     142.376E+06     477.474E+03         60.9741
             153     16.9898E-03     68.1281E-03         1.57805    -437.249E-03    -465.240E-03    -465.212E-03         1.57802    -437.249E-03     10.0814E-03     134.361E-03    -58.8464E-03    -75.4766E-03    -56.9701E-03     115.854E-03    -58.8464E-03     118.949E-03     141.599E+06     139.041E+06    -2.88968E+06    -2.88902E+06     139.040E+06     141.599E+06     108.683E+03         61.0264
             154     16.9883E-03     69.2499E-03         1.53685    -417.736E-03    -449.606E-03    -449.504E-03         1.53675    -417.736E-03    -6.57468E-03     134.501E-03    -58.7845E-03    -75.7090E-03    -58.1968E-03     116.988E-03    -58.7845E-03     116.182E-03     142.382E+06     140.806E+06    -4.28763E+06    -4.27807E+06     141.567E+06     141.610E+06     750.584E+03         61.0786
             155     16.9905E-03     70.3863E-03         1.51921    -398.596E-03    -463.135E-03    -462.974E-03         1.51905    -398.596E-03    -35.7668E-03     137.210E-03    -58.7827E-03    -78.4730E-03    -58.7000E-03     117.437E-03    -58.7827E-03     124.338E-03     143.986E+06     142.798E+06    -4.18039E+06    -4.16956E+06     143.975E+06     142.798E+06     519.627E+03         61.1313
             156     16.9877E-03     71.5081E-03         1.46097    -380.929E-03    -441.032E-03    -440.812E-03         1.46075    -380.929E-03     3.29762E-03     137.647E-03    -58.8004E-03    -78.9075E-03    -58.7813E-03     117.521E-03    -58.8004E-03     125.655E-03     146.404E+06     143.399E+06    -4.66076E+06    -4.63228E+06     146.375E+06     143.399E+06     1.12757E+06         61.1870
             157     16.9900E-03     72.6256E-03         1.38854    -363.992E-03    -407.697E-03    -407.563E-03         1.38840    -363.992E-03     24.8837E-03     134.923E-03    -58.8253E-03    -76.1402E-03    -57.5958E-03     116.379E-03    -58.8253E-03     119.495E-03     148.743E+06     143.724E+06    -4.71693E+06    -4.68981E+06     148.715E+06     143.724E+06     1.48064E+06         61.2401
             158     16.9883E-03     73.7504E-03         1.36795    -348.034E-03    -418.484E-03    -418.382E-03         1.36785    -348.034E-03    -16.0945E-03     134.719E-03    -58.8463E-03    -75.8481E-03    -56.9433E-03     115.814E-03    -58.8463E-03     120.388E-03     146.727E+06     142.563E+06    -3.73821E+06    -3.73779E+06     146.727E+06     142.563E+06     207.332E+03         61.2911
             159     16.9892E-03     74.8735E-03         1.36517    -332.903E-03    -428.100E-03    -427.992E-03         1.36507    -332.903E-03    -13.9750E-03     135.875E-03    -58.8294E-03    -76.9901E-03    -57.9381E-03     116.823E-03    -58.8294E-03     121.532E-03     147.032E+06     142.087E+06    -4.11824E+06    -4.11769E+06     147.031E+06     142.087E+06     280.052E+03         61.3434
             160     16.9884E-03     75.9954E-03         1.32521    -318.898E-03    -404.407E-03    -404.381E-03         1.32519    -318.898E-03    -2.85979E-03     135.489E-03    -58.7960E-03    -76.6658E-03    -58.4250E-03     117.248E-03    -58.7960E-03     118.926E-03     148.472E+06     140.966E+06    -4.94499E+06    -4.93647E+06     148.464E+06     140.966E+06    -693.278E+03         61.3943
             161     16.9898E-03     77.1178E-03         1.26803    -306.594E-03    -385.876E-03    -385.761E-03         1.26792    -306.594E-03     9.74090E-03     135.572E-03    -58.7804E-03    -76.7975E-03    -58.8749E-03     117.650E-03    -58.7804E-03     118.063E-03     148.823E+06     141.612E+06    -3.99154E+06    -3.98317E+06     148.815E+06     141.612E+06    -786.272E+03         61.4442
             162     16.9882E-03     78.2465E-03         1.23016    -295.068E-03    -376.609E-03    -376.492E-03         1.23004    -295.068E-03     25.7296E-03     135.486E-03    -58.7919E-03    -76.6964E-03    -58.3411E-03     117.130E-03    -58.7919E-03     119.293E-03     150.109E+06     142.311E+06    -4.08398E+06    -4.08351E+06     150.108E+06     142.311E+06    -175.869E+03         61.4959
             163     16.9904E-03     79.3680E-03         1.20878    -285.142E-03    -371.912E-03    -371.892E-03         1.20876    -285.142E-03     8.04175E-03     135.547E-03    -58.8011E-03    -76.7233E-03    -57.9861E-03     116.810E-03    -58.8011E-03     120.435E-03     149.353E+06     141.893E+06    -4.11889E+06    -4.10238E+06     149.336E+06     141.893E+06    -1.29107E+06         61.5516
             164     16.9877E-03     80.4913E-03         1.19156    -277.626E-03    -377.408E-03    -377.408E-03         1.19156    -277.626E-03    -606.228E-06     136.097E-03    -58.8091E-03    -77.2474E-03    -58.8145E-03     117.664E-03    -58.8091E-03     119.859E-03     150.384E+06     144.669E+06    -2.13954E+06    -2.07149E+06     150.316E+06     144.669E+06     898.068E+03         61.6097
             165     16.9895E-03     81.6184E-03         1.16744    -270.713E-03    -367.976E-03    -367.546E-03         1.16701    -270.713E-03     35.4027E-03     135.721E-03    -58.8133E-03    -76.8878E-03    -58.1456E-03     116.979E-03    -58.8133E-03     120.505E-03     153.263E+06     144.507E+06    -4.62252E+06    -4.57036E+06     153.211E+06     144.507E+06     2.11546E+06         61.6678
             166     16.9892E-03     82.7380E-03         1.12530    -264.449E-03    -342.974E-03    -342.543E-03         1.12487    -264.449E-03     36.4011E-03     135.284E-03    -58.8004E-03    -76.4702E-03    -57.4791E-03     116.293E-03    -58.8004E-03     120.986E-03     154.315E+06     144.361E+06    -5.45580E+06    -5.45523E+06     154.314E+06     144.361E+06     296.583E+03         61.7262
             167     16.9900E-03     83.8645E-03         1.09895    -260.427E-03    -341.499E-03    -341.399E-03         1.09885    -260.427E-03     17.4291E-03     135.693E-03    -58.7961E-03    -76.8967E-03    -57.8232E-03     116.619E-03    -58.7961E-03     121.485E-03     155.273E+06     146.742E+06    -2.77272E+06    -2.77230E+06     155.272E+06     146.742E+06     148.220E+03         61.7833
             168     16.9891E-03     84.9867E-03         1.08893    -257.356E-03    -345.068E-03    -344.326E-03         1.08819    -257.356E-03     59.6934E-03     136.144E-03    -58.8073E-03    -77.3609E-03    -57.8734E-03     116.656E-03    -58.8073E-03     122.972E-03     156.275E+06     146.520E+06    -4.15549E+06    -4.15299E+06     156.273E+06     146.520E+06     416.783E+03         61.8373
             169     16.9895E-03     86.1123E-03         1.05360    -255.037E-03    -320.698E-03    -320.027E-03         1.05293    -255.037E-03     51.3777E-03     135.855E-03    -58.8299E-03    -77.0189E-03    -57.5081E-03     116.344E-03    -58.8299E-03     122.835E-03     157.218E+06     146.430E+06    -4.62659E+06    -4.61244E+06     157.204E+06     146.430E+06     1.41874E+06         61.8882
             170     16.9888E-03     87.2303E-03         1.02665    -254.880E-03    -307.304E-03    -307.265E-03         1.02661    -254.880E-03     13.8632E-03     134.777E-03    -58.8240E-03    -75.9385E-03    -56.9499E-03     115.788E-03    -58.8240E-03     120.646E-03     161.289E+06     147.455E+06    -4.14677E+06    -4.12303E+06     161.266E+06     147.455E+06     1.98167E+06         61.9378
             171     16.9911E-03     88.3511E-03         1.02651    -255.792E-03    -314.543E-03    -313.933E-03         1.02590    -255.792E-03     45.2942E-03     135.524E-03    -58.7728E-03    -76.7360E-03    -58.1568E-03     116.945E-03    -58.7728E-03     119.971E-03     166.998E+06     149.132E+06    -4.25067E+06    -4.23416E+06     166.981E+06     149.132E+06     1.63104E+06         61.9884
             172     16.9885E-03     89.4815E-03         1.00773    -257.056E-03    -304.081E-03    -303.280E-03         1.00693    -257.056E-03     62.8110E-03     137.091E-03    -58.7608E-03    -78.2955E-03    -59.0581E-03     117.854E-03    -58.7608E-03     122.854E-03     171.108E+06     150.592E+06    -5.84474E+06    -5.83981E+06     171.103E+06     150.592E+06     832.183E+03         62.0383
             173     16.9911E-03     90.6073E-03     973.016E-03    -259.587E-03    -289.239E-03    -288.768E-03     972.545E-03    -259.587E-03    -3.25433E-03     136.395E-03    -58.8065E-03    -77.5879E-03    -57.4720E-03     116.279E-03    -58.8065E-03     124.864E-03     171.588E+06     151.975E+06    -2.59448E+06    -2.59287E+06     171.586E+06     151.975E+06     517.844E+03         62.0867
             174     16.9890E-03     91.7241E-03     966.457E-03    -262.583E-03    -295.065E-03    -294.755E-03     966.147E-03    -262.583E-03    -15.7936E-03     135.787E-03    -58.8083E-03    -77.0040E-03    -57.4240E-03     116.207E-03    -58.8083E-03     122.936E-03     173.192E+06     152.940E+06    -3.61212E+06    -3.58941E+06     173.170E+06     152.940E+06     1.72272E+06         62.1349
             175     16.9907E-03     92.8470E-03     943.338E-03    -256.820E-03    -283.929E-03    -275.394E-03     943.090E-03    -265.107E-03     32.0833E-03     134.610E-03    -58.7870E-03    -75.8574E-03    -57.3269E-03     116.079E-03    -58.7870E-03     119.266E-03     178.608E+06     154.597E+06    -4.43832E+06    -4.38986E+06     178.560E+06     154.597E+06     2.97217E+06         62.1774
             176     16.9910E-03     93.9697E-03     909.156E-03    -254.756E-03    -268.637E-03    -254.523E-03     908.924E-03    -268.637E-03     14.3642E-03     133.361E-03    -58.7748E-03    -74.6055E-03    -55.5087E-03     114.264E-03    -58.7748E-03     120.106E-03     184.417E+06     156.857E+06    -4.73470E+06    -4.70135E+06     184.384E+06     156.857E+06     2.35597E+06         62.2135
             177     16.9936E-03     95.0888E-03     919.755E-03    -267.396E-03    -285.747E-03    -280.128E-03     919.730E-03    -272.990E-03    -8.52168E-03     134.114E-03    -58.7076E-03    -75.3881E-03    -56.0813E-03     114.807E-03    -58.7076E-03     121.190E-03     188.767E+06     159.768E+06    -5.97402E+06    -5.96535E+06     188.759E+06     159.768E+06     345.604E+03         62.2487
             178     16.9922E-03     96.2128E-03     909.155E-03    -261.286E-03    -289.499E-03    -273.962E-03     909.075E-03    -276.743E-03     12.5426E-03     134.220E-03    -58.6349E-03    -75.5937E-03    -56.3908E-03     115.017E-03    -58.6349E-03     120.999E-03     189.335E+06     161.548E+06    -4.51982E+06    -4.51521E+06     189.331E+06     161.548E+06     32.7364E+03         62.2819
             179     16.9974E-03     97.3341E-03     848.570E-03    -230.785E-03    -279.489E-03    -230.632E-03     848.417E-03    -279.489E-03     25.6771E-03     132.632E-03    -58.5476E-03    -74.1245E-03    -54.4307E-03     112.938E-03    -58.5476E-03     121.374E-03     187.747E+06     161.383E+06    -4.72277E+06    -4.66777E+06     187.692E+06     161.383E+06    -1.73487E+06         62.3145
             180     16.9984E-03     98.4465E-03     813.988E-03    -216.003E-03    -280.594E-03    -215.909E-03     813.893E-03    -280.594E-03     5.49749E-03     132.592E-03    -58.3593E-03    -74.2662E-03    -54.9810E-03     113.307E-03    -58.3593E-03     120.238E-03     185.752E+06     160.969E+06    -3.62714E+06    -3.57168E+06     185.697E+06     160.969E+06    -1.69905E+06         62.3471
             181     17.0026E-03     99.5728E-03     821.659E-03    -225.360E-03    -281.353E-03    -225.174E-03     821.473E-03    -281.353E-03    -25.3503E-03     132.277E-03    -58.1513E-03    -74.1500E-03    -54.4571E-03     112.584E-03    -58.1513E-03     121.178E-03     181.216E+06     157.210E+06    -4.64551E+06    -4.64252E+06     181.213E+06     157.210E+06     621.120E+03         62.3679
             182     17.0075E-03     100.693E-03     812.494E-03    -226.195E-03    -282.699E-03    -225.686E-03     811.986E-03    -282.699E-03     7.83803E-03     131.908E-03    -57.9014E-03    -73.9677E-03    -51.9147E-03     109.855E-03    -57.9014E-03     127.304E-03     176.620E+06     153.691E+06    -4.18118E+06    -4.17038E+06     176.610E+06     153.691E+06    -885.596E+03         62.3721
             183     17.0147E-03     101.804E-03     776.189E-03    -206.066E-03    -283.190E-03    -205.722E-03     775.844E-03    -283.190E-03     25.6206E-03     130.625E-03    -57.4382E-03    -73.0983E-03    -51.0940E-03     108.621E-03    -57.4382E-03     126.446E-03     172.239E+06     148.623E+06    -5.14287E+06    -5.12842E+06     172.224E+06     148.623E+06    -408.945E+03         62.3577
             184     17.0263E-03     102.913E-03     756.118E-03    -207.393E-03    -281.822E-03    -207.378E-03     756.103E-03    -281.822E-03    -6.22764E-03     129.129E-03    -56.7150E-03    -72.3542E-03    -50.4899E-03     107.264E-03    -56.7150E-03     125.306E-03     172.531E+06     145.926E+06    -2.82520E+06    -2.81508E+06     172.521E+06     145.926E+06     1.32173E+06         62.3195
             185     17.0426E-03     104.029E-03     737.892E-03    -202.729E-03    -278.241E-03    -202.660E-03     737.822E-03    -278.241E-03     4.58732E-03     129.172E-03    -55.7197E-03    -73.3960E-03    -50.5667E-03     106.343E-03    -55.7197E-03     128.114E-03     172.202E+06     139.957E+06    -3.66241E+06    -3.64813E+06     172.188E+06     139.957E+06     1.58183E+06         62.3018
             186     17.0611E-03     105.139E-03     673.472E-03    -156.317E-03    -272.722E-03    -154.773E-03     671.929E-03    -272.722E-03     57.4193E-03     127.742E-03    -54.5357E-03    -73.1566E-03    -51.4975E-03     106.083E-03    -54.5357E-03     124.573E-03     169.372E+06     132.758E+06    -2.42708E+06    -2.41139E+06     169.356E+06     132.758E+06     1.64151E+06         62.4066
             187     17.0829E-03     106.244E-03     614.346E-03    -134.441E-03    -266.202E-03    -132.886E-03     612.791E-03    -266.202E-03     57.3910E-03     128.501E-03    -53.2469E-03    -75.2532E-03    -56.6100E-03     109.858E-03    -53.2469E-03     117.231E-03     166.719E+06     131.530E+06    -1.80383E+06    -1.79176E+06     166.707E+06     131.530E+06     205.967E+03         62.7391
             188     17.0970E-03     107.371E-03     603.243E-03    -148.339E-03    -258.881E-03    -148.161E-03     603.065E-03    -258.881E-03     22.9686E-03     135.313E-03    -52.1536E-03    -83.1686E-03    -67.6813E-03     119.825E-03    -52.1536E-03     111.855E-03     163.726E+06     141.026E+06    -4.54559E+06    -4.53835E+06     163.719E+06     141.026E+06    -1.09886E+06         63.4458
             189     17.1026E-03     108.514E-03     589.148E-03    -146.456E-03    -248.716E-03    -146.189E-03     588.882E-03    -248.716E-03     27.8434E-03     146.571E-03    -51.4335E-03    -95.2043E-03    -81.9078E-03     133.274E-03    -51.4335E-03     110.017E-03     158.094E+06     151.128E+06    -6.23824E+06    -5.94134E+06     157.272E+06     151.653E+06    -5.33571E+06         64.6340
             190     17.1037E-03     109.661E-03     545.928E-03    -134.405E-03    -236.084E-03    -134.079E-03     545.602E-03    -236.084E-03    -143.893E-06     156.558E-03    -50.9558E-03    -105.657E-03    -95.0605E-03     145.961E-03    -50.9558E-03     102.695E-03     148.365E+06     142.873E+06    -6.62745E+06    -6.21999E+06     142.465E+06     148.365E+06    -7.64646E+06         66.1538
             191     17.1046E-03     110.829E-03     506.341E-03    -126.951E-03    -222.658E-03    -126.775E-03     506.165E-03    -222.658E-03    -12.3556E-03     164.159E-03    -50.6761E-03    -113.495E-03    -104.174E-03     154.838E-03    -50.6761E-03     100.005E-03     146.684E+06     131.181E+06     1.27707E+06     1.45405E+06     131.004E+06     146.684E+06    -4.76365E+06         67.6602
             192     17.1053E-03     112.003E-03     471.933E-03    -110.029E-03    -206.450E-03    -109.974E-03     471.879E-03    -206.450E-03    -4.75471E-03     174.857E-03    -50.3488E-03    -124.575E-03    -115.733E-03     166.015E-03    -50.3488E-03     101.013E-03     142.261E+06     118.096E+06    -2.74094E+06    -2.56449E+06     117.920E+06     142.261E+06    -4.56786E+06         68.8454
             193     17.1059E-03     113.183E-03     439.475E-03    -102.242E-03    -187.142E-03    -102.192E-03     439.426E-03    -187.142E-03    -6.49615E-03     189.342E-03    -49.8529E-03    -139.535E-03    -132.924E-03     182.730E-03    -49.8529E-03     91.7032E-03     138.257E+06     104.998E+06    -5.07029E+06    -4.93337E+06     104.861E+06     138.257E+06    -3.70086E+06         69.6949
             194     17.1068E-03     114.395E-03     395.914E-03    -95.7669E-03    -166.463E-03    -95.1581E-03     395.305E-03    -166.463E-03     24.2655E-03     205.075E-03    -49.3080E-03    -155.759E-03    -151.022E-03     200.339E-03    -49.3080E-03     81.7432E-03     129.624E+06     89.3298E+06    -9.55748E+06    -8.34385E+06     88.1161E+06     129.624E+06    -8.65443E+06         70.3760
             195     17.1076E-03     115.624E-03     338.010E-03    -81.8721E-03    -144.552E-03    -81.2637E-03     337.401E-03    -144.552E-03     22.9611E-03     224.816E-03    -48.7138E-03    -176.075E-03    -172.184E-03     220.924E-03    -48.7138E-03     78.5220E-03     122.165E+06     63.2617E+06    -6.73069E+06    -4.92146E+06     61.4525E+06     122.165E+06    -11.0920E+06         70.8904
             196     17.1086E-03     116.888E-03     290.235E-03    -73.4493E-03    -120.826E-03    -73.2645E-03     290.050E-03    -120.826E-03    -11.6564E-03     246.782E-03    -48.1655E-03    -198.593E-03    -195.119E-03     243.308E-03    -48.1655E-03     78.2056E-03     127.608E+06     44.4188E+06    -7.14997E+06    -6.47586E+06     43.7447E+06     127.608E+06    -2.23046E+06         71.0486
             197     17.1089E-03     118.193E-03     252.864E-03    -65.7386E-03    -95.6522E-03    -65.3624E-03     252.488E-03    -95.6522E-03    -21.8624E-03     264.423E-03    -47.7793E-03    -216.635E-03    -212.322E-03     260.110E-03    -47.7793E-03     90.0743E-03     139.063E+06     28.6459E+06    -5.14522E+06    -4.93663E+06     28.4373E+06     139.063E+06     643.736E+03         71.0638
             198     17.1119E-03     119.509E-03     202.264E-03    -58.9893E-03    -71.7459E-03    -61.0987E-03     202.069E-03    -69.4418E-03    -9.48805E-03     283.117E-03    -47.3958E-03    -235.730E-03    -228.122E-03     275.509E-03    -47.3958E-03     123.753E-03     155.511E+06     32.4976E+06     6.29856E+06     8.34623E+06     30.4500E+06     155.511E+06     5.71052E+06         70.4902
             199     17.1122E-03     120.888E-03     148.099E-03    -42.5272E-03    -46.3757E-03    -46.2908E-03     148.014E-03    -42.5272E-03    -3.92196E-03     296.369E-03    -47.3380E-03    -249.061E-03    -232.956E-03     280.264E-03    -47.3380E-03     180.845E-03     166.686E+06     42.3667E+06    -14.0784E+06    -10.6783E+06     38.9666E+06     166.686E+06    -542.896E+03         68.2942
             200     17.1138E-03     122.269E-03     106.647E-03    -17.0347E-03    -33.3073E-03    -32.9040E-03     106.244E-03    -17.0347E-03     3.68491E-03     272.374E-03    -48.2756E-03    -224.128E-03    -188.647E-03     236.893E-03    -48.2756E-03     247.166E-03     112.598E+06     20.2344E+06    -38.3580E+06    -33.2984E+06     15.1748E+06     112.598E+06    -15.7218E+06         64.6075
             201     17.1153E-03     123.469E-03     58.8985E-03     5.01392E-03    -24.5611E-03    -21.4695E-03     55.8069E-03     5.01392E-03    -6.22095E-03     189.231E-03    -53.3218E-03    -135.920E-03    -86.7691E-03     140.081E-03    -53.3218E-03     226.876E-03     36.9309E+06     8.05730E+06    -44.3456E+06    -17.9516E+06    -18.3367E+06     36.9309E+06     905.701E+03         58.8793
             202     16.8987E-03     124.482E-03     33.0292E-03     23.8605E-03    -22.0277E-03    -18.2823E-03     28.3629E-03     24.7815E-03    -4.17779E-03     86.8066E-03    -9.78562E-03    -77.0286E-03     7.67959E-03     60.7970E-03    -68.4842E-03     89.9872E-03     28.7349E+06    -6.36648E+06    -51.2526E+06     19.3676E+06    -27.2611E+06    -20.9908E+06     17.3459E+06         52.0872
             203     15.4855E-03     124.891E-03     33.0540E-03     29.8867E-03    -27.8571E-03    -25.3588E-03     29.6346E-03     30.8078E-03     23.7560E-03     49.0003E-03     30.5364E-03    -79.5389E-03     34.2866E-03     45.2501E-03    -79.5389E-03     13.7392E-03     56.6849E+06     19.4147E+06    -35.0868E+06     15.1143E+06     18.9392E+06     6.95925E+06     16.7216E+06         47.6045
             204     14.5383E-03     124.448E-03     37.8711E-03     23.0812E-03    -21.6884E-03    -15.5189E-03     31.7016E-03     23.0812E-03     34.8939E-03     86.9757E-03    -8.76903E-03    -78.2775E-03    -3.05665E-03     81.2633E-03    -78.2775E-03    -18.4122E-03     90.6726E+06     35.9161E+06    -24.3941E+06    -16.6874E+06     28.2094E+06     90.6726E+06    -772.833E+03         44.3371
             205     13.7174E-03     123.979E-03     37.0995E-03     14.9874E-03    -11.6442E-03    -5.80839E-03     31.2637E-03     14.9874E-03     30.9459E-03     118.463E-03    -44.4575E-03    -74.0759E-03    -37.4314E-03     111.437E-03    -74.0759E-03    -66.1184E-03     95.7169E+06     13.4635E+06    -40.8750E+06    -20.7988E+06    -6.61268E+06     95.7169E+06    -25.1718E+06         40.4134
             206     12.8902E-03     123.583E-03     36.0141E-03     7.20277E-03    -7.08253E-03     3.84148E-03     25.0901E-03     7.20277E-03     33.3303E-03     123.273E-03    -54.2407E-03    -69.0364E-03    -46.0024E-03     115.034E-03    -69.0364E-03    -74.6862E-03     88.3649E+06     5.26093E+06    -36.3433E+06    -11.5806E+06    -19.5018E+06     88.3649E+06    -18.4769E+06         36.9320
             207     12.0266E-03     123.263E-03     46.5528E-03     290.233E-06    -14.7618E-03     461.002E-06     31.3300E-03     290.233E-06     50.3809E-03     135.801E-03    -61.0421E-03    -74.7757E-03    -61.9563E-03     126.291E-03    -64.3510E-03    -86.7355E-03     98.0906E+06     3.86190E+06    -20.2108E+06    -4.14531E+06    -12.2036E+06     98.0906E+06    -9.70444E+06         34.1613
             208     11.1721E-03     122.996E-03     50.6080E-03    -5.47419E-03    -19.3117E-03    -12.7833E-03     44.0797E-03    -5.47419E-03     37.6624E-03     145.730E-03    -59.2222E-03    -86.5208E-03    -76.8896E-03     136.099E-03    -59.2222E-03    -92.4767E-03     108.534E+06     24.4449E+06    -12.1854E+06     14.3477E+06    -2.08819E+06     108.534E+06    -14.4907E+06         31.9428
             209     10.3185E-03     122.773E-03     43.7028E-03    -6.64141E-03    -15.1317E-03    -5.08999E-03     37.6451E-03    -10.6254E-03     29.7003E-03     141.322E-03    -53.9375E-03    -87.3978E-03    -80.2533E-03     134.177E-03    -53.9375E-03    -79.1346E-03     112.839E+06     36.0122E+06    -15.1542E+06     32.8191E+06    -11.9610E+06     112.839E+06    -9.55489E+06         30.2128
             210     9.44147E-03     122.599E-03     44.8052E-03    -11.3258E-03    -19.5723E-03    -6.35326E-03     35.5701E-03    -15.3098E-03     42.3296E-03     129.623E-03    -49.0811E-03    -80.5492E-03    -76.2231E-03     125.297E-03    -49.0811E-03    -59.3311E-03     114.483E+06     43.4427E+06    -7.16796E+06     43.0665E+06    -6.79183E+06     114.483E+06     944.688E+03         28.8613
             211     8.54388E-03     122.460E-03     64.3957E-03    -18.3579E-03    -37.0782E-03    -25.1205E-03     52.4380E-03    -18.3579E-03     65.3858E-03     117.447E-03    -44.7596E-03    -72.6872E-03    -70.0614E-03     114.822E-03    -44.7596E-03    -44.2095E-03     109.160E+06     44.2395E+06     139.390E+03     43.9269E+06     451.964E+03     109.160E+06     3.31647E+06         27.8009
             212     7.63131E-03     122.352E-03     58.2937E-03    -15.6458E-03    -35.1497E-03    -14.3568E-03     42.5470E-03    -20.6919E-03     17.0944E-03     105.926E-03    -40.8989E-03    -65.0396E-03    -63.3900E-03     104.276E-03    -40.8989E-03    -33.2766E-03     102.956E+06     40.8026E+06     1.18126E+06     40.7620E+06     1.22179E+06     102.956E+06     310.228E+03         26.9220
             213     6.70680E-03     122.266E-03     40.5480E-03    -9.77736E-03    -24.3805E-03    -1.24829E-03     32.0189E-03    -24.3805E-03    -16.9806E-03     94.3704E-03    -37.4566E-03    -56.9479E-03    -55.9006E-03     93.3231E-03    -37.4566E-03    -25.0341E-03     99.4525E+06     39.6765E+06     319.364E+03     39.4137E+06     582.133E+03     99.4525E+06    -2.74141E+06         26.1433
             214     5.76840E-03     122.200E-03     57.6295E-03    -17.8111E-03    -35.0286E-03    -24.9351E-03     57.0930E-03    -27.3681E-03     8.85969E-03     83.7011E-03    -34.3928E-03    -49.3395E-03    -48.6536E-03     83.0151E-03    -34.3928E-03    -18.9909E-03     87.0211E+06     40.0523E+06    -452.164E+03     39.6854E+06    -85.2453E+03     87.0211E+06    -3.77895E+06         25.4743
             215     4.82388E-03     122.150E-03     63.3245E-03    -27.3295E-03    -39.3397E-03    -37.9828E-03     61.9676E-03    -27.3295E-03    -13.3001E-03     74.1015E-03    -31.7485E-03    -42.3650E-03    -41.9713E-03     73.7079E-03    -31.7485E-03    -13.3793E-03     70.9212E+06     41.3581E+06     1.50018E+06     41.0883E+06     1.76997E+06     70.9212E+06    -3.26143E+06         24.9132
             216     3.86837E-03     122.111E-03     51.5208E-03    -27.4003E-03    -35.4974E-03    -21.8690E-03     37.8925E-03    -27.4003E-03    -54.0662E-03     65.6263E-03    -29.6793E-03    -35.9488E-03    -35.7347E-03     65.4122E-03    -29.6793E-03    -9.29883E-03     60.6650E+06     47.5295E+06     440.748E+03     46.6740E+06     1.29632E+06     60.6650E+06    -6.04259E+06         24.4433
             217     2.90478E-03     122.086E-03     54.2965E-03    -29.8650E-03    -36.4110E-03    -19.9143E-03     37.7998E-03    -29.8650E-03    -65.9719E-03     59.9108E-03    -28.2073E-03    -31.6955E-03    -31.5591E-03     59.7743E-03    -28.2073E-03    -7.01512E-03     62.8028E+06     58.4168E+06    -3.86136E+06     59.2986E+06    -2.58423E+06     60.6439E+06    -8.89899E+06         24.0571
             218     1.93935E-03     122.066E-03     67.4261E-03    -30.9724E-03    -41.9607E-03    -33.6884E-03     59.1538E-03    -30.9724E-03     3.61994E-03     55.8292E-03    -27.2073E-03    -28.6165E-03    -28.4153E-03     55.7522E-03    -27.3314E-03    -5.05424E-03     76.4149E+06     71.5071E+06    -4.99521E+06     72.6910E+06    -4.02014E+06     74.2560E+06    -8.64633E+06         23.7708
             219     969.176E-06     122.055E-03     110.238E-03     772.232E-06    -125.281E-03    -117.952E-03     47.0983E-03     56.5829E-03    -8.06483E-03     54.1012E-03    -26.5376E-03    -27.5639E-03    -27.3919E-03     54.0534E-03    -26.6618E-03    -3.93484E-03     86.6357E+06     82.8347E+06     1.10906E+06     82.3261E+06     1.61765E+06     86.6357E+06    -6.13392E+06         23.5993
             220    -895.770E-09     120.998E-03     140.789E-03     50.1501E-03    -178.231E-03    -164.175E-03     70.9228E-03     105.961E-03    -114.903E-03     45.8466E-03    -22.2309E-03    -23.6175E-03    -23.1093E-03     45.8229E-03    -22.7154E-03    -2.43895E-03     56.1292E+06     53.9477E+06    -11.7886E+06     52.3258E+06    -10.1668E+06     56.1292E+06    -8.07628E+06         23.1819
             221    -35.8782E-09     119.959E-03     160.137E-03     59.4521E-03    -179.293E-03    -164.209E-03     145.053E-03     59.4521E-03    -133.307E-03     30.4496E-03    -14.9388E-03    -15.5117E-03    -15.0186E-03     30.4409E-03    -15.4233E-03    -1.21976E-03    -4.46506E+06    -10.2535E+06    -36.7457E+06    -7.81461E+06    -34.5256E+06    -9.12406E+06    -7.91681E+06         22.3472
             222     141.408E-09     118.938E-03     263.735E-03     1.70850E-03    -216.789E-03    -209.158E-03     256.103E-03     1.70850E-03    -118.566E-03     18.6053E-03    -9.25581E-03    -9.34943E-03    -9.32936E-03     18.5905E-03    -9.26105E-03    -1.23783E-03    -47.4189E+06    -60.0766E+06    -63.0449E+06    -57.3753E+06    -53.0884E+06    -60.0766E+06    -3.72426E+06         21.5021
             223    -160.544E-09     117.924E-03     358.913E-03    -73.1801E-03    -200.620E-03    -196.288E-03     354.580E-03    -73.1801E-03    -28.5305E-03     10.8618E-03    -5.40904E-03    -5.45282E-03    -5.39588E-03     10.8486E-03    -5.45282E-03    -920.351E-06    -65.8952E+06    -99.6524E+06    -102.327E+06    -101.512E+06    -66.7099E+06    -99.6524E+06    -5.30648E+06         20.8799
             224     80.0299E-09     116.917E-03     318.695E-03    -67.2540E-03    -168.224E-03    -166.796E-03     317.267E-03    -67.2540E-03     13.7486E-03     6.34788E-03    -3.13697E-03    -3.21093E-03    -3.13325E-03     6.34416E-03    -3.21093E-03    -328.508E-06    -84.8198E+06    -149.387E+06    -152.385E+06    -149.839E+06    -85.4475E+06    -151.305E+06    -5.98635E+06         20.4756
             225    -181.852E-09     115.911E-03     349.585E-03    -88.9547E-03    -178.240E-03    -177.718E-03     349.063E-03    -88.9547E-03    -29.8713E-03     3.47785E-03    -1.70946E-03    -1.76838E-03    -1.70664E-03     3.47503E-03    -1.76838E-03     105.305E-06    -102.173E+06    -197.898E+06    -200.302E+06    -197.739E+06    -102.332E+06    -200.302E+06    -2.77171E+06         20.2475
             226     121.871E-09     114.910E-03     512.384E-03    -188.050E-03    -236.094E-03    -235.969E-03     512.259E-03    -188.050E-03    -18.4111E-03     2.25884E-03    -1.11156E-03    -1.14723E-03    -1.10156E-03     2.24883E-03    -1.14723E-03     355.581E-06    -91.5860E+06    -189.730E+06    -193.161E+06    -188.090E+06    -93.2252E+06    -193.161E+06     7.74345E+06         20.1866
             227    -224.905E-09     113.906E-03     589.907E-03    -230.641E-03    -253.517E-03    -250.104E-03     586.494E-03    -230.641E-03     66.3121E-03     3.49955E-03    -1.73245E-03    -1.76709E-03    -1.72819E-03     3.47283E-03    -1.74464E-03     746.650E-06    -43.6353E+06    -135.488E+06    -142.497E+06    -134.713E+06    -48.4736E+06    -138.433E+06     20.8893E+06         20.3227
             228     241.823E-09     112.903E-03     639.573E-03    -222.960E-03    -296.528E-03    -292.420E-03     635.465E-03    -222.960E-03     34.8376E-03     8.12779E-03    -4.00444E-03    -4.12335E-03    -4.06845E-03     8.07290E-03    -4.00444E-03     1.63302E-03     15.6636E+06    -77.8022E+06    -88.0632E+06    -84.3362E+06     11.9366E+06    -77.8022E+06     17.8900E+06         20.7007
             229    -42.4386E-09     111.890E-03     702.069E-03    -238.838E-03    -336.026E-03    -334.459E-03     700.501E-03    -238.838E-03     2.16024E-03     16.9996E-03    -8.37035E-03    -8.62933E-03    -8.53967E-03     16.9099E-03    -8.37035E-03     3.02097E-03     47.1992E+06    -20.5399E+06    -29.0649E+06    -26.1530E+06     46.6146E+06    -22.8672E+06     6.25645E+06         21.3586
             230     230.369E-09     110.868E-03     643.908E-03    -210.767E-03    -243.295E-03    -231.666E-03     640.871E-03    -219.359E-03     98.0556E-03     29.5532E-03    -14.6424E-03    -14.9109E-03    -14.8172E-03     29.4595E-03    -14.6424E-03     3.99818E-03     53.3639E+06     26.6038E+06     20.7504E+06     23.2243E+06     53.2174E+06     24.2765E+06     520.584E+03         22.2883
             231    -46.0401E-09     109.830E-03     683.392E-03    -159.801E-03    -324.431E-03    -308.694E-03     676.246E-03    -168.393E-03     168.048E-03     44.4584E-03    -22.0248E-03    -22.4334E-03    -22.3588E-03     44.3837E-03    -22.0248E-03     4.43605E-03     58.4950E+06     54.9007E+06     37.5033E+06     52.4536E+06     43.5446E+06     54.9007E+06    -4.00474E+06         23.4122
             232     563.759E-09     108.777E-03     908.303E-03    -199.661E-03    -510.058E-03    -504.353E-03     902.597E-03    -199.661E-03     62.5045E-03     60.1867E-03    -29.9055E-03    -30.2813E-03    -30.1481E-03     60.1267E-03    -29.9787E-03     4.60283E-03     71.1609E+06     68.7312E+06     21.2135E+06     70.1076E+06     22.2669E+06     68.7312E+06    -6.57528E+06         24.6067
             233    -749.951E-09     107.706E-03     905.406E-03    -160.242E-03    -512.393E-03    -509.232E-03     902.245E-03    -160.242E-03    -126.565E-03     74.5075E-03    -37.1812E-03    -37.3271E-03    -37.2140E-03     74.4676E-03    -37.2544E-03     4.16547E-03     73.6959E+06     72.4241E+06    -975.983E+03     72.6543E+06    -509.568E+03     72.9992E+06    -5.73367E+06         25.7512
             234     873.647E-09     106.621E-03     798.751E-03    -26.2043E-03    -557.875E-03    -547.431E-03     788.308E-03    -26.2043E-03    -229.643E-03     86.8346E-03    -43.1343E-03    -43.7011E-03    -43.6713E-03     86.8048E-03    -43.1343E-03     3.94180E-03     65.7672E+06     63.2664E+06    -22.6842E+06     64.9078E+06    -22.3999E+06     63.8415E+06    -4.96816E+06         26.7617
             235     23.3418E-09     105.526E-03     909.317E-03     57.6935E-03    -750.518E-03    -718.078E-03     876.877E-03     57.6935E-03    -449.905E-03     97.4171E-03    -48.4270E-03    -48.9917E-03    -48.9743E-03     97.3997E-03    -48.4270E-03     2.94422E-03     63.9963E+06     60.4036E+06    -43.6109E+06     62.0078E+06    -43.2895E+06     62.0706E+06     -5.8185E+06         27.5945
             236     129.683E-09     104.418E-03         1.05254     145.633E-03    -961.856E-03    -850.267E-03     940.948E-03     145.633E-03    -886.469E-03     105.246E-03    -52.4259E-03    -52.8199E-03    -52.8150E-03     105.241E-03    -52.4259E-03     1.75013E-03     53.9387E+06     51.0604E+06    -64.0571E+06     51.8467E+06    -63.6322E+06     52.7274E+06    -7.01138E+06         28.2315
             237     468.244E-09     103.304E-03         1.16909     248.589E-03        -1.16713    -928.948E-03     930.909E-03     248.589E-03        -1.40544     110.966E-03    -55.0184E-03    -55.9474E-03    -55.9412E-03     110.960E-03    -55.0184E-03     2.02080E-03     36.4044E+06     33.0436E+06    -90.1328E+06     33.8861E+06    -89.7640E+06     35.1931E+06    -6.67340E+06         28.6736
             238     698.875E-09     102.183E-03         1.34024     398.182E-03        -1.47787    -995.313E-03     857.681E-03     398.182E-03        -2.09444     114.171E-03    -56.7362E-03    -57.4368E-03    -57.3357E-03     114.165E-03    -56.8311E-03     2.02251E-03     14.8232E+06     8.49515E+06    -116.583E+06     12.4141E+06    -116.323E+06     10.6447E+06    -5.78573E+06         28.9470
             239    -935.469E-09     101.061E-03         1.64639     527.647E-03        -1.87956        -1.04853     815.364E-03     527.647E-03        -2.98794     115.371E-03    -57.5152E-03    -57.8573E-03    -57.7597E-03     115.368E-03    -57.6101E-03     1.35629E-03     1.56917E+06    -6.01311E+06    -133.897E+06    -1.96222E+06    -133.770E+06    -2.60935E+06    -3.33399E+06         29.1072
             240     1.44257E-06     99.9416E-03         2.14789     541.665E-03        -2.35805        -1.09997     889.814E-03     541.665E-03        -4.03679     117.049E-03    -58.1239E-03    -58.9274E-03    -58.9261E-03     117.048E-03    -58.1239E-03     958.819E-06    -13.0468E+06    -17.6357E+06    -151.180E+06    -16.9082E+06    -150.723E+06    -14.2320E+06    -5.99339E+06         29.2071
             241    -404.011E-09     98.8147E-03         2.63818     563.715E-03        -2.84983        -1.11452     902.865E-03     563.715E-03        -5.10004     117.932E-03    -58.6607E-03    -59.2740E-03    -59.2162E-03     117.932E-03    -58.7177E-03     725.287E-06    -35.4767E+06    -37.9972E+06    -173.827E+06     -35.935E+06    -173.369E+06    -37.9972E+06    -6.05014E+06         29.2611
             242     278.814E-09     97.6915E-03         3.16854     567.121E-03        -3.36036        -1.07996     888.133E-03     567.121E-03        -6.22130     117.664E-03    -58.5667E-03    -59.0977E-03    -59.0389E-03     117.662E-03    -58.6238E-03     1.00134E-03    -52.4794E+06    -56.3700E+06    -187.089E+06    -55.2565E+06    -186.867E+06    -53.8147E+06    -4.18961E+06         29.2775
             243     646.792E-09     96.5663E-03         3.79132     459.129E-03        -3.84920        -1.00654     948.668E-03     459.129E-03        -7.38512     117.814E-03    -58.3527E-03    -59.4608E-03    -59.4588E-03     117.812E-03    -58.3527E-03     1.14670E-03    -69.9368E+06    -76.3187E+06    -202.121E+06    -72.7227E+06    -201.890E+06    -73.7633E+06    -4.57086E+06         29.2808
             244     495.789E-09     95.4439E-03         4.33930     388.208E-03        -4.33431    -917.998E-03     922.992E-03     388.208E-03        -8.47250     117.750E-03    -58.4129E-03    -59.3376E-03    -59.0464E-03     117.749E-03    -58.7034E-03     689.134E-06    -79.7267E+06    -87.2630E+06    -219.584E+06    -83.5098E+06    -219.511E+06    -83.5532E+06    -2.96607E+06         29.2854
             245    -996.858E-09     94.3182E-03         4.87694     353.026E-03        -4.85794    -802.422E-03     821.419E-03     353.026E-03        -9.59670     117.747E-03    -58.5212E-03    -59.2279E-03    -58.9362E-03     117.746E-03    -58.8118E-03     845.074E-06    -84.8039E+06    -92.2839E+06    -231.905E+06    -88.6279E+06    -231.791E+06    -88.5741E+06    -4.03709E+06         29.2928
             246     1.73016E-06     93.1946E-03         5.46900     180.494E-03        -5.25130    -644.997E-03     862.694E-03     180.494E-03        -10.6134     118.234E-03    -58.5641E-03    -59.6704E-03    -59.6676E-03     118.231E-03    -58.5641E-03     1.39554E-03    -86.7501E+06    -93.3333E+06    -244.677E+06    -89.6213E+06    -244.618E+06    -90.5203E+06    -2.58556E+06         29.2957
             247    -398.072E-09     92.0686E-03         5.98110     36.9033E-03        -5.60937    -540.941E-03     912.671E-03     36.9033E-03        -11.4986     117.673E-03    -58.3529E-03    -59.3216E-03    -59.0398E-03     117.670E-03    -58.6314E-03     1.55438E-03    -91.8233E+06    -95.7796E+06    -257.811E+06    -94.7002E+06    -257.747E+06    -92.9666E+06    -2.80052E+06         29.2860
             248    -147.568E-09     90.9467E-03         6.39690    -72.4342E-03        -5.91215    -395.861E-03     880.620E-03    -72.4342E-03        -12.2414     117.327E-03    -58.2829E-03    -59.0459E-03    -58.7657E-03     117.325E-03    -58.5613E-03     905.997E-06    -93.8879E+06    -95.7997E+06    -269.843E+06    -93.9716E+06    -269.759E+06    -95.7997E+06    -3.72401E+06         29.2748
             249     1.04896E-06     89.8246E-03         6.83276    -254.543E-03        -6.15631    -157.270E-03     833.721E-03    -254.543E-03        -12.9501     117.678E-03    -58.4628E-03    -59.2170E-03    -59.2168E-03     117.678E-03    -58.4628E-03    -11.0652E-06    -93.3118E+06    -95.0338E+06    -279.673E+06    -94.3058E+06    -279.632E+06    -94.0804E+06    -2.72708E+06         29.2721
             250    -530.310E-09     88.6992E-03         7.20473    -404.700E-03        -6.38353     9.59726E-03     811.595E-03    -404.700E-03        -13.5644     117.678E-03    -58.6928E-03    -58.9860E-03    -58.9823E-03     117.674E-03    -58.6928E-03     972.463E-06    -89.5710E+06    -91.5595E+06    -283.751E+06    -90.5429E+06    -283.733E+06     -90.606E+06    -1.64135E+06         29.2743
             251     552.285E-09     87.5743E-03         7.58470    -615.431E-03        -6.52095     169.267E-03     894.490E-03    -615.431E-03        -14.0869     117.740E-03    -58.6681E-03    -59.0731E-03    -59.0690E-03     117.736E-03    -58.6681E-03     1.53884E-03    -89.1097E+06    -90.4946E+06    -287.825E+06    -89.1116E+06    -287.823E+06    -90.4946E+06    -591.278E+03         29.2785
             252     159.659E-09     86.4522E-03         7.84489    -874.610E-03        -6.48288     388.826E-03     973.187E-03    -874.610E-03        -14.3155     117.539E-03    -58.5189E-03    -59.0205E-03    -59.0180E-03     117.536E-03    -58.5189E-03     1.24631E-03    -89.5831E+06    -90.6959E+06    -292.287E+06    -90.3572E+06    -292.276E+06    -89.9330E+06     829.335E+03         29.2819
             253     74.4897E-09     85.3277E-03         7.86147        -1.06177        -6.29630     587.784E-03     977.390E-03        -1.06177        -14.1522     117.424E-03    -58.3983E-03    -59.0246E-03    -59.0208E-03     117.420E-03    -58.3983E-03     1.62596E-03    -83.0725E+06    -85.0879E+06    -289.315E+06    -85.1077E+06    -289.295E+06    -83.0725E+06     83.8983E+03         29.2855
             254     891.492E-09     84.2044E-03         7.79879        -1.16528        -6.14101     794.495E-03     863.291E-03        -1.16528        -13.9377     117.477E-03    -58.2105E-03    -59.2679E-03    -59.2644E-03     117.473E-03    -58.2105E-03     1.56128E-03    -81.4568E+06    -83.7992E+06    -288.614E+06    -82.7217E+06    -288.601E+06    -82.5467E+06    -1.55181E+06         29.2952
             255     128.935E-09     83.0827E-03         7.68835        -1.34416        -5.82104     996.387E-03     870.926E-03        -1.34416        -13.5088     117.654E-03    -58.4175E-03    -59.2379E-03    -59.2359E-03     117.652E-03    -58.4175E-03     459.066E-06    -82.1105E+06    -83.2004E+06    -289.975E+06    -82.1144E+06    -289.972E+06    -83.2003E+06    -366.783E+03         29.3041
             256     375.545E-09     81.9594E-03         7.48462        -1.60133        -5.33498         1.05549         1.09414        -1.60133        -12.8189     117.670E-03    -58.6723E-03    -58.9978E-03    -58.9411E-03     117.670E-03    -58.7287E-03    -188.076E-06    -82.6370E+06    -82.6909E+06    -290.434E+06    -82.6918E+06    -290.433E+06    -82.6370E+06     14.7639E+03         29.3010
             257    -480.946E-09     80.8341E-03         7.09364        -1.70742        -4.85524         1.11236         1.12605        -1.70742        -11.9479     117.280E-03    -58.4804E-03    -58.7997E-03    -58.7424E-03     117.279E-03    -58.5368E-03     671.841E-06    -82.2687E+06    -83.5675E+06    -290.033E+06    -82.3360E+06    -290.019E+06    -83.5136E+06     961.356E+03         29.2938
             258     956.049E-09     79.7112E-03         6.60054        -1.74629        -4.31711         1.29945     983.990E-03        -1.74629        -10.9114     117.197E-03    -58.3224E-03    -58.8752E-03    -58.8728E-03     117.194E-03    -58.3224E-03     1.29896E-03    -78.8410E+06    -82.3024E+06    -287.691E+06    -81.0727E+06    -287.676E+06    -80.0860E+06     1.63705E+06         29.2982
             259    -384.457E-09     78.5888E-03         6.05580        -1.83722        -3.66540         1.39201     998.392E-03        -1.83722        -9.71295     117.577E-03    -58.6301E-03    -58.9495E-03    -58.9473E-03     117.575E-03    -58.6301E-03     1.22594E-03    -76.0284E+06    -80.7095E+06    -284.086E+06    -78.2517E+06    -284.079E+06    -78.4931E+06    -232.766E+03         29.3128
             260     403.794E-09     77.4646E-03         5.42988        -1.90490        -2.95677         1.33305         1.14007        -1.90490        -8.38401     118.159E-03    -58.8395E-03    -59.3240E-03    -59.3212E-03     118.157E-03    -58.8395E-03     1.35033E-03    -76.3277E+06    -79.7994E+06    -285.489E+06    -77.3502E+06    -285.473E+06    -78.7924E+06     361.398E+03         29.3224
             261     460.813E-09     76.3389E-03         4.68475        -1.75649        -2.33460         1.28400         1.29139        -1.98172        -6.79333     117.743E-03    -58.5611E-03    -59.1849E-03    -59.1826E-03     117.741E-03    -58.5611E-03     986.471E-06    -75.4301E+06    -76.5078E+06    -284.097E+06    -76.5355E+06    -284.069E+06    -75.4301E+06    -259.275E+03         29.3110
             262    -141.634E-09     75.2186E-03         3.85843        -1.28788        -1.94492         1.23173         1.33883        -1.94492        -5.14517     116.699E-03    -58.1733E-03    -58.5272E-03    -58.5271E-03     116.699E-03    -58.1733E-03     53.1273E-06    -74.8314E+06    -75.7703E+06    -281.962E+06    -74.9195E+06    -281.945E+06    -75.6995E+06    -1.12850E+06         29.2839
             263     478.614E-09     74.0957E-03         2.96296    -593.544E-03        -1.75440         1.12117         1.24824        -1.75440        -3.55381     116.947E-03    -58.1095E-03    -58.8383E-03    -58.8373E-03     116.946E-03    -58.1095E-03     563.874E-06    -74.9936E+06    -78.3029E+06    -284.401E+06    -77.4352E+06    -284.400E+06    -75.8617E+06     210.811E+03         29.2700
             264     575.382E-09     72.9710E-03         2.11742     155.519E-03        -1.64711         1.00675         1.26618        -1.64711        -1.93182     117.382E-03    -58.2552E-03    -59.1247E-03    -59.1224E-03     117.380E-03    -58.2552E-03     1.26305E-03    -75.5774E+06    -79.6434E+06    -283.798E+06    -78.0294E+06    -283.787E+06    -77.2022E+06    -1.03855E+06         29.2798
             265     16.3884E-09     71.8483E-03         1.61155     559.240E-03        -1.51588     806.939E-03         1.36385        -1.51588    -387.673E-03     117.312E-03    -58.4253E-03    -58.8844E-03    -58.8825E-03     117.311E-03    -58.4253E-03     1.13138E-03    -73.9331E+06    -75.8071E+06    -280.853E+06    -74.2158E+06    -280.819E+06    -75.5579E+06     481.230E+03         29.2943
             266     236.963E-09     70.7260E-03         1.62816     322.228E-03        -1.29516     501.316E-03         1.44907        -1.29516     873.796E-03     117.701E-03    -58.6196E-03    -59.0816E-03    -59.0808E-03     117.700E-03    -58.6196E-03     728.333E-06    -71.4713E+06    -72.2941E+06    -278.828E+06    -72.3239E+06    -278.798E+06    -71.4713E+06     686.181E+03         29.2947
             267     387.696E-09     69.6008E-03         2.11491    -316.990E-03        -1.13852     257.643E-03         1.54027        -1.13852         2.04683     117.239E-03    -58.3981E-03    -58.8414E-03    -58.8412E-03     117.239E-03    -58.3981E-03     329.106E-06    -73.8039E+06    -75.5694E+06    -279.857E+06    -74.3869E+06    -279.848E+06    -74.9958E+06    -1.33947E+06         29.2816
             268    -186.392E-09     68.4794E-03         2.60638    -712.341E-03        -1.20811     31.3463E-03         1.57260    -918.019E-03         3.26167     116.681E-03    -58.1222E-03    -58.5576E-03    -58.5565E-03     116.679E-03    -58.1222E-03     717.235E-06    -74.8491E+06    -77.5201E+06    -282.460E+06    -76.3385E+06    -282.449E+06    -76.0410E+06    -1.39999E+06         29.2765
             269     808.205E-09     67.3564E-03         2.91346    -578.655E-03        -1.65466    -325.389E-03         1.58419    -578.655E-03         4.14949     117.553E-03    -58.3967E-03    -59.1599E-03    -59.1584E-03     117.552E-03    -58.3967E-03     1.01086E-03    -73.7459E+06    -75.9620E+06    -283.526E+06    -75.2405E+06    -283.510E+06    -74.4829E+06    -1.80058E+06         29.2903
             270     13.7334E-09     66.2318E-03         3.15440    -332.814E-03        -2.12836    -651.488E-03         1.67753    -332.814E-03         4.74110     117.698E-03    -58.6262E-03    -59.0729E-03    -59.0722E-03     117.697E-03    -58.6262E-03     708.665E-06    -76.6928E+06    -77.6226E+06    -285.092E+06    -76.8932E+06    -285.085E+06    -77.4298E+06    -981.877E+03         29.3039
             271    -2.57608E-09     65.1086E-03         3.49164    -124.872E-03        -2.63648    -889.470E-03         1.74463    -124.872E-03         5.53133     117.384E-03    -58.4963E-03    -58.8859E-03    -58.8850E-03     117.383E-03    -58.4963E-03     759.779E-06    -75.4143E+06    -75.7271E+06    -281.834E+06    -75.7272E+06    -281.834E+06    -75.4143E+06    -29.7969E+03         29.3162
             272     726.479E-09     63.9860E-03         3.71007     239.259E-03        -3.21574        -1.22845         1.72278     239.259E-03         6.26456     118.310E-03    -58.6278E-03    -59.6823E-03    -59.6805E-03     118.308E-03    -58.6278E-03     1.10786E-03    -73.4173E+06    -74.2310E+06    -281.154E+06    -73.5422E+06    -281.149E+06    -74.1110E+06     776.711E+03         29.3353
             273     523.173E-09     62.8593E-03         3.72879     592.075E-03        -3.58301        -1.61471         1.76050     592.075E-03         6.48391     118.329E-03    -58.7395E-03    -59.5890E-03    -59.4073E-03     118.327E-03    -58.9197E-03     918.093E-06    -74.1646E+06    -75.7683E+06    -284.323E+06    -75.0822E+06    -284.316E+06    -74.8584E+06     180.390E+03         29.3342
             274     16.0433E-03     61.2567E-03         1.86807    -542.543E-03    -557.219E-03    -543.098E-03         1.86783    -556.421E-03    -17.8940E-03     151.096E-03    -58.8161E-03    -92.2710E-03    -58.8043E-03     117.629E-03    -58.8161E-03     164.585E-03     132.237E+06     130.739E+06    -7.62115E+06    -7.59196E+06     131.321E+06     131.625E+06    -341.304E+03         59.1684
             275     15.0981E-03     61.0232E-03         1.87609    -542.165E-03    -561.442E-03    -542.746E-03         1.87588    -560.645E-03    -23.8662E-03     153.934E-03    -58.7717E-03    -95.1509E-03    -58.7704E-03     117.553E-03    -58.7717E-03     174.316E-03     116.877E+06     103.170E+06    -14.6203E+06    -14.5315E+06     115.902E+06     104.056E+06    -898.614E+03         55.4824
             276     14.1539E-03     60.8656E-03         1.88627    -542.062E-03    -564.810E-03    -542.025E-03         1.88623    -564.810E-03     11.0997E-03     132.378E-03    -58.6237E-03    -73.7521E-03    -58.0640E-03     116.690E-03    -58.6237E-03     105.111E-03     104.793E+06     64.5531E+06    -22.0289E+06    -21.9517E+06     104.716E+06     64.5531E+06    -1.16182E+06         50.8612
             277     13.2079E-03     60.7901E-03         1.90220    -549.704E-03    -567.999E-03    -549.632E-03         1.90213    -567.999E-03     19.0616E-03     120.577E-03    -58.4565E-03    -62.1506E-03    -57.0514E-03     115.478E-03    -58.4565E-03     59.4026E-03     96.1101E+06     27.7417E+06    -27.2284E+06    -27.1998E+06     96.0815E+06     27.7417E+06    -1.39147E+06         46.1428
             278     12.2657E-03     60.7325E-03         1.90424    -549.095E-03    -570.570E-03    -548.989E-03         1.90414    -570.570E-03     29.6044E-03     117.339E-03    -58.2939E-03    -59.0810E-03    -56.6606E-03     115.020E-03    -58.3960E-03     38.8975E-03     67.0786E+06    -166.260E+03    -29.5790E+06    -29.5650E+06     67.0646E+06    -166.260E+03    -617.454E+03         41.9508
             279     11.3214E-03     60.7057E-03         1.90733    -552.631E-03    -572.955E-03    -552.449E-03         1.90714    -572.955E-03    -9.28684E-03     116.692E-03    -58.1819E-03    -58.5320E-03    -57.2743E-03     115.718E-03    -58.4658E-03     25.7838E-03     15.2621E+06    -20.2693E+06    -32.9432E+06    -31.1278E+06     4.53079E+06    -11.3535E+06     530.378E+03         38.4483
             280     10.3769E-03     60.6782E-03         1.91916    -566.021E-03    -574.708E-03    -565.887E-03         1.91903    -574.708E-03    -20.2085E-03     116.933E-03    -58.2333E-03    -58.7065E-03    -57.6953E-03     116.283E-03    -58.5944E-03     21.2492E-03    -9.82126E+06    -30.8349E+06    -60.9963E+06    -32.4940E+06    -59.3372E+06    -9.82126E+06     384.106E+03         35.6694
             281     9.43207E-03     60.6594E-03         1.92613    -570.036E-03    -578.381E-03    -572.359E-03         1.92574    -575.671E-03    -38.3685E-03     116.895E-03    -58.1382E-03    -58.7563E-03    -57.7793E-03     116.490E-03    -58.7105E-03     16.4671E-03    -9.19673E+06    -34.5596E+06    -107.094E+06    -34.5882E+06    -107.065E+06    -9.19673E+06    -435.933E+03         33.6549
             282     8.48958E-03     60.6441E-03         1.93298    -569.349E-03    -586.065E-03    -578.680E-03         1.93222    -575.974E-03     744.494E-06     116.808E-03    -57.9827E-03    -58.8258E-03    -57.7907E-03     116.616E-03    -58.8258E-03     11.4260E-03    -9.28679E+06    -37.1209E+06    -142.850E+06    -37.1293E+06    -142.841E+06    -9.28679E+06    -283.466E+03         32.3592
             283     7.54502E-03     60.6350E-03         1.93404    -568.627E-03    -586.147E-03    -578.106E-03         1.93327    -575.897E-03     744.114E-06     117.279E-03    -58.3290E-03    -58.9547E-03    -58.2184E-03     117.168E-03    -58.9547E-03     8.71983E-03    -7.24892E+06    -40.4700E+06    -179.685E+06    -40.5315E+06    -179.624E+06    -7.24892E+06     2.31419E+06         31.5476
             284     6.60149E-03     60.6262E-03         1.93844    -569.103E-03    -586.562E-03    -576.931E-03         1.93556    -575.857E-03     68.6684E-03     117.654E-03    -58.6372E-03    -59.0284E-03    -58.5785E-03     117.595E-03    -59.0284E-03     6.25266E-03    -8.98613E+06    -45.1151E+06    -213.321E+06    -45.1964E+06    -213.239E+06    -8.98613E+06     3.39987E+06         30.9562
             285     5.65882E-03     60.6217E-03         1.94738    -569.759E-03    -595.302E-03    -577.649E-03         1.93571    -575.743E-03    -103.891E-03     117.521E-03    -58.4943E-03    -59.0411E-03    -58.4707E-03     117.498E-03    -59.0411E-03     3.95536E-03    -18.9580E+06    -50.5262E+06    -235.751E+06    -50.5604E+06    -235.716E+06    -18.9580E+06     1.29678E+06         30.4743
             286     4.71530E-03     60.6177E-03         1.95090    -573.201E-03    -597.067E-03    -566.897E-03         1.92415    -576.621E-03     82.1864E-03     117.542E-03    -58.4853E-03    -59.0686E-03    -58.4754E-03     117.532E-03    -59.0686E-03     2.54467E-03    -30.0991E+06    -56.2170E+06    -251.642E+06    -56.2332E+06    -251.626E+06    -30.0991E+06     1.89355E+03         30.0912
             287     3.77119E-03     60.6157E-03         1.99518    -579.123E-03    -633.994E-03    -565.878E-03         1.92725    -579.307E-03    -215.730E-03     117.908E-03    -58.8199E-03    -59.0991E-03    -58.8428E-03     117.904E-03    -59.0721E-03     1.65591E-03    -42.0794E+06    -62.8101E+06    -262.695E+06    -62.8231E+06    -262.682E+06    -42.0794E+06     476.512E+03         29.8020
             288     2.82944E-03     60.6147E-03         2.11323    -582.699E-03    -745.385E-03    -572.553E-03         1.94040    -582.699E-03     309.742E-03     118.138E-03    -58.9952E-03    -59.1522E-03    -59.1507E-03     118.137E-03    -58.9952E-03     951.592E-06    -54.8306E+06    -68.5346E+06    -271.665E+06    -68.5461E+06    -271.654E+06    -54.8306E+06     846.270E+03         29.5907
             289     1.88658E-03     60.6141E-03         2.37390    -591.443E-03        -1.00001    -563.251E-03         1.93714    -591.443E-03    -575.808E-03     117.849E-03    -58.7852E-03    -59.0693E-03    -58.9817E-03     117.848E-03    -58.8723E-03     602.579E-06    -64.2121E+06    -72.1932E+06    -277.352E+06    -72.1967E+06    -277.348E+06    -64.2121E+06     332.003E+03         29.4406
             290     942.871E-06     60.6149E-03         3.25471     196.091E-03        -2.65988        -1.39355         1.98838     196.091E-03         2.03313     117.568E-03    -58.5359E-03    -59.0337E-03    -58.9216E-03     117.566E-03    -58.6468E-03     871.764E-06    -69.8266E+06    -76.7019E+06    -281.250E+06    -74.9650E+06    -281.230E+06    -71.5829E+06     1.26531E+06         29.3459
             291     16.0436E-03     60.1322E-03         1.90870    -549.091E-03    -575.586E-03    -548.893E-03         1.90851    -575.586E-03    -619.557E-06     150.413E-03    -58.8166E-03    -91.5928E-03    -58.6712E-03     117.491E-03    -58.8166E-03     163.082E-03     133.310E+06     131.354E+06    -8.39653E+06    -8.37399E+06     132.625E+06     132.016E+06    -648.154E+03         59.1088
             292     15.0982E-03     59.9018E-03         1.91914    -550.469E-03    -580.716E-03    -550.378E-03         1.91905    -580.716E-03    -18.3731E-03     153.973E-03    -58.7535E-03    -95.1977E-03    -59.2467E-03     118.022E-03    -58.7535E-03     173.595E-03     117.433E+06     103.708E+06    -16.7698E+06    -16.6963E+06     117.360E+06     103.708E+06    -1.20405E+06         55.4439
             293     14.1525E-03     59.7400E-03         1.93635    -557.604E-03    -585.425E-03    -557.579E-03         1.93633    -585.425E-03     6.38334E-03     132.398E-03    -58.5844E-03    -73.7959E-03    -58.1179E-03     116.719E-03    -58.5844E-03     104.974E-03     104.136E+06     63.5062E+06    -24.3162E+06    -24.2478E+06     104.068E+06     63.5062E+06    -1.14634E+06         50.8449
             294     13.2129E-03     59.6647E-03         1.95224    -566.665E-03    -588.755E-03    -566.536E-03         1.95211    -588.755E-03    -5.77382E-03     119.862E-03    -58.4303E-03    -61.4613E-03    -56.4881E-03     114.889E-03    -58.4303E-03     58.5377E-03     95.1513E+06     26.7568E+06    -28.5913E+06    -28.5627E+06     95.1227E+06     26.7568E+06    -1.49794E+06         46.1343
             295     12.2643E-03     59.6139E-03         1.95864    -570.112E-03    -591.294E-03    -569.987E-03         1.95852    -591.294E-03    -12.4495E-03     117.143E-03    -58.2621E-03    -58.9199E-03    -56.3625E-03     114.725E-03    -58.4018E-03     40.0150E-03     65.4291E+06    -1.13588E+06    -31.4126E+06    -31.4005E+06     65.4171E+06    -1.13588E+06    -784.038E+03         41.9428
             296     11.3193E-03     59.5782E-03         1.95780    -569.645E-03    -593.741E-03    -569.483E-03         1.95763    -593.741E-03    -28.9263E-03     116.837E-03    -58.3123E-03    -58.5473E-03    -57.3382E-03     115.796E-03    -58.4810E-03     26.4280E-03     13.7802E+06    -21.7498E+06    -34.8247E+06    -34.2386E+06     3.82410E+06    -12.3798E+06    -142.786E+03         38.4421
             297     10.3768E-03     59.5577E-03         1.96930    -579.167E-03    -595.970E-03    -578.992E-03         1.96912    -595.970E-03    -18.2173E-03     116.973E-03    -58.3121E-03    -58.6705E-03    -57.7424E-03     116.337E-03    -58.6042E-03     21.0157E-03    -11.0583E+06    -33.5801E+06    -62.1923E+06    -36.0810E+06    -59.6913E+06    -11.0583E+06    -294.880E+03         35.6659
             298     9.43337E-03     59.5338E-03         1.99101    -593.344E-03    -603.038E-03    -599.005E-03         1.99064    -597.008E-03    -32.9684E-03     116.844E-03    -58.1296E-03    -58.7192E-03    -57.7181E-03     116.433E-03    -58.7192E-03     16.4674E-03    -10.3867E+06    -37.9731E+06    -106.864E+06    -37.9897E+06    -106.848E+06    -10.3867E+06    -355.250E+03         33.6558
             299     8.48860E-03     59.5226E-03         1.98470    -585.467E-03    -603.582E-03    -591.002E-03         1.98421    -597.552E-03    -13.3330E-03     117.051E-03    -58.2292E-03    -58.8228E-03    -58.0436E-03     116.865E-03    -58.8228E-03     11.3266E-03    -10.8489E+06    -41.4724E+06    -143.934E+06    -41.5011E+06    -143.906E+06    -10.8489E+06     645.999E+03         32.3633
             300     7.54517E-03     59.5104E-03         1.97726    -580.214E-03    -599.355E-03    -579.753E-03         1.97679    -599.355E-03    -2.19516E-03     117.342E-03    -58.4361E-03    -58.9114E-03    -58.3255E-03     117.231E-03    -58.9114E-03     8.68885E-03    -12.0133E+06    -45.4975E+06    -181.287E+06    -45.5772E+06    -181.207E+06    -12.0133E+06     1.19098E+06         31.5492
             301     6.60251E-03     59.5027E-03         2.00644    -593.356E-03    -614.864E-03    -605.100E-03         2.00373    -600.411E-03     82.2056E-03     117.476E-03    -58.5124E-03    -58.9769E-03    -58.4596E-03     117.424E-03    -58.9769E-03     5.94539E-03    -13.4431E+06    -48.1909E+06    -213.344E+06    -48.2461E+06    -213.288E+06    -13.4431E+06     834.132E+03         30.9541
             302     5.65873E-03     59.4976E-03         2.02732    -598.367E-03    -631.715E-03    -620.230E-03         2.01583    -598.367E-03    -105.804E-03     117.517E-03    -58.5211E-03    -59.0104E-03    -58.4972E-03     117.493E-03    -59.0104E-03     4.04717E-03    -18.6148E+06    -51.4723E+06    -234.206E+06    -51.4899E+06    -234.188E+06    -18.6148E+06     1.66229E+06         30.4718
             303     4.71548E-03     59.4946E-03         2.01431    -596.481E-03    -623.348E-03    -596.240E-03         1.98739    -596.665E-03     85.1586E-03     117.602E-03    -58.5882E-03    -59.0253E-03    -58.5874E-03     117.590E-03    -59.0144E-03     2.77360E-03    -30.2710E+06    -57.3470E+06    -250.805E+06    -57.3704E+06    -250.782E+06    -30.2710E+06     1.43991E+06         30.0871
             304     3.77248E-03     59.4920E-03         2.03221    -600.454E-03    -634.191E-03    -569.633E-03         1.96784    -600.639E-03    -190.799E-03     117.701E-03    -58.6728E-03    -59.0388E-03    -58.6926E-03     117.697E-03    -59.0149E-03     1.60771E-03    -41.7918E+06    -62.9343E+06    -263.739E+06    -62.9536E+06    -263.719E+06    -41.7918E+06     676.192E+03         29.7940
             305     2.82860E-03     59.4899E-03         2.15709    -607.786E-03    -749.550E-03    -588.330E-03         1.99587    -607.786E-03     315.885E-03     117.736E-03    -58.6975E-03    -59.0491E-03    -58.7162E-03     117.735E-03    -59.0291E-03     674.319E-06    -53.2419E+06    -66.9768E+06    -271.342E+06    -66.9877E+06    -271.331E+06    -53.2419E+06     356.746E+03         29.5827
             306     1.88560E-03     59.4911E-03         2.45141    -606.097E-03        -1.04616    -625.840E-03         2.03109    -606.097E-03    -607.899E-03     117.878E-03    -58.7995E-03    -59.0843E-03    -58.8057E-03     117.877E-03    -59.0772E-03     490.275E-06    -63.7542E+06    -70.5272E+06    -277.261E+06    -70.5281E+06    -277.260E+06    -63.7542E+06    -273.405E+03         29.4425
             307     942.799E-06     59.4905E-03         3.24705     395.783E-03        -2.85172        -1.59886         1.99419     395.783E-03         2.06446     118.179E-03    -58.8400E-03    -59.3410E-03    -59.2446E-03     118.177E-03    -58.9351E-03     950.229E-06    -69.6574E+06    -75.0167E+06    -280.718E+06    -74.3282E+06    -280.695E+06    -70.3691E+06    -899.167E+03         29.3627
             308     16.0444E-03     59.0130E-03         1.95241    -553.770E-03    -594.772E-03    -553.480E-03         1.95212    -594.772E-03    -10.9336E-03     151.221E-03    -58.8211E-03    -92.3831E-03    -59.3030E-03     118.141E-03    -58.8211E-03     163.918E-03     133.815E+06     132.252E+06    -7.98340E+06    -7.97930E+06     133.149E+06     132.915E+06     116.269E+03         59.0532
             309     15.0992E-03     58.7752E-03         1.97379    -568.966E-03    -600.149E-03    -568.769E-03         1.97359    -600.149E-03    -22.9397E-03     154.853E-03    -58.7213E-03    -96.1134E-03    -59.9819E-03     118.722E-03    -58.7213E-03     174.623E-03     117.657E+06     104.178E+06    -16.6298E+06    -16.5831E+06     117.611E+06     104.178E+06    -280.539E+03         55.4100
             310     14.1578E-03     58.6181E-03         1.99728    -583.488E-03    -604.439E-03    -583.476E-03         1.99726    -604.439E-03     1.82464E-03     131.487E-03    -58.5531E-03    -72.9372E-03    -57.2249E-03     115.775E-03    -58.5531E-03     105.239E-03     103.501E+06     61.1406E+06    -23.8989E+06    -23.8444E+06     103.447E+06     61.1406E+06    -1.12264E+06         50.8305
             311     13.2065E-03     58.5421E-03         2.00204    -585.264E-03    -607.421E-03    -585.167E-03         2.00194    -607.421E-03    -19.2229E-03     119.602E-03    -58.4526E-03    -61.1793E-03    -55.9839E-03     114.406E-03    -58.4526E-03     59.4650E-03     94.2634E+06     25.1098E+06    -28.8589E+06    -28.8475E+06     94.2520E+06     25.1098E+06    -750.728E+03         46.1248
             312     12.2651E-03     58.4908E-03         2.00273    -583.504E-03    -610.128E-03    -583.384E-03         2.00261    -610.128E-03    -15.7052E-03     117.801E-03    -58.3636E-03    -59.4729E-03    -57.0063E-03     115.395E-03    -58.4237E-03     40.0973E-03     65.3960E+06    -1.12887E+06    -32.4527E+06    -32.4447E+06     65.3880E+06    -1.12887E+06    -471.740E+03         41.9349
             313     11.3212E-03     58.4554E-03         2.01182    -590.017E-03    -612.713E-03    -589.687E-03         2.01149    -612.713E-03    -37.3607E-03     116.792E-03    -58.1617E-03    -58.6520E-03    -57.3016E-03     115.757E-03    -58.4765E-03     26.3535E-03     14.1756E+06    -23.4074E+06    -34.7483E+06    -33.9234E+06     2.87330E+06    -12.9300E+06    -991.246E+03         38.4372
             314     10.3764E-03     58.4326E-03         2.02208    -598.054E-03    -614.861E-03    -597.710E-03         2.02174    -614.861E-03    -23.2647E-03     116.865E-03    -58.2578E-03    -58.6126E-03    -57.6462E-03     116.253E-03    -58.6126E-03     20.5689E-03    -10.1039E+06    -34.3100E+06    -60.6947E+06    -35.2277E+06    -59.7770E+06    -10.1039E+06    -1.02186E+06         35.6633
             315     9.43213E-03     58.4123E-03         2.03016    -599.517E-03    -620.002E-03    -602.141E-03         2.02946    -616.682E-03    -44.1492E-03     117.052E-03    -58.3346E-03    -58.7206E-03    -57.9365E-03     116.654E-03    -58.7206E-03     16.2782E-03    -9.81053E+06    -38.1272E+06    -107.047E+06    -38.1567E+06    -107.018E+06    -9.81053E+06    -171.548E+03         33.6571
             316     8.48916E-03     58.3975E-03         2.03304    -599.013E-03    -621.929E-03    -601.607E-03         2.03231    -618.608E-03    -39.0672E-03     117.218E-03    -58.4302E-03    -58.7922E-03    -58.2449E-03     117.033E-03    -58.7922E-03     11.3029E-03    -11.8185E+06    -40.8833E+06    -145.259E+06    -40.9170E+06    -145.226E+06    -11.8185E+06     815.174E+03         32.3681
             317     7.54654E-03     58.3872E-03         2.04326    -608.051E-03    -622.663E-03    -610.119E-03         2.04305    -620.391E-03    -2.45200E-03     117.318E-03    -58.4627E-03    -58.8604E-03    -58.3543E-03     117.209E-03    -58.8604E-03     8.64416E-03    -12.9721E+06    -43.8633E+06    -180.882E+06    -43.9219E+06    -180.823E+06    -12.9721E+06     592.549E+03         31.5513
             318     6.60201E-03     58.3790E-03         2.05324    -612.358E-03    -630.205E-03    -619.261E-03         2.05125    -621.316E-03     72.8657E-03     117.246E-03    -58.3181E-03    -58.9400E-03    -58.2621E-03     117.190E-03    -58.9400E-03     6.12276E-03    -14.4507E+06    -48.8966E+06    -213.837E+06    -48.9297E+06    -213.804E+06    -14.4507E+06    -245.467E+03         30.9510
             319     5.65877E-03     58.3743E-03         2.06077    -615.206E-03    -635.642E-03    -618.318E-03         2.05010    -621.852E-03    -122.804E-03     117.481E-03    -58.5078E-03    -58.9882E-03    -58.4841E-03     117.458E-03    -58.9882E-03     4.00444E-03    -19.3302E+06    -54.0700E+06    -235.062E+06    -54.0892E+06    -235.043E+06    -19.3302E+06    -186.935E+03         30.4682
             320     4.71543E-03     58.3705E-03         2.08280    -621.252E-03    -649.780E-03    -624.327E-03         2.05808    -621.990E-03     75.0976E-03     117.673E-03    -58.6936E-03    -58.9917E-03    -58.6929E-03     117.662E-03    -58.9808E-03     2.83700E-03    -28.3182E+06    -57.7934E+06    -249.601E+06    -57.8178E+06    -249.577E+06    -28.3182E+06     808.027E+03         30.0835
             321     3.77261E-03     58.3680E-03         2.12244    -620.598E-03    -689.886E-03    -630.296E-03         2.06285    -620.598E-03    -200.293E-03     117.563E-03    -58.6008E-03    -58.9722E-03    -58.6065E-03     117.557E-03    -58.9612E-03     1.78614E-03    -40.8998E+06    -61.9809E+06    -263.021E+06    -61.9907E+06    -263.012E+06    -40.8998E+06     688.514E+03         29.7878
             322     2.82947E-03     58.3674E-03         2.21298    -617.428E-03    -782.229E-03    -629.312E-03         2.06006    -617.428E-03     304.368E-03     117.511E-03    -58.5163E-03    -59.0030E-03    -58.5149E-03     117.509E-03    -59.0030E-03     725.342E-06    -54.1872E+06    -67.2069E+06    -271.821E+06    -67.2086E+06    -271.820E+06    -54.1872E+06    -216.885E+03         29.5774
             323     1.88540E-03     58.3667E-03         2.47029    -609.751E-03        -1.04989    -632.546E-03         2.05295    -609.751E-03    -628.587E-03     117.899E-03    -58.8276E-03    -59.0772E-03    -58.8267E-03     117.898E-03    -59.0772E-03     248.831E-06    -65.3357E+06    -71.6622E+06    -277.536E+06    -71.6663E+06    -277.531E+06    -65.3357E+06     388.638E+03         29.4433
             324     942.705E-06     58.3660E-03         3.22539     496.711E-03        -2.91169        -1.70523         2.01893     496.711E-03         2.00766     118.174E-03    -58.9597E-03    -59.2182E-03    -59.2010E-03     118.173E-03    -58.9760E-03     526.369E-06    -72.2000E+06    -74.7228E+06    -281.447E+06    -74.0366E+06    -281.422E+06    -72.9117E+06    -846.757E+03         29.3668
             325     16.0411E-03     57.8878E-03         2.00356    -572.914E-03    -612.871E-03    -572.670E-03         2.00331    -612.871E-03    -27.5410E-03     151.317E-03    -58.8169E-03    -92.4766E-03    -59.5776E-03     118.418E-03    -58.8169E-03     163.481E-03     132.936E+06     132.070E+06    -7.45645E+06    -7.45124E+06     132.250E+06     132.752E+06    -103.528E+03         59.0020
             326     15.0999E-03     57.6486E-03         2.01867    -581.169E-03    -618.164E-03    -580.875E-03         2.01837    -618.164E-03    -17.6608E-03     154.178E-03    -58.7296E-03    -95.4482E-03    -59.2924E-03     118.022E-03    -58.7296E-03     174.248E-03     116.299E+06     102.738E+06    -15.7963E+06    -15.7839E+06     115.605E+06     103.419E+06     608.322E+03         55.3767
             327     14.1519E-03     57.4970E-03         2.03561    -589.263E-03    -622.923E-03    -589.202E-03         2.03555    -622.923E-03     17.3008E-03     131.294E-03    -58.5926E-03    -72.7195E-03    -56.9181E-03     115.493E-03    -58.5926E-03     105.273E-03     104.055E+06     61.2966E+06    -22.5878E+06    -22.5667E+06     104.033E+06     61.2966E+06    -99.3285E+03         50.8144
             328     13.2105E-03     57.4206E-03         2.04567    -596.388E-03    -626.677E-03    -596.379E-03         2.04566    -626.677E-03     5.32113E-03     120.415E-03    -58.4757E-03    -61.9735E-03    -56.7331E-03     115.175E-03    -58.4757E-03     59.9629E-03     94.7483E+06     24.7566E+06    -27.7025E+06    -27.6914E+06     94.7372E+06     24.7566E+06    -421.205E+03         46.1166
             329     12.2641E-03     57.3642E-03         2.05866    -607.725E-03    -629.596E-03    -607.683E-03         2.05862    -629.596E-03     17.9555E-03     117.962E-03    -58.2755E-03    -59.7162E-03    -57.2457E-03     115.629E-03    -58.4129E-03     39.3346E-03     65.8370E+06    -1.26741E+06    -30.4547E+06    -30.4485E+06     65.8308E+06    -1.26741E+06    -383.919E+03         41.9294
             330     11.3206E-03     57.3341E-03         2.07530    -622.185E-03    -631.483E-03    -621.889E-03         2.07501    -631.483E-03    -17.2032E-03     116.702E-03    -58.0804E-03    -58.6355E-03    -57.2374E-03     115.684E-03    -58.4600E-03     26.3900E-03     13.7405E+06    -23.5768E+06    -33.8015E+06    -33.1734E+06     2.87183E+06    -13.3361E+06    -877.919E+03         38.4332
             331     10.3762E-03     57.3084E-03         2.07512    -618.563E-03    -632.986E-03    -618.252E-03         2.07481    -632.986E-03    -15.5845E-03     116.882E-03    -58.2881E-03    -58.5974E-03    -57.6598E-03     116.254E-03    -58.5974E-03     20.8166E-03    -10.9971E+06    -34.8874E+06    -61.5169E+06    -35.7624E+06    -60.6419E+06    -10.9971E+06    -827.941E+03         35.6608
             332     9.43375E-03     57.2886E-03         2.06724    -605.519E-03    -635.524E-03    -604.961E-03         2.06668    -635.524E-03    -33.2603E-03     117.162E-03    -58.4693E-03    -58.6960E-03    -58.0921E-03     116.785E-03    -58.6960E-03     16.0456E-03    -10.3393E+06    -38.3762E+06    -107.477E+06    -38.4086E+06    -107.445E+06    -10.3393E+06    -242.563E+03         33.6560
             333     8.48967E-03     57.2738E-03         2.09091    -620.781E-03    -641.984E-03    -624.068E-03         2.09030    -638.087E-03    -25.6423E-03     117.112E-03    -58.3525E-03    -58.7640E-03    -58.1538E-03     116.914E-03    -58.7640E-03     11.6505E-03    -12.4087E+06    -41.4973E+06    -146.412E+06    -41.5077E+06    -146.402E+06    -12.4087E+06     63.4437E+03         32.3677
             334     7.54552E-03     57.2635E-03         2.10862    -637.887E-03    -644.899E-03    -643.722E-03         2.10829    -638.729E-03    -12.9473E-03     117.221E-03    -58.3839E-03    -58.8419E-03    -58.2749E-03     117.112E-03    -58.8419E-03     8.66394E-03    -12.8469E+06    -44.3093E+06    -180.850E+06    -44.3269E+06    -180.832E+06    -12.8469E+06     482.587E+03         31.5513
             335     6.60278E-03     57.2561E-03         2.09380    -627.021E-03    -641.662E-03    -627.474E-03         2.09198    -639.390E-03     53.2098E-03     117.354E-03    -58.4461E-03    -58.9178E-03    -58.3905E-03     117.298E-03    -58.9178E-03     6.09311E-03    -13.0810E+06    -47.5819E+06    -212.628E+06    -47.6006E+06    -212.609E+06    -13.0810E+06    -182.997E+03         30.9498
             336     5.65918E-03     57.2504E-03         2.09765    -629.375E-03    -642.312E-03    -618.524E-03         2.08680    -642.312E-03    -135.839E-03     117.437E-03    -58.5057E-03    -58.9435E-03    -58.4802E-03     117.411E-03    -58.9435E-03     4.17471E-03    -19.5180E+06    -52.3728E+06    -235.358E+06    -52.3870E+06    -235.344E+06    -19.5180E+06    -1.02194E+06         30.4642
             337     4.71614E-03     57.2471E-03         2.13706    -643.629E-03    -668.813E-03    -642.443E-03         2.11163    -644.569E-03     75.4545E-03     117.472E-03    -58.5387E-03    -58.9433E-03    -58.5255E-03     117.459E-03    -58.9433E-03     2.91504E-03    -29.9486E+06    -58.1565E+06    -250.804E+06    -58.1763E+06    -250.784E+06    -29.9486E+06    -753.822E+03         30.0790
             338     3.77229E-03     57.2444E-03         2.19142    -641.698E-03    -723.983E-03    -666.708E-03         2.13415    -641.698E-03    -187.256E-03     117.486E-03    -58.5462E-03    -58.9493E-03    -58.5418E-03     117.481E-03    -58.9493E-03     1.68496E-03    -42.1017E+06    -63.5126E+06    -263.424E+06    -63.5245E+06    -263.412E+06    -42.1017E+06     46.8335E+03         29.7858
             339     2.82868E-03     57.2441E-03         2.27947    -635.231E-03    -817.516E-03    -655.479E-03         2.11743    -635.231E-03     360.919E-03     117.730E-03    -58.7139E-03    -59.0257E-03    -58.8028E-03     117.729E-03    -58.9354E-03     896.923E-06    -55.5734E+06    -68.4434E+06    -271.513E+06    -68.4468E+06    -271.510E+06    -55.5734E+06     691.521E+03         29.5763
             340     1.88652E-03     57.2424E-03         2.51096    -632.427E-03        -1.05932    -630.247E-03         2.08188    -632.427E-03    -578.527E-03     117.836E-03    -58.8000E-03    -59.0425E-03    -58.9830E-03     117.835E-03    -58.8589E-03     291.722E-06    -65.9014E+06    -72.4776E+06    -277.358E+06    -72.4868E+06    -277.349E+06    -65.9014E+06     299.536E+03         29.4366
             341     943.243E-06     57.2425E-03         3.26064     547.760E-03        -2.98667        -1.81503         2.08901     547.760E-03         2.01106     117.551E-03    -58.5451E-03    -59.0103E-03    -59.0016E-03     117.551E-03    -58.5533E-03    -3.10878E-06    -72.5121E+06    -75.2459E+06    -282.563E+06    -74.7405E+06    -282.549E+06    -73.0316E+06     262.756E+03         29.3497
             342     16.0472E-03     56.7619E-03         2.05302    -593.618E-03    -630.330E-03    -593.443E-03         2.05285    -630.330E-03    -20.4459E-03     151.859E-03    -58.8287E-03    -92.9983E-03    -59.3944E-03     118.255E-03    -58.8287E-03     165.834E-03     132.555E+06     131.298E+06    -8.71491E+06    -8.70678E+06     131.341E+06     132.505E+06    -634.625E+03         58.9516
             343     15.0985E-03     56.5290E-03         2.06277    -593.655E-03    -635.721E-03    -593.424E-03         2.06254    -635.721E-03    -10.4356E-03     153.439E-03    -58.7592E-03    -94.6804E-03    -59.0504E-03     117.809E-03    -58.7592E-03     172.417E-03     116.216E+06     102.939E+06    -16.4487E+06    -16.4376E+06     115.009E+06     104.134E+06    -333.757E+03         55.3441
             344     14.1536E-03     56.3737E-03         2.06520    -588.503E-03    -641.286E-03    -588.429E-03         2.06513    -641.286E-03     17.8588E-03     131.154E-03    -58.6309E-03    -72.5328E-03    -57.0389E-03     115.660E-03    -58.6309E-03     104.564E-03     104.611E+06     63.6058E+06    -22.8152E+06    -22.8086E+06     104.604E+06     63.6058E+06     6.63131E+03         50.8010
             345     13.2077E-03     56.2945E-03         2.08683    -606.478E-03    -645.941E-03    -606.467E-03         2.08682    -645.941E-03     2.79307E-03     120.954E-03    -58.4864E-03    -62.5024E-03    -57.1579E-03     115.610E-03    -58.4864E-03     60.5382E-03      95.093E+06     26.0571E+06    -27.5544E+06    -27.5462E+06     95.0848E+06     26.0571E+06     332.387E+03         46.1108
             346     12.2661E-03     56.2426E-03         2.11183    -631.294E-03    -648.919E-03    -631.264E-03         2.11180    -648.919E-03     10.2155E-03     117.937E-03    -58.2625E-03    -59.7083E-03    -57.2829E-03     115.649E-03    -58.3999E-03     39.0032E-03     65.6692E+06    -1.33797E+06    -30.9127E+06    -30.9063E+06     65.6628E+06    -1.33797E+06     242.724E+03         41.9247
             347     11.3205E-03     56.2098E-03         2.11861    -633.121E-03    -650.937E-03    -633.078E-03         2.11856    -650.937E-03    -4.28391E-03     116.712E-03    -58.1958E-03    -58.5323E-03    -57.2935E-03     115.719E-03    -58.4413E-03     26.0024E-03     13.6021E+06    -22.6425E+06    -34.2322E+06    -33.3463E+06     3.36605E+06    -13.2923E+06    -59.8810E+03         38.4292
             348     10.3773E-03     56.1854E-03         2.12115    -630.065E-03    -653.204E-03    -629.999E-03         2.12108    -653.204E-03     3.15683E-03     116.836E-03    -58.2733E-03    -58.5710E-03    -57.6467E-03     116.210E-03    -58.5710E-03     20.8570E-03    -11.9764E+06    -34.9067E+06    -62.2249E+06    -36.0669E+06    -61.0647E+06    -11.9764E+06     65.3104E+03         35.6577
             349     9.43255E-03     56.1644E-03         2.13302    -637.316E-03    -655.563E-03    -637.156E-03         2.13286    -655.563E-03    -10.6580E-03     116.993E-03    -58.3191E-03    -58.6780E-03    -57.9227E-03     116.597E-03    -58.6780E-03     16.3503E-03    -11.2511E+06    -39.4848E+06    -108.072E+06    -39.5031E+06    -108.053E+06    -11.2511E+06     147.225E+03         33.6534
             350     8.48960E-03     56.1506E-03         2.14655    -642.649E-03    -661.287E-03    -646.053E-03         2.14605    -657.390E-03     19.1827E-03     117.112E-03    -58.3602E-03    -58.7534E-03    -58.1639E-03     116.916E-03    -58.7534E-03     11.5932E-03    -13.4459E+06    -43.2914E+06    -147.014E+06    -43.3037E+06    -147.002E+06    -13.4459E+06      421.43E+03         32.3653
             351     7.54625E-03     56.1402E-03         2.14868    -644.099E-03    -662.839E-03    -647.453E-03         2.14814    -658.941E-03     13.6895E-03     117.193E-03    -58.3872E-03    -58.8102E-03    -58.2782E-03     117.084E-03    -58.8102E-03     8.65599E-03    -17.0979E+06    -47.0927E+06    -180.416E+06    -47.1076E+06    -180.401E+06    -17.0979E+06    -585.006E+03         31.5491
             352     6.60264E-03     56.1318E-03         2.14975    -647.524E-03    -663.558E-03    -647.720E-03         2.14714    -660.756E-03     86.8670E-03     117.350E-03    -58.4835E-03    -58.8747E-03    -58.4268E-03     117.293E-03    -58.8747E-03     6.19508E-03    -17.9735E+06    -49.7404E+06    -212.223E+06    -49.7635E+06    -212.200E+06    -17.9735E+06    -1.81226E+06         30.9482
             353     5.65931E-03     56.1278E-03         2.16427    -656.527E-03    -667.765E-03    -650.707E-03         2.15350    -662.817E-03    -99.9375E-03     117.408E-03    -58.5072E-03    -58.9112E-03    -58.4792E-03     117.380E-03    -58.9112E-03     4.37757E-03    -21.4146E+06    -53.1893E+06    -236.059E+06    -53.2016E+06    -236.046E+06    -21.4146E+06    -874.442E+03         30.4628
             354     4.71559E-03     56.1226E-03         2.18871    -664.706E-03    -682.614E-03    -654.850E-03         2.16114    -664.908E-03     114.789E-03     117.425E-03    -58.5265E-03    -58.9085E-03    -58.5138E-03     117.412E-03    -58.9085E-03     2.78712E-03    -31.7558E+06    -58.6370E+06    -251.696E+06    -58.6473E+06    -251.686E+06    -31.7558E+06    -617.002E+03         30.0771
             355     3.77254E-03     56.1222E-03         2.22931    -667.348E-03    -719.543E-03    -656.265E-03         2.16604    -667.348E-03    -173.777E-03     117.603E-03    -58.6551E-03    -58.9595E-03    -58.7198E-03     117.600E-03    -58.8914E-03     1.49653E-03    -42.4659E+06    -64.7236E+06    -264.819E+06    -64.7340E+06    -264.809E+06    -42.4659E+06    -484.844E+03         29.7828
             356     2.82973E-03     56.1189E-03         2.33461    -670.100E-03    -823.505E-03    -662.124E-03         2.17323    -670.100E-03     343.777E-03     117.673E-03    -58.7051E-03    -58.9783E-03    -58.8625E-03     117.672E-03    -58.8199E-03     646.103E-06    -54.6920E+06    -69.3746E+06    -271.360E+06    -69.3785E+06    -271.356E+06    -54.6920E+06     303.022E+03         29.5683
             357     1.88643E-03     56.1196E-03         2.60531    -670.306E-03        -1.09881    -674.907E-03         2.18141    -670.306E-03    -610.670E-03     117.456E-03    -58.5403E-03    -58.9230E-03    -58.7235E-03     117.456E-03    -58.7393E-03     432.644E-06    -66.1843E+06    -72.5740E+06    -276.857E+06    -72.5813E+06    -276.850E+06    -66.1843E+06    -17.0106E+03         29.4215
             358     943.825E-06     56.1181E-03         3.32872     622.431E-03        -3.12325        -1.96087         2.16633     622.431E-03         2.02671     117.386E-03    -58.4456E-03    -58.9436E-03    -58.7439E-03     117.383E-03    -58.6428E-03     790.988E-06    -72.4614E+06    -75.9778E+06    -282.262E+06    -75.4801E+06    -282.241E+06    -72.9808E+06    -395.226E+03         29.3335
             359     16.0372E-03     55.6358E-03         2.09358    -596.333E-03    -647.077E-03    -595.980E-03         2.09322    -647.077E-03    -17.2411E-03     151.115E-03    -58.8278E-03    -92.2551E-03    -58.9802E-03     117.840E-03    -58.8278E-03     164.886E-03     132.463E+06     130.591E+06    -9.02858E+06    -9.02161E+06     131.256E+06     131.791E+06    -429.939E+03         58.9010
             360     15.0994E-03     55.4020E-03         2.11088    -605.772E-03    -652.819E-03    -605.476E-03         2.11059    -652.819E-03    -37.0416E-03     152.937E-03    -58.7565E-03    -94.1607E-03    -59.1960E-03     117.972E-03    -58.7565E-03     170.668E-03     115.732E+06     102.935E+06    -16.4437E+06    -16.4171E+06     114.516E+06     104.124E+06    -890.217E+03         55.3130
             361     14.1543E-03     55.2548E-03         2.11800    -610.144E-03    -658.160E-03    -610.099E-03         2.11795    -658.160E-03    -6.02818E-03     131.642E-03    -58.6128E-03    -73.0398E-03    -57.5184E-03     116.120E-03    -58.6128E-03     105.077E-03     104.364E+06     64.4873E+06    -22.4575E+06    -22.3984E+06     104.305E+06     64.4873E+06     404.419E+03         50.7904
             362     13.2093E-03     55.1685E-03         2.13519    -623.173E-03    -662.455E-03    -623.164E-03         2.13518    -662.455E-03    -3.89567E-03     120.527E-03    -58.4719E-03    -62.0903E-03    -56.7413E-03     115.178E-03    -58.4719E-03     60.3738E-03     94.4122E+06     26.5423E+06    -28.1690E+06    -28.1184E+06     94.3616E+06     26.5423E+06     889.424E+03         46.1063
             363     12.2641E-03     55.1194E-03         2.14907    -635.906E-03    -665.747E-03    -635.849E-03         2.14902    -665.747E-03    -11.5665E-03     117.964E-03    -58.3916E-03    -59.6096E-03    -57.3640E-03     115.718E-03    -58.3916E-03     38.5956E-03     65.1068E+06    -981.289E+03    -32.3767E+06    -32.3601E+06     65.0903E+06    -981.289E+03     183.125E+03         41.9196
             364     11.3218E-03     55.0858E-03         2.15075    -633.219E-03    -668.885E-03    -632.957E-03         2.15049    -668.885E-03    -43.0157E-03     116.872E-03    -58.1205E-03    -58.7693E-03    -57.4988E-03     115.901E-03    -58.4197E-03     25.7397E-03     14.3744E+06    -21.4634E+06    -34.4783E+06    -33.7765E+06     4.32283E+06    -12.1135E+06     946.654E+03         38.4250
             365     10.3769E-03     55.0628E-03         2.16722    -643.493E-03    -672.057E-03    -643.279E-03         2.16701    -672.057E-03    -24.4115E-03     116.606E-03    -58.0676E-03    -58.5439E-03    -57.4379E-03     115.976E-03    -58.5439E-03     20.9050E-03    -11.3663E+06    -34.2757E+06    -62.4667E+06    -36.0729E+06    -60.6696E+06    -11.3663E+06     628.852E+03         35.6539
             366     9.43364E-03     55.0408E-03         2.18896    -661.381E-03    -674.323E-03    -661.095E-03         2.18868    -674.323E-03    -31.2253E-03     116.939E-03    -58.2820E-03    -58.6591E-03    -57.8864E-03     116.543E-03    -58.6591E-03     16.2348E-03    -11.1098E+06    -39.0541E+06    -109.198E+06    -39.0645E+06    -109.188E+06    -11.1098E+06     295.272E+03         33.6502
             367     8.48951E-03     55.0271E-03         2.18275    -651.257E-03    -676.660E-03    -650.668E-03         2.18216    -676.660E-03    -2.74531E-03     117.070E-03    -58.3402E-03    -58.7314E-03    -58.1570E-03     116.886E-03    -58.7314E-03     11.2398E-03    -13.2063E+06    -41.5246E+06    -146.950E+06    -41.5368E+06    -146.938E+06    -13.2063E+06     93.3271E+03         32.3630
             368     7.54625E-03     55.0162E-03         2.18227    -648.524E-03    -680.302E-03    -648.029E-03         2.18178    -680.302E-03     1.35680E-03     117.137E-03    -58.3546E-03    -58.7881E-03    -58.2470E-03     117.030E-03    -58.7881E-03     8.59413E-03    -15.9772E+06    -43.7863E+06    -178.411E+06    -43.8065E+06    -178.390E+06    -15.9772E+06    -1.33284E+06         31.5471
             369     6.60252E-03     55.0093E-03         2.21043    -671.240E-03    -687.997E-03    -673.943E-03         2.20825    -683.113E-03     74.8732E-03     117.308E-03    -58.4642E-03    -58.8566E-03    -58.4081E-03     117.252E-03    -58.8566E-03     6.16516E-03    -18.0481E+06    -48.4270E+06    -212.664E+06    -48.4522E+06    -212.638E+06    -18.0481E+06    -1.94345E+06         30.9481
             370     5.65940E-03     55.0029E-03         2.23324    -683.410E-03    -699.593E-03    -688.853E-03         2.22250    -683.410E-03    -119.112E-03     117.483E-03    -58.6148E-03    -58.8831E-03    -58.5898E-03     117.458E-03    -58.8831E-03     4.10044E-03    -22.5225E+06    -54.2992E+06    -238.249E+06    -54.3145E+06    -238.234E+06    -22.5225E+06    -1.55506E+06         30.4647
             371     4.71632E-03     55.0008E-03         2.23662    -683.938E-03    -700.094E-03    -674.712E-03         2.21124    -683.938E-03     83.6053E-03     117.514E-03    -58.6757E-03    -58.8501E-03    -58.6655E-03     117.503E-03    -58.8501E-03     2.59393E-03    -31.3284E+06    -59.4635E+06    -252.041E+06    -59.4681E+06    -252.037E+06    -31.3284E+06    -662.912E+03         30.0762
             372     3.77304E-03     54.9967E-03         2.26759    -688.036E-03    -724.026E-03    -662.901E-03         2.20647    -688.036E-03    -202.934E-03     117.505E-03    -58.6491E-03    -58.8663E-03    -58.7132E-03     117.501E-03    -58.7982E-03     1.60988E-03    -41.9418E+06    -64.4230E+06    -264.757E+06    -64.4233E+06    -264.757E+06    -41.9418E+06    -189.274E+03         29.7751
             373     2.83014E-03     54.9968E-03         2.38059    -693.452E-03    -832.555E-03    -679.904E-03         2.22794    -693.452E-03     313.421E-03     117.365E-03    -58.5624E-03    -58.8117E-03    -58.6289E-03     117.363E-03    -58.7437E-03     950.271E-06    -54.3061E+06    -69.1475E+06    -272.613E+06    -69.1483E+06    -272.613E+06    -54.3061E+06    -370.349E+03         29.5556
             374     1.88665E-03     54.9955E-03         2.64925    -697.489E-03        -1.10905    -690.393E-03         2.23059    -697.489E-03    -652.978E-03     117.213E-03    -58.4640E-03    -58.7555E-03    -58.4629E-03     117.212E-03    -58.7555E-03     347.339E-06    -66.2461E+06    -72.7944E+06    -277.062E+06    -72.7967E+06    -277.059E+06    -66.2461E+06     18.8418E+03         29.4090
             375     941.892E-06     54.9968E-03         3.41733     621.667E-03        -3.19937        -2.02018         2.23814     621.667E-03         2.09460     117.552E-03    -58.5248E-03    -59.0302E-03    -58.7774E-03     117.549E-03    -58.7745E-03     941.067E-06    -72.8719E+06    -76.5527E+06    -281.696E+06    -75.3206E+06    -281.676E+06    -74.1236E+06    -1.10748E+06         29.3252
             376     16.0514E-03     54.5119E-03         2.13061    -600.935E-03    -662.526E-03    -600.581E-03         2.13026    -662.526E-03    -22.3969E-03     150.826E-03    -58.7922E-03    -92.0351E-03    -58.7203E-03     117.512E-03    -58.7922E-03     164.252E-03     132.844E+06     131.165E+06    -8.85571E+06    -8.84752E+06     132.065E+06     131.935E+06    -190.298E+03         58.8514
             377     15.0973E-03     54.2843E-03         2.14857    -614.964E-03    -668.568E-03    -614.665E-03         2.14827    -668.568E-03    -38.4645E-03     152.983E-03    -58.7463E-03    -94.2316E-03    -58.5079E-03     117.259E-03    -58.7463E-03     172.171E-03     114.867E+06     103.104E+06    -16.3275E+06    -16.2961E+06     114.064E+06     103.875E+06    -747.586E+03         55.2802
             378     14.1537E-03     54.1240E-03         2.17481    -636.579E-03    -673.590E-03    -636.541E-03         2.17478    -673.590E-03    -4.56705E-03     132.418E-03    -58.6092E-03    -73.8236E-03    -58.1873E-03     116.782E-03    -58.6092E-03     105.299E-03     102.275E+06     64.4158E+06    -23.6897E+06    -23.6208E+06     102.207E+06     64.4158E+06     303.873E+03         50.7761
             379     13.2106E-03     54.0516E-03         2.17971    -636.462E-03    -677.544E-03    -636.428E-03         2.17968    -677.544E-03     7.81544E-03     120.584E-03    -58.4396E-03    -62.1842E-03    -56.9314E-03     115.331E-03    -58.4396E-03     60.3243E-03     93.9467E+06     26.7211E+06    -28.1894E+06    -28.0792E+06     93.8365E+06     26.7211E+06     1.53115E+06         46.1011
             380     12.2653E-03     53.9916E-03         2.18518    -639.761E-03    -681.376E-03    -639.669E-03         2.18509    -681.376E-03     4.12074E-03     117.741E-03    -58.2875E-03    -59.4928E-03    -57.0670E-03     115.387E-03    -58.3590E-03     39.0811E-03     64.9253E+06    -933.247E+03    -31.6512E+06    -31.5813E+06     64.8554E+06    -933.247E+03     1.21622E+06         41.9148
             381     11.3217E-03     53.9642E-03         2.20222    -654.804E-03    -684.736E-03    -654.520E-03         2.20193    -684.736E-03    -39.8211E-03     116.825E-03    -58.1198E-03    -58.7232E-03    -57.5385E-03     115.920E-03    -58.3990E-03     24.9158E-03     14.0820E+06    -20.8120E+06    -34.8180E+06    -34.7352E+06     4.60566E+06    -11.4184E+06     425.324E+03         38.4204
             382     10.3776E-03     53.9389E-03         2.21374    -662.429E-03    -687.491E-03    -662.101E-03         2.21341    -687.491E-03    -13.4210E-03     116.701E-03    -58.1326E-03    -58.5736E-03    -57.5704E-03     116.073E-03    -58.5079E-03     20.8990E-03    -11.0426E+06    -33.1745E+06      -62.94E+06    -35.9264E+06    -60.1882E+06    -11.0426E+06     261.928E+03         35.6498
             383     9.43347E-03     53.9176E-03         2.21810    -662.199E-03    -690.361E-03    -661.534E-03         2.21743    -690.361E-03    -37.6717E-03     116.875E-03    -58.2613E-03    -58.6152E-03    -57.8575E-03     116.471E-03    -58.6152E-03     16.3610E-03    -10.6583E+06    -37.3560E+06    -109.377E+06    -37.3611E+06    -109.371E+06    -10.6583E+06    -125.988E+03         33.6457
             384     8.49041E-03     53.9033E-03         2.22339    -663.768E-03    -693.715E-03    -663.041E-03         2.22266    -693.715E-03    -30.3202E-03     116.891E-03    -58.1982E-03    -58.6959E-03    -58.0195E-03     116.712E-03    -58.6959E-03     11.0764E-03    -12.0726E+06    -40.1594E+06    -146.109E+06    -40.1691E+06    -146.099E+06    -12.0726E+06    -647.701E+03         32.3575
             385     7.54626E-03     53.8935E-03         2.23612    -675.518E-03    -696.930E-03    -675.059E-03         2.23566    -696.930E-03    -14.8897E-03     116.987E-03    -58.2309E-03    -58.7640E-03    -58.1253E-03     116.882E-03    -58.7640E-03     8.53331E-03    -15.4623E+06    -43.9252E+06    -177.899E+06    -43.9374E+06    -177.887E+06    -15.4623E+06    -1.08418E+06         31.5423
             386     6.60317E-03     53.8849E-03         2.25239    -690.742E-03    -701.047E-03    -690.949E-03         2.25052    -698.965E-03     55.4861E-03     117.313E-03    -58.4949E-03    -58.8345E-03    -58.4356E-03     117.254E-03    -58.8345E-03     6.33803E-03    -17.4946E+06    -47.9239E+06    -212.967E+06    -47.9345E+06    -212.957E+06    -17.4946E+06    -1.28067E+06         30.9459
             387     5.65961E-03     53.8803E-03         2.27572    -697.321E-03    -720.140E-03    -707.529E-03         2.26466    -698.877E-03    -141.957E-03     117.506E-03    -58.6807E-03    -58.8448E-03    -58.6540E-03     117.479E-03    -58.8448E-03     4.21644E-03    -22.8079E+06    -53.4900E+06    -239.419E+06    -53.4980E+06    -239.411E+06    -22.8079E+06    -1.16184E+06         30.4637
             388     4.71651E-03     53.8759E-03         2.28187    -697.720E-03    -724.662E-03    -702.482E-03         2.25969    -697.720E-03     34.5327E-03     117.440E-03    -58.6532E-03    -58.8012E-03    -58.6415E-03     117.429E-03    -58.8012E-03     2.84061E-03    -31.9176E+06    -59.2973E+06    -252.585E+06    -59.3021E+06    -252.580E+06    -31.9176E+06    -766.094E+03         30.0726
             389     3.77350E-03     53.8748E-03         2.29298    -700.279E-03    -729.477E-03    -676.182E-03         2.23968    -700.279E-03    -218.390E-03     117.268E-03    -58.5110E-03    -58.7678E-03    -58.5055E-03     117.263E-03    -58.7678E-03     1.89782E-03    -43.0156E+06    -64.1924E+06    -264.916E+06    -64.1937E+06    -264.915E+06    -43.0156E+06    -404.564E+03         29.7682
             390     2.82938E-03     53.8727E-03         2.40536    -708.602E-03    -832.336E-03    -676.817E-03         2.24985    -708.602E-03     364.017E-03     117.283E-03    -58.5369E-03    -58.7551E-03    -58.5351E-03     117.281E-03    -58.7551E-03     1.01805E-03    -55.4375E+06    -68.4777E+06    -273.114E+06    -68.4803E+06    -273.111E+06    -55.4375E+06    -598.295E+03         29.5496
             391     1.88622E-03     53.8732E-03         2.69854    -725.245E-03        -1.11665    -679.886E-03         2.26178    -725.245E-03    -660.383E-03     117.503E-03    -58.5788E-03    -58.9300E-03    -58.8134E-03     117.502E-03    -58.6946E-03     204.991E-06    -65.6658E+06    -71.9132E+06    -278.039E+06    -71.9155E+06    -278.037E+06    -65.6658E+06    -236.445E+03         29.4049
             392     944.289E-06     53.8722E-03         3.56555     596.006E-03        -3.31327        -2.07091         2.32319     596.006E-03         2.24937     117.224E-03    -58.2559E-03    -58.9712E-03    -58.9168E-03     117.223E-03    -58.3084E-03     626.021E-06    -72.4842E+06    -75.3300E+06    -281.873E+06    -74.0924E+06    -281.859E+06    -73.7359E+06     139.650E+03         29.3164
             393     16.0388E-03     53.3939E-03         2.17047    -617.453E-03    -677.231E-03    -617.222E-03         2.17024    -677.231E-03    -26.6214E-03     150.835E-03    -58.8229E-03    -92.0211E-03    -58.6236E-03     117.438E-03    -58.8229E-03     164.350E-03     133.559E+06     131.736E+06    -7.85314E+06    -7.84335E+06     132.374E+06     132.911E+06    -120.495E+03         58.7937
             394     15.0987E-03     53.1578E-03         2.18894    -629.273E-03    -683.108E-03    -629.048E-03         2.18871    -683.108E-03    -25.6221E-03     154.127E-03    -58.7606E-03    -95.3818E-03    -59.2821E-03     118.027E-03    -58.7606E-03     173.847E-03     114.122E+06     102.333E+06    -16.4675E+06    -16.4520E+06     112.931E+06     103.508E+06     87.4147E+03         55.2427
             395     14.1539E-03     53.0027E-03         2.20861    -642.541E-03    -688.298E-03    -642.499E-03         2.20857    -688.298E-03    -381.075E-06     132.277E-03    -58.5925E-03    -73.7112E-03    -58.2000E-03     116.766E-03    -58.5925E-03     104.682E-03     100.581E+06     61.8362E+06    -24.4095E+06    -24.3897E+06     100.561E+06     61.8362E+06     313.128E+03         50.7602
             396     13.2096E-03     52.9240E-03         2.21625    -643.570E-03    -692.766E-03    -643.517E-03         2.21619    -692.766E-03    -1.71438E-03     120.701E-03    -58.4173E-03    -62.3279E-03    -57.2103E-03     115.584E-03    -58.4173E-03     59.6340E-03     93.5074E+06     26.8606E+06    -28.7602E+06    -28.6872E+06     93.4344E+06     26.8606E+06     1.25155E+06         46.0938
             397     12.2664E-03     52.8721E-03         2.22470    -650.425E-03    -697.068E-03    -650.360E-03         2.22464    -697.068E-03     21.3357E-03     117.670E-03    -58.1618E-03    -59.5419E-03    -57.0121E-03     115.310E-03    -58.3315E-03     39.2875E-03     66.1270E+06     1.07436E+06    -30.3763E+06    -30.3135E+06     66.0641E+06     1.07436E+06     1.53157E+06         41.9096
             398     11.3211E-03     52.8375E-03         2.24794    -670.522E-03    -700.624E-03    -670.376E-03         2.24779    -700.624E-03    -10.3005E-03     116.538E-03    -58.1145E-03    -58.4419E-03    -57.2525E-03     115.610E-03    -58.3762E-03     25.1256E-03     15.4377E+06    -21.3535E+06    -33.2568E+06    -32.1047E+06     4.03088E+06    -11.0987E+06     2.28826E+03         38.4158
             399     10.3785E-03     52.8175E-03         2.26040    -680.045E-03    -703.322E-03    -679.766E-03         2.26012    -703.322E-03     7.06936E-03     116.946E-03    -58.2684E-03    -58.6849E-03    -57.8231E-03     116.306E-03    -58.4898E-03     21.1487E-03    -9.98081E+06    -33.1005E+06    -61.4386E+06    -34.4093E+06    -60.1298E+06    -9.98081E+06    -75.9475E+03         35.6460
             400     9.43428E-03     52.7931E-03         2.25923    -676.794E-03    -706.208E-03    -676.008E-03         2.25845    -706.208E-03    -28.5268E-03     116.844E-03    -58.1375E-03    -58.7090E-03    -57.8480E-03     116.425E-03    -58.5797E-03     16.6099E-03    -10.3425E+06    -37.1474E+06    -108.368E+06    -37.1550E+06    -108.361E+06    -10.3425E+06     76.0737E+03         33.6411
             401     8.49023E-03     52.7808E-03         2.27642    -689.852E-03    -709.665E-03    -689.471E-03         2.27540    -709.019E-03    -10.5911E-03     116.699E-03    -58.0352E-03    -58.6674E-03    -57.8542E-03     116.518E-03    -58.6674E-03     11.1583E-03    -12.0613E+06    -40.5131E+06    -146.106E+06    -40.5205E+06    -146.098E+06    -12.0613E+06    -277.250E+03         32.3512
             402     7.54683E-03     52.7697E-03         2.29762    -706.218E-03    -714.071E-03    -709.045E-03         2.29670    -710.322E-03    -5.24964E-03     116.888E-03    -58.1506E-03    -58.7459E-03    -58.0357E-03     116.773E-03    -58.7459E-03     8.91991E-03    -15.8967E+06    -44.4461E+06    -177.679E+06    -44.4505E+06    -177.674E+06    -15.8967E+06    -463.618E+03         31.5360
             403     6.60263E-03     52.7622E-03         2.29379    -705.915E-03    -713.893E-03    -706.663E-03         2.29143    -710.789E-03     50.1073E-03     117.234E-03    -58.4273E-03    -58.8197E-03    -58.3599E-03     117.167E-03    -58.8197E-03     6.75846E-03    -18.9512E+06    -48.7845E+06    -213.618E+06    -48.7894E+06    -213.613E+06    -18.9512E+06    -682.926E+03         30.9393
             404     5.65983E-03     52.7557E-03         2.29885    -705.526E-03    -721.729E-03    -705.025E-03         2.28832    -711.702E-03    -123.856E-03     117.447E-03    -58.6239E-03    -58.8391E-03    -58.5936E-03     117.416E-03    -58.8391E-03     4.50656E-03    -24.1482E+06    -53.5547E+06    -239.969E+06    -53.5578E+06    -239.966E+06    -24.1482E+06    -757.969E+03         30.4580
             405     4.71648E-03     52.7535E-03         2.32500    -708.891E-03    -741.582E-03    -717.205E-03         2.30349    -711.758E-03     50.8899E-03     117.391E-03    -58.5965E-03    -58.8096E-03    -58.5838E-03     117.379E-03    -58.8096E-03     2.91065E-03    -33.4222E+06    -58.5189E+06    -253.438E+06    -58.5228E+06    -253.434E+06    -33.4222E+06    -831.613E+03         30.0707
             406     3.77262E-03     52.7507E-03         2.34712    -713.101E-03    -754.560E-03    -698.255E-03         2.29082    -713.101E-03    -233.521E-03     117.376E-03    -58.6028E-03    -58.7843E-03    -58.6029E-03     117.372E-03    -58.7793E-03     1.72624E-03    -43.3721E+06    -63.3474E+06    -265.217E+06    -63.3515E+06    -265.213E+06    -43.3721E+06    -870.305E+03         29.7691
             407     2.82999E-03     52.7504E-03         2.45335    -722.272E-03    -848.220E-03    -678.476E-03         2.28361    -722.272E-03     390.709E-03     117.406E-03    -58.6464E-03    -58.7687E-03    -58.6822E-03     117.404E-03    -58.7318E-03     796.182E-06    -55.2458E+06    -67.9366E+06    -273.050E+06    -67.9401E+06    -273.047E+06    -55.2458E+06    -815.546E+03         29.5492
             408     1.88665E-03     52.7487E-03         2.79351    -738.811E-03        -1.17175    -701.857E-03         2.32361    -738.811E-03    -702.576E-03     117.391E-03    -58.4769E-03    -58.9210E-03    -58.7441E-03     117.391E-03    -58.6535E-03     447.920E-06    -65.8128E+06    -71.9360E+06    -279.842E+06    -71.9405E+06    -279.838E+06    -65.8128E+06    -553.529E+03         29.4014
             409     943.522E-06     52.7493E-03         3.71350     644.511E-03        -3.48621        -2.14134         2.36863     644.511E-03         2.38440     117.163E-03    -58.2833E-03    -58.8815E-03    -58.7271E-03     117.162E-03    -58.4366E-03     673.741E-06    -70.9016E+06    -73.1480E+06    -280.927E+06    -73.1607E+06    -280.915E+06    -70.9016E+06     856.700E+03         29.3114
             410     16.0457E-03     52.2690E-03         2.20536    -628.851E-03    -690.928E-03    -628.615E-03         2.20513    -690.928E-03    -27.2024E-03     150.671E-03    -58.8406E-03    -91.7960E-03    -58.9115E-03     117.786E-03    -58.8406E-03     163.371E-03     133.618E+06     130.950E+06    -8.38730E+06    -8.38484E+06     131.896E+06     132.670E+06     259.187E+03         58.7366
             411     15.0983E-03     52.0345E-03         2.22856    -642.201E-03    -696.669E-03    -641.981E-03         2.22834    -696.669E-03    -28.9738E-03     154.243E-03    -58.7491E-03    -95.4843E-03    -60.0336E-03     118.792E-03    -58.7491E-03     172.725E-03     113.640E+06     101.670E+06    -16.9420E+06    -16.9366E+06     111.915E+06     103.389E+06     552.931E+03         55.2075
             412     14.1549E-03     51.8778E-03         2.23742    -644.376E-03    -702.147E-03    -644.336E-03         2.23738    -702.147E-03     1.98662E-03     131.837E-03    -58.5651E-03    -73.3017E-03    -57.9081E-03     116.443E-03    -58.5651E-03     104.391E-03     100.602E+06     62.2388E+06    -23.6002E+06    -23.5899E+06     100.591E+06     62.2388E+06     779.491E+03         50.7452
             413     13.2108E-03     51.8017E-03         2.25653    -655.910E-03    -706.996E-03    -655.870E-03         2.25649    -706.996E-03    -10.0326E-03     120.410E-03    -58.4110E-03    -62.0464E-03    -56.8395E-03     115.203E-03    -58.4110E-03     59.9331E-03     93.9297E+06     28.0899E+06    -28.5594E+06    -28.5417E+06     93.9120E+06     28.0899E+06    -29.3639E+03         46.0853
             414     12.2662E-03     51.7463E-03         2.27243    -668.065E-03    -711.118E-03    -668.026E-03         2.27239    -711.118E-03     60.8824E-06     117.570E-03    -58.2155E-03    -59.3952E-03    -56.8842E-03     115.188E-03    -58.3445E-03     39.6136E-03     66.5121E+06     2.26042E+06    -30.5823E+06    -30.5683E+06     66.4981E+06     2.26042E+06    -437.299E+03         41.9023
             415     11.3223E-03     51.7175E-03         2.27760    -671.275E-03    -715.007E-03    -671.055E-03         2.27738    -715.007E-03    -27.1097E-03     116.595E-03    -58.1723E-03    -58.4436E-03    -57.2006E-03     115.573E-03    -58.3934E-03     26.4214E-03     15.4160E+06    -21.3659E+06    -33.3101E+06    -31.4674E+06     3.31550E+06    -11.1082E+06     701.536E+03         38.4104
             416     10.3768E-03     51.6910E-03         2.29449    -685.704E-03    -718.645E-03    -685.412E-03         2.29419    -718.645E-03    -8.41532E-03     117.057E-03    -58.3820E-03    -58.6866E-03    -57.8879E-03     116.383E-03    -58.5070E-03     21.6381E-03    -10.5826E+06    -33.8679E+06    -61.4261E+06    -34.4009E+06    -60.8931E+06    -10.5826E+06     972.088E+03         35.6428
             417     9.43467E-03     51.6716E-03         2.31759    -703.720E-03    -726.237E-03    -707.997E-03         2.31668    -721.055E-03    -44.5790E-03     116.893E-03    -58.1742E-03    -58.7228E-03    -57.8837E-03     116.473E-03    -58.5935E-03     16.7899E-03    -10.7852E+06    -37.6619E+06    -107.873E+06    -37.6735E+06    -107.861E+06    -10.7852E+06     678.667E+03         33.6407
             418     8.49037E-03     51.6567E-03         2.32606    -710.511E-03    -728.108E-03    -715.069E-03         2.32479    -722.280E-03    -16.0557E-03     116.728E-03    -58.0483E-03    -58.6802E-03    -57.8410E-03     116.521E-03    -58.6802E-03     11.9156E-03    -12.5050E+06    -40.4050E+06    -146.062E+06    -40.4087E+06    -146.059E+06    -12.5050E+06     147.809E+03         32.3530
             419     7.54628E-03     51.6475E-03         2.32449    -707.684E-03    -727.372E-03    -710.452E-03         2.32351    -723.622E-03    -1.61484E-03     117.120E-03    -58.3658E-03    -58.7640E-03    -58.2598E-03     116.998E-03    -58.7480E-03     9.14641E-03    -15.7317E+06    -43.9537E+06    -177.286E+06    -43.9556E+06    -177.284E+06    -15.7317E+06    -77.0353E+03         31.5374
             420     6.60320E-03     51.6379E-03         2.32990    -710.243E-03    -728.796E-03    -709.757E-03         2.32631    -725.693E-03     80.1987E-03     117.186E-03    -58.3710E-03    -58.8285E-03    -58.3239E-03     117.123E-03    -58.8126E-03     6.48765E-03    -18.6343E+06    -48.6479E+06    -213.596E+06    -48.6485E+06    -213.596E+06    -18.6343E+06    -130.659E+03         30.9365
             421     5.65922E-03     51.6332E-03         2.33863    -719.770E-03    -728.545E-03    -709.124E-03         2.32799    -728.545E-03    -79.6658E-03     117.247E-03    -58.4074E-03    -58.8514E-03    -58.3790E-03     117.218E-03    -58.8514E-03     4.40652E-03    -24.1782E+06    -53.3928E+06    -240.425E+06    -53.3970E+06    -240.421E+06    -24.1782E+06    -693.585E+03         30.4531
             422     4.71595E-03     51.6292E-03         2.36690    -727.470E-03    -747.909E-03    -719.924E-03         2.34282    -731.379E-03     106.030E-03     117.534E-03    -58.6668E-03    -58.8802E-03    -58.7045E-03     117.521E-03    -58.8301E-03     2.78991E-03    -33.5071E+06    -57.7963E+06    -253.899E+06    -57.8042E+06    -253.891E+06    -33.5071E+06    -1.22472E+06         30.0703
             423     3.77348E-03     51.6279E-03         2.42993    -731.992E-03    -800.952E-03    -736.596E-03         2.36558    -731.992E-03    -233.205E-03     117.557E-03    -58.7429E-03    -58.8256E-03    -58.7979E-03     117.553E-03    -58.7670E-03     1.51351E-03    -43.1235E+06    -62.4212E+06    -265.793E+06    -62.4279E+06    -265.786E+06    -43.1235E+06    -1.14498E+06         29.7724
             424     2.82983E-03     51.6261E-03         2.55828    -729.548E-03    -926.574E-03    -740.879E-03         2.37259    -729.548E-03     412.721E-03     117.330E-03    -58.5935E-03    -58.7460E-03    -58.6328E-03     117.329E-03    -58.7054E-03     797.843E-06    -53.4283E+06    -66.9464E+06    -273.423E+06    -66.9496E+06    -273.419E+06    -53.4283E+06    -771.857E+03         29.5492
             425     1.88687E-03     51.6266E-03         2.87318    -725.118E-03        -1.25043    -735.277E-03         2.35803    -725.118E-03    -731.753E-03     117.164E-03    -58.4206E-03    -58.7504E-03    -58.4521E-03     117.164E-03    -58.7183E-03     546.458E-06    -63.8633E+06    -71.1054E+06    -279.806E+06    -71.1086E+06    -279.803E+06    -63.8633E+06    -463.346E+03         29.3979
             426     942.427E-06     51.6258E-03         3.79765     695.000E-03        -3.60168        -2.14060         2.33657     695.000E-03         2.47787     117.446E-03    -58.5262E-03    -58.9215E-03    -58.7353E-03     117.445E-03    -58.7119E-03     281.731E-06    -72.0086E+06    -74.8765E+06    -283.528E+06    -74.8911E+06    -283.513E+06    -72.0086E+06    -461.070E+03         29.3130
             427     16.0406E-03     51.1450E-03         2.23570    -633.503E-03    -703.304E-03    -633.314E-03         2.23551    -703.304E-03    -16.4252E-03     151.258E-03    -58.7860E-03    -92.4158E-03    -59.4869E-03     118.329E-03    -58.7860E-03     163.659E-03     133.508E+06     131.339E+06    -8.41478E+06    -8.41258E+06     131.966E+06     132.879E+06     376.255E+03         58.6882
             428     15.1001E-03     50.9083E-03         2.25348    -642.761E-03    -709.538E-03    -642.610E-03         2.25332    -709.538E-03    -20.5389E-03     153.473E-03    -58.7141E-03    -94.7361E-03    -59.2753E-03     118.012E-03    -58.7141E-03     172.088E-03     114.053E+06     104.684E+06    -15.1403E+06    -15.1365E+06     112.509E+06     106.224E+06     605.962E+03         55.1779
             429     14.1551E-03     50.7564E-03         2.27870    -657.756E-03    -715.326E-03    -657.739E-03         2.27868    -715.326E-03     12.7728E-03     131.311E-03    -58.5789E-03    -72.7552E-03    -57.1979E-03     115.753E-03    -58.5789E-03     105.054E-03     101.098E+06     65.9529E+06    -21.4794E+06    -21.4738E+06     101.092E+06     65.9529E+06     763.301E+03         50.7289
             430     13.2097E-03     50.6770E-03         2.30062    -673.454E-03    -719.964E-03    -673.432E-03         2.30060    -719.964E-03     5.79372E-03     120.260E-03    -58.4374E-03    -61.8709E-03    -56.3997E-03     114.789E-03    -58.4374E-03     61.0865E-03     94.3857E+06     26.7007E+06    -26.1586E+06    -26.1452E+06     94.3723E+06     26.7007E+06    -273.413E+03         46.0739
             431     12.2648E-03     50.6251E-03         2.31423    -685.312E-03    -723.722E-03    -685.265E-03         2.31419    -723.722E-03     6.71368E-03     117.665E-03    -58.3588E-03    -59.3518E-03    -56.9039E-03     115.248E-03    -58.3897E-03     40.1194E-03     63.8537E+06    -1.32825E+06    -30.4767E+06    -30.4620E+06     63.8390E+06    -1.32825E+06    -472.299E+03         41.8928
             432     11.3200E-03     50.5925E-03         2.31587    -684.860E-03    -727.384E-03    -684.578E-03         2.31558    -727.384E-03    -32.3528E-03     117.128E-03    -58.4067E-03    -58.7394E-03    -57.6500E-03     116.069E-03    -58.4377E-03     26.7785E-03     12.7015E+06    -21.9107E+06    -34.7610E+06    -33.9098E+06     2.05028E+06    -12.1108E+06     1.23150E+06         38.4044
             433     10.3782E-03     50.5686E-03         2.32564    -693.328E-03    -731.185E-03    -692.770E-03         2.32508    -731.185E-03     824.143E-06     116.886E-03    -58.2429E-03    -58.6560E-03    -57.7035E-03     116.233E-03    -58.5424E-03     21.2764E-03    -10.8783E+06    -33.6316E+06    -62.1477E+06    -35.5547E+06    -60.2245E+06    -10.8783E+06     1.50806E+06         35.6405
             434     9.43296E-03     50.5471E-03         2.35167    -714.213E-03    -739.102E-03    -718.303E-03         2.35057    -733.920E-03    -29.6522E-03     116.906E-03    -58.1887E-03    -58.7254E-03    -57.8420E-03     116.482E-03    -58.6483E-03     16.8064E-03    -10.4299E+06    -37.6265E+06    -108.103E+06    -37.6374E+06    -108.092E+06    -10.4299E+06     630.854E+03         33.6444
             435     8.48946E-03     50.5351E-03         2.35946    -721.044E-03    -740.659E-03    -724.644E-03         2.35788    -735.476E-03    -970.919E-06     117.243E-03    -58.4537E-03    -58.7944E-03    -58.3293E-03     117.041E-03    -58.7173E-03     11.7641E-03    -11.3061E+06    -40.6754E+06    -145.391E+06    -40.6769E+06    -145.389E+06    -11.3061E+06     265.044E+03         32.3629
             436     7.54654E-03     50.5222E-03         2.34869    -709.778E-03    -738.085E-03    -708.306E-03         2.34722    -738.085E-03     6.10048E-03     117.228E-03    -58.4707E-03    -58.7684E-03    -58.3694E-03     117.111E-03    -58.7525E-03     8.97683E-03    -14.4685E+06    -44.3669E+06    -177.157E+06    -44.3680E+06    -177.156E+06    -14.4685E+06     204.278E+03         31.5457
             437     6.60350E-03     50.5154E-03         2.35816    -713.969E-03    -742.380E-03    -709.876E-03         2.35407    -742.380E-03     82.6948E-03     117.234E-03    -58.4069E-03    -58.8396E-03    -58.3811E-03     117.173E-03    -58.8046E-03     6.38660E-03    -17.2383E+06    -48.0640E+06    -213.358E+06    -48.0667E+06    -213.355E+06    -17.2383E+06    -179.403E+03         30.9399
             438     5.65969E-03     50.5100E-03         2.39095    -736.434E-03    -752.380E-03    -729.765E-03         2.37805    -746.144E-03    -98.5687E-03     117.256E-03    -58.4175E-03    -58.8510E-03    -58.4089E-03     117.229E-03    -58.8319E-03     4.35692E-03    -23.0101E+06    -52.4232E+06    -239.894E+06    -52.4280E+06    -239.889E+06    -23.0101E+06    -653.283E+03         30.4523
             439     4.71627E-03     50.5055E-03         2.42068    -747.338E-03    -768.034E-03    -740.146E-03         2.39384    -748.380E-03     88.5480E-03     117.374E-03    -58.5161E-03    -58.8700E-03    -58.5541E-03     117.362E-03    -58.8199E-03     2.75231E-03    -32.6317E+06    -57.5365E+06    -254.044E+06    -57.5453E+06    -254.036E+06    -32.6317E+06    -1.14340E+06         30.0665
             440     3.77296E-03     50.5040E-03         2.48211    -747.966E-03    -827.370E-03    -758.042E-03         2.41279    -747.966E-03    -254.295E-03     117.455E-03    -58.6279E-03    -58.8387E-03    -58.6777E-03     117.452E-03    -58.7850E-03     1.61452E-03    -42.9167E+06    -62.5536E+06    -266.707E+06    -62.5617E+06    -266.699E+06    -42.9167E+06    -1.22788E+06         29.7701
             441     2.83021E-03     50.5034E-03         2.62728    -740.281E-03    -978.596E-03    -778.891E-03         2.42758    -740.281E-03     431.495E-03     117.362E-03    -58.5840E-03    -58.7873E-03    -58.6256E-03     117.361E-03    -58.7442E-03     858.035E-06    -53.8700E+06    -67.1446E+06    -274.134E+06    -67.1493E+06    -274.129E+06    -53.8700E+06    -939.721E+03         29.5512
             442     1.88594E-03     50.5035E-03         2.93269    -728.114E-03        -1.29744    -751.063E-03         2.38631    -728.114E-03    -737.007E-03     117.331E-03    -58.5649E-03    -58.7727E-03    -58.6041E-03     117.331E-03    -58.7332E-03     369.597E-06    -63.6972E+06    -71.2997E+06    -280.244E+06    -71.3027E+06    -280.241E+06    -63.6972E+06    -389.512E+03         29.4024
             443     943.837E-06     50.5023E-03         3.91105     679.098E-03        -3.68189        -2.12419         2.35336     679.098E-03         2.60752     117.407E-03    -58.5532E-03    -58.8559E-03    -58.7967E-03     117.404E-03    -58.6096E-03     780.122E-06    -72.3347E+06    -75.3972E+06    -285.175E+06    -75.2040E+06    -285.165E+06    -72.5375E+06    -688.549E+03         29.3176
             444     16.0494E-03     50.0230E-03         2.26922    -640.271E-03    -715.183E-03    -640.100E-03         2.26905    -715.183E-03    -11.6655E-03     151.767E-03    -58.7706E-03    -92.9228E-03    -59.3825E-03     118.227E-03    -58.7706E-03     165.034E-03     133.482E+06     131.180E+06    -7.43028E+06    -7.42747E+06     131.543E+06     133.116E+06     175.490E+03         58.6422
             445     15.1003E-03     49.7854E-03         2.28724    -650.768E-03    -721.598E-03    -650.606E-03         2.28708    -721.598E-03    -12.0579E-03     153.841E-03    -58.7138E-03    -95.0940E-03    -58.9444E-03     117.691E-03    -58.7138E-03     173.589E-03     113.896E+06     103.727E+06    -15.0729E+06    -15.0722E+06     111.959E+06     105.663E+06     250.142E+03         55.1489
             446     14.1536E-03     49.6350E-03         2.31319    -669.427E-03    -727.340E-03    -669.384E-03         2.31314    -727.340E-03     15.8510E-03     131.155E-03    -58.6029E-03    -72.5697E-03    -57.0439E-03     115.629E-03    -58.6029E-03     104.816E-03     101.536E+06     66.8249E+06    -20.2664E+06    -20.2632E+06     101.533E+06     66.8249E+06     156.423E+03         50.7133
             447     13.2085E-03     49.5527E-03         2.33034    -678.891E-03    -732.097E-03    -678.882E-03         2.33034    -732.097E-03     7.71227E-03     120.117E-03    -58.4770E-03    -61.6826E-03    -56.3231E-03     114.758E-03    -58.4770E-03     60.3362E-03     93.4200E+06     27.0676E+06    -25.8243E+06    -25.7975E+06     93.3932E+06     27.0676E+06     805.283E+03         46.0642
             448     12.2639E-03     49.5034E-03         2.34542    -692.278E-03    -736.276E-03    -692.229E-03         2.34538    -736.276E-03     21.2603E-03     118.035E-03    -58.4182E-03    -59.6636E-03    -57.3482E-03     115.720E-03    -58.4182E-03     39.3129E-03     62.4438E+06    -707.902E+03    -30.8758E+06    -30.8295E+06     62.3974E+06    -707.902E+03     1.56003E+06         41.8862
             449     11.3216E-03     49.4661E-03         2.36484    -711.554E-03    -739.547E-03    -711.218E-03         2.36450    -739.547E-03    -27.5584E-03     117.106E-03    -58.1693E-03    -58.9574E-03    -57.7117E-03     116.140E-03    -58.4489E-03     25.4923E-03     13.3026E+06    -20.8876E+06    -33.9057E+06    -33.5597E+06     2.04397E+06    -9.97500E+06     1.06874E+06         38.4008
             450     10.3767E-03     49.4466E-03         2.36457    -710.695E-03    -742.467E-03    -710.023E-03         2.36390    -742.467E-03     3.87718E-03     116.668E-03    -58.0106E-03    -58.6684E-03    -57.5386E-03     116.084E-03    -58.5570E-03     20.1249E-03    -8.88589E+06    -34.1194E+06    -61.2512E+06    -35.7068E+06    -59.6638E+06    -8.88589E+06     528.385E+03         35.6391
             451     9.43266E-03     49.4242E-03         2.35847    -703.308E-03    -746.347E-03    -702.390E-03         2.35755    -746.347E-03    -10.9750E-03     116.965E-03    -58.1836E-03    -58.7888E-03    -57.9007E-03     116.557E-03    -58.6636E-03     16.5027E-03     -9.1729E+06    -38.1882E+06    -107.737E+06    -38.1924E+06    -107.732E+06     -9.1729E+06     400.887E+03         33.6460
             452     8.49043E-03     49.4091E-03         2.38334    -723.155E-03    -750.316E-03    -721.657E-03         2.38185    -750.316E-03     19.3616E-03     117.229E-03    -58.4321E-03    -58.8048E-03    -58.3146E-03     117.034E-03    -58.7277E-03     11.5549E-03    -11.0355E+06    -41.4612E+06    -145.613E+06    -41.4625E+06    -145.612E+06    -11.0355E+06     202.969E+03         32.3675
             453     7.54700E-03     49.4004E-03         2.40854    -738.610E-03    -760.187E-03    -744.072E-03         2.40640    -752.580E-03    -9.50358E-03     117.198E-03    -58.4406E-03    -58.7681E-03    -58.3218E-03     117.079E-03    -58.7681E-03     9.09159E-03    -13.7612E+06    -44.0664E+06    -176.845E+06    -44.0698E+06    -176.841E+06    -13.7612E+06    -71.2618E+03         31.5515
             454     6.60242E-03     49.3912E-03         2.41427    -739.043E-03    -765.036E-03    -745.927E-03         2.40987    -753.757E-03     55.5903E-03     117.344E-03    -58.5199E-03    -58.8345E-03    -58.4714E-03     117.277E-03    -58.8154E-03     6.70830E-03    -16.8065E+06    -47.4408E+06    -212.918E+06    -47.4463E+06    -212.913E+06    -16.8065E+06    -337.432E+03         30.9448
             455     5.66020E-03     49.3865E-03         2.42960    -749.356E-03    -769.430E-03    -748.191E-03         2.41391    -754.909E-03    -140.019E-03     117.438E-03    -58.6119E-03    -58.8402E-03    -58.6020E-03     117.409E-03    -58.8211E-03     4.46445E-03    -22.6134E+06    -52.4750E+06    -239.659E+06    -52.4780E+06    -239.656E+06    -22.6134E+06    -368.609E+03         30.4540
             456     4.71651E-03     49.3827E-03         2.45426    -754.970E-03    -790.497E-03    -760.052E-03         2.42381    -754.970E-03     58.5727E-03     117.158E-03    -58.3616E-03    -58.8094E-03    -58.3480E-03     117.145E-03    -58.8094E-03     2.98989E-03    -32.9510E+06    -57.9151E+06    -254.711E+06    -57.9210E+06    -254.705E+06    -32.9510E+06    -899.174E+03         30.0629
             457     3.77282E-03     49.3805E-03         2.49757    -754.002E-03    -833.285E-03    -757.708E-03         2.42199    -754.002E-03    -273.349E-03     117.247E-03    -58.4214E-03    -58.8347E-03    -58.4170E-03     117.242E-03    -58.8347E-03     1.65566E-03    -42.9570E+06    -62.9144E+06    -267.586E+06    -62.9231E+06    -267.577E+06    -42.9570E+06    -1.26993E+06         29.7664
             458     2.82903E-03     49.3802E-03         2.62963    -754.352E-03    -962.496E-03    -749.489E-03         2.41663    -754.352E-03     426.118E-03     117.524E-03    -58.6578E-03    -58.8735E-03    -58.6960E-03     117.523E-03    -58.8341E-03     884.736E-06    -54.1504E+06    -67.6338E+06    -274.824E+06    -67.6398E+06    -274.818E+06    -54.1504E+06    -717.978E+03         29.5552
             459     1.88725E-03     49.3794E-03         2.99533    -755.788E-03        -1.32924    -753.311E-03         2.41940    -755.788E-03    -797.470E-03     117.571E-03    -58.7162E-03    -58.8591E-03    -58.7824E-03     117.570E-03    -58.7920E-03     656.323E-06    -65.2518E+06    -71.4909E+06    -281.815E+06    -71.4959E+06    -281.810E+06    -65.2518E+06    -577.610E+03         29.4133
             460     942.697E-06     49.3803E-03         4.06699     623.503E-03        -3.77895        -2.13671         2.42475     623.503E-03         2.69036     117.489E-03    -58.6630E-03    -58.8270E-03    -58.7997E-03     117.486E-03    -58.6870E-03     1.21063E-03    -71.3719E+06    -73.9437E+06    -284.577E+06    -72.9270E+06    -284.572E+06    -72.3936E+06    -162.024E+03         29.3271
             461     16.0393E-03     48.8972E-03         2.30359    -650.064E-03    -725.902E-03    -649.828E-03         2.30335    -725.902E-03    -29.8214E-03     151.024E-03    -58.7982E-03    -92.1693E-03    -58.9555E-03     117.810E-03    -58.7982E-03     163.789E-03     133.039E+06     130.743E+06    -7.77691E+06    -7.76886E+06     131.011E+06     132.762E+06    -315.244E+03         58.5990
             462     15.0969E-03     48.6630E-03         2.32274    -666.378E-03    -731.751E-03    -666.098E-03         2.32246    -731.751E-03    -32.0621E-03     153.738E-03    -58.7378E-03    -94.9731E-03    -59.1198E-03     117.885E-03    -58.7378E-03     172.872E-03     112.919E+06     101.621E+06    -16.2089E+06    -16.1918E+06     110.882E+06     103.641E+06    -954.536E+03         55.1227
             463     14.1552E-03     48.5088E-03         2.33346    -670.218E-03    -737.270E-03    -670.166E-03         2.33341    -737.270E-03     4.29303E-03     131.374E-03    -58.5954E-03    -72.8016E-03    -57.5578E-03     116.130E-03    -58.5954E-03     103.816E-03     99.7987E+06     63.4122E+06    -22.0589E+06    -22.0323E+06     99.7722E+06     63.4122E+06    -122.982E+03         50.7023
             464     13.2095E-03     48.4345E-03         2.34904    -679.191E-03    -742.493E-03    -679.180E-03         2.34903    -742.493E-03    -4.60040E-03     120.535E-03    -58.4493E-03    -62.1316E-03    -56.8812E-03     115.285E-03    -58.4493E-03     60.1487E-03     92.0998E+06     27.2657E+06    -27.4292E+06    -27.3824E+06     92.0530E+06     27.2657E+06     1.80938E+06         46.0610
             465     12.2657E-03     48.3743E-03         2.37216    -699.564E-03    -747.037E-03    -699.513E-03         2.37210    -747.037E-03     10.8742E-03     117.853E-03    -58.1337E-03    -59.7642E-03    -57.1872E-03     115.522E-03    -58.3798E-03     39.1546E-03     64.3084E+06     2.30102E+06    -30.7825E+06    -30.7269E+06     64.2528E+06     2.30102E+06     2.20557E+06         41.8847
             466     11.3218E-03     48.3464E-03         2.39500    -720.931E-03    -750.407E-03    -720.505E-03         2.39457    -750.407E-03    -33.4806E-03     116.524E-03    -57.8641E-03    -58.6812E-03    -57.1795E-03     115.583E-03    -58.4243E-03     25.3069E-03     15.2605E+06     -20.411E+06    -32.8473E+06    -32.4484E+06     3.47191E+06    -9.02125E+06     940.441E+03         38.3988
             467     10.3773E-03     48.3214E-03         2.39960    -725.846E-03    -753.132E-03    -725.346E-03         2.39910    -753.132E-03    -25.5409E-03     116.808E-03    -58.2225E-03    -58.5966E-03    -57.6504E-03     116.188E-03    -58.5485E-03     20.7355E-03    -8.48938E+06    -33.9719E+06    -60.6614E+06    -34.5316E+06    -60.1017E+06    -8.48938E+06     254.444E+03         35.6372
             468     9.43486E-03     48.3014E-03         2.39500    -718.859E-03    -756.487E-03    -718.007E-03         2.39415    -756.487E-03    -43.6689E-03     116.973E-03    -58.2804E-03    -58.6971E-03    -57.9115E-03     116.556E-03    -58.6491E-03     16.7776E-03    -8.18194E+06    -36.7044E+06    -107.356E+06    -36.7076E+06    -107.353E+06    -8.18194E+06     330.107E+03         33.6435
             469     8.48896E-03     48.2860E-03         2.41297    -730.858E-03    -760.209E-03    -729.592E-03         2.41170    -760.209E-03    -10.3907E-03     116.856E-03    -58.1257E-03    -58.7322E-03    -57.9192E-03     116.650E-03    -58.7322E-03     11.8613E-03    -10.5134E+06    -39.3031E+06    -145.408E+06    -39.3122E+06    -145.399E+06    -10.5134E+06    -221.396E+03         32.3639
             470     7.54567E-03     48.2763E-03         2.44246    -749.607E-03    -770.027E-03    -755.073E-03         2.44032    -762.421E-03    -44.9803E-03     117.298E-03    -58.4775E-03    -58.8265E-03    -58.3942E-03     117.182E-03    -58.7943E-03     8.92982E-03    -13.8896E+06    -43.3433E+06    -177.750E+06    -43.3547E+06    -177.738E+06    -13.8896E+06    -470.398E+03         31.5508
             471     6.60351E-03     48.2680E-03         2.45905    -759.171E-03    -777.762E-03    -768.304E-03         2.45294    -762.518E-03     68.1515E-03     117.407E-03    -58.5438E-03    -58.8729E-03    -58.5112E-03     117.342E-03    -58.8406E-03     6.61916E-03    -16.2631E+06    -47.6224E+06    -212.829E+06    -47.6270E+06    -212.824E+06    -16.2631E+06    -133.632E+03         30.9467
             472     5.65922E-03     48.2625E-03         2.46072    -762.077E-03    -779.382E-03    -763.018E-03         2.44435    -762.077E-03    -105.715E-03     117.314E-03    -58.4663E-03    -58.8615E-03    -58.4359E-03     117.284E-03    -58.8615E-03     4.53425E-03    -21.9622E+06    -52.2107E+06    -239.553E+06    -52.2125E+06    -239.551E+06    -21.9622E+06    -327.442E+03         30.4556
             473     4.71642E-03     48.2599E-03         2.47236    -762.250E-03    -795.838E-03    -760.111E-03         2.43663    -762.250E-03     116.388E-03     117.354E-03    -58.5089E-03    -58.8588E-03    -58.4944E-03     117.339E-03    -58.8588E-03     3.14317E-03    -31.8656E+06    -57.5184E+06    -254.511E+06    -57.5214E+06    -254.508E+06    -31.8656E+06    -407.625E+03         30.0650
             474     3.77259E-03     48.2577E-03         2.51651    -764.017E-03    -837.219E-03    -751.796E-03         2.43108    -764.017E-03    -244.359E-03     117.329E-03    -58.4725E-03    -58.8669E-03    -58.4670E-03     117.323E-03    -58.8669E-03     1.79210E-03    -43.2997E+06    -62.8556E+06    -268.126E+06    -62.8627E+06    -268.119E+06    -43.2997E+06    -830.552E+03         29.7693
             475     2.82975E-03     48.2561E-03         2.67009    -768.848E-03    -983.480E-03    -749.137E-03         2.43575    -768.848E-03     470.927E-03     117.425E-03    -58.5304E-03    -58.9016E-03    -58.5293E-03     117.424E-03    -58.9016E-03     847.823E-06    -55.4268E+06    -67.5662E+06    -276.305E+06    -67.5778E+06    -276.293E+06    -55.4268E+06    -1.11784E+06         29.5606
             476     1.88508E-03     48.2567E-03         3.07980    -776.567E-03        -1.38662    -758.876E-03         2.45205    -776.567E-03    -830.466E-03     117.758E-03    -58.7642E-03    -58.9988E-03    -58.8365E-03     117.757E-03    -58.9256E-03     706.803E-06    -64.9693E+06    -70.9714E+06    -281.949E+06    -70.9820E+06    -281.938E+06    -64.9693E+06    -483.617E+03         29.4228
             477     943.634E-06     48.2554E-03         4.25133     523.431E-03        -3.85955        -2.08639         2.47816     523.431E-03         2.80891     117.792E-03    -58.7418E-03    -59.0525E-03    -59.0516E-03     117.791E-03    -58.7418E-03     678.228E-06    -71.1116E+06    -73.9409E+06    -285.361E+06    -73.1309E+06    -285.352E+06    -71.9306E+06     646.523E+03         29.3378
             478     16.0479E-03     47.7776E-03         2.33773    -665.532E-03    -734.901E-03    -665.354E-03         2.33755    -734.901E-03    -24.7441E-03     150.414E-03    -58.7784E-03    -91.6111E-03    -59.1897E-03     117.993E-03    -58.7784E-03     161.542E-03     133.819E+06     131.674E+06    -7.54669E+06    -7.53332E+06     131.662E+06     133.818E+06    -800.934E+03         58.5632
             479     15.1012E-03     47.5380E-03         2.35266    -677.519E-03    -740.322E-03    -677.332E-03         2.35247    -740.322E-03    -33.6370E-03     152.900E-03    -58.7174E-03    -94.1634E-03    -58.5398E-03     117.277E-03    -58.7174E-03     172.000E-03     112.797E+06     101.409E+06    -16.1288E+06    -16.1028E+06     111.089E+06     103.092E+06    -718.947E+03         55.1035
             480     14.1526E-03     47.3879E-03         2.36159    -680.241E-03    -745.625E-03    -680.203E-03         2.36155    -745.625E-03     3.17640E-03     131.633E-03    -58.5860E-03    -73.0619E-03    -57.4926E-03     116.064E-03    -58.5860E-03     104.828E-03     97.2752E+06     60.7976E+06    -24.3728E+06    -24.3338E+06     97.2361E+06     60.7976E+06     116.608E+03         50.6952
             481     13.2108E-03     47.3065E-03         2.37808    -692.087E-03    -750.533E-03    -692.033E-03         2.37803    -750.533E-03    -6.18067E-03     121.030E-03    -58.4366E-03    -62.6357E-03    -57.2413E-03     115.636E-03    -58.4366E-03     61.1921E-03     91.4836E+06     27.4278E+06    -28.4278E+06    -28.3935E+06     91.4494E+06     27.4278E+06     1.16309E+06         46.0588
             482     12.2667E-03     47.2546E-03         2.39480    -706.540E-03    -754.821E-03    -706.467E-03         2.39473    -754.821E-03     2.41363E-03     117.535E-03    -58.1173E-03    -59.4537E-03    -56.7420E-03     115.076E-03    -58.3696E-03     40.2570E-03     65.2022E+06     2.18072E+06    -30.1968E+06    -30.1706E+06     65.1761E+06     2.18072E+06     1.56988E+06         41.8821
             483     11.3204E-03     47.2212E-03         2.40507    -713.248E-03    -758.819E-03    -712.712E-03         2.40453    -758.819E-03    -39.4828E-03     116.464E-03    -58.0467E-03    -58.4350E-03    -57.0299E-03     115.447E-03    -58.4350E-03     26.2163E-03     15.4370E+06    -21.3269E+06    -32.2516E+06    -31.8252E+06     3.98419E+06    -10.3004E+06     1.07772E+06         38.3952
             484     10.3772E-03     47.1991E-03         2.42842    -734.485E-03    -762.199E-03    -733.852E-03         2.42779    -762.199E-03    -29.5827E-03     116.901E-03    -58.3345E-03    -58.5731E-03    -57.6714E-03     116.238E-03    -58.5731E-03     21.4980E-03    -8.48381E+06    -33.0363E+06    -60.0700E+06    -33.5557E+06    -59.5506E+06    -8.48381E+06     739.709E+03         35.6336
             485     9.43227E-03     47.1764E-03         2.45148    -755.486E-03    -765.514E-03    -756.044E-03         2.45056    -764.028E-03    -44.8029E-03     117.147E-03    -58.4258E-03    -58.7239E-03    -58.0423E-03     116.712E-03    -58.6717E-03     17.0495E-03    -8.32381E+06    -36.5626E+06    -107.106E+06    -36.5721E+06    -107.096E+06    -8.32381E+06     238.540E+03         33.6404
             486     8.49055E-03     47.1645E-03         2.44590    -746.349E-03    -767.096E-03    -745.995E-03         2.44406    -765.610E-03     4.78604E-03     117.141E-03    -58.3535E-03    -58.7892E-03    -58.2070E-03     116.942E-03    -58.7369E-03     11.6948E-03    -10.1271E+06    -39.7933E+06    -144.818E+06    -39.8109E+06    -144.801E+06    -10.1271E+06    -102.975E+03         32.3600
             487     7.54632E-03     47.1514E-03         2.44319    -740.907E-03    -768.651E-03    -738.384E-03         2.44067    -768.651E-03    -20.6829E-03     117.129E-03    -58.3106E-03    -58.8253E-03    -58.2301E-03     117.017E-03    -58.7930E-03     8.78690E-03    -13.4257E+06    -43.3118E+06    -177.868E+06    -43.3294E+06    -177.850E+06    -13.4257E+06    -159.205E+03         31.5451
             488     6.60263E-03     47.1449E-03         2.46249    -753.074E-03    -776.066E-03    -751.009E-03         2.45646    -772.101E-03     74.8427E-03     117.263E-03    -58.3795E-03    -58.8954E-03    -58.3524E-03     117.204E-03    -58.8631E-03     6.33833E-03    -15.9292E+06    -47.6715E+06    -213.932E+06    -47.6760E+06    -213.927E+06    -15.9292E+06    -331.317E+03         30.9435
             489     5.65944E-03     47.1395E-03         2.48261    -766.162E-03    -784.006E-03    -759.071E-03         2.46650    -774.986E-03    -102.631E-03     117.273E-03    -58.3781E-03    -58.9088E-03    -58.3496E-03     117.244E-03    -58.9088E-03     4.37589E-03    -21.2232E+06    -52.2336E+06    -239.946E+06    -52.2346E+06    -239.945E+06    -21.2232E+06    -402.711E+03         30.4571
             490     4.71529E-03     47.1361E-03         2.50521    -776.448E-03    -800.309E-03    -760.465E-03         2.46705    -778.129E-03     143.828E-03     117.409E-03    -58.5003E-03    -58.9227E-03    -58.4867E-03     117.395E-03    -58.9227E-03     3.05576E-03    -31.1713E+06    -57.3219E+06    -254.070E+06    -57.3231E+06    -254.069E+06    -31.1713E+06    -131.015E+03         30.0701
             491     3.77308E-03     47.1337E-03         2.56356    -781.887E-03    -857.510E-03    -766.252E-03         2.47230    -781.887E-03    -243.471E-03     117.548E-03    -58.6370E-03    -58.9219E-03    -58.6313E-03     117.542E-03    -58.9219E-03     1.89658E-03    -43.0736E+06    -62.7722E+06    -267.852E+06    -62.7750E+06    -267.850E+06    -43.0736E+06    -325.628E+03         29.7775
             492     2.82881E-03     47.1339E-03         2.74379    -783.503E-03        -1.03330    -785.639E-03         2.49613    -783.503E-03     499.386E-03     117.638E-03    -58.6447E-03    -59.0030E-03    -58.7403E-03     117.636E-03    -58.9059E-03     954.725E-06    -56.2359E+06    -67.9474E+06    -277.033E+06    -67.9558E+06    -277.025E+06    -56.2359E+06    -821.091E+03         29.5686
             493     1.88670E-03     47.1319E-03         3.16815    -783.435E-03        -1.46083    -782.313E-03         2.48963    -783.435E-03    -884.681E-03     117.733E-03    -58.7146E-03    -59.0263E-03    -58.8569E-03     117.733E-03    -58.8836E-03     311.514E-06    -65.1564E+06    -71.9124E+06    -282.675E+06    -71.9249E+06    -282.663E+06    -65.1564E+06    -653.192E+03         29.4268
             494     942.588E-06     47.1320E-03         4.42936     423.511E-03        -3.92256        -1.99167         2.49847     423.511E-03         2.92876     117.669E-03    -58.5853E-03    -59.0886E-03    -59.0290E-03     117.669E-03    -58.6448E-03     197.891E-06    -70.8858E+06    -74.8702E+06    -286.182E+06    -74.8790E+06    -286.173E+06    -70.8858E+06     172.531E+03         29.3389
             495     16.0428E-03     46.6477E-03         2.35880    -669.632E-03    -743.028E-03    -669.526E-03         2.35869    -743.028E-03    -17.6944E-03     150.920E-03    -58.8126E-03    -92.0832E-03    -58.7079E-03     117.545E-03    -58.8126E-03     164.309E-03     132.411E+06     130.970E+06    -9.27948E+06    -9.25369E+06     131.023E+06     132.333E+06    -535.544E+03         58.5277
             496     15.0984E-03     46.4210E-03         2.37611    -683.808E-03    -748.576E-03    -683.708E-03         2.37601    -748.576E-03    -21.0196E-03     154.350E-03    -58.7656E-03    -95.5444E-03    -59.1079E-03     117.914E-03    -58.7656E-03     174.826E-03     111.684E+06     101.556E+06    -17.8577E+06    -17.8331E+06     110.757E+06     102.458E+06     1.26697E+06         55.0826
             497     14.1545E-03     46.2617E-03         2.39857    -699.284E-03    -753.551E-03    -699.248E-03         2.39854    -753.551E-03     16.8194E-03     132.524E-03    -58.6241E-03    -73.8943E-03    -57.9072E-03     116.537E-03    -58.6241E-03     106.443E-03     98.2037E+06     62.8036E+06    -24.2591E+06    -24.2413E+06     98.1858E+06     62.8036E+06     533.577E+03         50.6881
             498     13.2091E-03     46.1840E-03         2.41129    -708.186E-03    -757.784E-03    -708.110E-03         2.41121    -757.784E-03     14.6234E-03     120.589E-03    -58.4756E-03    -62.1525E-03    -56.8277E-03     115.264E-03    -58.4756E-03     60.6699E-03     90.9668E+06     27.3453E+06    -28.9468E+06    -28.9233E+06     90.9434E+06     27.3453E+06    -436.721E+03         46.0550
             499     12.2637E-03     46.1310E-03         2.41685    -711.383E-03    -761.880E-03    -711.231E-03         2.41669    -761.880E-03     24.0854E-03     117.851E-03    -58.4036E-03    -59.4877E-03    -57.0585E-03     115.428E-03    -58.4097E-03     39.8872E-03     64.1019E+06     792.998E+03    -32.0966E+06    -32.0726E+06     64.0779E+06     792.998E+03     235.934E+03         41.8775
             500     11.3211E-03     46.0987E-03         2.42691    -717.348E-03    -766.123E-03    -716.831E-03         2.42639    -766.123E-03    -26.0571E-03     116.795E-03    -58.2134E-03    -58.6029E-03    -57.3938E-03     115.827E-03    -58.4547E-03     25.6058E-03     15.8596E+06    -21.2936E+06    -33.7808E+06    -33.5274E+06     4.31458E+06    -10.0020E+06     701.890E+03         38.3916
             501     10.3764E-03     46.0750E-03         2.44771    -735.117E-03    -769.970E-03    -734.224E-03         2.44682    -769.970E-03     4.20785E-03     116.827E-03    -58.2526E-03    -58.5825E-03    -57.6476E-03     116.218E-03    -58.5784E-03     20.5875E-03    -8.26394E+06    -33.9931E+06    -60.4807E+06    -35.3668E+06    -59.1070E+06    -8.26394E+06     362.883E+03         35.6305
             502     9.43353E-03     46.0540E-03         2.46855    -753.251E-03    -774.189E-03    -753.583E-03         2.46739    -772.703E-03    -11.3760E-03     117.143E-03    -58.4175E-03    -58.7315E-03    -58.0763E-03     116.746E-03    -58.6751E-03     16.3552E-03    -8.11093E+06    -37.9215E+06    -106.932E+06    -37.9352E+06    -106.919E+06    -8.11093E+06    -71.2772E+03         33.6375
             503     8.48934E-03     46.0383E-03         2.47405    -757.190E-03    -776.319E-03    -756.308E-03         2.47168    -774.834E-03     39.1433E-03     117.167E-03    -58.3828E-03    -58.7893E-03    -58.2447E-03     116.977E-03    -58.7371E-03     11.4268E-03    -9.66716E+06    -41.0287E+06    -145.147E+06    -41.0459E+06    -145.130E+06    -9.66716E+06    -150.003E+03         32.3567
             504     7.54679E-03     46.0303E-03         2.47274    -755.257E-03    -777.542E-03    -752.545E-03         2.47003    -777.542E-03     24.0682E-03     117.026E-03    -58.2406E-03    -58.7963E-03    -58.1233E-03     116.908E-03    -58.7963E-03     9.01174E-03    -12.5474E+06    -43.4231E+06    -177.038E+06    -43.4403E+06    -177.021E+06    -12.5474E+06    -226.629E+03         31.5400
             505     6.60246E-03     46.0203E-03         2.48195    -758.791E-03    -781.188E-03    -753.117E-03         2.47627    -781.188E-03     92.5891E-03     117.179E-03    -58.3145E-03    -58.8786E-03    -58.2507E-03     117.115E-03    -58.8786E-03     6.42388E-03    -15.8144E+06    -47.6569E+06    -214.362E+06    -47.6628E+06    -214.356E+06    -15.8144E+06    -589.004E+03         30.9402
             506     5.65920E-03     46.0169E-03         2.50305    -774.488E-03    -785.840E-03    -755.398E-03         2.48388    -785.766E-03    -134.292E-03     117.421E-03    -58.5121E-03    -58.9239E-03    -58.4879E-03     117.397E-03    -58.9239E-03     4.09625E-03    -20.9789E+06    -52.9436E+06    -240.687E+06    -52.9464E+06    -240.684E+06    -20.9789E+06    -499.205E+03         30.4589
             507     4.71618E-03     46.0125E-03         2.53920    -788.819E-03    -810.521E-03    -768.702E-03         2.49906    -790.500E-03     106.573E-03     117.337E-03    -58.4150E-03    -58.9353E-03    -58.4029E-03     117.325E-03    -58.9353E-03     2.79479E-03    -30.8691E+06    -57.7337E+06    -253.959E+06    -57.7342E+06    -253.958E+06    -30.8691E+06    -270.808E+03         30.0742
             508     3.77152E-03     46.0107E-03         2.61503    -793.206E-03    -883.208E-03    -789.110E-03         2.52093    -793.206E-03    -274.481E-03     117.588E-03    -58.6242E-03    -58.9744E-03    -58.6480E-03     117.584E-03    -58.9465E-03     1.63856E-03    -42.5939E+06    -63.6816E+06    -268.443E+06    -63.6821E+06    -268.443E+06    -42.5939E+06    -154.202E+03         29.7819
             509     2.82973E-03     46.0092E-03         2.79304    -791.781E-03        -1.06302    -803.432E-03         2.53345    -791.781E-03     504.856E-03     117.869E-03    -58.8684E-03    -59.0127E-03    -58.9920E-03     117.868E-03    -58.8877E-03     883.670E-06    -54.4818E+06    -68.8852E+06    -276.600E+06    -68.8861E+06    -276.600E+06    -54.4818E+06     290.029E+03         29.5718
             510     1.88639E-03     46.0087E-03         3.23788    -785.217E-03        -1.51724    -803.705E-03         2.52435    -785.217E-03    -939.206E-03     117.610E-03    -58.7264E-03    -58.8926E-03    -58.8314E-03     117.610E-03    -58.7870E-03     379.084E-06    -66.2887E+06    -72.7838E+06    -283.580E+06    -72.7909E+06    -283.573E+06    -66.2887E+06    -548.638E+03         29.4252
             511     943.669E-06     46.0090E-03         4.55797     364.309E-03        -3.99223        -1.92647         2.49221     364.309E-03         3.02350     117.443E-03    -58.4887E-03    -58.9587E-03    -58.8984E-03     117.442E-03    -58.5482E-03     532.334E-06    -73.5989E+06    -76.3793E+06    -288.456E+06    -75.8598E+06    -288.449E+06    -74.1254E+06    -975.290E+03         29.3328
             512     16.0416E-03     45.5277E-03         2.37440    -670.133E-03    -750.183E-03    -669.983E-03         2.37425    -750.183E-03    -26.4312E-03     149.869E-03    -58.8792E-03    -90.9830E-03    -58.3388E-03     117.225E-03    -58.8792E-03     162.397E-03     131.942E+06     129.859E+06    -9.50813E+06    -9.47743E+06     129.906E+06     131.864E+06     473.937E+03         58.4909
             513     15.0953E-03     45.2939E-03         2.39626    -688.775E-03    -755.699E-03    -688.608E-03         2.39610    -755.699E-03    -20.3798E-03     153.772E-03    -58.8256E-03    -94.9318E-03    -59.6708E-03     118.511E-03    -58.8256E-03     172.023E-03     111.399E+06     101.123E+06    -17.9164E+06    -17.8992E+06     109.719E+06     102.786E+06     718.556E+03         55.0619
             514     14.1532E-03     45.1366E-03         2.42005    -703.960E-03    -760.530E-03    -703.921E-03         2.42001    -760.530E-03     12.4051E-03     132.228E-03    -58.6583E-03    -73.5748E-03    -58.0196E-03     116.673E-03    -58.6583E-03     104.873E-03     99.2340E+06     65.4211E+06    -23.7748E+06    -23.7703E+06     99.2295E+06     65.4211E+06     351.674E+03         50.6820
             515     13.2089E-03     45.0629E-03         2.42993    -712.157E-03    -764.804E-03    -712.109E-03         2.42988    -764.804E-03     5.02163E-03     120.434E-03    -58.4959E-03    -61.9739E-03    -56.8244E-03     115.284E-03    -58.4959E-03     59.6850E-03     91.4513E+06     28.6218E+06    -28.7849E+06    -28.7540E+06     91.4204E+06     28.6218E+06     224.759E+03         46.0530
             516     12.2655E-03     45.0053E-03         2.43954    -719.288E-03    -768.919E-03    -719.150E-03         2.43940    -768.919E-03     23.8159E-03     117.997E-03    -58.4181E-03    -59.6226E-03    -57.2526E-03     115.627E-03    -58.4181E-03     39.4387E-03     63.3196E+06     1.27310E+06    -32.6539E+06    -32.6175E+06     63.2832E+06     1.27310E+06    -108.760E+03         41.8747
             517     11.3213E-03     44.9759E-03         2.45749    -730.503E-03    -772.815E-03    -730.116E-03         2.45710    -772.815E-03    -20.4945E-03     117.003E-03    -58.3105E-03    -58.7175E-03    -57.6407E-03     116.060E-03    -58.4440E-03     25.3854E-03     15.1771E+06    -19.7582E+06    -35.1674E+06    -35.0096E+06     4.50054E+06    -9.23949E+06    -609.230E+03         38.3894
             518     10.3778E-03     44.9514E-03         2.46736    -737.128E-03    -776.550E-03    -736.441E-03         2.46667    -776.550E-03     3.25876E-03     116.940E-03    -58.2731E-03    -58.6747E-03    -57.7833E-03     116.321E-03    -58.5456E-03     20.7662E-03    -7.77912E+06    -33.3003E+06    -61.6485E+06    -36.1327E+06    -58.8162E+06    -7.77912E+06    -800.947E+03         35.6286
             519     9.43382E-03     44.9299E-03         2.47319    -742.212E-03    -780.460E-03    -740.773E-03         2.47175    -780.460E-03    -34.8615E-03     116.816E-03    -58.1690E-03    -58.6514E-03    -57.7625E-03     116.405E-03    -58.6473E-03     16.6212E-03    -7.43619E+06    -37.4407E+06    -107.169E+06    -37.4531E+06    -107.156E+06    -7.43619E+06    -574.485E+03         33.6343
             520     8.49028E-03     44.9161E-03         2.49668    -764.792E-03    -783.688E-03    -762.656E-03         2.49454    -783.688E-03     1.77483E-03     116.878E-03    -58.1431E-03    -58.7404E-03    -57.9468E-03     116.682E-03    -58.7404E-03     11.5471E-03    -8.66940E+06    -39.5211E+06    -145.175E+06    -39.5320E+06    -145.164E+06    -8.66940E+06    -672.414E+03         32.3537
             521     7.54566E-03     44.9057E-03         2.50740    -772.667E-03    -785.930E-03    -769.547E-03         2.50428    -785.930E-03    -27.6110E-03     117.158E-03    -58.3574E-03    -58.8114E-03    -58.2473E-03     117.048E-03    -58.8114E-03     8.69055E-03    -11.8503E+06    -43.2200E+06    -177.866E+06    -43.2298E+06    -177.856E+06    -11.8503E+06    -667.639E+03         31.5405
             522     6.60285E-03     44.8982E-03         2.50527    -769.069E-03    -788.981E-03    -761.172E-03         2.49737    -788.981E-03     85.8848E-03     117.259E-03    -58.3931E-03    -58.8787E-03    -58.3319E-03     117.198E-03    -58.8787E-03     6.36331E-03    -15.3073E+06    -47.7712E+06    -214.046E+06    -47.7757E+06    -214.041E+06    -15.3073E+06    -465.206E+03         30.9413
             523     5.65915E-03     44.8921E-03         2.52931    -784.331E-03    -802.079E-03    -772.550E-03         2.50813    -792.678E-03    -123.118E-03     117.402E-03    -58.4964E-03    -58.9195E-03    -58.4709E-03     117.377E-03    -58.9195E-03     4.12303E-03    -20.5283E+06    -52.8389E+06    -240.924E+06    -52.8434E+06    -240.919E+06    -20.5283E+06    -697.286E+03         30.4600
             524     4.71580E-03     44.8898E-03         2.57449    -794.506E-03    -837.344E-03    -793.175E-03         2.53032    -794.506E-03     123.821E-03     117.556E-03    -58.5983E-03    -58.9705E-03    -58.6510E-03     117.546E-03    -58.9074E-03     2.61303E-03    -29.8826E+06    -58.5108E+06    -254.814E+06    -58.5136E+06    -254.811E+06    -29.8826E+06    -182.601E+03         30.0761
             525     3.77323E-03     44.8871E-03         2.64742    -794.016E-03    -905.881E-03    -799.021E-03         2.54056    -794.016E-03    -293.641E-03     117.540E-03    -58.5862E-03    -58.9654E-03    -58.6733E-03     117.536E-03    -58.8743E-03     1.60292E-03    -41.4109E+06    -64.1392E+06    -268.191E+06    -64.1412E+06    -268.189E+06    -41.4109E+06     441.089E+03         29.7795
             526     2.82925E-03     44.8850E-03         2.81682    -793.652E-03        -1.07358    -792.068E-03         2.53531    -793.652E-03     495.311E-03     117.508E-03    -58.6569E-03    -58.8629E-03    -58.6838E-03     117.507E-03    -58.8350E-03     635.849E-06    -55.3493E+06    -69.4244E+06    -277.147E+06    -69.4327E+06    -277.139E+06    -55.3493E+06    -149.986E+03         29.5646
             527     1.88640E-03     44.8858E-03         3.27596    -796.501E-03        -1.53153    -786.155E-03         2.53059    -796.501E-03    -950.228E-03     117.583E-03    -58.7142E-03    -58.8770E-03    -58.8111E-03     117.583E-03    -58.7798E-03     233.751E-06    -67.1092E+06    -73.5209E+06    -284.326E+06    -73.5330E+06    -284.314E+06    -67.1092E+06    -381.330E+03         29.4188
             528     942.790E-06     44.8849E-03         4.70569     214.694E-03        -3.98290        -1.81364         2.53644     214.694E-03         3.12155     117.436E-03    -58.5457E-03    -58.8929E-03    -58.8918E-03     117.435E-03    -58.5457E-03     213.437E-06    -74.2503E+06    -76.7804E+06    -288.872E+06    -76.0601E+06    -288.865E+06    -74.9773E+06    -347.500E+03         29.3279
             529     16.0429E-03     44.4031E-03         2.40295    -684.124E-03    -756.068E-03    -683.998E-03         2.40282    -756.068E-03    -26.1944E-03     150.697E-03    -58.8405E-03    -91.8552E-03    -59.5441E-03     118.386E-03    -58.8405E-03     162.477E-03     132.817E+06     129.982E+06    -8.52096E+06     -8.5086E+06     129.970E+06     132.817E+06     597.748E+03         58.4574
             530     15.1018E-03     44.1705E-03         2.42343    -697.805E-03    -760.998E-03    -697.658E-03         2.42328    -760.998E-03    -18.7090E-03     152.802E-03    -58.7611E-03    -94.0396E-03    -59.2198E-03     117.982E-03    -58.7611E-03     170.594E-03     113.288E+06     102.379E+06    -15.1197E+06    -15.1173E+06     111.079E+06     104.586E+06    -361.296E+03         55.0469
             531     14.1537E-03     44.0153E-03         2.43582    -706.640E-03    -765.566E-03    -706.603E-03         2.43579    -765.566E-03     459.366E-06     131.413E-03    -58.6088E-03    -72.8258E-03    -57.1871E-03     115.775E-03    -58.6088E-03     104.641E-03     98.2524E+06     63.3302E+06    -23.0650E+06    -23.0373E+06     98.2248E+06     63.3302E+06     629.208E+03         50.6778
             532     13.2098E-03     43.9363E-03         2.44789    -715.299E-03    -769.805E-03    -715.266E-03         2.44786    -769.805E-03    -19.8425E-03     120.587E-03    -58.4761E-03    -62.1462E-03    -56.9705E-03     115.412E-03    -58.4761E-03     59.7996E-03     91.3279E+06     28.7321E+06    -28.7174E+06    -28.6707E+06     91.2812E+06     28.7321E+06     1.43268E+06         46.0510
             533     12.2649E-03     43.8844E-03         2.45994    -724.822E-03    -773.812E-03    -724.760E-03         2.45988    -773.812E-03     3.58963E-03     117.791E-03    -58.2640E-03    -59.5625E-03    -57.0594E-03     115.433E-03    -58.4097E-03     39.4265E-03     64.9614E+06     4.04367E+06    -30.6715E+06    -30.6389E+06     64.9287E+06     4.04367E+06    -54.0573E+03         41.8721
             534     11.3206E-03     43.8500E-03         2.47248    -734.939E-03    -777.599E-03    -734.636E-03         2.47218    -777.599E-03    -25.9055E-03     116.725E-03    -58.1725E-03    -58.5728E-03    -57.2962E-03     115.723E-03    -58.4474E-03     26.1715E-03     16.0001E+06    -18.7722E+06    -33.3510E+06    -31.7504E+06     4.16901E+06    -8.54178E+06    -1.58228E+06         38.3860
             535     10.3777E-03     43.8287E-03         2.48373    -742.841E-03    -781.234E-03    -742.444E-03         2.48334    -781.234E-03    -11.7551E-03     117.122E-03    -58.2955E-03    -58.8340E-03    -57.8965E-03     116.453E-03    -58.5638E-03     21.5794E-03    -6.81639E+06    -31.6853E+06    -61.2446E+06    -33.4344E+06    -59.4955E+06    -6.81639E+06    -1.44649E+06         35.6255
             536     9.43350E-03     43.8064E-03         2.49553    -752.714E-03    -784.707E-03    -751.764E-03         2.49458    -784.707E-03    -38.8175E-03     116.971E-03    -58.1726E-03    -58.8014E-03    -57.8976E-03     116.551E-03    -58.6562E-03     16.8062E-03    -6.55215E+06    -36.0951E+06    -107.076E+06    -36.1111E+06    -107.060E+06    -6.55215E+06    -1.00118E+06         33.6323
             537     8.48920E-03     43.7928E-03         2.51033    -767.236E-03    -787.628E-03    -765.449E-03         2.50854    -787.628E-03     10.2320E-03     116.942E-03    -58.2070E-03    -58.7373E-03    -58.0060E-03     116.741E-03    -58.7373E-03     11.7312E-03    -8.93860E+06    -39.7095E+06    -145.728E+06    -39.7147E+06    -145.722E+06    -8.93860E+06    -637.051E+03         32.3539
             538     7.54664E-03     43.7819E-03         2.51642    -773.048E-03    -790.188E-03    -769.400E-03         2.51277    -790.188E-03    -53.7367E-03     117.221E-03    -58.4282E-03    -58.8012E-03    -58.3211E-03     117.114E-03    -58.8012E-03     8.53128E-03    -12.0631E+06    -43.9208E+06    -178.777E+06    -43.9241E+06    -178.773E+06    -12.0631E+06    -629.247E+03         31.5437
             539     6.60280E-03     43.7746E-03         2.51877    -773.305E-03    -793.565E-03    -764.776E-03         2.51024    -793.565E-03     63.9928E-03     117.274E-03    -58.4246E-03    -58.8615E-03    -58.3704E-03     117.220E-03    -58.8615E-03     6.09344E-03    -14.6852E+06    -47.7524E+06    -213.948E+06    -47.7552E+06    -213.945E+06    -14.6852E+06    -524.445E+03         30.9439
             540     5.65934E-03     43.7692E-03         2.54942    -786.444E-03    -812.630E-03    -782.165E-03         2.52937    -796.858E-03    -113.666E-03     117.371E-03    -58.4901E-03    -58.8943E-03    -58.4640E-03     117.345E-03    -58.8943E-03     4.15082E-03    -20.4374E+06    -52.8293E+06    -241.299E+06    -52.8313E+06    -241.297E+06    -20.4374E+06    -434.396E+03         30.4594
             541     4.71610E-03     43.7655E-03         2.60110    -796.583E-03    -855.833E-03    -811.627E-03         2.55689    -796.583E-03     145.056E-03     117.574E-03    -58.6586E-03    -58.9297E-03    -58.7110E-03     117.563E-03    -58.8666E-03     2.71238E-03    -30.9858E+06    -59.3637E+06    -256.116E+06    -59.3672E+06    -256.113E+06    -30.9858E+06     41.4620E+03         30.0746
             542     3.77310E-03     43.7633E-03         2.65735    -793.893E-03    -916.099E-03    -803.400E-03         2.54465    -793.893E-03    -303.085E-03     117.504E-03    -58.6421E-03    -58.8749E-03    -58.7041E-03     117.499E-03    -58.8080E-03     1.77341E-03    -42.8101E+06    -64.4702E+06    -268.364E+06    -64.4742E+06    -268.360E+06    -42.8101E+06     361.215E+03         29.7760
             543     2.82998E-03     43.7626E-03         2.82568    -795.740E-03        -1.07633    -777.540E-03         2.52689    -795.740E-03     511.759E-03     117.336E-03    -58.5775E-03    -58.7686E-03    -58.5801E-03     117.334E-03    -58.7649E-03     744.962E-06    -56.2490E+06    -69.2980E+06    -277.164E+06    -69.3116E+06    -277.151E+06    -56.2490E+06    -162.258E+03         29.5566
             544     1.88612E-03     43.7616E-03         3.31334    -807.878E-03        -1.55388    -771.476E-03         2.53093    -807.878E-03    -972.248E-03     117.408E-03    -58.5757E-03    -58.8384E-03    -58.6642E-03     117.408E-03    -58.7498E-03     169.757E-06    -67.3964E+06    -74.0681E+06    -284.785E+06    -74.0847E+06    -284.768E+06    -67.3964E+06    -81.2516E+03         29.4110
             545     944.047E-06     43.7620E-03         4.86643     34.0445E-03        -3.94919        -1.66804         2.58527     34.0445E-03         3.19815     117.435E-03    -58.5743E-03    -58.8635E-03    -58.7633E-03     117.434E-03    -58.6735E-03     99.6096E-06    -73.7703E+06    -76.8615E+06    -288.724E+06    -76.6681E+06    -288.717E+06    -73.9708E+06    -73.0749E+03         29.3267
             546     16.0448E-03     43.2734E-03         2.42246    -691.077E-03    -760.480E-03    -690.972E-03         2.42236    -760.480E-03    -26.1763E-03     151.022E-03    -58.8133E-03    -92.1872E-03    -58.9909E-03     117.826E-03    -58.8133E-03     164.430E-03     131.840E+06     129.442E+06    -10.3020E+06    -10.2886E+06     130.005E+06     131.264E+06     412.950E+03         58.4197
             547     15.0987E-03     43.0498E-03         2.44002    -703.862E-03    -765.038E-03    -703.766E-03         2.43993    -765.038E-03    -20.6777E-03     153.661E-03    -58.7519E-03    -94.8893E-03    -59.0717E-03     117.843E-03    -58.7519E-03     173.157E-03     111.817E+06     101.252E+06    -17.8159E+06    -17.8076E+06     111.062E+06     101.999E+06    -139.652E+03         55.0230
             548     14.1548E-03     42.8917E-03         2.45089    -711.843E-03    -769.367E-03    -711.813E-03         2.45086    -769.367E-03     5.11446E-03     132.514E-03    -58.5910E-03    -73.9385E-03    -57.8927E-03     116.469E-03    -58.5910E-03     106.589E-03     97.5986E+06     61.9541E+06    -24.1306E+06    -24.0958E+06     97.5637E+06     61.9541E+06     728.338E+03         50.6672
             549     13.2089E-03     42.8140E-03         2.46169    -718.636E-03    -773.554E-03    -718.600E-03         2.46166    -773.554E-03    -1.05270E-03     120.467E-03    -58.4522E-03    -62.0580E-03    -56.8215E-03     115.231E-03    -58.4522E-03     60.0502E-03     91.9814E+06     29.0177E+06    -27.2755E+06    -27.2277E+06     91.9336E+06     29.0177E+06    -289.506E+03         46.0458
             550     12.2661E-03     42.7586E-03         2.47562    -729.514E-03    -777.571E-03    -729.339E-03         2.47545    -777.571E-03     28.1211E-03     117.591E-03    -58.2597E-03    -59.3699E-03    -56.8945E-03     115.262E-03    -58.4054E-03     39.1279E-03     66.6019E+06     5.24122E+06    -28.9208E+06    -28.8721E+06     66.5532E+06     5.24122E+06    -1.84786E+06         41.8669
             551     11.3210E-03     42.7302E-03         2.48677    -738.954E-03    -781.343E-03    -738.530E-03         2.48635    -781.343E-03    -9.83007E-03     116.553E-03    -58.0691E-03    -58.4988E-03    -57.1191E-03     115.561E-03    -58.4567E-03     26.0474E-03     16.9430E+06    -18.7519E+06    -31.7971E+06    -30.0671E+06     4.31880E+06    -7.85771E+06    -1.42590E+06         38.3814
             552     10.3754E-03     42.7021E-03         2.49674    -746.652E-03    -784.986E-03    -746.096E-03         2.49619    -784.986E-03     2.21196E-03     116.969E-03    -58.2448E-03    -58.7319E-03    -57.7466E-03     116.325E-03    -58.5867E-03     21.1021E-03    -7.62580E+06    -32.7427E+06    -61.4988E+06    -32.9075E+06    -61.3341E+06    -7.62580E+06    -1.22783E+06         35.6224
             553     9.43370E-03     42.6843E-03         2.51137    -757.528E-03    -788.409E-03    -756.748E-03         2.51059    -788.409E-03    -11.8038E-03     117.304E-03    -58.4033E-03    -58.9102E-03    -58.2504E-03     116.916E-03    -58.6756E-03     16.2048E-03    -6.63134E+06    -36.5835E+06    -108.043E+06    -36.6134E+06    -108.013E+06    -6.63134E+06    -889.661E+03         33.6327
             554     8.49034E-03     42.6689E-03         2.51866    -764.198E-03    -791.680E-03    -762.422E-03         2.51688    -791.680E-03     37.1699E-03     117.066E-03    -58.2529E-03    -58.8188E-03    -58.1452E-03     116.869E-03    -58.7294E-03     11.6605E-03    -8.97507E+06    -40.0983E+06    -145.831E+06    -40.1025E+06    -145.827E+06    -8.97507E+06    -202.030E+03         32.3559
             555     7.54620E-03     42.6586E-03         2.53275    -777.318E-03    -796.660E-03    -776.116E-03         2.52940    -794.508E-03    -25.0687E-03     117.105E-03    -58.3258E-03    -58.7884E-03    -58.2117E-03     116.991E-03    -58.7884E-03     8.83339E-03    -12.5028E+06    -43.9929E+06    -178.929E+06    -43.9956E+06    -178.926E+06    -12.5028E+06    -548.217E+03         31.5441
             556     6.60302E-03     42.6511E-03         2.55465    -788.793E-03    -807.662E-03    -793.489E-03         2.54754    -795.859E-03     66.7255E-03     117.363E-03    -58.5294E-03    -58.8487E-03    -58.4726E-03     117.306E-03    -58.8487E-03     6.18438E-03    -15.0770E+06    -48.6284E+06    -214.699E+06    -48.6310E+06    -214.696E+06    -15.0770E+06    -364.333E+03         30.9446
             557     5.65973E-03     42.6459E-03         2.56530    -791.988E-03    -812.701E-03    -789.750E-03         2.54696    -796.603E-03    -114.544E-03     117.376E-03    -58.5287E-03    -58.8633E-03    -58.5013E-03     117.349E-03    -58.8633E-03     4.34500E-03    -21.4012E+06    -53.4234E+06    -241.874E+06    -53.4247E+06    -241.873E+06    -21.4012E+06     204.147E+03         30.4587
             558     4.71637E-03     42.6421E-03         2.58575    -798.194E-03    -830.003E-03    -787.118E-03         2.54296    -798.287E-03     149.012E-03     117.421E-03    -58.5958E-03    -58.8406E-03    -58.5822E-03     117.407E-03    -58.8406E-03     2.97319E-03    -31.8650E+06    -58.7448E+06    -256.123E+06    -58.7476E+06    -256.120E+06    -31.8650E+06     131.369E+03         30.0711
             559     3.77283E-03     42.6400E-03         2.65578    -800.912E-03    -897.707E-03    -788.878E-03         2.54695    -800.912E-03    -297.264E-03     117.480E-03    -58.6941E-03    -58.7993E-03    -58.6939E-03     117.476E-03    -58.7956E-03     1.49502E-03    -43.8454E+06    -64.6386E+06    -269.139E+06    -64.6447E+06    -269.133E+06    -43.8454E+06     102.879E+03         29.7734
             560     2.82968E-03     42.6393E-03         2.86272    -803.449E-03        -1.09680    -797.310E-03         2.56323    -803.449E-03     552.507E-03     117.367E-03    -58.6303E-03    -58.7465E-03    -58.6330E-03     117.366E-03    -58.7428E-03     806.010E-06    -56.5508E+06    -69.4163E+06    -277.497E+06    -69.4252E+06    -277.488E+06    -56.5508E+06     697.939E+03         29.5548
             561     1.88706E-03     42.6386E-03         3.37278    -805.220E-03        -1.60606    -802.259E-03         2.56898    -805.220E-03        -1.00110     117.220E-03    -58.4429E-03    -58.7838E-03    -58.4424E-03     117.219E-03    -58.7838E-03     456.566E-06    -66.3048E+06    -72.5046E+06    -283.980E+06    -72.5117E+06    -283.973E+06    -66.3048E+06     279.406E+03         29.4090
             562     942.021E-06     42.6391E-03         4.99928    -66.5605E-03        -3.97241        -1.54553         2.57240    -66.5605E-03         3.31932     117.636E-03    -58.5603E-03    -59.0791E-03    -58.8180E-03     117.633E-03    -58.8192E-03     933.925E-06    -73.1411E+06    -75.9462E+06    -288.431E+06    -75.6354E+06    -288.421E+06    -73.4615E+06    -744.661E+03         29.3298
             563     16.0429E-03     42.1577E-03         2.43182    -690.055E-03    -763.352E-03    -689.963E-03         2.43173    -763.352E-03    -25.9254E-03     150.233E-03    -58.8348E-03    -91.3534E-03    -58.0191E-03     116.899E-03    -58.8348E-03     163.611E-03     133.530E+06     129.843E+06    -8.11209E+06    -8.01134E+06     130.584E+06     132.688E+06     2.50247E+06         58.3766
             564     15.0952E-03     41.9218E-03         2.44594    -700.651E-03    -768.009E-03    -700.565E-03         2.44585    -768.009E-03    -19.1998E-03     153.757E-03    -58.7901E-03    -94.9470E-03    -59.3136E-03     118.123E-03    -58.7901E-03     172.237E-03     111.239E+06     101.937E+06    -17.7702E+06    -17.6796E+06     111.148E+06     101.937E+06     930.154E+03         54.9931
             565     14.1531E-03     41.7678E-03         2.46270    -711.671E-03    -772.493E-03    -711.648E-03         2.46268    -772.493E-03     7.79444E-03     132.165E-03    -58.5993E-03    -73.5910E-03    -58.3693E-03     116.943E-03    -58.5993E-03     104.440E-03     97.9508E+06     62.3404E+06    -23.1821E+06    -23.1179E+06     97.8867E+06     62.3404E+06    -1.75697E+06         50.6506
             566     13.2111E-03     41.6896E-03         2.47382    -720.479E-03    -776.749E-03    -720.379E-03         2.47372    -776.749E-03    -9.34335E-03     120.421E-03    -58.4399E-03    -62.0300E-03    -56.7592E-03     115.151E-03    -58.4399E-03     60.0175E-03     93.4115E+06     28.9921E+06    -25.8572E+06    -25.7793E+06     93.3336E+06     28.9921E+06    -2.80996E+06         46.0363
             567     12.2641E-03     41.6376E-03         2.48576    -732.202E-03    -780.762E-03    -731.878E-03         2.48544    -780.762E-03     25.9903E-03     117.516E-03    -58.3531E-03    -59.2048E-03    -56.8623E-03     115.217E-03    -58.3972E-03     39.0877E-03     65.0568E+06     3.65186E+06    -28.5828E+06    -28.5259E+06     64.9999E+06     3.65186E+06    -2.19840E+06         41.8595
             568     11.3210E-03     41.6040E-03         2.50482    -748.340E-03    -784.239E-03    -747.578E-03         2.50406    -784.239E-03    -16.8450E-03     116.853E-03    -58.2862E-03    -58.5789E-03    -57.4192E-03     115.850E-03    -58.4428E-03     26.0831E-03     15.5963E+06    -20.0751E+06    -32.0181E+06    -31.4270E+06     3.47010E+06    -8.54003E+06    -1.39272E+06         38.3764
             569     10.3785E-03     41.5819E-03         2.51678    -756.573E-03    -787.231E-03    -755.781E-03         2.51598    -787.231E-03    -15.8325E-03     116.845E-03    -58.1951E-03    -58.6551E-03    -57.6640E-03     116.219E-03    -58.5611E-03     20.8516E-03    -7.87821E+06    -32.7088E+06    -61.9480E+06    -33.6329E+06    -61.0239E+06    -7.87821E+06    -576.840E+03         35.6198
             570     9.43247E-03     41.5576E-03         2.51679    -754.158E-03    -790.559E-03    -752.768E-03         2.51540    -790.559E-03    -43.0005E-03     116.970E-03    -58.2201E-03    -58.7580E-03    -57.9121E-03     116.572E-03    -58.6686E-03     16.2303E-03    -7.44219E+06    -36.5811E+06    -109.300E+06    -36.6249E+06    -109.256E+06    -7.44219E+06    -344.748E+03         33.6330
             571     8.49026E-03     41.5469E-03         2.52193    -757.115E-03    -794.670E-03    -754.731E-03         2.51955    -794.670E-03     7.56253E-03     117.144E-03    -58.2942E-03    -58.8589E-03    -58.2242E-03     116.953E-03    -58.7374E-03     11.5415E-03    -8.94152E+06    -40.2528E+06    -145.629E+06    -40.2659E+06    -145.616E+06    -8.94152E+06    -7.05661E+03         32.3570
             572     7.54612E-03     41.5351E-03         2.54785    -778.911E-03    -800.296E-03    -778.220E-03         2.54500    -798.145E-03    -11.1965E-03     117.123E-03    -58.3176E-03    -58.8170E-03    -58.2307E-03     117.004E-03    -58.7849E-03     9.01645E-03    -13.5211E+06    -44.0152E+06    -178.788E+06    -44.0209E+06    -178.782E+06    -13.5211E+06    -131.800E+03         31.5421
             573     6.60289E-03     41.5270E-03         2.58106    -796.125E-03    -819.696E-03    -810.257E-03         2.57407    -798.572E-03     89.4361E-03     117.351E-03    -58.5144E-03    -58.8508E-03    -58.4571E-03     117.294E-03    -58.8508E-03     6.20526E-03    -15.7038E+06    -48.5346E+06    -215.918E+06    -48.5373E+06    -215.915E+06    -15.7038E+06    -443.434E+03         30.9424
             574     5.65958E-03     41.5229E-03         2.58328    -797.272E-03    -821.792E-03    -802.027E-03         2.56361    -797.365E-03    -116.742E-03     117.467E-03    -58.6165E-03    -58.8641E-03    -58.5894E-03     117.440E-03    -58.8641E-03     4.31736E-03    -21.1384E+06    -53.8432E+06    -242.124E+06    -53.8454E+06    -242.122E+06    -21.1384E+06     329.673E+03         30.4579
             575     4.71609E-03     41.5186E-03         2.58298    -800.137E-03    -813.973E-03    -767.812E-03         2.53691    -800.230E-03     152.982E-03     117.358E-03    -58.5367E-03    -58.8345E-03    -58.5229E-03     117.345E-03    -58.8345E-03     2.99785E-03    -32.2982E+06    -58.8122E+06    -256.344E+06    -58.8149E+06    -256.341E+06    -32.2982E+06     246.592E+03         30.0679
             576     3.77333E-03     41.5165E-03         2.67234    -806.862E-03    -891.454E-03    -779.788E-03         2.56067    -806.862E-03    -291.658E-03     117.382E-03    -58.5763E-03    -58.8178E-03    -58.5712E-03     117.377E-03    -58.8178E-03     1.74027E-03    -43.1887E+06    -63.9769E+06    -269.500E+06    -63.9812E+06    -269.496E+06    -43.1887E+06     366.694E+03         29.7705
             577     2.82996E-03     41.5158E-03         2.89730    -808.017E-03        -1.11862    -821.384E-03         2.60006    -808.017E-03     546.038E-03     117.394E-03    -58.6041E-03    -58.7984E-03    -58.6022E-03     117.392E-03    -58.7984E-03     831.424E-06    -55.3340E+06    -68.4151E+06    -276.962E+06    -68.4185E+06    -276.959E+06    -55.3340E+06     543.366E+03         29.5581
             578     1.88567E-03     41.5156E-03         3.40436    -799.741E-03        -1.63918    -823.937E-03         2.58912    -799.741E-03        -1.03889     117.439E-03    -58.5271E-03    -58.9193E-03    -58.6390E-03     117.438E-03    -58.8070E-03     310.534E-06    -66.0223E+06    -71.5732E+06    -283.847E+06    -71.5742E+06    -283.846E+06    -66.0223E+06     298.144E+03         29.4169
             579     943.501E-06     41.5157E-03         5.09596    -199.383E-03        -3.93447        -1.38859         2.55009    -199.383E-03         3.38060     117.599E-03    -58.5236E-03    -59.0810E-03    -58.9187E-03     117.596E-03    -58.6833E-03     1.02247E-03    -72.4602E+06    -75.2582E+06    -287.965E+06    -74.1118E+06    -287.957E+06    -73.6139E+06    -315.930E+03         29.3333
             580     16.0432E-03     41.0398E-03         2.44116    -692.461E-03    -765.397E-03    -692.398E-03         2.44109    -765.397E-03    -16.7080E-03     151.108E-03    -58.8363E-03    -92.2327E-03    -59.0224E-03     117.898E-03    -58.8363E-03     163.853E-03     135.049E+06     129.616E+06    -5.76046E+06    -5.66088E+06     130.433E+06     134.132E+06     2.67966E+06         58.3321
             581     15.1009E-03     40.7944E-03         2.45521    -699.093E-03    -770.074E-03    -699.024E-03         2.45514    -770.074E-03    -13.4248E-03     154.269E-03    -58.7607E-03    -95.4821E-03    -59.7749E-03     118.562E-03    -58.7607E-03     172.855E-03     116.416E+06     107.614E+06    -12.0904E+06    -11.9962E+06     116.322E+06     107.614E+06     1.73276E+06         54.9656
             582     14.1558E-03     40.6473E-03         2.47134    -711.904E-03    -774.626E-03    -711.837E-03         2.47128    -774.626E-03     15.7146E-03     131.261E-03    -58.5659E-03    -72.7226E-03    -57.6541E-03     116.193E-03    -58.5659E-03     103.625E-03     99.2207E+06     62.7663E+06    -19.6274E+06    -19.5666E+06     99.1598E+06     62.7663E+06    -1.27077E+06         50.6340
             583     13.2080E-03     40.5641E-03         2.48780    -727.461E-03    -778.685E-03    -727.313E-03         2.48765    -778.685E-03    -11.5689E-03     120.380E-03    -58.4218E-03    -62.0125E-03    -56.7720E-03     115.139E-03    -58.4218E-03     59.5972E-03     91.5622E+06     26.0852E+06    -26.7509E+06    -26.6321E+06     91.4434E+06     26.0852E+06    -2.80380E+06         46.0247
             584     12.2668E-03     40.5156E-03         2.49767    -739.051E-03    -782.264E-03    -738.602E-03         2.49722    -782.264E-03     25.5968E-03     117.507E-03    -58.3349E-03    -59.2111E-03    -56.9418E-03     115.282E-03    -58.3790E-03     38.7117E-03     64.8104E+06     2.86881E+06    -29.6833E+06    -29.6059E+06     64.7331E+06     2.86881E+06    -2.40552E+06         41.8514
             585     11.3208E-03     40.4799E-03         2.51191    -752.232E-03    -785.387E-03    -751.376E-03         2.51105    -785.387E-03    -7.33127E-03     116.755E-03    -58.1604E-03    -58.6036E-03    -57.2998E-03     115.716E-03    -58.4252E-03     26.4632E-03     15.4649E+06    -20.8288E+06    -33.7900E+06    -31.4530E+06     1.86755E+06    -9.56850E+06    -879.719E+03         38.3707
             586     10.3769E-03     40.4576E-03         2.52485    -759.677E-03    -788.158E-03    -758.774E-03         2.52395    -788.158E-03    -6.61256E-03     116.839E-03    -58.1769E-03    -58.6674E-03    -57.6518E-03     116.198E-03    -58.5511E-03     21.1458E-03    -8.47631E+06    -33.6101E+06    -62.8481E+06    -34.5275E+06    -61.9308E+06    -8.47631E+06    -293.382E+03         35.6156
             587     9.43436E-03     40.4364E-03         2.52998    -762.583E-03    -791.012E-03    -761.064E-03         2.52846    -791.012E-03    -35.5887E-03     116.905E-03    -58.2299E-03    -58.6807E-03    -57.8295E-03     116.482E-03    -58.6584E-03     16.7345E-03    -8.27057E+06    -36.8773E+06    -109.311E+06    -36.9126E+06    -109.275E+06    -8.27057E+06    -51.6538E+03         33.6299
             588     8.48884E-03     40.4217E-03         2.53788    -770.531E-03    -793.940E-03    -768.247E-03         2.53560    -793.940E-03     4.26896E-03     117.097E-03    -58.3369E-03    -58.7695E-03    -58.1861E-03     116.915E-03    -58.7374E-03     11.1431E-03    -9.01415E+06    -39.8171E+06    -146.372E+06    -39.8334E+06    -146.355E+06    -9.01415E+06    -47.0632E+03         32.3550
             589     7.54695E-03     40.4119E-03         2.54590    -776.574E-03    -796.817E-03    -773.221E-03         2.54255    -796.817E-03    -29.4358E-03     117.189E-03    -58.3895E-03    -58.8158E-03    -58.3132E-03     117.081E-03    -58.7836E-03     8.66052E-03    -12.8532E+06    -43.8641E+06    -178.202E+06    -43.8726E+06    -178.193E+06    -12.8532E+06     222.206E+03         31.5399
             590     6.60267E-03     40.4039E-03         2.56115    -779.574E-03    -808.937E-03    -780.695E-03         2.55295    -799.617E-03     83.6841E-03     117.260E-03    -58.4255E-03    -58.8477E-03    -58.3646E-03     117.199E-03    -58.8477E-03     6.33068E-03    -16.0276E+06    -48.4030E+06    -216.322E+06    -48.4072E+06    -216.317E+06    -16.0276E+06    -102.105E+03         30.9385
             591     5.65958E-03     40.3985E-03         2.59167    -791.803E-03    -829.331E-03    -797.456E-03         2.56928    -801.287E-03    -133.265E-03     117.437E-03    -58.5727E-03    -58.8748E-03    -58.5469E-03     117.412E-03    -58.8748E-03     4.21954E-03    -21.0914E+06    -53.7276E+06    -242.370E+06    -53.7287E+06    -242.369E+06    -21.0914E+06    -4.87800E+03         30.4550
             592     4.71677E-03     40.3956E-03         2.62778    -801.172E-03    -854.665E-03    -805.613E-03         2.57873    -801.172E-03     140.378E-03     117.306E-03    -58.4589E-03    -58.8573E-03    -58.4452E-03     117.293E-03    -58.8573E-03     3.02054E-03    -32.3913E+06    -59.1048E+06    -256.453E+06    -59.1063E+06    -256.451E+06    -32.3913E+06     478.083E+03         30.0665
             593     3.77220E-03     40.3932E-03         2.69574    -800.360E-03    -922.516E-03    -803.261E-03         2.57648    -800.360E-03    -308.166E-03     117.271E-03    -58.4047E-03    -58.8757E-03    -58.3989E-03     117.265E-03    -58.8757E-03     1.95951E-03    -44.1942E+06    -63.9541E+06    -270.323E+06    -63.9573E+06    -270.319E+06    -44.1942E+06     53.1397E+03         29.7707
             594     2.82913E-03     40.3922E-03         2.88503    -800.118E-03        -1.11046    -799.291E-03         2.57386    -800.118E-03     527.177E-03     117.585E-03    -58.6205E-03    -58.9744E-03    -58.7019E-03     117.583E-03    -58.8907E-03     1.02730E-03    -55.1214E+06    -68.6528E+06    -276.838E+06    -68.6553E+06    -276.836E+06    -55.1214E+06    -258.576E+03         29.5639
             595     1.88686E-03     40.3927E-03         3.41295    -799.381E-03        -1.64488    -802.845E-03         2.57091    -799.381E-03        -1.07565     117.856E-03    -58.7306E-03    -59.1340E-03    -59.0846E-03     117.855E-03    -58.7793E-03     518.921E-06    -65.4551E+06    -72.5987E+06    -283.711E+06    -72.6012E+06    -283.709E+06    -65.4551E+06     466.361E+03         29.4269
             596     943.430E-06     40.3908E-03         5.19294    -381.427E-03        -3.85023        -1.21601         2.55872    -381.427E-03         3.36766     117.295E-03    -58.4014E-03    -58.8980E-03    -58.8964E-03     117.293E-03    -58.4014E-03     366.087E-06    -72.2834E+06    -75.5030E+06    -288.211E+06    -74.6728E+06    -288.208E+06    -73.1167E+06     695.892E+03         29.3369
             597     16.0430E-03     39.9091E-03         2.44348    -689.442E-03    -766.710E-03    -689.364E-03         2.44340    -766.710E-03    -5.11013E-03     151.504E-03    -58.8215E-03    -92.6592E-03    -59.3218E-03     118.167E-03    -58.8215E-03     164.575E-03     132.931E+06     127.173E+06    -7.52203E+06    -7.50847E+06     127.811E+06     132.280E+06    -27.8267E+03         58.2872
             598     15.0983E-03     39.6741E-03         2.46190    -703.977E-03    -771.215E-03    -703.900E-03         2.46183    -771.215E-03    -20.1194E-03     154.299E-03    -58.7464E-03    -95.5349E-03    -59.5044E-03     118.268E-03    -58.7464E-03     173.799E-03     116.990E+06     105.932E+06    -14.8655E+06    -14.8531E+06     116.576E+06     106.334E+06     662.865E+03         54.9357
             599     14.1531E-03     39.5208E-03         2.46754    -710.923E-03    -775.550E-03    -710.822E-03         2.46744    -775.550E-03     14.4774E-03     131.645E-03    -58.5770E-03    -73.0899E-03    -57.7003E-03     116.255E-03    -58.5770E-03     104.354E-03     102.713E+06     65.9888E+06    -20.4933E+06    -20.4759E+06     102.695E+06     65.9888E+06    -67.2095E+03         50.6156
             600     13.2121E-03     39.4433E-03         2.48565    -726.774E-03    -779.628E-03    -726.663E-03         2.48554    -779.628E-03     2.02341E-03     120.356E-03    -58.4185E-03    -61.9945E-03    -56.7526E-03     115.114E-03    -58.4185E-03     60.0014E-03     92.2660E+06     26.4503E+06    -25.6683E+06    -25.5933E+06     92.1910E+06     26.4503E+06    -1.55453E+06         46.0127
             601     12.2643E-03     39.3897E-03         2.50822    -746.656E-03    -782.959E-03    -746.200E-03         2.50777    -782.959E-03     34.8267E-03     117.738E-03    -58.3622E-03    -59.4132E-03    -57.0550E-03     115.380E-03    -58.3622E-03     39.4412E-03     63.8383E+06     219.989E+03    -30.0636E+06    -30.0002E+06     63.7749E+06     219.989E+03    -1.59296E+06         41.8430
             602     11.3221E-03     39.3588E-03         2.51307    -746.291E-03    -786.084E-03    -745.564E-03         2.51235    -786.084E-03     6.59129E-03     116.673E-03    -58.0578E-03    -58.6219E-03    -57.2505E-03     115.658E-03    -58.4143E-03     26.2855E-03     13.5964E+06    -21.1806E+06    -35.1118E+06    -33.0866E+06     1.31583E+06    -10.9253E+06    -348.024E+03         38.3646
             603     10.3770E-03     39.3333E-03         2.52216    -749.876E-03    -789.651E-03    -748.989E-03         2.52127    -789.651E-03     16.0876E-03     116.747E-03    -58.1847E-03    -58.5672E-03    -57.5679E-03     116.108E-03    -58.5450E-03     21.0306E-03    -10.0015E+06    -34.2907E+06    -64.0214E+06    -35.1289E+06    -63.1832E+06    -10.0015E+06    -374.156E+03         35.6108
             604     9.43270E-03     39.3131E-03         2.55115    -774.847E-03    -794.292E-03    -775.528E-03         2.54992    -792.376E-03    -5.86544E-03     117.112E-03    -58.4501E-03    -58.6697E-03    -58.0759E-03     116.715E-03    -58.6475E-03     16.3587E-03    -8.73571E+06    -37.7179E+06    -109.749E+06    -37.7312E+06    -109.735E+06    -8.73571E+06    -269.321E+03         33.6247
             605     8.49106E-03     39.2978E-03         2.56836    -790.957E-03    -798.938E-03    -794.781E-03         2.56639    -793.147E-03     26.3354E-03     116.914E-03    -58.2065E-03    -58.7187E-03    -58.0167E-03     116.724E-03    -58.7187E-03     11.3352E-03    -10.2111E+06    -40.9542E+06    -147.121E+06    -40.9599E+06    -147.115E+06    -10.2111E+06     38.6601E+03         32.3503
             606     7.54587E-03     39.2889E-03         2.55159    -779.670E-03    -797.803E-03    -779.998E-03         2.54804    -793.928E-03    -26.2292E-03     117.077E-03    -58.3092E-03    -58.7838E-03    -58.1982E-03     116.966E-03    -58.7838E-03     8.74798E-03    -13.0521E+06    -44.2291E+06    -178.716E+06    -44.2363E+06    -178.709E+06    -13.0521E+06     537.827E+03         31.5379
             607     6.60323E-03     39.2800E-03         2.53801    -766.565E-03    -797.631E-03    -757.808E-03         2.52925    -797.631E-03     87.3699E-03     117.263E-03    -58.4270E-03    -58.8504E-03    -58.3630E-03     117.199E-03    -58.8504E-03     6.51771E-03    -16.6539E+06    -48.3755E+06    -215.571E+06    -48.3811E+06    -215.566E+06    -16.6539E+06     533.176E+03         30.9371
             608     5.65953E-03     39.2757E-03         2.58072    -784.903E-03    -821.060E-03    -781.725E-03         2.55865    -802.167E-03    -119.729E-03     117.255E-03    -58.3651E-03    -58.9008E-03    -58.3370E-03     117.227E-03    -58.9008E-03     4.38078E-03    -21.7228E+06    -53.2976E+06    -243.119E+06    -53.2983E+06    -243.119E+06    -21.7228E+06    -239.568E+03         30.4540
             609     4.71533E-03     39.2718E-03         2.65155    -801.155E-03    -877.148E-03    -828.268E-03         2.60267    -801.155E-03     158.303E-03     117.406E-03    -58.5025E-03    -58.9136E-03    -58.4885E-03     117.392E-03    -58.9136E-03     3.05414E-03    -30.7034E+06    -58.6009E+06    -256.310E+06    -58.6023E+06    -256.309E+06    -30.7034E+06     115.094E+03         30.0698
             610     3.77314E-03     39.2705E-03         2.70799    -795.376E-03    -939.066E-03    -819.914E-03         2.58884    -795.376E-03    -292.571E-03     117.488E-03    -58.5891E-03    -58.9109E-03    -58.5857E-03     117.484E-03    -58.9098E-03     1.63593E-03    -43.0396E+06    -64.5159E+06    -269.521E+06    -64.5197E+06    -269.518E+06    -43.0396E+06     112.251E+03         29.7761
             611     2.82889E-03     39.2688E-03         2.87177    -795.613E-03        -1.10102    -775.812E-03         2.54657    -795.613E-03     565.103E-03     117.559E-03    -58.5798E-03    -58.9905E-03    -58.6635E-03     117.558E-03    -58.9057E-03     897.617E-06    -56.5379E+06    -69.8504E+06    -277.961E+06    -69.8539E+06    -277.957E+06    -56.5379E+06    -272.124E+03         29.5661
             612     1.88582E-03     39.2676E-03         3.40714    -808.056E-03        -1.62533    -771.525E-03         2.55334    -808.056E-03        -1.03222     117.735E-03    -58.6140E-03    -59.1302E-03    -58.8556E-03     117.735E-03    -58.8878E-03     724.017E-06    -66.1437E+06    -73.4964E+06    -283.965E+06    -73.5023E+06    -283.959E+06    -66.1437E+06    -269.333E+03         29.4273
             613     943.870E-06     39.2686E-03         5.28324    -563.226E-03        -3.75454        -1.07124         2.59993    -563.226E-03         3.42139     117.679E-03    -58.5584E-03    -59.1236E-03    -58.9958E-03     117.677E-03    -58.6842E-03     472.801E-06    -72.6997E+06    -76.2449E+06    -287.860E+06    -76.2577E+06    -287.847E+06    -72.6997E+06     637.396E+03         29.3442
             614     16.0451E-03     38.7867E-03         2.45101    -690.242E-03    -766.871E-03    -690.169E-03         2.45093    -766.871E-03     1.66523E-03     150.955E-03    -58.7705E-03    -92.1578E-03    -59.3022E-03     118.099E-03    -58.7705E-03     162.798E-03     132.620E+06     126.884E+06    -7.33856E+06    -7.33039E+06     126.876E+06     132.620E+06    -717.810E+03         58.2455
             615     15.0986E-03     38.5518E-03         2.46536    -702.794E-03    -771.166E-03    -702.734E-03         2.46530    -771.166E-03    -22.6955E-03     153.176E-03    -58.6988E-03    -94.4754E-03    -58.9183E-03     117.619E-03    -58.6988E-03     171.817E-03     116.237E+06     103.886E+06    -14.7667E+06    -14.7588E+06     114.704E+06     105.411E+06    -361.850E+03         54.9100
             616     14.1555E-03     38.3952E-03         2.47971    -718.980E-03    -775.071E-03    -718.921E-03         2.47965    -775.071E-03     4.38387E-03     130.543E-03    -58.5669E-03    -72.0022E-03    -56.9552E-03     115.496E-03    -58.5669E-03     102.841E-03     103.572E+06     65.6177E+06    -21.4059E+06    -21.3769E+06     103.543E+06     65.6177E+06    -1.04526E+06         50.6006
             617     13.2076E-03     38.3218E-03         2.49114    -730.214E-03    -778.556E-03    -730.110E-03         2.49104    -778.556E-03    -7.51706E-03     120.188E-03    -58.4406E-03    -61.7942E-03    -56.4597E-03     114.853E-03    -58.4406E-03     60.6062E-03     92.8632E+06     26.2458E+06    -26.6570E+06    -26.6229E+06     92.8291E+06     26.2458E+06    -772.013E+03         46.0021
             618     12.2660E-03     38.2656E-03         2.50544    -740.077E-03    -781.772E-03    -739.802E-03         2.50516    -781.772E-03     13.0940E-03     118.220E-03    -58.3759E-03    -59.8753E-03    -57.4606E-03     115.806E-03    -58.3759E-03     39.6962E-03     62.5791E+06    -1.31349E+06     -30.819E+06    -30.8083E+06     62.5685E+06    -1.31349E+06     634.923E+03         41.8349
             619     11.3211E-03     38.2353E-03         2.51667    -743.935E-03    -785.043E-03    -743.023E-03         2.51576    -785.043E-03    -31.8090E-03     116.908E-03    -58.2682E-03    -58.6480E-03    -57.5683E-03     115.964E-03    -58.4038E-03     25.4797E-03     13.0043E+06    -22.2241E+06    -34.6207E+06    -34.1308E+06     1.68921E+06    -11.3989E+06    -167.479E+03         38.3595
             620     10.3775E-03     38.2111E-03         2.52837    -750.880E-03    -788.478E-03    -749.769E-03         2.52726    -788.478E-03    -15.0290E-03     116.739E-03    -58.1873E-03    -58.5535E-03    -57.5723E-03     116.088E-03    -58.5168E-03     21.2491E-03    -10.6523E+06    -35.0256E+06    -63.6400E+06    -35.9156E+06    -62.7499E+06    -10.6523E+06    -279.334E+03         35.6072
             621     9.43482E-03     38.1879E-03         2.54614    -766.239E-03    -793.303E-03    -766.938E-03         2.54492    -791.387E-03    -21.9306E-03     116.750E-03    -58.1231E-03    -58.6329E-03    -57.7139E-03     116.341E-03    -58.6329E-03     16.4901E-03    -9.88293E+06    -38.2618E+06    -110.609E+06    -38.2638E+06    -110.607E+06    -9.88293E+06    -250.750E+03         33.6214
             622     8.48911E-03     38.1764E-03         2.55820    -775.889E-03    -799.135E-03    -779.505E-03         2.55602    -793.344E-03     21.8147E-03     116.874E-03    -58.1557E-03    -58.7274E-03    -57.9582E-03     116.676E-03    -58.7274E-03     11.6773E-03    -10.6963E+06    -40.9733E+06    -147.136E+06    -40.9753E+06    -147.134E+06    -10.6963E+06    -41.1974E+03         32.3483
             623     7.54658E-03     38.1646E-03         2.56405    -781.138E-03    -802.752E-03    -785.952E-03         2.56078    -794.666E-03    -17.3037E-03     117.103E-03    -58.3134E-03    -58.7993E-03    -58.1945E-03     116.984E-03    -58.7993E-03     9.01946E-03    -13.6190E+06    -44.3902E+06    -179.620E+06    -44.3962E+06    -179.614E+06    -13.6190E+06     231.712E+03         31.5394
             624     6.60255E-03     38.1573E-03         2.56900    -782.222E-03    -810.844E-03    -789.119E-03         2.56075    -795.693E-03     93.3648E-03     117.225E-03    -58.3598E-03    -58.8763E-03    -58.2999E-03     117.165E-03    -58.8763E-03     6.36085E-03    -16.2117E+06    -48.1617E+06    -215.067E+06    -48.1703E+06    -215.059E+06    -16.2117E+06     378.976E+03         30.9412
             625     5.65900E-03     38.1520E-03         2.57721    -786.956E-03    -813.949E-03    -782.580E-03         2.55627    -797.384E-03    -107.351E-03     117.352E-03    -58.4343E-03    -58.9288E-03    -58.4074E-03     117.325E-03    -58.9288E-03     4.26159E-03    -21.6974E+06    -53.4397E+06    -242.697E+06    -53.4446E+06    -242.692E+06    -21.6974E+06    -37.7209E+03         30.4591
             626     4.71610E-03     38.1490E-03         2.61065    -796.966E-03    -833.244E-03    -781.196E-03         2.56217    -800.533E-03     168.618E-03     117.503E-03    -58.5860E-03    -58.9317E-03    -58.5740E-03     117.491E-03    -58.9317E-03     2.85184E-03    -30.7098E+06    -59.3560E+06    -257.016E+06    -59.3576E+06    -257.014E+06    -30.7098E+06    -315.515E+03         30.0758
             627     3.77207E-03     38.1458E-03         2.69554    -802.705E-03    -912.347E-03    -794.361E-03         2.57848    -803.625E-03    -287.070E-03     117.650E-03    -58.7614E-03    -58.9044E-03    -58.7625E-03     117.646E-03    -58.8990E-03     1.56908E-03    -41.7950E+06    -64.6455E+06    -268.660E+06    -64.6466E+06    -268.659E+06    -41.7950E+06     162.946E+03         29.7805
             628     2.83029E-03     38.1462E-03         2.89286    -807.230E-03        -1.10987    -792.647E-03         2.57563    -807.230E-03     566.167E-03     117.519E-03    -58.6686E-03    -58.8625E-03    -58.6729E-03     117.518E-03    -58.8571E-03     859.289E-06    -56.0445E+06    -69.4102E+06    -277.707E+06    -69.4123E+06    -277.704E+06    -56.0445E+06     121.217E+03         29.5643
             629     1.88611E-03     38.1443E-03         3.40412    -817.455E-03        -1.61210    -786.336E-03         2.57835    -817.455E-03    -989.334E-03     117.355E-03    -58.4183E-03    -58.9443E-03    -58.4176E-03     117.354E-03    -58.9443E-03     387.964E-06    -68.3070E+06    -73.9851E+06    -285.146E+06    -73.8207E+06    -285.141E+06    -68.4763E+06    -437.681E+03         29.4207
             630     941.452E-06     38.1448E-03         5.31142    -718.553E-03        -3.62050    -931.924E-03         2.62285    -718.553E-03         3.43898     118.056E-03    -58.7653E-03    -59.2945E-03    -58.9555E-03     118.055E-03    -59.1028E-03     521.623E-06    -74.2200E+06    -76.1416E+06    -287.757E+06    -75.8650E+06    -287.742E+06    -74.5118E+06    -369.614E+03         29.3440
             631     16.0460E-03     37.6693E-03         2.45900    -702.562E-03    -766.060E-03    -702.513E-03         2.45895    -766.060E-03    -6.97342E-03     151.929E-03    -58.7514E-03    -93.1550E-03    -60.1212E-03     118.895E-03    -58.7514E-03     164.102E-03     133.883E+06     128.197E+06    -6.79272E+06    -6.76311E+06     128.168E+06     133.883E+06    -1.44637E+06         58.2064
             632     15.1027E-03     37.4237E-03         2.46614    -705.780E-03    -769.630E-03    -705.716E-03         2.46607    -769.630E-03    -23.4394E-03     153.498E-03    -58.6562E-03    -94.8369E-03    -58.9721E-03     117.633E-03    -58.6562E-03     172.967E-03     116.662E+06     103.891E+06    -13.2729E+06    -13.2432E+06     114.519E+06     106.005E+06    -1.31968E+06         54.8885
             633     14.1550E-03     37.2791E-03         2.48981    -726.832E-03    -772.806E-03    -726.785E-03         2.48976    -772.806E-03    -949.182E-06     130.415E-03    -58.5477E-03    -71.8895E-03    -56.4139E-03     114.940E-03    -58.5477E-03     104.163E-03     101.710E+06     64.2756E+06    -20.7883E+06    -20.6400E+06     101.562E+06     64.2756E+06     510.075E+03         50.5910
             634     13.2097E-03     37.1959E-03         2.50114    -736.266E-03    -775.471E-03    -736.151E-03         2.50103    -775.471E-03    -16.3402E-03     120.510E-03    -58.4486E-03    -62.1064E-03    -56.6914E-03     115.095E-03    -58.4486E-03     60.8791E-03     92.1983E+06     27.5959E+06    -27.4731E+06    -27.3409E+06     92.0661E+06     27.5959E+06     1.46672E+06         45.9968
             635     12.2646E-03     37.1418E-03         2.49897    -732.975E-03    -778.464E-03    -732.585E-03         2.49858    -778.464E-03     15.8969E-03     117.962E-03    -58.3754E-03    -59.6206E-03    -57.3226E-03     115.664E-03    -58.3754E-03     38.8755E-03     62.8501E+06     415.022E+03    -31.7121E+06    -31.6999E+06     62.8378E+06     415.022E+03     331.400E+03         41.8306
             636     11.3220E-03     37.1112E-03         2.51415    -743.893E-03    -781.729E-03    -742.997E-03         2.51326    -781.729E-03    -17.9416E-03     116.928E-03    -58.3970E-03    -58.5442E-03    -57.5969E-03     115.982E-03    -58.3983E-03     25.4890E-03     13.7371E+06    -22.2205E+06    -34.0219E+06    -33.0673E+06     1.43410E+06    -10.8721E+06    -42.4943E+03         38.3559
             637     10.3785E-03     37.0874E-03         2.52868    -755.748E-03    -784.629E-03    -754.602E-03         2.52753    -784.629E-03     659.695E-06     116.714E-03    -58.1641E-03    -58.5475E-03    -57.5493E-03     116.062E-03    -58.5108E-03     21.2662E-03    -9.88927E+06    -34.4695E+06    -62.7882E+06    -34.5703E+06    -62.6874E+06    -9.88927E+06    -190.265E+03         35.6046
             638     9.43239E-03     37.0665E-03         2.52493    -751.907E-03    -787.792E-03    -750.575E-03         2.52360    -787.792E-03    -12.2829E-03     116.519E-03    -57.8797E-03    -58.6392E-03    -57.4589E-03     116.098E-03    -58.6392E-03     16.7346E-03    -9.31669E+06    -37.2285E+06    -110.434E+06    -37.2320E+06    -110.431E+06    -9.31669E+06    -253.081E+03         33.6205
             639     8.49008E-03     37.0518E-03         2.53334    -760.502E-03    -791.428E-03    -758.659E-03         2.53149    -791.428E-03     12.5134E-03     116.901E-03    -58.1564E-03    -58.7504E-03    -57.9533E-03     116.698E-03    -58.7504E-03     11.8283E-03    -10.4121E+06    -40.7892E+06    -147.807E+06    -40.7913E+06    -147.805E+06    -10.4121E+06    -223.980E+03         32.3499
             640     7.54593E-03     37.0416E-03         2.56361    -783.253E-03    -799.561E-03    -785.643E-03         2.56015    -793.715E-03    -43.7501E-03     117.172E-03    -58.3575E-03    -58.8230E-03    -58.2410E-03     117.055E-03    -58.8230E-03     8.91860E-03    -13.3748E+06    -44.4832E+06    -179.588E+06    -44.4897E+06    -179.581E+06    -13.3748E+06    -93.7654E+03         31.5434
             641     6.60263E-03     37.0337E-03         2.59490    -792.814E-03    -820.651E-03    -812.041E-03         2.58629    -792.814E-03     78.6802E-03     117.266E-03    -58.3808E-03    -58.8958E-03    -58.3222E-03     117.208E-03    -58.8958E-03     6.30352E-03    -16.8328E+06    -49.3133E+06    -215.568E+06    -49.3215E+06    -215.560E+06    -16.8328E+06     368.858E+03         30.9470
             642     5.65938E-03     37.0289E-03         2.59341    -788.331E-03    -822.372E-03    -796.245E-03         2.56993    -790.978E-03    -133.374E-03     117.532E-03    -58.6181E-03    -58.9276E-03    -58.5901E-03     117.504E-03    -58.9276E-03     4.35533E-03    -22.5041E+06    -54.0079E+06    -241.861E+06    -54.0145E+06    -241.854E+06    -22.5041E+06     471.796E+03         30.4650
             643     4.71580E-03     37.0248E-03         2.58015    -791.184E-03    -807.063E-03    -752.426E-03         2.52908    -794.751E-03     134.073E-03     117.562E-03    -58.6793E-03    -58.8987E-03    -58.6675E-03     117.550E-03    -58.8987E-03     2.78635E-03    -32.5257E+06    -58.9688E+06    -256.874E+06    -58.9757E+06    -256.867E+06    -32.5257E+06    -316.057E+03         30.0789
             644     3.77318E-03     37.0232E-03         2.66782    -802.819E-03    -889.221E-03    -765.522E-03         2.54505    -803.740E-03    -321.255E-03     117.524E-03    -58.6638E-03    -58.8738E-03    -58.6639E-03     117.520E-03    -58.8695E-03     1.63995E-03    -43.0927E+06    -64.0483E+06    -269.614E+06    -64.0522E+06    -269.610E+06    -43.0927E+06    -556.863E+03         29.7799
             645     2.82891E-03     37.0212E-03         2.89348    -807.214E-03        -1.11440    -814.953E-03         2.59403    -807.214E-03     481.041E-03     117.586E-03    -58.7170E-03    -58.8798E-03    -58.7709E-03     117.584E-03    -58.8238E-03     587.008E-06    -55.3464E+06    -69.1727E+06    -277.340E+06    -69.1737E+06    -277.339E+06    -55.3464E+06     119.104E+03         29.5624
             646     1.88655E-03     37.0225E-03         3.40043    -797.840E-03        -1.63298    -830.154E-03         2.59760    -797.840E-03        -1.05714     117.481E-03    -58.5263E-03    -58.9626E-03    -58.7087E-03     117.479E-03    -58.7785E-03     188.001E-06    -66.8048E+06    -73.7418E+06    -284.789E+06    -73.5764E+06    -284.785E+06    -66.9741E+06     638.264E+03         29.4157
             647     943.687E-06     37.0203E-03         5.30166    -826.628E-03        -3.50431    -752.854E-03         2.55021    -826.628E-03         3.36146     117.477E-03    -58.4884E-03    -58.9933E-03    -58.7801E-03     117.476E-03    -58.7001E-03     607.900E-06    -74.3885E+06    -77.6006E+06    -289.124E+06    -76.2969E+06    -289.104E+06    -75.7122E+06     685.966E+03         29.3287
             648     16.0418E-03     36.5312E-03         2.45446    -702.647E-03    -763.867E-03    -702.561E-03         2.45437    -763.867E-03    -23.5613E-03     150.978E-03    -58.7837E-03    -92.1817E-03    -59.3303E-03     118.127E-03    -58.7837E-03     163.491E-03     132.414E+06     128.369E+06    -9.46872E+06    -9.35212E+06     128.253E+06     132.414E+06    -2.75732E+06         58.1684
             649     15.0994E-03     36.3082E-03         2.47205    -717.360E-03    -766.664E-03    -717.246E-03         2.47194    -766.664E-03    -23.0010E-03     152.887E-03    -58.7181E-03    -94.1829E-03    -58.5794E-03     117.284E-03    -58.7181E-03     172.160E-03     113.161E+06     100.850E+06    -18.1116E+06    -17.9958E+06     111.318E+06     102.576E+06    -2.84867E+06         54.8652
             650     14.1526E-03     36.1525E-03         2.48032    -721.586E-03    -769.320E-03    -721.437E-03         2.48017    -769.320E-03     16.3860E-03     132.308E-03    -58.5862E-03    -73.7541E-03    -57.7867E-03     116.341E-03    -58.5862E-03     106.365E-03     100.043E+06     63.6051E+06    -23.3390E+06    -23.2036E+06     99.9076E+06     63.6051E+06     691.319E+03         50.5826
             651     13.2108E-03     36.0731E-03         2.48939    -726.593E-03    -772.272E-03    -726.409E-03         2.48921    -772.272E-03    -3.62524E-03     121.051E-03    -58.4281E-03    -62.6806E-03    -57.3289E-03     115.700E-03    -58.4281E-03     60.7834E-03     93.5134E+06     29.8524E+06    -25.9805E+06    -25.8540E+06     93.3869E+06     29.8524E+06     2.03265E+06         45.9961
             652     12.2664E-03     36.0189E-03         2.49988    -735.748E-03    -775.316E-03    -735.207E-03         2.49934    -775.316E-03     33.3222E-03     117.377E-03    -58.2275E-03    -59.1909E-03    -56.7531E-03     115.058E-03    -58.3465E-03     39.0964E-03     63.3350E+06     1.48394E+06    -28.9920E+06    -28.9745E+06     63.3175E+06     1.48394E+06     457.674E+03         41.8296
             653     11.3210E-03     35.9871E-03         2.51014    -742.500E-03    -778.299E-03    -741.702E-03         2.50934    -778.299E-03     9.52881E-03     116.530E-03    -58.1122E-03    -58.4333E-03    -57.1525E-03     115.545E-03    -58.4083E-03     25.8436E-03     13.2626E+06    -22.1451E+06    -32.6480E+06    -31.4462E+06     696.321E+03    -10.7807E+06        -278.266         38.3530
             654     10.3769E-03     35.9644E-03         2.51681    -747.296E-03    -781.340E-03    -746.502E-03         2.51602    -781.340E-03     6.50321E-03     116.745E-03    -58.2111E-03    -58.5438E-03    -57.5595E-03     116.093E-03    -58.5434E-03     21.2725E-03    -9.80376E+06    -34.0915E+06    -62.9701E+06    -34.1399E+06    -62.9218E+06    -9.80376E+06     152.409E+03         35.6022
             655     9.43474E-03     35.9435E-03         2.52546    -755.919E-03    -784.969E-03    -755.572E-03         2.52445    -784.304E-03    -8.42892E-03     116.926E-03    -58.2752E-03    -58.6538E-03    -57.8413E-03     116.492E-03    -58.6535E-03     17.0454E-03    -9.54760E+06    -37.1354E+06    -109.941E+06    -37.1483E+06    -109.928E+06    -9.54760E+06     362.394E+03         33.6201
             656     8.48898E-03     35.9285E-03         2.53842    -771.445E-03    -787.233E-03    -770.658E-03         2.53697    -786.568E-03     17.0380E-03     116.897E-03    -58.1558E-03    -58.7476E-03    -57.9539E-03     116.695E-03    -58.7476E-03     11.7306E-03    -10.9715E+06    -41.1298E+06    -147.938E+06    -41.1350E+06    -147.933E+06    -10.9715E+06    -93.5441E+03         32.3507
             657     7.54607E-03     35.9177E-03         2.54305    -774.619E-03    -789.965E-03    -773.371E-03         2.54017    -788.330E-03    -36.8516E-03     117.027E-03    -58.2102E-03    -58.8306E-03    -58.0987E-03     116.915E-03    -58.8306E-03     8.74559E-03    -14.0826E+06    -44.9350E+06    -180.595E+06    -44.9432E+06    -180.587E+06    -14.0826E+06    -416.352E+03         31.5442
             658     6.60243E-03     35.9104E-03         2.55906    -777.461E-03    -802.638E-03    -779.874E-03         2.54879    -789.953E-03     121.177E-03     117.411E-03    -58.5230E-03    -58.9006E-03    -58.4627E-03     117.350E-03    -58.9006E-03     6.38166E-03    -17.1208E+06    -48.3947E+06    -215.818E+06    -48.4016E+06    -215.811E+06    -17.1208E+06     77.8938E+03         30.9486
             659     5.65891E-03     35.9047E-03         2.59312    -787.182E-03    -824.188E-03    -795.466E-03         2.56746    -790.238E-03    -108.253E-03     117.575E-03    -58.6819E-03    -58.9095E-03    -58.6539E-03     117.547E-03    -58.9095E-03     4.36324E-03    -23.5478E+06    -53.1431E+06    -241.968E+06    -53.1461E+06    -241.965E+06    -23.5478E+06     500.101E+03         30.4663
             660     4.71634E-03     35.9013E-03         2.61613    -789.619E-03    -843.824E-03    -791.552E-03         2.56386    -789.619E-03     143.857E-03     117.587E-03    -58.7256E-03    -58.8785E-03    -58.7206E-03     117.576E-03    -58.8721E-03     2.68334E-03    -33.1539E+06    -58.4679E+06    -256.316E+06    -58.4748E+06    -256.310E+06    -33.1539E+06     135.416E+03         30.0778
             661     3.77249E-03     35.8996E-03         2.66888    -790.848E-03    -899.841E-03    -779.437E-03         2.54848    -790.848E-03    -285.239E-03     117.496E-03    -58.6640E-03    -58.8443E-03    -58.6669E-03     117.492E-03    -58.8379E-03     1.54114E-03    -43.3871E+06    -64.1333E+06    -270.052E+06    -64.1381E+06    -270.047E+06    -43.3871E+06    -157.403E+03         29.7769
             662     2.83016E-03     35.8980E-03         2.87129    -791.427E-03        -1.10329    -796.441E-03         2.56444    -791.427E-03     530.740E-03     117.494E-03    -58.6562E-03    -58.8480E-03    -58.7057E-03     117.492E-03    -58.7962E-03     664.088E-06    -55.1303E+06    -69.3780E+06    -277.922E+06    -69.3782E+06    -277.921E+06    -55.1303E+06     129.885E+03         29.5598
             663     1.88658E-03     35.8984E-03         3.38968    -780.720E-03        -1.63055    -820.209E-03         2.57934    -780.720E-03        -1.01853     117.641E-03    -58.6559E-03    -58.9913E-03    -58.9786E-03     117.639E-03    -58.6667E-03     447.006E-06    -65.0372E+06    -73.6329E+06    -284.536E+06    -73.6367E+06    -284.533E+06    -65.0372E+06     652.205E+03         29.4128
             664     943.709E-06     35.8975E-03         5.29265    -945.585E-03        -3.37172    -596.022E-03         2.51695    -945.585E-03         3.28979     117.047E-03    -58.2769E-03    -58.7732E-03    -58.7720E-03     117.045E-03    -58.2769E-03     766.703E-06    -71.9857E+06    -78.1054E+06    -289.139E+06    -77.0894E+06    -289.123E+06    -73.0175E+06     1.31934E+06         29.3163
             665     16.0479E-03     35.4135E-03         2.44545    -693.534E-03    -760.222E-03    -693.372E-03         2.44529    -760.222E-03    -329.030E-06     149.842E-03    -58.8028E-03    -91.0370E-03    -58.3116E-03     117.117E-03    -58.8028E-03     162.198E-03     131.863E+06     129.061E+06    -9.60479E+06    -9.50595E+06     128.962E+06     131.863E+06    -1.57674E+06         58.1338
             666     15.0960E-03     35.1851E-03         2.46733    -712.158E-03    -763.144E-03    -712.098E-03         2.46727    -763.144E-03    -9.72672E-03     152.802E-03    -58.7608E-03    -94.0541E-03    -58.7584E-03     117.507E-03    -58.7608E-03     171.138E-03     111.265E+06     100.615E+06    -18.7922E+06    -18.6753E+06     110.059E+06     101.704E+06    -2.23198E+06         54.8462
             667     14.1545E-03     35.0271E-03         2.47379    -716.841E-03    -765.904E-03    -716.703E-03         2.47365    -765.904E-03     28.0427E-03     132.515E-03    -58.6019E-03    -73.9361E-03    -58.3245E-03     116.903E-03    -58.6019E-03     105.582E-03     97.9383E+06     61.9544E+06    -25.1465E+06    -25.1081E+06     97.9000E+06     61.9544E+06    -1.78581E+06         50.5783
             668     13.2103E-03     34.9482E-03         2.48190    -722.392E-03    -768.940E-03    -722.181E-03         2.48169    -768.940E-03     888.344E-06     120.589E-03    -58.4411E-03    -62.2062E-03    -56.8809E-03     115.264E-03    -58.4411E-03     60.5917E-03     92.4821E+06     28.8632E+06    -27.7016E+06    -27.6698E+06     92.4503E+06     28.8632E+06    -600.847E+03         45.9953
             669     12.2656E-03     34.8973E-03         2.50042    -738.788E-03    -771.703E-03    -738.255E-03         2.49989    -771.703E-03     30.1730E-03     117.548E-03    -58.2618E-03    -59.3279E-03    -56.7771E-03     115.116E-03    -58.3808E-03     40.1668E-03     64.6695E+06     2.32073E+06    -29.3689E+06    -29.3352E+06     64.6357E+06     2.32073E+06     1.11844E+06         41.8266
             670     11.3213E-03     34.8636E-03         2.50826    -744.340E-03    -774.127E-03    -743.331E-03         2.50725    -774.127E-03    -7.07921E-03     116.526E-03    -58.0793E-03    -58.4689E-03    -57.0744E-03     115.493E-03    -58.4411E-03     26.3839E-03     13.5405E+06    -22.3771E+06    -33.8904E+06    -31.9740E+06     858.732E+03    -11.6117E+06     1.06943E+06         38.3499
             671     10.3769E-03     34.8416E-03         2.50805    -741.688E-03    -776.939E-03    -740.726E-03         2.50709    -776.939E-03    -12.2236E-03     116.879E-03    -58.3194E-03    -58.5783E-03    -57.6798E-03     116.239E-03    -58.5780E-03     21.0801E-03    -10.7807E+06    -34.5114E+06    -63.7990E+06    -34.6583E+06    -63.6521E+06    -10.7807E+06     726.117E+03         35.5998
             672     9.43178E-03     34.8189E-03         2.52057    -754.125E-03    -780.440E-03    -753.946E-03         2.51973    -779.775E-03    -6.00396E-03     117.174E-03    -58.5091E-03    -58.6713E-03    -58.0797E-03     116.745E-03    -58.6710E-03     17.0137E-03    -11.0737E+06    -37.4283E+06    -110.579E+06    -37.4417E+06    -110.566E+06    -11.0737E+06     912.098E+03         33.6196
             673     8.49099E-03     34.8054E-03         2.52695    -763.911E-03    -782.740E-03    -762.761E-03         2.52513    -782.075E-03     38.3687E-03     117.070E-03    -58.3331E-03    -58.7444E-03    -58.1290E-03     116.866E-03    -58.7444E-03     11.7907E-03    -11.6748E+06    -40.1334E+06    -146.732E+06    -40.1421E+06    -146.724E+06    -11.6748E+06     625.679E+03         32.3517
             674     7.54581E-03     34.7953E-03         2.52514    -764.344E-03    -784.563E-03    -761.522E-03         2.52232    -784.563E-03    -5.02003E-03     117.110E-03    -58.3165E-03    -58.8107E-03    -58.2055E-03     116.999E-03    -58.8107E-03     8.74886E-03    -14.9783E+06    -44.6441E+06    -180.472E+06    -44.6511E+06    -180.465E+06    -14.9783E+06    -305.550E+03         31.5439
             675     6.60236E-03     34.7861E-03         2.53035    -765.326E-03    -788.296E-03    -756.038E-03         2.52106    -788.296E-03     127.627E-03     117.372E-03    -58.5208E-03    -58.8675E-03    -58.4635E-03     117.314E-03    -58.8675E-03     6.15885E-03    -19.0335E+06    -49.7859E+06    -217.138E+06    -49.7906E+06    -217.133E+06    -19.0335E+06    -179.341E+03         30.9453
             676     5.65978E-03     34.7816E-03         2.56595    -779.621E-03    -805.896E-03    -770.748E-03         2.54358    -792.398E-03    -88.4995E-03     117.465E-03    -58.5995E-03    -58.8828E-03    -58.5753E-03     117.441E-03    -58.8828E-03     4.09073E-03    -24.2173E+06    -54.3742E+06    -241.511E+06    -54.3767E+06    -241.508E+06    -24.2173E+06     555.745E+03         30.4610
             677     4.71569E-03     34.7777E-03         2.63337    -791.772E-03    -862.211E-03    -814.305E-03         2.58567    -791.974E-03     168.082E-03     117.455E-03    -58.5940E-03    -58.8768E-03    -58.5885E-03     117.444E-03    -58.8705E-03     2.77867E-03    -32.6972E+06    -59.3648E+06    -256.350E+06    -59.3680E+06    -256.346E+06    -32.6972E+06     351.629E+03         30.0722
             678     3.77355E-03     34.7757E-03         2.69223    -786.058E-03    -927.279E-03    -815.587E-03         2.58054    -786.058E-03    -260.242E-03     117.469E-03    -58.6250E-03    -58.8574E-03    -58.6273E-03     117.465E-03    -58.8510E-03     1.62564E-03    -43.3035E+06    -64.6623E+06    -270.514E+06    -64.6640E+06    -270.512E+06    -43.3035E+06     141.766E+03         29.7737
             679     2.82916E-03     34.7754E-03         2.84820    -783.469E-03        -1.08419    -776.849E-03         2.54085    -783.469E-03     566.109E-03     117.530E-03    -58.6845E-03    -58.8559E-03    -58.7277E-03     117.528E-03    -58.8106E-03     1.19228E-03    -55.2858E+06    -69.0951E+06    -278.120E+06    -69.0954E+06    -278.119E+06    -55.2858E+06     166.191E+03         29.5591
             680     1.88636E-03     34.7741E-03         3.36066    -788.135E-03        -1.58807    -773.878E-03         2.54647    -788.135E-03    -994.208E-03     117.574E-03    -58.6632E-03    -58.9141E-03    -58.8477E-03     117.573E-03    -58.7283E-03     439.856E-06    -65.4388E+06    -72.6350E+06    -284.480E+06    -72.6366E+06    -284.478E+06    -65.4388E+06     7.29442E+03         29.4135
             681     943.638E-06     34.7748E-03         5.29266        -1.10419        -3.20537    -479.142E-03         2.56643        -1.10419         3.17798     117.291E-03    -58.3882E-03    -58.9033E-03    -58.8478E-03     117.290E-03    -58.4424E-03     310.089E-06    -71.6453E+06    -75.5222E+06    -288.130E+06    -75.3795E+06    -288.102E+06    -71.8156E+06    -1.30301E+06         29.3217
             682     16.0395E-03     34.2936E-03         2.44665    -699.018E-03    -756.469E-03    -698.649E-03         2.44628    -756.469E-03     27.6231E-03     150.224E-03    -58.8492E-03    -91.3648E-03    -58.4768E-03     117.336E-03    -58.8492E-03     162.924E-03     133.465E+06     130.557E+06    -8.28962E+06    -8.27942E+06     130.547E+06     133.465E+06    -444.540E+03         58.1006
             683     15.1001E-03     34.0587E-03         2.45093    -698.960E-03    -759.443E-03    -698.738E-03         2.45071    -759.443E-03     2.72126E-03     154.287E-03    -58.7731E-03    -95.5086E-03    -60.0176E-03     118.796E-03    -58.7731E-03     172.710E-03     113.400E+06     103.190E+06    -16.7044E+06    -16.6664E+06     112.254E+06     104.299E+06    -230.705E+03         54.8299
             684     14.1551E-03     33.9041E-03         2.47140    -714.660E-03    -762.402E-03    -714.423E-03         2.47116    -762.402E-03     39.0237E-03     131.750E-03    -58.5885E-03    -73.1740E-03    -57.6850E-03     116.261E-03    -58.5885E-03     105.074E-03     97.2714E+06     60.7672E+06    -24.8498E+06    -24.7817E+06     97.2032E+06     60.7672E+06    -1.72382E+06         50.5750
             685     13.2085E-03     33.8267E-03         2.48842    -731.416E-03    -764.882E-03    -731.266E-03         2.48827    -764.882E-03     6.93980E-03     120.061E-03    -58.4678E-03    -61.6551E-03    -56.2532E-03     114.659E-03    -58.4678E-03     60.7373E-03     89.6864E+06     24.8656E+06    -29.7244E+06    -29.6831E+06     89.6451E+06     24.8656E+06    -1.97784E+06         45.9927
             686     12.2641E-03     33.7721E-03         2.49435    -737.975E-03    -767.011E-03    -737.379E-03         2.49375    -767.011E-03     44.7274E-03     117.798E-03    -58.4360E-03    -59.4071E-03    -57.0206E-03     115.412E-03    -58.4360E-03     39.7005E-03     62.6458E+06     446.101E+03    -32.4261E+06    -32.3978E+06     62.6175E+06     446.101E+03    -251.139E+03         41.8222
             687     11.3202E-03     33.7418E-03         2.49771    -740.391E-03    -769.254E-03    -739.214E-03         2.49653    -769.254E-03    -7.12639E-03     117.015E-03    -58.4042E-03    -58.6359E-03    -57.5764E-03     116.023E-03    -58.4712E-03     25.9887E-03     13.1846E+06    -22.1119E+06    -35.5748E+06    -34.2620E+06     1.35686E+06    -11.5970E+06     958.983E+03         38.3467
             688     10.3765E-03     33.7164E-03         2.50226    -743.933E-03    -771.734E-03    -742.444E-03         2.50077    -771.734E-03     7.85954E-03     117.006E-03    -58.4144E-03    -58.6104E-03    -57.8334E-03     116.390E-03    -58.5754E-03     20.6949E-03    -10.9549E+06    -34.5754E+06    -63.8512E+06    -35.6583E+06    -62.7683E+06    -10.9549E+06     992.408E+03         35.5977
             689     9.43461E-03     33.6965E-03         2.50244    -743.715E-03    -774.604E-03    -742.133E-03         2.50086    -774.604E-03     5.60910E-03     116.975E-03    -58.3140E-03    -58.6710E-03    -57.9119E-03     116.573E-03    -58.6710E-03     16.5047E-03    -11.2659E+06    -37.4785E+06    -111.221E+06    -37.4848E+06    -111.215E+06    -11.2659E+06     334.950E+03         33.6182
             690     8.48805E-03     33.6810E-03         2.50440    -746.167E-03    -778.055E-03    -743.983E-03         2.50222    -778.055E-03     28.1158E-03     117.134E-03    -58.3968E-03    -58.7459E-03    -58.1976E-03     116.935E-03    -58.7459E-03     11.6469E-03    -11.9054E+06    -39.3614E+06    -146.709E+06    -39.3674E+06    -146.703E+06    -11.9054E+06     316.118E+03         32.3512
             691     7.54687E-03     33.6716E-03         2.52735    -766.519E-03    -781.735E-03    -764.021E-03         2.52407    -780.954E-03    -14.0143E-03     117.346E-03    -58.5529E-03    -58.8070E-03    -58.4413E-03     117.235E-03    -58.8070E-03     8.78983E-03    -12.5154E+06    -42.9394E+06    -180.598E+06    -42.9854E+06    -180.552E+06    -12.5154E+06     1.50321E+06         31.5427
             692     6.60334E-03     33.6629E-03         2.54090    -772.231E-03    -789.922E-03    -772.291E-03         2.53375    -782.709E-03     77.2772E-03     117.330E-03    -58.4898E-03    -58.8547E-03    -58.4262E-03     117.266E-03    -58.8547E-03     6.53084E-03    -16.2744E+06    -49.0641E+06    -217.420E+06    -49.1118E+06    -217.372E+06    -16.2744E+06     1.76151E+06         30.9402
             693     5.65916E-03     33.6579E-03         2.54584    -775.605E-03    -792.434E-03    -762.258E-03         2.52539    -785.327E-03    -129.571E-03     117.351E-03    -58.4932E-03    -58.8717E-03    -58.4667E-03     117.325E-03    -58.8717E-03     4.14678E-03    -23.0791E+06    -54.9264E+06    -240.691E+06    -54.9387E+06    -240.679E+06    -23.0791E+06     234.094E+03         30.4524
             694     4.71653E-03     33.6544E-03         2.58441    -788.100E-03    -821.952E-03    -777.388E-03         2.54005    -788.301E-03     130.115E-03     117.239E-03    -58.3674E-03    -58.8839E-03    -58.3562E-03     117.228E-03    -58.8839E-03     2.76876E-03    -32.6932E+06    -59.3909E+06    -256.744E+06    -59.3998E+06    -256.735E+06    -32.6932E+06    -332.310E+03         30.0649
             695     3.77183E-03     33.6527E-03         2.67392    -786.309E-03    -919.483E-03    -810.808E-03         2.56524    -786.309E-03    -305.210E-03     117.459E-03    -58.5100E-03    -58.9604E-03    -58.5673E-03     117.454E-03    -58.8975E-03     1.88390E-03    -43.8411E+06    -64.0708E+06    -270.497E+06    -64.0734E+06    -270.495E+06    -43.8411E+06    -358.977E+03         29.7716
             696     2.82973E-03     33.6518E-03         2.83904    -780.851E-03        -1.08926    -795.167E-03         2.54494    -780.851E-03     510.202E-03     117.703E-03    -58.7381E-03    -58.9733E-03    -58.8444E-03     117.701E-03    -58.8651E-03     1.10295E-03    -55.5950E+06    -68.5148E+06    -278.315E+06    -68.5168E+06    -278.313E+06    -55.5950E+06    -184.914E+03         29.5617
             697     1.88663E-03     33.6502E-03         3.30578    -781.446E-03        -1.54620    -769.508E-03         2.52909    -781.446E-03    -971.780E-03     117.507E-03    -58.6163E-03    -58.8935E-03    -58.6607E-03     117.506E-03    -58.8482E-03     319.437E-06    -66.2300E+06    -71.1686E+06    -284.400E+06    -71.1748E+06    -284.394E+06    -66.2300E+06    -635.934E+03         29.4195
             698     942.577E-06     33.6525E-03         5.23349        -1.23815        -3.00680    -330.354E-03         2.55705        -1.23815         3.08389     117.704E-03    -58.5714E-03    -59.1322E-03    -58.9734E-03     117.703E-03    -58.7288E-03     462.719E-06    -72.7534E+06    -73.9901E+06    -287.610E+06    -73.4749E+06    -287.572E+06    -73.3065E+06    -1.36089E+06         29.3364
             699     16.0432E-03     33.1685E-03         2.44417    -696.210E-03    -752.180E-03    -695.873E-03         2.44383    -752.180E-03    -4.11912E-03     150.433E-03    -58.8706E-03    -91.5457E-03    -58.4122E-03     117.299E-03    -58.8706E-03     163.696E-03     133.553E+06     130.390E+06    -9.08603E+06    -9.07597E+06     130.380E+06     133.553E+06    -110.668E+03         58.0672
             700     15.0971E-03     32.9317E-03         2.44609    -697.709E-03    -754.743E-03    -697.404E-03         2.44578    -754.743E-03    -2.57019E-03     154.012E-03    -58.8116E-03    -95.2099E-03    -59.5547E-03     118.357E-03    -58.8116E-03     172.895E-03     113.935E+06     101.689E+06    -17.7276E+06    -17.7012E+06     111.957E+06     103.640E+06     180.064E+03         54.8096
             701     14.1534E-03     32.7828E-03         2.46035    -710.236E-03    -757.326E-03    -709.992E-03         2.46011    -757.326E-03     34.8329E-03     132.014E-03    -58.6406E-03    -73.3916E-03    -57.8232E-03     116.445E-03    -58.6406E-03     105.210E-03     98.7819E+06     61.3061E+06    -24.5405E+06    -24.5003E+06     98.7417E+06     61.3061E+06    -592.966E+03         50.5658
             702     13.2095E-03     32.7028E-03         2.47446    -724.063E-03    -759.676E-03    -723.923E-03         2.47432    -759.676E-03    -3.81722E-03     120.671E-03    -58.4870E-03    -62.2487E-03    -56.9100E-03     115.332E-03    -58.4870E-03     60.6144E-03     88.6261E+06     23.3551E+06    -30.4874E+06    -30.4536E+06     88.5923E+06     23.3551E+06    -1.43484E+06         45.9886
             703     12.2645E-03     32.6497E-03         2.47830    -728.987E-03    -761.951E-03    -728.506E-03         2.47782    -761.951E-03     39.2730E-03     117.892E-03    -58.4219E-03    -59.5181E-03    -57.1906E-03     115.565E-03    -58.4219E-03     39.1648E-03     59.6365E+06    -2.30451E+06    -34.1931E+06    -34.1756E+06     59.6190E+06    -2.30451E+06    -1.11362E+06         41.8192
             704     11.3211E-03     32.6162E-03         2.48431    -735.449E-03    -764.308E-03    -734.570E-03         2.48344    -764.308E-03    -2.24361E-03     116.961E-03    -58.3201E-03    -58.6614E-03    -57.5713E-03     116.011E-03    -58.4604E-03     25.4630E-03     11.9319E+06    -23.2324E+06    -35.8695E+06    -35.5751E+06     324.299E+03    -11.9193E+06    -253.447E+03         38.3439
             705     10.3778E-03     32.5941E-03         2.49764    -746.650E-03    -766.368E-03    -745.574E-03         2.49657    -766.368E-03     5.29307E-03     116.955E-03    -58.3480E-03    -58.6244E-03    -57.7796E-03     116.329E-03    -58.5666E-03     20.8982E-03    -10.7406E+06    -36.0074E+06    -63.2727E+06    -37.2542E+06    -62.0259E+06    -10.7406E+06     439.088E+03         35.5951
             706     9.43208E-03     32.5723E-03         2.50242    -749.440E-03    -770.346E-03    -749.943E-03         2.50068    -768.100E-03    -27.1558E-03     117.074E-03    -58.4054E-03    -58.6809E-03    -58.0179E-03     116.663E-03    -58.6580E-03     16.5677E-03    -10.7544E+06    -39.4482E+06    -109.596E+06    -39.4538E+06    -109.591E+06    -10.7544E+06     100.055E+03         33.6151
             707     8.49130E-03     32.5586E-03         2.50698    -754.170E-03    -771.982E-03    -754.387E-03         2.50495    -769.736E-03    -8.89840E-03     116.984E-03    -58.2642E-03    -58.7282E-03    -58.0681E-03     116.788E-03    -58.7282E-03     11.5979E-03    -13.2519E+06    -42.6516E+06    -147.931E+06    -42.6551E+06    -147.928E+06    -13.2519E+06    -2.48459E+03         32.3459
             708     7.54564E-03     32.5465E-03         2.51194    -756.759E-03    -772.325E-03    -754.365E-03         2.50876    -771.545E-03    -45.0653E-03     117.204E-03    -58.4088E-03    -58.8050E-03    -58.2934E-03     117.088E-03    -58.8050E-03     8.83391E-03    -13.6155E+06    -45.5714E+06    -183.030E+06    -45.6175E+06    -182.984E+06    -13.6155E+06     1.40107E+06         31.5365
             709     6.60252E-03     32.5404E-03         2.53013    -763.664E-03    -784.486E-03    -767.019E-03         2.52195    -772.955E-03     75.1785E-03     117.368E-03    -58.5104E-03    -58.8681E-03    -58.4495E-03     117.307E-03    -58.8681E-03     6.42826E-03    -13.8652E+06    -47.8213E+06    -215.487E+06    -47.8709E+06    -215.437E+06    -13.8652E+06     1.87065E+06         30.9349
             710     5.65988E-03     32.5335E-03         2.55027    -773.072E-03    -797.222E-03    -776.147E-03         2.52919    -773.072E-03    -120.159E-03     117.247E-03    -58.3681E-03    -58.8910E-03    -58.3389E-03     117.218E-03    -58.8910E-03     4.36095E-03    -21.2408E+06    -51.8821E+06    -239.582E+06    -51.8946E+06    -239.569E+06    -21.2408E+06     294.346E+03         30.4480
             711     4.71575E-03     32.5321E-03         2.55121    -774.858E-03    -799.556E-03    -754.119E-03         2.50577    -774.858E-03     128.474E-03     117.382E-03    -58.4080E-03    -58.9873E-03    -58.4794E-03     117.370E-03    -58.9040E-03     2.77293E-03    -31.6436E+06    -57.9206E+06    -256.830E+06    -57.9284E+06    -256.822E+06    -31.6436E+06    -473.795E+03         30.0630
             712     3.77275E-03     32.5290E-03         2.61883    -779.602E-03    -867.651E-03    -758.051E-03         2.50923    -779.602E-03    -295.861E-03     117.507E-03    -58.4710E-03    -59.0466E-03    -58.6121E-03     117.502E-03    -58.9004E-03     1.83910E-03    -43.5946E+06    -63.4399E+06    -270.274E+06    -63.4430E+06    -270.271E+06    -43.5946E+06    -251.373E+03         29.7716
             713     2.82931E-03     32.5271E-03         2.82617    -780.998E-03        -1.07185    -788.729E-03         2.54305    -780.998E-03     497.135E-03     117.510E-03    -58.5484E-03    -58.9701E-03    -58.6095E-03     117.508E-03    -58.9073E-03     863.795E-06    -56.3615E+06    -68.0934E+06    -278.925E+06    -68.1001E+06    -278.918E+06    -56.3615E+06    -621.687E+03         29.5626
             714     1.88571E-03     32.5287E-03         3.28149    -775.225E-03        -1.52772    -793.164E-03         2.54694    -775.225E-03    -918.806E-03     117.666E-03    -58.7005E-03    -58.9720E-03    -58.7147E-03     117.665E-03    -58.9573E-03     403.655E-06    -65.8684E+06    -71.9033E+06    -284.581E+06    -71.9137E+06    -284.570E+06    -65.8684E+06    -750.352E+03         29.4247
             715     943.031E-06     32.5269E-03         5.19460        -1.33280        -2.87713    -208.230E-03         2.52570        -1.33280         3.08230     117.933E-03    -58.7303E-03    -59.2053E-03    -59.1017E-03     117.933E-03    -58.8334E-03     414.321E-06    -72.4660E+06    -74.8240E+06    -288.031E+06    -74.3331E+06    -288.017E+06    -72.9713E+06     631.423E+03         29.3450
             716     16.0431E-03     32.0441E-03         2.43206    -686.919E-03    -746.500E-03    -686.811E-03         2.43195    -746.500E-03    -11.4317E-03     150.799E-03    -58.8520E-03    -91.9281E-03    -58.4729E-03     117.344E-03    -58.8520E-03     164.781E-03     134.451E+06     130.088E+06    -7.77505E+06    -7.76456E+06     130.078E+06     134.451E+06     958.490E+03         58.0311
             717     15.0973E-03     31.8117E-03         2.44454    -707.152E-03    -748.438E-03    -707.055E-03         2.44444    -748.438E-03    -11.9004E-03     152.972E-03    -58.8159E-03    -94.1604E-03    -58.6938E-03     117.506E-03    -58.8159E-03     171.631E-03     113.691E+06     100.190E+06    -16.1717E+06    -16.1526E+06     110.264E+06     103.598E+06     578.355E+03         54.7875
             718     14.1514E-03     31.6553E-03         2.44414    -711.489E-03    -749.998E-03    -711.393E-03         2.44405    -749.998E-03     16.2922E-03     131.741E-03    -58.6714E-03    -73.0908E-03    -57.8183E-03     116.468E-03    -58.6714E-03     103.707E-03     99.1509E+06     62.3579E+06    -23.2222E+06    -23.2092E+06     99.1379E+06     62.3579E+06    -180.772E+03         50.5544
             719     13.2087E-03     31.5802E-03         2.44376    -707.302E-03    -752.216E-03    -707.082E-03         2.44354    -752.216E-03    -20.8534E-03     120.975E-03    -58.4972E-03    -62.5254E-03    -57.3816E-03     115.832E-03    -58.4972E-03     59.8238E-03     90.0387E+06     25.3673E+06    -29.3355E+06    -29.3207E+06     90.0239E+06     25.3673E+06    -212.129E+03         45.9827
             720     12.2656E-03     31.5250E-03         2.45373    -715.976E-03    -754.913E-03    -715.628E-03         2.45338    -754.913E-03     7.47853E-03     118.040E-03    -58.3889E-03    -59.6940E-03    -57.3004E-03     115.663E-03    -58.4054E-03     39.6182E-03     59.5401E+06    -1.26997E+06    -33.1898E+06    -33.1678E+06     59.5181E+06    -1.26997E+06    -554.894E+03         41.8149
             721     11.3211E-03     31.4936E-03         2.46971    -730.739E-03    -757.282E-03    -730.068E-03         2.46904    -757.282E-03    -16.3494E-03     116.756E-03    -58.2741E-03    -58.5081E-03    -57.3753E-03     115.793E-03    -58.4439E-03     25.6045E-03     10.3760E+06    -24.3221E+06    -35.7781E+06    -35.4752E+06    -1.78689E+06    -12.4621E+06    -631.158E+03         38.3401
             722     10.3759E-03     31.4705E-03         2.48233    -740.339E-03    -759.113E-03    -739.542E-03         2.48153    -759.113E-03    -7.68346E-03     116.917E-03    -58.3520E-03    -58.5832E-03    -57.7560E-03     116.298E-03    -58.5603E-03     20.7628E-03    -10.6392E+06    -37.2468E+06    -62.8441E+06    -37.5435E+06    -62.5474E+06    -10.6392E+06    -195.764E+03         35.5916
             723     9.43484E-03     31.4484E-03         2.49569    -749.720E-03    -762.570E-03    -751.014E-03         2.49474    -760.324E-03    -9.69939E-03     117.086E-03    -58.4193E-03    -58.6741E-03    -58.0391E-03     116.683E-03    -58.6512E-03     16.4672E-03    -10.1544E+06    -40.1150E+06    -108.849E+06    -40.1228E+06    -108.841E+06    -10.1544E+06     261.264E+03         33.6125
             724     8.48891E-03     31.4351E-03         2.50259    -758.001E-03    -763.073E-03    -758.457E-03         2.50081    -760.826E-03     31.4968E-03     117.034E-03    -58.3217E-03    -58.7171E-03    -58.1271E-03     116.838E-03    -58.7157E-03     11.5514E-03    -12.9643E+06    -43.6089E+06    -148.710E+06    -43.6161E+06    -148.703E+06    -12.9643E+06     661.731E+03         32.3425
             725     7.54656E-03     31.4245E-03         2.49122    -749.700E-03    -761.823E-03    -746.996E-03         2.48852    -761.823E-03    -10.2252E-03     117.068E-03    -58.3037E-03    -58.7761E-03    -58.1901E-03     116.953E-03    -58.7747E-03     8.81392E-03    -16.7017E+06    -47.1747E+06    -182.721E+06    -47.1814E+06    -182.715E+06    -16.7017E+06    -38.3610E+03         31.5300
             726     6.60336E-03     31.4151E-03         2.49653    -748.394E-03    -768.474E-03    -743.827E-03         2.48765    -764.155E-03     122.324E-03     117.164E-03    -58.3216E-03    -58.8524E-03    -58.2641E-03     117.106E-03    -58.8524E-03     6.09652E-03    -17.5636E+06    -50.0079E+06    -215.214E+06    -50.0234E+06    -215.198E+06    -17.5636E+06    -897.452E+03         30.9292
             727     5.65880E-03     31.4125E-03         2.52839    -761.194E-03    -789.822E-03    -763.644E-03         2.50677    -765.755E-03    -88.7951E-03     117.250E-03    -58.3600E-03    -58.9032E-03    -58.3357E-03     117.225E-03    -58.9032E-03     4.09450E-03    -21.9065E+06    -53.1736E+06    -239.409E+06    -53.1895E+06    -239.393E+06    -21.9065E+06     125.170E+03         30.4473
             728     4.71563E-03     31.4069E-03         2.54757    -766.546E-03    -804.915E-03    -760.262E-03         2.50291    -766.546E-03     138.987E-03     117.499E-03    -58.5263E-03    -58.9897E-03    -58.5965E-03     117.486E-03    -58.9064E-03     2.91098E-03    -32.1623E+06    -58.2581E+06    -256.245E+06    -58.2639E+06    -256.239E+06    -32.1623E+06     118.016E+03         30.0650
             729     3.77325E-03     31.4062E-03         2.59066    -771.507E-03    -838.491E-03    -736.793E-03         2.48896    -771.507E-03    -245.409E-03     117.525E-03    -58.5564E-03    -58.9795E-03    -58.6348E-03     117.520E-03    -58.8962E-03     1.79653E-03    -42.8172E+06    -63.7762E+06    -270.645E+06    -63.7785E+06    -270.642E+06    -42.8172E+06    -219.323E+03         29.7724
             730     2.82900E-03     31.4047E-03         2.78882    -778.259E-03        -1.03170    -763.742E-03         2.52086    -778.259E-03     520.981E-03     117.465E-03    -58.5720E-03    -58.9024E-03    -58.5702E-03     117.463E-03    -58.9024E-03     824.612E-06    -55.4000E+06    -68.7576E+06    -278.647E+06    -68.7626E+06    -278.642E+06    -55.4000E+06    -234.687E+03         29.5613
             731     1.88611E-03     31.4040E-03         3.28083    -777.746E-03        -1.52125    -789.445E-03         2.54903    -777.746E-03    -956.388E-03     117.751E-03    -58.8011E-03    -58.9581E-03    -58.8529E-03     117.750E-03    -58.9055E-03     69.3392E-06    -65.9225E+06    -73.6645E+06    -285.313E+06    -73.6699E+06    -285.307E+06    -65.9225E+06    -223.512E+03         29.4220
             732     943.041E-06     31.4037E-03         5.21037        -1.40955        -2.81800    -140.059E-03         2.53243        -1.40955         3.02753     117.712E-03    -58.7542E-03    -58.9629E-03    -58.9605E-03     117.711E-03    -58.7553E-03     301.850E-06    -73.5472E+06    -76.9812E+06    -289.577E+06    -76.8673E+06    -289.569E+06    -73.6696E+06     72.2873E+03         29.3398
             733     16.0433E-03     30.9207E-03         2.42803    -698.504E-03    -740.219E-03    -698.339E-03         2.42786    -740.219E-03     8.38100E-03     150.677E-03    -58.8129E-03    -91.8546E-03    -58.7122E-03     117.535E-03    -58.8129E-03     163.575E-03     134.065E+06     129.762E+06    -7.80604E+06    -7.79924E+06     129.755E+06     134.065E+06     180.290E+03         57.9908
             734     15.0992E-03     30.6888E-03         2.43525    -710.367E-03    -741.242E-03    -710.308E-03         2.43519    -741.242E-03    -10.7518E-03     153.360E-03    -58.7648E-03    -94.5885E-03    -58.9027E-03     117.674E-03    -58.7648E-03     172.315E-03     114.324E+06     102.370E+06    -13.4780E+06    -13.4570E+06     110.975E+06     105.698E+06     1.07280E+06         54.7641
             735     14.1550E-03     30.5329E-03         2.43212    -708.973E-03    -742.315E-03    -708.885E-03         2.43203    -742.315E-03     26.5730E-03     131.617E-03    -58.6093E-03    -73.0277E-03    -57.7705E-03     116.360E-03    -58.6093E-03     103.667E-03     98.4830E+06     63.0576E+06    -20.9163E+06    -20.8662E+06     98.4328E+06     63.0576E+06     1.74979E+06         50.5435
             736     13.2091E-03     30.4552E-03         2.43044    -704.330E-03    -744.285E-03    -704.171E-03         2.43028    -744.285E-03     4.42531E-03     120.404E-03    -58.4469E-03    -61.9926E-03    -56.9537E-03     115.365E-03    -58.4469E-03     58.9221E-03     90.4231E+06     25.1255E+06    -27.3184E+06    -27.2804E+06     90.3850E+06     25.1255E+06     903.283E+03         45.9762
             737     12.2648E-03     30.4014E-03         2.44253    -713.463E-03    -746.670E-03    -712.774E-03         2.44184    -746.670E-03     40.7401E-03     117.800E-03    -58.3644E-03    -59.4686E-03    -57.1932E-03     115.542E-03    -58.3810E-03     38.5476E-03     60.7106E+06     239.415E+03    -30.3465E+06    -30.3298E+06     60.6939E+06     239.415E+03    -55.0737E+03         41.8090
             738     11.3208E-03     30.3706E-03         2.44998    -721.770E-03    -748.911E-03    -720.600E-03         2.44881    -748.911E-03    -1.96581E-03     116.687E-03    -58.2757E-03    -58.4345E-03    -57.3600E-03     115.760E-03    -58.4229E-03     25.1583E-03     10.7521E+06    -23.0869E+06    -34.1432E+06    -33.6772E+06    -1.57977E+06    -11.2211E+06    -213.045E+03         38.3352
             739     10.3787E-03     30.3458E-03         2.45128    -721.409E-03    -751.351E-03    -719.899E-03         2.44977    -751.351E-03     16.1259E-03     116.777E-03    -58.2559E-03    -58.5407E-03    -57.6338E-03     116.155E-03    -58.5407E-03     20.8046E-03    -10.3600E+06    -36.3945E+06    -63.2696E+06    -36.3966E+06    -63.2675E+06    -10.3600E+06    -194.812E+03         35.5875
             740     9.43236E-03     30.3258E-03         2.46782    -734.900E-03    -753.670E-03    -733.505E-03         2.46642    -753.670E-03     27.9268E-03     117.029E-03    -58.3551E-03    -58.6805E-03    -57.9860E-03     116.620E-03    -58.6400E-03     16.5875E-03    -9.62219E+06    -38.7588E+06    -109.846E+06    -38.7648E+06    -109.840E+06    -9.62219E+06     220.410E+03         33.6100
             741     8.49070E-03     30.3106E-03         2.48176    -748.308E-03    -755.063E-03    -746.742E-03         2.48019    -755.063E-03     36.4182E-03     117.185E-03    -58.4470E-03    -58.7400E-03    -58.3024E-03     116.998E-03    -58.6981E-03     11.2406E-03    -11.6141E+06    -41.5565E+06    -148.396E+06    -41.5624E+06    -148.390E+06    -11.6141E+06     466.842E+03         32.3418
             742     7.54691E-03     30.3009E-03         2.49084    -752.025E-03    -758.733E-03    -752.568E-03         2.48832    -755.667E-03    -9.81905E-03     117.002E-03    -58.2678E-03    -58.7455E-03    -58.1647E-03     116.898E-03    -58.7440E-03     8.48666E-03    -15.2334E+06    -44.1846E+06    -180.753E+06    -44.1901E+06    -180.748E+06    -15.2334E+06    -457.502E+03         31.5282
             743     6.60220E-03     30.2928E-03         2.48878    -749.650E-03    -759.736E-03    -744.720E-03         2.48079    -756.670E-03     111.831E-03     117.025E-03    -58.2095E-03    -58.8250E-03    -58.1521E-03     116.967E-03    -58.8250E-03     6.06079E-03    -18.0044E+06    -48.7902E+06    -215.916E+06    -48.8047E+06    -215.902E+06    -18.0044E+06    -1.25530E+06         30.9263
             744     5.65984E-03     30.2878E-03         2.49237    -750.715E-03    -766.293E-03    -737.898E-03         2.47253    -759.268E-03    -87.4280E-03     117.329E-03    -58.4630E-03    -58.8741E-03    -58.4409E-03     117.306E-03    -58.8741E-03     3.90961E-03    -23.0203E+06    -55.0883E+06    -241.028E+06    -55.1053E+06    -241.010E+06    -23.0203E+06    -715.482E+03         30.4463
             745     4.71634E-03     30.2847E-03         2.52700    -758.660E-03    -792.958E-03    -751.308E-03         2.48880    -762.104E-03     113.078E-03     117.327E-03    -58.4607E-03    -58.8776E-03    -58.4489E-03     117.315E-03    -58.8776E-03     2.77822E-03    -32.4737E+06    -59.5747E+06    -255.542E+06    -59.5834E+06    -255.534E+06    -32.4737E+06    -17.5338E+03         30.0638
             746     3.77184E-03     30.2816E-03         2.59081    -763.231E-03    -851.903E-03    -762.724E-03         2.50164    -763.231E-03    -254.191E-03     117.509E-03    -58.5931E-03    -58.9256E-03    -58.6356E-03     117.505E-03    -58.8793E-03     1.49634E-03    -42.5632E+06    -64.3256E+06    -270.789E+06    -64.3324E+06    -270.782E+06    -42.5632E+06    -441.826E+03         29.7694
             747     2.82994E-03     30.2818E-03         2.75589    -764.440E-03        -1.01440    -757.484E-03         2.49898    -764.440E-03     522.647E-03     117.676E-03    -58.7811E-03    -58.9029E-03    -58.8560E-03     117.675E-03    -58.8271E-03     673.763E-06    -54.0224E+06    -69.7373E+06    -278.874E+06    -69.7423E+06    -278.869E+06    -54.0224E+06    -251.880E+03         29.5562
             748     1.88647E-03     30.2795E-03         3.22964    -766.746E-03        -1.48174    -762.102E-03         2.51001    -766.746E-03    -958.851E-03     117.455E-03    -58.6362E-03    -58.8261E-03    -58.7031E-03     117.454E-03    -58.7587E-03     135.266E-06    -66.1880E+06    -73.8491E+06    -285.916E+06    -73.8505E+06    -285.915E+06    -66.1880E+06    -76.4219E+03         29.4120
             749     943.538E-06     30.2810E-03         5.17837        -1.47157        -2.71604    -63.8276E-03         2.52616        -1.47157         2.96317     117.421E-03    -58.5389E-03    -58.8884E-03    -58.7886E-03     117.420E-03    -58.6373E-03     465.661E-06    -74.2287E+06    -76.5990E+06    -290.148E+06    -76.3012E+06    -290.142E+06    -74.5329E+06    -817.073E+03         29.3270
             750     16.0462E-03     29.8045E-03         2.41417    -700.982E-03    -733.070E-03    -700.755E-03         2.41395    -733.070E-03    -1.58662E-03     151.198E-03    -58.8041E-03    -92.3872E-03    -58.8962E-03     117.707E-03    -58.8041E-03     164.812E-03     132.318E+06     129.069E+06    -9.50140E+06    -9.49560E+06     129.063E+06     132.318E+06    -821.001E+03         57.9463
             751     15.0976E-03     29.5615E-03         2.41187    -696.133E-03    -733.903E-03    -695.963E-03         2.41170    -733.903E-03    -11.4930E-03     154.320E-03    -58.7444E-03    -95.5638E-03    -59.3997E-03     118.156E-03    -58.7444E-03     174.153E-03     112.022E+06     101.418E+06    -16.9475E+06    -16.9281E+06     109.809E+06     103.612E+06    -74.0552E+03         54.7357
             752     14.1542E-03     29.4106E-03         2.41329    -699.256E-03    -735.273E-03    -699.154E-03         2.41319    -735.273E-03     31.5918E-03     132.274E-03    -58.5767E-03    -73.7007E-03    -58.1774E-03     116.751E-03    -58.5767E-03     104.769E-03     98.1580E+06     64.3095E+06    -21.9627E+06    -21.9165E+06     98.1118E+06     64.3095E+06     1.33067E+06         50.5288
             753     13.2109E-03     29.3312E-03         2.42116    -706.647E-03    -736.981E-03    -706.567E-03         2.42108    -736.981E-03     5.19265E-03     120.389E-03    -58.4011E-03    -62.0241E-03    -56.9720E-03     115.337E-03    -58.4011E-03     58.9864E-03     91.3430E+06     28.0045E+06    -25.8057E+06    -25.7448E+06     91.2821E+06     28.0045E+06     1.58879E+06         45.9681
             754     12.2665E-03     29.2791E-03         2.42458    -709.110E-03    -738.874E-03    -708.392E-03         2.42386    -738.874E-03     51.7028E-03     117.325E-03    -58.2888E-03    -59.0671E-03    -56.7332E-03     115.041E-03    -58.3386E-03     38.8141E-03     61.9619E+06     689.232E+03    -29.5539E+06    -29.5099E+06     61.9179E+06     689.232E+03     1.33212E+06         41.8025
             755     11.3224E-03     29.2461E-03         2.42961    -715.013E-03    -740.934E-03    -713.679E-03         2.42828    -740.934E-03    -388.168E-06     116.604E-03    -58.2103E-03    -58.4137E-03    -57.2390E-03     115.621E-03    -58.4021E-03     25.8066E-03     12.6645E+06    -21.9240E+06    -33.9060E+06    -31.9477E+06    -509.572E+03    -10.7083E+06     577.982E+03         38.3294
             756     10.3762E-03     29.2243E-03         2.44013    -723.043E-03    -744.397E-03    -723.219E-03         2.43867    -742.761E-03     2.38151E-03     116.938E-03    -58.2784E-03    -58.6745E-03    -57.8068E-03     116.312E-03    -58.5194E-03     20.8951E-03    -9.75514E+06    -34.5884E+06    -63.8966E+06    -34.5907E+06    -63.8942E+06    -9.75514E+06    -3.68219E+03         35.5831
             757     9.43466E-03     29.2011E-03         2.44283    -724.870E-03    -746.079E-03    -724.616E-03         2.44094    -744.442E-03    -16.1027E-03     117.030E-03    -58.2347E-03    -58.8011E-03    -58.0384E-03     116.638E-03    -58.6055E-03     16.1378E-03    -9.23773E+06    -37.6469E+06    -110.773E+06    -37.6493E+06    -110.771E+06    -9.23773E+06     1.36002E+03         33.6059
             758     8.49007E-03     29.1874E-03         2.45038    -731.111E-03    -746.226E-03    -728.988E-03         2.44826    -746.226E-03    -1.18706E-03     116.901E-03    -58.1900E-03    -58.7135E-03    -58.0471E-03     116.718E-03    -58.6729E-03     11.2672E-03    -10.7835E+06    -40.6350E+06    -147.933E+06    -40.6371E+06    -147.930E+06    -10.7835E+06    -129.053E+03         32.3382
             759     7.54661E-03     29.1777E-03         2.46892    -743.381E-03    -750.628E-03    -743.846E-03         2.46604    -747.288E-03    -28.0675E-03     117.103E-03    -58.3727E-03    -58.7386E-03    -58.2826E-03     116.997E-03    -58.7229E-03     8.44224E-03    -14.3006E+06    -44.1069E+06    -179.776E+06    -44.1097E+06    -179.773E+06    -14.3006E+06    -496.841E+03         31.5279
             760     6.60405E-03     29.1700E-03         2.47776    -747.198E-03    -751.102E-03    -743.296E-03         2.47050    -747.747E-03     77.9768E-03     117.109E-03    -58.3257E-03    -58.7962E-03    -58.2912E-03     117.058E-03    -58.7805E-03     5.86219E-03    -17.6193E+06    -48.2224E+06    -216.240E+06    -48.2250E+06    -216.238E+06    -17.6193E+06    -543.581E+03         30.9272
             761     5.65925E-03     29.1642E-03         2.47866    -745.688E-03    -751.743E-03    -729.688E-03         2.46060    -749.681E-03    -97.6959E-03     117.184E-03    -58.3745E-03    -58.8212E-03    -58.3494E-03     117.159E-03    -58.8212E-03     4.07811E-03    -22.5876E+06    -53.2720E+06    -242.411E+06    -53.2756E+06    -242.408E+06    -22.5876E+06    -616.759E+03         30.4441
             762     4.71622E-03     29.1611E-03         2.50654    -749.259E-03    -779.878E-03    -738.787E-03         2.46889    -752.703E-03     120.502E-03     117.393E-03    -58.5341E-03    -58.8700E-03    -58.5779E-03     117.383E-03    -58.8166E-03     2.48482E-03    -30.3446E+06    -58.5865E+06    -255.618E+06    -58.5915E+06    -255.613E+06    -30.3446E+06    -468.340E+03         30.0579
             763     3.77353E-03     29.1592E-03         2.57780    -752.519E-03    -852.781E-03    -764.920E-03         2.48994    -752.519E-03    -248.528E-03     117.391E-03    -58.5233E-03    -58.8785E-03    -58.6199E-03     117.388E-03    -58.7789E-03     1.37382E-03    -41.8304E+06    -64.0422E+06    -270.417E+06    -64.0487E+06    -270.411E+06    -41.8304E+06    -332.862E+03         29.7596
             764     2.82962E-03     29.1565E-03         2.73030    -750.750E-03        -1.00674    -751.992E-03         2.47556    -750.750E-03     516.633E-03     117.321E-03    -58.5192E-03    -58.8117E-03    -58.5942E-03     117.320E-03    -58.7360E-03     504.771E-06    -55.1938E+06    -68.7403E+06    -279.778E+06    -68.7524E+06    -279.766E+06    -55.1938E+06    -850.166E+03         29.5436
             765     1.88691E-03     29.1583E-03         3.16302    -753.943E-03        -1.43251    -740.315E-03         2.47083    -753.943E-03    -889.592E-03     117.303E-03    -58.5200E-03    -58.7920E-03    -58.5813E-03     117.302E-03    -58.7300E-03     484.602E-06    -65.6712E+06    -71.9887E+06    -285.859E+06    -71.9986E+06    -285.849E+06    -65.6712E+06    -446.083E+03         29.3999
             766     942.629E-06     29.1564E-03         5.09049        -1.51303        -2.59525    -1.01514E-03         2.49625        -1.51303         2.92938     117.428E-03    -58.4711E-03    -58.9637E-03    -58.8655E-03     117.427E-03    -58.5683E-03     542.873E-06    -73.3183E+06    -75.3990E+06    -290.732E+06    -75.0982E+06    -290.728E+06    -73.6225E+06     156.061E+03         29.3166
             767     16.0390E-03     28.6694E-03         2.38022    -672.492E-03    -724.557E-03    -672.323E-03         2.38005    -724.557E-03    -9.31775E-03     150.633E-03    -58.7935E-03    -91.8174E-03    -59.0658E-03     117.882E-03    -58.7935E-03     163.355E-03     132.636E+06     129.366E+06    -8.66053E+06    -8.63801E+06     129.344E+06     132.636E+06     123.681E+03         57.9015
             768     15.1006E-03     28.4455E-03         2.38633    -679.393E-03    -726.110E-03    -679.222E-03         2.38616    -726.110E-03    -14.5678E-03     153.565E-03    -58.7042E-03    -94.8443E-03    -59.5829E-03     118.304E-03    -58.7042E-03     172.036E-03     110.733E+06     99.7617E+06    -17.3165E+06    -17.3101E+06     108.521E+06     101.968E+06    -808.940E+03         54.7077
             769     14.1536E-03     28.2813E-03         2.39922    -696.704E-03    -727.445E-03    -696.603E-03         2.39912    -727.445E-03     29.0780E-03     131.859E-03    -58.5313E-03    -73.3290E-03    -57.7981E-03     116.328E-03    -58.5313E-03     104.239E-03     96.4069E+06     61.6250E+06    -23.6734E+06    -23.6618E+06     96.3953E+06     61.6250E+06    -857.138E+03         50.5132
             770     13.2113E-03     28.2097E-03         2.41003    -709.377E-03    -728.448E-03    -709.196E-03         2.40985    -728.448E-03    -11.0472E-03     119.907E-03    -58.3942E-03    -61.5481E-03    -56.5673E-03     114.926E-03    -58.3942E-03     58.6847E-03     90.7619E+06     28.2226E+06    -27.0311E+06    -26.9873E+06     90.7181E+06     28.2226E+06     687.650E+03         45.9572
             771     12.2654E-03     28.1555E-03         2.40556    -705.809E-03    -729.595E-03    -705.410E-03         2.40516    -729.595E-03     12.5573E-03     117.407E-03    -58.3016E-03    -59.1394E-03    -56.6684E-03     114.986E-03    -58.3514E-03     39.9208E-03     62.6727E+06     2.36899E+06    -29.5451E+06    -29.4812E+06     62.6088E+06     2.36899E+06     2.31052E+06         41.7933
             772     11.3202E-03     28.1240E-03         2.41354    -710.955E-03    -731.046E-03    -710.173E-03         2.41275    -731.046E-03    -13.6003E-03     116.919E-03    -58.3238E-03    -58.6178E-03    -57.5365E-03     115.911E-03    -58.3978E-03     26.1521E-03     13.3814E+06    -21.6138E+06    -34.1141E+06    -32.4015E+06     454.548E+03    -10.3996E+06     1.20081E+06         38.3228
             773     10.3789E-03     28.0991E-03         2.42838    -723.005E-03    -733.666E-03    -723.725E-03         2.42746    -732.029E-03    -5.23371E-03     117.215E-03    -58.3685E-03    -58.8598E-03    -58.1299E-03     116.604E-03    -58.4873E-03     20.6534E-03    -9.25314E+06    -33.9733E+06    -63.5544E+06    -34.7666E+06    -62.7611E+06    -9.25314E+06     304.284E+03         35.5793
             774     9.43450E-03     28.0777E-03         2.41965    -714.259E-03    -734.763E-03    -714.769E-03         2.41852    -733.126E-03    -9.57151E-03     116.852E-03    -58.1417E-03    -58.7154E-03    -57.9192E-03     116.474E-03    -58.5603E-03     15.9076E-03     -9.0138E+06    -37.2357E+06    -111.158E+06    -37.2383E+06    -111.156E+06     -9.0138E+06    -181.399E+03         33.6027
             775     8.49050E-03     28.0655E-03         2.42052    -715.793E-03    -735.111E-03    -713.511E-03         2.41823    -735.111E-03     40.5163E-03     116.711E-03    -58.0766E-03    -58.6389E-03    -57.8952E-03     116.530E-03    -58.6389E-03     11.1480E-03    -10.1559E+06    -40.1668E+06    -148.439E+06    -40.1688E+06    -148.437E+06    -10.1559E+06    -309.658E+03         32.3341
             776     7.54691E-03     28.0527E-03         2.43402    -727.890E-03    -737.252E-03    -724.845E-03         2.43070    -736.977E-03    -6.82940E-03     116.962E-03    -58.2568E-03    -58.7149E-03    -58.1701E-03     116.859E-03    -58.6992E-03     8.34110E-03    -13.9856E+06    -44.2286E+06    -179.964E+06    -44.2313E+06    -179.961E+06    -13.9856E+06    -452.743E+03         31.5253
             777     6.60328E-03     28.0474E-03         2.44387    -734.587E-03    -741.743E-03    -730.816E-03         2.43656    -738.197E-03     82.2017E-03     117.246E-03    -58.3644E-03    -58.8970E-03    -58.4600E-03     117.193E-03    -58.7485E-03     6.00997E-03    -17.1301E+06    -48.5337E+06    -216.072E+06    -48.5365E+06    -216.069E+06    -17.1301E+06    -521.287E+03         30.9270
             778     5.66047E-03     28.0414E-03         2.46000    -739.195E-03    -751.481E-03    -732.990E-03         2.44151    -739.195E-03    -99.9182E-03     117.277E-03    -58.4156E-03    -58.8797E-03    -58.5237E-03     117.253E-03    -58.7469E-03     4.03033E-03    -22.8447E+06    -52.5492E+06    -241.985E+06    -52.5506E+06    -241.984E+06    -22.8447E+06    -409.953E+03         30.4410
             779     4.71680E-03     28.0373E-03         2.49152    -739.937E-03    -778.690E-03    -737.318E-03         2.45015    -739.937E-03     142.455E-03     117.250E-03    -58.4998E-03    -58.7665E-03    -58.5439E-03     117.241E-03    -58.7131E-03     2.47566E-03    -31.7245E+06    -57.9185E+06    -256.989E+06    -57.9215E+06    -256.986E+06    -31.7245E+06    -749.444E+03         30.0492
             780     3.77362E-03     28.0353E-03         2.55507    -739.605E-03    -843.220E-03    -744.158E-03         2.45601    -739.605E-03    -256.107E-03     117.158E-03    -58.4360E-03    -58.7350E-03    -58.4859E-03     117.154E-03    -58.6816E-03     1.45535E-03    -41.5793E+06    -62.6708E+06    -270.502E+06    -62.6734E+06    -270.500E+06    -41.5793E+06    -448.449E+03         29.7476
             781     2.83026E-03     28.0349E-03         2.71097    -736.768E-03        -1.00613    -750.280E-03         2.45512    -736.768E-03     465.070E-03     116.984E-03    -58.3211E-03    -58.6747E-03    -58.3203E-03     116.983E-03    -58.6747E-03     594.627E-06    -56.2934E+06    -67.5235E+06    -279.905E+06    -67.5323E+06    -279.896E+06    -56.2934E+06    -394.209E+03         29.5315
             782     1.88572E-03     28.0341E-03         3.14412    -731.603E-03        -1.44467    -743.175E-03         2.44262    -731.603E-03    -929.220E-03     117.257E-03    -58.5189E-03    -58.7478E-03    -58.5508E-03     117.256E-03    -58.7152E-03     428.498E-06    -66.3450E+06    -71.9533E+06    -286.750E+06    -71.9634E+06    -286.739E+06    -66.3450E+06     89.5493E+03         29.3898
             783     943.920E-06     28.0334E-03         5.05228        -1.50441        -2.58130     46.9648E-03         2.42401        -1.50441         2.87515     117.422E-03    -58.5631E-03    -58.8647E-03    -58.7439E-03     117.421E-03    -58.6824E-03     611.290E-06    -71.5929E+06    -74.6030E+06    -290.455E+06    -74.3312E+06    -290.450E+06    -71.8703E+06     1.01921E+06         29.3059
             784     16.0502E-03     27.5532E-03         2.35557    -663.641E-03    -715.691E-03    -663.415E-03         2.35534    -715.691E-03     4.39721E-03     151.181E-03    -58.7291E-03    -92.4281E-03    -59.7002E-03     118.453E-03    -58.7291E-03     162.929E-03     134.337E+06     130.215E+06    -7.13577E+06    -7.09092E+06     130.170E+06     134.337E+06     1.16094E+06         57.8603
             785     15.0993E-03     27.3167E-03         2.36138    -673.757E-03    -716.989E-03    -673.665E-03         2.36129    -716.989E-03    -20.3564E-03     153.564E-03    -58.6297E-03    -94.9204E-03    -59.3127E-03     117.956E-03    -58.6297E-03     172.451E-03     112.257E+06     100.565E+06    -15.1345E+06    -15.1088E+06     109.356E+06     103.439E+06     625.708E+03         54.6836
             786     14.1582E-03     27.1620E-03         2.37313    -686.854E-03    -717.978E-03    -686.742E-03         2.37302    -717.978E-03     26.0269E-03     130.875E-03    -58.4692E-03    -72.4195E-03    -56.9743E-03     115.430E-03    -58.4692E-03     104.163E-03     95.1801E+06     58.4127E+06    -23.3490E+06    -23.3334E+06     95.1645E+06     58.4127E+06    -176.957E+03         50.4999
             787     13.2088E-03     27.0857E-03         2.38628    -697.918E-03    -718.962E-03    -697.708E-03         2.38607    -718.962E-03     3.60364E-03     119.657E-03    -58.3680E-03    -61.3270E-03    -56.1909E-03     114.521E-03    -58.3680E-03     58.9897E-03     87.3887E+06     23.2260E+06    -29.5002E+06    -29.4791E+06     87.3676E+06     23.2260E+06     136.825E+03         45.9472
             788     12.2656E-03     27.0332E-03         2.39957    -706.843E-03    -722.775E-03    -709.490E-03         2.39910    -719.662E-03     27.0392E-03     117.845E-03    -58.3349E-03    -59.5480E-03    -57.3067E-03     115.603E-03    -58.3349E-03     38.5051E-03     62.6311E+06     2.11160E+06    -32.0402E+06    -32.0151E+06     62.6060E+06     2.11160E+06     686.936E+03         41.7853
             789     11.3225E-03     26.9996E-03         2.39484    -703.981E-03    -723.443E-03    -706.554E-03         2.39430    -720.329E-03     14.0188E-03     116.759E-03    -58.0733E-03    -58.7116E-03    -57.4647E-03     115.795E-03    -58.3561E-03     25.6957E-03     14.8659E+06    -20.0942E+06    -34.5924E+06    -32.6912E+06     2.31155E+06    -9.44101E+06     718.434E+03         38.3181
             790     10.3780E-03     26.9746E-03         2.38432    -696.412E-03    -721.874E-03    -695.820E-03         2.38373    -721.874E-03     16.9223E-03     116.743E-03    -58.0805E-03    -58.6796E-03    -57.6752E-03     116.120E-03    -58.4622E-03     20.7877E-03    -9.20654E+06    -33.6481E+06    -63.5896E+06    -34.4442E+06    -62.7936E+06    -9.20654E+06     278.192E+03         35.5766
             791     9.43442E-03     26.9561E-03         2.39249    -703.616E-03    -725.782E-03    -704.754E-03         2.39171    -723.858E-03     5.73093E-03     116.984E-03    -58.3980E-03    -58.5942E-03    -58.0505E-03     116.591E-03    -58.5491E-03     16.2999E-03    -8.64903E+06    -37.3607E+06    -110.181E+06    -37.3652E+06    -110.176E+06    -8.64903E+06     87.5177E+03         33.6022
             792     8.49148E-03     26.9401E-03         2.40177    -712.242E-03    -727.355E-03    -712.258E-03         2.39987    -725.430E-03     53.7060E-03     116.954E-03    -58.3154E-03    -58.6464E-03    -58.1737E-03     116.767E-03    -58.6013E-03     11.2560E-03    -10.4176E+06    -40.5243E+06    -148.281E+06    -40.5324E+06    -148.273E+06    -10.4176E+06    -267.950E+03         32.3332
             793     7.54750E-03     26.9321E-03         2.40580    -710.943E-03    -727.281E-03    -707.958E-03         2.40282    -727.281E-03     3.35814E-03     116.816E-03    -58.1816E-03    -58.6475E-03    -58.0846E-03     116.719E-03    -58.6475E-03     8.16877E-03    -13.9903E+06    -43.8397E+06    -180.357E+06    -43.8452E+06    -180.351E+06    -13.9903E+06    -484.568E+03         31.5215
             794     6.60321E-03     26.9221E-03         2.42672    -719.989E-03    -738.478E-03    -722.309E-03         2.41945    -728.892E-03     98.0925E-03     117.126E-03    -58.3048E-03    -58.8348E-03    -58.3873E-03     117.076E-03    -58.7020E-03     5.77932E-03    -16.7931E+06    -48.0171E+06    -215.872E+06    -48.0223E+06    -215.867E+06    -16.7931E+06    -495.417E+03         30.9217
             795     5.66077E-03     26.9183E-03         2.45414    -728.500E-03    -757.158E-03    -738.267E-03         2.43525    -728.500E-03    -96.9364E-03     117.297E-03    -58.4424E-03    -58.8690E-03    -58.5997E-03     117.274E-03    -58.6887E-03     3.99007E-03    -23.0726E+06    -52.6399E+06    -241.764E+06    -52.6447E+06    -241.759E+06    -23.0726E+06    -680.444E+03         30.4347
             796     4.71737E-03     26.9143E-03         2.47110    -726.982E-03    -775.476E-03    -733.662E-03         2.42929    -726.982E-03     139.933E-03     117.042E-03    -58.3652E-03    -58.6917E-03    -58.4006E-03     117.030E-03    -58.6443E-03     2.80152E-03    -33.5997E+06    -57.1691E+06    -257.286E+06    -57.1723E+06    -257.283E+06    -33.5997E+06    -744.544E+03         30.0410
             797     3.77359E-03     26.9120E-03         2.52110    -725.190E-03    -832.205E-03    -734.001E-03         2.42290    -725.190E-03    -247.427E-03     116.964E-03    -58.3341E-03    -58.6420E-03    -58.3306E-03     116.961E-03    -58.6420E-03     1.41503E-03    -43.7866E+06    -62.4551E+06    -272.330E+06    -62.4605E+06    -272.325E+06    -43.7866E+06    -265.862E+03         29.7409
             798     2.82984E-03     26.9123E-03         2.68153    -720.074E-03        -1.00055    -744.095E-03         2.42508    -720.074E-03     474.514E-03     117.174E-03    -58.4498E-03    -58.7346E-03    -58.5662E-03     117.174E-03    -58.6175E-03     640.101E-06    -54.6388E+06    -67.6481E+06    -279.684E+06    -67.6584E+06    -279.674E+06    -54.6388E+06     1.01831E+06         29.5269
             799     1.88741E-03     26.9105E-03         3.11344    -707.156E-03        -1.44362    -742.757E-03         2.41257    -707.156E-03    -917.577E-03     117.106E-03    -58.4374E-03    -58.6759E-03    -58.5542E-03     117.106E-03    -58.5588E-03     98.3533E-06    -65.4674E+06    -71.8349E+06    -286.447E+06    -71.8444E+06    -286.438E+06    -65.4674E+06     643.973E+03         29.3805
             800     942.565E-06     26.9109E-03         5.01118        -1.48337        -2.55750     87.0471E-03         2.36663        -1.48337         2.85197     117.021E-03    -58.2886E-03    -58.7344E-03    -58.5761E-03     117.019E-03    -58.4458E-03     392.841E-06    -72.0788E+06    -73.8536E+06    -290.071E+06    -73.5564E+06    -290.060E+06    -72.3870E+06    -326.743E+03         29.2891
             801     16.0422E-03     26.4339E-03         2.36010    -685.886E-03    -707.225E-03    -685.715E-03         2.35993    -707.225E-03     3.80905E-03     152.084E-03    -58.7424E-03    -93.3236E-03    -60.0087E-03     118.769E-03    -58.7424E-03     164.740E-03     133.192E+06     129.157E+06    -8.91522E+06    -8.87486E+06     129.116E+06     133.192E+06     342.295E+03         57.8184
             802     15.1026E-03     26.1889E-03         2.35355    -682.412E-03    -707.100E-03    -682.346E-03         2.35349    -707.100E-03    -10.9810E-03     154.293E-03    -58.6555E-03    -95.6378E-03    -59.3176E-03     117.973E-03    -58.6555E-03     174.476E-03     112.292E+06     101.138E+06    -16.0313E+06    -16.0034E+06     109.413E+06     103.989E+06     1.23815E+06         54.6565
             803     14.1540E-03     26.0437E-03         2.34498    -674.201E-03    -707.620E-03    -674.092E-03         2.34487    -707.620E-03     27.6881E-03     131.292E-03    -58.5076E-03    -72.8046E-03    -57.1770E-03     115.665E-03    -58.5076E-03     105.071E-03     96.4964E+06     61.9284E+06    -22.6759E+06    -22.6278E+06     96.4483E+06     61.9284E+06     1.52172E+06         50.4851
             804     13.2111E-03     25.9609E-03         2.35088    -678.164E-03    -708.996E-03    -678.063E-03         2.35078    -708.996E-03     17.4409E-03     120.670E-03    -58.3621E-03    -62.3503E-03    -57.0124E-03     115.332E-03    -58.3621E-03     60.3887E-03     88.3107E+06     25.0239E+06    -28.3260E+06    -28.2776E+06     88.2623E+06     25.0239E+06     1.44812E+06         45.9384
             805     12.2676E-03     25.9091E-03         2.37179    -693.527E-03    -713.242E-03    -696.346E-03         2.37150    -710.128E-03     36.2440E-03     117.884E-03    -58.2860E-03    -59.6392E-03    -57.3389E-03     115.584E-03    -58.2860E-03     39.1844E-03     61.8183E+06     369.707E+03    -31.8928E+06    -31.8881E+06     61.8136E+06     369.707E+03    -457.484E+03         41.7785
             806     11.3232E-03     25.8761E-03         2.37457    -697.467E-03    -714.254E-03    -700.341E-03         2.37398    -710.784E-03    -2.64578E-03     116.531E-03    -57.9797E-03    -58.5783E-03    -57.2166E-03     115.511E-03    -58.3211E-03     26.3070E-03     14.6872E+06    -20.5198E+06    -34.0533E+06    -32.2263E+06     2.07982E+06    -9.73953E+06    -369.914E+03         38.3121
             807     10.3779E-03     25.8536E-03         2.36758    -693.917E-03    -714.095E-03    -695.770E-03         2.36705    -711.713E-03    -4.53010E-03     116.514E-03    -58.0872E-03    -58.4457E-03    -57.4518E-03     115.879E-03    -58.4457E-03     20.9876E-03    -9.47675E+06    -33.0699E+06    -63.6935E+06    -33.5252E+06    -63.2382E+06    -9.47675E+06     168.004E+03         35.5733
             808     9.43427E-03     25.8302E-03         2.37101    -698.689E-03    -716.716E-03    -701.798E-03         2.37017    -712.766E-03    -24.4274E-03     117.021E-03    -58.4480E-03    -58.5847E-03    -58.1006E-03     116.629E-03    -58.5396E-03     16.1438E-03    -9.00316E+06    -36.8243E+06    -110.395E+06    -36.8314E+06    -110.388E+06    -9.00316E+06     338.833E+03         33.6018
             809     8.49093E-03     25.8184E-03         2.37318    -701.436E-03    -715.731E-03    -701.709E-03         2.37153    -713.806E-03     17.3591E-03     117.051E-03    -58.4268E-03    -58.6355E-03    -58.2988E-03     116.875E-03    -58.5873E-03     10.9902E-03    -9.66783E+06    -40.6011E+06    -147.051E+06    -40.6095E+06    -147.042E+06    -9.66783E+06     4.33367E+03         32.3325
             810     7.54769E-03     25.8071E-03         2.37595    -697.881E-03    -715.612E-03    -695.430E-03         2.37350    -715.612E-03    -13.7135E-03     117.059E-03    -58.4650E-03    -58.6096E-03    -58.3645E-03     116.955E-03    -58.6066E-03     8.45329E-03    -13.2482E+06    -44.0456E+06    -179.798E+06    -44.0576E+06    -179.786E+06    -13.2482E+06    -562.514E+03         31.5177
             811     6.60524E-03     25.8002E-03         2.39787    -707.353E-03    -723.949E-03    -705.884E-03         2.39007    -717.619E-03     106.952E-03     116.971E-03    -58.3495E-03    -58.6346E-03    -58.2955E-03     116.917E-03    -58.6346E-03     5.97997E-03    -17.0124E+06    -47.3458E+06    -216.135E+06    -47.3570E+06    -216.124E+06    -17.0124E+06    -914.446E+03         30.9137
             812     5.66006E-03     25.7944E-03         2.42627    -717.679E-03    -742.614E-03    -723.113E-03         2.40706    -717.971E-03    -85.2584E-03     116.978E-03    -58.2952E-03    -58.6937E-03    -58.3197E-03     116.955E-03    -58.6463E-03     3.92657E-03    -22.8731E+06    -51.9361E+06    -242.273E+06    -51.9402E+06    -242.269E+06    -22.8731E+06    -623.245E+03         30.4253
             813     4.71731E-03     25.7913E-03         2.43761    -716.951E-03    -763.166E-03    -722.579E-03         2.39702    -716.951E-03     133.711E-03     117.041E-03    -58.3672E-03    -58.6876E-03    -58.4214E-03     117.031E-03    -58.6239E-03     2.35163E-03      -32.56E+06    -57.8006E+06    -257.381E+06    -57.8036E+06    -257.378E+06      -32.56E+06    -35.4002E+03         30.0344
             814     3.77351E-03     25.7906E-03         2.47291    -716.321E-03    -805.874E-03    -716.763E-03         2.38380    -716.321E-03    -210.385E-03     117.005E-03    -58.4092E-03    -58.6102E-03    -58.4229E-03     117.002E-03    -58.5940E-03     1.27595E-03    -43.7068E+06    -64.0653E+06    -272.725E+06    -64.0709E+06    -272.719E+06    -43.7068E+06     441.091E+03         29.7358
             815     2.83051E-03     25.7881E-03         2.63473    -717.689E-03    -960.944E-03    -709.135E-03         2.38292    -717.689E-03     519.706E-03     117.088E-03    -58.4420E-03    -58.6567E-03    -58.5581E-03     117.087E-03    -58.5396E-03     674.465E-06    -53.8852E+06    -68.3447E+06    -280.083E+06    -68.3557E+06    -280.072E+06    -53.8852E+06     608.699E+03         29.5194
             816     1.88703E-03     25.7887E-03         3.06437    -723.508E-03        -1.37391    -705.938E-03         2.39639    -723.508E-03    -824.519E-03     117.024E-03    -58.3366E-03    -58.6935E-03    -58.6069E-03     117.024E-03    -58.4229E-03     175.789E-06    -63.4734E+06    -71.2379E+06    -285.714E+06    -71.2501E+06    -285.702E+06    -63.4734E+06     227.875E+03         29.3697
             817     944.458E-06     25.7884E-03         4.96117        -1.51690        -2.46509     61.9873E-03         2.43409        -1.51690         2.86853     116.626E-03    -58.0197E-03    -58.6085E-03    -58.5696E-03     116.625E-03    -58.0576E-03     508.273E-06    -72.9669E+06    -75.0941E+06    -290.814E+06    -75.0757E+06    -290.801E+06    -72.9978E+06    -167.920E+03         29.2767
             818     16.0447E-03     25.2986E-03         2.33664    -678.083E-03    -698.134E-03    -678.021E-03         2.33657    -698.134E-03    -12.2854E-03     150.996E-03    -58.8123E-03    -92.1682E-03    -59.0200E-03     117.847E-03    -58.8123E-03     163.908E-03     131.779E+06     127.537E+06    -9.66896E+06    -9.61779E+06     127.486E+06     131.779E+06    -218.329E+03         57.7757
             819     15.0977E-03     25.0736E-03         2.34309    -684.323E-03    -697.660E-03    -684.379E-03         2.34301    -697.529E-03    -7.94134E-03     154.081E-03    -58.7413E-03    -95.3377E-03    -59.5154E-03     118.258E-03    -58.7413E-03     173.228E-03     110.724E+06     99.9721E+06    -17.5558E+06    -17.5216E+06     107.955E+06     102.707E+06     168.496E+03         54.6276
             820     14.1539E-03     24.9146E-03         2.33810    -679.483E-03    -697.319E-03    -679.590E-03         2.33807    -697.188E-03     15.7513E-03     132.220E-03    -58.5631E-03    -73.6766E-03    -58.2582E-03     116.802E-03    -58.5631E-03     104.593E-03     97.4866E+06     64.4707E+06    -22.6085E+06    -22.5536E+06     97.4318E+06     64.4707E+06     1.60122E+06         50.4701
             821     13.2109E-03     24.8391E-03         2.32850    -673.730E-03    -697.758E-03    -673.715E-03         2.32849    -697.758E-03     10.3503E-03     120.725E-03    -58.3810E-03    -62.3840E-03    -57.1745E-03     115.516E-03    -58.3810E-03     60.0860E-03     91.2200E+06     29.2532E+06    -26.3522E+06    -26.3060E+06     91.1739E+06     29.2532E+06     751.424E+03         45.9287
             822     12.2653E-03     24.7845E-03         2.32498    -673.050E-03    -699.035E-03    -672.976E-03         2.32491    -699.035E-03     24.3195E-03     117.728E-03    -58.2973E-03    -59.4730E-03    -57.0972E-03     115.353E-03    -58.2973E-03     39.5417E-03     62.1333E+06     2.08522E+06    -29.1581E+06    -29.1508E+06     62.1260E+06     2.08522E+06    -642.642E+03         41.7678
             823     11.3216E-03     24.7537E-03         2.34013    -685.243E-03    -700.638E-03    -685.288E-03         2.33982    -700.282E-03    -14.8946E-03     116.806E-03    -58.2651E-03    -58.5664E-03    -57.5301E-03     115.828E-03    -58.3236E-03     25.7861E-03     12.7314E+06    -21.5697E+06    -33.6973E+06    -31.9088E+06    -278.192E+03    -10.3486E+06    -316.041E+03         38.3018
             824     10.3789E-03     24.7295E-03         2.35793    -699.100E-03    -703.017E-03    -700.994E-03         2.35744    -700.635E-03     3.97775E-03     116.801E-03    -58.3091E-03    -58.5061E-03    -57.7596E-03     116.165E-03    -58.4201E-03     21.0454E-03    -9.92959E+06    -33.8356E+06    -63.7931E+06    -34.2986E+06    -63.3300E+06    -9.92959E+06     472.977E+03         35.5662
             825     9.43505E-03     24.7076E-03         2.35442    -694.196E-03    -702.702E-03    -695.656E-03         2.35385    -700.676E-03    -940.297E-06     116.804E-03    -58.3109E-03    -58.5050E-03    -57.9137E-03     116.407E-03    -58.5050E-03     16.1698E-03    -9.72044E+06    -36.2148E+06    -111.016E+06    -36.2240E+06    -111.006E+06    -9.72044E+06     583.558E+03         33.5957
             826     8.49129E-03     24.6941E-03         2.35677    -691.853E-03    -706.436E-03    -695.751E-03         2.35531    -701.081E-03     42.8849E-03     116.963E-03    -58.4043E-03    -58.5663E-03    -58.2368E-03     116.793E-03    -58.5633E-03     10.8226E-03    -9.69986E+06    -39.4408E+06    -146.172E+06    -39.4452E+06    -146.168E+06    -9.69986E+06     457.999E+03         32.3251
             827     7.54801E-03     24.6846E-03         2.36400    -693.854E-03    -709.128E-03    -698.774E-03         2.36122    -701.428E-03    -18.1964E-03     117.074E-03    -58.5000E-03    -58.5860E-03    -58.4032E-03     116.974E-03    -58.5830E-03     8.28135E-03    -13.1763E+06    -43.8978E+06    -178.713E+06    -43.9064E+06    -178.705E+06    -13.1763E+06    -308.635E+03         31.5104
             828     6.60367E-03     24.6769E-03         2.35757    -692.663E-03    -704.923E-03    -687.369E-03         2.34993    -702.577E-03     89.6851E-03     117.066E-03    -58.4602E-03    -58.6196E-03    -58.4376E-03     117.014E-03    -58.5909E-03     5.83412E-03    -18.1573E+06    -48.9195E+06    -216.881E+06    -48.9274E+06    -216.873E+06    -18.1573E+06    -567.652E+03         30.9052
             829     5.66182E-03     24.6723E-03         2.36854    -699.839E-03    -712.192E-03    -687.258E-03         2.34884    -705.070E-03    -99.7991E-03     116.924E-03    -58.3238E-03    -58.6144E-03    -58.3317E-03     116.904E-03    -58.5857E-03     3.70911E-03    -23.4716E+06    -54.6817E+06    -242.649E+06    -54.6827E+06    -242.648E+06    -23.4716E+06     78.0272E+03         30.4148
             830     4.71712E-03     24.6683E-03         2.39920    -706.813E-03    -741.595E-03    -703.753E-03         2.36136    -706.813E-03     98.0740E-03     116.891E-03    -58.3236E-03    -58.5799E-03    -58.3326E-03     116.884E-03    -58.5637E-03     2.07316E-03    -31.9900E+06    -60.3750E+06    -257.975E+06    -60.3777E+06    -257.973E+06    -31.9900E+06     149.052E+03         30.0240
             831     3.77453E-03     24.6668E-03         2.44665    -707.415E-03    -792.104E-03    -704.862E-03         2.35941    -707.415E-03    -245.062E-03     116.955E-03    -58.4382E-03    -58.5297E-03    -58.4523E-03     116.953E-03    -58.5135E-03     1.16212E-03    -42.9621E+06    -64.6266E+06    -272.040E+06    -64.6294E+06    -272.037E+06    -42.9621E+06     6.25650E+03         29.7240
             832     2.83062E-03     24.6655E-03         2.59082    -710.616E-03    -928.339E-03    -693.230E-03         2.35571    -710.616E-03     446.840E-03     116.739E-03    -58.2815E-03    -58.4703E-03    -58.2805E-03     116.738E-03    -58.4703E-03     708.705E-06    -55.2441E+06    -68.6819E+06    -280.266E+06    -68.6850E+06    -280.263E+06    -55.2441E+06    -634.735E+03         29.5048
             833     1.88688E-03     24.6653E-03         3.03716    -719.695E-03        -1.35618    -694.906E-03         2.37588    -719.695E-03    -915.762E-03     116.779E-03    -58.1526E-03    -58.6349E-03    -58.3057E-03     116.779E-03    -58.4814E-03     490.839E-06    -65.2173E+06    -73.0965E+06    -286.731E+06    -73.1015E+06    -286.726E+06    -65.2173E+06    -250.326E+03         29.3588
             834     943.455E-06     24.6650E-03         4.91301        -1.49905        -2.44551     47.5059E-03         2.42000        -1.49905         2.76660     116.926E-03    -58.2266E-03    -58.7012E-03    -58.5281E-03     116.925E-03    -58.3986E-03     839.224E-06    -72.6576E+06    -76.0748E+06    -289.925E+06    -76.0840E+06    -289.916E+06    -72.6576E+06     191.591E+03         29.2757
             835     16.0426E-03     24.1839E-03         2.29462    -658.041E-03    -688.265E-03    -657.900E-03         2.29448    -688.265E-03     13.1321E-03     150.654E-03    -58.8303E-03    -91.8174E-03    -58.6690E-03     117.506E-03    -58.8303E-03     163.386E-03     132.630E+06     128.056E+06    -7.48200E+06    -7.41306E+06     127.987E+06     132.630E+06     1.25211E+06         57.7361
             836     15.0971E-03     23.9437E-03         2.31151    -673.062E-03    -688.094E-03    -673.128E-03         2.31144    -687.964E-03     5.97647E-03     154.306E-03    -58.7491E-03    -95.5664E-03    -60.1104E-03     118.850E-03    -58.7491E-03     172.229E-03     110.334E+06     100.053E+06    -17.0700E+06    -16.9982E+06     107.796E+06     102.520E+06     264.331E+03         54.6032
             837     14.1562E-03     23.7928E-03         2.32299    -682.169E-03    -688.296E-03    -683.171E-03         2.32292    -687.221E-03     26.0133E-03     131.601E-03    -58.5355E-03    -73.0892E-03    -58.4163E-03     116.928E-03    -58.5355E-03     102.260E-03     97.1676E+06     63.6411E+06    -22.8712E+06    -22.8347E+06     97.1311E+06     63.6411E+06    -707.898E+03         50.4583
             838     13.2101E-03     23.7144E-03         2.31900    -678.716E-03    -687.783E-03    -679.596E-03         2.31894    -686.838E-03     23.2441E-03     120.129E-03    -58.3533E-03    -61.8122E-03    -56.7206E-03     115.038E-03    -58.3533E-03     59.1873E-03     91.9357E+06     28.6153E+06    -25.2386E+06    -25.2212E+06     91.9183E+06     28.6153E+06    -964.589E+03         45.9179
             839     12.2673E-03     23.6616E-03         2.30795    -669.692E-03    -687.282E-03    -669.580E-03         2.30784    -687.282E-03     32.3986E-03     117.760E-03    -58.2833E-03    -59.5188E-03    -57.2226E-03     115.464E-03    -58.2833E-03     38.8485E-03     61.6380E+06     1.88125E+06    -28.4327E+06    -28.4254E+06     61.6306E+06     1.88125E+06    -159.020E+03         41.7537
             840     11.3230E-03     23.6295E-03         2.30659    -666.206E-03    -688.542E-03    -666.046E-03         2.30643    -688.542E-03     4.39270E-03     116.922E-03    -58.2955E-03    -58.6509E-03    -57.7135E-03     115.985E-03    -58.2955E-03     25.3262E-03     11.6929E+06    -21.0381E+06    -33.4681E+06    -31.1275E+06    -1.23033E+06    -10.4554E+06     447.495E+03         38.2882
             841     10.3789E-03     23.6060E-03         2.31753    -674.977E-03    -689.916E-03    -674.686E-03         2.31724    -689.916E-03     17.8792E-03     116.908E-03    -58.3338E-03    -58.5881E-03    -57.9534E-03     116.313E-03    -58.3732E-03     20.3316E-03    -9.74206E+06    -33.6327E+06    -63.5708E+06    -33.7657E+06    -63.4378E+06    -9.74206E+06     656.847E+03         35.5534
             842     9.43504E-03     23.5849E-03         2.33395    -685.054E-03    -696.625E-03    -690.857E-03         2.33352    -690.398E-03     5.03034E-03     116.698E-03    -58.2161E-03    -58.4932E-03    -57.8966E-03     116.330E-03    -58.4447E-03     15.6907E-03    -9.60705E+06    -36.0323E+06    -110.692E+06    -36.0404E+06    -110.684E+06    -9.60705E+06     305.101E+03         33.5798
             843     8.49140E-03     23.5707E-03         2.34683    -687.950E-03    -703.104E-03    -699.819E-03         2.34527    -689.674E-03     59.3733E-03     116.787E-03    -58.2923E-03    -58.5010E-03    -58.1284E-03     116.621E-03    -58.4989E-03     10.5822E-03    -9.90567E+06    -37.5530E+06    -146.021E+06    -37.5600E+06    -146.014E+06    -9.90567E+06    -81.3651E+03         32.3046
             844     7.54798E-03     23.5611E-03         2.34770    -688.289E-03    -702.661E-03    -699.760E-03         2.34480    -688.289E-03    -5.41740E-03     116.981E-03    -58.4527E-03    -58.5409E-03    -58.3731E-03     116.900E-03    -58.5387E-03     7.47189E-03    -10.4422E+06    -41.6043E+06    -179.888E+06    -41.6652E+06    -179.827E+06    -10.4422E+06     1.30243E+06         31.4914
             845     6.60546E-03     23.5536E-03         2.33284    -682.767E-03    -696.806E-03    -684.739E-03         2.32571    -687.706E-03     85.9650E-03     116.945E-03    -58.3766E-03    -58.5834E-03    -58.3634E-03     116.903E-03    -58.5547E-03     5.31962E-03    -14.4901E+06    -48.6017E+06    -216.593E+06    -48.6654E+06    -216.530E+06    -14.4901E+06     2.04051E+06         30.8889
             846     5.66099E-03     23.5487E-03         2.32503    -681.584E-03    -692.630E-03    -666.651E-03         2.30725    -689.785E-03    -85.2088E-03     116.889E-03    -58.3442E-03    -58.5595E-03    -58.3542E-03     116.870E-03    -58.5308E-03     3.52135E-03    -22.2154E+06    -54.9138E+06    -241.530E+06    -54.9253E+06    -241.518E+06    -22.2154E+06     164.848E+03         30.3979
             847     4.71846E-03     23.5461E-03         2.35920    -689.828E-03    -718.440E-03    -678.861E-03         2.32288    -693.090E-03     117.172E-03     116.789E-03    -58.3142E-03    -58.4858E-03    -58.3059E-03     116.781E-03    -58.4858E-03     2.35912E-03    -32.9237E+06    -59.7583E+06    -258.631E+06    -59.7652E+06    -258.624E+06    -32.9237E+06    -699.088E+03         30.0052
             848     3.77397E-03     23.5433E-03         2.43383    -692.958E-03    -792.810E-03    -705.187E-03         2.34621    -692.958E-03    -251.744E-03     116.698E-03    -58.2616E-03    -58.4452E-03    -58.2584E-03     116.695E-03    -58.4452E-03     1.12575E-03    -44.2400E+06    -64.3617E+06    -272.160E+06    -64.3659E+06    -272.156E+06    -44.2400E+06    -757.863E+03         29.7054
             849     2.83087E-03     23.5439E-03         2.57791    -687.674E-03    -945.175E-03    -710.128E-03         2.34286    -687.674E-03     439.915E-03     116.592E-03    -58.1667E-03    -58.4355E-03    -58.1658E-03     116.591E-03    -58.4355E-03     583.710E-06    -56.2330E+06    -69.2845E+06    -280.282E+06    -69.2919E+06    -280.275E+06    -56.2330E+06    -282.666E+03         29.4903
             850     1.88689E-03     23.5426E-03         2.98386    -673.124E-03        -1.36351    -716.326E-03         2.33667    -673.124E-03    -877.695E-03     116.707E-03    -58.1180E-03    -58.5965E-03    -58.2439E-03     116.706E-03    -58.4697E-03     364.478E-06    -67.2676E+06    -73.3119E+06    -287.087E+06    -73.3189E+06     -287.08E+06    -67.2676E+06    -207.364E+03         29.3481
             851     942.504E-06     23.5431E-03         4.75004        -1.38252        -2.42115     58.1155E-03         2.27078        -1.38252         2.68264     116.952E-03    -58.2294E-03    -58.7240E-03    -58.5503E-03     116.950E-03    -58.4014E-03    -282.855E-06    -73.6717E+06    -76.0589E+06    -289.642E+06    -75.5718E+06    -289.628E+06    -74.1732E+06    -1.54195E+06         29.2663
             852     16.0431E-03     23.0614E-03         2.29185    -664.352E-03    -679.866E-03    -665.269E-03         2.29167    -678.769E-03     33.8335E-03     151.528E-03    -58.8067E-03    -92.7157E-03    -59.8538E-03     118.667E-03    -58.8067E-03     163.718E-03     133.074E+06     127.884E+06    -7.98670E+06    -7.95302E+06     127.850E+06     133.074E+06     1.27558E+06         57.6983
             853     15.1012E-03     22.8175E-03         2.28664    -664.850E-03    -678.966E-03    -665.927E-03         2.28662    -677.869E-03     5.90963E-03     153.943E-03    -58.6964E-03    -95.2744E-03    -59.9858E-03     118.655E-03    -58.6964E-03     172.024E-03     112.505E+06     101.929E+06    -15.2602E+06    -15.2182E+06     109.884E+06     104.508E+06     275.036E+03         54.5784
             854     14.1555E-03     22.6690E-03         2.28641    -665.274E-03    -678.101E-03    -666.136E-03         2.28632    -677.157E-03     23.7633E-03     130.950E-03    -58.4981E-03    -72.4953E-03    -57.4634E-03     115.918E-03    -58.4981E-03     103.049E-03     97.4568E+06     61.7393E+06    -21.8383E+06    -21.8017E+06     97.4202E+06     61.7393E+06    -1.82653E+06         50.4407
             855     13.2121E-03     22.5926E-03         2.29708    -672.258E-03    -678.343E-03    -673.744E-03         2.29700    -676.779E-03     19.4816E-03     120.711E-03    -58.3233E-03    -62.4307E-03    -57.1244E-03     115.405E-03    -58.3233E-03     60.5061E-03      89.673E+06     23.1632E+06    -26.3888E+06    -26.3589E+06     89.6431E+06     23.1632E+06    -825.048E+03         45.8989
             856     12.2662E-03     22.5373E-03         2.30062    -673.509E-03    -678.388E-03    -675.282E-03         2.30043    -676.429E-03     31.8013E-03     118.063E-03    -58.2380E-03    -59.8679E-03    -57.5272E-03     115.722E-03    -58.2380E-03     39.3183E-03     60.4082E+06    -1.52166E+06    -29.8071E+06    -29.7981E+06     60.3992E+06    -1.52166E+06     815.786E+03         41.7327
             857     11.3229E-03     22.5064E-03         2.28852    -663.567E-03    -677.972E-03    -664.501E-03         2.28812    -676.633E-03    -2.24594E-03     117.104E-03    -58.2342E-03    -58.8932E-03    -57.9571E-03     116.168E-03    -58.2342E-03     25.2697E-03     11.5084E+06    -22.6231E+06    -33.7839E+06    -33.1085E+06    -158.006E+03    -11.6322E+06     887.380E+03         38.2681
             858     10.3800E-03     22.4815E-03         2.28578    -663.312E-03    -677.973E-03    -663.285E-03         2.28527    -677.500E-03     4.92146E-03     116.964E-03    -58.2855E-03    -58.6951E-03    -58.1448E-03     116.414E-03    -58.2855E-03     19.5495E-03    -10.7131E+06    -33.9665E+06    -63.6874E+06    -34.5463E+06    -63.1077E+06    -10.7131E+06     625.623E+03         35.5333
             859     9.43692E-03     22.4619E-03         2.30097    -673.775E-03    -684.499E-03    -679.656E-03         2.30015    -677.799E-03    -16.5539E-03     116.674E-03    -58.2096E-03    -58.4757E-03    -58.0252E-03     116.345E-03    -58.3315E-03     14.8634E-03    -10.0354E+06    -36.6092E+06    -109.485E+06    -36.6163E+06    -109.478E+06    -10.0354E+06     233.199E+03         33.5522
             860     8.49265E-03     22.4473E-03         2.30088    -672.554E-03    -685.523E-03    -678.677E-03         2.29892    -677.447E-03     34.9480E-03     116.441E-03    -58.0626E-03    -58.3871E-03    -57.9191E-03     116.289E-03    -58.3784E-03     10.1506E-03    -12.0613E+06    -41.4118E+06    -147.169E+06    -41.4261E+06    -147.155E+06    -12.0613E+06     274.729E+03         32.2674
             861     7.54938E-03     22.4371E-03         2.29274    -665.613E-03    -684.448E-03    -669.626E-03         2.29008    -677.776E-03     5.14747E-03     116.591E-03    -58.1692E-03    -58.4371E-03    -58.0933E-03     116.513E-03    -58.4350E-03     7.29200E-03    -12.6789E+06    -44.7477E+06    -182.980E+06    -44.8155E+06    -182.912E+06    -12.6789E+06     1.45700E+06         31.4530
             862     6.60505E-03     22.4311E-03         2.29862    -670.866E-03    -687.808E-03    -672.362E-03         2.29100    -678.684E-03     109.100E-03     116.744E-03    -58.2843E-03    -58.4755E-03    -58.2554E-03     116.705E-03    -58.4657E-03     5.06765E-03    -13.5267E+06    -46.5805E+06    -214.682E+06    -46.6527E+06    -214.610E+06    -13.5267E+06     2.32759E+06         30.8556
             863     5.66202E-03     22.4256E-03         2.30616    -676.359E-03    -692.522E-03    -673.511E-03         2.29041    -679.621E-03    -41.4203E-03     116.704E-03    -58.2691E-03    -58.4486E-03    -58.2641E-03     116.689E-03    -58.4388E-03     3.03075E-03     -22.191E+06    -51.5629E+06    -239.695E+06    -51.5874E+06    -239.671E+06     -22.191E+06     1.06113E+06         30.3680
             864     4.71775E-03     22.4232E-03         2.33134    -677.474E-03    -713.886E-03    -674.501E-03         2.29522    -680.736E-03     166.390E-03     116.591E-03    -58.1994E-03    -58.4012E-03    -58.1941E-03     116.586E-03    -58.4012E-03     1.82096E-03    -33.3397E+06    -58.6390E+06    -258.245E+06    -58.6513E+06    -258.233E+06    -33.3397E+06    -51.2355E+03         29.9767
             865     3.77494E-03     22.4214E-03         2.39473    -680.445E-03    -777.603E-03    -687.647E-03         2.30477    -680.445E-03    -226.455E-03     116.507E-03    -58.1414E-03    -58.3736E-03    -58.1390E-03     116.505E-03    -58.3736E-03     897.621E-06    -44.9174E+06    -65.2617E+06    -272.468E+06    -65.2649E+06    -272.465E+06    -44.9174E+06    -462.192E+03         29.6807
             866     2.83053E-03     22.4217E-03         2.54149    -677.784E-03    -933.408E-03    -688.315E-03         2.29640    -677.784E-03     470.844E-03     116.669E-03    -58.1574E-03    -58.5200E-03    -58.3568E-03     116.668E-03    -58.3192E-03     84.1121E-06    -56.8090E+06    -70.1919E+06    -280.586E+06    -70.2001E+06    -280.578E+06    -56.8090E+06    -281.487E+03         29.4703
             867     1.88705E-03     22.4205E-03         2.91010    -671.714E-03        -1.30879    -688.988E-03         2.29030    -671.714E-03    -741.446E-03     116.590E-03    -58.0734E-03    -58.5223E-03    -58.3997E-03     116.588E-03    -58.1947E-03    -169.152E-06    -67.0228E+06    -73.9139E+06    -286.719E+06    -73.9227E+06    -286.710E+06    -67.0228E+06    -52.5031E+03         29.3258
             868     945.208E-06     22.4195E-03         4.57908        -1.33657        -2.31025     2.21680E-03         2.26662        -1.33657         2.60554     116.171E-03    -57.8540E-03    -58.3197E-03    -58.2681E-03     116.170E-03    -57.9040E-03    -344.789E-06    -75.1752E+06    -77.9910E+06    -291.262E+06    -77.5050E+06    -291.246E+06    -75.6768E+06    -314.904E+03         29.2359
             869     16.0441E-03     21.9274E-03         2.27771    -667.674E-03    -670.899E-03    -669.691E-03         2.27760    -668.776E-03     5.05657E-03     151.848E-03    -58.7735E-03    -93.0653E-03    -59.9990E-03     118.782E-03    -58.7735E-03     164.717E-03     133.138E+06     127.468E+06    -7.34131E+06    -7.33713E+06     127.464E+06     133.138E+06     341.913E+03         57.6541
             870     15.1015E-03     21.6992E-03         2.26518    -662.458E-03    -670.734E-03    -666.268E-03         2.26514    -666.885E-03    -17.4869E-03     152.944E-03    -58.6845E-03    -94.2882E-03    -58.7787E-03     117.434E-03    -58.6845E-03     172.030E-03     113.411E+06     101.072E+06    -14.2505E+06    -14.2436E+06     110.524E+06     103.953E+06    -200.529E+03         54.5401
             871     14.1533E-03     21.5455E-03         2.25381    -654.666E-03    -667.762E-03    -656.825E-03         2.25378    -665.573E-03     4.32006E-03     131.739E-03    -58.5183E-03    -73.2650E-03    -57.5305E-03     116.005E-03    -58.5183E-03     105.282E-03     97.1773E+06     59.0839E+06    -21.4722E+06    -21.4449E+06     97.1500E+06     59.0839E+06    -378.913E+03         50.4073
             872     13.2093E-03     21.4668E-03         2.25037    -651.730E-03    -665.931E-03    -652.317E-03         2.25033    -665.312E-03     2.98917E-03     121.572E-03    -58.3297E-03    -63.2854E-03    -58.1279E-03     116.415E-03    -58.3297E-03     59.6517E-03     87.8585E+06     22.2775E+06    -28.0870E+06    -28.0595E+06     87.8311E+06     22.2775E+06     256.747E+03         45.8670
             873     12.2679E-03     21.4147E-03         2.25940    -657.503E-03    -667.372E-03    -659.248E-03         2.25918    -665.413E-03     27.3465E-03     118.405E-03    -58.1862E-03    -60.2619E-03    -58.1054E-03     116.248E-03    -58.1862E-03     37.9499E-03     61.2381E+06    -972.526E+03    -31.6685E+06    -31.6547E+06     61.2243E+06    -972.526E+03     842.298E+03         41.7010
             874     11.3244E-03     21.3809E-03         2.26903    -663.538E-03    -670.960E-03    -668.910E-03         2.26857    -665.130E-03    -2.85070E-03     117.017E-03    -58.1407E-03    -58.9064E-03    -58.0218E-03     116.132E-03    -58.1407E-03     24.5125E-03     12.7518E+06    -22.8324E+06    -35.2869E+06    -33.0521E+06     197.156E+03    -12.5126E+06     867.263E+03         38.2363
             875     10.3812E-03     21.3587E-03         2.26426    -661.826E-03    -669.642E-03    -665.704E-03         2.26317    -664.677E-03     29.1191E-03     116.835E-03    -58.1774E-03    -58.6768E-03    -58.1509E-03     116.309E-03    -58.1774E-03     19.1562E-03    -12.1409E+06    -34.2927E+06    -64.0620E+06    -34.7640E+06    -63.5907E+06    -12.1409E+06     727.712E+03         35.4983
             876     9.43731E-03     21.3383E-03         2.25516    -659.144E-03    -665.227E-03    -658.383E-03         2.25392    -664.754E-03     25.3945E-03     116.689E-03    -58.1990E-03    -58.5017E-03    -58.1732E-03     116.361E-03    -58.1990E-03     14.7972E-03    -13.1304E+06    -38.0249E+06    -109.787E+06    -38.0763E+06    -109.735E+06    -13.1304E+06     1.66648E+06         33.5099
             877     8.49445E-03     21.3251E-03         2.25102    -655.630E-03    -665.576E-03    -653.977E-03         2.24937    -665.576E-03     43.1675E-03     116.340E-03    -58.0290E-03    -58.3219E-03    -57.9877E-03     116.200E-03    -58.2229E-03     9.70822E-03    -14.4869E+06    -41.4706E+06    -147.356E+06    -41.5364E+06    -147.291E+06    -14.4869E+06     2.41559E+06         32.2165
             878     7.54928E-03     21.3153E-03         2.24952    -650.660E-03    -667.329E-03    -648.009E-03         2.24686    -667.329E-03    -4.74057E-03     116.241E-03    -57.9872E-03    -58.2647E-03    -57.9338E-03     116.173E-03    -58.2501E-03     6.73127E-03    -17.9057E+06    -45.6405E+06    -181.743E+06    -45.6663E+06    -181.717E+06    -17.9057E+06     873.815E+03         31.3970
             879     6.60642E-03     21.3072E-03         2.26649    -659.049E-03    -673.897E-03    -657.342E-03         2.26020    -669.314E-03     78.7123E-03     116.476E-03    -58.1997E-03    -58.2897E-03    -58.1934E-03     116.449E-03    -58.2686E-03     4.01672E-03    -20.7789E+06    -50.5241E+06    -215.649E+06    -50.5342E+06    -215.639E+06    -20.7789E+06     481.977E+03         30.8010
             880     5.66261E-03     21.3039E-03         2.29743    -669.213E-03    -695.190E-03    -680.025E-03         2.28227    -669.213E-03    -80.5059E-03     116.412E-03    -58.1521E-03    -58.2707E-03    -58.1665E-03     116.405E-03    -58.2497E-03     1.99763E-03    -24.8440E+06    -55.0469E+06    -239.200E+06    -55.0742E+06    -239.173E+06    -24.8440E+06     2.09189E+06         30.3181
             881     4.71940E-03     21.3007E-03         2.30796    -667.522E-03    -708.768E-03    -675.063E-03         2.27425    -667.522E-03     123.815E-03     116.215E-03    -58.0130E-03    -58.2117E-03    -58.0110E-03     116.213E-03    -58.2117E-03     782.123E-06    -33.4077E+06    -60.0924E+06    -256.194E+06    -60.1112E+06    -256.175E+06    -33.4077E+06     1.28590E+06         29.9318
             882     3.77453E-03     21.3004E-03         2.34093    -668.328E-03    -739.673E-03    -655.663E-03         2.25692    -668.328E-03    -233.439E-03     116.300E-03    -58.0434E-03    -58.2672E-03    -58.1501E-03     116.299E-03    -58.1596E-03     33.1803E-06    -44.2870E+06    -65.6921E+06    -271.975E+06    -65.6927E+06    -271.975E+06    -44.2870E+06     151.810E+03         29.6380
             883     2.83166E-03     21.2982E-03         2.47394    -674.039E-03    -871.311E-03    -649.198E-03         2.25183    -674.039E-03     412.699E-03     116.284E-03    -57.9399E-03    -58.3532E-03    -58.2470E-03     116.283E-03    -58.0449E-03    -492.995E-06    -57.5341E+06    -71.3865E+06    -281.099E+06    -71.3891E+06    -281.097E+06    -57.5341E+06    -251.068E+03         29.4252
             884     1.88915E-03     21.2981E-03         2.84635    -686.065E-03        -1.23480    -654.527E-03         2.26607    -686.065E-03    -761.881E-03     115.794E-03    -57.6238E-03    -58.1762E-03    -57.8236E-03     115.793E-03    -57.9755E-03    -262.521E-06    -67.9628E+06    -75.6466E+06    -287.130E+06    -75.6516E+06    -287.124E+06    -67.9628E+06     136.132E+03         29.2790
             885     942.677E-06     21.2994E-03         4.44057        -1.30941        -2.20085    -78.5014E-03         2.31823        -1.30941         2.45050     115.903E-03    -57.7053E-03    -58.2006E-03    -57.9377E-03     115.902E-03    -57.9671E-03     792.522E-06    -75.9949E+06    -79.2543E+06    -291.439E+06    -79.2428E+06    -291.427E+06    -76.0181E+06     574.698E+03         29.1931
             886     16.0465E-03     20.8055E-03         2.23388    -647.867E-03    -657.969E-03    -648.805E-03         2.23380    -656.943E-03    -25.0043E-03     150.847E-03    -58.7751E-03    -92.0717E-03    -58.7433E-03     117.519E-03    -58.7751E-03     164.250E-03     132.397E+06     126.619E+06    -7.66286E+06    -7.65440E+06     126.610E+06     132.397E+06    -206.923E+03         57.5921
             887     15.0967E-03     20.5764E-03         2.23245    -650.946E-03    -657.898E-03    -653.625E-03         2.23237    -655.146E-03    -24.0268E-03     153.253E-03    -58.7225E-03    -94.5555E-03    -58.8811E-03     117.579E-03    -58.7225E-03     172.200E-03     112.384E+06     100.808E+06    -15.3863E+06    -15.3730E+06     109.791E+06     103.388E+06    -281.658E+03         54.4796
             888     14.1543E-03     20.4222E-03         2.22716    -648.186E-03    -655.848E-03    -650.323E-03         2.22710    -653.659E-03     9.31091E-03     133.138E-03    -58.5056E-03    -74.6572E-03    -59.3737E-03     117.854E-03    -58.5056E-03     104.185E-03     97.2924E+06     61.2437E+06    -21.9968E+06    -21.9799E+06     97.2755E+06     61.2437E+06     557.956E+03         50.3559
             889     13.2124E-03     20.3402E-03         2.21580    -637.599E-03    -653.409E-03    -637.519E-03         2.21572    -653.409E-03     19.3881E-03     121.278E-03    -58.2355E-03    -63.0831E-03    -58.4113E-03     116.606E-03    -58.2355E-03     56.8873E-03     89.1313E+06     25.0759E+06    -26.8328E+06    -26.8200E+06     89.1185E+06     25.0759E+06     791.961E+03         45.8203
             890     12.2693E-03     20.2907E-03         2.21941    -638.635E-03    -654.051E-03    -638.187E-03         2.21896    -654.051E-03     52.6472E-03     118.139E-03    -58.0556E-03    -60.1249E-03    -58.1209E-03     116.135E-03    -58.0556E-03     36.6210E-03     61.9123E+06    -635.793E+03    -29.4913E+06    -29.4794E+06     61.9004E+06    -635.793E+03     699.352E+03         41.6520
             891     11.3258E-03     20.2577E-03         2.23815    -649.882E-03    -658.877E-03    -653.859E-03         2.23759    -654.340E-03     17.8888E-03     116.855E-03    -57.9956E-03    -58.8907E-03    -58.0669E-03     116.031E-03    -57.9956E-03     23.5792E-03     12.2243E+06    -22.7306E+06    -35.0614E+06    -31.2169E+06    -1.02980E+06    -13.3210E+06     985.725E+03         38.1833
             892     10.3818E-03     20.2354E-03         2.23935    -651.700E-03    -658.612E-03    -655.399E-03         2.23851    -654.075E-03     25.5373E-03     116.662E-03    -58.0166E-03    -58.6716E-03    -58.2079E-03     116.198E-03    -58.0166E-03     17.9338E-03    -13.0964E+06    -33.4534E+06    -64.1469E+06    -33.5445E+06    -64.0558E+06    -13.0964E+06     1.30769E+06         35.4389
             893     9.43881E-03     20.2150E-03         2.22609    -646.706E-03    -654.268E-03    -645.884E-03         2.22526    -654.268E-03     29.2388E-03     116.714E-03    -58.0066E-03    -58.7231E-03    -58.4600E-03     116.451E-03    -58.0066E-03     12.8750E-03    -13.7895E+06    -36.0700E+06    -110.694E+06    -36.1444E+06    -110.619E+06    -13.7895E+06     2.14123E+06         33.4467
             894     8.49486E-03     20.2022E-03         2.22942    -647.766E-03    -655.227E-03    -646.959E-03         2.22839    -655.009E-03     46.5169E-03     116.396E-03    -57.9719E-03    -58.4337E-03    -58.3466E-03     116.309E-03    -57.9719E-03     7.43234E-03    -14.4851E+06    -37.8690E+06    -146.982E+06    -37.9398E+06    -146.912E+06    -14.4851E+06     2.57128E+06         32.1493
             895     7.55284E-03     20.1930E-03         2.24436    -650.694E-03    -664.236E-03    -657.734E-03         2.24236    -655.199E-03    -3.64406E-03     116.110E-03    -57.9196E-03    -58.2015E-03    -58.1375E-03     116.073E-03    -57.9467E-03     4.82833E-03    -15.2331E+06    -41.7059E+06    -180.180E+06    -41.8352E+06    -180.051E+06    -15.2331E+06     3.27387E+06         31.3180
             896     6.60816E-03     20.1851E-03         2.25615    -651.613E-03    -673.928E-03    -666.535E-03         2.25120    -654.061E-03     74.1837E-03     115.796E-03    -57.7843E-03    -58.0223E-03    -57.8540E-03     115.784E-03    -57.9407E-03     2.28871E-03    -18.6084E+06    -49.2162E+06    -216.389E+06    -49.3284E+06    -216.277E+06    -18.6084E+06     2.86104E+06         30.7131
             897     5.66475E-03     20.1816E-03         2.26572    -651.829E-03    -680.890E-03    -667.110E-03         2.25194    -651.829E-03    -91.8155E-03     115.689E-03    -57.7498E-03    -57.9471E-03    -57.7774E-03     115.688E-03    -57.9179E-03     727.797E-06    -25.2655E+06    -56.0032E+06    -238.573E+06    -56.0288E+06    -238.547E+06    -25.2655E+06     1.70623E+06         30.2331
             898     4.72025E-03     20.1793E-03         2.26373    -650.669E-03    -676.621E-03    -649.092E-03         2.23620    -650.669E-03     76.3108E-03     115.825E-03    -57.7932E-03    -58.0406E-03    -57.9896E-03     115.823E-03    -57.8429E-03    -145.658E-06    -34.5236E+06    -61.1423E+06    -254.440E+06    -61.1635E+06    -254.418E+06    -34.5236E+06     1.40321E+06         29.8525
             899     3.77743E-03     20.1775E-03         2.29293    -653.593E-03    -698.225E-03    -631.249E-03         2.22596    -653.593E-03    -221.771E-03     115.624E-03    -57.6157E-03    -58.0227E-03    -57.9017E-03     115.623E-03    -57.7355E-03    -892.235E-06    -45.3477E+06    -66.6279E+06    -271.050E+06    -66.6376E+06    -271.041E+06    -45.3477E+06     977.912E+03         29.5588
             900     2.83326E-03     20.1762E-03         2.41793    -660.815E-03    -819.607E-03    -634.179E-03         2.23250    -660.815E-03     385.114E-03     115.125E-03    -57.3578E-03    -57.7793E-03    -57.4632E-03     115.123E-03    -57.6718E-03    -1.09067E-03    -57.9387E+06    -71.6619E+06    -281.210E+06    -71.6638E+06    -281.208E+06    -57.9387E+06     47.7231E+03         29.3450
             901     1.88701E-03     20.1782E-03         2.75684    -665.967E-03        -1.16470    -663.152E-03         2.25530    -665.967E-03    -717.489E-03     115.129E-03    -57.2751E-03    -57.8593E-03    -57.4393E-03     115.125E-03    -57.6918E-03    -1.02252E-03    -69.3932E+06    -75.8575E+06    -288.057E+06    -75.8610E+06    -288.054E+06    -69.3932E+06    -101.072E+03         29.2047
             902     944.272E-06     20.1771E-03         4.18167        -1.19095        -2.07980    -142.106E-03         2.24398        -1.19095         2.30377     115.411E-03    -57.4017E-03    -58.0114E-03    -57.7964E-03     115.407E-03    -57.6135E-03     355.132E-06    -75.7104E+06    -77.7394E+06    -290.539E+06    -77.6718E+06    -290.532E+06     -75.785E+06    -217.673E+03         29.1248
             903     16.0429E-03     19.6864E-03         2.19602    -625.094E-03    -644.829E-03    -624.981E-03         2.19591    -644.829E-03     99.6608E-06     150.798E-03    -58.8213E-03    -91.9438E-03    -59.0557E-03     117.910E-03    -58.8213E-03     163.497E-03     133.012E+06     126.604E+06    -8.52922E+06    -8.52294E+06     126.597E+06     133.012E+06    -606.723E+03         57.5025
             904     15.0982E-03     19.4538E-03         2.19761    -629.832E-03    -644.029E-03    -629.723E-03         2.19750    -644.029E-03     8.88221E-03     154.984E-03    -58.6927E-03    -96.2679E-03    -61.1509E-03     119.867E-03    -58.6927E-03     172.385E-03     113.074E+06     102.730E+06    -15.9490E+06    -15.9420E+06     110.835E+06     104.962E+06    -202.024E+03         54.3906
             905     14.1576E-03     19.2913E-03         2.20094    -636.011E-03    -643.315E-03    -635.883E-03         2.20081    -643.315E-03     32.4194E-03     133.324E-03    -58.3792E-03    -74.9496E-03    -60.1850E-03     118.560E-03    -58.3792E-03     102.650E-03     97.5859E+06     63.6495E+06    -22.5647E+06    -22.5585E+06     97.5797E+06     63.6495E+06     706.794E+03         50.2752
             906     13.2155E-03     19.2197E-03         2.20583    -635.897E-03    -648.290E-03    -641.239E-03         2.20573    -642.842E-03     31.0755E-03     120.879E-03    -58.0516E-03    -62.8701E-03    -58.3488E-03     116.358E-03    -58.0516E-03     56.1062E-03     88.5985E+06     24.1363E+06    -27.0674E+06    -27.0597E+06     88.5908E+06     24.1363E+06     397.961E+03         45.7431
             907     12.2703E-03     19.1645E-03         2.20353    -633.506E-03    -648.003E-03    -638.575E-03         2.20315    -642.555E-03     50.0429E-03     118.091E-03    -57.8444E-03    -60.2906E-03    -58.3623E-03     116.163E-03    -57.8444E-03     35.4105E-03     60.9258E+06    -2.49775E+06    -29.3712E+06    -29.3482E+06     60.9028E+06    -2.49775E+06     693.683E+03         41.5731
             908     11.3283E-03     19.1350E-03         2.19796    -632.427E-03    -642.836E-03    -631.975E-03         2.19746    -642.790E-03     10.6279E-03     117.070E-03    -57.7387E-03    -59.3626E-03    -58.7178E-03     116.425E-03    -57.7387E-03     20.7760E-03     11.3646E+06    -22.8392E+06    -34.7694E+06    -31.8519E+06     -971.13E+03    -13.4209E+06     1.45513E+06         38.1002
             909     10.3852E-03     19.1119E-03         2.20657    -637.623E-03    -646.032E-03    -640.225E-03         2.20624    -643.101E-03     1.96838E-03     116.788E-03    -57.6742E-03    -59.1468E-03    -58.8208E-03     116.462E-03    -57.6742E-03     14.9176E-03    -14.7582E+06    -35.0940E+06    -65.2942E+06    -35.3337E+06    -65.0545E+06    -14.7582E+06     2.01487E+06         35.3480
             910     9.44252E-03     19.0911E-03         2.21159    -640.512E-03    -646.158E-03    -643.296E-03         2.21122    -643.011E-03    -1.14896E-03     116.392E-03    -57.5882E-03    -58.8219E-03    -58.6691E-03     116.239E-03    -57.5882E-03     9.45469E-03    -14.6725E+06    -37.5538E+06    -110.600E+06    -37.6467E+06    -110.507E+06    -14.6725E+06     2.31340E+06         33.3493
             911     8.50028E-03     19.0802E-03         2.20892    -640.659E-03    -645.893E-03    -642.776E-03         2.20800    -642.849E-03     32.7997E-03     115.899E-03    -57.4849E-03    -58.4204E-03    -58.3880E-03     115.867E-03    -57.4849E-03     4.44890E-03    -16.5182E+06    -41.0227E+06    -147.204E+06    -41.1103E+06    -147.116E+06    -16.5182E+06     2.80485E+06         32.0415
             912     7.55564E-03     19.0703E-03         2.21750    -641.894E-03    -656.814E-03    -655.465E-03         2.21615    -641.894E-03     6.68610E-03     115.338E-03    -57.4075E-03    -57.9400E-03    -57.9281E-03     115.326E-03    -57.4075E-03     2.20335E-03    -17.7575E+06    -44.7897E+06    -181.421E+06    -44.9694E+06    -181.241E+06    -17.7575E+06     4.63793E+06         31.1903
             913     6.61282E-03     19.0642E-03         2.22473    -639.667E-03    -662.844E-03    -657.931E-03         2.21982    -639.667E-03     99.2141E-03     114.824E-03    -57.2457E-03    -57.5898E-03    -57.4571E-03     114.821E-03    -57.3749E-03     156.243E-06    -18.3369E+06     -47.385E+06    -214.121E+06    -47.5440E+06    -213.962E+06    -18.3369E+06     4.69438E+06         30.5737
             914     5.66705E-03     19.0605E-03         2.22097    -637.646E-03    -657.283E-03    -645.757E-03         2.20944    -637.646E-03    -43.9266E-03     114.736E-03    -57.1911E-03    -57.5536E-03    -57.4194E-03     114.731E-03    -57.3203E-03    -1.22083E-03    -25.4014E+06    -52.5534E+06    -236.747E+06    -52.6373E+06    -236.663E+06    -25.4014E+06     3.30444E+06         30.0943
             915     4.72345E-03     19.0576E-03         2.22000    -637.548E-03    -653.345E-03    -631.558E-03         2.19821    -637.548E-03     86.6098E-03     114.620E-03    -57.0966E-03    -57.5324E-03    -57.3977E-03     114.612E-03    -57.2228E-03    -1.93996E-03    -35.6710E+06    -59.7088E+06    -253.650E+06    -59.7644E+06    -253.595E+06    -35.6710E+06     2.54005E+06         29.7159
             916     3.77908E-03     19.0566E-03         2.25419    -639.184E-03    -685.196E-03    -630.804E-03         2.19979    -639.184E-03    -194.337E-03     114.232E-03    -56.9068E-03    -57.3357E-03    -57.0914E-03     114.223E-03    -57.1421E-03    -2.18909E-03    -46.5656E+06    -65.7983E+06    -269.747E+06    -65.8119E+06    -269.733E+06    -46.5656E+06     1.37957E+06         29.4276
             917     2.83358E-03     19.0579E-03         2.35908    -641.480E-03    -789.309E-03    -633.967E-03         2.20374    -641.480E-03     357.881E-03     114.131E-03    -56.8577E-03    -57.2830E-03    -57.0514E-03     114.123E-03    -57.0818E-03    -2.09827E-03    -58.4814E+06    -70.5931E+06    -280.381E+06    -70.5956E+06    -280.378E+06    -58.4814E+06     358.520E+03         29.2237
             918     1.89029E-03     19.0565E-03         2.64585    -636.279E-03        -1.09256    -662.109E-03         2.21540    -636.279E-03    -655.844E-03     114.209E-03    -56.8172E-03    -57.3986E-03    -57.2777E-03     114.203E-03    -56.9321E-03    -2.00130E-03    -68.9633E+06    -75.0853E+06    -287.887E+06    -75.0881E+06    -287.885E+06    -68.9633E+06     108.367E+03         29.0890
             919     945.350E-06     19.0571E-03         3.85480        -1.05090        -1.89371    -208.329E-03         2.16942        -1.05090         2.04287     113.591E-03    -56.5084E-03    -57.0857E-03    -57.0820E-03     113.587E-03    -56.5084E-03    -573.164E-06    -76.1079E+06    -79.0328E+06    -291.446E+06    -77.9278E+06    -291.427E+06    -77.2320E+06     1.05318E+06         29.0032
             920     16.0404E-03     18.5612E-03         2.17544    -618.373E-03    -634.415E-03    -618.271E-03         2.17533    -634.415E-03     27.6101E-03     151.704E-03    -58.7912E-03    -92.8532E-03    -60.6000E-03     119.451E-03    -58.7912E-03     162.971E-03     132.780E+06     127.553E+06    -8.92064E+06    -8.91555E+06     127.548E+06     132.780E+06    -588.001E+03         57.3749
             921     15.1029E-03     18.3232E-03         2.17065    -615.750E-03    -633.782E-03    -615.677E-03         2.17058    -633.782E-03     17.7888E-03     155.719E-03    -58.5640E-03    -97.1064E-03    -62.5780E-03     121.191E-03    -58.5640E-03     171.965E-03     112.625E+06     102.135E+06    -16.7994E+06    -16.7970E+06     110.824E+06     103.933E+06     227.467E+03         54.2607
             922     14.1597E-03     18.1694E-03         2.17960    -625.428E-03    -635.552E-03    -627.821E-03         2.17951    -633.067E-03     26.1895E-03     132.935E-03    -58.1982E-03    -74.7374E-03    -60.2389E-03     118.436E-03    -58.1982E-03     101.583E-03     96.5405E+06     62.6949E+06    -23.4325E+06    -23.4114E+06     96.5194E+06     62.6949E+06     2.61856E+03         50.1515
             923     13.2154E-03     18.0923E-03         2.19508    -631.143E-03    -644.794E-03    -643.980E-03         2.19503    -631.905E-03     21.5523E-03     121.464E-03    -57.8177E-03    -63.6839E-03    -59.4295E-03     117.210E-03    -57.8177E-03     54.2505E-03     87.4406E+06     23.6447E+06    -27.9520E+06    -27.8927E+06     87.3814E+06     23.6447E+06     517.864E+03         45.6270
             924     12.2762E-03     18.0419E-03         2.18846    -629.023E-03    -641.175E-03    -639.573E-03         2.18840    -630.566E-03     23.0142E-03     118.883E-03    -57.4879E-03    -61.4426E-03    -59.8446E-03     117.285E-03    -57.4879E-03     32.0672E-03     59.7178E+06    -3.68972E+06    -31.8769E+06    -31.8190E+06     59.6600E+06    -3.68972E+06      1.4524E+06         41.4611
             925     11.3329E-03     18.0099E-03         2.16741    -619.664E-03    -630.493E-03    -619.747E-03         2.16729    -630.287E-03     5.50218E-03     117.386E-03    -57.2455E-03    -60.1777E-03    -59.7365E-03     116.945E-03    -57.2455E-03     16.9921E-03     10.8215E+06    -23.2550E+06    -36.2020E+06    -34.1962E+06    -495.024E+03    -13.9443E+06     1.65381E+06         37.9852
             926     10.3923E-03     17.9879E-03         2.16989    -619.626E-03    -633.741E-03    -622.221E-03         2.16960    -630.857E-03     23.9312E-03     116.681E-03    -57.0515E-03    -59.6637E-03    -59.4885E-03     116.506E-03    -57.0515E-03     10.7428E-03    -15.4942E+06    -34.7093E+06    -65.6982E+06    -35.4224E+06    -64.9851E+06    -15.4942E+06     2.65382E+06         35.2218
             927     9.44944E-03     17.9690E-03         2.18416    -628.597E-03    -639.451E-03    -636.934E-03         2.18380    -630.748E-03     5.27796E-03     115.666E-03    -56.8536E-03    -58.8319E-03    -58.7639E-03     115.598E-03    -56.8536E-03     5.42255E-03    -17.8933E+06    -38.7489E+06    -111.628E+06    -38.9905E+06    -111.387E+06    -17.8933E+06     4.01947E+06         33.2054
             928     8.50542E-03     17.9577E-03         2.19251    -629.170E-03    -650.478E-03    -649.564E-03         2.19160    -629.170E-03     36.4133E-03     114.755E-03    -56.6813E-03    -58.0775E-03    -58.0635E-03     114.740E-03    -56.6813E-03     465.322E-06    -20.1345E+06    -43.0506E+06    -148.276E+06    -43.3123E+06    -148.014E+06    -20.1345E+06     5.01905E+06         31.8710
             929     7.56287E-03     17.9496E-03         2.18277    -626.654E-03    -649.192E-03    -647.117E-03         2.18069    -626.654E-03    -18.3408E-03     114.002E-03    -56.5398E-03    -57.4662E-03    -57.4521E-03     113.987E-03    -56.5398E-03    -1.71721E-03    -23.1430E+06    -46.5451E+06    -180.157E+06    -46.7023E+06    -180.000E+06    -23.1430E+06     4.37517E+06         30.9932
             930     6.61664E-03     17.9445E-03         2.15789    -614.703E-03    -635.005E-03    -619.303E-03         2.15323    -625.750E-03     50.5417E-03     113.669E-03    -56.4342E-03    -57.2398E-03    -57.2135E-03     113.642E-03    -56.4342E-03    -3.37025E-03    -24.3061E+06    -50.4372E+06    -212.418E+06    -50.5357E+06    -212.320E+06    -24.3061E+06     3.98825E+06         30.3661
             931     5.67365E-03     17.9402E-03         2.16158    -612.145E-03    -633.333E-03    -608.680E-03         2.15253    -627.750E-03    -43.7980E-03     113.153E-03    -56.2795E-03    -56.8776E-03    -56.8025E-03     113.114E-03    -56.3162E-03    -4.57845E-03    -28.1131E+06    -54.5683E+06    -235.892E+06    -54.6989E+06    -235.762E+06    -28.1131E+06     4.84985E+06         29.8840
             932     4.72823E-03     17.9382E-03         2.19318    -625.005E-03    -650.341E-03    -627.155E-03         2.17455    -629.562E-03     92.5126E-03     112.350E-03    -56.0267E-03    -56.3276E-03    -56.1025E-03     112.314E-03    -56.2156E-03    -4.70756E-03    -37.4825E+06    -58.7677E+06    -251.738E+06    -58.8685E+06    -251.637E+06    -37.4825E+06     4.13994E+06         29.5056
             933     3.78166E-03     17.9383E-03         2.23611    -626.931E-03    -694.867E-03    -649.878E-03         2.19113    -626.931E-03    -160.767E-03     112.311E-03    -56.0222E-03    -56.2928E-03    -56.1081E-03     112.278E-03    -56.1745E-03    -4.50085E-03    -47.7255E+06    -64.1949E+06    -267.599E+06    -64.2331E+06    -267.561E+06    -47.7255E+06     2.37185E+06         29.2269
             934     2.83722E-03     17.9376E-03         2.29677    -620.451E-03    -768.509E-03    -642.122E-03         2.17039    -620.451E-03     314.531E-03     112.422E-03    -56.0467E-03    -56.3823E-03    -56.3293E-03     112.399E-03    -56.0767E-03    -3.73609E-03    -59.6344E+06    -69.9764E+06    -279.079E+06    -69.9945E+06    -279.061E+06    -59.6344E+06     1.66418E+06         29.0339
             935     1.89152E-03     17.9380E-03         2.51404    -612.616E-03    -983.871E-03    -629.506E-03         2.15968    -612.616E-03    -568.166E-03     112.076E-03    -55.8636E-03    -56.2201E-03    -56.1523E-03     112.066E-03    -55.9212E-03    -2.47539E-03    -67.9987E+06    -74.2983E+06    -287.505E+06    -74.3084E+06    -287.495E+06    -67.9987E+06     1.33635E+06         28.9027
             936     946.234E-06     17.9392E-03         3.55031    -951.901E-03        -1.65978    -264.586E-03         2.15512    -951.901E-03         1.80703     111.629E-03    -55.5624E-03    -56.0711E-03    -56.0401E-03     111.626E-03    -55.5901E-03    -1.22938E-03    -73.2845E+06    -79.1228E+06    -290.167E+06    -78.0726E+06    -290.144E+06    -74.3573E+06     1.79074E+06         28.8191
             937     16.0478E-03     17.4360E-03         2.17388    -619.713E-03    -638.364E-03    -632.918E-03         2.17382    -625.097E-03     19.9144E-03     152.446E-03    -58.6320E-03    -93.7739E-03    -62.0470E-03     120.719E-03    -58.6320E-03     161.150E-03     132.731E+06     127.438E+06    -9.21519E+06    -9.21006E+06     127.433E+06     132.731E+06    -284.777E+03         57.1924
             938     15.1023E-03     17.1959E-03         2.16387    -614.884E-03    -636.783E-03    -628.724E-03         2.16385    -622.921E-03    -3.97037E-03     155.048E-03    -58.3530E-03    -96.6663E-03    -62.0675E-03     120.450E-03    -58.3530E-03     171.312E-03     111.189E+06     98.8258E+06    -17.3563E+06    -17.3535E+06     108.628E+06     101.384E+06     166.027E+03         54.0817
             939     14.1620E-03     17.0442E-03         2.15586    -615.152E-03    -629.211E-03    -623.257E-03         2.15577    -621.007E-03     12.3225E-03     134.029E-03    -57.9112E-03    -76.1180E-03    -62.2853E-03     120.196E-03    -57.9112E-03     99.0990E-03     95.8545E+06     60.3842E+06    -22.9258E+06    -22.9010E+06     95.8298E+06     60.3842E+06    -6.02937E+03         49.9852
             940     13.2233E-03     16.9662E-03         2.15099    -611.830E-03    -627.378E-03    -619.175E-03         2.15090    -619.937E-03     27.2270E-03     122.641E-03    -57.3523E-03    -65.3219E-03    -61.7836E-03     119.103E-03    -57.3523E-03     49.4956E-03     86.1812E+06     21.5033E+06    -27.7223E+06    -27.6603E+06     86.1192E+06     21.5033E+06     1.05931E+06         45.4776
             941     12.2818E-03     16.9144E-03         2.15013    -613.905E-03    -624.746E-03    -619.064E-03         2.14998    -619.439E-03     32.4330E-03     119.216E-03    -56.8307E-03    -62.4352E-03    -61.3074E-03     118.088E-03    -56.8307E-03     26.5530E-03     60.5111E+06    -5.57703E+06    -31.2932E+06    -31.2041E+06     60.4219E+06    -5.57703E+06     2.28536E+06         41.3205
             942     11.3434E-03     16.8858E-03         2.15544    -615.104E-03    -626.441E-03    -622.388E-03         2.15529    -619.015E-03     25.3202E-03     117.446E-03    -56.4234E-03    -61.0536E-03    -60.8118E-03     117.204E-03    -56.4234E-03     11.9711E-03     11.0970E+06    -24.3270E+06    -36.9589E+06    -33.9784E+06    -232.128E+03    -15.9784E+06     2.42000E+06         37.8410
             943     10.4009E-03     16.8639E-03         2.15381    -612.386E-03    -629.335E-03    -623.143E-03         2.15368    -618.447E-03     26.6478E-03     116.248E-03    -56.0782E-03    -60.2031E-03    -60.1412E-03     116.187E-03    -56.0782E-03     5.11674E-03    -18.2774E+06    -35.3091E+06    -67.3448E+06    -36.3378E+06    -66.3161E+06    -18.2774E+06     3.97863E+06         35.0627
             944     9.45942E-03     16.8480E-03         2.15184    -615.498E-03    -628.102E-03    -625.677E-03         2.15156    -617.648E-03    -2.82600E-03     114.779E-03    -55.7322E-03    -59.0685E-03    -59.0300E-03     114.741E-03    -55.7322E-03    -741.130E-06    -20.8921E+06    -39.2381E+06    -112.183E+06    -39.7738E+06    -111.648E+06    -20.8921E+06     6.00665E+06         33.0189
             945     8.51687E-03     16.8371E-03         2.15808    -616.072E-03    -636.122E-03    -634.918E-03         2.15687    -616.072E-03     47.8552E-03     113.286E-03    -55.4402E-03    -57.8427E-03    -57.7789E-03     113.222E-03    -55.4402E-03    -5.54692E-03    -21.9509E+06    -42.5757E+06    -147.844E+06    -42.9540E+06    -147.465E+06    -21.9509E+06     6.05837E+06         31.6425
             946     7.57081E-03     16.8316E-03         2.15120    -613.995E-03    -631.441E-03    -629.362E-03         2.14912    -613.995E-03     8.79736E-03     112.408E-03    -55.1867E-03    -57.2146E-03    -57.1123E-03     112.305E-03    -55.1867E-03    -7.54366E-03    -23.7270E+06    -45.9069E+06    -177.865E+06    -46.1392E+06    -177.632E+06    -23.7270E+06     5.35939E+06         30.7223
             947     6.62794E-03     16.8249E-03         2.13277    -602.434E-03    -622.043E-03    -606.633E-03         2.12841    -613.481E-03     65.6916E-03     111.465E-03    -54.9704E-03    -56.4891E-03    -56.3621E-03     111.338E-03    -54.9704E-03    -8.66656E-03    -26.4110E+06    -50.7334E+06    -211.658E+06    -50.9251E+06    -211.466E+06    -26.4110E+06     5.29846E+06         30.0726
             948     5.68164E-03     16.8231E-03         2.13451    -599.663E-03    -622.864E-03    -599.348E-03         2.12660    -615.268E-03    -22.6652E-03     110.307E-03    -54.7641E-03    -55.5409E-03    -55.3728E-03     110.175E-03    -54.8007E-03    -9.00709E-03    -31.2982E+06    -55.6747E+06    -235.713E+06    -55.8220E+06    -235.565E+06    -31.2982E+06     5.12013E+06         29.5854
             949     4.73448E-03     16.8231E-03         2.15922    -612.376E-03    -631.115E-03    -613.364E-03         2.14602    -616.934E-03     60.8712E-03     109.630E-03    -54.5978E-03    -55.0321E-03    -54.8556E-03     109.517E-03    -54.6605E-03    -8.32160E-03    -40.9215E+06    -60.9058E+06    -249.344E+06    -61.0527E+06    -249.198E+06    -40.9215E+06     5.19189E+06         29.2098
             950     3.78849E-03     16.8210E-03         2.19606    -614.940E-03    -665.211E-03    -633.662E-03         2.16451    -614.940E-03    -144.149E-03     109.329E-03    -54.5008E-03    -54.8311E-03    -54.6715E-03     109.244E-03    -54.5749E-03    -7.27143E-03    -50.4873E+06    -65.8225E+06    -264.956E+06    -65.9238E+06    -264.855E+06    -50.4873E+06     4.25822E+06         28.9348
             951     2.84117E-03     16.8214E-03         2.24561    -609.377E-03    -721.992E-03    -628.692E-03         2.15231    -609.377E-03     272.152E-03     109.049E-03    -54.4214E-03    -54.6327E-03    -54.4676E-03     108.991E-03    -54.5283E-03    -5.96904E-03    -58.9096E+06    -70.2599E+06    -277.237E+06    -70.2980E+06    -277.199E+06    -58.9096E+06     2.75488E+06         28.7439
             952     1.89392E-03     16.8229E-03         2.40389    -602.088E-03    -878.390E-03    -618.368E-03         2.14387    -602.088E-03    -458.383E-03     108.886E-03    -54.3598E-03    -54.5301E-03    -54.3293E-03     108.855E-03    -54.5301E-03    -4.16213E-03    -67.7418E+06    -74.1477E+06    -286.167E+06    -74.1338E+06    -286.152E+06    -67.7707E+06     1.48356E+06         28.6194
             953     946.388E-06     16.8230E-03         3.21218    -874.458E-03        -1.40565    -321.426E-03         2.12796    -874.458E-03         1.55068     109.077E-03    -54.2945E-03    -54.7855E-03    -54.6638E-03     109.067E-03    -54.4060E-03    -2.26282E-03    -72.7412E+06    -76.9809E+06    -288.323E+06    -76.2916E+06    -288.285E+06    -73.4689E+06    -730.719E+03         28.5506
             954     16.0520E-03     16.3133E-03         2.15972    -615.235E-03    -637.205E-03    -637.087E-03         2.15961    -615.235E-03    -1.07292E-03     153.883E-03    -58.4933E-03    -95.3965E-03    -64.4328E-03     122.919E-03    -58.4933E-03     160.154E-03     133.555E+06     127.548E+06    -6.81309E+06    -6.80769E+06     127.542E+06     133.555E+06    -295.394E+03         56.9389
             955     15.1081E-03     16.0751E-03         2.15464    -612.103E-03    -635.956E-03    -635.925E-03         2.15461    -612.103E-03     2.43057E-03     156.885E-03    -58.0405E-03    -98.8470E-03    -64.7323E-03     122.771E-03    -58.0405E-03     171.670E-03     112.061E+06     98.0809E+06    -14.4527E+06    -14.4189E+06     108.794E+06     101.314E+06     904.017E+03         53.8526
             956     14.1682E-03     15.9102E-03         2.13304    -606.981E-03    -623.849E-03    -621.001E-03         2.13277    -609.554E-03     29.8727E-03     135.498E-03    -57.3816E-03    -78.0942E-03    -65.1012E-03     122.505E-03    -57.3816E-03     95.9601E-03     94.9007E+06     57.5786E+06    -22.3986E+06    -22.3572E+06     94.8592E+06     57.5786E+06     1.43497E+06         49.7820
             957     13.2332E-03     15.8384E-03         2.11221    -599.997E-03    -611.240E-03    -602.387E-03         2.11195    -608.587E-03     40.6472E-03     123.785E-03    -56.5804E-03    -67.2445E-03    -64.4695E-03     121.010E-03    -56.5804E-03     44.0138E-03     84.3966E+06     16.7003E+06    -27.1620E+06    -27.1195E+06     84.3541E+06     16.7003E+06     1.66443E+06         45.2973
             958     12.2962E-03     15.7886E-03         2.11789    -602.408E-03    -611.809E-03    -605.655E-03         2.11775    -608.425E-03     28.1104E-03     119.665E-03    -55.8250E-03    -63.8962E-03    -63.1538E-03     118.922E-03    -55.8250E-03     20.6391E-03     60.2158E+06    -9.17126E+06    -29.5274E+06    -29.4045E+06     60.0930E+06    -9.17126E+06     2.90216E+06         41.1542
             959     11.3550E-03     15.7601E-03         2.13121    -607.767E-03    -618.427E-03    -618.258E-03         2.13104    -607.767E-03     11.9088E-03     117.344E-03    -55.2363E-03    -62.1327E-03    -62.0438E-03     117.255E-03    -55.2363E-03     5.16988E-03     14.3161E+06    -23.3677E+06    -37.9712E+06    -33.2688E+06     196.147E+03    -13.9501E+06     5.05142E+06         37.6753
             960     10.4164E-03     15.7417E-03         2.13294    -606.425E-03    -622.037E-03    -621.693E-03         2.13259    -606.425E-03     25.7650E-03     115.703E-03    -54.6917E-03    -61.0365E-03    -60.9962E-03     115.663E-03    -54.6917E-03    -2.27019E-03    -16.7313E+06    -35.2320E+06    -70.0567E+06    -38.4947E+06    -66.7940E+06    -16.7313E+06     6.53447E+06         34.8827
             961     9.47498E-03     15.7258E-03         2.12477    -605.009E-03    -617.104E-03    -616.723E-03         2.12439    -605.009E-03     22.3377E-03     113.569E-03    -54.1290E-03    -59.4553E-03    -59.3077E-03     113.422E-03    -54.1290E-03    -8.49500E-03    -21.6423E+06    -40.2394E+06    -111.521E+06    -40.8408E+06    -110.920E+06    -21.6423E+06     6.22187E+06         32.8078
             962     8.53074E-03     15.7205E-03         2.10614    -595.274E-03    -608.920E-03    -598.607E-03         2.10523    -604.677E-03     49.9537E-03     111.699E-03    -53.6327E-03    -58.0459E-03    -57.7871E-03     111.440E-03    -53.6327E-03    -12.6436E-03    -22.9082E+06    -42.5537E+06    -145.791E+06    -42.9756E+06    -145.370E+06    -22.9082E+06     6.38349E+06         31.3777
             963     7.58796E-03     15.7129E-03         2.10350    -592.617E-03    -606.608E-03    -592.180E-03         2.10228    -605.818E-03     20.7802E-03     109.919E-03    -53.1993E-03    -56.6964E-03    -56.3678E-03     109.590E-03    -53.1993E-03    -14.2939E-03    -25.3727E+06    -46.4322E+06    -176.758E+06    -46.8223E+06    -176.367E+06    -25.3727E+06     6.94511E+06         30.3921
             964     6.64098E-03     15.7110E-03         2.13077    -602.121E-03    -623.170E-03    -616.240E-03         2.12764    -605.919E-03     73.3718E-03     107.936E-03    -52.8784E-03    -55.0419E-03    -54.6713E-03     107.565E-03    -52.8784E-03    -15.0687E-03    -27.2484E+06    -49.7401E+06    -210.790E+06    -50.0555E+06    -210.474E+06    -27.2484E+06     7.02496E+06         29.6979
             965     5.69296E-03     15.7103E-03         2.13760    -603.171E-03    -632.626E-03    -627.351E-03         2.13232    -603.171E-03     833.452E-06     106.648E-03    -52.6433E-03    -53.9934E-03    -53.6565E-03     106.311E-03    -52.6433E-03    -14.3173E-03    -32.4518E+06    -54.5030E+06    -234.332E+06    -54.7568E+06    -234.078E+06    -32.4518E+06     6.66260E+06         29.1961
             966     4.74584E-03     15.7094E-03         2.11458    -599.986E-03    -613.372E-03    -603.937E-03         2.10601    -600.847E-03     62.8690E-03     105.846E-03    -52.4290E-03    -53.4111E-03    -53.1356E-03     105.571E-03    -52.4290E-03    -12.9278E-03    -39.5393E+06    -59.9013E+06    -247.577E+06    -60.1205E+06    -247.357E+06    -39.5393E+06     6.36501E+06         28.8170
             967     3.79684E-03     15.7100E-03         2.12107    -600.657E-03    -615.924E-03    -593.646E-03         2.09965    -601.518E-03    -108.493E-03     104.948E-03    -52.2295E-03    -52.7168E-03    -52.4695E-03     104.749E-03    -52.2776E-03    -10.9049E-03    -48.2441E+06    -64.7833E+06    -261.205E+06    -64.9536E+06    -261.034E+06    -48.2441E+06     5.62646E+06         28.5370
             968     2.84750E-03     15.7100E-03         2.17410    -602.356E-03    -663.531E-03    -603.231E-03         2.11380    -602.356E-03     211.608E-03     104.444E-03    -52.1385E-03    -52.3049E-03    -52.0961E-03     104.312E-03    -52.2154E-03    -8.84314E-03    -58.7865E+06    -69.8701E+06    -274.277E+06    -69.9431E+06    -274.204E+06    -58.7865E+06     3.13246E+06         28.3426
             969     1.89838E-03     15.7109E-03         2.31547    -595.421E-03    -798.892E-03    -622.597E-03         2.13918    -595.421E-03    -392.168E-03     104.325E-03    -52.1056E-03    -52.2213E-03    -52.0395E-03     104.256E-03    -52.2185E-03    -6.24694E-03    -68.5107E+06    -74.0460E+06    -283.351E+06    -74.0362E+06    -283.332E+06    -68.5396E+06     1.46817E+06         28.2220
             970     949.252E-06     15.7118E-03         2.91394    -791.903E-03        -1.18370    -385.358E-03         2.11561    -791.903E-03         1.27511     104.452E-03    -52.0102E-03    -52.4441E-03    -52.1691E-03     104.433E-03    -52.2662E-03    -3.02500E-03    -75.3169E+06    -78.4914E+06    -287.439E+06    -76.4671E+06    -287.376E+06    -77.4038E+06     334.474E+03         28.1608
             971     16.0450E-03     15.1808E-03         2.11314    -604.486E-03    -616.798E-03    -616.683E-03         2.11303    -604.486E-03    -2.10718E-03     155.394E-03    -58.3894E-03    -97.0326E-03    -67.7438E-03     126.105E-03    -58.3894E-03     158.210E-03     132.222E+06     127.697E+06    -8.55748E+06    -8.54107E+06     127.681E+06     132.222E+06    -988.288E+03         56.6234
             972     15.1147E-03     14.9427E-03         2.10655    -600.480E-03    -613.685E-03    -612.083E-03         2.10653    -602.058E-03     6.05985E-03     160.126E-03    -57.6503E-03    -102.524E-03    -70.3299E-03     127.931E-03    -57.6503E-03     170.279E-03     110.629E+06     99.6206E+06    -16.7896E+06    -16.7379E+06     108.788E+06     101.410E+06    -146.777E+03         53.5758
             973     14.1817E-03     14.7818E-03         2.10546    -598.387E-03    -613.789E-03    -612.008E-03         2.10525    -599.965E-03     24.0455E-03     137.465E-03    -56.6691E-03    -80.8056E-03    -68.4885E-03     125.148E-03    -56.6691E-03     94.0771E-03     94.1963E+06     58.7301E+06    -23.1608E+06    -23.0279E+06     94.0634E+06     58.7301E+06     2.20703E+06         49.5435
             974     13.2451E-03     14.7054E-03         2.10852    -597.755E-03    -615.376E-03    -614.618E-03         2.10825    -598.239E-03     44.2529E-03     124.808E-03    -55.5963E-03    -69.2557E-03    -67.0072E-03     122.559E-03    -55.5963E-03     39.4255E-03     83.0458E+06     15.9778E+06    -28.0092E+06    -27.8769E+06     82.9136E+06     15.9778E+06     3.03552E+06         45.0895
             975     12.3109E-03     14.6613E-03         2.10343    -596.193E-03    -611.594E-03    -610.945E-03         2.10326    -596.676E-03     36.4256E-03     120.992E-03    -54.5475E-03    -66.4953E-03    -66.0212E-03     120.517E-03    -54.5475E-03     14.6757E-03     57.9547E+06    -11.8158E+06    -31.5228E+06    -31.2670E+06     57.6989E+06    -11.8158E+06     3.97839E+06         40.9675
             976     11.3753E-03     14.6358E-03         2.08914    -592.703E-03    -601.609E-03    -598.457E-03         2.08901    -595.727E-03     14.7468E-03     117.702E-03    -53.6705E-03    -64.0532E-03    -64.0113E-03     117.660E-03    -53.6705E-03    -1.30636E-03     16.1662E+06    -23.0483E+06    -39.8693E+06    -33.2503E+06    -717.337E+03    -12.7838E+06     7.49947E+06         37.4978
             977     10.4357E-03     14.6178E-03         2.08637    -592.225E-03    -600.106E-03    -596.552E-03         2.08597    -595.382E-03     37.2339E-03     115.026E-03    -52.8513E-03    -62.1855E-03    -62.0164E-03     114.857E-03    -52.8513E-03    -9.56552E-03    -13.2332E+06    -31.3970E+06    -68.9633E+06    -35.8100E+06    -64.5503E+06    -13.2332E+06     8.16823E+06         34.6975
             978     9.49465E-03     14.6086E-03         2.08701    -593.629E-03    -602.160E-03    -600.404E-03         2.08659    -594.963E-03     28.1719E-03     112.384E-03    -52.0059E-03    -60.3738E-03    -59.9361E-03     111.946E-03    -52.0059E-03    -16.5293E-03    -21.4576E+06    -38.4977E+06    -109.512E+06    -39.1841E+06    -108.825E+06    -21.4576E+06     6.65378E+06         32.5947
             979     8.55266E-03     14.6026E-03         2.07784    -584.336E-03    -600.842E-03    -589.695E-03         2.07730    -594.939E-03     35.9146E-03     109.498E-03    -51.2511E-03    -58.2192E-03    -57.5757E-03     108.855E-03    -51.2511E-03    -20.3021E-03    -23.3239E+06    -42.1511E+06    -145.016E+06    -42.7241E+06    -144.444E+06    -23.3239E+06     7.50379E+06         31.1106
             980     7.60674E-03     14.6000E-03         2.08314    -582.332E-03    -604.340E-03    -590.360E-03         2.08236    -595.532E-03     15.4568E-03     106.505E-03    -50.6139E-03    -55.8685E-03    -55.1079E-03     105.744E-03    -50.6139E-03    -21.7029E-03    -24.9067E+06    -44.8915E+06    -175.679E+06    -45.3773E+06    -175.194E+06    -24.9067E+06     7.84854E+06         30.0464
             981     6.65926E-03     14.6008E-03         2.10279    -588.198E-03    -613.176E-03    -604.666E-03         2.10126    -595.177E-03     46.8967E-03     104.036E-03    -50.1327E-03    -53.8922E-03    -53.0987E-03     103.243E-03    -50.1327E-03    -22.0011E-03    -25.5757E+06    -48.9382E+06    -209.631E+06    -49.3630E+06    -209.206E+06    -25.5757E+06     8.21290E+06         29.2779
             982     5.71062E-03     14.6011E-03         2.10559    -586.247E-03    -615.392E-03    -605.235E-03         2.10272    -593.533E-03    -11.6126E-03     102.045E-03    -49.7401E-03    -52.2947E-03    -51.6009E-03     101.351E-03    -49.7401E-03    -20.3280E-03    -30.6107E+06    -53.8603E+06    -231.979E+06    -54.2503E+06    -231.589E+06    -30.6107E+06     8.25830E+06         28.7318
             983     4.75960E-03     14.6014E-03         2.09418    -587.068E-03    -608.993E-03    -597.325E-03         2.08748    -592.033E-03     70.2178E-03     100.409E-03    -49.4134E-03    -50.9850E-03    -50.4334E-03     99.8572E-03    -49.4134E-03    -17.9348E-03    -38.5912E+06    -58.5199E+06    -244.953E+06    -58.8167E+06    -244.656E+06    -38.5912E+06     7.38141E+06         28.3289
             984     3.80864E-03     14.6033E-03         2.09804    -589.975E-03    -611.223E-03    -596.232E-03         2.08391    -590.836E-03    -54.7548E-03     99.3010E-03    -49.1798E-03    -50.1128E-03    -49.7175E-03     98.9057E-03    -49.1798E-03    -15.0484E-03    -47.9080E+06    -63.4089E+06    -257.554E+06    -63.6228E+06    -257.340E+06    -47.9080E+06     6.29225E+06         28.0337
             985     2.85704E-03     14.6042E-03         2.12437    -589.138E-03    -634.180E-03    -595.354E-03         2.08554    -589.138E-03     183.577E-03     98.4678E-03    -49.0273E-03    -49.4330E-03    -49.1851E-03     98.2199E-03    -49.0273E-03    -11.8687E-03    -58.5016E+06    -67.4802E+06    -270.477E+06    -67.6068E+06    -270.350E+06    -58.5016E+06     4.40462E+06         27.8302
             986     1.90449E-03     14.6055E-03         2.22383    -583.500E-03    -718.704E-03    -601.957E-03         2.10708    -583.500E-03    -307.979E-03     98.0192E-03    -48.9596E-03    -49.0578E-03    -48.9350E-03     97.8966E-03    -48.9599E-03    -8.08797E-03    -66.0527E+06    -71.8063E+06    -280.709E+06    -71.8739E+06    -280.642E+06    -66.0527E+06     3.02049E+06         27.7033
             987     952.168E-06     14.6052E-03         2.62876    -706.562E-03    -984.146E-03    -451.225E-03         2.09584    -706.562E-03     982.419E-03     97.8701E-03    -48.7923E-03    -49.0807E-03    -48.8740E-03     97.8355E-03    -48.9645E-03    -3.99604E-03    -72.0173E+06    -76.1908E+06    -283.417E+06    -74.8683E+06    -283.380E+06    -73.3765E+06     2.65535E+06         27.6363
             988     16.0546E-03     14.0444E-03         2.07958    -594.239E-03    -603.180E-03    -603.148E-03         2.07954    -594.239E-03     14.2562E-03     157.748E-03    -58.1472E-03    -99.6628E-03    -71.9609E-03     130.046E-03    -58.1472E-03     155.758E-03     132.976E+06     128.452E+06    -7.70503E+06    -7.68348E+06     128.430E+06     132.976E+06     301.257E+03         56.2727
             989     15.1208E-03     13.8075E-03         2.06966    -590.483E-03    -602.579E-03    -600.973E-03         2.06964    -592.061E-03     5.88134E-03     161.748E-03    -57.1346E-03    -104.700E-03    -74.3333E-03     131.381E-03    -57.1346E-03     167.155E-03     108.734E+06     99.9762E+06    -18.2172E+06    -18.1854E+06     108.144E+06     100.534E+06    -161.740E+03         53.2612
             990     14.1914E-03     13.6446E-03         2.07223    -588.401E-03    -603.179E-03    -601.515E-03         2.07214    -589.979E-03     19.6598E-03     139.703E-03    -55.8502E-03    -83.9341E-03    -72.6898E-03     128.458E-03    -55.8502E-03     90.5545E-03     92.6000E+06     60.1845E+06    -24.9811E+06    -24.8611E+06     92.4800E+06     60.1845E+06     1.00592E+06         49.2705
             991     13.2622E-03     13.5760E-03         2.07900    -588.180E-03    -605.689E-03    -605.453E-03         2.07877    -588.180E-03     47.7258E-03     126.334E-03    -54.4502E-03    -71.9506E-03    -70.1553E-03     124.538E-03    -54.4502E-03     35.1022E-03     83.2092E+06     19.2660E+06    -28.1767E+06    -27.9429E+06     82.9754E+06     19.2660E+06     3.21258E+06         44.8577
             992     12.3294E-03     13.5287E-03         2.07329    -586.719E-03    -599.283E-03    -598.981E-03         2.07299    -586.719E-03     56.5911E-03     122.020E-03    -53.0693E-03    -69.0004E-03    -68.6937E-03     121.714E-03    -53.0693E-03     9.52873E-03     55.8488E+06    -13.1193E+06    -31.3193E+06    -30.9235E+06      55.453E+06    -13.1193E+06     5.17289E+06         40.7668
             993     11.3958E-03     13.5112E-03         2.06780    -582.760E-03    -595.980E-03    -592.746E-03         2.06759    -585.783E-03     44.4047E-03     118.625E-03    -51.8395E-03    -66.8019E-03    -66.6928E-03     118.516E-03    -51.8395E-03    -7.01051E-03     13.7209E+06    -24.9744E+06    -38.5391E+06    -31.8111E+06    -2.46122E+06    -15.5202E+06     7.23128E+06         37.3173
             994     10.4589E-03     13.4962E-03         2.06453    -581.944E-03    -595.124E-03    -591.758E-03         2.06432    -585.100E-03     43.4738E-03     114.885E-03    -50.6828E-03    -64.2052E-03    -63.8002E-03     114.480E-03    -50.6828E-03    -16.0335E-03    -10.2703E+06    -29.4609E+06    -66.5757E+06    -33.4440E+06    -62.5926E+06    -10.2703E+06     9.47923E+06         34.5222
             995     9.52017E-03     13.4903E-03         2.05860    -582.986E-03    -587.287E-03    -585.334E-03         2.05838    -584.717E-03     4.35140E-03     111.064E-03    -49.5095E-03    -61.5463E-03    -60.7214E-03     110.239E-03    -49.5095E-03    -23.3768E-03    -16.3151E+06    -36.2718E+06    -107.263E+06    -37.7859E+06    -105.749E+06    -16.3151E+06     9.31000E+06         32.4032
             996     8.57713E-03     13.4899E-03         2.06910    -582.532E-03    -596.128E-03    -594.161E-03         2.06873    -584.129E-03     14.6445E-03     106.959E-03    -48.4473E-03    -58.4922E-03    -57.3212E-03     105.788E-03    -48.4473E-03    -27.4566E-03    -19.4849E+06    -39.9312E+06    -143.782E+06    -40.5678E+06    -143.146E+06    -19.4849E+06     7.93062E+06         30.8776
             997     7.63105E-03     13.4923E-03         2.08142    -582.291E-03    -603.807E-03    -603.496E-03         2.08111    -582.291E-03     23.1594E-03     102.966E-03    -47.5367E-03    -55.4154E-03    -54.0880E-03     101.639E-03    -47.5367E-03    -28.6785E-03    -22.4198E+06    -42.7284E+06    -174.964E+06    -43.2992E+06    -174.393E+06    -22.4198E+06     8.59297E+06         29.7386
             998     6.68233E-03     13.4950E-03         2.06500    -570.912E-03    -590.637E-03    -579.715E-03         2.06429    -581.119E-03     40.5667E-03     99.7183E-03    -46.7959E-03    -52.9198E-03    -51.5808E-03     98.3793E-03    -46.7959E-03    -28.2596E-03    -23.5636E+06    -46.5930E+06    -207.554E+06    -47.1618E+06    -206.985E+06    -23.5636E+06     9.38208E+06         28.8715
             999     5.73119E-03     13.4989E-03         2.05284    -562.013E-03    -583.160E-03    -560.335E-03         2.05116    -583.160E-03    -18.1525E-03     96.6061E-03    -46.1746E-03    -50.4291E-03    -49.2359E-03     95.4129E-03    -46.1746E-03    -26.1248E-03    -28.5954E+06    -51.1909E+06    -229.836E+06    -51.7332E+06    -229.293E+06    -28.5954E+06     9.66150E+06         28.2384
            1000     4.77805E-03     13.5022E-03         2.07374    -574.578E-03    -595.770E-03    -581.258E-03         2.07017    -585.518E-03     41.8006E-03     93.9747E-03    -45.6630E-03    -48.3029E-03    -47.3631E-03     93.0349E-03    -45.6630E-03    -22.8025E-03    -39.7179E+06    -56.7820E+06    -241.719E+06    -57.2520E+06    -241.249E+06    -39.7179E+06     9.05822E+06         27.7765
            1001     3.82348E-03     13.5038E-03         2.09341    -583.073E-03    -613.279E-03    -606.250E-03         2.08638    -583.073E-03    -38.6988E-03     92.2207E-03    -45.3206E-03    -46.8891E-03    -46.2189E-03     91.5505E-03    -45.3206E-03    -18.9788E-03    -48.8045E+06    -62.0577E+06    -253.509E+06    -62.3146E+06    -253.252E+06    -48.8045E+06     6.83835E+06         27.4449
            1002     2.86814E-03     13.5068E-03         2.09329    -577.546E-03    -616.254E-03    -593.450E-03         2.07048    -577.546E-03     156.628E-03     91.0425E-03    -45.1026E-03    -45.9278E-03    -45.5205E-03     90.6352E-03    -45.1026E-03    -14.6150E-03    -55.5429E+06    -66.8519E+06    -266.982E+06    -67.0311E+06    -266.803E+06    -55.5429E+06     5.90438E+06         27.2195
            1003     1.91254E-03     13.5080E-03         2.13062    -572.436E-03    -652.321E-03    -582.325E-03         2.06063    -572.436E-03    -216.906E-03     90.3028E-03    -44.8991E-03    -45.3955E-03    -45.2035E-03     90.1107E-03    -44.8991E-03    -9.79898E-03    -63.6298E+06    -71.2261E+06    -276.261E+06    -71.3704E+06    -276.116E+06    -63.6298E+06     5.11202E+06         27.0755
            1004     956.377E-06     13.5082E-03         2.36519    -655.839E-03    -812.500E-03    -483.978E-03         2.03667    -655.839E-03     745.614E-03     89.5939E-03    -44.5407E-03    -45.0503E-03    -44.9862E-03     89.5298E-03    -44.5407E-03    -5.55634E-03    -71.8554E+06    -74.8522E+06    -280.648E+06    -74.9557E+06    -280.545E+06    -71.8554E+06     897.773E+03         26.9921
            1005     16.0587E-03     12.9107E-03         2.05824    -585.153E-03    -599.631E-03    -599.577E-03         2.05818    -585.153E-03     18.5073E-03     162.004E-03    -57.8115E-03    -104.297E-03    -77.6288E-03     135.336E-03    -57.8115E-03     154.927E-03     134.250E+06     128.162E+06    -6.37154E+06    -6.30118E+06     128.092E+06     134.250E+06     1.91084E+06         55.8942
            1006     15.1320E-03     12.6662E-03         2.05543    -582.623E-03    -603.682E-03    -603.610E-03         2.05536    -582.623E-03     22.1346E-03     164.081E-03    -56.4801E-03    -107.702E-03    -78.6072E-03     134.986E-03    -56.4801E-03     165.244E-03     111.121E+06     101.413E+06    -15.6072E+06    -15.5172E+06      109.73E+06     102.714E+06     3.04317E+06         52.9135
            1007     14.2064E-03     12.5080E-03         2.04950    -580.163E-03    -598.385E-03    -598.190E-03         2.04931    -580.163E-03     42.5647E-03     140.541E-03    -54.8983E-03    -85.7662E-03    -75.8511E-03     130.626E-03    -54.8983E-03     85.7575E-03     91.6252E+06     59.7660E+06    -24.6561E+06    -24.6134E+06     91.5824E+06     59.7660E+06     917.838E+03         48.9634
            1008     13.2788E-03     12.4383E-03         2.03973    -578.665E-03    -586.038E-03    -585.686E-03         2.03938    -578.665E-03     60.3745E-03     127.709E-03    -53.2192E-03    -74.5873E-03    -73.0844E-03     126.206E-03    -53.2192E-03     32.0191E-03     80.2918E+06     19.4684E+06    -30.6730E+06    -30.5248E+06     80.1436E+06     19.4684E+06     2.01072E+06         44.5968
            1009     12.3495E-03     12.4014E-03         2.03829    -577.939E-03    -582.186E-03    -581.933E-03         2.03804    -577.939E-03     44.2028E-03     123.123E-03    -51.5273E-03    -71.6611E-03    -71.4317E-03     122.894E-03    -51.5273E-03     6.30666E-03     55.5121E+06    -11.9813E+06    -32.7432E+06    -32.3207E+06     55.0897E+06    -11.9813E+06     5.42481E+06         40.5507
            1010     11.4172E-03     12.3809E-03         2.04667    -577.119E-03    -589.750E-03    -589.509E-03         2.04642    -577.119E-03     43.2252E-03     119.358E-03    -49.9497E-03    -69.4347E-03    -69.2191E-03     119.142E-03    -49.9497E-03    -11.2303E-03     13.7746E+06    -27.6077E+06    -40.1949E+06    -34.3523E+06    -3.32827E+06    -16.3474E+06     7.04036E+06         37.1388
            1011     10.4849E-03     12.3768E-03         2.05070    -575.769E-03    -593.479E-03    -593.250E-03         2.05047    -575.769E-03     45.5415E-03     115.064E-03    -48.4259E-03    -66.6395E-03    -66.0155E-03     114.440E-03    -48.4259E-03    -20.7649E-03    -8.45063E+06    -31.3849E+06    -65.2450E+06    -35.3632E+06    -61.2667E+06    -8.45063E+06     9.21844E+06         34.3704
            1012     9.54543E-03     12.3743E-03         2.04977    -573.942E-03    -588.023E-03    -587.428E-03         2.04957    -574.340E-03     24.3414E-03     109.843E-03    -46.8833E-03    -62.9534E-03    -61.7550E-03     108.645E-03    -46.8833E-03    -28.2505E-03    -10.8480E+06    -32.8541E+06    -102.825E+06    -34.3641E+06    -101.315E+06    -10.8480E+06     8.97189E+06         32.2582
            1013     8.60377E-03     12.3808E-03         2.05793    -572.255E-03    -593.182E-03    -592.320E-03         2.05747    -572.652E-03     47.3890E-03     104.779E-03    -45.4695E-03    -59.2998E-03    -57.6103E-03     103.089E-03    -45.4695E-03    -32.9850E-03    -15.1399E+06    -35.2800E+06    -143.005E+06    -35.8887E+06    -142.396E+06    -15.1399E+06     7.99091E+06         30.7095
            1014     7.65739E-03     12.3883E-03         2.05169    -570.409E-03    -590.447E-03    -590.122E-03         2.05137    -570.409E-03     34.8293E-03     99.7458E-03    -44.2005E-03    -55.5408E-03    -53.6525E-03     97.8575E-03    -44.2005E-03    -33.9193E-03    -20.7593E+06    -38.4657E+06    -174.785E+06    -39.1391E+06    -174.112E+06    -20.7593E+06     9.50736E+06         29.5149
            1015     6.70747E-03     12.3957E-03         2.03145    -562.153E-03    -577.474E-03    -570.271E-03         2.03127    -569.177E-03     26.3519E-03     95.0633E-03    -43.1335E-03    -51.9311E-03    -50.0172E-03     93.1494E-03    -43.1335E-03    -33.2053E-03    -23.1423E+06    -42.3708E+06    -205.938E+06    -43.1376E+06    -205.171E+06    -23.1423E+06     10.9482E+06         28.5604
            1016     5.75449E-03     12.4032E-03         2.02690    -555.940E-03    -576.862E-03    -562.340E-03         2.02624    -569.801E-03    -20.0200E-03     90.9557E-03    -42.2435E-03    -48.7095E-03    -46.9801E-03     89.2262E-03    -42.2435E-03    -30.7521E-03    -26.1027E+06    -47.6354E+06    -227.705E+06    -48.3964E+06    -226.944E+06    -26.1027E+06     11.4641E+06         27.8261
            1017     4.79895E-03     12.4094E-03         2.03587    -562.861E-03    -577.727E-03    -568.595E-03         2.03461    -570.733E-03     11.1977E-03     87.1978E-03    -41.4928E-03    -45.6965E-03    -44.3316E-03     85.8329E-03    -41.4928E-03    -26.6227E-03    -35.2777E+06    -52.4874E+06    -237.955E+06    -53.1320E+06    -237.310E+06    -35.2777E+06     10.7330E+06         27.2781
            1018     3.84075E-03     12.4138E-03         2.04567    -566.063E-03    -583.083E-03    -575.133E-03         2.04211    -570.450E-03    -60.8256E-03     84.3346E-03    -40.9722E-03    -43.3528E-03    -42.3862E-03     83.3680E-03    -40.9722E-03    -21.9349E-03    -45.1578E+06    -58.0194E+06    -249.108E+06    -58.4940E+06    -248.633E+06    -45.1578E+06     9.29223E+06         26.8844
            1019     2.88132E-03     12.4169E-03         2.04323    -564.561E-03    -586.528E-03    -568.273E-03         2.03065    -570.242E-03     102.444E-03     82.6238E-03    -40.6342E-03    -41.9802E-03    -41.3889E-03     82.0324E-03    -40.6342E-03    -16.8414E-03    -52.4117E+06    -64.3746E+06    -263.242E+06    -64.6848E+06    -262.932E+06    -52.4117E+06     7.64411E+06         26.6153
            1020     1.92125E-03     12.4201E-03         2.06767    -566.914E-03    -611.501E-03    -574.595E-03         2.03309    -569.243E-03    -136.968E-03     81.3929E-03    -40.3182E-03    -41.0664E-03    -40.7897E-03     81.1161E-03    -40.3182E-03    -11.1949E-03    -62.7210E+06    -69.8333E+06    -270.480E+06    -70.0080E+06    -270.305E+06    -62.7210E+06     5.73646E+06         26.4394
            1021     961.641E-06     12.4196E-03         2.21256    -627.803E-03    -686.366E-03    -504.054E-03         2.03421    -631.764E-03     537.410E-03     80.3803E-03    -39.9660E-03    -40.4086E-03    -40.3182E-03     80.2899E-03    -39.9660E-03    -6.27417E-03    -70.9850E+06    -73.9291E+06    -275.523E+06    -72.6925E+06    -275.410E+06    -72.3348E+06     1.25371E+06         26.3338
            1022     16.0642E-03     11.7673E-03         2.03655    -577.170E-03    -596.063E-03    -595.880E-03         2.03637    -577.170E-03     36.7653E-03     166.611E-03    -57.5093E-03    -109.189E-03    -83.9841E-03     141.406E-03    -57.5093E-03     153.329E-03     133.259E+06     125.968E+06    -7.25886E+06    -7.19334E+06     125.903E+06     133.259E+06     1.67865E+06         55.4768
            1023     15.1437E-03     11.5196E-03         2.04106    -574.702E-03    -599.658E-03    -599.297E-03         2.04070    -574.702E-03     57.4760E-03     166.914E-03    -55.8274E-03    -111.213E-03    -83.2389E-03     138.939E-03    -55.8274E-03     164.701E-03     112.056E+06     101.448E+06    -15.3165E+06    -15.1916E+06     109.481E+06     103.897E+06     3.61061E+06         52.5204
            1024     14.2216E-03     11.3695E-03         2.04187    -572.194E-03    -597.335E-03    -597.021E-03         2.04156    -572.194E-03     53.3079E-03     142.004E-03    -53.9710E-03    -88.1742E-03    -78.6613E-03     132.491E-03    -53.9710E-03     84.7906E-03     93.1327E+06     61.8108E+06    -23.2012E+06    -22.9233E+06     92.8547E+06     61.8108E+06     4.68193E+06         48.6082
            1025     13.2938E-03     11.3035E-03         2.03517    -570.150E-03    -591.477E-03    -591.020E-03         2.03471    -570.150E-03     65.0969E-03     128.985E-03    -52.0516E-03    -77.0240E-03    -75.6252E-03     127.586E-03    -52.0516E-03     30.7510E-03     79.0163E+06     20.4107E+06    -31.4064E+06    -31.1276E+06     78.7375E+06     20.4107E+06     4.48997E+06         44.2963
            1026     12.3677E-03     11.2661E-03         2.03113    -568.506E-03    -585.970E-03    -585.636E-03         2.03080    -568.506E-03     40.6471E-03     124.045E-03    -50.0878E-03    -74.0237E-03    -73.8351E-03     123.857E-03    -50.0878E-03     4.82657E-03     54.1915E+06    -10.9070E+06    -36.4305E+06    -36.1510E+06     53.9119E+06    -10.9070E+06     4.18138E+06         40.3119
            1027     11.4394E-03     11.2561E-03         2.02313    -566.894E-03    -576.939E-03    -576.265E-03         2.02294    -567.370E-03     31.4348E-03     119.906E-03    -48.1903E-03    -71.7413E-03    -71.4829E-03     119.648E-03    -48.1903E-03    -12.5555E-03     12.1088E+06    -26.9537E+06    -41.0081E+06    -35.5414E+06    -2.76403E+06    -17.5475E+06     5.57347E+06         36.9595
            1028     10.5051E-03     11.2532E-03         2.02161    -566.136E-03    -575.808E-03    -575.119E-03         2.02140    -566.612E-03     40.5228E-03     115.018E-03    -46.3246E-03    -68.6966E-03    -67.8953E-03     114.217E-03    -46.3246E-03    -23.5312E-03    -10.5252E+06    -30.8746E+06    -61.4232E+06    -33.0704E+06    -59.2274E+06    -10.5252E+06     5.16429E+06         34.2487
            1029     9.57103E-03     11.2621E-03         2.03148    -565.468E-03    -582.348E-03    -582.153E-03         2.03129    -565.468E-03     38.7828E-03     109.042E-03    -44.4474E-03    -64.5925E-03    -63.1597E-03     107.609E-03    -44.4474E-03    -31.1536E-03    -10.0896E+06    -31.6750E+06    -100.222E+06    -32.3500E+06    -99.5472E+06    -10.0896E+06     6.00126E+06         32.1759
            1030     8.62842E-03     11.2733E-03         2.03455    -563.656E-03    -583.988E-03    -583.436E-03         2.03400    -563.656E-03     73.0872E-03     102.979E-03    -42.6808E-03    -60.2947E-03    -58.3413E-03     101.025E-03    -42.6808E-03    -35.3975E-03    -12.1973E+06    -33.4419E+06    -142.539E+06    -34.1318E+06    -141.849E+06    -12.1973E+06     8.54540E+06         30.6273
            1031     7.68331E-03     11.2883E-03         2.03114    -561.422E-03    -582.199E-03    -581.808E-03         2.03075    -561.422E-03     38.4570E-03     96.9000E-03    -41.0440E-03    -55.8572E-03    -53.6115E-03     94.6543E-03    -41.0440E-03    -36.7394E-03    -17.5730E+06    -36.4498E+06    -175.485E+06    -37.2277E+06    -174.707E+06    -17.5730E+06     10.2939E+06         29.4055
            1032     6.73247E-03     11.3020E-03         2.02756    -558.902E-03    -578.602E-03    -578.478E-03         2.02743    -558.902E-03     15.0702E-03     90.8326E-03    -39.6233E-03    -51.2153E-03    -48.9479E-03     88.5652E-03    -39.6233E-03    -35.5940E-03    -20.2711E+06    -39.5813E+06    -204.936E+06    -40.5409E+06    -203.977E+06    -20.2711E+06     12.4793E+06         28.4064
            1033     5.77777E-03     11.3140E-03         2.02029    -556.488E-03    -570.747E-03    -570.502E-03         2.02004    -556.488E-03    -3.90922E-03     85.4589E-03    -38.4308E-03    -47.0298E-03    -44.9726E-03     83.4018E-03    -38.4308E-03    -32.7347E-03    -20.9700E+06    -43.2816E+06    -224.453E+06    -44.1634E+06    -223.571E+06    -20.9700E+06     12.5270E+06         27.6102
            1034     4.81946E-03     11.3255E-03         2.01033    -554.048E-03    -560.792E-03    -558.590E-03         2.00917    -555.084E-03     43.7742E-03     80.7426E-03    -37.4095E-03    -43.3280E-03    -41.6687E-03     79.0833E-03    -37.4095E-03    -28.4339E-03    -28.2414E+06    -48.1487E+06    -234.592E+06    -48.8881E+06    -233.853E+06    -28.2414E+06     11.6954E+06         26.9956
            1035     3.85842E-03     11.3327E-03         1.99793    -546.233E-03    -556.854E-03    -543.565E-03         1.99480    -556.397E-03    -33.7739E-03     76.8501E-03    -36.6162E-03    -40.2284E-03    -39.0502E-03     75.6719E-03    -36.6162E-03    -23.2364E-03    -39.5539E+06    -52.7529E+06    -244.603E+06    -53.4420E+06    -243.914E+06    -39.5539E+06     11.4502E+06         26.5396
            1036     2.89517E-03     11.3381E-03         1.99706    -546.242E-03    -562.016E-03    -538.111E-03         1.98893    -562.016E-03     73.3099E-03     74.0910E-03    -36.0646E-03    -38.0233E-03    -37.3113E-03     73.3789E-03    -36.0646E-03    -17.6025E-03    -48.2099E+06    -56.7162E+06    -257.370E+06    -57.1714E+06    -256.915E+06    -48.2099E+06     9.29542E+06         26.2164
            1037     1.93122E-03     11.3408E-03         2.03965    -557.861E-03    -596.021E-03    -570.588E-03         2.02086    -564.507E-03    -83.2667E-03     72.1950E-03    -35.7008E-03    -36.4919E-03    -36.1406E-03     71.8438E-03    -35.7008E-03    -12.0295E-03    -55.2390E+06    -59.9503E+06    -265.155E+06    -60.1153E+06    -264.990E+06    -55.2390E+06     5.43787E+06         26.0007
            1038     964.499E-06     11.3442E-03         2.09859    -572.704E-03    -636.219E-03    -549.471E-03         2.01580    -576.664E-03     344.012E-03     71.2304E-03    -35.4921E-03    -35.7356E-03    -35.6120E-03     71.1067E-03    -35.4921E-03    -6.73478E-03    -59.9668E+06    -62.8889E+06    -267.475E+06    -61.5876E+06    -267.427E+06    -61.3166E+06     3.07160E+06         25.8732
            1039     16.0679E-03     10.6087E-03         2.01947    -569.693E-03    -590.113E-03    -589.942E-03         2.01930    -569.693E-03     35.1692E-03     170.051E-03    -57.2858E-03    -112.854E-03    -89.2341E-03     146.431E-03    -57.2858E-03     150.695E-03     132.351E+06     123.009E+06    -8.43056E+06    -8.42178E+06        123.E+06     132.351E+06     1.06231E+06         55.0122
            1040     15.1512E-03     10.3753E-03         2.01926    -567.195E-03    -589.673E-03    -589.323E-03         2.01891    -567.195E-03     54.7658E-03     167.920E-03    -55.3516E-03    -112.728E-03    -86.0128E-03     141.205E-03    -55.3516E-03     162.621E-03     110.224E+06     99.0662E+06    -17.0016E+06    -16.8749E+06     105.838E+06     103.325E+06     3.18427E+06         52.0689
            1041     14.2286E-03     10.2245E-03         2.02269    -564.678E-03    -589.704E-03    -589.468E-03         2.02245    -564.678E-03     43.6842E-03     144.120E-03    -53.2967E-03    -90.9599E-03    -81.4002E-03     134.560E-03    -53.2967E-03     85.8349E-03     92.8717E+06     64.7595E+06    -24.2763E+06    -23.8577E+06     92.4531E+06     64.7595E+06     6.68934E+06         48.1885
            1042     13.3096E-03     10.1650E-03         2.02970    -562.211E-03    -595.364E-03    -594.776E-03         2.02911    -562.211E-03     66.7400E-03     130.751E-03    -51.1475E-03    -79.6784E-03    -78.2688E-03     129.341E-03    -51.1475E-03     31.2032E-03     83.2170E+06     26.5761E+06    -27.6896E+06    -27.2873E+06     82.8147E+06     26.5761E+06     6.39396E+06         43.9455
            1043     12.3822E-03     10.1340E-03         2.02747    -559.651E-03    -592.350E-03    -591.794E-03         2.02692    -559.651E-03     51.6814E-03     124.383E-03    -48.9621E-03    -75.4753E-03    -75.3036E-03     124.212E-03    -48.9621E-03     6.05147E-03     55.6772E+06    -6.34896E+06    -29.5710E+06    -29.3235E+06     55.4297E+06    -6.34896E+06     4.23179E+06         40.0454
            1044     11.4538E-03     10.1261E-03         2.01455    -557.037E-03    -579.447E-03    -578.842E-03         2.01442    -557.514E-03     23.1236E-03     119.973E-03    -46.8434E-03    -73.1581E-03    -72.9369E-03     119.752E-03    -46.8434E-03    -10.8380E-03     9.46984E+06    -25.5746E+06    -33.8941E+06    -31.2500E+06    -1.62015E+06    -17.1287E+06     2.81353E+06         36.7738
            1045     10.5259E-03     10.1326E-03         2.00657    -555.628E-03    -570.297E-03    -569.685E-03         2.00644    -556.105E-03     31.5443E-03     114.707E-03    -44.7470E-03    -69.9741E-03    -69.2266E-03     113.960E-03    -44.7470E-03    -22.6465E-03    -11.2879E+06    -31.6622E+06    -59.7781E+06    -32.4847E+06    -58.9556E+06    -11.2879E+06     2.47358E+06         34.1464
            1046     9.58787E-03     10.1485E-03         2.00764    -554.790E-03    -572.965E-03    -572.850E-03         2.00753    -554.790E-03     6.75981E-03     108.196E-03    -42.6335E-03    -65.5652E-03    -64.2354E-03     106.866E-03    -42.6335E-03    -30.0136E-03    -8.23025E+06    -34.2659E+06    -103.064E+06    -34.7382E+06    -102.591E+06    -8.23025E+06     5.24212E+06         32.1442
            1047     8.64916E-03     10.1688E-03         2.00244    -553.016E-03    -569.162E-03    -568.650E-03         2.00223    -553.319E-03     17.4808E-03     101.472E-03    -40.5864E-03    -60.8824E-03    -59.0889E-03     99.6786E-03    -40.5864E-03    -33.7858E-03    -7.86258E+06    -36.2438E+06    -142.235E+06    -36.9599E+06    -141.519E+06    -7.86258E+06     8.55975E+06         30.6318
            1048     7.70284E-03     10.1910E-03         2.00259    -551.265E-03    -565.406E-03    -564.541E-03         2.00241    -551.957E-03     21.6545E-03     94.5119E-03    -38.6509E-03    -55.8619E-03    -53.7782E-03     92.4282E-03    -38.6509E-03    -35.0724E-03    -12.0388E+06    -38.8623E+06    -175.775E+06    -39.6761E+06    -174.961E+06    -12.0388E+06     10.3992E+06         29.4246
            1049     6.75263E-03     10.2127E-03         2.00679    -549.686E-03    -568.807E-03    -568.279E-03         2.00665    -550.076E-03     20.7391E-03     87.6187E-03    -36.9023E-03    -50.7164E-03    -48.5984E-03     85.5007E-03    -36.9023E-03    -33.9308E-03    -16.3016E+06    -40.3360E+06    -203.241E+06    -41.1259E+06    -202.451E+06    -16.3016E+06     11.1582E+06         28.4308
            1050     5.79654E-03     10.2320E-03         1.99768    -547.721E-03    -562.057E-03    -561.975E-03         1.99760    -547.721E-03     14.2360E-03     81.1754E-03    -35.3889E-03    -45.7833E-03    -43.8420E-03     79.2342E-03    -35.3889E-03    -31.1259E-03    -17.4830E+06    -41.1813E+06    -221.090E+06    -41.8964E+06    -220.375E+06    -17.4830E+06     11.2532E+06         27.6261
            1051     4.83676E-03     10.2470E-03         1.98522    -545.954E-03    -553.725E-03    -552.843E-03         1.98434    -545.954E-03     44.8167E-03     75.5994E-03    -34.0882E-03    -41.5090E-03    -39.9023E-03     73.9926E-03    -34.0882E-03    -27.2062E-03    -20.0308E+06    -43.2607E+06    -231.571E+06    -43.9269E+06    -230.905E+06    -20.0308E+06     11.1204E+06         26.9901
            1052     3.87354E-03     10.2595E-03         1.97876    -539.473E-03    -554.568E-03    -546.401E-03         1.97637    -545.249E-03    -40.6771E-03     70.8416E-03    -32.9951E-03    -37.8456E-03    -36.6876E-03     69.6837E-03    -32.9951E-03    -22.2184E-03    -29.1862E+06    -46.1143E+06    -239.616E+06    -46.6960E+06    -239.034E+06    -29.1862E+06     10.4897E+06         26.5033
            1053     2.90754E-03     10.2673E-03         1.97415    -536.429E-03    -552.980E-03    -538.042E-03         1.96947    -546.693E-03     33.9701E-03     66.9712E-03    -32.1690E-03    -34.8007E-03    -34.0898E-03     66.2603E-03    -32.1690E-03    -16.8095E-03    -39.2218E+06    -48.0103E+06    -250.121E+06    -48.3826E+06    -249.749E+06    -39.2218E+06     8.25793E+06         26.1473
            1054     1.93868E-03     10.2734E-03         1.98387    -533.406E-03    -566.889E-03    -541.160E-03         1.97535    -550.618E-03    -37.2251E-03     64.4096E-03    -31.6280E-03    -32.7805E-03    -32.4178E-03     64.0469E-03    -31.6280E-03    -11.5988E-03    -43.6461E+06    -49.3282E+06    -259.503E+06    -49.4596E+06    -259.372E+06    -43.6461E+06     4.98831E+06         25.9051
            1055     970.737E-06     10.2760E-03         2.02699    -533.153E-03    -614.084E-03    -536.254E-03         1.98578    -569.772E-03     259.382E-03     62.9124E-03    -31.1536E-03    -31.7570E-03    -31.6280E-03     62.7834E-03    -31.1536E-03    -6.54409E-03    -48.2716E+06    -52.4809E+06    -261.675E+06    -52.5315E+06    -261.625E+06    -48.2716E+06     3.13317E+06         25.7618
            1056     16.0715E-03     9.44967E-03         1.99834    -561.817E-03    -590.969E-03    -590.829E-03         1.99820    -561.817E-03     35.7172E-03     172.653E-03    -57.2529E-03    -115.517E-03    -92.4249E-03     149.561E-03    -57.2529E-03     149.026E-03     131.705E+06     121.170E+06    -8.79861E+06    -8.77081E+06     121.142E+06     131.705E+06     1.69298E+06         54.4960
            1057     15.1555E-03     9.22576E-03         1.99578    -558.815E-03    -588.229E-03    -588.019E-03         1.99557    -558.815E-03     43.8168E-03     170.126E-03    -55.1670E-03    -115.119E-03    -88.6062E-03     143.614E-03    -55.1670E-03     163.103E-03     108.585E+06     99.5115E+06    -16.5924E+06    -16.4451E+06     103.185E+06     104.764E+06     3.64018E+06         51.5547
            1058     14.2369E-03     9.08071E-03         1.99326    -556.062E-03    -579.808E-03    -579.629E-03         1.99308    -556.062E-03     40.0671E-03     145.311E-03    -52.9787E-03    -92.4453E-03    -82.9968E-03     135.863E-03    -52.9787E-03     87.2921E-03     92.2532E+06     68.0637E+06    -21.8959E+06    -21.6415E+06     91.9987E+06     68.0637E+06     5.33157E+06         47.7010
            1059     13.3133E-03     9.02174E-03         2.00087    -553.801E-03    -581.265E-03    -580.735E-03         2.00034    -553.801E-03     63.8811E-03     131.312E-03    -50.7308E-03    -80.6599E-03    -78.9161E-03     129.568E-03    -50.7308E-03     35.3670E-03     83.8456E+06     29.3356E+06    -25.9157E+06    -25.6823E+06     83.6122E+06     29.3356E+06     5.01281E+06         43.5386
            1060     12.3914E-03     9.00376E-03         2.00821    -551.358E-03    -586.635E-03    -586.145E-03         2.00772    -551.358E-03     44.2765E-03     125.137E-03    -48.4619E-03    -76.7224E-03    -76.4489E-03     124.864E-03    -48.4619E-03     11.1732E-03     59.4763E+06    -1.40665E+06    -27.9645E+06    -27.6360E+06     59.1479E+06    -1.40665E+06     5.09314E+06         39.7462
            1061     11.4633E-03     8.99683E-03         2.00758    -548.436E-03    -587.866E-03    -587.772E-03         2.00749    -548.436E-03     16.2778E-03     119.087E-03    -46.2720E-03    -72.8290E-03    -72.7097E-03     118.968E-03    -46.2720E-03    -5.12430E-03     14.5985E+06    -22.6859E+06    -33.6389E+06    -30.0596E+06      476.76E+03    -12.1435E+06     3.89313E+06         36.5790
            1062     10.5306E-03     9.01210E-03         2.00206    -545.299E-03    -582.623E-03    -582.445E-03         2.00188    -545.299E-03     38.7696E-03     113.545E-03    -44.1474E-03    -69.4027E-03    -68.9833E-03     113.126E-03    -44.1474E-03    -16.3629E-03    -6.96930E+06    -33.4036E+06    -61.0424E+06    -34.2859E+06    -60.1601E+06    -6.96930E+06     3.00567E+06         34.0503
            1063     9.59821E-03     9.03609E-03         1.99722    -542.180E-03    -577.068E-03    -576.912E-03         1.99707    -542.180E-03     12.1761E-03     107.370E-03    -41.9677E-03    -65.3921E-03    -64.5766E-03     106.555E-03    -41.9677E-03    -22.8962E-03    -3.24588E+06    -36.6585E+06    -105.594E+06    -36.9902E+06    -105.262E+06    -3.24588E+06     4.57778E+06         32.1433
            1064     8.65676E-03     9.06558E-03         1.98098    -539.228E-03    -563.498E-03    -563.065E-03         1.98085    -539.530E-03    -17.2141E-03     100.333E-03    -39.8047E-03    -60.5150E-03    -59.3772E-03     99.1956E-03    -39.8047E-03    -26.2750E-03    -3.11929E+06    -38.6048E+06    -143.948E+06    -39.1289E+06    -143.424E+06    -3.11929E+06     7.28902E+06         30.7198
            1065     7.71241E-03     9.09571E-03         1.95766    -536.788E-03    -544.598E-03    -542.809E-03         1.95747    -538.393E-03    -13.3903E-03     93.2399E-03    -37.7227E-03    -55.5149E-03    -54.1809E-03     91.9059E-03    -37.7227E-03    -27.4868E-03    -5.27848E+06    -40.3365E+06    -174.280E+06    -40.9299E+06    -173.686E+06    -5.27848E+06      8.7212E+06         29.5867
            1066     6.76155E-03     9.12560E-03         1.95696    -536.763E-03    -541.898E-03    -539.446E-03         1.95625    -538.509E-03    -24.5930E-03     86.2279E-03    -35.7602E-03    -50.4595E-03    -49.0786E-03     84.8470E-03    -35.7602E-03    -26.8220E-03    -10.0017E+06    -42.9301E+06    -200.741E+06    -43.3365E+06    -200.335E+06    -10.0017E+06     7.67868E+06         28.6469
            1067     5.80680E-03     9.15189E-03         1.96464    -537.492E-03    -550.090E-03    -548.977E-03         1.96397    -537.934E-03    -34.0703E-03     79.4148E-03    -33.9717E-03    -45.4299E-03    -44.1465E-03     78.1314E-03    -33.9717E-03    -24.7418E-03    -12.6084E+06    -43.5558E+06    -218.126E+06    -43.8608E+06    -217.821E+06    -12.6084E+06     6.29859E+06         27.8769
            1068     4.84653E-03     9.17443E-03         1.96684    -535.692E-03    -552.396E-03    -552.155E-03         1.96659    -535.692E-03     8.69388E-03     73.1479E-03    -32.3896E-03    -40.7586E-03    -39.6777E-03     72.0669E-03    -32.3896E-03    -21.7007E-03    -12.8188E+06    -41.9488E+06    -229.701E+06    -42.2279E+06    -229.422E+06    -12.8188E+06     5.84874E+06         27.2586
            1069     3.88254E-03     9.19083E-03         1.98003    -530.699E-03    -560.786E-03    -559.573E-03         1.97881    -530.699E-03    -48.7782E-03     67.7193E-03    -31.0164E-03    -36.7106E-03    -35.8981E-03     66.9069E-03    -31.0164E-03    -18.0843E-03    -16.0886E+06    -40.6927E+06    -236.211E+06    -40.9322E+06    -235.971E+06    -16.0886E+06     5.89335E+06         26.7771
            1070     2.91512E-03     9.20456E-03         1.96364    -523.589E-03    -547.293E-03    -545.287E-03         1.96180    -523.760E-03    -23.8008E-03     63.1045E-03    -29.8788E-03    -33.2261E-03    -32.7006E-03     62.5791E-03    -29.8788E-03    -13.9325E-03    -25.1676E+06    -41.7411E+06    -244.362E+06    -41.9003E+06    -244.203E+06    -25.1676E+06     5.31930E+06         26.4192
            1071     1.94541E-03     9.21202E-03         1.92619    -510.214E-03    -527.841E-03    -512.377E-03         1.92362    -523.109E-03    -47.8412E-03     59.5993E-03    -29.0350E-03    -30.5614E-03    -30.2968E-03     59.3346E-03    -29.0350E-03    -9.43619E-03    -35.5815E+06    -44.6479E+06    -254.276E+06    -44.7230E+06    -254.201E+06    -35.5815E+06     3.27234E+06         26.1721
            1072     972.468E-06     9.21693E-03         1.94179    -496.799E-03    -568.273E-03    -518.689E-03         1.92882    -533.419E-03     123.832E-03     57.4269E-03    -28.3865E-03    -29.0380E-03    -28.9469E-03     57.3358E-03    -28.3865E-03    -5.26681E-03    -42.1868E+06    -46.3444E+06    -256.891E+06    -46.3765E+06    -256.859E+06    -42.1868E+06     460.242E+03         26.0242
            1073     16.0657E-03     8.29948E-03         1.97069    -554.020E-03    -583.321E-03    -582.932E-03         1.97030    -554.020E-03     61.2051E-03     175.977E-03    -57.5990E-03    -118.515E-03    -95.2073E-03     152.670E-03    -57.5990E-03     149.376E-03     129.866E+06     119.481E+06    -8.38260E+06    -8.31119E+06     119.409E+06     129.866E+06     2.76412E+06         53.9286
            1074     15.1489E-03     8.06193E-03         1.98681    -550.998E-03    -590.326E-03    -589.705E-03         1.98618    -550.998E-03     75.6644E-03     172.830E-03    -55.4375E-03    -117.502E-03    -90.3289E-03     145.657E-03    -55.4375E-03     166.136E-03     107.645E+06     100.186E+06    -16.8969E+06    -16.7857E+06     102.472E+06     105.248E+06     3.11848E+06         50.9811
            1075     14.2360E-03     7.93682E-03         1.99379    -547.711E-03    -588.132E-03    -587.624E-03         1.99329    -547.711E-03     63.8251E-03     145.736E-03    -53.2538E-03    -92.5480E-03    -82.7641E-03     135.952E-03    -53.2538E-03     91.0724E-03     91.4369E+06     70.0338E+06    -22.0793E+06    -21.9272E+06     91.2847E+06     70.0338E+06     3.59965E+06         47.1484
            1076     13.3105E-03     7.88525E-03         1.98728    -544.895E-03    -577.250E-03    -576.709E-03         1.98673    -544.895E-03     66.7581E-03     131.752E-03    -51.0795E-03    -80.7402E-03    -78.1028E-03     129.114E-03    -51.0795E-03     44.1104E-03     82.9505E+06     31.9664E+06    -26.6513E+06    -26.3988E+06     82.6980E+06     31.9664E+06     5.18913E+06         43.0778
            1077     12.3849E-03     7.86305E-03         1.98580    -542.439E-03    -574.852E-03    -574.369E-03         1.98532    -542.439E-03     43.9623E-03     124.458E-03    -48.9522E-03    -75.5450E-03    -74.9827E-03     123.895E-03    -48.9522E-03     19.0512E-03     59.3444E+06     5.58378E+06    -31.6906E+06    -31.3548E+06     59.0086E+06     5.58378E+06     5.44212E+06         39.4132
            1078     11.4584E-03     7.87519E-03         1.99537    -539.402E-03    -585.504E-03    -585.422E-03         1.99528    -539.402E-03     15.2456E-03     117.488E-03    -46.9516E-03    -70.5303E-03    -70.3806E-03     117.338E-03    -46.9516E-03     6.00495E-03     19.4947E+06    -15.2001E+06    -36.8078E+06    -33.3780E+06     3.15303E+06    -2.28822E+06     4.58435E+06         36.3740
            1079     10.5253E-03     7.89100E-03         1.99562    -535.435E-03    -586.409E-03    -586.244E-03         1.99546    -535.435E-03     34.6468E-03     111.637E-03    -45.0632E-03    -66.5623E-03    -66.3978E-03     111.473E-03    -45.0632E-03    -2.36779E-03     2.54547E+06    -31.6849E+06    -62.1453E+06    -34.9439E+06    -58.8862E+06     2.54547E+06     3.05258E+06         33.9700
            1080     9.58752E-03     7.92569E-03         1.98236    -531.514E-03    -570.657E-03    -570.534E-03         1.98224    -531.514E-03     28.1299E-03     106.256E-03    -43.1415E-03    -63.1040E-03    -62.8660E-03     106.018E-03    -43.1415E-03    -7.76092E-03     6.79820E+06    -37.4834E+06    -107.447E+06    -37.6032E+06    -107.327E+06     6.79820E+06     2.39175E+06         32.1948
            1081     8.64856E-03     7.96156E-03         1.96956    -528.286E-03    -557.548E-03    -557.431E-03         1.96945    -528.286E-03     7.48713E-03     100.324E-03    -41.1700E-03    -59.1488E-03    -58.8105E-03     99.9857E-03    -41.1700E-03    -9.60221E-03     7.28032E+06    -38.6248E+06    -145.417E+06    -38.8113E+06    -145.230E+06     7.28032E+06     3.23483E+06         30.9205
            1082     7.70326E-03     8.00095E-03         1.95350    -524.915E-03    -545.807E-03    -544.314E-03         1.95292    -525.828E-03     14.0004E-03     94.3695E-03    -39.1854E-03    -55.1856E-03    -54.7700E-03     93.9539E-03    -39.1854E-03    -10.6164E-03     7.64602E+06    -38.6504E+06    -172.693E+06    -38.8676E+06    -172.476E+06     7.64602E+06     3.61637E+06         29.9242
            1083     6.75484E-03     8.03786E-03         1.93691    -523.150E-03    -533.990E-03    -531.540E-03         1.93581    -524.505E-03    -2.60985E-03     88.2909E-03    -37.2061E-03    -51.0846E-03    -50.6523E-03     87.8585E-03    -37.2061E-03    -11.3345E-03     6.79261E+06    -37.7421E+06    -196.674E+06    -37.8916E+06    -196.525E+06     6.79261E+06     1.78382E+06         29.0863
            1084     5.80116E-03     8.07252E-03         1.93646    -523.129E-03    -534.544E-03    -533.425E-03         1.93579    -523.571E-03    -35.2252E-03     81.9501E-03    -35.2650E-03    -46.6824E-03    -46.2692E-03     81.5369E-03    -35.2650E-03    -11.1558E-03     2.09377E+06    -38.0622E+06    -216.132E+06    -38.1423E+06    -216.052E+06     2.09377E+06    -825.759E+03         28.3885
            1085     4.84358E-03     8.10092E-03         1.94314    -520.356E-03    -535.193E-03    -533.290E-03         1.94290    -522.020E-03     9.44837E-03     75.6225E-03    -33.4226E-03    -42.2044E-03    -41.8464E-03     75.2645E-03    -33.4226E-03    -10.4730E-03    -4.17713E+06    -38.8693E+06    -229.373E+06    -38.9565E+06    -229.286E+06    -4.17713E+06    -1.97982E+06         27.8195
            1086     3.88133E-03     8.12446E-03         1.95465    -517.058E-03    -540.348E-03    -538.341E-03         1.95430    -518.722E-03     8.33988E-03     69.6592E-03    -31.7677E-03    -37.8984E-03    -37.6056E-03     69.3665E-03    -31.7677E-03    -9.31956E-03    -9.14244E+06    -39.3021E+06    -237.108E+06    -39.3832E+06    -237.027E+06    -9.14244E+06    -1.12855E+06         27.3707
            1087     2.91521E-03     8.14204E-03         1.95030    -510.727E-03    -544.785E-03    -544.599E-03         1.95011    -510.727E-03    -11.2472E-03     64.5123E-03    -30.3407E-03    -34.1716E-03    -33.9705E-03     64.3113E-03    -30.3407E-03    -7.62618E-03    -16.9001E+06    -40.5310E+06    -242.493E+06    -40.5935E+06    -242.430E+06    -16.9001E+06     263.056E+03         27.0335
            1088     1.94543E-03     8.15478E-03         1.91394    -497.418E-03    -528.913E-03    -528.173E-03         1.91320    -497.418E-03    -25.1070E-03     60.2191E-03    -29.2011E-03    -31.0154E-03    -30.9110E-03     60.1147E-03    -29.2011E-03    -5.46160E-03    -30.6160E+06    -41.9824E+06    -250.207E+06    -42.0176E+06    -250.172E+06    -30.6160E+06     91.1352E+03         26.7985
            1089     973.783E-06     8.16198E-03         1.85431    -463.710E-03    -520.975E-03    -503.741E-03         1.84913    -475.770E-03     111.648E-03     57.4367E-03    -28.4570E-03    -28.9765E-03    -28.9373E-03     57.3975E-03    -28.4570E-03    -3.01282E-03    -41.1390E+06    -44.1565E+06    -256.192E+06    -43.8062E+06    -256.177E+06    -41.5036E+06    -663.420E+03         26.6571
            1090     16.0506E-03     7.13030E-03         1.95161    -546.694E-03    -570.830E-03    -569.577E-03         1.95036    -546.694E-03     98.1102E-03     178.596E-03    -58.4624E-03    -120.222E-03    -96.9439E-03     155.318E-03    -58.4624E-03     148.972E-03     129.350E+06     119.663E+06    -11.9737E+06    -11.8011E+06     119.490E+06     129.350E+06     3.89752E+06         53.3181
            1091     15.1427E-03     6.90441E-03         1.97472    -543.935E-03    -582.263E-03    -581.250E-03         1.97371    -543.935E-03     95.3577E-03     173.017E-03    -56.3807E-03    -116.707E-03    -88.4685E-03     144.778E-03    -56.3807E-03     169.430E-03     107.362E+06     101.112E+06    -19.5263E+06    -19.4610E+06     102.347E+06     106.062E+06     2.22422E+06         50.3624
            1092     14.2150E-03     6.79452E-03         1.98984    -540.331E-03    -593.109E-03    -592.247E-03         1.98898    -540.331E-03     72.5613E-03     146.073E-03    -54.4152E-03    -91.7277E-03    -80.4940E-03     134.839E-03    -54.4152E-03     98.1185E-03     89.1906E+06     71.0131E+06    -26.1144E+06    -26.0302E+06     89.1064E+06     71.0131E+06     1.84500E+06         46.5479
            1093     13.2948E-03     6.73978E-03         1.98752    -536.500E-03    -588.548E-03    -587.943E-03         1.98692    -536.500E-03     61.5516E-03     131.244E-03    -52.5349E-03    -78.7740E-03    -74.7474E-03     127.218E-03    -52.5349E-03     55.6772E-03     79.7740E+06     35.1233E+06    -31.5105E+06    -31.0928E+06     79.3563E+06     35.1233E+06     5.27320E+06         42.5750
            1094     12.3672E-03     6.73670E-03         1.97697    -533.033E-03    -575.941E-03    -575.331E-03         1.97636    -533.033E-03     43.5406E-03     121.325E-03    -50.8847E-03    -70.4783E-03    -68.7085E-03     119.555E-03    -50.8847E-03     34.1262E-03     60.1317E+06     14.6532E+06    -35.5668E+06    -35.0260E+06     59.5909E+06     14.6532E+06     7.00973E+06         39.0524
            1095     11.4310E-03     6.74713E-03         1.97384    -529.714E-03    -574.566E-03    -574.394E-03         1.97367    -529.714E-03     14.7460E-03     114.828E-03    -49.5132E-03    -65.3194E-03    -64.0598E-03     113.568E-03    -49.5132E-03     26.4183E-03     26.5087E+06    -10.3346E+06    -39.8914E+06    -38.8664E+06     6.34557E+06     8.80356E+06     2.12083E+06         36.1659
            1096     10.4945E-03     6.77851E-03         1.96847    -526.128E-03    -570.223E-03    -570.085E-03         1.96834    -526.128E-03     23.7646E-03     110.295E-03    -48.2856E-03    -61.9968E-03    -60.8420E-03     109.140E-03    -48.2856E-03     22.9407E-03     12.4391E+06    -34.2928E+06    -64.2054E+06    -39.2406E+06    -59.2577E+06     12.4391E+06    -663.565E+03         33.9348
            1097     9.55443E-03     6.81250E-03         1.95009    -523.114E-03    -549.651E-03    -549.603E-03         1.95005    -523.114E-03     13.5647E-03     106.634E-03    -47.0485E-03    -59.5815E-03    -58.4987E-03     105.551E-03    -47.0485E-03     19.8690E-03     18.7120E+06    -39.0833E+06    -108.229E+06    -39.2006E+06    -108.112E+06     18.7120E+06    -1.16349E+06         32.3633
            1098     8.61141E-03     6.85906E-03         1.94124    -521.167E-03    -537.601E-03    -537.535E-03         1.94117    -521.167E-03     20.3120E-03     103.856E-03    -45.6741E-03    -58.1900E-03    -57.1218E-03     102.787E-03    -45.6741E-03     19.3040E-03     20.1585E+06    -38.8563E+06    -144.575E+06    -39.3318E+06    -144.099E+06     20.1585E+06    -4.53430E+06         31.3138
            1099     7.66761E-03     6.90074E-03         1.94312    -519.101E-03    -541.940E-03    -541.464E-03         1.94264    -519.101E-03     29.8640E-03     100.705E-03    -44.1067E-03    -56.6036E-03    -55.7145E-03     99.8162E-03    -44.1067E-03     17.3615E-03     21.7990E+06    -33.9893E+06    -172.050E+06    -34.9544E+06    -171.085E+06     21.7990E+06    -8.32490E+06         30.5107
            1100     6.72188E-03     6.94553E-03         1.93004    -516.305E-03    -539.330E-03    -538.788E-03         1.92949    -516.305E-03     32.7613E-03     96.6388E-03    -42.3713E-03    -54.2724E-03    -53.5675E-03     95.9338E-03    -42.3713E-03     14.3654E-03     22.9637E+06    -29.5577E+06    -197.835E+06    -30.2992E+06    -197.094E+06     22.9637E+06    -8.70330E+06         29.8082
            1101     5.77319E-03     6.98530E-03         1.92211    -513.161E-03    -534.341E-03    -534.138E-03         1.92191    -513.161E-03     26.4489E-03     91.6932E-03    -40.4793E-03    -51.2198E-03    -50.7120E-03     91.1854E-03    -40.4793E-03     11.2321E-03     16.0506E+06    -30.1089E+06    -217.144E+06    -30.3996E+06    -216.853E+06     16.0506E+06    -6.78455E+06         29.2075
            1102     4.82090E-03     7.02066E-03         1.91214    -506.765E-03    -521.905E-03    -517.559E-03         1.91202    -510.988E-03     23.2443E-03     85.8323E-03    -38.5100E-03    -47.3242E-03    -46.9878E-03     85.4959E-03    -38.5100E-03     7.98780E-03     1.85352E+06    -34.3178E+06    -230.033E+06    -34.5629E+06    -229.788E+06     1.85352E+06    -6.79046E+06         28.7123
            1103     3.86397E-03     7.05092E-03         1.89701    -490.372E-03    -513.737E-03    -490.684E-03         1.89692    -513.336E-03     23.8636E-03     79.7956E-03    -36.6325E-03    -43.1625E-03    -42.9573E-03     79.5904E-03    -36.6325E-03     5.35143E-03    -10.9445E+06    -38.7822E+06    -239.749E+06    -39.0853E+06    -239.446E+06    -10.9445E+06    -7.32027E+06         28.3168
            1104     2.90276E-03     7.07432E-03         1.91497    -491.820E-03    -534.446E-03    -508.537E-03         1.91488    -517.634E-03     25.9306E-03     74.1023E-03    -34.9746E-03    -39.1278E-03    -39.0227E-03     73.9971E-03    -34.9746E-03     2.85827E-03    -21.1896E+06    -41.0383E+06    -245.742E+06    -41.2819E+06    -245.499E+06    -21.1896E+06    -6.31551E+06         28.0159
            1105     1.93822E-03     7.09232E-03         1.92775    -505.680E-03    -544.124E-03    -536.916E-03         1.92762    -512.753E-03     31.4432E-03     69.3301E-03    -33.6365E-03    -35.6936E-03    -35.6457E-03     69.2822E-03    -33.6365E-03     1.28092E-03    -31.6986E+06    -43.3815E+06    -251.849E+06    -43.4737E+06    -251.757E+06    -31.6986E+06    -3.35804E+06         27.8054
            1106     969.616E-06     7.10244E-03         1.89819    -491.585E-03    -524.442E-03    -508.798E-03         1.89460    -503.645E-03     79.8424E-03     66.0317E-03    -32.7112E-03    -33.3199E-03    -33.3048E-03     66.0166E-03    -32.7112E-03     790.732E-06    -41.6736E+06    -46.1706E+06    -258.149E+06    -45.8155E+06    -258.140E+06    -42.0382E+06     112.299E+03         27.6783
            1107     16.0351E-03     5.95478E-03         1.95837    -540.123E-03    -583.169E-03    -580.583E-03         1.95578    -540.123E-03     149.567E-03     181.431E-03    -60.0390E-03    -121.473E-03    -96.7986E-03     156.756E-03    -60.0390E-03     149.964E-03     130.742E+06     121.032E+06    -9.18653E+06    -8.74100E+06     120.587E+06     130.742E+06     6.78963E+06         52.6698
            1108     15.1078E-03     5.75672E-03         1.97349    -536.630E-03    -587.196E-03    -585.886E-03         1.97218    -536.630E-03     110.544E-03     173.557E-03    -58.2148E-03    -115.405E-03    -84.3100E-03     142.461E-03    -58.2148E-03     176.563E-03     109.764E+06     104.618E+06    -17.5345E+06    -17.2808E+06     104.809E+06     109.320E+06     4.58071E+06         49.7046
            1109     14.1901E-03     5.64015E-03         1.97935    -532.531E-03    -590.112E-03    -589.299E-03         1.97854    -532.531E-03     71.1203E-03     144.866E-03    -56.7023E-03    -88.2372E-03    -74.5487E-03     131.177E-03    -56.7023E-03     107.799E-03     86.5585E+06     69.3029E+06    -28.0296E+06    -27.8369E+06     86.3659E+06     69.3029E+06     3.46637E+06         45.9113
            1110     13.2574E-03     5.61053E-03         1.98552    -528.066E-03    -593.199E-03    -592.839E-03         1.98516    -528.066E-03     47.2843E-03     127.198E-03    -55.5142E-03    -71.7346E-03    -64.8328E-03     120.296E-03    -55.5142E-03     71.1648E-03     74.1968E+06     29.9630E+06    -35.8496E+06    -35.4574E+06     73.8046E+06     29.9630E+06     4.49272E+06         42.0469
            1111     12.3174E-03     5.60602E-03         1.97932    -523.422E-03    -584.907E-03    -584.543E-03         1.97895    -523.422E-03     24.7745E-03     117.237E-03    -54.2130E-03    -63.0508E-03    -57.3198E-03     112.164E-03    -54.8718E-03     57.2947E-03     62.3224E+06     18.6504E+06    -38.7472E+06    -38.3607E+06     61.9359E+06     18.6504E+06     5.22901E+06         38.6883
            1112     11.3759E-03     5.63578E-03         1.95649    -519.389E-03    -564.201E-03    -564.041E-03         1.95634    -519.389E-03    -3.14101E-03     113.654E-03    -53.7721E-03    -59.8906E-03    -53.6386E-03     108.276E-03    -54.6466E-03     56.8601E-03     34.7483E+06    -3.75556E+06    -41.1401E+06    -40.1081E+06     11.4618E+06     18.4989E+06     140.346E+03         35.9824
            1113     10.4284E-03     5.65922E-03         1.93608    -516.496E-03    -545.517E-03    -545.311E-03         1.93587    -516.496E-03    -5.13178E-03     112.622E-03    -53.6909E-03    -58.9286E-03    -52.9374E-03     107.485E-03    -54.5459E-03     55.5437E-03     17.5940E+06    -34.7449E+06    -68.8326E+06    -42.2782E+06    -61.2993E+06     17.5940E+06    -7.24225E+06         33.9677
            1114     9.48317E-03     5.70774E-03         1.93158    -514.412E-03    -536.786E-03    -536.662E-03         1.93145    -514.412E-03    -12.7130E-03     112.801E-03    -53.7332E-03    -59.0767E-03    -53.5676E-03     107.931E-03    -54.3725E-03     54.5798E-03     24.4313E+06    -36.3661E+06    -110.805E+06    -39.0784E+06    -108.093E+06     24.4313E+06    -11.6377E+06         32.6748
            1115     8.53815E-03     5.74572E-03         1.92941    -512.560E-03    -533.028E-03    -532.846E-03         1.92923    -512.560E-03    -17.3206E-03     114.042E-03    -53.9414E-03    -60.1085E-03    -55.5503E-03     109.484E-03    -53.9414E-03     53.6406E-03     29.0285E+06    -30.4931E+06    -142.744E+06    -33.4899E+06    -139.747E+06     29.0285E+06    -16.6233E+06         31.9307
            1116     7.59784E-03     5.79423E-03         1.92075    -510.771E-03    -528.982E-03    -528.803E-03         1.92057    -510.771E-03    -32.4553E-03     114.147E-03    -53.1637E-03    -60.9845E-03    -57.0955E-03     110.258E-03    -53.1637E-03     49.8445E-03     28.3988E+06    -28.2323E+06    -176.635E+06    -31.2873E+06    -173.580E+06     28.3988E+06    -20.6252E+06         31.3901
            1117     6.65599E-03     5.83900E-03         1.91545    -508.924E-03    -525.846E-03    -525.780E-03         1.91538    -508.924E-03    -24.4916E-03     113.062E-03    -52.0324E-03    -61.0297E-03    -57.7567E-03     109.789E-03    -52.0324E-03     45.5311E-03     24.4520E+06    -30.2178E+06    -207.407E+06    -32.2296E+06    -205.396E+06     24.4520E+06    -18.0806E+06         30.8790
            1118     5.71534E-03     5.88376E-03         1.90827    -503.830E-03    -523.771E-03    -520.406E-03         1.90805    -506.979E-03     16.9920E-03     110.301E-03    -50.5373E-03    -59.7665E-03    -57.3057E-03     107.840E-03    -50.5373E-03     39.0181E-03     15.0902E+06    -32.5420E+06    -223.420E+06    -33.5666E+06    -222.396E+06     15.0902E+06    -13.2205E+06         30.4074
            1119     4.77141E-03     5.92592E-03         1.89416    -499.151E-03    -514.067E-03    -507.032E-03         1.89392    -505.946E-03     20.7498E-03     105.887E-03    -48.7814E-03    -57.1052E-03    -55.3873E-03     104.169E-03    -48.7814E-03     31.8482E-03     806.856E+03    -34.3148E+06    -232.367E+06    -34.9671E+06    -231.714E+06     806.856E+03    -10.8634E+06         29.9984
            1120     3.82480E-03     5.96136E-03         1.87346    -485.844E-03    -508.815E-03    -485.670E-03         1.87329    -508.815E-03     14.5522E-03     100.426E-03    -46.9583E-03    -53.4658E-03    -52.3734E-03     99.3333E-03    -46.9583E-03     24.5723E-03    -15.6596E+06    -37.6199E+06    -242.512E+06    -38.1323E+06    -242.000E+06    -15.6596E+06    -10.1610E+06         29.6674
            1121     2.87414E-03     5.99195E-03         1.87410    -477.523E-03    -518.855E-03    -476.981E-03         1.87356    -518.855E-03    -2.85490E-03     94.7791E-03    -45.2706E-03    -49.5105E-03    -48.8994E-03     94.1679E-03    -45.2706E-03     17.5129E-03    -30.6636E+06    -42.4973E+06    -252.332E+06    -42.8664E+06    -251.962E+06    -30.6636E+06    -8.63441E+06         29.4181
            1122     1.91832E-03     6.01434E-03         1.92287    -508.421E-03    -535.714E-03    -513.171E-03         1.92234    -530.427E-03    -25.9222E-03     89.9365E-03    -43.8937E-03    -46.0451E-03    -45.7773E-03     89.6687E-03    -43.8937E-03     11.0257E-03    -38.8925E+06    -46.5781E+06    -258.179E+06    -46.7553E+06    -258.002E+06    -38.8925E+06    -5.69740E+06         29.2428
            1123     960.710E-06     6.02899E-03         1.94974    -528.482E-03    -541.904E-03    -541.402E-03         1.94924    -528.482E-03    -41.1547E-03     86.4944E-03    -42.8340E-03    -43.6622E-03    -43.5774E-03     86.4096E-03    -42.8340E-03     5.98477E-03    -45.2029E+06    -49.5494E+06    -262.585E+06    -49.6080E+06    -262.526E+06    -45.2029E+06    -2.22752E+06         29.1345
            1124     15.9908E-03     4.80952E-03         1.96990    -533.969E-03    -597.120E-03    -593.517E-03         1.96629    -533.969E-03     183.451E-03     184.847E-03    -62.8897E-03    -122.056E-03    -92.3384E-03     155.129E-03    -62.8897E-03     164.951E-03     130.427E+06     120.193E+06    -7.71479E+06    -7.22650E+06     119.704E+06     130.427E+06     7.55334E+06         51.9740
            1125     15.0706E-03     4.58206E-03         1.98904    -529.288E-03    -604.139E-03    -602.816E-03         1.98772    -529.288E-03     115.849E-03     180.005E-03    -61.5010E-03    -118.549E-03    -81.0155E-03     142.471E-03    -61.5010E-03     195.294E-03     111.546E+06     105.695E+06    -17.1167E+06    -16.2478E+06     105.163E+06     111.209E+06     9.44692E+06         48.9928
            1126     14.1363E-03     4.51350E-03         1.99087    -523.944E-03    -599.367E-03    -598.799E-03         1.99030    -523.944E-03     69.6084E-03     143.339E-03    -60.6234E-03    -82.7085E-03    -65.1235E-03     125.754E-03    -60.6234E-03     120.310E-03     89.6412E+06     72.8234E+06    -27.8184E+06    -27.0599E+06     87.7276E+06     73.9785E+06     8.39076E+06         45.2356
            1127     13.1912E-03     4.47521E-03         1.98363    -518.784E-03    -587.722E-03    -587.587E-03         1.98350    -518.784E-03     32.9552E-03     122.420E-03    -56.8684E-03    -65.5437E-03    -50.1495E-03     110.662E-03    -60.5045E-03     88.8017E-03     75.7039E+06     31.7280E+06    -34.2919E+06    -34.0703E+06     75.4823E+06     31.7280E+06     3.59870E+06         41.5322
            1128     12.2404E-03     4.50224E-03         1.96900    -513.951E-03    -575.686E-03    -575.611E-03         1.96893    -513.951E-03     7.11222E-03     116.442E-03    -54.5139E-03    -61.9308E-03    -44.1260E-03     105.326E-03    -61.2027E-03     82.8961E-03     61.8727E+06     12.9849E+06    -35.8904E+06    -35.8469E+06     61.8292E+06     12.9849E+06     406.699E+03         38.3871
            1129     11.2796E-03     4.51446E-03         1.94926    -509.581E-03    -559.922E-03    -559.892E-03         1.94922    -509.581E-03    -16.7552E-03     117.603E-03    -55.2636E-03    -62.3379E-03    -44.4970E-03     106.836E-03    -62.3379E-03     82.9579E-03     36.1250E+06    -3.87827E+06    -38.3158E+06    -35.9622E+06     14.0054E+06     15.8877E+06    -3.35049E+06         35.8813
            1130     10.3300E-03     4.55167E-03         1.92639    -506.300E-03    -536.813E-03    -536.706E-03         1.92628    -506.300E-03    -24.4423E-03     119.883E-03    -56.3449E-03    -63.5399E-03    -46.6162E-03     110.155E-03    -63.5399E-03     80.2143E-03     16.3611E+06    -25.3428E+06    -69.0503E+06    -36.8359E+06    -57.5573E+06     16.3611E+06    -14.5344E+06         34.0756
            1131     9.37930E-03     4.58651E-03         1.91845    -503.857E-03    -531.280E-03    -531.183E-03         1.91835    -503.857E-03    -19.5236E-03     124.585E-03    -59.3365E-03    -65.2454E-03    -50.7660E-03     115.362E-03    -64.5925E-03     80.1640E-03     17.6588E+06    -26.8726E+06    -115.280E+06    -35.5227E+06    -106.630E+06     17.6588E+06    -25.7012E+06         33.0338
            1132     8.43802E-03     4.62593E-03         1.91099    -501.363E-03    -528.606E-03    -528.316E-03         1.91070    -501.363E-03    -41.8825E-03     128.878E-03    -62.0149E-03    -66.8614E-03    -55.2197E-03     120.568E-03    -65.3469E-03     78.0026E-03     22.4792E+06    -23.2562E+06    -149.795E+06    -30.9220E+06    -142.129E+06     22.4792E+06    -29.3389E+06         32.6005
            1133     7.49643E-03     4.66989E-03         1.88890    -494.920E-03    -512.060E-03    -506.844E-03         1.88857    -499.809E-03    -31.1399E-03     132.260E-03    -63.9842E-03    -68.2838E-03    -59.3202E-03     125.054E-03    -65.7415E-03     74.1103E-03     24.0420E+06    -25.2444E+06    -188.086E+06    -30.1407E+06    -183.190E+06     24.0420E+06    -27.2375E+06         32.3967
            1134     6.56172E-03     4.71374E-03         1.88387    -494.798E-03    -505.001E-03    -500.044E-03         1.88380    -499.687E-03    -1.08847E-03     134.536E-03    -65.1753E-03    -69.3633E-03    -62.7768E-03     128.457E-03    -65.6831E-03     69.0941E-03     15.7356E+06    -30.4868E+06    -219.384E+06    -33.5322E+06    -216.338E+06     15.7356E+06    -23.5591E+06         32.1947
            1135     5.62748E-03     4.75962E-03         1.88930    -496.457E-03    -507.159E-03    -503.923E-03         1.88921    -499.606E-03     5.98260E-03     135.005E-03    -65.1521E-03    -69.8578E-03    -64.9867E-03     130.134E-03    -65.1521E-03     62.1950E-03     2.30466E+06    -34.2029E+06    -232.351E+06    -36.2606E+06    -230.294E+06     2.30466E+06    -19.8691E+06         31.9652
            1136     4.69588E-03     4.80362E-03         1.88920    -494.403E-03    -513.325E-03    -508.440E-03         1.88855    -498.638E-03    -34.4112E-03     133.860E-03    -64.2436E-03    -69.6208E-03    -65.9816E-03     130.221E-03    -64.2436E-03     53.6201E-03    -9.03123E+06    -37.4407E+06    -239.946E+06    -38.6321E+06    -238.754E+06    -9.03123E+06    -15.0936E+06         31.7258
            1137     3.76212E-03     4.84562E-03         1.88899    -494.405E-03    -515.559E-03    -513.220E-03         1.88832    -496.075E-03    -45.0173E-03     130.800E-03    -63.0604E-03    -67.7389E-03    -65.3002E-03     128.361E-03    -63.0604E-03     43.3601E-03    -22.8912E+06    -41.4646E+06    -249.227E+06    -41.9921E+06    -248.699E+06    -22.8912E+06    -10.2302E+06         31.5130
            1138     2.82492E-03     4.88089E-03         1.87102    -479.749E-03    -508.449E-03    -491.908E-03         1.86999    -495.267E-03    -63.8093E-03     126.846E-03    -61.8166E-03    -65.0281E-03    -63.5966E-03     125.414E-03    -61.8166E-03     32.5894E-03    -37.7690E+06    -46.3185E+06    -258.747E+06    -46.5575E+06    -258.508E+06    -37.7690E+06    -6.88128E+06         31.3402
            1139     1.88648E-03     4.90736E-03         1.86332    -472.870E-03    -508.748E-03    -475.685E-03         1.86112    -503.736E-03    -26.1819E-03     123.190E-03    -60.7452E-03    -62.4440E-03    -61.7652E-03     122.511E-03    -60.7452E-03     21.7087E-03    -47.2775E+06    -50.2957E+06    -265.075E+06    -50.1850E+06    -264.941E+06    -47.5217E+06    -5.19547E+06         31.2036
            1140     943.475E-06     4.92648E-03         1.91258    -488.645E-03    -539.303E-03    -486.713E-03         1.90767    -536.327E-03    -66.6143E-03     120.478E-03    -59.8286E-03    -60.6497E-03    -60.3146E-03     120.253E-03    -59.9383E-03     12.0488E-03    -52.4705E+06    -55.5824E+06    -269.959E+06    -54.2079E+06    -269.892E+06    -53.9116E+06    -3.09388E+06         31.1105
            1141     15.9062E-03     3.60551E-03         1.99220    -526.578E-03    -604.184E-03    -599.540E-03         1.98755    -526.578E-03     196.828E-03     188.513E-03    -67.2417E-03    -121.339E-03    -85.8687E-03     153.043E-03    -67.2417E-03     190.644E-03     129.628E+06     117.355E+06    -8.98905E+06    -8.32543E+06     116.691E+06     129.628E+06     8.38685E+06         51.2249
            1142     14.9830E-03     3.43382E-03         2.01368    -520.742E-03    -614.412E-03    -613.608E-03         2.01288    -520.742E-03     87.6727E-03     181.762E-03    -66.2959E-03    -115.525E-03    -80.4412E-03     146.678E-03    -66.2959E-03     188.316E-03     107.468E+06     100.891E+06    -21.5942E+06    -20.8054E+06     101.182E+06     106.388E+06     8.80897E+06         48.2091
            1143     14.0534E-03     3.36123E-03         2.00519    -514.454E-03    -600.485E-03    -600.180E-03         2.00489    -514.454E-03     37.7757E-03     136.068E-03    -59.9211E-03    -76.1231E-03    -52.8605E-03     119.033E-03    -66.1485E-03     112.435E-03     93.8128E+06     79.4915E+06    -24.7228E+06    -23.9708E+06     91.9058E+06     80.6465E+06     8.29606E+06         44.6008
            1144     13.1002E-03     3.38049E-03         1.97814    -508.988E-03    -577.214E-03    -577.164E-03         1.97809    -508.988E-03     1.42807E-03     120.377E-03    -52.8188E-03    -67.5074E-03    -37.9069E-03     105.214E-03    -67.2563E-03     97.8112E-03     80.8811E+06     38.5023E+06    -28.5151E+06    -28.2625E+06     80.6286E+06     38.5023E+06     4.24077E+06         41.1632
            1145     12.1268E-03     3.38164E-03         1.95083    -504.506E-03    -556.555E-03    -556.390E-03         1.95067    -504.506E-03    -23.5262E-03     120.985E-03    -51.9140E-03    -69.0751E-03    -37.8774E-03     106.948E-03    -69.0751E-03     94.1935E-03     63.7075E+06    -2.05119E+06    -33.4610E+06    -32.7257E+06     63.4433E+06    -2.52227E+06    -1.91127E+06         38.2669
            1146     11.1766E-03     3.40184E-03         1.92954    -500.875E-03    -541.119E-03    -540.881E-03         1.92930    -500.875E-03    -39.2807E-03     123.842E-03    -52.5769E-03    -71.2611E-03    -40.6228E-03     111.888E-03    -71.2611E-03     88.4291E-03     29.5929E+06    -19.9494E+06    -39.4748E+06    -32.9605E+06     14.5649E+06    -11.4356E+06    -10.2832E+06         35.9612
            1147     10.2164E-03     3.42949E-03         1.91413    -497.927E-03    -527.925E-03    -527.795E-03         1.91400    -497.927E-03    -5.61000E-03     129.250E-03    -55.6605E-03    -73.6029E-03    -45.0122E-03     118.601E-03    -73.6029E-03     85.9432E-03     3.33239E+06    -21.4916E+06    -65.8048E+06    -29.2187E+06    -50.0745E+06    -4.67076E+06    -20.9251E+06         34.3086
            1148     9.26950E-03     3.45613E-03         1.89865    -495.513E-03    -518.627E-03    -518.530E-03         1.89856    -495.513E-03     21.4548E-03     136.094E-03    -60.2737E-03    -75.8428E-03    -50.6122E-03     126.433E-03    -75.8428E-03     84.6017E-03    -1.06512E+06    -21.2181E+06    -116.068E+06    -29.9410E+06    -104.434E+06    -3.97649E+06    -31.2701E+06         33.3799
            1149     8.32318E-03     3.49066E-03         1.88706    -493.368E-03    -513.342E-03    -513.147E-03         1.88686    -493.368E-03    -14.6581E-03     142.746E-03    -64.8756E-03    -77.9003E-03    -56.2578E-03     134.129E-03    -77.9003E-03     82.5097E-03    -4.62025E+06    -25.2005E+06    -162.540E+06    -33.9964E+06    -152.531E+06    -5.83303E+06    -35.3483E+06         33.1186
            1150     7.38730E-03     3.52495E-03         1.87775    -486.766E-03    -508.801E-03    -503.669E-03         1.87751    -491.656E-03    -25.7793E-03     149.527E-03    -69.8392E-03    -79.7296E-03    -62.2304E-03     141.918E-03    -79.7296E-03     79.9451E-03    -2.19595E+06    -29.4719E+06    -204.057E+06    -34.7523E+06    -197.564E+06    -3.40873E+06    -32.3989E+06         33.2316
            1151     6.45424E-03     3.56539E-03         1.86407    -485.936E-03    -500.273E-03    -495.232E-03         1.86391    -490.825E-03    -12.9050E-03     155.454E-03    -74.2088E-03    -81.2603E-03    -67.7687E-03     148.958E-03    -81.2046E-03     75.8833E-03    -2.71293E+06    -30.5494E+06    -232.091E+06    -34.3797E+06    -228.261E+06    -2.71293E+06    -27.2485E+06         33.4285
            1152     5.52710E-03     3.60625E-03         1.86501    -490.205E-03    -498.010E-03    -497.864E-03         1.86486    -490.205E-03     2.70536E-03     160.263E-03    -77.3898E-03    -82.8764E-03    -72.6565E-03     154.877E-03    -82.2237E-03     70.4935E-03    -15.7997E+06    -34.8521E+06    -243.012E+06    -37.1554E+06    -240.709E+06    -15.7997E+06    -21.4460E+06         33.5982
            1153     4.60245E-03     3.64831E-03         1.88160    -487.638E-03    -511.035E-03    -510.413E-03         1.88097    -487.638E-03    -16.9758E-03     163.774E-03    -79.4826E-03    -84.2942E-03    -76.7502E-03     159.614E-03    -82.8668E-03     62.8372E-03    -27.5121E+06    -41.4820E+06    -252.047E+06    -42.6406E+06    -250.888E+06    -27.5121E+06    -15.0866E+06         33.7214
            1154     3.68199E-03     3.68997E-03         1.88240    -481.665E-03    -514.635E-03    -513.727E-03         1.88149    -481.665E-03    -12.0345E-03     165.862E-03    -81.1694E-03    -84.6887E-03    -79.8102E-03     162.934E-03    -83.1202E-03     53.1845E-03    -35.6412E+06    -47.5381E+06    -259.028E+06    -47.9731E+06    -258.593E+06    -35.6412E+06    -9.16590E+06         33.8003
            1155     2.76329E-03     3.72740E-03         1.85946    -473.622E-03    -500.894E-03    -499.421E-03         1.85799    -473.622E-03    -52.4766E-03     166.331E-03    -82.1512E-03    -84.1774E-03    -81.4817E-03     164.530E-03    -83.0461E-03     41.6860E-03    -44.0507E+06    -51.7186E+06    -264.893E+06    -51.8486E+06    -264.763E+06    -44.0507E+06    -4.86281E+06         33.8349
            1156     1.84166E-03     3.75740E-03         1.82885    -452.386E-03    -492.713E-03    -473.507E-03         1.82557    -468.320E-03     27.2193E-03     165.893E-03    -82.4382E-03    -83.4487E-03    -82.1618E-03     165.008E-03    -82.8403E-03     28.8001E-03    -52.4886E+06    -56.1003E+06    -270.701E+06    -55.9026E+06    -270.654E+06    -52.7328E+06    -1.95293E+06         33.8292
            1157     921.934E-06     3.77646E-03         1.82418    -434.849E-03    -508.838E-03    -452.668E-03         1.81569    -482.532E-03    -70.8789E-03     165.370E-03    -82.4320E-03    -82.9316E-03    -82.3893E-03     165.075E-03    -82.6789E-03     15.8062E-03    -58.3988E+06    -60.7919E+06    -274.945E+06    -59.3632E+06    -274.924E+06    -59.8480E+06    -401.498E+03         33.8048
            1158     15.8156E-03     2.41469E-03         2.05303    -516.981E-03    -624.359E-03    -618.445E-03         2.04712    -516.981E-03     198.654E-03     194.759E-03    -71.8001E-03    -123.021E-03    -88.6741E-03     160.412E-03    -71.8001E-03     192.331E-03     130.744E+06     117.908E+06    -10.8820E+06    -9.43762E+06     116.464E+06     130.744E+06     9.00029E+06         50.6350
            1159     14.9181E-03     2.24005E-03         2.04479    -510.007E-03    -609.636E-03    -609.376E-03         2.04453    -510.007E-03     29.0421E-03     162.117E-03    -62.1161E-03    -100.062E-03    -71.5043E-03     142.746E-03    -71.3031E-03     130.394E-03     107.748E+06     101.298E+06    -15.2669E+06    -14.1439E+06     101.255E+06     106.667E+06     9.63394E+06         47.6192
            1160     13.9712E-03     2.26864E-03         2.00154    -503.975E-03    -580.125E-03    -579.970E-03         2.00138    -503.975E-03    -14.9547E-03     124.563E-03    -50.9616E-03    -73.5522E-03    -39.9329E-03     112.137E-03    -72.1553E-03     89.7149E-03     93.4939E+06     75.5978E+06    -19.0899E+06    -18.7873E+06     92.3388E+06     76.4502E+06     5.54667E+06         44.2698
            1161     12.9873E-03     2.25851E-03         1.96531    -499.235E-03    -556.611E-03    -556.469E-03         1.96517    -499.235E-03    -33.6382E-03     123.588E-03    -49.3284E-03    -74.2198E-03    -36.8004E-03     111.060E-03    -74.2198E-03     88.1830E-03     86.0372E+06     35.8514E+06    -22.9518E+06    -22.7048E+06     85.7902E+06     35.8514E+06     3.02745E+06         41.1557
            1162     12.0413E-03     2.26330E-03         1.93037    -495.754E-03    -531.156E-03    -530.878E-03         1.93009    -495.754E-03    -46.0090E-03     125.136E-03    -48.5419E-03    -76.6327E-03    -38.7954E-03     115.390E-03    -76.6327E-03     78.3763E-03     68.6496E+06    -5.34753E+06    -32.7966E+06    -23.5254E+06     68.3410E+06    -14.3100E+06    -2.79281E+06         38.4916
            1163     11.0712E-03     2.27983E-03         1.90602    -493.579E-03    -513.742E-03    -513.435E-03         1.90572    -493.579E-03    -37.1781E-03     128.976E-03    -49.5832E-03    -79.4091E-03    -41.5081E-03     120.901E-03    -79.4091E-03     72.7811E-03     27.5498E+06    -26.5399E+06    -52.8812E+06    -24.3819E+06     20.3953E+06    -47.8847E+06    -12.0342E+06         36.3531
            1164     10.1217E-03     2.29350E-03         1.89685    -491.909E-03    -511.340E-03    -511.145E-03         1.89665    -491.909E-03    -5.12913E-03     136.213E-03    -53.7099E-03    -82.5425E-03    -46.5899E-03     129.093E-03    -82.5425E-03     70.4642E-03    -7.96050E+06    -38.4023E+06    -77.0167E+06    -26.0723E+06    -46.5226E+06    -50.7846E+06    -22.6915E+06         34.7970
            1165     9.16953E-03     2.31612E-03         1.88394    -490.357E-03    -504.686E-03    -504.464E-03         1.88372    -490.357E-03    -2.83492E-03     144.032E-03    -58.2980E-03    -85.7958E-03    -52.0868E-03     137.820E-03    -85.7958E-03     68.3995E-03    -16.1205E+06    -45.9550E+06    -115.910E+06    -27.0129E+06    -106.032E+06    -44.9409E+06    -28.7837E+06         33.8740
            1166     8.22720E-03     2.33718E-03         1.88286    -488.590E-03    -508.258E-03    -508.123E-03         1.88272    -488.590E-03    -11.3753E-03     152.724E-03    -63.7014E-03    -89.0611E-03    -58.1453E-03     147.168E-03    -89.0611E-03     67.0165E-03    -21.8414E+06    -44.0187E+06    -169.219E+06    -30.3923E+06    -161.682E+06    -43.0047E+06    -31.5237E+06         33.5933
            1167     7.28750E-03     2.36418E-03         1.89084    -485.331E-03    -520.514E-03    -520.424E-03         1.89075    -485.331E-03    -26.1354E-03     161.987E-03    -69.7092E-03    -92.2954E-03    -64.7584E-03     157.036E-03    -92.2954E-03     65.5303E-03    -25.8878E+06    -48.9726E+06    -217.114E+06    -36.2108E+06    -211.342E+06    -44.4215E+06    -31.5644E+06         33.8367
            1168     6.35671E-03     2.39260E-03         1.87026    -481.705E-03    -503.099E-03    -502.964E-03         1.87013    -481.705E-03    -32.8054E-03     171.717E-03    -76.3009E-03    -95.4153E-03    -71.9551E-03     167.371E-03    -95.4153E-03     63.5707E-03    -28.0925E+06    -49.3461E+06    -246.574E+06    -40.3889E+06    -242.942E+06    -40.6813E+06    -26.8171E+06         34.3632
            1169     5.43247E-03     2.42498E-03         1.84150    -473.668E-03    -484.065E-03    -476.731E-03         1.84123    -480.724E-03     16.3939E-03     181.195E-03    -82.8997E-03    -98.2965E-03    -79.2598E-03     177.555E-03    -98.2965E-03     60.1489E-03    -36.1434E+06    -44.8064E+06    -258.003E+06    -43.9479E+06    -256.337E+06    -38.6681E+06    -18.0505E+06         34.9686
            1170     4.51564E-03     2.45858E-03         1.84160    -469.755E-03    -490.295E-03    -478.103E-03         1.84124    -481.585E-03     17.8568E-03     189.953E-03    -89.0972E-03    -100.857E-03    -86.2317E-03     187.087E-03    -100.857E-03     54.9619E-03    -43.7022E+06    -47.7415E+06    -263.220E+06    -47.7451E+06    -262.623E+06    -44.2957E+06    -10.4921E+06         35.5619
            1171     3.60377E-03     2.49181E-03         1.84852    -474.907E-03    -494.515E-03    -487.879E-03         1.84801    -481.029E-03     23.0516E-03     198.085E-03    -95.0246E-03    -103.057E-03    -92.9342E-03     195.995E-03    -103.057E-03     48.0533E-03    -48.8576E+06    -52.5591E+06    -268.059E+06    -52.1572E+06    -267.850E+06    -49.4690E+06    -5.89964E+06         36.0977
            1172     2.69737E-03     2.52403E-03         1.85723    -475.026E-03    -499.918E-03    -497.492E-03         1.85615    -476.373E-03    -18.4345E-03     205.032E-03    -100.257E-03    -104.774E-03    -98.9176E-03     203.692E-03    -104.774E-03     39.0323E-03    -51.7878E+06    -56.7795E+06    -270.568E+06    -56.8127E+06    -270.517E+06    -51.8057E+06    -2.25815E+06         36.5250
            1173     1.79767E-03     2.55130E-03         1.85498    -461.349E-03    -509.278E-03    -506.092E-03         1.85179    -461.349E-03     52.4041E-03     209.883E-03    -103.940E-03    -105.934E-03    -103.266E-03     209.208E-03    -105.934E-03     27.7415E-03    -53.5549E+06    -60.4264E+06    -273.108E+06    -60.4386E+06    -273.096E+06    -53.5549E+06     85.1579E+03         36.8076
            1174     897.210E-06     2.56840E-03         1.79180    -434.774E-03    -481.603E-03    -465.183E-03         1.77538    -434.774E-03    -126.080E-03     212.620E-03    -105.985E-03    -106.624E-03    -105.855E-03     212.394E-03    -106.528E-03     15.4843E-03    -58.6202E+06    -62.3090E+06    -276.044E+06    -62.2014E+06    -276.030E+06    -58.7426E+06     1.05617E+06         36.9594
            1175     15.7820E-03     1.12754E-03         2.13947    -506.476E-03    -634.189E-03    -630.144E-03         2.13542    -506.476E-03     133.108E-03     204.586E-03    -70.9045E-03    -133.841E-03    -103.316E-03     179.124E-03    -75.9665E-03     169.592E-03     135.082E+06     121.120E+06    -6.08013E+06    -3.65326E+06     118.693E+06     135.082E+06     4.80812E+06         50.6178
            1176     14.8624E-03     1.14905E-03         2.04457    -499.953E-03    -576.955E-03    -576.888E-03         2.04451    -499.953E-03    -14.5698E-03     141.270E-03    -56.8061E-03    -84.5191E-03    -57.6757E-03     133.321E-03    -75.7013E-03     78.0323E-03     111.535E+06     103.169E+06    -6.59068E+06    -4.59411E+06     102.709E+06     109.998E+06     5.99432E+06         47.7223
            1177     13.8671E-03     1.13969E-03         1.98009    -495.605E-03    -548.882E-03    -548.759E-03         1.97997    -495.605E-03    -10.2420E-03     126.536E-03    -49.3363E-03    -77.1733E-03    -42.5194E-03     119.719E-03    -77.1733E-03     62.5854E-03     98.3107E+06     73.5070E+06    -10.7947E+06    -10.2415E+06     96.9051E+06     74.3595E+06     5.76277E+06         44.5858
            1178     12.9346E-03     1.13057E-03         1.94162    -492.500E-03    -526.878E-03    -526.698E-03         1.94144    -492.500E-03    -8.53778E-03     126.745E-03    -47.3486E-03    -79.3751E-03    -42.1645E-03     121.561E-03    -79.3751E-03     52.8227E-03     92.0400E+06     30.0152E+06    -13.6948E+06    -13.6045E+06     91.9498E+06     30.0152E+06    -235.314E+03         41.7129
            1179     11.9596E-03     1.13687E-03         1.91989    -490.287E-03    -514.189E-03    -513.991E-03         1.91969    -490.287E-03    -28.9709E-03     127.152E-03    -45.2252E-03    -81.9765E-03    -41.6420E-03     123.568E-03    -81.9765E-03     44.3487E-03     69.7626E+06    -5.02168E+06    -32.4145E+06    -14.0057E+06     69.6752E+06    -23.3431E+06    -2.49022E+06         39.2174
            1180     11.0124E-03     1.14100E-03         1.90882    -488.279E-03    -513.332E-03    -513.146E-03         1.90863    -488.279E-03    -27.4137E-03     132.389E-03    -47.4264E-03    -85.0303E-03    -44.4545E-03     129.417E-03    -85.0303E-03     41.0178E-03     30.4020E+06    -18.2708E+06    -72.4891E+06    -15.0064E+06     27.1376E+06    -72.4891E+06    -5.91144E+06         37.1883
            1181     10.0530E-03     1.15051E-03         1.89503    -486.064E-03    -510.961E-03    -510.788E-03         1.89486    -486.064E-03    -25.8878E-03     139.514E-03    -51.0236E-03    -88.5499E-03    -48.5609E-03     137.051E-03    -88.5499E-03     38.8684E-03    -5.46586E+06    -50.4091E+06    -100.491E+06    -19.0325E+06    -42.3570E+06    -94.9760E+06    -14.4921E+06         35.6869
            1182     9.10515E-03     1.15942E-03         1.87873    -483.961E-03    -503.306E-03    -503.097E-03         1.87852    -483.961E-03    -43.9290E-03     148.305E-03    -55.9043E-03    -92.4408E-03    -53.6979E-03     146.099E-03    -92.4408E-03     37.7166E-03    -18.3868E+06    -88.2609E+06    -124.183E+06    -23.5585E+06    -110.342E+06    -96.9309E+06    -19.4652E+06         34.7481
            1183     8.15935E-03     1.17191E-03         1.86699    -480.329E-03    -498.893E-03    -496.905E-03         1.86688    -482.201E-03    -28.5060E-03     158.270E-03    -61.6746E-03    -96.5932E-03    -59.7124E-03     156.308E-03    -96.5932E-03     37.0159E-03    -25.3767E+06    -87.4415E+06    -171.828E+06    -28.5682E+06    -168.636E+06    -87.4415E+06    -19.5987E+06         34.3821
            1184     7.22193E-03     1.18529E-03         1.86255    -475.730E-03    -501.506E-03    -496.822E-03         1.86249    -480.364E-03    -20.0906E-03     169.344E-03    -68.3821E-03    -100.933E-03    -66.6447E-03     167.607E-03    -100.933E-03     36.3395E-03    -33.5336E+06    -76.2003E+06    -222.701E+06    -35.9442E+06    -220.291E+06    -76.2003E+06    -19.1078E+06         34.5690
            1185     6.28989E-03     1.20022E-03         1.86079    -475.234E-03    -498.951E-03    -496.149E-03         1.86075    -477.996E-03    -13.7875E-03     181.533E-03    -76.1632E-03    -105.339E-03    -74.6327E-03     180.002E-03    -105.339E-03     35.5682E-03    -42.8370E+06    -70.3052E+06    -258.152E+06    -44.5474E+06    -256.442E+06    -70.3052E+06    -16.6647E+06         35.1967
            1186     5.36668E-03     1.21733E-03         1.84446    -469.053E-03    -489.882E-03    -482.647E-03         1.84428    -476.109E-03     26.4729E-03     194.529E-03    -84.7564E-03    -109.737E-03    -83.4443E-03     193.217E-03    -109.737E-03     34.1970E-03    -49.6174E+06    -61.1619E+06    -272.055E+06    -50.8660E+06    -271.311E+06    -60.6576E+06    -11.1788E+06         36.0681
            1187     4.45181E-03     1.23722E-03         1.82392    -464.417E-03    -482.215E-03    -470.020E-03         1.82356    -476.248E-03    -1.34278E-03     207.920E-03    -93.9348E-03    -113.947E-03    -92.8661E-03     206.851E-03    -113.947E-03     31.9877E-03    -53.3008E+06    -57.3727E+06    -272.197E+06    -54.3428E+06    -272.030E+06    -56.4975E+06    -5.17662E+06         37.0261
            1188     3.54652E-03     1.25683E-03         1.82086    -468.336E-03    -478.985E-03    -468.889E-03         1.82062    -478.194E-03    -26.9335E-03     221.077E-03    -103.221E-03    -117.829E-03    -102.430E-03     220.286E-03    -117.829E-03     28.5049E-03    -55.8190E+06    -57.3139E+06    -273.463E+06    -56.7457E+06    -273.420E+06    -56.4303E+06    -1.43257E+06         37.9693
            1189     2.65033E-03     1.27512E-03         1.83750    -470.883E-03    -488.852E-03    -479.855E-03         1.83702    -479.395E-03    -42.5049E-03     233.222E-03    -112.016E-03    -121.193E-03    -111.507E-03     232.713E-03    -121.193E-03     23.5151E-03    -56.4662E+06    -58.8734E+06    -273.788E+06    -58.4531E+06    -273.765E+06    -56.9100E+06    -122.331E+03         38.7873
            1190     1.76078E-03     1.29062E-03         1.84424    -456.300E-03    -506.094E-03    -482.196E-03         1.84227    -478.225E-03     23.6814E-03     243.189E-03    -119.363E-03    -123.816E-03    -119.097E-03     242.923E-03    -123.816E-03     17.1124E-03    -56.0066E+06    -60.6976E+06    -274.272E+06    -60.0901E+06    -274.262E+06    -56.6243E+06    -847.276E+03         39.3799
            1191     880.144E-06     1.30371E-03         1.86160    -457.970E-03    -510.551E-03    -463.646E-03         1.84675    -490.029E-03    -161.084E-03     249.788E-03    -124.118E-03    -125.662E-03    -124.372E-03     249.692E-03    -125.312E-03     10.2097E-03    -57.8333E+06    -61.1572E+06    -275.802E+06    -60.8743E+06    -275.779E+06    -58.1395E+06    -683.512E+03         39.7236
            1192     942.192E-06     62.8615E-03         3.08257     32.8500E-03        -2.36738        -1.08580         1.80099     32.8500E-03         1.90776     118.160E-03    -58.7870E-03    -59.3752E-03    -59.1545E-03     118.159E-03    -59.0068E-03     430.582E-06    -71.8782E+06    -73.9906E+06    -281.457E+06    -73.6026E+06    -281.451E+06    -72.2723E+06     10.5330E+03         29.3598
            1193     1.88573E-03     62.8620E-03         2.23734    -529.384E-03    -951.036E-03    -541.448E-03         1.82775    -529.384E-03    -575.793E-03     117.801E-03    -58.7220E-03    -59.0845E-03    -58.7551E-03     117.800E-03    -59.0508E-03     273.091E-06    -65.5101E+06    -70.9075E+06    -277.471E+06    -70.8626E+06    -277.469E+06    -65.5574E+06    -163.811E+03         29.4377
            1194     2.82953E-03     62.8630E-03         1.96430    -531.534E-03    -679.223E-03    -526.442E-03         1.81152    -531.534E-03     315.602E-03     117.662E-03    -58.6779E-03    -58.9934E-03    -58.6760E-03     117.660E-03    -58.9934E-03     940.383E-06    -54.9609E+06    -67.6699E+06    -271.821E+06    -67.6716E+06    -271.820E+06    -54.9609E+06     84.2748E+03         29.5783
            1195     3.77170E-03     62.8636E-03         1.87057    -531.024E-03    -588.947E-03    -533.943E-03         1.81557    -531.024E-03    -180.612E-03     117.742E-03    -58.7647E-03    -58.9898E-03    -58.7603E-03     117.737E-03    -58.9898E-03     1.66208E-03    -42.9180E+06    -63.4613E+06    -262.805E+06    -63.4641E+06    -262.802E+06    -42.9180E+06     512.851E+03         29.7941
            1196     4.71616E-03     62.8654E-03         1.83692    -529.287E-03    -557.724E-03    -533.942E-03         1.81542    -531.578E-03     79.7051E-03     117.717E-03    -58.7235E-03    -59.0072E-03    -58.7109E-03     117.704E-03    -59.0072E-03     2.84545E-03    -32.1902E+06    -58.0861E+06    -250.775E+06    -58.0943E+06    -250.767E+06    -32.1902E+06     903.136E+03         30.0904
            1197     5.65840E-03     62.8689E-03         1.81814    -524.479E-03    -543.152E-03    -527.432E-03         1.80935    -531.410E-03    -95.3339E-03     117.633E-03    -58.6342E-03    -59.0131E-03    -58.6014E-03     117.601E-03    -59.0131E-03     4.67002E-03    -23.1095E+06    -52.2493E+06    -237.680E+06    -52.2577E+06    -237.671E+06    -23.1095E+06     904.730E+03         30.4732
            1198     6.60147E-03     62.8733E-03         1.80977    -521.497E-03    -538.393E-03    -527.257E-03         1.80787    -530.730E-03     59.9787E-03     117.336E-03    -58.3771E-03    -58.9715E-03    -58.3144E-03     117.273E-03    -58.9715E-03     6.56319E-03    -17.0627E+06    -47.0542E+06    -213.120E+06    -47.0648E+06    -213.110E+06    -17.0627E+06    -464.461E+03         30.9506
            1199     7.54561E-03     62.8820E-03         1.80379    -518.468E-03    -534.919E-03    -523.071E-03         1.80339    -529.912E-03     1.13970E-03     116.963E-03    -58.0837E-03    -58.8857E-03    -57.9765E-03     116.856E-03    -58.8857E-03     8.57007E-03    -11.8178E+06    -42.8886E+06    -177.151E+06    -42.9005E+06    -177.139E+06    -11.8178E+06    -1.10557E+06         31.5450
            1200     8.49021E-03     62.8908E-03         1.80234    -519.737E-03    -530.982E-03    -521.293E-03         1.80176    -528.847E-03    -14.7204E-03     117.040E-03    -58.1891E-03    -58.8512E-03    -58.0559E-03     116.850E-03    -58.7941E-03     11.4104E-03    -8.67691E+06    -38.6508E+06    -142.775E+06    -38.6632E+06    -142.762E+06    -8.67691E+06     11.8774E+03         32.3645
            1201     9.43205E-03     62.9050E-03         1.80291    -520.747E-03    -531.802E-03    -524.041E-03         1.80231    -527.903E-03    -22.4086E-03     117.056E-03    -58.2897E-03    -58.7701E-03    -57.9294E-03     116.627E-03    -58.7013E-03     16.8960E-03    -8.59411E+06    -35.0874E+06    -106.089E+06    -35.1036E+06    -106.073E+06    -8.59411E+06     304.967E+03         33.6637
            1202     10.3773E-03     62.9281E-03         1.80614    -522.476E-03    -534.503E-03    -529.327E-03         1.80587    -527.375E-03     1.95702E-03     116.867E-03    -58.2620E-03    -58.6153E-03    -57.6291E-03     116.213E-03    -58.5943E-03     21.3342E-03    -8.94172E+06    -32.4023E+06    -60.0410E+06    -33.1866E+06    -59.2566E+06    -8.94172E+06     361.640E+03         35.6799
            1203     11.3201E-03     62.9499E-03         1.81432    -527.330E-03    -536.015E-03    -535.931E-03         1.81423    -527.330E-03    -17.4897E-03     116.838E-03    -58.2308E-03    -58.6265E-03    -57.4130E-03     115.866E-03    -58.4719E-03     25.7148E-03     15.2205E+06    -20.5592E+06    -31.8712E+06    -31.3820E+06     4.03446E+06    -9.86234E+06     865.782E+03         38.4618
            1204     12.2658E-03     62.9810E-03         1.80429    -518.902E-03    -532.350E-03    -524.351E-03         1.80428    -526.895E-03     1.77158E-03     118.094E-03    -58.2979E-03    -59.8354E-03    -57.3185E-03     115.704E-03    -58.4247E-03     39.6877E-03     67.4374E+06     522.901E+03    -28.5024E+06    -28.4685E+06     67.4035E+06     522.901E+03     1.65995E+06         41.9667
            1205     13.2072E-03     63.0367E-03         1.78759    -510.372E-03    -525.205E-03    -510.281E-03         1.78750    -525.205E-03    -1.00527E-03     120.245E-03    -58.4840E-03    -61.7920E-03    -56.5801E-03     115.033E-03    -58.4840E-03     59.8677E-03     99.4096E+06     27.4691E+06    -25.2096E+06    -25.1635E+06     99.3634E+06     27.4691E+06     1.24021E+06         46.1638
            1206     14.1551E-03     63.1130E-03         1.78947    -515.916E-03    -524.123E-03    -517.142E-03         1.78933    -522.756E-03     13.6516E-03     132.208E-03    -58.6357E-03    -73.5683E-03    -57.6873E-03     116.327E-03    -58.6357E-03     105.924E-03     106.892E+06     65.4180E+06    -22.1295E+06    -22.0882E+06     106.851E+06     65.4180E+06     511.305E+03         50.9012
            1207     15.0968E-03     63.2709E-03         1.78711    -519.796E-03    -524.566E-03    -524.399E-03         1.78695    -519.796E-03    -7.22951E-03     154.496E-03    -58.8104E-03    -95.6577E-03    -59.9596E-03     118.798E-03    -58.8104E-03     173.559E-03     115.035E+06     102.928E+06    -17.6882E+06    -17.6556E+06     114.261E+06     103.670E+06    -515.041E+03         55.5600
            1208     16.0378E-03     63.5015E-03         1.77508    -515.699E-03    -521.857E-03    -520.854E-03         1.77492    -516.545E-03    -8.65984E-03     149.985E-03    -58.8702E-03    -91.0798E-03    -58.1589E-03     117.064E-03    -58.8702E-03     163.151E-03     131.607E+06     129.959E+06    -9.24484E+06    -9.21887E+06     130.509E+06     131.031E+06    -1.53154E+06         59.2823
            1209     942.719E-06     63.9858E-03         3.00015    -125.132E-03        -2.13835    -854.192E-03         1.71599    -125.132E-03         1.86368     118.148E-03    -58.7305E-03    -59.4199E-03    -59.2888E-03     118.147E-03    -58.8602E-03     951.107E-06    -71.6824E+06    -74.0275E+06    -280.512E+06    -73.6856E+06    -280.507E+06    -72.0292E+06     336.339E+03         29.3603
            1210     1.88544E-03     63.9859E-03         2.13160    -492.175E-03    -895.852E-03    -502.796E-03         1.73855    -492.175E-03    -552.957E-03     117.831E-03    -58.7463E-03    -59.0876E-03    -58.7787E-03     117.830E-03    -59.0543E-03     708.062E-06    -65.9019E+06    -72.1179E+06    -277.731E+06    -72.1213E+06    -277.728E+06    -65.9019E+06     61.6999E+03         29.4356
            1211     2.82878E-03     63.9858E-03         1.89630    -498.259E-03    -655.895E-03    -518.936E-03         1.75935    -498.259E-03     315.135E-03     117.608E-03    -58.6239E-03    -58.9894E-03    -58.6229E-03     117.606E-03    -58.9885E-03     969.924E-06    -56.0779E+06    -68.2935E+06    -271.602E+06    -68.2968E+06    -271.599E+06    -56.0779E+06     154.035E+03         29.5710
            1212     3.77317E-03     63.9878E-03         1.80103    -503.015E-03    -560.983E-03    -513.752E-03         1.75380    -503.015E-03    -157.809E-03     117.537E-03    -58.5909E-03    -58.9576E-03    -58.5870E-03     117.533E-03    -58.9576E-03     1.58492E-03    -43.8965E+06    -62.8743E+06    -263.508E+06    -62.8793E+06    -263.503E+06    -43.8965E+06    -60.6946E+03         29.7826
            1213     4.71476E-03     63.9890E-03         1.77770    -505.469E-03    -536.804E-03    -517.041E-03         1.75794    -505.469E-03     64.6891E-03     117.520E-03    -58.5807E-03    -58.9528E-03    -58.5684E-03     117.507E-03    -58.9528E-03     2.77513E-03    -31.6356E+06    -56.4798E+06    -250.814E+06    -56.4824E+06    -250.812E+06    -31.6356E+06    -107.999E+03         30.0797
            1214     5.65948E-03     63.9921E-03         1.76914    -507.590E-03    -528.937E-03    -520.047E-03         1.76025    -507.590E-03    -83.8612E-03     117.514E-03    -58.5684E-03    -58.9577E-03    -58.5358E-03     117.481E-03    -58.9577E-03     4.66363E-03    -21.0755E+06    -51.0153E+06    -237.202E+06    -51.0165E+06    -237.201E+06    -21.0755E+06    -36.2352E+03         30.4666
            1215     6.60250E-03     63.9981E-03         1.75405    -501.458E-03    -516.764E-03    -507.711E-03         1.75200    -508.458E-03     75.2352E-03     117.375E-03    -58.4568E-03    -58.9261E-03    -58.3953E-03     117.313E-03    -58.9261E-03     6.49409E-03    -15.0630E+06    -46.7463E+06    -211.626E+06    -46.7564E+06    -211.616E+06    -15.0630E+06    -257.380E+03         30.9501
            1216     7.54585E-03     64.0039E-03         1.73818    -491.664E-03    -507.256E-03    -491.432E-03         1.73795    -507.256E-03     4.64495E-03     117.188E-03    -58.3330E-03    -58.8599E-03    -58.2291E-03     117.084E-03    -58.8599E-03     8.45820E-03    -11.3896E+06    -43.1843E+06    -176.448E+06    -43.2036E+06    -176.429E+06    -11.3896E+06    -810.317E+03         31.5505
            1217     8.48906E-03     64.0151E-03         1.74239    -496.278E-03    -505.914E-03    -496.040E-03         1.74177    -505.529E-03    -23.8038E-03     117.090E-03    -58.2427E-03    -58.8485E-03    -58.1039E-03     116.894E-03    -58.7914E-03     11.5409E-03    -8.00044E+06    -39.3336E+06    -143.613E+06    -39.3458E+06    -143.601E+06    -8.00044E+06    -586.242E+03         32.3719
            1218     9.43320E-03     64.0294E-03         1.75572    -504.397E-03    -513.090E-03    -511.916E-03         1.75521    -505.056E-03    -42.0728E-03     117.032E-03    -58.1893E-03    -58.8480E-03    -57.9104E-03     116.605E-03    -58.7007E-03     16.9305E-03    -7.99534E+06    -36.4348E+06    -106.009E+06    -36.4424E+06    -106.002E+06    -7.99534E+06     380.025E+03         33.6703
            1219     10.3767E-03     64.0492E-03         1.75503    -505.431E-03    -514.675E-03    -514.593E-03         1.75494    -505.431E-03    -10.5412E-03     116.711E-03    -58.0465E-03    -58.6755E-03    -57.5039E-03     116.078E-03    -58.5852E-03     20.9607E-03    -9.00341E+06    -33.6823E+06    -59.8266E+06    -33.8513E+06    -59.6575E+06    -9.00341E+06     463.862E+03         35.6862
            1220     11.3222E-03     64.0752E-03         1.74288    -500.491E-03    -508.617E-03    -503.730E-03         1.74280    -505.298E-03    -18.0773E-03     116.862E-03    -58.1406E-03    -58.7424E-03    -57.4779E-03     115.918E-03    -58.4613E-03     25.3528E-03     15.5936E+06    -21.2406E+06    -32.5575E+06    -32.0114E+06     3.72171E+06    -9.91489E+06        615.E+03         38.4685
            1221     12.2635E-03     64.1042E-03         1.73834    -498.045E-03    -507.407E-03    -501.046E-03         1.73833    -504.389E-03    -1.93734E-03     117.995E-03    -58.4171E-03    -59.6182E-03    -57.1853E-03     115.562E-03    -58.4171E-03     39.8603E-03     67.3913E+06     645.149E+03    -30.1586E+06    -30.1400E+06     67.3727E+06     645.149E+03     762.915E+03         41.9747
            1222     13.2097E-03     64.1618E-03         1.74348    -500.065E-03    -509.169E-03    -505.928E-03         1.74343    -503.264E-03     12.1685E-03     120.379E-03    -58.4789E-03    -61.9342E-03    -56.7345E-03     115.180E-03    -58.4789E-03     60.0437E-03     98.3994E+06     27.3928E+06    -26.3302E+06    -26.3047E+06     98.3738E+06     27.3928E+06     1.28086E+06         46.1732
            1223     14.1533E-03     64.2320E-03         1.74111    -500.099E-03    -508.433E-03    -506.705E-03         1.74104    -501.760E-03     22.1355E-03     132.571E-03    -58.6343E-03    -73.9344E-03    -57.8893E-03     116.525E-03    -58.6343E-03     106.285E-03     107.749E+06     65.1765E+06    -21.7366E+06    -21.6776E+06     107.690E+06     65.1765E+06     2.68599E+06         50.9177
            1224     15.0994E-03     64.4009E-03         1.72893    -499.167E-03    -503.464E-03    -503.273E-03         1.72874    -499.167E-03    -16.8716E-03     153.416E-03    -58.7776E-03    -94.6159E-03    -58.6249E-03     117.425E-03    -58.7776E-03     173.320E-03     118.521E+06     105.279E+06    -14.8404E+06    -14.7857E+06     118.028E+06     105.717E+06     681.844E+03         55.5967
            1225     16.0475E-03     64.6224E-03         1.71499    -493.399E-03    -500.062E-03    -497.362E-03         1.71481    -495.915E-03    -18.6462E-03     150.461E-03    -58.8144E-03    -91.6194E-03    -58.5598E-03     117.402E-03    -58.8144E-03     163.530E-03     132.633E+06     131.160E+06    -7.48342E+06    -7.45714E+06     131.133E+06     132.633E+06    -1.50826E+06         59.3367
            1226     943.574E-06     65.1099E-03         2.80804    -302.530E-03        -1.78301    -657.909E-03         1.68294    -302.530E-03         1.63387     117.567E-03    -58.6501E-03    -58.9190E-03    -58.9181E-03     117.566E-03    -58.6501E-03     577.365E-06    -73.5128E+06    -75.6768E+06    -281.222E+06    -75.6779E+06    -281.220E+06    -73.5128E+06     181.091E+03         29.3461
            1227     1.88672E-03     65.1096E-03         1.99639    -476.343E-03    -795.631E-03    -460.963E-03         1.66172    -476.343E-03    -506.093E-03     117.815E-03    -58.8612E-03    -58.9597E-03    -58.9587E-03     117.814E-03    -58.8612E-03     517.961E-06    -66.3198E+06    -72.9400E+06    -277.060E+06    -72.9442E+06    -277.055E+06    -66.3198E+06     37.0281E+03         29.4289
            1228     2.82924E-03     65.1100E-03         1.81031    -474.427E-03    -604.525E-03    -486.045E-03         1.69183    -474.427E-03     229.109E-03     117.657E-03    -58.7168E-03    -58.9473E-03    -58.7389E-03     117.654E-03    -58.9228E-03     1.06342E-03    -54.9540E+06    -67.8056E+06    -270.426E+06    -67.8100E+06    -270.422E+06    -54.9540E+06    -266.708E+03         29.5649
            1229     3.77151E-03     65.1107E-03         1.73553    -477.355E-03    -532.719E-03    -485.470E-03         1.68828    -477.355E-03    -167.644E-03     117.349E-03    -58.4484E-03    -58.9122E-03    -58.4430E-03     117.344E-03    -58.9122E-03     1.84763E-03    -43.3468E+06    -63.3175E+06    -264.012E+06    -63.3216E+06    -264.008E+06    -43.3468E+06    -635.299E+03         29.7738
            1230     4.71707E-03     65.1125E-03         1.71306    -479.914E-03    -513.627E-03    -495.833E-03         1.69526    -479.914E-03     68.5683E-03     117.415E-03    -58.5325E-03    -58.8976E-03    -58.5185E-03     117.401E-03    -58.8976E-03     3.02620E-03    -31.8050E+06    -58.3731E+06    -251.218E+06    -58.3766E+06    -251.215E+06    -31.8050E+06    -703.660E+03         30.0709
            1231     5.65868E-03     65.1162E-03         1.70610    -482.738E-03    -506.084E-03    -498.465E-03         1.69848    -482.738E-03    -74.6456E-03     117.427E-03    -58.5312E-03    -58.9098E-03    -58.5026E-03     117.398E-03    -58.9098E-03     4.43667E-03    -20.7794E+06    -52.8378E+06    -237.372E+06    -52.8392E+06    -237.371E+06    -20.7794E+06    -378.896E+03         30.4596
            1232     6.60283E-03     65.1207E-03         1.69497    -480.221E-03    -493.700E-03    -487.739E-03         1.69297    -484.188E-03     48.9944E-03     117.344E-03    -58.4704E-03    -58.8837E-03    -58.4119E-03     117.285E-03    -58.8837E-03     6.28130E-03    -14.5865E+06    -47.3101E+06    -211.121E+06    -47.3139E+06    -211.117E+06    -14.5865E+06    -105.336E+03         30.9489
            1233     7.54611E-03     65.1287E-03         1.68548    -476.612E-03    -483.796E-03    -475.975E-03         1.68484    -483.796E-03    -2.20268E-03     117.414E-03    -58.5875E-03    -58.8349E-03    -58.4804E-03     117.307E-03    -58.8349E-03     8.60209E-03    -10.9445E+06    -42.5730E+06    -175.174E+06    -42.5866E+06    -175.160E+06    -10.9445E+06    -396.328E+03         31.5569
            1234     8.48913E-03     65.1382E-03         1.69005    -479.755E-03    -484.593E-03    -480.768E-03         1.68944    -482.971E-03     479.018E-06     117.141E-03    -58.3526E-03    -58.7887E-03    -58.1635E-03     116.951E-03    -58.7887E-03     11.3755E-03    -8.10231E+06    -39.8994E+06    -144.224E+06    -39.9109E+06    -144.213E+06    -8.10231E+06    -309.829E+03         32.3802
            1235     9.43359E-03     65.1517E-03         1.69578    -482.837E-03    -489.221E-03    -488.840E-03         1.69540    -482.837E-03    -16.1197E-03     117.041E-03    -58.2425E-03    -58.7982E-03    -57.9176E-03     116.626E-03    -58.7079E-03     16.6648E-03     -7.0922E+06    -37.3516E+06    -106.251E+06    -37.3616E+06    -106.241E+06     -7.0922E+06     645.339E+03         33.6762
            1236     10.3766E-03     65.1753E-03         1.69303    -483.050E-03    -490.571E-03    -490.397E-03         1.69286    -483.050E-03     104.770E-06     117.007E-03    -58.2666E-03    -58.7497E-03    -57.8048E-03     116.404E-03    -58.6080E-03     20.5341E-03    -7.64818E+06    -34.2009E+06    -59.7530E+06    -34.7313E+06    -59.2225E+06    -7.64818E+06     634.010E+03         35.6904
            1237     11.3195E-03     65.1952E-03         1.67997    -477.981E-03    -485.832E-03    -480.917E-03         1.67987    -482.788E-03    -25.4785E-03     116.718E-03    -58.0700E-03    -58.6763E-03    -57.2754E-03     115.736E-03    -58.4890E-03     25.6702E-03     15.7875E+06    -20.4739E+06    -32.2778E+06    -31.9923E+06     3.53843E+06    -8.51034E+06     548.186E+03         38.4727
            1238     12.2657E-03     65.2321E-03         1.68120    -477.273E-03    -488.659E-03    -483.781E-03         1.68113    -482.079E-03     2.50836E-03     117.430E-03    -58.2118E-03    -59.2672E-03    -56.7708E-03     115.147E-03    -58.4244E-03     38.9815E-03     67.2214E+06     2.89621E+06    -30.2063E+06    -30.1934E+06     67.2086E+06     2.89621E+06     304.892E+03         41.9803
            1239     13.2104E-03     65.2784E-03         1.69620    -481.715E-03    -498.457E-03    -498.377E-03         1.69612    -481.715E-03     5.92158E-03     120.994E-03    -58.4945E-03    -62.5371E-03    -57.2904E-03     115.747E-03    -58.4945E-03     60.0593E-03     97.8831E+06     29.6579E+06    -27.5021E+06    -27.4884E+06     97.8694E+06     29.6579E+06     797.757E+03         46.1786
            1240     14.1524E-03     65.3662E-03         1.68994    -481.073E-03    -494.363E-03    -494.331E-03         1.68991    -481.073E-03    -1.74761E-03     132.192E-03    -58.6578E-03    -73.5455E-03    -57.9765E-03     116.622E-03    -58.6578E-03     105.185E-03     108.109E+06     65.1854E+06    -21.8510E+06    -21.8136E+06     108.071E+06     65.1854E+06     1.60713E+06         50.9273
            1241     15.0971E-03     65.5120E-03         1.67384    -478.410E-03    -483.901E-03    -483.321E-03         1.67369    -478.840E-03    -22.1109E-03     151.864E-03    -58.7711E-03    -93.1059E-03    -57.6602E-03     116.418E-03    -58.7711E-03     170.660E-03     120.580E+06     104.775E+06    -14.4116E+06    -14.3757E+06     120.535E+06     104.784E+06     823.028E+03         55.6247
            1242     16.0439E-03     65.7506E-03         1.66926    -472.842E-03    -485.884E-03    -482.790E-03         1.66911    -475.788E-03    -24.5153E-03     150.592E-03    -58.7935E-03    -91.7983E-03    -58.5537E-03     117.348E-03    -58.7935E-03     163.854E-03     133.991E+06     130.985E+06    -7.21042E+06    -7.19914E+06     132.044E+06     132.920E+06     324.062E+03         59.3831
            1243     943.063E-06     66.2329E-03         2.58203    -405.227E-03        -1.47716    -550.033E-03         1.65490    -405.227E-03         1.41086     117.611E-03    -58.6217E-03    -58.9922E-03    -58.8863E-03     117.610E-03    -58.7272E-03     346.714E-06    -73.0246E+06    -75.3023E+06    -280.977E+06    -74.9378E+06    -280.973E+06    -73.3932E+06    -413.508E+03         29.3330
            1244     1.88596E-03     66.2336E-03         1.89117    -472.971E-03    -708.494E-03    -454.292E-03         1.63697    -472.971E-03    -419.068E-03     117.476E-03    -58.5985E-03    -58.8847E-03    -58.6633E-03     117.475E-03    -58.8195E-03     273.352E-06    -65.4451E+06    -72.0408E+06    -275.614E+06     -72.044E+06    -275.611E+06    -65.4451E+06    -440.515E+03         29.4166
            1245     2.82944E-03     66.2335E-03         1.71822    -464.607E-03    -540.202E-03    -442.525E-03         1.62055    -464.618E-03     175.309E-03     117.390E-03    -58.5653E-03    -58.8350E-03    -58.5868E-03     117.388E-03    -58.8114E-03     852.844E-06    -54.9673E+06    -68.7783E+06    -271.273E+06    -68.7828E+06    -271.269E+06    -54.9673E+06    -653.680E+03         29.5574
            1246     3.77398E-03     66.2339E-03         1.65363    -458.645E-03    -482.529E-03    -440.518E-03         1.61163    -458.655E-03    -162.386E-03     117.426E-03    -58.5989E-03    -58.8375E-03    -58.5994E-03     117.420E-03    -58.8311E-03     1.78762E-03    -41.8090E+06    -63.8931E+06    -263.148E+06    -63.8960E+06    -263.145E+06    -41.8090E+06    -218.813E+03         29.7699
            1247     4.71523E-03     66.2360E-03         1.64343    -456.913E-03    -478.064E-03    -462.536E-03         1.62790    -456.913E-03     49.5964E-03     117.407E-03    -58.5582E-03    -58.8618E-03    -58.5516E-03     117.394E-03    -58.8554E-03     2.97768E-03    -30.4002E+06    -58.7064E+06    -250.642E+06    -58.7115E+06    -250.637E+06    -30.4002E+06    -634.411E+03         30.0670
            1248     5.66014E-03     66.2397E-03         1.63916    -456.961E-03    -475.659E-03    -467.302E-03         1.63200    -458.163E-03    -74.8171E-03     117.394E-03    -58.5338E-03    -58.8754E-03    -58.5066E-03     117.367E-03    -58.8754E-03     4.30029E-03    -20.2502E+06    -52.7628E+06    -237.576E+06    -52.7676E+06    -237.571E+06    -20.2502E+06    -803.181E+03         30.4560
            1249     6.60272E-03     66.2440E-03         1.63081    -456.210E-03    -465.825E-03    -461.355E-03         1.62910    -458.972E-03     52.3682E-03     117.383E-03    -58.5357E-03    -58.8588E-03    -58.4743E-03     117.321E-03    -58.8588E-03     6.42740E-03    -14.2886E+06    -47.2462E+06    -211.258E+06    -47.2482E+06    -211.256E+06    -14.2886E+06    -409.986E+03         30.9461
            1250     7.54613E-03     66.2527E-03         1.62859    -455.941E-03    -463.026E-03    -459.226E-03         1.62782    -458.976E-03     20.8197E-03     117.303E-03    -58.4971E-03    -58.8112E-03    -58.3874E-03     117.193E-03    -58.8112E-03     8.72409E-03    -11.2052E+06    -43.2952E+06    -175.360E+06    -43.2972E+06    -175.358E+06    -11.2052E+06     79.3607E+03         31.5556
            1251     8.48984E-03     66.2617E-03         1.63322    -457.537E-03    -465.763E-03    -463.614E-03         1.63255    -459.012E-03     22.4312E-03     117.397E-03    -58.6045E-03    -58.7909E-03    -58.4302E-03     117.210E-03    -58.7785E-03     11.3318E-03    -7.93660E+06    -40.3004E+06    -143.744E+06    -40.3033E+06    -143.742E+06    -7.93660E+06     478.790E+03         32.3814
            1252     9.43188E-03     66.2762E-03         1.63493    -459.345E-03    -467.497E-03    -467.281E-03         1.63472    -459.345E-03    -9.20958E-03     117.178E-03    -58.4475E-03    -58.7314E-03    -58.0438E-03     116.762E-03    -58.7191E-03     16.6609E-03    -7.04994E+06    -37.1855E+06    -106.796E+06    -37.1991E+06    -106.782E+06    -7.04994E+06     786.402E+03         33.6779
            1253     10.3770E-03     66.2973E-03         1.63064    -459.653E-03    -467.203E-03    -466.986E-03         1.63043    -459.653E-03    -9.37019E-03     116.852E-03    -58.1957E-03    -58.6643E-03    -57.6100E-03     116.215E-03    -58.6128E-03     21.0711E-03    -7.53585E+06    -33.0663E+06    -60.0614E+06    -34.1692E+06    -58.9585E+06    -7.53585E+06     1.21720E+06         35.6923
            1254     11.3207E-03     66.3216E-03         1.63381    -460.012E-03    -472.972E-03    -472.815E-03         1.63366    -460.012E-03    -31.3806E-03     116.766E-03    -58.0861E-03    -58.7026E-03    -57.3287E-03     115.787E-03    -58.4813E-03     25.7806E-03     15.9201E+06    -21.0184E+06    -33.2159E+06    -32.8002E+06     4.14045E+06    -9.65446E+06     778.965E+03         38.4756
            1255     12.2647E-03     66.3506E-03         1.64532    -460.737E-03    -483.309E-03    -483.212E-03         1.64522    -460.737E-03     12.2149E-03     117.968E-03    -58.2219E-03    -59.7962E-03    -57.2748E-03     115.659E-03    -58.4345E-03     39.1369E-03     67.0240E+06     944.875E+03    -31.0316E+06    -31.0233E+06     67.0156E+06     944.875E+03     667.778E+03         41.9827
            1256     13.2074E-03     66.4083E-03         1.64734    -461.348E-03    -482.275E-03    -482.136E-03         1.64720    -461.348E-03     4.07441E-03     120.878E-03    -58.5059E-03    -62.4165E-03    -57.0374E-03     115.499E-03    -58.5059E-03     60.7079E-03     97.4358E+06     26.5107E+06    -27.3753E+06    -27.3610E+06     97.4216E+06     26.5107E+06     833.094E+03         46.1800
            1257     14.1529E-03     66.4850E-03         1.63679    -460.837E-03    -472.977E-03    -472.922E-03         1.63673    -460.837E-03    -17.5345E-03     131.523E-03    -58.6303E-03    -72.9017E-03    -57.0434E-03     115.665E-03    -58.6303E-03     105.799E-03     107.525E+06     63.7164E+06    -21.1699E+06    -21.1576E+06     107.512E+06     63.7164E+06     456.336E+03         50.9366
            1258     15.0981E-03     66.6401E-03         1.62789    -458.346E-03    -468.853E-03    -468.289E-03         1.62776    -458.776E-03    -26.1314E-03     153.206E-03    -58.7618E-03    -94.4353E-03    -59.0228E-03     117.794E-03    -58.7618E-03     171.965E-03     121.419E+06     105.336E+06    -14.8108E+06    -14.7961E+06     121.404E+06     105.336E+06     1.01632E+06         55.6516
            1259     16.0447E-03     66.8658E-03         1.63333    -456.096E-03    -481.341E-03    -480.776E-03         1.63320    -456.526E-03    -26.2534E-03     151.171E-03    -58.8359E-03    -92.3212E-03    -59.0494E-03     117.899E-03    -58.8359E-03     164.932E-03     135.461E+06     130.669E+06    -7.55069E+06    -7.53991E+06     133.353E+06     132.766E+06     1.07092E+06         59.4259
            1260     942.631E-06     67.3570E-03         2.38219    -512.911E-03        -1.18801    -381.381E-03         1.57556    -512.911E-03         1.26868     117.451E-03    -58.4655E-03    -58.9883E-03    -58.8817E-03     117.450E-03    -58.5710E-03     810.591E-06    -71.3929E+06    -74.0711E+06    -280.593E+06    -73.7130E+06    -280.583E+06    -71.7614E+06    -437.784E+03         29.3202
            1261     1.88656E-03     67.3563E-03         1.76591    -444.154E-03    -630.978E-03    -432.110E-03         1.56704    -444.154E-03    -316.451E-03     117.323E-03    -58.5208E-03    -58.8078E-03    -58.5862E-03     117.322E-03    -58.7418E-03     547.306E-06    -64.2420E+06    -71.3500E+06    -275.820E+06    -71.3556E+06    -275.815E+06    -64.2420E+06     644.319E+03         29.4074
            1262     2.83025E-03     67.3567E-03         1.63622    -438.472E-03    -498.695E-03    -422.580E-03         1.56011    -438.482E-03     215.761E-03     117.381E-03    -58.6048E-03    -58.7845E-03    -58.6341E-03     117.380E-03    -58.7541E-03     604.686E-06    -53.4381E+06    -68.2685E+06    -270.304E+06    -68.2733E+06    -270.299E+06    -53.4381E+06    -242.223E+03         29.5535
            1263     3.77219E-03     67.3573E-03         1.59548    -435.628E-03    -462.354E-03    -434.290E-03         1.56743    -435.638E-03    -83.7422E-03     117.434E-03    -58.6382E-03    -58.8036E-03    -58.6400E-03     117.429E-03    -58.7972E-03     1.54035E-03    -41.1587E+06    -63.1186E+06    -262.258E+06    -63.1226E+06    -262.254E+06    -41.1587E+06    -573.789E+03         29.7684
            1264     4.71701E-03     67.3599E-03         1.58491    -431.636E-03    -455.607E-03    -437.595E-03         1.57088    -435.623E-03     48.2774E-03     117.408E-03    -58.5734E-03    -58.8461E-03    -58.5713E-03     117.396E-03    -58.8362E-03     2.86898E-03    -29.1191E+06    -57.0997E+06    -249.473E+06    -57.1051E+06    -249.468E+06    -29.1191E+06    -634.582E+03         30.0647
            1265     5.65923E-03     67.3622E-03         1.55966    -424.619E-03    -438.471E-03    -422.332E-03         1.55362    -434.716E-03    -86.0073E-03     117.402E-03    -58.5502E-03    -58.8651E-03    -58.5271E-03     117.376E-03    -58.8615E-03     4.24355E-03    -19.4604E+06    -52.0879E+06    -237.288E+06    -52.0928E+06    -237.283E+06    -19.4604E+06    -556.833E+03         30.4533
            1266     6.60300E-03     67.3688E-03         1.56097    -427.328E-03    -438.572E-03    -431.614E-03         1.56012    -433.437E-03     50.5555E-03     117.280E-03    -58.4494E-03    -58.8409E-03    -58.3906E-03     117.221E-03    -58.8409E-03     6.31253E-03    -14.4878E+06    -47.8708E+06    -212.077E+06    -47.8725E+06    -212.076E+06    -14.4878E+06    -23.3952E+03         30.9409
            1267     7.54655E-03     67.3749E-03         1.58380    -434.259E-03    -452.398E-03    -452.102E-03         1.58351    -434.259E-03     14.5110E-03     117.192E-03    -58.4128E-03    -58.7832E-03    -58.2958E-03     117.074E-03    -58.7832E-03     8.94773E-03    -11.8638E+06    -44.0605E+06    -175.895E+06    -44.0634E+06    -175.892E+06    -11.8638E+06     451.480E+03         31.5458
            1268     8.48941E-03     67.3871E-03         1.58437    -436.095E-03    -453.348E-03    -452.754E-03         1.58378    -436.095E-03    -14.6215E-03     117.261E-03    -58.5088E-03    -58.7538E-03    -58.3131E-03     117.053E-03    -58.7415E-03     11.9795E-03    -8.55759E+06    -40.1354E+06    -144.322E+06    -40.1405E+06    -144.317E+06    -8.55759E+06     710.542E+03         32.3717
            1269     9.43364E-03     67.3992E-03         1.57020    -433.228E-03    -444.767E-03    -440.737E-03         1.56987    -436.933E-03    -35.6201E-03     117.187E-03    -58.4949E-03    -58.6956E-03    -58.0830E-03     116.763E-03    -58.6832E-03     16.9113E-03    -7.07867E+06    -36.4466E+06    -107.221E+06    -36.4784E+06    -107.189E+06    -7.07867E+06     1.12193E+06         33.6736
            1270     10.3764E-03     67.4210E-03         1.57295    -433.364E-03    -448.082E-03    -444.283E-03         1.57285    -437.069E-03    -17.7168E-03     116.746E-03    -58.1752E-03    -58.5762E-03    -57.5123E-03     116.083E-03    -58.5762E-03     21.4499E-03    -8.21119E+06    -33.2831E+06    -60.9039E+06    -34.6831E+06    -59.5039E+06    -8.21119E+06     1.51954E+06         35.6927
            1271     11.3212E-03     67.4439E-03         1.59256    -438.133E-03    -467.413E-03    -467.328E-03         1.59247    -438.133E-03    -20.3465E-03     116.993E-03    -58.1615E-03    -58.8471E-03    -57.5323E-03     115.971E-03    -58.4543E-03     26.4409E-03     16.5531E+06    -20.1785E+06    -33.2229E+06    -32.8143E+06     4.99085E+06     -9.0249E+06     1.65039E+06         38.4781
            1272     12.2641E-03     67.4769E-03         1.60062    -439.917E-03    -471.972E-03    -471.893E-03         1.60055    -439.917E-03     13.0410E-03     118.174E-03    -58.4217E-03    -59.7915E-03    -57.3361E-03     115.718E-03    -58.4217E-03     40.2725E-03     68.0762E+06     2.32951E+06    -30.9195E+06    -30.8790E+06     68.0357E+06     2.32951E+06     1.32795E+06         41.9860
            1273     13.2091E-03     67.5303E-03         1.58811    -440.639E-03    -455.508E-03    -455.399E-03         1.58800    -440.639E-03     12.6913E-03     120.317E-03    -58.4724E-03    -61.8855E-03    -56.3380E-03     114.770E-03    -58.4724E-03     61.6425E-03     98.0508E+06     27.5654E+06    -27.6735E+06    -27.6662E+06     98.0435E+06     27.5654E+06     218.037E+03         46.1852
            1274     14.1546E-03     67.6079E-03         1.58802    -439.991E-03    -457.161E-03    -457.085E-03         1.58795    -439.991E-03     3.21466E-03     131.087E-03    -58.5687E-03    -72.5183E-03    -56.8172E-03     115.386E-03    -58.5687E-03     105.273E-03     106.879E+06     63.9049E+06    -22.2666E+06    -22.2567E+06     106.869E+06     63.9049E+06    -216.111E+03         50.9499
            1275     15.1025E-03     67.7608E-03         1.59857    -438.822E-03    -473.992E-03    -473.808E-03         1.59839    -438.822E-03    -17.3650E-03     154.381E-03    -58.7184E-03    -95.6376E-03    -59.8692E-03     118.613E-03    -58.7184E-03     173.514E-03     121.053E+06     105.164E+06    -16.0457E+06    -16.0156E+06     121.023E+06     105.164E+06     1.11013E+06         55.6823
            1276     16.0389E-03     67.9998E-03         1.58979    -437.721E-03    -474.382E-03    -474.221E-03         1.58963    -437.721E-03    -19.7396E-03     151.398E-03    -58.8232E-03    -92.5441E-03    -59.4795E-03     118.334E-03    -58.8232E-03     164.195E-03     136.032E+06     131.521E+06    -7.77203E+06    -7.75052E+06     134.731E+06     132.800E+06     1.21577E+06         59.4728
            1277     944.304E-06     68.4796E-03         2.12331    -563.220E-03    -889.595E-03    -161.990E-03         1.49855    -666.058E-03     975.935E-03     116.987E-03    -58.3214E-03    -58.6677E-03    -58.6669E-03     116.986E-03    -58.3214E-03     618.382E-06    -71.9643E+06    -75.3986E+06    -281.338E+06    -74.8103E+06    -281.330E+06    -72.5602E+06    -314.452E+03         29.3103
            1278     1.88679E-03     68.4800E-03         1.60413    -407.658E-03    -525.621E-03    -381.899E-03         1.46041    -407.658E-03    -289.781E-03     117.407E-03    -58.6034E-03    -58.8087E-03    -58.8082E-03     117.407E-03    -58.6034E-03     410.876E-06    -64.1602E+06    -70.8380E+06    -276.639E+06    -70.8432E+06    -276.634E+06    -64.1602E+06     866.940E+03         29.4038
            1279     2.82932E-03     68.4801E-03         1.54839    -403.205E-03    -461.691E-03    -415.166E-03         1.50186    -403.205E-03     161.616E-03     117.470E-03    -58.6715E-03    -58.8058E-03    -58.7470E-03     117.469E-03    -58.7291E-03     761.634E-06    -52.3467E+06    -66.8172E+06    -269.098E+06    -66.8271E+06    -269.088E+06    -52.3467E+06     882.777E+03         29.5524
            1280     3.77360E-03     68.4810E-03         1.53008    -407.399E-03    -441.579E-03    -425.194E-03         1.51370    -407.399E-03    -61.1743E-03     117.364E-03    -58.5875E-03    -58.7864E-03    -58.5835E-03     117.360E-03    -58.7864E-03     1.63379E-03    -40.7772E+06    -62.8661E+06    -261.208E+06    -62.8751E+06    -261.199E+06    -40.7772E+06     52.2162E+03         29.7669
            1281     4.71590E-03     68.4824E-03         1.51149    -405.865E-03    -425.058E-03    -412.676E-03         1.50309    -409.851E-03     41.9188E-03     117.341E-03    -58.5399E-03    -58.8147E-03    -58.5294E-03     117.327E-03    -58.8111E-03     2.96544E-03    -30.8795E+06    -58.5101E+06    -249.497E+06    -58.5132E+06    -249.494E+06    -30.8795E+06    -248.276E+03         30.0621
            1282     5.65975E-03     68.4872E-03         1.50378    -401.237E-03    -423.107E-03    -411.139E-03         1.50071    -410.132E-03    -61.9917E-03     117.343E-03    -58.5122E-03    -58.8456E-03    -58.4874E-03     117.314E-03    -58.8420E-03     4.40892E-03    -19.6964E+06    -53.7144E+06    -237.201E+06    -53.7163E+06    -237.200E+06    -19.6964E+06     189.223E+03         30.4494
            1283     6.60302E-03     68.4904E-03         1.52106    -406.525E-03    -435.198E-03    -429.901E-03         1.52067    -411.433E-03     41.0121E-03     117.245E-03    -58.4361E-03    -58.8225E-03    -58.3739E-03     117.183E-03    -58.8225E-03     6.42724E-03    -14.1046E+06    -48.6642E+06    -211.770E+06    -48.6652E+06    -211.769E+06    -14.1046E+06     221.414E+03         30.9349
            1284     7.54651E-03     68.5000E-03         1.52486    -409.612E-03    -434.303E-03    -430.234E-03         1.52484    -413.659E-03    -4.72721E-03     117.081E-03    -58.3333E-03    -58.7593E-03    -58.2187E-03     116.966E-03    -58.7593E-03     8.88519E-03    -11.8049E+06    -43.7282E+06    -176.599E+06    -43.7315E+06    -176.596E+06    -11.8049E+06     547.517E+03         31.5356
            1285     8.49073E-03     68.5088E-03         1.51769    -410.001E-03    -426.610E-03    -421.512E-03         1.51746    -414.870E-03    -28.9262E-03     116.878E-03    -58.1883E-03    -58.6975E-03    -57.9834E-03     116.673E-03    -58.6975E-03     11.7940E-03    -8.71551E+06    -40.4134E+06    -145.322E+06    -40.4546E+06    -145.281E+06    -8.71551E+06     1.42242E+06         32.3599
            1286     9.43368E-03     68.5244E-03         1.51554    -410.684E-03    -425.202E-03    -420.444E-03         1.51531    -415.209E-03    -23.6052E-03     116.867E-03    -58.2545E-03    -58.6160E-03    -57.8396E-03     116.452E-03    -58.6160E-03     16.7597E-03    -7.52730E+06    -38.4700E+06    -107.695E+06    -38.5351E+06    -107.630E+06    -7.52730E+06     1.74273E+06         33.6675
            1287     10.3781E-03     68.5433E-03         1.53105    -412.343E-03    -440.629E-03    -436.885E-03         1.53102    -416.048E-03    -11.5923E-03     117.051E-03    -58.3216E-03    -58.7382E-03    -57.8768E-03     116.391E-03    -58.5234E-03     21.4213E-03    -7.74612E+06    -34.0327E+06    -60.7222E+06    -35.4917E+06    -59.2632E+06    -7.74612E+06     1.37026E+06         35.6926
            1288     11.3215E-03     68.5680E-03         1.54082    -417.771E-03    -447.224E-03    -447.120E-03         1.54072    -417.771E-03    -21.5895E-03     117.023E-03    -58.1772E-03    -58.8602E-03    -57.5721E-03     115.980E-03    -58.4223E-03     26.7191E-03     16.5731E+06    -19.8144E+06    -33.1694E+06    -32.8541E+06     5.16455E+06    -8.72112E+06     1.44059E+06         38.4806
            1289     12.2656E-03     68.6012E-03         1.53246    -418.994E-03    -436.174E-03    -435.993E-03         1.53228    -418.994E-03     7.73505E-03     117.443E-03    -58.2370E-03    -59.2379E-03    -56.7626E-03     115.103E-03    -58.3720E-03     39.3620E-03     69.0652E+06     3.29515E+06    -29.9311E+06    -29.8936E+06     69.0277E+06     3.29515E+06     1.13026E+06         41.9913
            1290     13.2109E-03     68.6513E-03         1.53072    -419.112E-03    -433.286E-03    -433.139E-03         1.53057    -419.112E-03     14.9188E-03     120.025E-03    -58.4117E-03    -61.6553E-03    -56.2833E-03     114.653E-03    -58.4117E-03     60.4717E-03     99.4359E+06     30.2728E+06    -26.8622E+06    -26.8574E+06     99.4311E+06     30.2728E+06     402.587E+03         46.1931
            1291     14.1556E-03     68.7324E-03         1.54363    -418.930E-03    -449.754E-03    -449.587E-03         1.54346    -418.930E-03     16.7970E-03     131.882E-03    -58.5570E-03    -73.3339E-03    -57.9418E-03     116.489E-03    -58.5570E-03     104.919E-03     106.757E+06     65.8286E+06    -23.5495E+06    -23.5325E+06     106.740E+06     65.8286E+06     298.215E+03         50.9621
            1292     15.0963E-03     68.8834E-03         1.55619    -418.648E-03    -468.431E-03    -468.228E-03         1.55599    -418.648E-03     5.30316E-03     154.066E-03    -58.7243E-03    -95.3231E-03    -59.3812E-03     118.124E-03    -58.7243E-03     173.207E-03     119.873E+06     104.892E+06    -16.8575E+06    -16.8231E+06     119.839E+06     104.892E+06     919.819E+03         55.7100
            1293     16.0492E-03     69.1261E-03         1.54864    -418.076E-03    -462.898E-03    -462.767E-03         1.54851    -418.076E-03    -19.5914E-03     150.470E-03    -58.7847E-03    -91.6698E-03    -58.6688E-03     117.469E-03    -58.7847E-03     162.676E-03     135.617E+06     132.089E+06    -8.37841E+06    -8.35605E+06     135.192E+06     132.491E+06     1.07430E+06         59.5188
            1294     943.017E-06     69.6023E-03         1.81186    -361.068E-03    -792.440E-03    -38.2853E-03         1.46847    -771.834E-03     587.318E-03     117.192E-03    -58.3700E-03    -58.8241E-03    -58.6843E-03     117.191E-03    -58.5096E-03     339.259E-06    -71.5926E+06    -74.2397E+06    -280.485E+06    -73.6492E+06    -280.480E+06    -72.1886E+06    -838.487E+03         29.3126
            1295     1.88669E-03     69.6035E-03         1.49568    -397.391E-03    -434.725E-03    -366.372E-03         1.42732    -397.391E-03    -226.916E-03     117.220E-03    -58.4517E-03    -58.7737E-03    -58.5907E-03     117.220E-03    -58.6344E-03     398.778E-06    -65.6057E+06    -71.2790E+06    -277.347E+06    -71.2804E+06    -277.346E+06    -65.6057E+06    -132.325E+03         29.4013
            1296     2.83032E-03     69.6034E-03         1.45073    -370.289E-03    -413.197E-03    -377.778E-03         1.43296    -387.940E-03     75.1084E-03     117.315E-03    -58.5889E-03    -58.7339E-03    -58.6389E-03     117.314E-03    -58.6828E-03     807.831E-06    -53.9871E+06    -66.7948E+06    -269.986E+06    -66.8022E+06    -269.978E+06    -53.9871E+06     738.593E+03         29.5487
            1297     3.77273E-03     69.6042E-03         1.42659    -366.918E-03    -396.177E-03    -371.287E-03         1.41935    -384.569E-03    -54.6617E-03     117.359E-03    -58.6239E-03    -58.7460E-03    -58.6240E-03     117.354E-03    -58.7412E-03     1.71167E-03    -41.4905E+06    -61.9489E+06    -261.018E+06    -61.9693E+06    -260.998E+06    -41.4905E+06     1.45684E+06         29.7652
            1298     4.71673E-03     69.6063E-03         1.44014    -383.492E-03    -393.216E-03    -389.764E-03         1.43669    -383.492E-03     1.02184E-03     117.286E-03    -58.5194E-03    -58.7804E-03    -58.5050E-03     117.271E-03    -58.7804E-03     3.02646E-03    -30.8291E+06    -58.2262E+06    -249.488E+06    -58.2503E+06    -249.464E+06    -30.8291E+06     1.64561E+06         30.0611
            1299     5.66001E-03     69.6095E-03         1.46293    -386.299E-03    -415.325E-03    -413.305E-03         1.46091    -386.299E-03    -43.3700E-03     117.226E-03    -58.4346E-03    -58.8074E-03    -58.4057E-03     117.197E-03    -58.8074E-03     4.42512E-03    -19.2519E+06    -53.8245E+06    -236.672E+06    -53.8358E+06    -236.661E+06    -19.2519E+06     970.373E+03         30.4463
            1300     6.60338E-03     69.6151E-03         1.47217    -389.726E-03    -419.356E-03    -418.111E-03         1.47162    -390.419E-03     58.7553E-03     117.253E-03    -58.4772E-03    -58.7904E-03    -58.4128E-03     117.188E-03    -58.7904E-03     6.55057E-03    -13.7028E+06    -49.2187E+06    -210.785E+06    -49.2200E+06    -210.784E+06    -13.7028E+06     62.1914E+03         30.9313
            1301     7.54672E-03     69.6223E-03         1.45280    -385.382E-03    -398.753E-03    -391.687E-03         1.45255    -392.198E-03     25.5870E-03     117.078E-03    -58.3487E-03    -58.7386E-03    -58.2354E-03     116.965E-03    -58.7386E-03     8.86083E-03    -12.4740E+06    -45.9090E+06    -179.135E+06    -45.9487E+06    -179.095E+06    -12.4740E+06     1.22344E+06         31.5322
            1302     8.48983E-03     69.6331E-03         1.45253    -385.023E-03    -399.479E-03    -392.512E-03         1.45251    -391.967E-03    -1.77888E-03     116.736E-03    -58.0663E-03    -58.6728E-03    -57.8720E-03     116.541E-03    -58.6728E-03     11.4911E-03    -9.31651E+06    -42.7909E+06    -145.964E+06    -42.8843E+06    -145.871E+06    -9.31651E+06     2.72520E+06         32.3559
            1303     9.43486E-03     69.6462E-03         1.48008    -392.248E-03    -421.309E-03    -420.476E-03         1.48007    -393.069E-03    -3.66016E-03     116.760E-03    -58.1501E-03    -58.6135E-03    -57.7833E-03     116.364E-03    -58.5845E-03     16.3449E-03    -7.33950E+06    -39.2569E+06    -106.280E+06    -39.3172E+06    -106.219E+06    -7.33950E+06     1.86678E+06         33.6651
            1304     10.3783E-03     69.6678E-03         1.48959    -395.546E-03    -428.323E-03    -428.278E-03         1.48954    -395.546E-03     2.51217E-03     117.141E-03    -58.4116E-03    -58.7393E-03    -58.0098E-03     116.494E-03    -58.4945E-03     21.2059E-03    -8.55017E+06    -33.7027E+06    -61.2792E+06    -36.1834E+06    -58.7985E+06    -8.55017E+06     839.373E+03         35.6930
            1305     11.3208E-03     69.6925E-03         1.47469    -397.228E-03    -413.527E-03    -413.409E-03         1.47457    -397.228E-03    -11.1500E-03     116.879E-03    -58.2644E-03    -58.6277E-03    -57.5189E-03     115.906E-03    -58.3995E-03     25.8843E-03     16.2727E+06    -19.6453E+06    -33.8521E+06    -33.6862E+06     6.05187E+06    -9.59029E+06     211.178E+03         38.4830
            1306     12.2659E-03     69.7223E-03         1.47491    -397.819E-03    -413.095E-03    -412.833E-03         1.47465    -397.819E-03     12.1641E-03     117.381E-03    -58.2171E-03    -59.2027E-03    -56.8227E-03     115.136E-03    -58.3522E-03     38.3982E-03     69.0217E+06     2.18185E+06    -30.2005E+06    -30.1918E+06     69.0129E+06     2.18185E+06     206.978E+03         41.9954
            1307     13.2101E-03     69.7762E-03         1.49301    -398.561E-03    -430.224E-03    -429.968E-03         1.49275    -398.561E-03     8.75118E-03     120.078E-03    -58.4023E-03    -61.7274E-03    -56.5816E-03     114.932E-03    -58.4023E-03     59.3338E-03     99.3314E+06     28.6886E+06    -26.1784E+06    -26.1512E+06     99.3041E+06     28.6886E+06     1.35588E+06         46.1981
            1308     14.1549E-03     69.8537E-03         1.49691    -399.370E-03    -436.482E-03    -436.317E-03         1.49675    -399.370E-03    -1.16182E-03     132.489E-03    -58.5659E-03    -73.9375E-03    -57.9844E-03     116.536E-03    -58.5659E-03     106.355E-03     107.467E+06     66.1422E+06    -22.0102E+06    -21.9752E+06     107.432E+06     66.1422E+06     1.66607E+06         50.9739
            1309     15.0998E-03     70.0141E-03         1.49104    -399.117E-03    -435.217E-03    -435.070E-03         1.49089    -399.117E-03     2.32817E-03     153.401E-03    -58.7301E-03    -94.6559E-03    -59.0771E-03     117.822E-03    -58.7301E-03     172.428E-03     119.412E+06     105.487E+06    -16.0365E+06    -16.0073E+06     119.383E+06     105.487E+06     1.43219E+06         55.7400
            1310     16.0407E-03     70.2368E-03         1.50504    -398.604E-03    -450.499E-03    -450.360E-03         1.50490    -398.604E-03    -31.5010E-03     150.434E-03    -58.7799E-03    -91.6661E-03    -58.6575E-03     117.425E-03    -58.7799E-03     163.547E-03     135.435E+06     132.575E+06    -8.33983E+06    -8.31768E+06     135.413E+06     132.575E+06     928.905E+03         59.5659
            1311     942.862E-06     70.7258E-03         1.52027    -26.2734E-03    -841.114E-03     73.9870E-03         1.41775    -838.855E-03     265.695E-03     117.520E-03    -58.5614E-03    -58.9599E-03    -58.8197E-03     117.519E-03    -58.7011E-03     512.843E-06    -69.9488E+06    -72.3020E+06    -278.993E+06    -72.3177E+06    -278.977E+06    -69.9488E+06     101.668E+03         29.3212
            1312     1.88656E-03     70.7258E-03         1.41294    -372.495E-03    -382.341E-03    -360.115E-03         1.39628    -378.055E-03    -66.9552E-03     117.181E-03    -58.4203E-03    -58.7664E-03    -58.4479E-03     117.181E-03    -58.7386E-03     300.976E-06    -64.3381E+06    -70.9140E+06    -276.856E+06    -70.9157E+06    -276.855E+06    -64.3381E+06    -137.015E+03         29.4010
            1313     2.82983E-03     70.7270E-03         1.37326    -342.343E-03    -370.722E-03    -339.553E-03         1.36844    -368.696E-03     58.3903E-03     117.083E-03    -58.4063E-03    -58.6847E-03    -58.4101E-03     117.082E-03    -58.6799E-03     706.451E-06    -55.1913E+06    -67.5140E+06    -271.288E+06    -67.5153E+06    -271.287E+06    -55.1913E+06     265.871E+03         29.5439
            1314     3.77382E-03     70.7275E-03         1.35750    -336.715E-03    -368.844E-03    -342.058E-03         1.35539    -361.393E-03     11.8633E-03     117.226E-03    -58.5423E-03    -58.6926E-03    -58.5421E-03     117.221E-03    -58.6876E-03     1.79597E-03    -44.2242E+06    -62.5391E+06    -261.925E+06    -62.5531E+06    -261.911E+06    -44.2242E+06     1.09135E+06         29.7626
            1315     4.71649E-03     70.7297E-03         1.39676    -361.100E-03    -384.435E-03    -382.777E-03         1.39510    -361.100E-03     14.1401E-03     117.312E-03    -58.5799E-03    -58.7434E-03    -58.5679E-03     117.300E-03    -58.7431E-03     2.90176E-03    -30.6759E+06    -56.5921E+06    -250.239E+06    -56.6233E+06    -250.208E+06    -30.6759E+06     2.22323E+06         30.0618
            1316     5.65996E-03     70.7329E-03         1.40326    -362.614E-03    -390.373E-03    -387.111E-03         1.40242    -365.039E-03    -29.8852E-03     117.286E-03    -58.5104E-03    -58.7896E-03    -58.4826E-03     117.258E-03    -58.7896E-03     4.29957E-03    -17.7165E+06    -51.5175E+06    -235.192E+06    -51.5474E+06    -235.163E+06    -17.7165E+06     2.16088E+06         30.4475
            1317     6.60361E-03     70.7382E-03         1.38533    -358.655E-03    -376.263E-03    -367.536E-03         1.38476    -366.813E-03     51.3461E-03     117.181E-03    -58.4063E-03    -58.7882E-03    -58.3477E-03     117.122E-03    -58.7882E-03     6.32187E-03    -11.0775E+06    -48.2890E+06    -211.834E+06    -48.3631E+06    -211.760E+06    -11.0775E+06     2.28634E+06         30.9315
            1318     7.54699E-03     70.7464E-03         1.39347    -359.112E-03    -378.852E-03    -370.614E-03         1.39304    -366.920E-03     39.3187E-03     117.023E-03    -58.2956E-03    -58.7329E-03    -58.1880E-03     116.915E-03    -58.7329E-03     8.58288E-03    -10.1640E+06    -46.0010E+06    -181.227E+06    -46.1163E+06    -181.112E+06    -10.1640E+06     3.16536E+06         31.5336
            1319     8.49106E-03     70.7556E-03         1.42022    -366.475E-03    -399.829E-03    -397.690E-03         1.42016    -368.551E-03     7.57742E-03     116.936E-03    -58.2746E-03    -58.6605E-03    -58.0886E-03     116.750E-03    -58.6605E-03     11.3057E-03    -9.21237E+06    -42.2999E+06    -144.987E+06    -42.3702E+06    -144.917E+06    -9.21237E+06     2.36375E+06         32.3591
            1320     9.43375E-03     70.7698E-03         1.42782    -371.531E-03    -404.624E-03    -404.541E-03         1.42774    -371.531E-03     10.8451E-03     117.078E-03    -58.4324E-03    -58.6465E-03    -58.0805E-03     116.676E-03    -58.5967E-03     16.3844E-03    -7.34841E+06    -37.9180E+06    -105.431E+06    -37.9448E+06    -105.404E+06    -7.34841E+06     1.10411E+06         33.6671
            1321     10.3773E-03     70.7916E-03         1.42033    -373.694E-03    -393.982E-03    -393.910E-03         1.42026    -373.694E-03     8.49680E-03     116.844E-03    -58.2939E-03    -58.5586E-03    -57.7024E-03     116.202E-03    -58.5078E-03     21.1221E-03    -8.18643E+06    -32.6240E+06    -60.2016E+06    -35.4358E+06    -57.3898E+06    -8.18643E+06     937.430E+03         35.6942
            1322     11.3223E-03     70.8159E-03         1.42538    -375.122E-03    -399.583E-03    -399.548E-03         1.42535    -375.122E-03     3.12594E-03     116.670E-03    -58.1752E-03    -58.5115E-03    -57.3273E-03     115.700E-03    -58.3891E-03     25.7453E-03     16.8045E+06    -19.7084E+06    -33.4502E+06    -33.3354E+06     6.87073E+06    -9.88946E+06     53.1089E+03         38.4859
            1323     12.2652E-03     70.8461E-03         1.44518    -377.047E-03    -417.677E-03    -417.513E-03         1.44502    -377.047E-03     23.5584E-03     117.762E-03    -58.3491E-03    -59.4525E-03    -57.1740E-03     115.483E-03    -58.3491E-03     38.7951E-03     68.5159E+06     1.48981E+06    -31.1773E+06    -31.1714E+06     68.5101E+06     1.48981E+06    -494.032E+03         41.9996
            1324     13.2096E-03     70.8996E-03         1.45422    -379.326E-03    -425.808E-03    -425.603E-03         1.45401    -379.326E-03     18.6984E-03     120.533E-03    -58.4195E-03    -62.1628E-03    -56.9797E-03     115.350E-03    -58.4195E-03     59.7115E-03     98.4085E+06     26.9953E+06    -27.5097E+06    -27.4832E+06      98.382E+06     26.9953E+06     1.05433E+06         46.2026
            1325     14.1543E-03     70.9766E-03         1.45258    -380.920E-03    -425.016E-03    -424.965E-03         1.45253    -380.920E-03    -5.00675E-03     131.914E-03    -58.5652E-03    -73.3629E-03    -57.3120E-03     115.863E-03    -58.5652E-03     106.161E-03     107.244E+06     63.7862E+06    -22.0341E+06    -22.0010E+06     107.211E+06     63.7862E+06     1.77332E+06         50.9868
            1326     15.0995E-03     71.1371E-03         1.44406    -381.140E-03    -419.454E-03    -419.364E-03         1.44397    -381.140E-03    -16.9482E-03     152.929E-03    -58.7140E-03    -94.2022E-03    -58.7841E-03     117.511E-03    -58.7140E-03     171.974E-03     119.374E+06     105.543E+06    -14.9355E+06    -14.9088E+06     119.348E+06     105.543E+06     1.67004E+06         55.7734
            1327     16.0477E-03     71.3632E-03         1.44928    -380.895E-03    -428.937E-03    -428.746E-03         1.44909    -380.895E-03    -15.5876E-03     151.048E-03    -58.7830E-03    -92.2885E-03    -59.3411E-03     118.101E-03    -58.7830E-03     164.159E-03     136.795E+06     133.838E+06    -7.51789E+06    -7.48475E+06     136.762E+06     133.838E+06     1.61147E+06         59.6166
            1328     943.616E-06     71.8496E-03         1.44190     124.479E-03    -923.639E-03     261.293E-03         1.30509    -923.639E-03    -76.9534E-03     117.443E-03    -58.5881E-03    -58.8552E-03    -58.8543E-03     117.442E-03    -58.5881E-03     609.713E-06    -71.0128E+06    -74.5076E+06    -279.954E+06    -73.7208E+06    -279.928E+06    -71.8252E+06     872.169E+03         29.3214
            1329     1.88596E-03     71.8493E-03         1.31097    -317.309E-03    -350.863E-03    -322.114E-03         1.29446    -329.542E-03     70.1581E-03     117.324E-03    -58.5488E-03    -58.7802E-03    -58.5864E-03     117.324E-03    -58.7425E-03     176.660E-06    -63.6732E+06    -71.1463E+06    -276.615E+06    -71.1563E+06    -276.605E+06    -63.6732E+06     673.595E+03         29.4022
            1330     2.83003E-03     71.8491E-03         1.33691    -322.685E-03    -367.006E-03    -353.663E-03         1.33227    -331.387E-03    -6.42518E-03     117.080E-03    -58.3797E-03    -58.7088E-03    -58.3782E-03     117.079E-03    -58.7088E-03     823.713E-06    -54.6244E+06    -67.4056E+06    -271.127E+06    -67.4077E+06    -271.125E+06    -54.6244E+06     283.449E+03         29.5445
            1331     3.77326E-03     71.8507E-03         1.33824    -330.622E-03    -366.963E-03    -358.250E-03         1.33656    -337.650E-03     42.0753E-03     117.163E-03    -58.4738E-03    -58.6993E-03    -58.4698E-03     117.158E-03    -58.6990E-03     1.68914E-03    -43.4792E+06    -63.1489E+06    -262.690E+06    -63.1537E+06    -262.686E+06    -43.4792E+06     783.479E+03         29.7621
            1332     4.71699E-03     71.8531E-03         1.33983    -334.070E-03    -366.073E-03    -357.661E-03         1.33913    -341.775E-03     1.72408E-03     117.321E-03    -58.5857E-03    -58.7476E-03    -58.5748E-03     117.310E-03    -58.7473E-03     2.69957E-03    -30.1107E+06    -57.8585E+06    -251.316E+06    -57.8705E+06    -251.304E+06    -30.1107E+06     1.25931E+06         30.0628
            1333     5.66017E-03     71.8562E-03         1.33113    -333.576E-03    -359.264E-03    -348.618E-03         1.33061    -343.706E-03    -29.0082E-03     117.373E-03    -58.5894E-03    -58.7975E-03    -58.5640E-03     117.348E-03    -58.7975E-03     4.15698E-03    -17.8031E+06    -52.0533E+06    -235.720E+06    -52.0975E+06    -235.675E+06    -17.8031E+06     2.47723E+06         30.4507
            1334     6.60309E-03     71.8619E-03         1.33581    -337.029E-03    -359.428E-03    -351.162E-03         1.33501    -344.493E-03     7.74434E-03     117.175E-03    -58.3792E-03    -58.8085E-03    -58.3264E-03     117.122E-03    -58.8085E-03     5.98313E-03    -9.51567E+06    -46.7005E+06    -214.426E+06    -46.8528E+06    -214.274E+06    -9.51567E+06     4.78943E+06         30.9339
            1335     7.54709E-03     71.8687E-03         1.35080    -340.908E-03    -369.144E-03    -363.498E-03         1.35019    -345.947E-03     15.0238E-03     117.041E-03    -58.3021E-03    -58.7467E-03    -58.1993E-03     116.939E-03    -58.7467E-03     8.37800E-03    -7.40144E+06    -41.7200E+06    -180.172E+06    -41.8678E+06    -180.024E+06    -7.40144E+06     4.39553E+06         31.5357
            1336     8.49009E-03     71.8798E-03         1.36136    -346.439E-03    -374.600E-03    -372.560E-03         1.36111    -348.229E-03    -14.6853E-03     117.126E-03    -58.4587E-03    -58.6706E-03    -58.2762E-03     116.943E-03    -58.6706E-03     11.2101E-03    -8.03792E+06    -38.1417E+06    -142.383E+06    -38.1838E+06    -142.341E+06    -8.03792E+06     1.88507E+06         32.3625
            1337     9.43394E-03     71.8932E-03         1.35554    -348.374E-03    -369.204E-03    -367.328E-03         1.35545    -350.164E-03     10.7323E-03     117.038E-03    -58.4073E-03    -58.6336E-03    -58.0163E-03     116.626E-03    -58.6127E-03     16.5373E-03    -7.11541E+06    -36.0731E+06    -105.378E+06    -36.1131E+06    -105.338E+06    -7.11541E+06     1.33257E+06         33.6697
            1338     10.3776E-03     71.9156E-03         1.36622    -351.761E-03    -376.482E-03    -376.430E-03         1.36617    -351.761E-03    -887.964E-06     116.689E-03    -58.1565E-03    -58.5413E-03    -57.5404E-03     116.047E-03    -58.5155E-03     21.1306E-03    -7.01042E+06    -32.0934E+06    -58.1986E+06    -33.4029E+06    -56.8890E+06    -7.01042E+06     1.42813E+06         35.6962
            1339     11.3214E-03     71.9375E-03         1.39157    -354.327E-03    -399.634E-03    -399.626E-03         1.39156    -354.327E-03    -4.83804E-03     116.657E-03    -58.1710E-03    -58.5029E-03    -57.3041E-03     115.672E-03    -58.3849E-03     25.8759E-03     18.1617E+06    -20.3623E+06    -32.4305E+06    -31.9519E+06     6.89392E+06    -9.57315E+06     1.05524E+06         38.4890
            1340     12.2663E-03     71.9718E-03         1.40207    -357.623E-03    -409.478E-03    -409.412E-03         1.40201    -357.623E-03     14.8971E-03     117.751E-03    -58.3481E-03    -59.4320E-03    -57.1996E-03     115.519E-03    -58.3481E-03     38.5840E-03     69.4996E+06     2.33871E+06    -31.6255E+06    -31.6062E+06     69.4803E+06     2.33871E+06     74.6620E+03         42.0041
            1341     13.2102E-03     72.0212E-03         1.39899    -360.335E-03    -405.970E-03    -405.895E-03         1.39891    -360.335E-03     21.4694E-03     120.659E-03    -58.4173E-03    -62.2829E-03    -56.9983E-03     115.374E-03    -58.4173E-03     60.0648E-03     97.9946E+06     26.9906E+06    -28.9158E+06    -28.9092E+06     97.9881E+06     26.9906E+06     156.860E+03         46.2089
            1342     14.1531E-03     72.1036E-03         1.40634    -362.197E-03    -415.998E-03    -415.907E-03         1.40625    -362.197E-03     15.3567E-03     131.838E-03    -58.5675E-03    -73.2956E-03    -57.5599E-03     116.103E-03    -58.5675E-03     105.679E-03     105.938E+06     61.4383E+06    -23.7169E+06    -23.6995E+06     105.920E+06     61.4383E+06     1.44515E+06         50.9996
            1343     15.1005E-03     72.2531E-03         1.41366    -363.370E-03    -426.277E-03    -426.142E-03         1.41353    -363.370E-03    -5.36986E-03     153.321E-03    -58.7423E-03    -94.5687E-03    -59.2264E-03     117.979E-03    -58.7423E-03     171.851E-03     118.968E+06     103.744E+06    -17.2689E+06    -17.2533E+06     118.953E+06     103.744E+06     1.27933E+06         55.8026
            1344     16.0412E-03     72.4937E-03         1.40048    -363.871E-03    -416.403E-03    -416.280E-03         1.40035    -363.871E-03    -1.92188E-03     150.270E-03    -58.8140E-03    -91.4645E-03    -58.8938E-03     117.700E-03    -58.8140E-03     162.324E-03     137.932E+06     133.119E+06    -9.22761E+06    -9.21149E+06     137.916E+06     133.119E+06     1.09740E+06         59.6631
            1345     942.975E-06     72.9730E-03         1.70397    -61.7756E-03        -1.01963     385.522E-03         1.20680    -969.761E-03    -521.503E-03     117.186E-03    -58.3097E-03    -58.8778E-03    -58.7531E-03     117.185E-03    -58.4332E-03     601.376E-06    -73.1067E+06    -76.5975E+06    -282.165E+06    -75.7175E+06    -282.146E+06    -74.0052E+06    -328.820E+03         29.3108
            1346     1.88698E-03     72.9726E-03         1.31956    -288.397E-03    -404.894E-03    -305.673E-03         1.22701    -295.070E-03     194.715E-03     117.219E-03    -58.4502E-03    -58.7744E-03    -58.5922E-03     117.218E-03    -58.6319E-03     283.384E-06    -66.2433E+06    -72.2877E+06    -276.789E+06    -72.2224E+06    -276.769E+06    -66.3295E+06     635.364E+03         29.4019
            1347     2.82975E-03     72.9720E-03         1.33387    -307.981E-03    -397.074E-03    -369.543E-03         1.30634    -307.981E-03    -111.617E-03     117.447E-03    -58.6105E-03    -58.8457E-03    -58.7456E-03     117.445E-03    -58.7089E-03     920.867E-06    -53.7148E+06    -68.5496E+06    -270.427E+06    -68.5585E+06    -270.418E+06    -53.7148E+06     796.326E+03         29.5514
            1348     3.77320E-03     72.9743E-03         1.31379    -322.577E-03    -368.463E-03    -357.356E-03         1.30268    -322.577E-03     32.9293E-03     117.305E-03    -58.5342E-03    -58.7825E-03    -58.5345E-03     117.301E-03    -58.7784E-03     1.55330E-03    -40.2268E+06    -63.9178E+06    -264.055E+06    -63.9278E+06    -264.045E+06    -40.2268E+06     1.28291E+06         29.7666
            1349     4.71638E-03     72.9758E-03         1.27682    -310.100E-03    -343.172E-03    -321.744E-03         1.27172    -326.428E-03    -68.9371E-03     117.278E-03    -58.4913E-03    -58.7979E-03    -58.4793E-03     117.266E-03    -58.7979E-03     2.75783E-03    -29.7857E+06    -59.3083E+06    -251.857E+06    -59.3427E+06    -251.823E+06    -29.7857E+06     2.11494E+06         30.0632
            1350     5.65959E-03     72.9804E-03         1.26854    -308.860E-03    -334.690E-03    -316.522E-03         1.26670    -325.188E-03    -27.7225E-03     117.299E-03    -58.5035E-03    -58.8069E-03    -58.4792E-03     117.275E-03    -58.8069E-03     4.09562E-03    -21.6625E+06    -54.6296E+06    -238.188E+06    -54.6942E+06    -238.123E+06    -21.6625E+06     3.04133E+06         30.4510
            1351     6.60342E-03     72.9845E-03         1.30142    -325.895E-03    -350.131E-03    -347.029E-03         1.29832    -325.895E-03     5.63401E-03     117.192E-03    -58.4031E-03    -58.7998E-03    -58.3499E-03     117.139E-03    -58.7998E-03     5.94833E-03    -14.5963E+06    -48.1347E+06    -216.194E+06    -48.2293E+06    -216.100E+06    -14.5963E+06     3.51455E+06         30.9357
            1352     7.54663E-03     72.9927E-03         1.30334    -328.300E-03    -346.725E-03    -344.721E-03         1.30134    -328.300E-03     46.5442E-03     117.150E-03    -58.4036E-03    -58.7531E-03    -58.2936E-03     117.040E-03    -58.7531E-03     8.67996E-03    -9.45790E+06    -41.3500E+06    -178.221E+06    -41.4398E+06    -178.132E+06    -9.45790E+06     3.07378E+06         31.5363
            1353     8.49037E-03     73.0033E-03         1.29208    -327.675E-03    -337.346E-03    -335.285E-03         1.29181    -329.465E-03    -15.2635E-03     116.990E-03    -58.3058E-03    -58.6848E-03    -58.1123E-03     116.797E-03    -58.6848E-03     11.5381E-03    -7.94001E+06    -37.3807E+06    -141.380E+06    -37.4588E+06    -141.302E+06    -7.94001E+06     2.76682E+06         32.3611
            1354     9.43341E-03     73.0171E-03         1.30463    -328.726E-03    -351.801E-03    -349.905E-03         1.30453    -330.516E-03    -4.53030E-03     116.864E-03    -58.2371E-03    -58.6265E-03    -57.8484E-03     116.456E-03    -58.6078E-03     16.5101E-03    -7.32719E+06    -35.3015E+06    -105.188E+06    -35.4167E+06    -105.073E+06    -7.32719E+06     2.66117E+06         33.6693
            1355     10.3781E-03     73.0375E-03         1.33175    -333.091E-03    -375.082E-03    -375.030E-03         1.33170    -333.091E-03    -14.0769E-03     116.865E-03    -58.3387E-03    -58.5331E-03    -57.7278E-03     116.230E-03    -58.5095E-03     21.0237E-03    -7.87701E+06    -31.5156E+06    -59.5033E+06    -34.0862E+06    -56.9327E+06    -7.87701E+06     2.18013E+06         35.6976
            1356     11.3217E-03     73.0627E-03         1.34528    -336.696E-03    -386.315E-03    -386.271E-03         1.34524    -336.696E-03    -11.3749E-03     116.711E-03    -58.3254E-03    -58.4020E-03    -57.3661E-03     115.743E-03    -58.3930E-03     25.6983E-03     17.8901E+06    -19.3129E+06    -32.6638E+06    -32.1253E+06     7.48759E+06    -9.44886E+06     1.93200E+06         38.4914
            1357     12.2652E-03     73.0932E-03         1.34697    -339.930E-03    -383.942E-03    -383.876E-03         1.34691    -339.930E-03    -4.21030E-03     117.607E-03    -58.3083E-03    -59.3334E-03    -56.9844E-03     115.300E-03    -58.3503E-03     38.9832E-03     70.2513E+06     2.72202E+06    -30.2450E+06    -30.1559E+06     70.1622E+06     2.72202E+06     2.21042E+06         42.0082
            1358     13.2092E-03     73.1475E-03         1.34715    -342.256E-03    -383.158E-03    -383.115E-03         1.34711    -342.256E-03     3.74153E-03     120.375E-03    -58.4064E-03    -62.0092E-03    -56.7614E-03     115.127E-03    -58.4064E-03     59.9726E-03     97.8110E+06     27.3921E+06    -29.3207E+06    -29.2600E+06     97.7502E+06     27.3921E+06     1.27874E+06         46.2154
            1359     14.1563E-03     73.2232E-03         1.35687    -344.070E-03    -397.244E-03    -397.099E-03         1.35673    -344.070E-03     19.2789E-03     132.504E-03    -58.5746E-03    -73.9532E-03    -58.2156E-03     116.767E-03    -58.5746E-03     105.921E-03     105.165E+06     61.7216E+06    -25.7743E+06    -25.7655E+06     105.156E+06     61.7216E+06     780.578E+03         51.0120
            1360     15.0963E-03     73.3828E-03         1.37298    -345.631E-03    -416.228E-03    -415.873E-03         1.37263    -345.631E-03    -4.92198E-03     154.070E-03    -58.7771E-03    -95.3110E-03    -59.8360E-03     118.595E-03    -58.7771E-03     172.668E-03     121.182E+06     104.022E+06    -18.1254E+06    -18.1181E+06     121.175E+06     104.022E+06     730.095E+03         55.8299
            1361     16.0440E-03     73.6124E-03         1.37421    -347.185E-03    -421.445E-03    -421.164E-03         1.37393    -347.185E-03    -33.8839E-03     149.974E-03    -58.8464E-03    -91.1261E-03    -58.3763E-03     117.224E-03    -58.8464E-03     162.593E-03     139.145E+06     133.118E+06    -8.77381E+06    -8.77346E+06     139.144E+06     133.118E+06     184.846E+03         59.7074
            1362     943.355E-06     74.0958E-03         2.23262    -445.444E-03        -1.17731     431.517E-03         1.20422        -1.02587        -1.00668     116.979E-03    -58.1842E-03    -58.7983E-03    -58.6741E-03     116.979E-03    -58.3077E-03     282.593E-06    -72.7414E+06    -76.2118E+06    -282.546E+06    -75.6964E+06    -282.541E+06    -73.2616E+06    -266.862E+03         29.3058
            1363     1.88707E-03     74.0947E-03         1.43385    -298.278E-03    -525.691E-03    -302.017E-03         1.21017    -298.278E-03     352.185E-03     117.294E-03    -58.4517E-03    -58.8493E-03    -58.7251E-03     117.294E-03    -58.5752E-03     468.669E-06    -66.4143E+06    -72.9806E+06    -277.089E+06    -72.9081E+06    -277.075E+06    -66.5004E+06     525.932E+03         29.4048
            1364     2.82990E-03     74.0972E-03         1.32008    -303.051E-03    -403.667E-03    -326.103E-03         1.24251    -303.051E-03    -151.749E-03     117.577E-03    -58.7148E-03    -58.8713E-03    -58.8657E-03     117.575E-03    -58.7192E-03     874.030E-06    -54.2675E+06    -69.5454E+06    -271.219E+06    -69.5646E+06    -271.199E+06    -54.2675E+06     1.74700E+06         29.5583
            1365     3.77258E-03     74.0964E-03         1.26734    -307.707E-03    -349.987E-03    -314.382E-03         1.23174    -307.707E-03     83.6230E-03     117.498E-03    -58.6844E-03    -58.8253E-03    -58.6842E-03     117.494E-03    -58.8212E-03     1.56229E-03    -40.7838E+06    -64.7489E+06    -265.477E+06    -64.7713E+06    -265.455E+06    -40.7838E+06     1.94993E+06         29.7727
            1366     4.71635E-03     74.1000E-03         1.24474    -300.092E-03    -334.229E-03    -310.927E-03         1.23007    -308.715E-03    -81.9661E-03     117.311E-03    -58.4785E-03    -58.8427E-03    -58.4658E-03     117.299E-03    -58.8427E-03     2.91515E-03    -30.8656E+06    -59.2655E+06    -252.692E+06    -59.3112E+06    -252.646E+06    -30.8656E+06     2.79991E+06         30.0646
            1367     5.65987E-03     74.1032E-03         1.23321    -297.891E-03    -319.515E-03    -302.907E-03         1.22712    -308.414E-03     20.8170E-03     117.178E-03    -58.3566E-03    -58.8302E-03    -58.3330E-03     117.155E-03    -58.8302E-03     4.01966E-03    -22.6165E+06    -53.3447E+06    -239.616E+06    -53.3995E+06    -239.561E+06    -22.6165E+06     3.07951E+06         30.4497
            1368     6.60312E-03     74.1082E-03         1.23387    -299.790E-03    -316.870E-03    -303.482E-03         1.22826    -307.570E-03     23.7526E-03     117.206E-03    -58.4143E-03    -58.7999E-03    -58.3571E-03     117.149E-03    -58.7999E-03     6.12731E-03    -16.5793E+06    -47.9892E+06    -215.544E+06    -48.0178E+06    -215.516E+06    -16.5793E+06     2.04225E+06         30.9349
            1369     7.54663E-03     74.1160E-03         1.24376    -301.780E-03    -325.851E-03    -316.210E-03         1.24000    -307.661E-03     80.4291E-03     117.082E-03    -58.3330E-03    -58.7535E-03    -58.2202E-03     116.969E-03    -58.7535E-03     8.82472E-03    -11.2592E+06    -43.5327E+06    -178.204E+06    -43.5651E+06    -178.172E+06    -11.2592E+06     1.85439E+06         31.5336
            1370     8.48999E-03     74.1268E-03         1.26564    -309.692E-03    -340.556E-03    -340.202E-03         1.26529    -309.692E-03    -3.22319E-03     116.829E-03    -58.1414E-03    -58.6847E-03    -57.9470E-03     116.635E-03    -58.6847E-03     11.5420E-03    -7.86771E+06    -39.2641E+06    -142.590E+06    -39.3694E+06    -142.485E+06    -7.86771E+06     3.05185E+06         32.3562
            1371     9.43474E-03     74.1398E-03         1.27843    -313.163E-03    -353.601E-03    -353.436E-03         1.27826    -313.163E-03     13.1320E-03     116.933E-03    -58.3151E-03    -58.6164E-03    -57.9257E-03     116.525E-03    -58.5978E-03     16.5549E-03    -7.81144E+06    -36.2318E+06    -105.391E+06    -36.4000E+06    -105.223E+06    -7.81144E+06     3.35747E+06         33.6668
            1372     10.3771E-03     74.1621E-03         1.28510    -316.855E-03    -360.341E-03    -360.246E-03         1.28500    -316.855E-03     1.75762E-03     116.889E-03    -58.3738E-03    -58.5217E-03    -57.7406E-03     116.237E-03    -58.5031E-03     21.2800E-03    -8.37621E+06    -29.9968E+06    -61.1262E+06    -34.8295E+06    -56.2934E+06    -8.37621E+06     3.25891E+06         35.6984
            1373     11.3211E-03     74.1853E-03         1.29067    -320.193E-03    -361.886E-03    -361.791E-03         1.29058    -320.193E-03     628.639E-06     116.553E-03    -58.1848E-03    -58.3839E-03    -57.1951E-03     115.563E-03    -58.3839E-03     25.9903E-03     17.3540E+06    -17.3822E+06    -34.1825E+06    -33.4257E+06     8.63015E+06    -9.41530E+06     3.06077E+06         38.4943
            1374     12.2662E-03     74.2171E-03         1.29688    -322.912E-03    -362.552E-03    -362.403E-03         1.29674    -322.912E-03     4.32621E-03     117.600E-03    -58.2411E-03    -59.3998E-03    -56.9266E-03     115.213E-03    -58.3270E-03     39.5834E-03     68.9723E+06     709.085E+03    -31.6843E+06    -31.5796E+06     68.8676E+06     709.085E+03     2.81033E+06         42.0127
            1375     13.2114E-03     74.2701E-03         1.31000    -325.349E-03    -373.951E-03    -373.817E-03         1.30987    -325.349E-03     12.1732E-03     120.650E-03    -58.3997E-03    -62.2945E-03    -57.1231E-03     115.479E-03    -58.3997E-03     59.9021E-03     99.1554E+06     28.1539E+06    -28.1176E+06    -27.9947E+06     99.0325E+06     28.1539E+06     2.86213E+06         46.2202
            1376     14.1528E-03     74.3481E-03         1.32076    -327.793E-03    -387.759E-03    -387.681E-03         1.32068    -327.793E-03     10.7551E-03     132.788E-03    -58.5829E-03    -74.2250E-03    -58.2046E-03     116.768E-03    -58.5829E-03     106.413E-03     107.857E+06     65.2042E+06    -23.8292E+06    -23.7610E+06     107.789E+06     65.2042E+06     1.26421E+06         51.0230
            1377     15.0998E-03     74.5079E-03         1.32700    -329.750E-03    -394.791E-03    -394.507E-03         1.32672    -329.750E-03    -15.1111E-03     153.692E-03    -58.7580E-03    -94.9727E-03    -59.2567E-03     117.976E-03    -58.7580E-03     173.088E-03     121.392E+06     105.235E+06    -16.7569E+06    -16.7470E+06     121.382E+06     105.235E+06    -534.829E+03         55.8599
            1378     16.0421E-03     74.7348E-03         1.34863    -331.706E-03    -413.239E-03    -412.952E-03         1.34834    -331.706E-03    -32.9826E-03     150.112E-03    -58.8218E-03    -91.2968E-03    -58.6693E-03     117.485E-03    -58.8218E-03     162.441E-03     138.904E+06     133.419E+06    -7.86435E+06    -7.85822E+06     138.898E+06     133.419E+06    -306.830E+03         59.7548
            1379     944.072E-06     75.2176E-03         2.81166    -803.123E-03        -1.40282     495.323E-03         1.24204        -1.13165        -1.46447     117.169E-03    -58.3909E-03    -58.7814E-03    -58.7811E-03     117.169E-03    -58.3909E-03     268.254E-06    -72.8517E+06    -75.8638E+06    -282.208E+06    -75.4494E+06    -282.188E+06    -73.2857E+06     289.726E+03         29.3191
            1380     1.88622E-03     75.2195E-03         1.58052    -307.720E-03    -679.095E-03    -265.117E-03         1.16655    -307.720E-03     523.831E-03     117.495E-03    -58.5963E-03    -58.9043E-03    -58.8246E-03     117.495E-03    -58.6755E-03     455.243E-06    -66.5431E+06    -73.7397E+06    -278.320E+06    -73.7527E+06    -278.307E+06    -66.5431E+06     1.28243E+06         29.4125
            1381     2.82971E-03     75.2193E-03         1.30967    -292.021E-03    -418.890E-03    -261.776E-03         1.15256    -292.021E-03    -195.787E-03     117.385E-03    -58.6208E-03    -58.7718E-03    -58.6346E-03     117.383E-03    -58.7565E-03     855.625E-06    -56.7849E+06    -69.5456E+06    -272.675E+06    -69.5622E+06    -272.658E+06    -56.7849E+06     1.62863E+06         29.5596
            1382     3.77330E-03     75.2212E-03         1.22189    -285.016E-03    -341.124E-03    -269.523E-03         1.15029    -285.016E-03     153.341E-03     117.534E-03    -58.7337E-03    -58.8112E-03    -58.7318E-03     117.530E-03    -58.8084E-03     1.73574E-03    -44.2142E+06    -64.4063E+06    -265.918E+06    -64.4307E+06    -265.894E+06    -44.2142E+06     2.16498E+06         29.7734
            1383     4.71573E-03     75.2226E-03         1.21861    -285.352E-03    -335.664E-03    -308.592E-03         1.19154    -285.352E-03    -75.2317E-03     117.369E-03    -58.5250E-03    -58.8552E-03    -58.5157E-03     117.357E-03    -58.8523E-03     2.82438E-03    -31.4855E+06    -58.0914E+06    -253.748E+06    -58.1118E+06    -253.727E+06    -31.4855E+06     1.93536E+06         30.0658
            1384     5.65942E-03     75.2267E-03         1.21056    -287.154E-03    -322.126E-03    -306.411E-03         1.19674    -289.053E-03     38.2539E-03     117.192E-03    -58.3474E-03    -58.8550E-03    -58.3196E-03     117.164E-03    -58.8550E-03     4.30399E-03    -20.8549E+06    -52.2661E+06    -240.803E+06    -52.3039E+06    -240.765E+06    -20.8549E+06     2.50042E+06         30.4495
            1385     6.60321E-03     75.2313E-03         1.19625    -282.817E-03    -309.609E-03    -293.057E-03         1.18748    -290.596E-03    -22.1309E-03     117.200E-03    -58.3927E-03    -58.8169E-03    -58.3338E-03     117.141E-03    -58.8169E-03     6.29967E-03    -14.8719E+06    -47.5708E+06    -213.978E+06    -47.6225E+06    -213.926E+06    -14.8719E+06     2.83098E+06         30.9329
            1386     7.54660E-03     75.2399E-03         1.19911    -285.387E-03    -311.275E-03    -300.520E-03         1.19423    -291.268E-03     37.8509E-03     116.903E-03    -58.1579E-03    -58.7497E-03    -58.0497E-03     116.794E-03    -58.7497E-03     8.61300E-03    -11.2756E+06    -44.0101E+06    -178.186E+06    -44.0520E+06    -178.144E+06    -11.2756E+06     2.32217E+06         31.5304
            1387     8.49078E-03     75.2491E-03         1.21661    -293.396E-03    -324.970E-03    -323.318E-03         1.21495    -293.396E-03    -39.2126E-03     116.843E-03    -58.1664E-03    -58.6748E-03    -57.9627E-03     116.639E-03    -58.6748E-03     11.7606E-03    -8.16774E+06    -40.8579E+06    -144.765E+06    -40.9495E+06    -144.674E+06    -8.16774E+06     2.80012E+06         32.3532
            1388     9.43337E-03     75.2643E-03         1.22898    -296.868E-03    -337.182E-03    -336.982E-03         1.22877    -296.868E-03     16.5216E-03     116.905E-03    -58.3123E-03    -58.5911E-03    -57.8968E-03     116.489E-03    -58.5911E-03     16.7644E-03    -6.96199E+06    -36.8282E+06    -105.499E+06    -36.9952E+06    -105.332E+06    -6.96199E+06     3.29716E+06         33.6660
            1389     10.3782E-03     75.2848E-03         1.23479    -300.421E-03    -341.056E-03    -340.921E-03         1.23466    -300.421E-03     11.7200E-03     116.651E-03    -58.1724E-03    -58.4853E-03    -57.5170E-03     115.995E-03    -58.4853E-03     21.3041E-03    -7.16124E+06    -29.8825E+06    -59.8869E+06    -33.2950E+06    -56.4744E+06    -7.16124E+06     3.61443E+06         35.7001
            1390     11.3226E-03     75.3091E-03         1.23739    -303.439E-03    -340.805E-03    -340.659E-03         1.23725    -303.439E-03     9.68909E-03     116.558E-03    -58.1334E-03    -58.4399E-03    -57.2467E-03     115.585E-03    -58.3537E-03     25.8206E-03     18.1764E+06    -17.8266E+06    -33.6667E+06    -32.0430E+06     7.93370E+06    -9.20771E+06     3.68359E+06         38.4977
            1391     12.2663E-03     75.3392E-03         1.25348    -306.223E-03    -351.810E-03    -351.601E-03         1.25327    -306.223E-03     14.7572E-03     117.838E-03    -58.2730E-03    -59.5997E-03    -57.1837E-03     115.466E-03    -58.3169E-03     39.4078E-03     71.0807E+06     2.93293E+06    -30.8035E+06    -30.6782E+06     70.9554E+06     2.93293E+06     3.12555E+06         42.0164
            1392     13.2092E-03     75.3951E-03         1.27933    -309.478E-03    -372.990E-03    -372.802E-03         1.27914    -309.478E-03     23.1012E-03     120.983E-03    -58.3869E-03    -62.6381E-03    -57.3566E-03     115.702E-03    -58.3869E-03     60.5774E-03     100.408E+06     26.7567E+06    -27.5522E+06    -27.4232E+06     100.279E+06     26.7567E+06     2.54732E+06         46.2233
            1393     14.1548E-03     75.4723E-03         1.29094    -312.886E-03    -383.527E-03    -383.494E-03         1.29091    -312.886E-03     5.39083E-03     132.197E-03    -58.5527E-03    -73.6714E-03    -57.7851E-03     116.311E-03    -58.5527E-03     105.856E-03     109.793E+06     62.9658E+06    -21.4407E+06    -21.3323E+06     109.685E+06     62.9658E+06     1.80691E+06         51.0327
            1394     15.0985E-03     75.6292E-03         1.29413    -315.456E-03    -385.296E-03    -385.247E-03         1.29409    -315.456E-03    -6.39157E-03     153.310E-03    -58.7266E-03    -94.6108E-03    -58.8056E-03     117.505E-03    -58.7266E-03     172.887E-03     121.986E+06     105.571E+06    -15.5641E+06    -15.5193E+06     121.941E+06     105.571E+06     425.041E+03         55.8889
            1395     16.0460E-03     75.8610E-03         1.31172    -317.665E-03    -396.209E-03    -396.156E-03         1.31167    -317.665E-03    -12.8518E-03     150.321E-03    -58.7853E-03    -91.5403E-03    -58.9938E-03     117.775E-03    -58.7853E-03     162.071E-03     137.990E+06     131.762E+06    -9.45745E+06    -9.44714E+06     137.979E+06     131.762E+06    -719.482E+03         59.8008
            1396     942.729E-06     76.3419E-03         3.36243        -1.03031        -1.74666     535.293E-03         1.19309        -1.14292        -1.93919     117.683E-03    -58.5757E-03    -59.1097E-03    -58.9737E-03     117.681E-03    -58.7104E-03     763.135E-06    -73.1604E+06    -75.1930E+06    -282.685E+06    -75.2176E+06    -282.661E+06    -73.1604E+06     639.623E+03         29.3388
            1397     1.88631E-03     76.3427E-03         1.76517    -290.376E-03    -889.252E-03    -235.408E-03         1.11132    -290.376E-03     665.875E-03     117.498E-03    -58.5730E-03    -58.9285E-03    -58.6602E-03     117.497E-03    -58.8411E-03     278.446E-06    -67.1748E+06    -72.6110E+06    -279.057E+06    -72.6257E+06    -279.042E+06    -67.1748E+06     1.33481E+06         29.4189
            1398     2.82964E-03     76.3425E-03         1.37008    -272.069E-03    -511.404E-03    -244.757E-03         1.10344    -272.069E-03    -290.098E-03     117.339E-03    -58.5364E-03    -58.8099E-03    -58.5345E-03     117.337E-03    -58.8099E-03     826.171E-06    -57.5574E+06    -69.3975E+06    -273.498E+06    -69.4094E+06    -273.486E+06    -57.5574E+06     1.46183E+06         29.5567
            1399     3.77273E-03     76.3444E-03         1.22838    -266.973E-03    -382.287E-03    -262.737E-03         1.10883    -266.973E-03     185.011E-03     117.257E-03    -58.4656E-03    -58.8018E-03    -58.4632E-03     117.251E-03    -58.7990E-03     1.88614E-03    -45.6798E+06    -65.0165E+06    -266.149E+06    -65.0306E+06    -266.135E+06    -45.6798E+06     1.67628E+06         29.7682
            1400     4.71641E-03     76.3466E-03         1.18501    -268.517E-03    -335.552E-03    -289.443E-03         1.13890    -268.517E-03    -131.043E-03     117.298E-03    -58.4664E-03    -58.8437E-03    -58.4809E-03     117.285E-03    -58.8163E-03     2.90375E-03    -32.4628E+06    -59.8223E+06    -254.526E+06    -59.8449E+06    -254.503E+06    -32.4628E+06     1.93745E+06         30.0645
            1401     5.66002E-03     76.3488E-03         1.17426    -272.560E-03    -318.303E-03    -296.391E-03         1.15234    -272.560E-03     14.1734E-03     117.322E-03    -58.4673E-03    -58.8676E-03    -58.4608E-03     117.291E-03    -58.8431E-03     4.57676E-03    -20.2728E+06    -54.2837E+06    -241.616E+06    -54.3236E+06    -241.576E+06    -20.2728E+06     2.49513E+06         30.4504
            1402     6.60290E-03     76.3558E-03         1.18189    -276.498E-03    -321.555E-03    -304.738E-03         1.16507    -276.498E-03    -35.3133E-03     117.082E-03    -58.2860E-03    -58.8071E-03    -58.2247E-03     117.021E-03    -58.8071E-03     6.46796E-03    -14.7425E+06    -48.6692E+06    -214.318E+06    -48.7173E+06    -214.270E+06    -14.7425E+06     2.64122E+06         30.9328
            1403     7.54679E-03     76.3618E-03         1.17273    -279.592E-03    -306.885E-03    -298.270E-03         1.16412    -279.592E-03     68.1232E-03     117.010E-03    -58.2382E-03    -58.7753E-03    -58.1676E-03     116.901E-03    -58.7363E-03     8.67393E-03    -11.2593E+06    -43.7757E+06    -177.793E+06    -43.8307E+06    -177.739E+06    -11.2593E+06     2.64375E+06         31.5317
            1404     8.49036E-03     76.3731E-03         1.16389    -281.413E-03    -297.202E-03    -295.234E-03         1.16192    -281.413E-03    -39.7282E-03     116.831E-03    -58.1176E-03    -58.7113E-03    -57.9606E-03     116.635E-03    -58.6722E-03     11.5539E-03    -7.54426E+06    -39.6304E+06    -145.387E+06    -39.6974E+06    -145.320E+06    -7.54426E+06     2.57668E+06         32.3559
            1405     9.43481E-03     76.3874E-03         1.16838    -283.051E-03    -304.204E-03    -303.682E-03         1.16786    -283.051E-03     3.52363E-03     116.735E-03    -58.1028E-03    -58.6297E-03    -57.7336E-03     116.318E-03    -58.5816E-03     16.6899E-03    -6.34730E+06    -35.8536E+06    -105.814E+06    -36.0370E+06    -105.630E+06    -6.34730E+06     3.12973E+06         33.6685
            1406     10.3780E-03     76.4079E-03         1.18051    -285.243E-03    -316.208E-03    -315.896E-03         1.18020    -285.243E-03    -10.4047E-03     116.798E-03    -58.2677E-03    -58.5355E-03    -57.7052E-03     116.177E-03    -58.4770E-03     20.7999E-03    -7.23572E+06    -31.3727E+06    -59.8085E+06    -33.6914E+06    -57.4898E+06    -7.23572E+06     3.42709E+06         35.7026
            1407     11.3218E-03     76.4322E-03         1.20029    -288.208E-03    -333.339E-03    -333.202E-03         1.20015    -288.208E-03    -109.972E-06     116.764E-03    -58.2762E-03    -58.5013E-03    -57.4781E-03     115.829E-03    -58.3650E-03     25.2186E-03     18.8026E+06    -18.7498E+06    -33.1635E+06    -31.7455E+06     7.34793E+06    -8.71311E+06     3.74587E+06         38.4998
            1408     12.2658E-03     76.4636E-03         1.22982    -292.065E-03    -354.017E-03    -353.850E-03         1.22965    -292.065E-03     3.54147E-03     117.949E-03    -58.3394E-03    -59.6427E-03    -57.3167E-03     115.623E-03    -58.3394E-03     39.1224E-03     72.4042E+06     3.47461E+06    -30.1019E+06    -29.8929E+06     72.1952E+06     3.47461E+06     4.27543E+06         42.0181
            1409     13.2112E-03     76.5181E-03         1.24153    -296.133E-03    -359.861E-03    -359.582E-03         1.24125    -296.133E-03    -2.68466E-03     120.540E-03    -58.3927E-03    -62.1869E-03    -56.8670E-03     115.220E-03    -58.3927E-03     60.4587E-03     101.328E+06     26.1930E+06    -27.7816E+06    -27.6978E+06     101.244E+06     26.1930E+06     2.01708E+06         46.2255
            1410     14.1533E-03     76.5977E-03         1.24635    -299.526E-03    -363.211E-03    -362.995E-03         1.24614    -299.526E-03    -10.3641E-03     131.581E-03    -58.5233E-03    -73.0958E-03    -57.3248E-03     115.810E-03    -58.5233E-03     105.499E-03     110.109E+06     61.4223E+06    -22.5642E+06    -22.5149E+06     110.060E+06     61.4223E+06     728.205E+03         51.0426
            1411     15.1002E-03     76.7497E-03         1.26315    -302.335E-03    -379.130E-03    -378.977E-03         1.26300    -302.335E-03    -7.44404E-03     153.690E-03    -58.6898E-03    -95.0216E-03    -58.9401E-03     117.609E-03    -58.6898E-03     173.600E-03     123.296E+06     105.594E+06    -14.4598E+06    -14.3958E+06     123.232E+06     105.594E+06     1.78404E+06         55.9168
            1412     16.0430E-03     76.9863E-03         1.27030    -305.133E-03    -387.685E-03    -387.511E-03         1.27012    -305.133E-03    -12.7272E-03     150.911E-03    -58.7638E-03    -92.1485E-03    -59.2782E-03     118.041E-03    -58.7638E-03     162.971E-03     139.579E+06     133.237E+06    -6.98928E+06    -6.96029E+06     139.550E+06     133.237E+06     616.400E+03         59.8454
            1413     942.731E-06     77.4656E-03         3.85328        -1.08125        -2.20742     566.277E-03         1.07958        -1.08125        -2.42869     117.837E-03    -58.7095E-03    -59.1311E-03    -58.9503E-03     117.835E-03    -58.8888E-03     856.161E-06    -74.2358E+06    -77.4255E+06    -283.400E+06    -76.2029E+06    -283.390E+06    -75.4682E+06     523.890E+03         29.3464
            1414     1.88606E-03     77.4657E-03         1.94319    -253.904E-03        -1.12134    -239.142E-03         1.06099    -253.904E-03     785.899E-03     117.495E-03    -58.6060E-03    -58.8938E-03    -58.6055E-03     117.495E-03    -58.8938E-03     443.509E-06    -68.1267E+06    -73.6046E+06    -279.782E+06    -73.6104E+06    -279.776E+06    -68.1267E+06     708.566E+03         29.4210
            1415     2.82928E-03     77.4661E-03         1.46860    -252.732E-03    -642.976E-03    -267.889E-03         1.09351    -252.732E-03    -357.477E-03     117.329E-03    -58.5012E-03    -58.8348E-03    -58.4993E-03     117.327E-03    -58.8348E-03     955.147E-06    -56.6529E+06    -69.7958E+06    -274.158E+06     -69.814E+06    -274.139E+06    -56.6529E+06     1.52584E+06         29.5556
            1416     3.77302E-03     77.4673E-03         1.26229    -256.315E-03    -436.521E-03    -264.871E-03         1.09064    -256.315E-03     237.811E-03     117.128E-03    -58.3311E-03    -58.8086E-03    -58.3264E-03     117.123E-03    -58.8086E-03     1.76399E-03    -43.2202E+06    -64.8302E+06    -266.806E+06    -64.8577E+06    -266.778E+06    -43.2202E+06     2.26456E+06         29.7655
            1417     4.71700E-03     77.4691E-03         1.16641    -257.976E-03    -338.122E-03    -264.150E-03         1.09244    -257.976E-03    -129.217E-03     117.277E-03    -58.4615E-03    -58.8293E-03    -58.4737E-03     117.265E-03    -58.8048E-03     2.84790E-03    -31.0341E+06    -59.4828E+06    -254.964E+06    -59.5158E+06    -254.931E+06    -31.0341E+06     2.45179E+06         30.0626
            1418     5.65938E-03     77.4738E-03         1.14295    -259.670E-03    -310.385E-03    -273.103E-03         1.10567    -259.670E-03     58.0873E-03     117.298E-03    -58.4606E-03    -58.8496E-03    -58.4598E-03     117.272E-03    -58.8250E-03     4.16542E-03    -19.9220E+06    -53.9503E+06    -241.247E+06    -53.9754E+06    -241.221E+06    -19.9220E+06     2.03275E+06         30.4504
            1419     6.60369E-03     77.4772E-03         1.14172    -262.256E-03    -306.283E-03    -283.746E-03         1.11918    -262.256E-03    -33.6043E-03     117.069E-03    -58.2875E-03    -58.7905E-03    -58.2293E-03     117.011E-03    -58.7905E-03     6.21447E-03    -14.8298E+06    -48.4525E+06    -214.884E+06    -48.4665E+06    -214.869E+06    -14.8298E+06     1.47258E+06         30.9350
            1420     7.54730E-03     77.4864E-03         1.13630    -265.110E-03    -298.329E-03    -287.972E-03         1.12594    -265.110E-03     105.537E-03     117.090E-03    -58.3280E-03    -58.7619E-03    -58.2522E-03     116.975E-03    -58.7229E-03     8.88701E-03    -12.0867E+06    -43.1664E+06    -178.618E+06    -43.1973E+06    -178.587E+06    -12.0867E+06     1.82188E+06         31.5359
            1421     8.48974E-03     77.4965E-03         1.13832    -267.882E-03    -296.498E-03    -294.722E-03         1.13655    -267.882E-03    -12.8951E-03     116.938E-03    -58.1912E-03    -58.7450E-03    -58.0806E-03     116.754E-03    -58.6716E-03     11.2857E-03    -7.90419E+06    -38.6098E+06    -145.438E+06    -38.6670E+06    -145.381E+06    -7.90419E+06     2.25603E+06         32.3610
            1422     9.43421E-03     77.5089E-03         1.13603    -270.287E-03    -293.236E-03    -292.346E-03         1.13514    -270.287E-03     24.2215E-03     116.882E-03    -58.2018E-03    -58.6785E-03    -57.8708E-03     116.468E-03    -58.5960E-03     16.5113E-03    -6.68899E+06    -35.6620E+06    -107.018E+06    -35.8175E+06    -106.863E+06    -6.68899E+06     2.90594E+06         33.6724
            1423     10.3780E-03     77.5335E-03         1.14631    -272.639E-03    -305.265E-03    -305.027E-03         1.14608    -272.639E-03    -9.73584E-03     116.927E-03    -58.3630E-03    -58.5632E-03    -57.8092E-03     116.315E-03    -58.5048E-03     20.6849E-03    -6.70047E+06    -30.4974E+06    -60.7744E+06    -33.5849E+06    -57.6869E+06    -6.70047E+06     3.58028E+06         35.7050
            1424     11.3213E-03     77.5542E-03         1.17154    -275.986E-03    -327.011E-03    -326.952E-03         1.17148    -275.986E-03     6.63035E-03     116.804E-03    -58.3359E-03    -58.4799E-03    -57.4529E-03     115.839E-03    -58.3985E-03     25.4910E-03     18.7089E+06    -17.6922E+06    -32.8736E+06    -31.4209E+06     7.25430E+06    -7.69038E+06     4.39110E+06         38.5018
            1425     12.2655E-03     77.5886E-03         1.19243    -280.131E-03    -342.564E-03    -342.175E-03         1.19204    -280.131E-03     27.8553E-03     117.808E-03    -58.3499E-03    -59.4960E-03    -57.0531E-03     115.365E-03    -58.3499E-03     40.1212E-03     71.6656E+06     2.65867E+06    -29.3469E+06    -29.1185E+06     71.4371E+06     2.65867E+06     4.38510E+06         42.0205
            1426     13.2078E-03     77.6413E-03         1.20273    -284.220E-03    -348.899E-03    -348.352E-03         1.20218    -284.220E-03     8.28053E-03     120.147E-03    -58.3903E-03    -61.7999E-03    -56.4415E-03     114.789E-03    -58.3903E-03     60.6193E-03     103.290E+06     28.3073E+06    -26.1833E+06    -26.0906E+06     103.197E+06     28.3073E+06     3.23024E+06         46.2294
            1427     14.1569E-03     77.7188E-03         1.21142    -287.841E-03    -355.747E-03    -355.457E-03         1.21113    -287.841E-03    -4.33658E-03     131.574E-03    -58.5173E-03    -73.0947E-03    -57.2529E-03     115.732E-03    -58.5173E-03     105.693E-03     111.863E+06     65.0459E+06    -22.9288E+06    -22.8852E+06     111.819E+06     65.0459E+06     1.54449E+06         51.0536
            1428     15.0997E-03     77.8753E-03         1.21916    -290.894E-03    -364.687E-03    -364.411E-03         1.21888    -290.894E-03    -6.05828E-03     153.671E-03    -58.6774E-03    -95.0020E-03    -59.3622E-03     118.031E-03    -58.6774E-03     172.826E-03     123.361E+06     105.261E+06    -17.7399E+06    -17.6908E+06     123.312E+06     105.261E+06     424.204E+03         55.9452
            1429     16.0473E-03     78.1081E-03         1.22570    -293.665E-03    -372.215E-03    -371.982E-03         1.22547    -293.665E-03    -10.6264E-03     150.577E-03    -58.7659E-03    -91.8000E-03    -59.2540E-03     118.031E-03    -58.7659E-03     162.371E-03     140.034E+06     132.478E+06    -9.16084E+06    -9.12257E+06     139.996E+06     132.478E+06     132.000E+03         59.8910
            1430     943.263E-06     78.5893E-03         4.29235        -1.02627        -2.71834     595.922E-03     978.088E-03        -1.02627        -2.78626     117.553E-03    -58.6715E-03    -58.8845E-03    -58.8387E-03     117.551E-03    -58.7161E-03     640.923E-06    -74.6960E+06    -79.1157E+06    -284.190E+06    -77.8889E+06    -284.184E+06    -75.9283E+06     150.474E+03         29.3394
            1431     1.88635E-03     78.5890E-03         2.12845    -222.972E-03        -1.35511    -253.590E-03         1.02693    -222.972E-03     936.966E-03     117.471E-03    -58.6637E-03    -58.8134E-03    -58.6715E-03     117.470E-03    -58.8048E-03     526.155E-06    -67.7633E+06    -75.7087E+06    -281.308E+06    -75.7256E+06    -281.291E+06    -67.7633E+06     1.06460E+06         29.4188
            1432     2.82967E-03     78.5897E-03         1.54537    -237.156E-03    -751.285E-03    -276.352E-03         1.07044    -237.156E-03    -419.629E-03     117.385E-03    -58.5749E-03    -58.8190E-03    -58.5841E-03     117.384E-03    -58.8086E-03     873.075E-06    -55.9371E+06    -71.3924E+06    -275.140E+06    -71.4185E+06    -275.114E+06    -55.9371E+06     1.58198E+06         29.5574
            1433     3.77315E-03     78.5899E-03         1.27574    -244.018E-03    -475.528E-03    -246.772E-03         1.04698    -244.018E-03     268.047E-03     117.369E-03    -58.5454E-03    -58.8362E-03    -58.5515E-03     117.365E-03    -58.8258E-03     1.51953E-03    -43.3015E+06    -65.8639E+06    -267.737E+06    -65.8999E+06    -267.701E+06    -43.3015E+06     2.34421E+06         29.7679
            1434     4.71577E-03     78.5933E-03         1.15742    -244.790E-03    -355.817E-03    -249.373E-03         1.05098    -244.790E-03    -128.182E-03     117.203E-03    -58.3839E-03    -58.8321E-03    -58.3719E-03     117.191E-03    -58.8321E-03     2.83444E-03    -31.8211E+06    -60.0084E+06    -255.414E+06    -60.0400E+06    -255.383E+06    -31.8211E+06     2.31719E+06         30.0615
            1435     5.66026E-03     78.5962E-03         1.12166    -246.589E-03    -317.622E-03    -263.209E-03         1.06724    -246.589E-03     95.6388E-03     117.172E-03    -58.3639E-03    -58.8208E-03    -58.3387E-03     117.147E-03    -58.8208E-03     4.12551E-03    -21.6357E+06    -53.8789E+06    -240.897E+06    -53.8912E+06    -240.884E+06    -21.6357E+06     1.44950E+06         30.4490
            1436     6.60306E-03     78.6012E-03         1.10402    -249.397E-03    -296.457E-03    -270.071E-03         1.07763    -249.397E-03    -69.1630E-03     117.292E-03    -58.5074E-03    -58.7942E-03    -58.4507E-03     117.236E-03    -58.7942E-03     6.16620E-03    -15.4640E+06    -48.3311E+06    -213.840E+06    -48.3387E+06    -213.833E+06    -15.4640E+06     1.02060E+06         30.9371
            1437     7.54623E-03     78.6093E-03         1.08889    -251.852E-03    -278.949E-03    -268.666E-03         1.07861    -251.852E-03     85.8958E-03     116.971E-03    -58.2357E-03    -58.7368E-03    -58.1301E-03     116.866E-03    -58.7368E-03     8.52071E-03    -12.7925E+06    -43.7167E+06    -179.032E+06    -43.7230E+06    -179.026E+06    -12.7925E+06     826.300E+03         31.5398
            1438     8.49149E-03     78.6198E-03         1.09573    -254.248E-03    -282.645E-03    -280.386E-03         1.09347    -254.248E-03    -28.1709E-03     117.001E-03    -58.2878E-03    -58.7117E-03    -58.1336E-03     116.813E-03    -58.6772E-03     11.3566E-03    -9.38082E+06    -39.6811E+06    -146.423E+06    -39.7186E+06    -146.386E+06    -9.38082E+06     1.67197E+06         32.3651
            1439     9.43328E-03     78.6338E-03         1.11671    -257.576E-03    -298.967E-03    -298.255E-03         1.11600    -257.576E-03     24.6280E-03     117.132E-03    -58.4764E-03    -58.6538E-03    -58.0964E-03     116.717E-03    -58.6193E-03     16.6618E-03    -7.16868E+06    -36.2280E+06    -108.419E+06    -36.3385E+06    -108.308E+06    -7.16868E+06     2.60437E+06         33.6760
            1440     10.3773E-03     78.6552E-03         1.13357    -261.725E-03    -312.725E-03    -312.557E-03         1.13340    -261.725E-03    -2.19245E-03     116.747E-03    -58.2238E-03    -58.5256E-03    -57.5816E-03     116.105E-03    -58.5256E-03     21.1186E-03    -6.95490E+06    -30.2135E+06    -61.7340E+06    -32.7627E+06    -59.1848E+06    -6.95490E+06     3.54817E+06         35.7079
            1441     11.3217E-03     78.6795E-03         1.13547    -265.812E-03    -313.831E-03    -313.731E-03         1.13537    -265.812E-03     8.36775E-03     116.731E-03    -58.2234E-03    -58.5250E-03    -57.3723E-03     115.761E-03    -58.4054E-03     25.7177E-03     17.5932E+06    -16.5154E+06    -31.4189E+06    -29.4542E+06     6.21526E+06    -7.10211E+06     4.18747E+06         38.5049
            1442     12.2658E-03     78.7099E-03         1.13797    -269.280E-03    -315.983E-03    -315.599E-03         1.13758    -269.280E-03     24.4633E-03     117.465E-03    -58.3469E-03    -59.1573E-03    -56.7666E-03     115.074E-03    -58.3469E-03     39.4869E-03     72.2479E+06     4.73305E+06    -27.1923E+06    -26.9886E+06     72.0442E+06     4.73305E+06     4.35047E+06         42.0245
            1443     13.2133E-03     78.7660E-03         1.16309    -272.925E-03    -339.333E-03    -338.949E-03         1.16271    -272.925E-03     16.3287E-03     119.988E-03    -58.3722E-03    -61.6571E-03    -56.4393E-03     114.770E-03    -58.3722E-03     59.8866E-03     104.632E+06     29.3187E+06    -24.9552E+06    -24.8227E+06     104.500E+06     29.3187E+06     4.10615E+06         46.2344
            1444     14.1538E-03     78.8406E-03         1.18514    -277.106E-03    -357.146E-03    -357.030E-03         1.18502    -277.106E-03    -1.71062E-03     132.004E-03    -58.5211E-03    -73.5137E-03    -57.8595E-03     116.350E-03    -58.5211E-03     105.159E-03     113.305E+06     65.7447E+06    -21.6192E+06    -21.4773E+06     113.163E+06     65.7447E+06     4.04311E+06         51.0643
            1445     15.1003E-03     79.0001E-03         1.18573    -280.651E-03    -353.528E-03    -353.335E-03         1.18554    -280.651E-03    -9.38724E-03     153.772E-03    -58.7081E-03    -95.0626E-03    -59.4560E-03     118.166E-03    -58.7081E-03     172.750E-03     126.161E+06     106.703E+06    -16.6857E+06    -16.5682E+06     126.043E+06     106.703E+06     2.20398E+06         55.9737
            1446     16.0401E-03     79.2313E-03         1.19647    -283.606E-03    -361.132E-03    -361.002E-03         1.19634    -283.606E-03    -15.1282E-03     150.519E-03    -58.7870E-03    -91.7040E-03    -58.9357E-03     117.751E-03    -58.7870E-03     162.903E-03     141.088E+06     132.966E+06    -9.00194E+06    -8.96697E+06     141.053E+06     132.966E+06    -659.287E+03         59.9393
            1447     943.283E-06     79.7129E-03         4.69325    -983.407E-03        -3.17762     542.890E-03     972.739E-03    -983.407E-03        -3.11636     117.348E-03    -58.5142E-03    -58.8355E-03    -58.8343E-03     117.346E-03    -58.5142E-03     545.961E-06    -75.4756E+06    -80.5592E+06    -286.462E+06    -79.9469E+06    -286.452E+06    -76.0981E+06     1.11827E+06         29.3285
            1448     1.88651E-03     79.7123E-03         2.31324    -223.697E-03        -1.55212    -236.403E-03     997.530E-03    -223.697E-03         1.04060     117.462E-03    -58.6825E-03    -58.7851E-03    -58.7271E-03     117.462E-03    -58.7402E-03     152.734E-06    -67.3414E+06    -76.5536E+06    -282.684E+06    -76.5749E+06    -282.662E+06    -67.3414E+06     1.62922E+06         29.4150
            1449     2.82978E-03     79.7129E-03         1.61717    -229.421E-03    -842.712E-03    -244.725E-03         1.01919    -229.421E-03    -504.300E-03     117.498E-03    -58.6995E-03    -58.8072E-03    -58.7086E-03     117.497E-03    -58.7968E-03     771.348E-06    -56.5634E+06    -72.0545E+06    -276.478E+06    -72.0902E+06    -276.443E+06    -56.5634E+06     2.27783E+06         29.5588
            1450     3.77238E-03     79.7139E-03         1.30731    -233.242E-03    -531.146E-03    -243.447E-03         1.01962    -233.242E-03     270.037E-03     117.455E-03    -58.6163E-03    -58.8493E-03    -58.6219E-03     117.450E-03    -58.8389E-03     1.65509E-03    -44.6237E+06    -67.2864E+06    -268.781E+06    -67.3207E+06    -268.747E+06    -44.6237E+06     2.16610E+06         29.7708
            1451     4.71648E-03     79.7161E-03         1.15623    -235.442E-03    -380.638E-03    -244.781E-03         1.02037    -235.442E-03    -188.604E-03     117.239E-03    -58.3975E-03    -58.8511E-03    -58.3867E-03     117.228E-03    -58.8511E-03     2.70928E-03    -32.7057E+06    -61.6779E+06    -254.648E+06    -61.7020E+06    -254.624E+06    -32.7057E+06     1.93910E+06         30.0635
            1452     5.65970E-03     79.7189E-03         1.08268    -236.803E-03    -305.523E-03    -242.166E-03         1.01933    -236.803E-03     101.722E-03     117.196E-03    -58.3658E-03    -58.8399E-03    -58.3396E-03     117.169E-03    -58.8399E-03     4.16759E-03    -22.2862E+06    -55.4802E+06    -239.518E+06    -55.4938E+06    -239.504E+06    -22.2862E+06     675.658E+03         30.4493
            1453     6.60325E-03     79.7256E-03         1.07387    -238.674E-03    -290.949E-03    -259.296E-03         1.04222    -238.674E-03    -62.8726E-03     117.214E-03    -58.4194E-03    -58.8040E-03    -58.3595E-03     117.154E-03    -58.8040E-03     6.37814E-03    -16.7047E+06    -49.1412E+06    -213.790E+06    -49.1500E+06    -213.781E+06    -16.7047E+06    -268.934E+03         30.9371
            1454     7.54676E-03     79.7321E-03         1.06796    -241.682E-03    -280.683E-03    -267.384E-03         1.05466    -241.682E-03     92.5791E-03     117.219E-03    -58.3756E-03    -58.8500E-03    -58.3618E-03     117.113E-03    -58.7577E-03     8.57163E-03    -13.1530E+06    -43.9988E+06    -179.067E+06    -44.0059E+06    -179.060E+06    -13.1530E+06     340.339E+03         31.5418
            1455     8.48933E-03     79.7427E-03         1.07061    -244.992E-03    -279.834E-03    -277.016E-03         1.06779    -244.992E-03    -43.9179E-03     117.051E-03    -58.2467E-03    -58.8029E-03    -58.1503E-03     116.862E-03    -58.7105E-03     11.3526E-03    -9.87995E+06    -40.0382E+06    -147.171E+06    -40.0670E+06    -147.142E+06    -9.87995E+06     1.58335E+06         32.3682
            1456     9.43426E-03     79.7581E-03         1.08760    -248.843E-03    -292.879E-03    -291.876E-03         1.08660    -248.843E-03    -1.38299E-03     116.832E-03    -58.1976E-03    -58.6319E-03    -57.8026E-03     116.437E-03    -58.6319E-03     16.3000E-03    -8.38411E+06    -36.7110E+06    -109.025E+06    -36.7914E+06    -108.944E+06    -8.38411E+06     2.14935E+06         33.6786
            1457     10.3776E-03     79.7777E-03         1.09625    -252.896E-03    -297.985E-03    -297.369E-03         1.09564    -252.896E-03    -19.7017E-03     116.711E-03    -58.1987E-03    -58.5209E-03    -57.5553E-03     116.068E-03    -58.5209E-03     21.1083E-03    -8.80613E+06    -32.4923E+06    -62.4949E+06    -34.0246E+06    -60.9626E+06    -8.80613E+06     2.77861E+06         35.7106
            1458     11.3219E-03     79.8030E-03         1.10346    -256.759E-03    -305.480E-03    -305.329E-03         1.10331    -256.759E-03     3.98626E-03     116.832E-03    -58.2509E-03    -58.5983E-03    -57.4619E-03     115.846E-03    -58.4017E-03     26.0049E-03     16.0325E+06    -18.9125E+06    -33.0306E+06    -31.0781E+06     4.22445E+06    -9.05687E+06     3.37938E+06         38.5079
            1459     12.2652E-03     79.8342E-03         1.11356    -260.657E-03    -315.718E-03    -315.545E-03         1.11339    -260.657E-03     5.21447E-03     117.674E-03    -58.3625E-03    -59.3436E-03    -57.1382E-03     115.469E-03    -58.3625E-03     38.2391E-03     72.2401E+06     3.37132E+06    -28.8433E+06    -28.6517E+06     72.0485E+06     3.37132E+06     4.32610E+06         42.0270
            1460     13.2082E-03     79.8862E-03         1.12291    -264.445E-03    -320.743E-03    -320.584E-03         1.12275    -264.445E-03     6.75203E-03     120.170E-03    -58.4093E-03    -61.7974E-03    -56.6696E-03     115.042E-03    -58.4093E-03     59.1396E-03     105.052E+06     28.0432E+06    -26.2884E+06    -26.0817E+06     104.845E+06     28.0432E+06     5.07236E+06         46.2361
            1461     14.1559E-03     79.9679E-03         1.14216    -268.038E-03    -334.442E-03    -334.397E-03         1.14211    -268.038E-03    -9.21652E-03     131.851E-03    -58.5573E-03    -73.3165E-03    -57.6156E-03     116.150E-03    -58.5573E-03     105.343E-03     113.659E+06     64.9276E+06    -21.6467E+06    -21.4618E+06     113.475E+06     64.9276E+06     4.39525E+06         51.0733
            1462     15.0974E-03     80.1217E-03         1.16780    -271.616E-03    -351.617E-03    -351.514E-03         1.16770    -271.616E-03    -15.7388E-03     153.620E-03    -58.7252E-03    -94.8931E-03    -58.9496E-03     117.677E-03    -58.7252E-03     173.210E-03     128.648E+06     108.701E+06    -13.2531E+06    -13.1540E+06     128.549E+06     108.701E+06     2.84972E+06         56.0046
            1463     16.0488E-03     80.3568E-03         1.18592    -275.518E-03    -367.545E-03    -367.447E-03         1.18582    -275.518E-03    -17.6675E-03     150.847E-03    -58.7932E-03    -92.0247E-03    -59.0292E-03     117.852E-03    -58.7932E-03     163.333E-03     143.951E+06     136.650E+06    -5.02730E+06    -4.97844E+06     143.902E+06     136.650E+06     1.38011E+06         59.9910
            1464     943.421E-06     80.8358E-03         5.05251    -983.091E-03        -3.53900     465.568E-03         1.04794    -983.091E-03        -3.42132     117.350E-03    -58.5655E-03    -58.7862E-03    -58.7326E-03     117.349E-03    -58.6185E-03     500.859E-06    -78.5434E+06    -81.7808E+06    -288.308E+06    -81.1785E+06    -288.288E+06    -79.1659E+06     1.59090E+06         29.3252
            1465     1.88631E-03     80.8361E-03         2.46984    -245.220E-03        -1.69256    -191.044E-03     968.326E-03    -245.220E-03         1.12208     117.524E-03    -58.7046E-03    -58.8250E-03    -58.7844E-03     117.524E-03    -58.7449E-03     256.325E-06    -70.4461E+06    -78.0350E+06    -284.258E+06    -78.0530E+06    -284.240E+06    -70.4461E+06     1.71487E+06         29.4140
            1466     2.82941E-03     80.8361E-03         1.68922    -228.643E-03    -928.639E-03    -210.461E-03     971.039E-03    -228.643E-03    -541.108E-03     117.497E-03    -58.6498E-03    -58.8547E-03    -58.6922E-03     117.496E-03    -58.8109E-03     752.554E-06    -58.5606E+06    -73.1632E+06    -277.845E+06    -73.1905E+06    -277.818E+06    -58.5606E+06     2.07805E+06         29.5592
            1467     3.77325E-03     80.8377E-03         1.34385    -227.137E-03    -588.511E-03    -239.360E-03     994.701E-03    -227.137E-03     311.952E-03     117.401E-03    -58.5638E-03    -58.8466E-03    -58.5603E-03     117.397E-03    -58.8466E-03     1.54936E-03    -44.1306E+06    -67.1467E+06    -268.877E+06    -67.1741E+06    -268.849E+06    -44.1306E+06     2.15555E+06         29.7728
            1468     4.71596E-03     80.8387E-03         1.16014    -229.685E-03    -402.254E-03    -240.022E-03     997.906E-03    -229.685E-03    -214.807E-03     117.458E-03    -58.6037E-03    -58.8643E-03    -58.5925E-03     117.447E-03    -58.8643E-03     2.65658E-03    -32.2525E+06    -60.7356E+06    -253.779E+06    -60.7459E+06    -253.769E+06    -32.2525E+06     1.16720E+06         30.0686
            1469     5.65921E-03     80.8434E-03         1.05901    -230.191E-03    -298.357E-03    -224.119E-03     984.775E-03    -230.191E-03     118.450E-03     117.328E-03    -58.4666E-03    -58.8731E-03    -58.4415E-03     117.303E-03    -58.8731E-03     4.14723E-03    -22.2724E+06    -54.5870E+06    -237.405E+06    -54.5966E+06    -237.395E+06    -22.2724E+06     137.144E+03         30.4538
            1470     6.60309E-03     80.8474E-03         1.03966    -230.432E-03    -277.880E-03    -241.318E-03         1.00309    -230.432E-03    -61.6521E-03     117.155E-03    -58.3293E-03    -58.8363E-03    -58.2737E-03     117.099E-03    -58.8363E-03     6.09762E-03    -17.7417E+06    -50.0575E+06    -213.181E+06    -50.0662E+06    -213.173E+06    -17.7417E+06    -925.575E+03         30.9373
            1471     7.54674E-03     80.8567E-03         1.05124    -233.494E-03    -286.586E-03    -270.751E-03         1.03541    -233.494E-03     93.0474E-03     117.231E-03    -58.3657E-03    -58.8712E-03    -58.3498E-03     117.123E-03    -58.7788E-03     8.63873E-03    -15.4255E+06    -46.1996E+06    -180.888E+06    -46.2081E+06    -180.880E+06    -15.4255E+06    -132.558E+03         31.5400
            1472     8.48974E-03     80.8670E-03         1.05829    -238.351E-03    -289.350E-03    -284.971E-03         1.05391    -238.351E-03    -30.3124E-03     117.135E-03    -58.3036E-03    -58.8323E-03    -58.2123E-03     116.944E-03    -58.7325E-03     11.4602E-03    -11.4441E+06    -41.8238E+06    -147.894E+06    -41.8449E+06    -147.873E+06    -11.4441E+06     894.183E+03         32.3671
            1473     9.43308E-03     80.8797E-03         1.05443    -242.737E-03    -282.509E-03    -280.362E-03         1.05228    -242.737E-03     14.4065E-03     116.819E-03    -58.1576E-03    -58.6611E-03    -57.7810E-03     116.435E-03    -58.6536E-03     16.0915E-03    -9.29409E+06    -37.2348E+06    -109.206E+06    -37.2665E+06    -109.174E+06    -9.29409E+06     1.07412E+06         33.6787
            1474     10.3777E-03     80.9023E-03         1.05298    -245.982E-03    -279.423E-03    -278.512E-03         1.05207    -245.982E-03    -25.1029E-03     116.674E-03    -58.1422E-03    -58.5401E-03    -57.5246E-03     116.056E-03    -58.5401E-03     20.6838E-03    -9.28702E+06    -32.8737E+06    -62.8554E+06    -33.7858E+06    -61.9433E+06    -9.28702E+06     1.90037E+06         35.7119
            1475     11.3212E-03     80.9254E-03         1.07110    -249.210E-03    -294.905E-03    -294.729E-03         1.07093    -249.210E-03     12.4244E-03     116.821E-03    -58.2695E-03    -58.5735E-03    -57.4273E-03     115.816E-03    -58.4112E-03     26.1729E-03     14.4649E+06    -21.5770E+06    -34.3796E+06    -32.3814E+06     2.14541E+06    -11.2558E+06     3.34479E+06         38.5100
            1476     12.2656E-03     80.9594E-03         1.09559    -253.264E-03    -315.627E-03    -315.266E-03         1.09523    -253.264E-03     22.8213E-03     117.936E-03    -58.3715E-03    -59.5993E-03    -57.3471E-03     115.684E-03    -58.3715E-03     38.8114E-03     70.1450E+06    -166.875E+03    -31.4138E+06    -31.1818E+06     69.9131E+06    -166.875E+03     4.60312E+06         42.0296
            1477     13.2098E-03     81.0098E-03         1.10008    -257.319E-03    -314.604E-03    -314.246E-03         1.09972    -257.319E-03     23.0667E-03     120.446E-03    -58.4267E-03    -62.0603E-03    -56.7674E-03     115.153E-03    -58.4267E-03     60.0356E-03     104.863E+06     24.9039E+06    -27.8581E+06    -27.6562E+06     104.662E+06     24.9039E+06     5.01703E+06         46.2389
            1478     14.1523E-03     81.0896E-03         1.11115    -260.787E-03    -320.836E-03    -320.603E-03         1.11092    -260.787E-03     12.7519E-03     131.711E-03    -58.5626E-03    -73.1706E-03    -57.0959E-03     115.636E-03    -58.5626E-03     106.540E-03     115.956E+06     64.5166E+06    -21.3732E+06    -21.2559E+06     115.839E+06     64.5166E+06     3.45295E+06         51.0848
            1479     15.1014E-03     81.2458E-03         1.14188    -264.400E-03    -344.821E-03    -344.416E-03         1.14148    -264.400E-03    -3.45233E-03     153.673E-03    -58.7211E-03    -94.9460E-03    -59.0834E-03     117.810E-03    -58.7211E-03     173.318E-03     130.380E+06     108.518E+06    -15.2281E+06    -15.1767E+06     130.329E+06     108.518E+06     2.33637E+06         56.0374
            1480     16.0403E-03     81.4781E-03         1.16244    -268.536E-03    -361.444E-03    -361.036E-03         1.16203    -268.536E-03    -5.56336E-03     150.829E-03    -58.7942E-03    -92.0165E-03    -59.1682E-03     117.980E-03    -58.7942E-03     163.295E-03     145.365E+06     135.196E+06    -8.77686E+06    -8.71623E+06     145.304E+06     135.196E+06     2.42453E+06         60.0430
            1481     942.958E-06     81.9582E-03         5.32979    -921.074E-03        -3.87576     439.471E-03         1.01456    -921.074E-03        -3.66956     117.539E-03    -58.6492E-03    -58.8917E-03    -58.7832E-03     117.538E-03    -58.7571E-03     231.745E-06    -80.0769E+06    -80.9685E+06    -289.473E+06    -80.9806E+06    -289.461E+06    -80.0769E+06     582.107E+03         29.3299
            1482     1.88667E-03     81.9599E-03         2.57815    -232.189E-03        -1.82664    -197.689E-03     949.195E-03    -232.189E-03         1.24339     117.472E-03    -58.6423E-03    -58.8346E-03    -58.6858E-03     117.471E-03    -58.7908E-03     407.747E-06    -72.2953E+06    -77.6662E+06    -285.225E+06    -77.6784E+06    -285.213E+06    -72.2953E+06     822.813E+03         29.4142
            1483     2.82945E-03     81.9595E-03         1.74350    -222.698E-03        -1.00167    -217.561E-03     959.390E-03    -222.698E-03    -523.135E-03     117.498E-03    -58.6413E-03    -58.8643E-03    -58.6884E-03     117.497E-03    -58.8160E-03     687.428E-06    -59.6371E+06    -73.4548E+06    -278.536E+06    -73.4635E+06    -278.528E+06    -59.6371E+06     1.12933E+06         29.5574
            1484     3.77253E-03     81.9605E-03         1.36958    -221.750E-03    -629.155E-03    -221.063E-03     961.492E-03    -221.750E-03     351.252E-03     117.480E-03    -58.6316E-03    -58.8585E-03    -58.6318E-03     117.476E-03    -58.8540E-03     1.63649E-03    -45.3501E+06    -67.2910E+06    -268.415E+06    -67.3026E+06    -268.404E+06    -45.3501E+06     947.004E+03         29.7728
            1485     4.71611E-03     81.9631E-03         1.16398    -222.303E-03    -420.061E-03    -228.834E-03     972.757E-03    -222.303E-03    -229.050E-03     117.516E-03    -58.6534E-03    -58.8762E-03    -58.6416E-03     117.505E-03    -58.8762E-03     2.76049E-03    -34.1922E+06    -60.6304E+06    -252.507E+06    -60.6356E+06    -252.502E+06    -34.1922E+06    -231.310E+03         30.0721
            1486     5.65944E-03     81.9661E-03         1.07048    -224.075E-03    -323.348E-03    -237.750E-03     984.881E-03    -224.075E-03     127.592E-03     117.514E-03    -58.6309E-03    -58.8989E-03    -58.6068E-03     117.490E-03    -58.8989E-03     4.05975E-03    -24.0313E+06    -54.2523E+06    -236.375E+06    -54.2608E+06    -236.367E+06    -24.0313E+06    -767.330E+03         30.4593
            1487     6.60234E-03     81.9716E-03         1.03597    -226.448E-03    -286.840E-03    -243.929E-03     993.055E-03    -226.448E-03    -66.9329E-03     117.365E-03    -58.4800E-03    -58.8982E-03    -58.4225E-03     117.307E-03    -58.8982E-03     6.16711E-03    -16.0582E+06    -48.6982E+06    -213.250E+06    -48.7248E+06    -213.223E+06    -16.0582E+06     25.1346E+03         30.9408
            1488     7.54556E-03     81.9797E-03         1.02426    -229.224E-03    -273.280E-03    -253.899E-03         1.00488    -229.224E-03     100.225E-03     117.067E-03    -58.2446E-03    -58.8272E-03    -58.1359E-03     116.958E-03    -58.8272E-03     8.66554E-03    -14.1802E+06    -44.6275E+06    -181.328E+06    -44.6630E+06    -181.293E+06    -14.1802E+06    -67.2373E+03         31.5385
            1489     8.49023E-03     81.9902E-03         1.02032    -232.500E-03    -269.631E-03    -264.393E-03         1.01508    -232.500E-03    -38.3121E-03     116.897E-03    -58.1538E-03    -58.7425E-03    -57.9737E-03     116.709E-03    -58.7350E-03     11.3315E-03    -12.8689E+06    -40.6682E+06    -147.874E+06    -40.6921E+06    -147.850E+06    -12.8689E+06    -1.13169E+06         32.3637
            1490     9.43325E-03     82.0045E-03         1.02316    -235.857E-03    -271.251E-03    -269.275E-03         1.02119    -235.857E-03     23.6335E-03     117.121E-03    -58.2776E-03    -58.8448E-03    -58.0570E-03     116.714E-03    -58.6583E-03     16.5170E-03    -10.4879E+06    -36.5727E+06    -110.219E+06    -36.5908E+06    -110.201E+06    -10.4879E+06    -55.7406E+03         33.6776
            1491     10.3765E-03     82.0241E-03         1.03622    -239.247E-03    -280.721E-03    -279.848E-03         1.03535    -239.247E-03    -6.42746E-03     117.038E-03    -58.2947E-03    -58.7517E-03    -57.8549E-03     116.419E-03    -58.5727E-03     20.7738E-03    -10.3137E+06    -32.9284E+06    -63.6694E+06    -33.5443E+06    -63.0535E+06    -10.3137E+06     1.69929E+06         35.7121
            1492     11.3213E-03     82.0501E-03         1.04621    -242.779E-03    -287.171E-03    -286.801E-03         1.04584    -242.779E-03     32.9105E-03     116.597E-03    -58.1171E-03    -58.5046E-03    -57.1886E-03     115.614E-03    -58.4507E-03     25.7669E-03     11.9990E+06    -22.3702E+06    -34.7765E+06    -32.2444E+06    -642.921E+03    -12.2604E+06     3.78465E+06         38.5109
            1493     12.2650E-03     82.0816E-03         1.06186    -246.323E-03    -296.398E-03    -295.950E-03         1.06141    -246.323E-03     37.2457E-03     117.372E-03    -58.1914E-03    -59.2270E-03    -56.7437E-03     115.070E-03    -58.3724E-03     39.0446E-03     68.9997E+06    -985.424E+03    -30.7497E+06    -30.4653E+06     68.7153E+06    -985.424E+03     4.91868E+06         42.0328
            1494     13.2091E-03     82.1348E-03         1.09042    -250.335E-03    -318.128E-03    -317.630E-03         1.08992    -250.335E-03     22.3448E-03     120.208E-03    -58.3991E-03    -61.8572E-03    -56.6379E-03     114.989E-03    -58.3991E-03     59.7402E-03     106.360E+06     25.0676E+06    -26.3832E+06    -26.2566E+06     106.233E+06     25.0676E+06     4.03049E+06         46.2450
            1495     14.1564E-03     82.2109E-03         1.10682    -254.810E-03    -330.602E-03    -330.265E-03         1.10649    -254.810E-03     14.6243E-03     132.103E-03    -58.5447E-03    -73.5884E-03    -57.7431E-03     116.258E-03    -58.5447E-03     105.941E-03     116.768E+06     63.2073E+06    -22.4622E+06    -22.3430E+06     116.649E+06     63.2073E+06     3.93423E+06         51.0976
            1496     15.0982E-03     82.3699E-03         1.10805    -258.932E-03    -332.480E-03    -332.010E-03         1.10758    -258.932E-03     2.97312E-03     153.703E-03    -58.7266E-03    -94.9672E-03    -59.2235E-03     117.959E-03    -58.7266E-03     172.976E-03     132.059E+06     106.066E+06    -17.3024E+06    -17.1790E+06     131.935E+06     106.066E+06     4.11123E+06         56.0682
            1497     16.0468E-03     82.6045E-03         1.11681    -262.627E-03    -338.754E-03    -338.336E-03         1.11639    -262.627E-03    -5.39460E-03     150.311E-03    -58.7978E-03    -91.4870E-03    -58.5263E-03     117.350E-03    -58.7978E-03     163.231E-03     147.291E+06     134.315E+06    -9.44840E+06    -9.40005E+06     147.242E+06     134.315E+06     2.03579E+06         60.0938
            1498     943.018E-06     83.0825E-03         5.47498    -767.250E-03        -4.19667     387.195E-03     891.115E-03    -767.250E-03        -3.89301     117.687E-03    -58.5865E-03    -59.1020E-03    -59.0458E-03     117.685E-03    -58.6415E-03     454.101E-06    -79.5646E+06    -81.9523E+06    -289.247E+06    -81.4099E+06    -289.245E+06    -80.1095E+06    -382.250E+03         29.3320
            1499     1.88584E-03     83.0827E-03         2.65681    -199.642E-03        -1.94810    -236.884E-03     945.593E-03    -199.642E-03         1.28979     117.543E-03    -58.6466E-03    -58.9011E-03    -58.6967E-03     117.543E-03    -58.8509E-03     281.709E-06    -73.4346E+06    -78.8898E+06    -286.269E+06    -78.8911E+06    -286.268E+06    -73.4346E+06    -246.063E+03         29.4135
            1500     2.82983E-03     83.0832E-03         1.78803    -212.792E-03        -1.06213    -235.874E-03     961.773E-03    -212.792E-03    -565.551E-03     117.417E-03    -58.5880E-03    -58.8366E-03    -58.5915E-03     117.416E-03    -58.8322E-03     622.766E-06    -62.8266E+06    -74.7623E+06    -279.220E+06    -74.7660E+06    -279.216E+06    -62.8266E+06     78.4696E+03         29.5544
            1501     3.77284E-03     83.0842E-03         1.38037    -216.547E-03    -652.207E-03    -215.846E-03     944.004E-03    -216.547E-03     355.318E-03     117.493E-03    -58.6519E-03    -58.8491E-03    -58.6511E-03     117.487E-03    -58.8447E-03     1.79492E-03    -49.4832E+06    -69.2444E+06    -267.204E+06    -69.2515E+06    -267.197E+06    -49.4832E+06    -493.811E+03         29.7698
            1502     4.71586E-03     83.0864E-03         1.16921    -216.988E-03    -434.954E-03    -222.342E-03     956.595E-03    -216.988E-03    -229.872E-03     117.560E-03    -58.6961E-03    -58.8774E-03    -58.6829E-03     117.547E-03    -58.8774E-03     2.98902E-03    -37.2661E+06    -62.8183E+06    -250.205E+06    -62.8373E+06    -250.186E+06    -37.2661E+06    -1.65978E+06         30.0707
            1503     5.65885E-03     83.0903E-03         1.07639    -219.590E-03    -341.363E-03    -244.521E-03     979.551E-03    -219.590E-03     139.185E-03     117.545E-03    -58.6574E-03    -58.9058E-03    -58.6312E-03     117.519E-03    -58.9058E-03     4.22165E-03    -27.3513E+06    -56.9572E+06    -235.509E+06    -56.9878E+06    -235.479E+06    -27.3513E+06    -2.21370E+06         30.4611
            1504     6.60232E-03     83.0951E-03         1.03131    -223.279E-03    -295.803E-03    -246.110E-03     981.622E-03    -223.279E-03    -62.5332E-03     117.387E-03    -58.4998E-03    -58.9007E-03    -58.4389E-03     117.326E-03    -58.9007E-03     6.37981E-03    -20.6149E+06    -50.6807E+06    -214.424E+06    -50.7493E+06    -214.356E+06    -20.6149E+06    -1.50343E+06         30.9448
            1505     7.54623E-03     83.1030E-03     999.480E-03    -225.780E-03    -262.574E-03    -240.218E-03     977.125E-03    -225.780E-03     134.021E-03     117.173E-03    -58.3402E-03    -58.8377E-03    -58.2266E-03     117.060E-03    -58.8377E-03     8.86480E-03    -16.2127E+06    -43.5719E+06    -179.482E+06    -43.6488E+06    -179.405E+06    -16.2127E+06    -1.52348E+06         31.5414
            1506     8.48882E-03     83.1137E-03     988.981E-03    -227.802E-03    -252.506E-03    -248.674E-03     985.149E-03    -227.802E-03    -41.5673E-03     116.827E-03    -58.0782E-03    -58.7469E-03    -57.8988E-03     116.648E-03    -58.7469E-03     11.1205E-03    -14.2296E+06    -38.4121E+06    -147.509E+06    -38.4613E+06    -147.459E+06    -14.2296E+06    -2.27340E+06         32.3648
            1507     9.43418E-03     83.1268E-03     999.167E-03    -230.417E-03    -261.677E-03    -260.550E-03     998.040E-03    -230.417E-03     13.2044E-03     116.953E-03    -58.1215E-03    -58.8328E-03    -57.8726E-03     116.525E-03    -58.6538E-03     16.7411E-03    -12.9844E+06    -35.4957E+06    -112.731E+06    -35.5235E+06    -112.703E+06    -12.9844E+06    -888.904E+03         33.6785
            1508     10.3768E-03     83.1508E-03         1.01972    -233.915E-03    -279.752E-03    -279.147E-03         1.01912    -233.915E-03    -13.9828E-03     117.245E-03    -58.4006E-03    -58.8551E-03    -58.0383E-03     116.595E-03    -58.5682E-03     21.3263E-03    -12.5301E+06    -32.9228E+06    -65.6136E+06    -33.3921E+06    -65.1443E+06    -12.5301E+06     1.43069E+06         35.7132
            1509     11.3194E-03     83.1708E-03         1.03514    -238.064E-03    -290.410E-03    -290.030E-03         1.03475    -238.064E-03     8.57111E-03     116.679E-03    -58.1337E-03    -58.5678E-03    -57.2534E-03     115.691E-03    -58.4599E-03     25.8268E-03     10.4106E+06    -22.9301E+06    -35.1641E+06    -31.1691E+06    -2.86325E+06    -13.6513E+06     3.85401E+06         38.5120
            1510     12.2655E-03     83.2056E-03         1.04551    -242.140E-03    -293.893E-03    -293.559E-03         1.04518    -242.140E-03     12.3616E-03     117.132E-03    -58.0886E-03    -59.0876E-03    -56.4646E-03     114.793E-03    -58.3725E-03     39.2927E-03     69.6511E+06    -1.24367E+06    -29.3663E+06    -29.0431E+06     69.3278E+06    -1.24367E+06     5.30582E+06         42.0349
            1511     13.2113E-03     83.2564E-03         1.06488    -246.301E-03    -310.085E-03    -309.793E-03         1.06459    -246.301E-03     4.20925E-03     120.519E-03    -58.4066E-03    -62.1643E-03    -57.0526E-03     115.408E-03    -58.4066E-03     59.4254E-03     107.271E+06     25.1835E+06    -27.8042E+06    -27.5548E+06     107.021E+06     25.1835E+06     5.56969E+06         46.2476
            1512     14.1526E-03     83.3365E-03         1.08039    -250.718E-03    -321.906E-03    -321.751E-03         1.08024    -250.718E-03    -6.31575E-03     132.282E-03    -58.5784E-03    -73.7391E-03    -58.2094E-03     116.753E-03    -58.5784E-03     104.827E-03     116.182E+06     61.5385E+06    -25.3359E+06    -25.1133E+06     115.960E+06     61.5385E+06     5.24889E+06         51.1056
            1513     15.0979E-03     83.4933E-03         1.08321    -254.742E-03    -323.337E-03    -323.187E-03         1.08307    -254.742E-03    -6.15258E-03     153.136E-03    -58.7535E-03    -94.3705E-03    -58.5223E-03     117.288E-03    -58.7535E-03     172.535E-03     133.402E+06     104.517E+06    -18.6817E+06    -18.5849E+06     133.305E+06     104.517E+06     3.22309E+06         56.0963
            1514     16.0417E-03     83.7238E-03         1.09095    -258.496E-03    -333.411E-03    -333.271E-03         1.09081    -258.496E-03    -7.05200E-03     150.179E-03    -58.8020E-03    -91.3511E-03    -58.0659E-03     116.894E-03    -58.8020E-03     163.651E-03     149.397E+06     135.636E+06    -8.29792E+06    -8.28241E+06     149.381E+06     135.636E+06     926.547E+03         60.1436
            1515     943.382E-06     84.2067E-03         5.58349    -684.208E-03        -4.40673     278.542E-03     898.222E-03    -684.208E-03        -4.00577     117.590E-03    -58.4996E-03    -59.0931E-03    -59.0767E-03     117.589E-03    -58.5141E-03     786.435E-06    -79.9540E+06    -83.0257E+06    -289.088E+06    -82.4879E+06    -289.081E+06    -80.4989E+06    -1.00480E+06         29.3259
            1516     1.88625E-03     84.2062E-03         2.75820    -209.590E-03        -2.05259    -235.404E-03     941.011E-03    -209.590E-03         1.27381     117.681E-03    -58.7524E-03    -58.9336E-03    -58.8379E-03     117.680E-03    -58.8476E-03     303.362E-06    -73.3119E+06    -80.4333E+06    -286.464E+06    -80.4399E+06    -286.457E+06    -73.3119E+06     129.820E+03         29.4125
            1517     2.82895E-03     84.2061E-03         1.83782    -215.575E-03        -1.11994    -212.755E-03     930.633E-03    -215.575E-03    -661.228E-03     117.563E-03    -58.6626E-03    -58.9092E-03    -58.6975E-03     117.563E-03    -58.8734E-03     682.376E-06    -63.3509E+06    -76.2442E+06    -278.460E+06    -76.2605E+06    -278.444E+06    -63.3509E+06    -545.000E+03         29.5555
            1518     3.77277E-03     84.2076E-03         1.38655    -214.600E-03    -668.085E-03    -210.542E-03     929.011E-03    -214.600E-03     362.828E-03     117.444E-03    -58.5857E-03    -58.8680E-03    -58.5811E-03     117.440E-03    -58.8680E-03     1.59304E-03    -53.0876E+06    -71.2370E+06    -265.390E+06    -71.2669E+06    -265.361E+06    -53.0876E+06    -2.14298E+06         29.7683
            1519     4.71593E-03     84.2100E-03         1.17190    -215.483E-03    -451.995E-03    -229.367E-03     949.273E-03    -215.483E-03    -226.131E-03     117.424E-03    -58.5710E-03    -58.8669E-03    -58.5570E-03     117.410E-03    -58.8669E-03     3.05599E-03    -42.4428E+06    -65.5208E+06    -248.351E+06    -65.5837E+06    -248.288E+06    -42.4428E+06    -3.16099E+06         30.0660
            1520     5.65925E-03     84.2138E-03         1.06639    -218.386E-03    -344.239E-03    -236.533E-03     958.682E-03    -218.386E-03     139.750E-03     117.442E-03    -58.5821E-03    -58.8779E-03    -58.5545E-03     117.414E-03    -58.8779E-03     4.35281E-03    -32.4862E+06    -58.8661E+06    -234.698E+06    -58.9673E+06    -234.597E+06    -32.4862E+06    -4.00509E+06         30.4580
            1521     6.60256E-03     84.2184E-03         1.01139    -221.300E-03    -291.854E-03    -240.885E-03     960.418E-03    -221.300E-03    -104.633E-03     117.411E-03    -58.5552E-03    -58.8671E-03    -58.4941E-03     117.349E-03    -58.8671E-03     6.40193E-03    -26.0396E+06    -52.2914E+06    -212.369E+06    -52.4836E+06    -212.177E+06    -26.0396E+06    -5.11589E+06         30.9456
            1522     7.54540E-03     84.2268E-03     975.021E-03    -223.488E-03    -255.505E-03    -236.109E-03     955.625E-03    -223.488E-03     105.893E-03     117.176E-03    -58.3620E-03    -58.8164E-03    -58.2492E-03     117.063E-03    -58.8164E-03     8.83421E-03    -21.4906E+06    -46.4596E+06    -179.082E+06    -46.6820E+06    -178.860E+06    -21.4906E+06    -5.08985E+06         31.5447
            1523     8.48996E-03     84.2367E-03     970.338E-03    -225.406E-03    -249.911E-03    -245.785E-03     966.213E-03    -225.406E-03    -50.6165E-03     116.958E-03    -58.2063E-03    -58.7483E-03    -58.0206E-03     116.773E-03    -58.7483E-03     11.2976E-03    -17.3449E+06    -40.9028E+06    -148.358E+06    -41.0388E+06    -148.222E+06    -17.3449E+06    -3.55471E+06         32.3689
            1524     9.43209E-03     84.2501E-03     989.334E-03    -228.407E-03    -266.788E-03    -265.828E-03     988.374E-03    -228.407E-03     7.50446E-03     116.871E-03    -58.2113E-03    -58.6556E-03    -57.7691E-03     116.428E-03    -58.6556E-03     17.0251E-03    -16.0594E+06    -36.7564E+06    -114.821E+06    -36.8199E+06    -114.757E+06    -16.0594E+06    -1.97950E+06         33.6812
            1525     10.3778E-03     84.2733E-03         1.00993    -232.431E-03    -280.020E-03    -279.619E-03         1.00953    -232.431E-03    -26.1287E-03     116.820E-03    -58.1771E-03    -58.6520E-03    -57.6209E-03     116.156E-03    -58.5441E-03     21.5228E-03    -15.8737E+06    -33.9959E+06    -68.6527E+06    -34.1654E+06    -68.4832E+06    -15.8737E+06     289.024E+03         35.7148
            1526     11.3217E-03     84.2969E-03         1.02863    -236.848E-03    -291.165E-03    -290.982E-03         1.02845    -236.848E-03    -14.7743E-03     116.859E-03    -58.1595E-03    -58.7226E-03    -57.5219E-03     115.932E-03    -58.4328E-03     25.1579E-03     7.62420E+06    -24.0954E+06    -35.9457E+06    -31.7223E+06    -5.08613E+06    -15.6084E+06     3.17808E+06         38.5133
            1527     12.2650E-03     84.3254E-03         1.03767    -241.224E-03    -296.359E-03    -296.052E-03         1.03736    -241.224E-03    -1.27489E-03     117.715E-03    -58.2732E-03    -59.4847E-03    -57.0692E-03     115.402E-03    -58.3761E-03     38.8740E-03     67.2376E+06    -4.40569E+06    -30.5228E+06    -30.0929E+06     66.8077E+06    -4.40569E+06     6.24804E+06         42.0345
            1528     13.2085E-03     84.3827E-03         1.03426    -245.016E-03    -293.094E-03    -292.890E-03         1.03405    -245.016E-03     6.69467E-03     120.685E-03    -58.4037E-03    -62.3337E-03    -56.9603E-03     115.312E-03    -58.4037E-03     60.7964E-03     106.457E+06     18.3599E+06    -29.1345E+06    -28.7061E+06     106.028E+06     18.3599E+06     7.40191E+06         46.2464
            1529     14.1528E-03     84.4613E-03         1.03910    -248.218E-03    -297.617E-03    -297.438E-03         1.03892    -248.218E-03     2.16139E-03     132.122E-03    -58.5607E-03    -73.5980E-03    -57.7687E-03     116.293E-03    -58.5607E-03     105.986E-03     118.044E+06     57.5796E+06    -23.6714E+06    -23.4259E+06     117.799E+06     57.5796E+06     5.58735E+06         51.1127
            1530     15.0983E-03     84.6141E-03         1.05821    -251.469E-03    -315.021E-03    -314.828E-03         1.05801    -251.469E-03     299.009E-06     153.095E-03    -58.7534E-03    -94.3344E-03    -58.5724E-03     117.333E-03    -58.7534E-03     172.435E-03     136.781E+06     106.450E+06    -15.8949E+06    -15.8336E+06     136.719E+06     106.450E+06     2.50905E+06         56.1248
            1531     16.0468E-03     84.8485E-03         1.07882    -255.278E-03    -335.106E-03    -334.672E-03         1.07839    -255.278E-03     16.6386E-03     150.460E-03    -58.8136E-03    -91.6373E-03    -58.3106E-03     117.133E-03    -58.8136E-03     164.157E-03     151.559E+06     137.129E+06    -8.34209E+06    -8.33677E+06     151.554E+06     137.129E+06     690.902E+03         60.1914
            1532     942.916E-06     85.3302E-03         5.68108    -646.178E-03        -4.54230     185.193E-03     953.587E-03    -646.178E-03        -3.98451     117.520E-03    -58.5784E-03    -58.9426E-03    -58.9261E-03     117.518E-03    -58.5929E-03     831.393E-06    -81.1806E+06    -84.6734E+06    -289.550E+06    -84.6879E+06    -289.536E+06    -81.1806E+06     260.356E+03         29.3184
            1533     1.88645E-03     85.3297E-03         2.83744    -226.638E-03        -2.12238    -210.874E-03     925.941E-03    -226.638E-03         1.36587     117.663E-03    -58.7702E-03    -58.8997E-03    -58.8419E-03     117.663E-03    -58.8274E-03     228.498E-06    -73.2911E+06    -81.5039E+06    -286.088E+06    -81.5211E+06    -286.070E+06    -73.2911E+06     114.648E+03         29.4101
            1534     2.82953E-03     85.3307E-03         1.86662    -219.880E-03        -1.15163    -202.985E-03     917.981E-03    -219.880E-03    -659.991E-03     117.745E-03    -58.8071E-03    -58.9486E-03    -58.8687E-03     117.744E-03    -58.8851E-03     839.842E-06    -62.9896E+06    -76.4951E+06    -275.646E+06    -76.5186E+06    -275.622E+06    -62.9896E+06    -1.03143E+06         29.5574
            1535     3.77192E-03     85.3306E-03         1.40521    -216.857E-03    -693.435E-03    -215.160E-03     926.939E-03    -216.857E-03     386.914E-03     117.601E-03    -58.6820E-03    -58.9298E-03    -58.7053E-03     117.597E-03    -58.9021E-03     1.66624E-03    -55.2012E+06    -71.4237E+06    -261.571E+06    -71.4992E+06    -261.496E+06    -55.2012E+06    -3.29806E+06         29.7697
            1536     4.71571E-03     85.3337E-03         1.16602    -217.615E-03    -456.213E-03    -227.236E-03     937.040E-03    -217.615E-03    -241.197E-03     117.259E-03    -58.3911E-03    -58.8798E-03    -58.3786E-03     117.247E-03    -58.8798E-03     2.83898E-03    -46.2101E+06    -65.0564E+06    -245.678E+06    -65.2610E+06    -245.473E+06    -46.2101E+06    -5.71115E+06         30.0630
            1537     5.65921E-03     85.3371E-03         1.04333    -219.460E-03    -337.737E-03    -229.977E-03     935.566E-03    -219.460E-03     145.357E-03     117.296E-03    -58.4435E-03    -58.8648E-03    -58.4144E-03     117.267E-03    -58.8648E-03     4.43520E-03    -34.9317E+06    -58.2388E+06    -232.732E+06    -58.5440E+06    -232.427E+06    -34.9317E+06    -7.03638E+06         30.4518
            1538     6.60230E-03     85.3425E-03     992.753E-03    -221.669E-03    -289.765E-03    -240.259E-03     943.247E-03    -221.669E-03    -102.190E-03     117.366E-03    -58.5290E-03    -58.8464E-03    -58.4672E-03     117.304E-03    -58.8464E-03     6.47254E-03    -27.4653E+06    -52.0181E+06    -210.144E+06    -52.4193E+06    -209.743E+06    -27.4653E+06    -7.77728E+06         30.9411
            1539     7.54613E-03     85.3499E-03     966.272E-03    -224.160E-03    -261.684E-03    -242.655E-03     947.243E-03    -224.160E-03     93.8335E-03     117.091E-03    -58.3018E-03    -58.7925E-03    -58.1875E-03     116.977E-03    -58.7925E-03     8.86526E-03    -23.6514E+06    -46.8209E+06    -179.460E+06    -47.2842E+06    -178.997E+06    -23.6514E+06    -7.76270E+06         31.5448
            1540     8.48910E-03     85.3602E-03     958.744E-03    -226.521E-03    -252.608E-03    -247.799E-03     953.936E-03    -226.521E-03    -52.3423E-03     117.110E-03    -58.3465E-03    -58.7613E-03    -58.1790E-03     116.914E-03    -58.7330E-03     11.6112E-03    -20.1290E+06    -42.5161E+06    -150.210E+06    -42.8656E+06    -149.861E+06    -20.1290E+06    -5.97721E+06         32.3717
            1541     9.43414E-03     85.3739E-03     977.105E-03    -229.479E-03    -265.452E-03    -264.300E-03     975.953E-03    -229.479E-03     14.6942E-03     117.119E-03    -58.4231E-03    -58.6930E-03    -58.0455E-03     116.713E-03    -58.6648E-03     16.4881E-03    -18.3862E+06    -38.4870E+06    -115.861E+06    -38.6793E+06    -115.669E+06    -18.3862E+06    -3.70382E+06         33.6827
            1542     10.3763E-03     85.3960E-03     994.471E-03    -233.074E-03    -273.861E-03    -273.299E-03     993.910E-03    -233.074E-03    -7.44976E-03     116.486E-03    -57.9438E-03    -58.5500E-03    -57.3056E-03     115.847E-03    -58.5500E-03     20.9808E-03    -18.9209E+06    -35.1182E+06    -72.2665E+06    -35.2292E+06    -72.1555E+06    -18.9209E+06    -1.29583E+06         35.7146
            1543     11.3209E-03     85.4198E-03         1.00624    -236.677E-03    -279.737E-03    -279.437E-03         1.00594    -236.677E-03     22.3518E-03     116.682E-03    -57.9513E-03    -58.7490E-03    -57.3112E-03     115.705E-03    -58.4117E-03     25.7743E-03     2.78405E+06    -26.4119E+06    -39.1907E+06    -32.7887E+06    -10.5793E+06    -19.4506E+06     2.35404E+06         38.5129
            1544     12.2642E-03     85.4510E-03         1.01707    -240.250E-03    -288.642E-03    -288.265E-03         1.01669    -240.250E-03     28.7218E-03     118.187E-03    -58.3499E-03    -59.8752E-03    -57.4973E-03     115.809E-03    -58.3499E-03     39.5740E-03     63.7620E+06    -9.70333E+06    -30.8981E+06    -30.4690E+06     63.3329E+06    -9.70333E+06     6.19891E+06         42.0332
            1545     13.2092E-03     85.5046E-03         1.01710    -243.618E-03    -289.267E-03    -288.858E-03         1.01670    -243.618E-03     12.2077E-03     120.324E-03    -58.3697E-03    -61.9990E-03    -56.5244E-03     114.849E-03    -58.3697E-03     61.1976E-03     107.377E+06     13.6706E+06    -26.7376E+06    -26.3658E+06     107.005E+06     13.6706E+06     6.80486E+06         46.2447
            1546     14.1558E-03     85.5847E-03         1.01826    -246.525E-03    -289.070E-03    -288.709E-03         1.01789    -246.525E-03     9.89756E-03     131.619E-03    -58.5146E-03    -73.1239E-03    -57.2300E-03     115.725E-03    -58.5146E-03     106.147E-03     119.882E+06     56.5949E+06    -21.0597E+06    -20.9017E+06     119.724E+06     56.5949E+06     4.28452E+06         51.1184
            1547     15.0988E-03     85.7393E-03         1.03534    -249.562E-03    -306.594E-03    -306.179E-03         1.03492    -249.562E-03     6.01036E-03     153.396E-03    -58.7275E-03    -94.6565E-03    -59.2989E-03     118.038E-03    -58.7275E-03     172.000E-03     139.628E+06     107.955E+06    -14.0231E+06    -13.9589E+06     139.564E+06     107.955E+06     2.78473E+06         56.1490
            1548     16.0411E-03     85.9684E-03         1.05057    -253.146E-03    -320.699E-03    -320.202E-03         1.05007    -253.146E-03     5.91361E-03     150.519E-03    -58.8229E-03    -91.6783E-03    -58.7411E-03     117.582E-03    -58.8229E-03     163.590E-03     154.651E+06     138.396E+06    -7.18220E+06    -7.14918E+06     154.618E+06     138.396E+06     2.05774E+06         60.2349
            1549     943.566E-06     86.4527E-03         5.66339    -549.420E-03        -4.63001     101.037E-03     932.336E-03    -549.420E-03        -4.07500     117.595E-03    -58.6335E-03    -58.9641E-03    -58.9195E-03     117.594E-03    -58.6767E-03     850.586E-06    -84.0909E+06    -87.6013E+06    -289.509E+06    -87.4359E+06    -289.499E+06    -84.2659E+06     732.750E+03         29.3138
            1550     1.88590E-03     86.4542E-03         2.81687    -219.983E-03        -2.11593    -203.002E-03     903.945E-03    -219.983E-03         1.37118     117.669E-03    -58.7671E-03    -58.9096E-03    -58.8235E-03     117.669E-03    -58.8531E-03     293.725E-06    -75.3317E+06    -82.7096E+06    -284.861E+06    -82.7239E+06    -284.847E+06    -75.3317E+06    -684.101E+03         29.4047
            1551     2.82924E-03     86.4531E-03         1.85613    -218.782E-03        -1.15987    -237.029E-03     933.287E-03    -218.782E-03    -659.586E-03     117.646E-03    -58.7375E-03    -58.9193E-03    -58.7832E-03     117.644E-03    -58.8716E-03     879.929E-06    -66.9334E+06    -77.8850E+06    -272.741E+06    -77.9345E+06    -272.691E+06    -66.9334E+06    -2.56103E+06         29.5535
            1552     3.77262E-03     86.4560E-03         1.39806    -222.959E-03    -701.149E-03    -231.956E-03     928.871E-03    -222.959E-03     363.554E-03     117.600E-03    -58.7013E-03    -58.9089E-03    -58.7240E-03     117.595E-03    -58.8812E-03     1.84096E-03    -57.0987E+06    -71.7918E+06    -255.523E+06    -71.9988E+06    -255.316E+06    -57.0987E+06    -5.33270E+06         29.7692
            1553     4.71511E-03     86.4562E-03         1.14576    -222.998E-03    -450.004E-03    -212.014E-03     907.768E-03    -222.998E-03    -255.061E-03     117.418E-03    -58.5457E-03    -58.8825E-03    -58.5326E-03     117.405E-03    -58.8825E-03     2.89980E-03    -47.5940E+06    -65.3794E+06    -241.026E+06    -65.8310E+06    -240.574E+06    -47.5940E+06    -8.66027E+06         30.0632
            1554     5.65915E-03     86.4605E-03         1.01846    -221.572E-03    -326.919E-03    -217.517E-03     909.055E-03    -221.572E-03     141.931E-03     117.174E-03    -58.3182E-03    -58.8671E-03    -58.2866E-03     117.142E-03    -58.8671E-03     4.62416E-03    -37.6741E+06    -59.3456E+06    -230.297E+06    -59.9555E+06    -229.687E+06    -37.6741E+06    -10.0869E+06         30.4469
            1555     6.60268E-03     86.4659E-03     973.482E-03    -221.973E-03    -285.964E-03    -232.254E-03     919.773E-03    -221.973E-03    -81.4681E-03     117.125E-03    -58.3143E-03    -58.8216E-03    -58.2531E-03     117.064E-03    -58.8216E-03     6.47915E-03    -30.6020E+06    -52.9203E+06    -208.806E+06    -53.6751E+06    -208.051E+06    -30.6020E+06    -10.5973E+06         30.9341
            1556     7.54598E-03     86.4736E-03     969.942E-03    -224.881E-03    -280.999E-03    -259.622E-03     948.565E-03    -224.881E-03     121.241E-03     117.188E-03    -58.4274E-03    -58.7640E-03    -58.3182E-03     117.079E-03    -58.7640E-03     8.66408E-03    -26.4780E+06    -46.9635E+06    -179.120E+06    -47.7863E+06    -178.297E+06    -26.4780E+06    -10.2641E+06         31.5426
            1557     8.49027E-03     86.4837E-03     967.999E-03    -229.216E-03    -271.773E-03    -267.822E-03     964.048E-03    -229.216E-03    -45.5605E-03     117.279E-03    -58.5243E-03    -58.7530E-03    -58.3517E-03     117.078E-03    -58.7247E-03     11.7157E-03    -23.2633E+06    -43.0587E+06    -152.071E+06    -43.7485E+06    -151.382E+06    -23.2633E+06    -8.53788E+06         32.3717
            1558     9.43141E-03     86.4989E-03     957.491E-03    -232.510E-03    -255.699E-03    -254.588E-03     956.380E-03    -232.510E-03     15.4905E-03     117.136E-03    -58.4391E-03    -58.6982E-03    -58.0703E-03     116.739E-03    -58.6699E-03     16.4042E-03    -21.2205E+06    -38.8667E+06    -118.940E+06    -39.3503E+06    -118.456E+06    -21.2205E+06    -6.09132E+06         33.6813
            1559     10.3766E-03     86.5182E-03     960.904E-03    -234.618E-03    -256.109E-03    -255.582E-03     960.376E-03    -234.618E-03    -7.83896E-03     116.503E-03    -57.9546E-03    -58.5583E-03    -57.3351E-03     115.883E-03    -58.5583E-03     20.6691E-03    -21.2830E+06    -34.7247E+06    -75.9000E+06    -34.9353E+06    -75.6894E+06    -21.2830E+06    -2.83549E+06         35.7122
            1560     11.3219E-03     86.5423E-03     971.961E-03    -236.710E-03    -263.538E-03    -263.149E-03     971.572E-03    -236.710E-03     14.3027E-03     116.429E-03    -57.8841E-03    -58.5602E-03    -56.9993E-03     115.389E-03    -58.4049E-03     26.4898E-03    -1.82569E+06    -27.7929E+06    -40.6771E+06    -31.9629E+06    -15.9120E+06    -22.4208E+06     1.12190E+06         38.5103
            1561     12.2665E-03     86.5764E-03     982.484E-03    -239.073E-03    -272.202E-03    -271.694E-03     981.975E-03    -239.073E-03     23.3984E-03     117.880E-03    -58.2430E-03    -59.6730E-03    -57.2679E-03     115.552E-03    -58.3204E-03     39.5035E-03     60.9560E+06    -11.7462E+06    -29.7464E+06    -29.5478E+06     60.7575E+06    -11.7462E+06     3.79339E+06         42.0310
            1562     13.2091E-03     86.6275E-03         1.00359    -242.068E-03    -292.335E-03    -291.916E-03         1.00317    -242.068E-03     15.9645E-03     120.174E-03    -58.3488E-03    -61.8689E-03    -56.6373E-03     114.943E-03    -58.3488E-03     59.7323E-03     108.361E+06     13.7556E+06    -26.6140E+06    -26.4574E+06     108.205E+06     13.7556E+06     4.39366E+06         46.2416
            1563     14.1532E-03     86.7065E-03         1.02034    -245.775E-03    -304.372E-03    -304.141E-03         1.02011    -245.775E-03     4.67021E-03     131.722E-03    -58.5014E-03    -73.2336E-03    -57.0505E-03     115.539E-03    -58.5014E-03     106.695E-03     120.636E+06     57.4214E+06    -22.1127E+06    -21.9882E+06     120.512E+06     57.4214E+06     3.82087E+06         51.1172
            1564     15.1004E-03     86.8635E-03         1.02298    -249.602E-03    -306.726E-03    -306.411E-03         1.02267    -249.602E-03    -3.21443E-03     153.885E-03    -58.7042E-03    -95.1535E-03    -59.5391E-03     118.271E-03    -58.7042E-03     173.150E-03     140.410E+06     107.744E+06    -15.9807E+06    -15.8826E+06     140.312E+06     107.744E+06     3.58886E+06         56.1642
            1565     16.0452E-03     87.0958E-03         1.02465    -253.176E-03    -308.076E-03    -307.882E-03         1.02446    -253.176E-03    -13.8982E-03     150.244E-03    -58.8074E-03    -91.4046E-03    -58.8885E-03     117.728E-03    -58.8074E-03     162.452E-03     157.170E+06     138.303E+06    -8.31729E+06    -8.26156E+06     157.114E+06     138.303E+06     2.89574E+06         60.2740
            1566     942.449E-06     87.5771E-03         5.47821    -421.509E-03        -4.60283    -33.6129E-03     908.991E-03    -421.509E-03        -4.07195     117.620E-03    -58.6724E-03    -58.9508E-03    -58.8728E-03     117.618E-03    -58.7483E-03     916.970E-06    -86.5684E+06    -88.2301E+06    -287.156E+06    -87.5520E+06    -287.141E+06    -87.2608E+06    -1.21809E+06         29.3081
            1567     1.88653E-03     87.5768E-03         2.73556    -228.312E-03        -2.05684    -231.193E-03     909.911E-03    -228.312E-03         1.29897     117.615E-03    -58.7597E-03    -58.8608E-03    -58.7788E-03     117.614E-03    -58.8407E-03     614.079E-06    -79.0568E+06    -84.0962E+06    -282.871E+06    -84.1310E+06    -282.836E+06    -79.0568E+06    -2.25407E+06         29.3966
            1568     2.82907E-03     87.5780E-03         1.80249    -229.200E-03        -1.12874    -230.145E-03     903.894E-03    -229.200E-03    -656.608E-03     117.593E-03    -58.7358E-03    -58.8655E-03    -58.7541E-03     117.591E-03    -58.8455E-03     1.02089E-03    -69.7845E+06    -79.2733E+06    -268.264E+06    -79.4210E+06    -268.117E+06    -69.7845E+06    -4.62823E+06         29.5466
            1569     3.77242E-03     87.5782E-03         1.35764    -228.665E-03    -679.042E-03    -223.071E-03     901.665E-03    -228.665E-03     344.119E-03     117.415E-03    -58.5879E-03    -58.8384E-03    -58.5825E-03     117.409E-03    -58.8384E-03     1.80108E-03    -59.6903E+06    -73.2490E+06    -249.299E+06    -73.6608E+06    -248.887E+06    -59.6903E+06    -8.21115E+06         29.7658
            1570     4.71615E-03     87.5814E-03         1.13037    -226.639E-03    -449.691E-03    -213.358E-03     894.039E-03    -226.639E-03    -229.066E-03     117.482E-03    -58.6512E-03    -58.8436E-03    -58.6383E-03     117.469E-03    -58.8436E-03     2.97370E-03    -50.0907E+06    -67.6131E+06    -235.378E+06    -68.4260E+06    -234.566E+06    -50.0907E+06    -11.3630E+06         30.0636
            1571     5.65842E-03     87.5831E-03         1.01793    -225.075E-03    -336.454E-03    -222.129E-03     903.606E-03    -225.075E-03     143.734E-03     117.283E-03    -58.4430E-03    -58.8537E-03    -58.4141E-03     117.254E-03    -58.8537E-03     4.40211E-03    -40.8232E+06    -60.8616E+06    -226.883E+06    -62.0012E+06    -225.744E+06    -40.8232E+06    -13.4918E+06         30.4473
            1572     6.60270E-03     87.5895E-03     974.146E-03    -225.902E-03    -293.093E-03    -240.416E-03     921.470E-03    -225.902E-03    -103.503E-03     117.067E-03    -58.2613E-03    -58.8148E-03    -58.1981E-03     117.004E-03    -58.8148E-03     6.54472E-03    -34.2714E+06    -54.0115E+06    -207.491E+06    -55.3583E+06    -206.144E+06    -34.2714E+06    -14.1113E+06         30.9315
            1573     7.54626E-03     87.5971E-03     959.655E-03    -228.858E-03    -277.768E-03    -258.648E-03     940.535E-03    -228.858E-03     105.087E-03     117.318E-03    -58.5577E-03    -58.7611E-03    -58.4460E-03     117.206E-03    -58.7611E-03     8.79196E-03    -29.9529E+06    -48.2382E+06    -178.523E+06    -49.6994E+06    -177.062E+06    -29.9529E+06    -13.5676E+06         31.5381
            1574     8.48828E-03     87.6078E-03     953.433E-03    -232.486E-03    -267.198E-03    -263.377E-03     949.611E-03    -232.486E-03    -56.5015E-03     117.053E-03    -58.3279E-03    -58.7200E-03    -58.1278E-03     116.853E-03    -58.7200E-03     11.6750E-03    -25.8985E+06    -42.5194E+06    -153.543E+06    -43.8900E+06    -152.173E+06    -25.8985E+06    -12.0805E+06         32.3670
            1575     9.43421E-03     87.6217E-03     947.351E-03    -235.257E-03    -256.304E-03    -255.664E-03     946.711E-03    -235.257E-03     21.0457E-03     116.791E-03    -58.1561E-03    -58.6354E-03    -57.7348E-03     116.370E-03    -58.6354E-03     16.8221E-03    -24.7285E+06    -38.2667E+06    -123.019E+06    -39.3071E+06    -121.979E+06    -24.7285E+06    -9.20040E+06         33.6776
            1576     10.3768E-03     87.6420E-03     952.733E-03    -237.312E-03    -259.472E-03    -259.101E-03     952.362E-03    -237.312E-03     6.78929E-03     116.912E-03    -58.2776E-03    -58.6469E-03    -57.7733E-03     116.294E-03    -58.5324E-03     20.7811E-03    -24.0999E+06    -34.3643E+06    -79.6575E+06    -35.0657E+06    -78.9560E+06    -24.0999E+06    -5.26063E+06         35.7088
            1577     11.3200E-03     87.6645E-03     959.665E-03    -239.399E-03    -264.413E-03    -263.615E-03     958.868E-03    -239.399E-03    -16.8060E-03     116.866E-03    -58.1923E-03    -58.6961E-03    -57.4388E-03     115.840E-03    -58.4231E-03     26.2856E-03    -5.90292E+06    -28.6089E+06    -42.1902E+06    -31.5512E+06    -20.6876E+06    -24.4632E+06    -1.08108E+06         38.5052
            1578     12.2646E-03     87.6993E-03     958.204E-03    -241.210E-03    -259.082E-03    -258.313E-03     957.436E-03    -241.210E-03    -18.9590E-03     117.481E-03    -58.2592E-03    -59.2627E-03    -56.8851E-03     115.180E-03    -58.3366E-03     39.2362E-03     57.8831E+06    -13.8675E+06    -29.4310E+06    -29.3869E+06     57.8390E+06    -13.8675E+06     1.92792E+06         42.0250
            1579     13.2096E-03     87.7525E-03     980.599E-03    -243.339E-03    -279.496E-03    -279.210E-03     980.312E-03    -243.339E-03     3.59903E-03     119.553E-03    -58.3334E-03    -61.2638E-03    -56.2157E-03     114.505E-03    -58.3334E-03     58.5579E-03     108.323E+06     11.9528E+06    -27.4827E+06    -27.3964E+06     108.237E+06     11.9528E+06     3.34139E+06         46.2362
            1580     14.1562E-03     87.8266E-03         1.01053    -246.767E-03    -305.137E-03    -305.008E-03         1.01040    -246.767E-03    -9.85437E-03     132.113E-03    -58.4765E-03    -73.6521E-03    -57.2951E-03     115.756E-03    -58.4765E-03     107.121E-03     121.555E+06     55.5153E+06    -23.7090E+06    -23.5657E+06     121.411E+06     55.5153E+06     4.49965E+06         51.1125
            1581     15.0996E-03     87.9893E-03         1.01141    -250.634E-03    -306.251E-03    -306.156E-03         1.01131    -250.634E-03    -9.97559E-03     153.852E-03    -58.6694E-03    -95.1762E-03    -58.9801E-03     117.656E-03    -58.6694E-03     174.264E-03     140.112E+06     105.877E+06    -17.4377E+06    -17.3140E+06     139.988E+06     105.877E+06     4.28810E+06         56.1747
            1582     16.0422E-03     88.2194E-03         1.01529    -254.124E-03    -309.067E-03    -308.687E-03         1.01491    -254.124E-03     8.61587E-03     150.004E-03    -58.7580E-03    -91.2336E-03    -58.6591E-03     117.430E-03    -58.7580E-03     162.024E-03     158.500E+06     138.192E+06    -9.11488E+06    -9.06855E+06     158.454E+06     138.192E+06     2.57747E+06         60.3120
            1583     943.638E-06     88.7004E-03         5.25291    -316.106E-03        -4.51539    -138.987E-03     876.514E-03    -316.106E-03        -3.87227     117.599E-03    -58.6997E-03    -58.9021E-03    -58.8444E-03     117.597E-03    -58.7555E-03     627.162E-06    -88.0623E+06    -90.2123E+06    -283.729E+06    -89.7360E+06    -283.688E+06    -88.5798E+06    -2.57504E+06         29.3029
            1584     1.88598E-03     88.7003E-03         2.66489    -233.259E-03        -2.00614    -256.250E-03     914.994E-03    -233.259E-03         1.30704     117.507E-03    -58.7004E-03    -58.8114E-03    -58.6995E-03     117.506E-03    -58.8114E-03     661.531E-06    -82.1886E+06    -86.7419E+06    -278.879E+06    -86.8494E+06    -278.772E+06    -82.1886E+06    -4.32294E+06         29.3902
            1585     2.82962E-03     88.7016E-03         1.74912    -236.136E-03        -1.08686    -218.908E-03     881.166E-03    -236.136E-03    -601.953E-03     117.489E-03    -58.7045E-03    -58.7911E-03    -58.7028E-03     117.487E-03    -58.7911E-03     1.05531E-03    -74.1370E+06    -81.9714E+06    -261.444E+06    -82.3520E+06    -261.064E+06    -74.1370E+06    -7.50199E+06         29.5414
            1586     3.77242E-03     88.7017E-03         1.33622    -231.913E-03    -671.157E-03    -221.075E-03     886.134E-03    -231.913E-03     340.749E-03     117.438E-03    -58.6532E-03    -58.7951E-03    -58.6482E-03     117.432E-03    -58.7948E-03     1.77087E-03    -64.3507E+06    -76.1900E+06    -242.626E+06    -76.9350E+06    -241.881E+06    -64.3507E+06    -10.8544E+06         29.7625
            1587     4.71556E-03     88.7041E-03         1.12640    -231.024E-03    -454.731E-03    -235.553E-03     907.226E-03    -231.024E-03    -246.240E-03     117.318E-03    -58.5179E-03    -58.8123E-03    -58.5052E-03     117.305E-03    -58.8120E-03     2.96917E-03    -52.8519E+06    -69.7595E+06    -229.027E+06    -71.0194E+06    -227.767E+06    -52.8519E+06    -13.8252E+06         30.0633
            1588     5.65932E-03     88.7080E-03         1.02327    -232.671E-03    -347.079E-03    -246.613E-03     922.806E-03    -232.671E-03     124.951E-03     117.409E-03    -58.5133E-03    -58.9082E-03    -58.5628E-03     117.381E-03    -58.8312E-03     4.32028E-03    -42.9813E+06    -63.0449E+06    -221.573E+06    -64.9783E+06    -219.640E+06    -42.9813E+06    -17.2131E+06         30.4521
            1589     6.60211E-03     88.7114E-03     979.157E-03    -235.173E-03    -300.531E-03    -253.169E-03     931.796E-03    -235.173E-03    -105.186E-03     117.347E-03    -58.4564E-03    -58.8995E-03    -58.4695E-03     117.283E-03    -58.8225E-03     6.55872E-03    -37.6013E+06    -55.7503E+06    -205.197E+06    -58.2097E+06    -202.737E+06    -37.6013E+06    -18.6699E+06         30.9343
            1590     7.54557E-03     88.7217E-03     939.314E-03    -235.571E-03    -262.566E-03    -243.961E-03     922.102E-03    -236.963E-03     96.4589E-03     116.969E-03    -58.2079E-03    -58.7634E-03    -58.0875E-03     116.849E-03    -58.7634E-03     9.10577E-03    -33.7110E+06    -48.6533E+06    -178.663E+06    -51.2400E+06    -176.076E+06    -33.7110E+06    -17.9623E+06         31.5326
            1591     8.48989E-03     88.7309E-03     920.928E-03    -235.456E-03    -244.593E-03    -238.920E-03     917.343E-03    -237.543E-03    -64.7822E-03     116.835E-03    -58.0616E-03    -58.7705E-03    -57.9458E-03     116.641E-03    -58.6924E-03     11.5674E-03    -29.6049E+06    -42.9570E+06    -155.520E+06    -45.3342E+06    -153.143E+06    -29.6049E+06    -16.0674E+06         32.3596
            1592     9.43280E-03     88.7437E-03     937.465E-03    -237.835E-03    -256.519E-03    -255.377E-03     937.018E-03    -238.530E-03     8.61691E-03     116.836E-03    -58.1502E-03    -58.6844E-03    -57.8290E-03     116.437E-03    -58.6064E-03     16.3335E-03    -27.8527E+06    -37.7758E+06    -125.803E+06    -40.0063E+06    -123.573E+06    -27.8527E+06    -13.5392E+06         33.6726
            1593     10.3776E-03     88.7666E-03     952.447E-03    -240.706E-03    -268.926E-03    -268.437E-03     951.959E-03    -240.706E-03     13.0642E-03     117.039E-03    -58.3677E-03    -58.6807E-03    -57.9157E-03     116.423E-03    -58.5167E-03     20.7433E-03    -27.5470E+06    -33.2364E+06    -85.7980E+06    -35.0020E+06    -83.7239E+06    -27.8556E+06    -9.85424E+06         35.7041
            1594     11.3210E-03     88.7880E-03     956.061E-03    -243.197E-03    -271.647E-03    -270.777E-03     955.191E-03    -243.197E-03    -8.36391E-03     117.212E-03    -58.4286E-03    -58.8078E-03    -57.7765E-03     116.181E-03    -58.4286E-03     26.4209E-03    -10.4416E+06    -29.6350E+06    -46.2832E+06    -31.2306E+06    -26.8968E+06    -28.2324E+06    -4.31951E+06         38.4991
            1595     12.2642E-03     88.8230E-03     960.995E-03    -245.516E-03    -273.629E-03    -272.623E-03     959.989E-03    -245.516E-03    -8.85902E-03     117.151E-03    -58.3380E-03    -58.8530E-03    -56.4997E-03     114.798E-03    -58.3380E-03     39.5023E-03     53.9760E+06    -16.7792E+06    -28.4078E+06    -28.2126E+06     53.8360E+06    -16.8344E+06     1.34093E+06         42.0182
            1596     13.2099E-03     88.8734E-03     963.381E-03    -247.751E-03    -275.091E-03    -274.539E-03     962.829E-03    -247.751E-03     11.9099E-03     119.834E-03    -58.3310E-03    -61.5412E-03    -56.4503E-03     114.743E-03    -58.3310E-03     59.0652E-03     107.349E+06     10.7046E+06    -26.6339E+06    -26.4306E+06     107.146E+06     10.7046E+06     4.92644E+06         46.2294
            1597     14.1540E-03     88.9505E-03     969.615E-03    -248.923E-03    -274.556E-03    -273.479E-03     969.444E-03    -249.829E-03    -7.31795E-03     132.391E-03    -58.5136E-03    -73.8844E-03    -58.0628E-03     116.569E-03    -58.5136E-03     105.712E-03     123.104E+06     54.7874E+06    -24.2866E+06    -24.0777E+06     122.895E+06     54.7874E+06     5.35507E+06         51.1034
            1598     15.0992E-03     89.1130E-03     991.592E-03    -251.334E-03    -293.609E-03    -292.456E-03     991.346E-03    -252.241E-03    -13.6810E-03     152.082E-03    -58.7067E-03    -93.3670E-03    -57.9074E-03     116.623E-03    -58.7067E-03     171.073E-03     140.306E+06     104.135E+06    -18.5517E+06    -18.4620E+06     140.216E+06     104.135E+06     3.55100E+06         56.1793
            1599     16.0502E-03     89.3400E-03         1.00684    -255.369E-03    -308.403E-03    -307.813E-03         1.00625    -255.369E-03     10.4115E-03     149.502E-03    -58.7585E-03    -90.7257E-03    -58.0354E-03     116.811E-03    -58.7585E-03     161.929E-03     159.622E+06     138.194E+06    -10.4031E+06    -10.3799E+06     159.599E+06     138.194E+06     1.65934E+06         60.3470
            1600     942.454E-06     89.8232E-03         5.01104    -238.179E-03        -4.35333    -205.463E-03     863.173E-03    -238.179E-03        -3.66302     117.656E-03    -58.6232E-03    -59.0355E-03    -58.9999E-03     117.655E-03    -58.6585E-03     283.741E-06    -90.5862E+06    -93.2708E+06    -278.496E+06    -92.9517E+06    -278.430E+06    -90.9705E+06    -3.39746E+06         29.3028
            1601     1.88635E-03     89.8245E-03         2.58979    -225.917E-03        -1.94756    -242.336E-03     884.561E-03    -225.917E-03         1.23913     117.532E-03    -58.6991E-03    -58.8376E-03    -58.6987E-03     117.532E-03    -58.8376E-03     535.180E-06    -83.8355E+06    -88.6660E+06    -271.583E+06    -88.9338E+06    -271.315E+06    -83.8355E+06    -6.34735E+06         29.3912
            1602     2.82924E-03     89.8243E-03         1.73005    -231.658E-03        -1.07908    -241.483E-03     892.456E-03    -231.658E-03    -589.872E-03     117.395E-03    -58.6086E-03    -58.7924E-03    -58.6070E-03     117.393E-03    -58.7924E-03     944.986E-06    -75.8378E+06    -83.3145E+06    -252.991E+06    -84.0073E+06    -252.298E+06    -75.8378E+06    -10.4066E+06         29.5397
            1603     3.77274E-03     89.8262E-03         1.32981    -235.173E-03    -667.460E-03    -250.167E-03     912.514E-03    -235.173E-03     357.682E-03     117.343E-03    -58.5762E-03    -58.7745E-03    -58.5717E-03     117.338E-03    -58.7742E-03     1.78169E-03    -66.3422E+06    -77.7253E+06    -235.775E+06    -79.0730E+06    -234.427E+06    -66.3422E+06    -14.1731E+06         29.7602
            1604     4.71558E-03     89.8275E-03         1.12884    -238.783E-03    -455.770E-03    -256.006E-03     929.080E-03    -238.783E-03    -215.866E-03     117.352E-03    -58.4931E-03    -58.8686E-03    -58.5555E-03     117.339E-03    -58.7926E-03     2.98050E-03    -54.6455E+06    -70.5835E+06    -222.848E+06    -72.5578E+06    -220.874E+06    -54.6455E+06    -16.9828E+06         30.0640
            1605     5.65928E-03     89.8307E-03         1.02844    -241.855E-03    -348.862E-03    -257.781E-03     937.363E-03    -241.855E-03     147.216E-03     117.510E-03    -58.5409E-03    -58.9818E-03    -58.6658E-03     117.482E-03    -58.8290E-03     4.39016E-03    -43.8746E+06    -63.3770E+06    -214.231E+06    -66.1119E+06    -211.497E+06    -43.8746E+06    -19.9800E+06         30.4568
            1606     6.60191E-03     89.8372E-03     969.633E-03    -243.540E-03    -290.048E-03    -248.144E-03     927.728E-03    -243.540E-03    -79.3552E-03     117.370E-03    -58.4718E-03    -58.9087E-03    -58.4894E-03     117.310E-03    -58.8316E-03     6.32215E-03    -39.2570E+06    -56.3135E+06    -201.200E+06    -60.1756E+06    -197.338E+06    -39.2570E+06    -23.0982E+06         30.9394
            1607     7.54550E-03     89.8429E-03     933.240E-03    -242.320E-03    -259.229E-03    -240.627E-03     916.030E-03    -243.713E-03     97.0891E-03     116.872E-03    -58.1099E-03    -58.7654E-03    -57.9990E-03     116.761E-03    -58.7654E-03     8.73577E-03    -37.6363E+06    -49.7515E+06    -179.977E+06    -54.0481E+06    -175.680E+06    -37.6363E+06    -23.0763E+06         31.5344
            1608     8.48997E-03     89.8545E-03     920.147E-03    -241.556E-03    -250.994E-03    -244.893E-03     916.133E-03    -243.643E-03    -49.1024E-03     116.796E-03    -58.0313E-03    -58.7621E-03    -57.9221E-03     116.609E-03    -58.6840E-03     11.3346E-03    -34.2798E+06    -43.8912E+06    -157.520E+06    -48.1941E+06    -153.217E+06    -34.2798E+06    -21.3462E+06         32.3586
            1609     9.43303E-03     89.8682E-03     928.990E-03    -243.729E-03    -258.660E-03    -256.852E-03     927.877E-03    -244.423E-03     10.0116E-03     117.131E-03    -58.2277E-03    -58.9031E-03    -58.1231E-03     116.735E-03    -58.6123E-03     16.2955E-03    -31.6685E+06    -37.1605E+06    -128.728E+06    -41.5434E+06    -124.275E+06    -31.7379E+06    -19.4243E+06         33.6695
            1610     10.3764E-03     89.8879E-03     931.038E-03    -244.249E-03    -259.483E-03    -257.574E-03     930.582E-03    -245.702E-03    -7.98848E-03     117.192E-03    -58.3958E-03    -58.8057E-03    -58.0423E-03     116.576E-03    -58.5434E-03     20.7505E-03    -29.8609E+06    -32.9435E+06    -91.7914E+06    -35.6322E+06    -87.3679E+06    -31.5957E+06    -15.3629E+06         35.6978
            1611     11.3201E-03     89.9145E-03     938.182E-03    -245.626E-03    -266.272E-03    -264.404E-03     937.767E-03    -247.078E-03    -6.44707E-03     116.633E-03    -58.1083E-03    -58.5481E-03    -57.2763E-03     115.695E-03    -58.4420E-03     25.2755E-03    -15.3333E+06    -31.4575E+06    -50.6753E+06    -31.2497E+06    -34.1380E+06    -32.0784E+06    -8.96614E+06         38.4913
            1612     12.2651E-03     89.9438E-03     958.493E-03    -249.231E-03    -284.369E-03    -283.421E-03     957.545E-03    -249.231E-03     16.2158E-03     117.221E-03    -58.0194E-03    -59.2381E-03    -56.7034E-03     115.006E-03    -58.3389E-03     38.1585E-03     45.5320E+06    -19.9444E+06    -28.8011E+06    -27.3619E+06     44.7138E+06    -20.5653E+06    -672.124E+03         42.0096
            1613     13.2112E-03     89.9961E-03     963.061E-03    -251.836E-03    -284.343E-03    -283.590E-03     962.308E-03    -251.836E-03     29.8526E-03     120.644E-03    -58.3520E-03    -62.3229E-03    -57.1486E-03     115.469E-03    -58.3520E-03     59.6183E-03     104.050E+06     6.28195E+06    -25.2527E+06    -24.9378E+06     103.735E+06     6.28195E+06     6.14745E+06         46.2185
            1614     14.1520E-03     90.0797E-03     957.299E-03    -252.867E-03    -269.365E-03    -268.315E-03     957.155E-03    -253.773E-03     2.01481E-03     132.203E-03    -58.5452E-03    -73.6755E-03    -57.7054E-03     116.233E-03    -58.5452E-03     106.162E-03     124.046E+06     51.2473E+06    -22.7653E+06    -22.4076E+06     123.688E+06     51.2473E+06     7.01290E+06         51.0933
            1615     15.0962E-03     90.2304E-03     972.134E-03    -254.747E-03    -281.417E-03    -280.225E-03     971.847E-03    -255.653E-03    -8.82964E-03     152.609E-03    -58.7502E-03    -93.8577E-03    -58.2872E-03     117.039E-03    -58.7502E-03     171.841E-03     143.966E+06     104.928E+06    -16.6098E+06    -16.4550E+06     143.811E+06     104.928E+06     4.55086E+06         56.1856
            1616     16.0399E-03     90.4609E-03     979.991E-03    -258.205E-03    -294.145E-03    -293.703E-03     979.548E-03    -258.205E-03    -23.9824E-03     150.126E-03    -58.8106E-03    -91.3068E-03    -58.0897E-03     116.909E-03    -58.8106E-03     163.963E-03     163.353E+06     140.556E+06    -7.55214E+06    -7.51379E+06     163.314E+06     140.556E+06     1.87999E+06         60.3815
            1617     943.552E-06     90.9478E-03         4.71194    -155.295E-03        -4.13970    -320.986E-03     893.228E-03    -155.295E-03        -3.48619     117.574E-03    -58.5337E-03    -59.0422E-03    -58.8896E-03     117.572E-03    -58.6851E-03     776.534E-06    -91.6587E+06    -94.1662E+06    -268.939E+06    -93.3802E+06    -268.769E+06    -92.6146E+06    -5.02939E+06         29.3074
            1618     1.88571E-03     90.9474E-03         2.47169    -237.420E-03        -1.81764    -234.464E-03     888.514E-03    -237.420E-03         1.13936     117.743E-03    -58.7810E-03    -58.9660E-03    -58.9002E-03     117.742E-03    -58.8464E-03     546.681E-06    -84.4242E+06    -89.5798E+06    -261.805E+06    -90.1053E+06    -261.279E+06    -84.4242E+06    -8.91698E+06         29.3974
            1619     2.82922E-03     90.9484E-03         1.66662    -237.488E-03        -1.01439    -242.287E-03     894.513E-03    -237.488E-03    -580.322E-03     117.443E-03    -58.5959E-03    -58.8538E-03    -58.5995E-03     117.442E-03    -58.8490E-03     832.195E-06    -75.0907E+06    -83.4502E+06    -244.343E+06    -84.6003E+06    -243.193E+06    -75.0907E+06    -13.1782E+06         29.5435
            1620     3.77221E-03     90.9493E-03         1.28181    -240.403E-03    -621.259E-03    -257.252E-03     917.805E-03    -240.403E-03     348.714E-03     117.283E-03    -58.4866E-03    -58.8046E-03    -58.4827E-03     117.279E-03    -58.8046E-03     1.59924E-03    -65.7301E+06    -76.8060E+06    -227.114E+06    -78.9031E+06    -225.017E+06    -65.7301E+06    -17.2763E+06         29.7614
            1621     4.71632E-03     90.9510E-03         1.10665    -244.285E-03    -436.985E-03    -261.938E-03     931.598E-03    -244.285E-03    -165.209E-03     117.489E-03    -58.6133E-03    -58.8862E-03    -58.6765E-03     117.476E-03    -58.8104E-03     2.84943E-03    -55.9350E+06    -69.6782E+06    -216.212E+06    -72.8584E+06    -213.032E+06    -55.9350E+06    -21.0954E+06         30.0639
            1622     5.65811E-03     90.9557E-03         1.02059    -247.198E-03    -347.639E-03    -260.845E-03     933.798E-03    -247.198E-03     147.788E-03     117.423E-03    -58.5152E-03    -58.9216E-03    -58.5630E-03     117.395E-03    -58.8459E-03     4.38030E-03    -44.8258E+06    -61.7959E+06    -207.387E+06    -65.8151E+06    -203.367E+06    -44.8258E+06    -23.6190E+06         30.4561
            1623     6.60222E-03     90.9595E-03     956.172E-03    -248.331E-03    -287.123E-03    -248.051E-03     917.101E-03    -248.331E-03    -79.3049E-03     117.255E-03    -58.4192E-03    -58.8446E-03    -58.3626E-03     117.198E-03    -58.8446E-03     6.20168E-03    -37.8653E+06    -54.9743E+06    -195.467E+06    -59.7349E+06    -190.706E+06    -37.8653E+06    -25.3095E+06         30.9434
            1624     7.54569E-03     90.9675E-03     928.045E-03    -248.331E-03    -263.669E-03    -248.220E-03     912.596E-03    -248.331E-03     95.5695E-03     117.247E-03    -58.4614E-03    -58.7863E-03    -58.3556E-03     117.141E-03    -58.7863E-03     8.53818E-03    -38.3641E+06    -48.9512E+06    -178.337E+06    -55.0137E+06    -172.274E+06    -38.3641E+06    -27.0800E+06         31.5446
            1625     8.48806E-03     90.9772E-03     929.070E-03    -249.051E-03    -265.456E-03    -261.353E-03     924.966E-03    -249.051E-03    -18.4295E-03     117.012E-03    -58.2873E-03    -58.7206E-03    -58.1043E-03     116.829E-03    -58.7206E-03     11.2161E-03    -36.7472E+06    -41.4008E+06    -157.602E+06    -48.3156E+06    -150.173E+06    -37.2609E+06    -28.2365E+06         32.3662
            1626     9.43344E-03     90.9910E-03     931.894E-03    -250.514E-03    -266.765E-03    -264.753E-03     929.882E-03    -250.514E-03     25.8702E-03     117.114E-03    -58.2491E-03    -58.8661E-03    -58.0672E-03     116.719E-03    -58.6533E-03     16.2587E-03    -33.1845E+06    -36.4913E+06    -132.831E+06    -41.9061E+06    -125.224E+06    -35.3768E+06    -26.1344E+06         33.6683
            1627     10.3757E-03     91.0141E-03     921.337E-03    -250.005E-03    -256.821E-03    -254.480E-03     920.449E-03    -251.458E-03    -7.64457E-03     117.038E-03    -58.2675E-03    -58.7828E-03    -57.8496E-03     116.407E-03    -58.5700E-03     20.9670E-03    -29.3186E+06    -35.7641E+06    -99.4754E+06    -36.6522E+06    -92.1418E+06    -35.7641E+06    -21.1926E+06         35.6904
            1628     11.3195E-03     91.0357E-03     930.611E-03    -250.660E-03    -263.563E-03    -261.586E-03     930.087E-03    -252.112E-03     7.74620E-03     116.635E-03    -57.9562E-03    -58.7056E-03    -57.2766E-03     115.705E-03    -58.4561E-03     25.2297E-03    -16.7464E+06    -34.8920E+06    -58.4308E+06    -31.2706E+06    -42.1023E+06    -36.6963E+06    -14.1793E+06         38.4806
            1629     12.2652E-03     91.0661E-03     945.005E-03    -253.490E-03    -275.323E-03    -274.765E-03     944.447E-03    -253.490E-03     11.9284E-03     117.951E-03    -58.0492E-03    -59.9429E-03    -57.3345E-03     115.662E-03    -58.3687E-03     38.7340E-03     35.1102E+06    -25.6628E+06    -32.7669E+06    -28.4069E+06     32.5545E+06    -27.4671E+06    -3.76569E+06         41.9957
            1630     13.2054E-03     91.1229E-03     954.964E-03    -255.600E-03    -285.807E-03    -285.335E-03     954.492E-03    -255.600E-03     16.2559E-03     120.336E-03    -58.3647E-03    -62.0088E-03    -56.7241E-03     115.051E-03    -58.3647E-03     60.1600E-03     97.3046E+06    -2.80716E+06    -25.0919E+06    -24.8263E+06     97.0391E+06    -2.80716E+06     5.27607E+06         46.2036
            1631     14.1546E-03     91.1982E-03     961.888E-03    -257.999E-03    -287.000E-03    -286.885E-03     961.773E-03    -257.999E-03    -5.65139E-03     130.944E-03    -58.4944E-03    -72.4845E-03    -56.5017E-03     114.961E-03    -58.4944E-03     105.620E-03     125.663E+06     44.8789E+06    -20.1360E+06    -19.7438E+06     125.271E+06     44.8789E+06     7.47824E+06         51.0833
            1632     15.1025E-03     91.3565E-03     955.055E-03    -259.731E-03    -275.872E-03    -275.366E-03     954.843E-03    -260.025E-03     13.0420E-03     153.268E-03    -58.6974E-03    -94.5883E-03    -58.5913E-03     117.271E-03    -58.6974E-03     173.300E-03     147.614E+06     104.472E+06    -14.7953E+06    -14.5963E+06     147.415E+06     104.472E+06     5.24187E+06         56.1944
            1633     16.0465E-03     91.5876E-03     957.661E-03    -261.421E-03    -283.016E-03    -282.386E-03     957.325E-03    -261.715E-03    -3.43849E-03     150.900E-03    -58.7965E-03    -92.1146E-03    -58.7370E-03     117.522E-03    -58.7965E-03     164.737E-03     167.138E+06     141.936E+06    -7.57693E+06    -7.52458E+06     167.086E+06     141.936E+06     2.64041E+06         60.4174
            1634     943.141E-06     92.0713E-03         4.41214    -109.523E-03        -3.89026    -402.447E-03     924.326E-03    -109.523E-03        -3.31511     117.697E-03    -58.4875E-03    -59.2119E-03    -58.9456E-03     117.695E-03    -58.7520E-03     853.141E-06    -89.3924E+06    -93.2674E+06    -256.365E+06    -92.9673E+06    -256.093E+06    -89.9641E+06    -5.80942E+06         29.3159
            1635     1.88630E-03     92.0721E-03         2.32062    -255.446E-03        -1.65562    -253.424E-03     918.426E-03    -255.446E-03         1.08217     117.680E-03    -58.6906E-03    -58.9940E-03    -58.8097E-03     117.679E-03    -58.8744E-03     421.992E-06    -84.1627E+06    -89.0061E+06    -250.636E+06    -89.8526E+06    -249.789E+06    -84.1627E+06    -11.2717E+06         29.4033
            1636     2.82856E-03     92.0719E-03         1.57671    -255.100E-03    -912.299E-03    -255.998E-03     920.405E-03    -255.100E-03    -531.425E-03     117.611E-03    -58.6659E-03    -58.9520E-03    -58.7544E-03     117.609E-03    -58.8622E-03     929.500E-06    -77.0393E+06    -83.4754E+06    -234.394E+06    -85.2397E+06    -232.629E+06    -77.0393E+06    -15.8355E+06         29.5505
            1637     3.77254E-03     92.0724E-03         1.24351    -255.522E-03    -573.504E-03    -257.525E-03     927.527E-03    -255.522E-03     274.530E-03     117.536E-03    -58.6009E-03    -58.9437E-03    -58.6816E-03     117.532E-03    -58.8586E-03     1.66373E-03    -67.4385E+06    -76.9854E+06    -217.121E+06    -79.8416E+06    -214.265E+06    -67.4385E+06    -19.6134E+06         29.7661
            1638     4.71433E-03     92.0758E-03         1.07224    -255.405E-03    -405.507E-03    -251.345E-03     918.080E-03    -255.405E-03    -204.782E-03     117.356E-03    -58.5027E-03    -58.8638E-03    -58.4888E-03     117.342E-03    -58.8638E-03     3.00023E-03    -57.3075E+06    -70.8926E+06    -207.155E+06    -75.2084E+06    -202.839E+06    -57.3075E+06    -23.6294E+06         30.0618
            1639     5.65907E-03     92.0784E-03     985.501E-03    -254.507E-03    -321.541E-03    -248.107E-03     912.067E-03    -254.507E-03     84.5050E-03     117.245E-03    -58.4032E-03    -58.8534E-03    -58.3765E-03     117.218E-03    -58.8534E-03     4.29113E-03    -48.5860E+06    -64.1152E+06    -201.696E+06    -69.7869E+06    -196.025E+06    -48.5860E+06    -27.2346E+06         30.4513
            1640     6.60196E-03     92.0837E-03     951.013E-03    -253.899E-03    -290.617E-03    -252.292E-03     912.689E-03    -253.899E-03    -95.4202E-03     117.327E-03    -58.4947E-03    -58.8392E-03    -58.4355E-03     117.268E-03    -58.8392E-03     6.25307E-03    -41.8851E+06    -56.2283E+06    -191.020E+06    -63.1037E+06    -184.144E+06    -41.8851E+06    -29.1546E+06         30.9434
            1641     7.54485E-03     92.0911E-03     938.884E-03    -254.692E-03    -282.746E-03    -268.331E-03     924.469E-03    -254.692E-03     69.0014E-03     117.362E-03    -58.5632E-03    -58.7993E-03    -58.4553E-03     117.254E-03    -58.7993E-03     8.65208E-03    -39.4537E+06    -46.2395E+06    -172.073E+06    -55.5326E+06    -162.780E+06    -39.4537E+06    -32.2287E+06         31.5500
            1642     8.48921E-03     92.1012E-03     926.434E-03    -251.567E-03    -274.163E-03    -264.950E-03     921.773E-03    -256.119E-03    -43.9657E-03     117.349E-03    -58.5934E-03    -58.7518E-03    -58.4002E-03     117.156E-03    -58.7518E-03     11.4760E-03    -37.1893E+06    -40.4734E+06    -156.576E+06    -48.7479E+06    -145.462E+06    -40.0291E+06    -34.4365E+06         32.3695
            1643     9.43045E-03     92.1150E-03     918.641E-03    -249.337E-03    -265.058E-03    -255.737E-03     916.649E-03    -256.666E-03     917.818E-06     117.029E-03    -58.3390E-03    -58.6903E-03    -57.9238E-03     116.614E-03    -58.6903E-03     16.7004E-03    -31.4973E+06    -39.4622E+06    -137.638E+06    -42.6927E+06    -126.443E+06    -39.4622E+06    -32.4847E+06         33.6639
            1644     10.3762E-03     92.1362E-03     926.981E-03    -254.165E-03    -266.194E-03    -261.623E-03     925.186E-03    -256.940E-03    -3.13560E-03     116.512E-03    -57.9505E-03    -58.5731E-03    -57.3298E-03     115.891E-03    -58.5731E-03     20.7523E-03    -26.5038E+06    -40.6257E+06    -108.222E+06    -37.4965E+06    -97.2294E+06    -40.6257E+06    -27.6645E+06         35.6801
            1645     11.3213E-03     92.1590E-03     938.786E-03    -257.906E-03    -273.894E-03    -272.832E-03     937.723E-03    -257.906E-03     23.0134E-03     116.980E-03    -58.1148E-03    -58.8878E-03    -57.5760E-03     115.997E-03    -58.4436E-03     25.8434E-03    -17.4995E+06    -41.8366E+06    -67.9359E+06    -32.8942E+06    -51.3025E+06    -43.0753E+06    -19.7898E+06         38.4666
            1646     12.2622E-03     92.1917E-03     940.323E-03    -259.296E-03    -274.515E-03    -274.107E-03     939.915E-03    -259.296E-03    -1.68717E-03     117.951E-03    -58.3672E-03    -59.6241E-03    -57.2262E-03     115.553E-03    -58.3672E-03     39.7931E-03     24.0548E+06    -32.5040E+06    -35.8936E+06    -28.6653E+06     18.1505E+06    -33.8280E+06    -7.98239E+06         41.9792
            1647     13.2108E-03     92.2443E-03     941.768E-03    -260.753E-03    -277.679E-03    -277.478E-03     941.567E-03    -260.753E-03     15.2470E-03     119.860E-03    -58.3255E-03    -61.5811E-03    -56.2034E-03     114.483E-03    -58.3255E-03     60.5875E-03     88.2117E+06    -9.85235E+06    -25.2435E+06    -24.9398E+06     87.9934E+06    -9.93771E+06     2.87283E+06         46.1875
            1648     14.1529E-03     92.3216E-03     943.806E-03    -262.340E-03    -281.000E-03    -280.962E-03     943.768E-03    -262.340E-03    -303.324E-06     131.127E-03    -58.4355E-03    -72.7130E-03    -57.0011E-03     115.415E-03    -58.4355E-03     105.205E-03     127.617E+06     38.2808E+06    -21.0583E+06    -20.8023E+06     127.361E+06     38.2808E+06     5.91705E+06         51.0655
            1649     15.0975E-03     92.4762E-03     935.301E-03    -263.431E-03    -272.857E-03    -272.393E-03     935.131E-03    -263.725E-03     10.4118E-03     152.874E-03    -58.6739E-03    -94.1917E-03    -58.4842E-03     117.166E-03    -58.6739E-03     172.162E-03     149.330E+06     101.048E+06    -15.4298E+06    -15.2146E+06     149.115E+06     101.048E+06     5.35515E+06         56.1888
            1650     16.0439E-03     92.7127E-03     935.581E-03    -260.260E-03    -274.992E-03    -270.270E-03     935.296E-03    -264.697E-03     22.3488E-03     149.778E-03    -58.7836E-03    -91.0018E-03    -58.1121E-03     116.888E-03    -58.7836E-03     162.470E-03     169.942E+06     142.146E+06    -8.21456E+06    -8.06928E+06     169.797E+06     142.146E+06     4.28601E+06         60.4432
            1651     942.162E-06     93.1954E-03         4.06817    -38.4624E-03        -3.63687    -476.652E-03     907.957E-03    -38.4624E-03        -3.04880     117.956E-03    -58.6266E-03    -59.3308E-03    -59.1782E-03     117.954E-03    -58.7776E-03     803.001E-06    -85.5933E+06    -90.4242E+06    -242.302E+06    -88.5176E+06    -241.916E+06    -87.8859E+06    -6.46382E+06         29.3235
            1652     1.88561E-03     93.1954E-03         2.18234    -263.370E-03        -1.52859    -287.155E-03     940.900E-03    -263.370E-03         1.02949     117.686E-03    -58.7330E-03    -58.9565E-03    -58.7326E-03     117.685E-03    -58.9565E-03     318.854E-06    -80.9747E+06    -84.6692E+06    -236.681E+06    -85.3915E+06    -235.551E+06    -81.3822E+06    -12.7831E+06         29.4085
            1653     2.82975E-03     93.1958E-03         1.51055    -271.057E-03    -848.531E-03    -281.438E-03     943.459E-03    -271.057E-03    -458.921E-03     117.700E-03    -58.7138E-03    -58.9916E-03    -58.7975E-03     117.698E-03    -58.9066E-03     844.153E-06    -74.5616E+06    -80.2622E+06    -222.815E+06    -82.4307E+06    -220.647E+06    -74.5616E+06    -17.1560E+06         29.5555
            1654     3.77097E-03     93.1976E-03         1.21169    -272.697E-03    -548.082E-03    -271.869E-03     935.478E-03    -272.697E-03     268.231E-03     117.568E-03    -58.5963E-03    -58.9785E-03    -58.6759E-03     117.562E-03    -58.8935E-03     1.85711E-03    -66.6254E+06    -75.5423E+06    -207.278E+06    -79.1145E+06    -203.706E+06    -66.6254E+06    -21.2011E+06         29.7701
            1655     4.71579E-03     93.1983E-03         1.03893    -269.329E-03    -374.368E-03    -236.500E-03     901.067E-03    -269.329E-03    -174.415E-03     117.306E-03    -58.4359E-03    -58.8798E-03    -58.4220E-03     117.292E-03    -58.8798E-03     3.05246E-03    -57.3856E+06    -70.0046E+06    -197.129E+06    -75.1161E+06    -192.018E+06    -57.3856E+06    -24.8352E+06         30.0629
            1656     5.65809E-03     93.2028E-03     959.475E-03    -263.705E-03    -302.550E-03    -235.331E-03     892.257E-03    -263.705E-03     94.6625E-03     117.293E-03    -58.4391E-03    -58.8640E-03    -58.4097E-03     117.263E-03    -58.8640E-03     4.42019E-03    -49.3358E+06    -63.9120E+06    -193.037E+06    -70.8432E+06    -186.106E+06    -49.3358E+06    -28.9974E+06         30.4495
            1657     6.60154E-03     93.2070E-03     947.791E-03    -261.623E-03    -299.059E-03    -265.044E-03     913.776E-03    -261.623E-03    -65.7704E-03     117.401E-03    -58.5622E-03    -58.8446E-03    -58.5008E-03     117.339E-03    -58.8446E-03     6.40952E-03    -44.8263E+06    -54.3780E+06    -184.643E+06    -64.8304E+06    -174.191E+06    -44.8263E+06    -34.8790E+06         30.9397
            1658     7.54537E-03     93.2154E-03     946.566E-03    -263.177E-03    -298.077E-03    -283.219E-03     931.707E-03    -263.177E-03     72.8182E-03     117.321E-03    -58.5116E-03    -58.8081E-03    -58.4014E-03     117.210E-03    -58.8081E-03     8.70898E-03    -41.4690E+06    -44.2457E+06    -167.348E+06    -57.6086E+06    -153.477E+06    -41.9772E+06    -38.8321E+06         31.5442
            1659     8.48732E-03     93.2249E-03     923.092E-03    -256.574E-03    -276.366E-03    -263.935E-03     918.557E-03    -264.470E-03    -49.5966E-03     117.090E-03    -58.3292E-03    -58.7554E-03    -58.1250E-03     116.886E-03    -58.7554E-03     11.7797E-03    -36.3151E+06    -41.4952E+06    -155.440E+06    -51.5003E+06    -140.301E+06    -41.4496E+06    -39.5296E+06         32.3617
            1660     9.43284E-03     93.2390E-03     915.188E-03    -253.338E-03    -265.681E-03    -253.469E-03     913.647E-03    -264.010E-03     5.64372E-03     116.936E-03    -58.2428E-03    -58.6994E-03    -57.8473E-03     116.509E-03    -58.6685E-03     16.9652E-03    -30.9872E+06    -43.9144E+06    -141.505E+06    -46.6268E+06    -125.866E+06    -43.9144E+06    -38.3149E+06         33.6530
            1661     10.3755E-03     93.2581E-03     931.215E-03    -261.073E-03    -272.866E-03    -268.838E-03     929.964E-03    -263.848E-03    -5.96532E-03     116.804E-03    -58.2275E-03    -58.5958E-03    -57.6305E-03     116.176E-03    -58.5649E-03     20.9081E-03    -24.5370E+06    -45.1903E+06    -115.932E+06    -40.7013E+06    -99.7681E+06    -45.1903E+06    -34.6011E+06         35.6645
            1662     11.3191E-03     93.2825E-03     936.620E-03    -263.673E-03    -276.962E-03    -275.127E-03     935.795E-03    -264.684E-03     8.30683E-03     116.712E-03    -58.0981E-03    -58.6342E-03    -57.2685E-03     115.688E-03    -58.4395E-03     26.2829E-03    -18.1423E+06    -48.6031E+06    -78.8291E+06    -35.7854E+06    -61.1861E+06    -48.6031E+06    -26.3286E+06         38.4471
            1663     12.2657E-03     93.3153E-03     930.378E-03    -263.527E-03    -273.265E-03    -270.741E-03     929.848E-03    -265.521E-03    -811.553E-06     117.393E-03    -58.1605E-03    -59.2680E-03    -56.8022E-03     115.103E-03    -58.3362E-03     39.1132E-03     14.0375E+06    -40.5688E+06    -43.6116E+06    -31.4985E+06     2.01252E+06    -40.6569E+06    -13.5501E+06         41.9584
            1664     13.2077E-03     93.3650E-03     923.261E-03    -264.621E-03    -269.419E-03    -267.739E-03     922.987E-03    -266.028E-03     27.7526E-03     119.669E-03    -58.2529E-03    -61.4593E-03    -56.1879E-03     114.397E-03    -58.2529E-03     59.7052E-03     77.2760E+06    -20.7402E+06    -28.2858E+06    -27.7680E+06     76.8463E+06    -20.8283E+06    -1.23477E+06         46.1661
            1665     14.1555E-03     93.4465E-03     925.581E-03    -266.241E-03    -273.072E-03    -272.638E-03     925.569E-03    -266.664E-03     4.05160E-03     131.781E-03    -58.3511E-03    -73.4337E-03    -57.3349E-03     115.682E-03    -58.3511E-03     106.755E-03     127.031E+06     26.4821E+06    -24.7814E+06    -24.5998E+06     126.850E+06     26.4821E+06     4.83886E+06         51.0422
            1666     15.0989E-03     93.6006E-03     933.547E-03    -267.095E-03    -274.408E-03    -273.719E-03     933.460E-03    -267.696E-03    -14.6808E-03     153.845E-03    -58.6465E-03    -95.1768E-03    -59.1419E-03     117.810E-03    -58.6465E-03     173.729E-03     150.944E+06     95.7801E+06    -18.8682E+06    -18.6407E+06     150.717E+06     95.7801E+06     5.57003E+06         56.1780
            1667     16.0445E-03     93.8333E-03     922.045E-03    -260.921E-03    -269.346E-03    -261.603E-03     921.843E-03    -268.463E-03    -7.06064E-03     149.395E-03    -58.7828E-03    -90.6151E-03    -57.4621E-03     116.242E-03    -58.7828E-03     163.073E-03     171.670E+06     141.757E+06    -9.88196E+06    -9.74531E+06     171.533E+06     141.757E+06     3.93916E+06         60.4627
            1668     943.447E-06     94.3200E-03         3.68352     45.3373E-03        -3.34883    -570.015E-03     904.705E-03     45.3373E-03        -2.73774     117.824E-03    -58.6900E-03    -59.1364E-03    -58.9646E-03     117.823E-03    -58.8610E-03     611.601E-06    -85.9452E+06    -90.6149E+06    -226.409E+06    -88.7993E+06    -225.932E+06    -88.2378E+06    -7.27830E+06         29.3230
            1669     1.88591E-03     94.3191E-03         2.03937    -270.666E-03        -1.39356    -303.911E-03     949.722E-03    -270.666E-03     938.932E-03     117.885E-03    -58.8677E-03    -59.0206E-03    -58.9340E-03     117.884E-03    -58.9533E-03     604.940E-06    -80.6243E+06    -86.2783E+06    -221.397E+06    -87.2122E+06    -220.056E+06    -81.0317E+06    -13.1453E+06         29.4106
            1670     2.82751E-03     94.3207E-03         1.42876    -278.660E-03    -784.970E-03    -276.724E-03     920.515E-03    -278.660E-03    -395.979E-03     117.661E-03    -58.7086E-03    -58.9566E-03    -58.7065E-03     117.659E-03    -58.9566E-03     1.07037E-03    -71.0601E+06    -79.1139E+06    -210.788E+06    -82.0995E+06    -207.803E+06    -71.0601E+06    -18.8847E+06         29.5576
            1671     3.77292E-03     94.3204E-03         1.16562    -277.500E-03    -520.509E-03    -270.791E-03     915.903E-03    -277.500E-03     265.917E-03     117.503E-03    -58.6025E-03    -58.9073E-03    -58.5976E-03     117.498E-03    -58.9073E-03     1.77657E-03    -63.4476E+06    -70.8009E+06    -196.668E+06    -75.6372E+06    -191.831E+06    -63.4476E+06    -23.9312E+06         29.7735
            1672     4.71428E-03     94.3235E-03         1.02113    -274.975E-03    -375.351E-03    -258.092E-03     903.868E-03    -274.975E-03    -159.284E-03     117.452E-03    -58.5687E-03    -58.8933E-03    -58.5576E-03     117.441E-03    -58.8933E-03     2.75031E-03    -54.0955E+06    -63.1924E+06    -188.698E+06    -69.4099E+06    -182.481E+06    -54.0955E+06    -27.1337E+06         30.0680
            1673     5.65858E-03     94.3253E-03     968.716E-03    -272.773E-03    -322.739E-03    -266.275E-03     912.253E-03    -272.773E-03     82.7075E-03     117.353E-03    -58.4722E-03    -58.8922E-03    -58.4406E-03     117.321E-03    -58.8922E-03     4.52880E-03    -44.0138E+06    -55.9739E+06    -181.556E+06    -64.0836E+06    -173.446E+06    -44.0138E+06    -30.7425E+06         30.4509
            1674     6.60168E-03     94.3322E-03     948.410E-03    -270.440E-03    -305.008E-03    -274.839E-03     920.265E-03    -272.465E-03    -72.8881E-03     117.345E-03    -58.4853E-03    -58.8681E-03    -58.4191E-03     117.278E-03    -58.8681E-03     6.73793E-03    -38.8782E+06    -46.8789E+06    -172.044E+06    -59.7407E+06    -159.182E+06    -38.8782E+06    -37.4573E+06         30.9337
            1675     7.54400E-03     94.3384E-03     928.459E-03    -268.564E-03    -287.556E-03    -270.920E-03     915.863E-03    -272.605E-03     52.5089E-03     117.161E-03    -58.3513E-03    -58.8117E-03    -58.2324E-03     117.042E-03    -58.8117E-03     9.01719E-03    -38.4028E+06    -40.8877E+06    -162.796E+06    -56.5505E+06    -145.762E+06    -39.7741E+06    -42.4818E+06         31.5337
            1676     8.48920E-03     94.3490E-03     920.650E-03    -267.079E-03    -279.490E-03    -269.886E-03     916.406E-03    -272.439E-03    -66.0939E-03     116.816E-03    -58.0751E-03    -58.7370E-03    -57.8761E-03     116.617E-03    -58.7370E-03     11.7085E-03    -35.0361E+06    -40.8310E+06    -154.175E+06    -53.4836E+06    -135.728E+06    -40.8310E+06    -43.0228E+06         32.3489
            1677     9.43191E-03     94.3609E-03     929.882E-03    -269.296E-03    -281.196E-03    -277.076E-03     929.105E-03    -272.640E-03     1.53629E-03     116.829E-03    -58.1678E-03    -58.6679E-03    -57.7677E-03     116.398E-03    -58.6370E-03     16.9089E-03    -28.9349E+06    -43.3829E+06    -140.941E+06    -49.4570E+06    -120.418E+06    -43.3829E+06    -43.1721E+06         33.6365
            1678     10.3761E-03     94.3835E-03     932.739E-03    -271.228E-03    -279.300E-03    -277.013E-03     932.438E-03    -273.214E-03    -19.7410E-03     116.973E-03    -58.4236E-03    -58.5703E-03    -57.7948E-03     116.313E-03    -58.5394E-03     21.4562E-03    -23.6701E+06    -47.8784E+06    -123.669E+06    -45.1027E+06    -102.237E+06    -47.8784E+06    -40.9303E+06         35.6427
            1679     11.3201E-03     94.4044E-03     921.351E-03    -263.232E-03    -274.909E-03    -264.393E-03     920.838E-03    -273.235E-03    -24.6710E-03     116.739E-03    -58.2267E-03    -58.5321E-03    -57.3153E-03     115.717E-03    -58.4211E-03     26.3333E-03    -18.1515E+06    -53.8678E+06    -92.6546E+06    -40.5213E+06    -70.2848E+06    -53.8678E+06     -33.382E+06         38.4206
            1680     12.2638E-03     94.4376E-03     910.428E-03    -258.674E-03    -272.561E-03    -257.763E-03     909.518E-03    -272.561E-03    -29.5454E-03     117.363E-03    -58.1388E-03    -59.2515E-03    -56.7779E-03     115.065E-03    -58.3145E-03     39.1069E-03     4.87231E+06    -46.6493E+06    -55.7537E+06    -35.2854E+06    -13.8466E+06    -48.3987E+06    -20.3381E+06         41.9292
            1681     13.2102E-03     94.4899E-03     906.107E-03    -260.686E-03    -271.922E-03    -260.184E-03     905.605E-03    -271.922E-03    -4.25714E-03     119.555E-03    -58.1990E-03    -61.3926E-03    -56.2567E-03     114.419E-03    -58.1990E-03     59.0559E-03     64.1933E+06    -31.5559E+06    -35.9736E+06    -30.8553E+06     62.5043E+06    -34.9851E+06    -5.96859E+06         46.1356
            1682     14.1543E-03     94.5653E-03     907.815E-03    -263.896E-03    -275.577E-03    -267.527E-03     907.728E-03    -271.859E-03     104.533E-06     131.555E-03    -58.2637E-03    -73.3004E-03    -56.9368E-03     115.191E-03    -58.2637E-03     106.949E-03     123.773E+06     13.4554E+06    -28.2999E+06    -26.5111E+06     123.664E+06     11.7756E+06     2.81089E+06         51.0133
            1683     15.1007E-03     94.7279E-03     915.081E-03    -264.136E-03    -275.968E-03    -267.767E-03     914.994E-03    -272.250E-03    -2.07568E-03     153.099E-03    -58.5549E-03    -94.5329E-03    -58.3199E-03     116.886E-03    -58.5549E-03     173.715E-03     151.112E+06     88.9887E+06    -19.8799E+06    -19.7181E+06     150.950E+06     88.9887E+06     4.71115E+06         56.1680
            1684     16.0439E-03     94.9542E-03     919.483E-03    -264.424E-03    -279.116E-03    -270.733E-03     919.414E-03    -272.738E-03    -10.8485E-03     149.066E-03    -58.7025E-03    -90.3518E-03    -57.3398E-03     116.054E-03    -58.7025E-03     162.568E-03     173.752E+06     141.686E+06    -10.9661E+06    -10.8995E+06     173.685E+06     141.686E+06     2.27609E+06         60.4839
            1685     942.710E-06     95.4429E-03         3.30783     53.1980E-03        -2.97208    -616.938E-03     952.693E-03     53.1980E-03        -2.40493     117.755E-03    -58.5710E-03    -59.1882E-03    -58.9546E-03     117.755E-03    -58.8037E-03     669.862E-06    -77.0091E+06    -84.3982E+06    -211.768E+06    -82.8186E+06    -211.435E+06    -78.9224E+06    -5.64966E+06         29.3167
            1686     1.88557E-03     95.4450E-03         1.88686    -283.476E-03        -1.23277    -290.129E-03     944.215E-03    -283.476E-03     810.822E-03     117.754E-03    -58.7700E-03    -58.9900E-03    -58.8359E-03     117.752E-03    -58.9226E-03     661.578E-06    -70.6850E+06    -79.1794E+06    -205.312E+06    -80.5823E+06    -203.909E+06    -70.6850E+06    -12.5653E+06         29.4074
            1687     2.82986E-03     95.4434E-03         1.34347    -283.107E-03    -706.376E-03    -270.902E-03     907.991E-03    -283.107E-03    -381.907E-03     117.714E-03    -58.7872E-03    -58.9351E-03    -58.7987E-03     117.711E-03    -58.9203E-03     1.22042E-03    -64.5786E+06    -72.7705E+06    -195.439E+06    -76.6610E+06    -191.548E+06    -64.5786E+06    -20.7604E+06         29.5573
            1688     3.77067E-03     95.4457E-03         1.12064    -280.957E-03    -489.428E-03    -279.969E-03     911.184E-03    -280.957E-03     208.204E-03     117.596E-03    -58.6810E-03    -58.9245E-03    -58.6897E-03     117.590E-03    -58.9098E-03     2.01880E-03    -57.7819E+06    -65.2656E+06    -184.964E+06    -71.6465E+06    -178.583E+06    -57.7819E+06    -26.7942E+06         29.7751
            1689     4.71546E-03     95.4466E-03         1.02684    -282.257E-03    -391.380E-03    -296.298E-03     931.762E-03    -282.257E-03    -172.677E-03     117.536E-03    -58.6317E-03    -58.9144E-03    -58.6186E-03     117.523E-03    -58.9144E-03     2.95560E-03    -48.7747E+06    -56.7113E+06    -179.976E+06    -65.1666E+06    -171.521E+06    -48.7747E+06    -30.8646E+06         30.0699
            1690     5.65771E-03     95.4501E-03     978.032E-03    -284.536E-03    -334.696E-03    -294.587E-03     937.923E-03    -284.536E-03     68.7611E-03     117.397E-03    -58.4977E-03    -58.9106E-03    -58.4670E-03     117.367E-03    -58.9106E-03     4.55187E-03     -38.125E+06    -46.1676E+06    -171.591E+06    -56.9762E+06    -160.782E+06     -38.125E+06    -34.9700E+06         30.4488
            1691     6.60129E-03     95.4552E-03     938.814E-03    -282.548E-03    -296.227E-03    -272.614E-03     917.225E-03    -284.573E-03    -61.0458E-03     117.051E-03    -58.1845E-03    -58.8762E-03    -58.1170E-03     116.984E-03    -58.8762E-03     6.75195E-03    -30.2527E+06    -37.2607E+06    -160.297E+06    -50.9946E+06    -146.563E+06    -30.2527E+06    -38.4460E+06         30.9248
            1692     7.54597E-03     95.4628E-03     919.777E-03    -277.126E-03    -282.943E-03    -267.213E-03     909.731E-03    -282.810E-03     46.1772E-03     116.892E-03    -58.0991E-03    -58.7975E-03    -57.9801E-03     116.773E-03    -58.7975E-03     9.06344E-03    -29.0350E+06    -33.7348E+06    -153.127E+06    -49.3895E+06    -136.609E+06    -29.8982E+06    -41.3263E+06         31.5222
            1693     8.48806E-03     95.4717E-03     928.441E-03    -278.323E-03    -290.289E-03    -283.004E-03     924.814E-03    -281.982E-03    -55.2733E-03     116.854E-03    -58.1494E-03    -58.7045E-03    -57.9442E-03     116.648E-03    -58.7045E-03     11.8314E-03    -27.3808E+06    -35.0524E+06    -147.784E+06    -48.4452E+06    -127.819E+06    -33.9525E+06    -44.3087E+06         32.3355
            1694     9.43283E-03     95.4852E-03     934.951E-03    -281.467E-03    -293.672E-03    -291.731E-03     934.169E-03    -282.625E-03     191.615E-06     116.867E-03    -58.2575E-03    -58.6169E-03    -57.8159E-03     116.426E-03    -58.6169E-03     17.1730E-03    -23.5563E+06    -37.6966E+06    -137.257E+06    -46.4202E+06    -114.393E+06    -37.6966E+06    -45.5127E+06         33.6154
            1695     10.3767E-03     95.5055E-03     917.458E-03    -270.634E-03    -285.535E-03    -272.996E-03     917.080E-03    -282.795E-03    -18.6231E-03     116.809E-03    -58.3073E-03    -58.5171E-03    -57.6555E-03     116.157E-03    -58.5171E-03     21.3136E-03    -20.6121E+06    -45.3365E+06    -126.639E+06    -45.0450E+06    -102.206E+06    -45.3365E+06    -44.4918E+06         35.6127
            1696     11.3204E-03     95.5292E-03     904.977E-03    -260.513E-03    -281.618E-03    -260.010E-03     904.474E-03    -281.618E-03    -13.3774E-03     116.803E-03    -58.2781E-03    -58.5395E-03    -57.4281E-03     115.799E-03    -58.3856E-03     26.1061E-03    -14.6921E+06    -56.0082E+06    -103.196E+06    -42.2182E+06    -75.6696E+06    -56.0082E+06    -40.3610E+06         38.3847
            1697     12.2647E-03     95.5595E-03     903.544E-03    -262.251E-03    -280.220E-03    -261.479E-03     902.772E-03    -280.220E-03    -24.3773E-03     117.481E-03    -58.2865E-03    -59.2211E-03    -56.8679E-03     115.128E-03    -58.2865E-03     39.4754E-03    -2.74391E+06    -52.6143E+06    -67.9553E+06    -37.2612E+06    -31.6913E+06    -54.3609E+06    -28.4091E+06         41.8902
            1698     13.2087E-03     95.6123E-03     899.412E-03    -257.499E-03    -279.059E-03    -257.091E-03     899.003E-03    -279.059E-03    -11.3008E-03     119.916E-03    -58.1439E-03    -61.8076E-03    -56.6368E-03     114.745E-03    -58.1439E-03     59.5456E-03     52.0629E+06    -36.7246E+06    -49.1244E+06    -31.5042E+06     46.4287E+06    -48.7106E+06    -12.4146E+06         46.0960
            1699     14.1543E-03     95.6885E-03     891.690E-03    -252.873E-03    -277.961E-03    -252.794E-03     891.611E-03    -277.961E-03    -3.25659E-03     131.662E-03    -58.2020E-03    -73.4842E-03    -57.3115E-03     115.489E-03    -58.2020E-03     106.374E-03     117.580E+06     4.85238E+06    -36.3321E+06    -25.8997E+06     117.387E+06    -5.38692E+06    -1.00670E+06         50.9745
            1700     15.0997E-03     95.8490E-03     889.705E-03    -253.363E-03    -277.149E-03    -253.284E-03     889.626E-03    -277.149E-03    -1.08946E-03     151.517E-03    -58.5008E-03    -93.0237E-03    -57.0971E-03     115.591E-03    -58.5008E-03     171.753E-03     150.083E+06     79.5135E+06    -19.6968E+06    -19.5971E+06     149.984E+06     79.5135E+06     2.19092E+06         56.1485
            1701     16.0508E-03     96.0772E-03     900.500E-03    -256.680E-03    -283.178E-03    -262.969E-03     900.411E-03    -276.799E-03     497.025E-06     147.864E-03    -58.6321E-03    -89.2351E-03    -56.4011E-03     115.030E-03    -58.6321E-03     161.125E-03     176.847E+06     141.170E+06    -10.1284E+06    -10.0548E+06     176.773E+06     141.170E+06     717.148E+03         60.4999
            1702     942.908E-06     96.5684E-03         2.92752     82.7584E-03        -2.62425    -670.456E-03     973.727E-03     82.7584E-03        -2.09639     117.737E-03    -58.5350E-03    -59.2039E-03    -59.1149E-03     117.735E-03    -58.6225E-03     801.876E-06    -64.9023E+06    -72.7962E+06    -197.651E+06    -69.7674E+06    -197.163E+06    -68.4198E+06    -6.98507E+06         29.3113
            1703     1.88639E-03     96.5675E-03         1.73933    -295.206E-03        -1.08369    -301.571E-03     957.203E-03    -295.206E-03     680.251E-03     117.714E-03    -58.7913E-03    -58.9282E-03    -58.8172E-03     117.713E-03    -58.9008E-03     576.051E-06    -56.1803E+06    -63.5693E+06    -188.802E+06    -63.7055E+06    -187.061E+06    -57.7846E+06    -13.8599E+06         29.4008
            1704     2.82810E-03     96.5687E-03         1.27309    -295.359E-03    -634.357E-03    -286.684E-03     925.417E-03    -295.359E-03    -387.501E-03     117.663E-03    -58.7521E-03    -58.9186E-03    -58.7640E-03     117.660E-03    -58.9038E-03     1.10570E-03    -48.9606E+06    -55.9557E+06    -178.209E+06    -59.6937E+06    -174.471E+06    -48.9606E+06    -20.6237E+06         29.5507
            1705     3.77293E-03     96.5692E-03         1.07746    -294.325E-03    -446.320E-03    -297.491E-03     928.631E-03    -294.325E-03     164.819E-03     117.561E-03    -58.6542E-03    -58.9176E-03    -58.6617E-03     117.554E-03    -58.9028E-03     2.13225E-03    -41.9841E+06    -52.3232E+06    -171.285E+06    -58.2398E+06    -165.368E+06    -41.9841E+06    -25.5658E+06         29.7681
            1706     4.71456E-03     96.5708E-03         1.00047    -294.831E-03    -366.947E-03    -295.716E-03     929.242E-03    -294.831E-03    -135.207E-03     117.526E-03    -58.6532E-03    -58.8843E-03    -58.6352E-03     117.508E-03    -58.8843E-03     3.47924E-03    -38.4552E+06    -46.9226E+06    -166.193E+06    -56.6682E+06    -156.447E+06    -38.4552E+06    -32.2319E+06         30.0610
            1707     5.65820E-03     96.5745E-03     957.022E-03    -294.429E-03    -319.621E-03    -288.276E-03     925.676E-03    -294.429E-03     65.5856E-03     117.260E-03    -58.4146E-03    -58.8556E-03    -58.3797E-03     117.225E-03    -58.8556E-03     4.89346E-03    -34.7809E+06    -39.6089E+06    -162.317E+06    -53.4684E+06    -148.457E+06    -34.7809E+06    -38.7466E+06         30.4372
            1708     6.60173E-03     96.5781E-03     937.818E-03    -293.259E-03    -300.709E-03    -283.640E-03     920.750E-03    -293.259E-03    -41.5896E-03     116.885E-03    -58.0770E-03    -58.8133E-03    -58.0034E-03     116.811E-03    -58.8133E-03     7.01225E-03    -27.7465E+06    -33.0626E+06    -154.188E+06    -48.5235E+06    -138.727E+06    -27.7465E+06    -40.2836E+06         30.9120
            1709     7.54503E-03     96.5860E-03     933.849E-03    -290.742E-03    -298.548E-03    -288.541E-03     925.485E-03    -292.385E-03     49.3155E-03     116.676E-03    -57.9382E-03    -58.7380E-03    -57.8156E-03     116.553E-03    -58.7380E-03     9.20792E-03    -22.4002E+06    -26.4462E+06    -143.666E+06    -43.2250E+06    -126.867E+06    -22.4207E+06    -40.9392E+06         31.5106
            1710     8.49023E-03     96.5953E-03     927.562E-03    -282.516E-03    -296.387E-03    -283.997E-03     924.448E-03    -291.792E-03    -25.6136E-03     116.818E-03    -58.1407E-03    -58.6843E-03    -57.9665E-03     116.605E-03    -58.6455E-03     12.0295E-03    -18.7826E+06    -26.6447E+06    -137.155E+06    -40.2422E+06    -116.796E+06    -25.5447E+06    -44.2136E+06         32.3204
            1711     9.43295E-03     96.6082E-03     922.288E-03    -276.800E-03    -295.058E-03    -279.830E-03     921.156E-03    -290.896E-03     22.7461E-03     117.032E-03    -58.4326E-03    -58.6108E-03    -58.0418E-03     116.602E-03    -58.5720E-03     17.0808E-03    -16.8961E+06    -32.5155E+06    -132.435E+06    -39.8294E+06    -109.501E+06    -32.5155E+06    -46.0653E+06         33.5869
            1712     10.3763E-03     96.6297E-03     909.227E-03    -269.450E-03    -289.506E-03    -269.092E-03     908.869E-03    -289.506E-03    -7.91394E-03     116.733E-03    -58.2506E-03    -58.4882E-03    -57.6027E-03     116.085E-03    -58.4882E-03     21.2179E-03    -12.2644E+06    -39.4960E+06    -123.166E+06    -38.1147E+06    -97.3155E+06    -39.4960E+06    -46.6633E+06         35.5701
            1713     11.3209E-03     96.6510E-03     898.246E-03    -261.312E-03    -287.576E-03    -261.150E-03     898.083E-03    -287.576E-03     8.96965E-03     116.464E-03    -58.0834E-03    -58.3927E-03    -57.1040E-03     115.442E-03    -58.3499E-03     26.3374E-03    -8.41729E+06    -51.9955E+06    -106.597E+06    -36.8404E+06    -78.1737E+06    -51.9955E+06    -44.4192E+06         38.3349
            1714     12.2652E-03     96.6830E-03     901.697E-03    -266.002E-03    -285.826E-03    -265.710E-03     901.405E-03    -285.826E-03     17.2462E-03     117.571E-03    -58.1729E-03    -59.4282E-03    -56.9848E-03     115.184E-03    -58.2288E-03     39.7767E-03    -3.32905E+06    -57.7940E+06    -78.9351E+06    -35.0948E+06    -47.1694E+06    -57.7940E+06    -35.6678E+06         41.8384
            1715     13.2108E-03     96.7335E-03     901.031E-03    -263.829E-03    -284.483E-03    -263.577E-03     900.779E-03    -284.483E-03     20.3692E-03     120.564E-03    -58.0506E-03    -62.5457E-03    -57.1664E-03     115.185E-03    -58.0506E-03     60.8676E-03     41.6904E+06    -44.0919E+06    -65.8849E+06    -31.7037E+06     28.0201E+06    -64.6028E+06    -20.9374E+06         46.0449
            1716     14.1535E-03     96.8144E-03     892.671E-03    -256.145E-03    -283.153E-03    -255.794E-03     892.320E-03    -283.153E-03     15.2686E-03     131.454E-03    -58.0808E-03    -73.3887E-03    -57.1750E-03     115.240E-03    -58.0808E-03     106.671E-03     106.578E+06    -7.87753E+06    -48.1116E+06    -26.7988E+06     105.776E+06    -28.3885E+06    -6.06709E+06         50.9287
            1717     15.0988E-03     96.9677E-03     888.766E-03    -252.889E-03    -281.896E-03    -252.486E-03     888.362E-03    -281.896E-03     15.5379E-03     151.782E-03    -58.4002E-03    -93.4080E-03    -56.9695E-03     115.344E-03    -58.4002E-03     172.924E-03     150.595E+06     66.5063E+06    -19.6377E+06    -19.5816E+06     150.539E+06     66.5063E+06    -184.817E+03         56.1261
            1718     16.0437E-03     97.1956E-03     867.880E-03    -240.557E-03    -280.410E-03    -240.419E-03     867.742E-03    -280.410E-03     9.57741E-03     147.889E-03    -58.5529E-03    -89.3798E-03    -55.6542E-03     114.163E-03    -58.5529E-03     163.186E-03     178.394E+06     139.038E+06    -10.4364E+06    -10.3855E+06     178.343E+06     139.038E+06    -1.13483E+06         60.5146
            1719     943.185E-06     97.6918E-03         2.50292     138.868E-03        -2.26885    -717.832E-03     951.900E-03     138.868E-03        -1.76920     117.692E-03    -58.6947E-03    -58.9985E-03    -58.9688E-03     117.691E-03    -58.7232E-03     656.206E-06    -53.0612E+06    -56.9057E+06    -180.042E+06    -55.1439E+06    -179.237E+06    -55.6280E+06    -8.43623E+06         29.3049
            1720     1.88556E-03     97.6923E-03         1.56936    -296.248E-03    -922.159E-03    -323.694E-03     970.896E-03    -296.248E-03     570.213E-03     117.599E-03    -58.7274E-03    -58.8746E-03    -58.7643E-03     117.597E-03    -58.8362E-03     709.358E-06    -50.1864E+06    -53.6733E+06    -171.699E+06    -54.1451E+06    -169.328E+06    -52.0855E+06    -16.2432E+06         29.3887
            1721     2.82971E-03     97.6927E-03         1.20682    -303.465E-03    -572.434E-03    -305.593E-03     939.976E-03    -303.465E-03    -295.070E-03     117.442E-03    -58.6045E-03    -58.8434E-03    -58.6019E-03     117.439E-03    -58.8430E-03     1.31401E-03    -40.7384E+06    -46.5010E+06    -165.212E+06    -50.5310E+06    -161.182E+06    -40.7384E+06    -21.2690E+06         29.5343
            1722     3.77172E-03     97.6930E-03         1.04772    -303.943E-03    -417.928E-03    -304.929E-03     934.726E-03    -303.943E-03     183.659E-03     117.372E-03    -58.5462E-03    -58.8349E-03    -58.5385E-03     117.364E-03    -58.8345E-03     2.23274E-03    -29.3394E+06    -38.9291E+06    -157.247E+06    -44.6724E+06    -151.504E+06    -29.3394E+06    -25.1789E+06         29.7481
            1723     4.71606E-03     97.6957E-03     969.385E-03    -303.025E-03    -343.623E-03    -292.565E-03     918.327E-03    -303.025E-03    -85.0836E-03     117.191E-03    -58.4024E-03    -58.8006E-03    -58.3823E-03     117.171E-03    -58.8006E-03     3.68498E-03    -22.5945E+06    -31.1447E+06    -149.765E+06    -40.1798E+06    -140.730E+06    -22.5945E+06    -31.0592E+06         30.0382
            1724     5.65904E-03     97.6975E-03     951.808E-03    -301.563E-03    -323.049E-03    -296.384E-03     925.143E-03    -301.563E-03     54.8423E-03     117.007E-03    -58.2712E-03    -58.7459E-03    -58.2336E-03     116.970E-03    -58.7459E-03     5.09020E-03    -21.1525E+06    -26.4321E+06    -147.451E+06    -39.2022E+06    -134.680E+06    -21.1525E+06    -36.9569E+06         30.4155
            1725     6.60271E-03     97.7021E-03     946.287E-03    -301.131E-03    -314.980E-03    -300.645E-03     931.951E-03    -301.131E-03    -42.0638E-03     116.857E-03    -58.1746E-03    -58.6857E-03    -58.0934E-03     116.776E-03    -58.6857E-03     7.36258E-03    -19.2499E+06    -24.0925E+06    -145.390E+06    -38.5100E+06    -129.424E+06    -20.7978E+06    -41.0874E+06         30.8940
            1726     7.54667E-03     97.7091E-03     934.394E-03    -295.982E-03    -307.267E-03    -295.702E-03     927.674E-03    -300.827E-03     50.2192E-03     116.824E-03    -58.1093E-03    -58.7152E-03    -58.0591E-03     116.689E-03    -58.6305E-03     9.68707E-03    -15.4277E+06    -19.3959E+06    -136.605E+06    -35.3601E+06    -117.823E+06    -18.2455E+06    -43.5598E+06         31.4943
            1727     8.48967E-03     97.7181E-03     912.586E-03    -280.598E-03    -299.831E-03    -278.381E-03     909.936E-03    -299.398E-03    -15.7637E-03     116.815E-03    -58.1249E-03    -58.7010E-03    -58.0284E-03     116.595E-03    -58.5775E-03     12.2572E-03    -11.7965E+06    -18.8671E+06    -128.889E+06    -32.3048E+06    -108.380E+06    -18.8671E+06    -44.4871E+06         32.2962
            1728     9.43343E-03     97.7333E-03     898.088E-03    -267.176E-03    -296.768E-03    -266.137E-03     897.050E-03    -296.768E-03     23.8316E-03     116.680E-03    -58.1439E-03    -58.5382E-03    -57.7284E-03     116.226E-03    -58.4994E-03     17.4662E-03    -7.98860E+06    -25.2190E+06    -124.739E+06    -30.7111E+06    -102.017E+06    -25.2190E+06    -46.1921E+06         33.5432
            1729     10.3776E-03     97.7513E-03     902.897E-03    -270.991E-03    -294.250E-03    -270.734E-03     902.640E-03    -294.250E-03    -8.07743E-03     116.606E-03    -58.1351E-03    -58.4602E-03    -57.4910E-03     115.904E-03    -58.4019E-03     22.0705E-03    -4.83830E+06    -33.5578E+06    -117.433E+06    -31.0021E+06    -91.2688E+06    -33.5578E+06    -47.4069E+06         35.5087
            1730     11.3218E-03     97.7748E-03     902.752E-03    -270.957E-03    -292.382E-03    -270.737E-03     902.532E-03    -292.382E-03    -5.87077E-03     116.654E-03    -58.1201E-03    -58.5463E-03    -57.3422E-03     115.624E-03    -58.2944E-03     26.5633E-03    -3.37529E+06    -44.8348E+06    -106.312E+06    -31.1628E+06    -78.5247E+06    -44.8348E+06    -45.6802E+06         38.2647
            1731     12.2671E-03     97.8038E-03     890.529E-03    -261.706E-03    -290.517E-03    -261.359E-03     890.182E-03    -290.517E-03     2.64526E-03     117.751E-03    -58.1207E-03    -59.6629E-03    -57.2132E-03     115.357E-03    -58.1765E-03     39.7545E-03     75.3083E+03    -57.0401E+06    -86.6841E+06    -30.8657E+06    -55.7430E+06    -57.0401E+06    -40.7192E+06         41.7657
            1732     13.2098E-03     97.8593E-03     886.409E-03    -259.409E-03    -288.569E-03    -259.039E-03     886.039E-03    -288.569E-03     4.37994E-03     120.266E-03    -57.9934E-03    -62.2967E-03    -56.7729E-03     114.742E-03    -57.9934E-03     61.4855E-03     31.4347E+06    -47.3655E+06    -72.1268E+06    -29.0911E+06     8.78394E+06    -67.7505E+06    -28.2942E+06         45.9769
            1733     14.1555E-03     97.9356E-03     882.507E-03    -257.983E-03    -286.808E-03    -257.225E-03     881.749E-03    -286.808E-03     19.5132E-03     130.320E-03    -57.9208E-03    -72.4143E-03    -56.1617E-03     114.067E-03    -57.9208E-03     106.381E-03     93.3534E+06    -20.9473E+06    -48.2089E+06    -24.5640E+06     90.7275E+06    -41.9663E+06    -12.5775E+06         50.8742
            1734     15.1045E-03     98.0883E-03     866.286E-03    -246.472E-03    -284.888E-03    -245.868E-03     865.682E-03    -284.888E-03     37.8587E-03     151.632E-03    -58.1358E-03    -93.5366E-03    -56.2174E-03     114.313E-03    -58.1358E-03     174.481E-03     148.714E+06     48.9054E+06    -17.9596E+06    -17.1261E+06     148.514E+06     48.2715E+06    -3.84286E+06         56.1041
            1735     16.0533E-03     98.3208E-03     834.163E-03    -226.158E-03    -282.198E-03    -226.091E-03     834.096E-03    -282.198E-03     4.33313E-03     148.486E-03    -58.3325E-03    -90.2038E-03    -55.7257E-03     114.008E-03    -58.3325E-03     164.854E-03     178.165E+06     134.412E+06    -7.87499E+06    -7.78350E+06     178.074E+06     134.412E+06    -1.84992E+06         60.5316
            1736     942.908E-06     98.8165E-03         2.10432     137.491E-03        -1.89049    -715.114E-03     928.947E-03     137.491E-03        -1.47320     117.639E-03    -58.5893E-03    -59.0520E-03    -58.8777E-03     117.638E-03    -58.7629E-03     639.634E-06    -34.3206E+06    -36.1531E+06    -161.674E+06    -35.4637E+06    -160.808E+06    -35.8757E+06    -8.96874E+06         29.2861
            1737     1.88647E-03     98.8164E-03         1.37600    -292.206E-03    -746.061E-03    -306.104E-03     936.045E-03    -292.206E-03     452.882E-03     117.291E-03    -58.5107E-03    -58.7842E-03    -58.5209E-03     117.290E-03    -58.7732E-03     679.015E-06    -30.6702E+06    -33.1691E+06    -151.881E+06    -35.0884E+06    -149.667E+06    -30.9650E+06    -15.6014E+06         29.3650
            1738     2.82925E-03     98.8159E-03         1.12630    -298.492E-03    -505.331E-03    -315.372E-03     936.344E-03    -298.492E-03    -226.897E-03     117.172E-03    -58.4617E-03    -58.7162E-03    -58.4584E-03     117.168E-03    -58.7158E-03     1.45749E-03    -25.7687E+06    -29.8732E+06    -151.856E+06    -34.0789E+06    -147.650E+06    -25.7687E+06    -21.9699E+06         29.5049
            1739     3.77331E-03     98.8178E-03         1.02450    -303.843E-03    -406.570E-03    -324.157E-03     942.084E-03    -303.843E-03     145.220E-03     116.928E-03    -58.2772E-03    -58.6604E-03    -58.2674E-03     116.917E-03    -58.6600E-03     2.62265E-03    -19.9203E+06    -24.2864E+06    -144.615E+06    -31.0271E+06    -137.748E+06    -20.0472E+06    -27.5986E+06         29.7119
            1740     4.71619E-03     98.8179E-03     971.398E-03    -307.168E-03    -352.001E-03    -314.965E-03     934.362E-03    -307.168E-03    -75.9888E-03     116.670E-03    -58.0793E-03    -58.6015E-03    -58.0547E-03     116.645E-03    -58.6015E-03     4.02859E-03    -11.8986E+06    -17.3504E+06    -136.049E+06    -26.4278E+06    -126.844E+06    -12.0254E+06    -31.6995E+06         29.9980
            1741     5.66056E-03     98.8221E-03     954.688E-03    -306.164E-03    -330.808E-03    -310.740E-03     936.632E-03    -308.176E-03     58.4148E-03     116.685E-03    -58.1417E-03    -58.5528E-03    -58.0970E-03     116.641E-03    -58.5528E-03     5.53455E-03    -6.38172E+06    -11.0898E+06    -132.456E+06    -22.1722E+06    -121.077E+06    -6.67798E+06    -35.3407E+06         30.3767
            1742     6.60388E-03     98.8251E-03     936.741E-03    -302.379E-03    -314.540E-03    -299.180E-03     926.796E-03    -307.795E-03    -16.9663E-03     116.736E-03    -58.2352E-03    -58.5068E-03    -58.1494E-03     116.651E-03    -58.5068E-03     7.60507E-03    -4.64964E+06    -8.27314E+06    -131.770E+06    -20.2294E+06    -117.338E+06    -7.12480E+06    -39.9943E+06         30.8564
            1743     7.54751E-03     98.8329E-03     918.640E-03    -293.011E-03    -306.520E-03    -288.668E-03     913.887E-03    -306.110E-03     65.1842E-03     116.710E-03    -58.1571E-03    -58.5557E-03    -58.0727E-03     116.541E-03    -58.4709E-03     10.6901E-03    -3.44524E+06    -7.76779E+06    -126.974E+06    -20.7148E+06    -109.704E+06    -7.76779E+06    -42.7101E+06         31.4533
            1744     8.49058E-03     98.8429E-03     910.812E-03    -288.115E-03    -304.715E-03    -287.673E-03     909.787E-03    -304.133E-03    -4.67646E-03     116.534E-03    -58.0248E-03    -58.5149E-03    -57.8362E-03     116.260E-03    -58.4301E-03     13.6843E-03    -1.10698E+06    -7.88229E+06    -120.510E+06    -21.0212E+06    -100.595E+06    -7.88229E+06    -44.4461E+06         32.2440
            1745     9.43536E-03     98.8539E-03     901.086E-03    -279.691E-03    -302.726E-03    -279.505E-03     900.318E-03    -302.144E-03     5.67358E-03     116.367E-03    -57.9960E-03    -58.3707E-03    -57.5083E-03     115.859E-03    -58.3504E-03     18.4771E-03     1.48621E+06    -13.3447E+06    -116.180E+06    -20.4091E+06    -94.2849E+06    -13.3447E+06    -45.7652E+06         33.4708
            1746     10.3800E-03     98.8758E-03     891.978E-03    -270.333E-03    -299.758E-03    -269.965E-03     891.610E-03    -299.758E-03    -9.76463E-03     116.517E-03    -58.1255E-03    -58.3852E-03    -57.5057E-03     115.764E-03    -58.2521E-03     22.8730E-03     2.51763E+06    -23.6757E+06    -110.137E+06    -21.6250E+06    -85.9945E+06    -23.6757E+06    -46.0598E+06         35.4185
            1747     11.3235E-03     98.8967E-03     896.497E-03    -276.306E-03    -297.612E-03    -275.659E-03     895.849E-03    -297.612E-03    -18.7719E-03     117.084E-03    -58.1826E-03    -58.9097E-03    -57.7820E-03     115.956E-03    -58.1826E-03     27.7683E-03     3.81673E+06    -34.2432E+06    -102.514E+06    -22.9415E+06    -75.7561E+06    -34.2432E+06    -46.0562E+06         38.1658
            1748     12.2658E-03     98.9283E-03     880.522E-03    -265.476E-03    -295.664E-03    -264.793E-03     879.839E-03    -295.664E-03    -16.7606E-03     118.008E-03    -58.0915E-03    -59.9389E-03    -57.4239E-03     115.493E-03    -58.0915E-03     40.9393E-03     6.77370E+06    -49.2862E+06    -87.7252E+06    -23.0647E+06    -57.8868E+06    -49.2862E+06    -43.4646E+06         41.6657
            1749     13.2123E-03     98.9793E-03     863.919E-03    -249.433E-03    -293.123E-03    -249.121E-03     863.608E-03    -293.123E-03     6.69966E-03     119.553E-03    -57.9047E-03    -61.6634E-03    -56.0040E-03     113.893E-03    -57.9047E-03     61.9453E-03     24.9557E+06    -45.5593E+06    -71.4296E+06    -21.9590E+06    -7.23628E+06    -62.8379E+06    -33.2678E+06         45.8852
            1750     14.1586E-03     99.0576E-03     855.927E-03    -242.442E-03    -290.245E-03    -242.005E-03     855.491E-03    -290.245E-03     1.48837E-03     129.649E-03    -57.7371E-03    -71.9580E-03    -55.8632E-03     113.555E-03    -57.7371E-03     105.970E-03     80.5333E+06    -25.8117E+06    -50.1901E+06    -19.6586E+06     74.3802E+06    -50.1901E+06    -18.6593E+06         50.7988
            1751     15.1043E-03     99.2060E-03     828.427E-03    -221.847E-03    -286.938E-03    -221.544E-03     828.123E-03    -286.938E-03     3.48761E-03     150.111E-03    -57.8711E-03    -92.3041E-03    -55.8866E-03     113.694E-03    -57.8711E-03     171.497E-03     143.671E+06     36.1192E+06    -22.6869E+06    -14.9174E+06     143.001E+06     29.0195E+06    -9.06657E+06         56.0628
            1752     16.0548E-03     99.4383E-03     815.675E-03    -216.410E-03    -283.209E-03    -216.275E-03     815.539E-03    -283.209E-03    -21.1384E-03     146.909E-03    -58.1025E-03    -88.8396E-03    -54.8061E-03     112.875E-03    -58.1025E-03     162.968E-03     174.302E+06     124.571E+06    -8.06297E+06    -7.94901E+06     174.188E+06     124.571E+06    -2.85896E+06         60.5337
            1753     942.842E-06     99.9400E-03         1.75336     124.037E-03        -1.54879    -711.605E-03     916.172E-03     124.037E-03        -1.18719     116.990E-03    -58.1605E-03    -58.8334E-03    -58.6866E-03     116.988E-03    -58.3055E-03     969.794E-06    -14.1225E+06    -16.8790E+06    -143.877E+06    -16.8769E+06    -143.102E+06    -14.8997E+06       -8.69E+06         29.2351
            1754     1.88661E-03     99.9396E-03         1.22182    -296.878E-03    -607.341E-03    -310.037E-03     924.520E-03    -296.878E-03     337.482E-03     116.886E-03    -58.2799E-03    -58.6114E-03    -58.4034E-03     116.883E-03    -58.4853E-03     1.17799E-03    -12.3666E+06    -14.3745E+06    -134.473E+06    -15.9124E+06     -132.75E+06    -12.5515E+06    -13.9889E+06         29.3163
            1755     2.83031E-03     99.9403E-03         1.04995    -302.537E-03    -435.264E-03    -316.755E-03     931.444E-03    -302.537E-03    -214.551E-03     116.570E-03    -58.1303E-03    -58.4464E-03    -58.1252E-03     116.565E-03    -58.4464E-03     1.81614E-03    -7.70714E+06    -9.62335E+06    -133.392E+06    -13.7358E+06    -129.279E+06    -7.70737E+06    -21.5743E+06         29.4516
            1756     3.77385E-03     99.9398E-03     996.507E-03    -308.146E-03    -378.979E-03    -334.011E-03     951.539E-03    -308.146E-03     80.3535E-03     116.209E-03    -57.8700E-03    -58.3493E-03    -57.8544E-03     116.194E-03    -58.3493E-03     3.13656E-03    -4.54785E+06    -5.67812E+06    -129.985E+06    -11.9043E+06    -122.999E+06    -5.30784E+06    -28.4054E+06         29.6514
            1757     4.71853E-03     99.9421E-03     971.133E-03    -313.092E-03    -352.251E-03    -330.108E-03     948.990E-03    -313.092E-03    -70.9778E-03     116.082E-03    -57.8243E-03    -58.2677E-03    -57.7905E-03     116.048E-03    -58.2677E-03     4.75739E-03     265.351E+03    -1.94035E+06    -124.030E+06    -10.2650E+06    -114.572E+06    -867.809E+03    -32.6286E+06         29.9304
            1758     5.66195E-03     99.9438E-03     944.595E-03    -307.635E-03    -328.057E-03    -310.700E-03     934.099E-03    -314.496E-03     29.7521E-03     116.077E-03    -57.8519E-03    -58.2333E-03    -57.7838E-03     116.009E-03    -58.2333E-03     6.70334E-03     6.38423E+06     3.23483E+06    -121.474E+06    -7.80607E+06    -109.763E+06     5.71479E+06    -36.4140E+06         30.3028
            1759     6.60602E-03     99.9493E-03     925.596E-03    -302.896E-03    -314.681E-03    -298.509E-03     919.688E-03    -313.160E-03    -31.5584E-03     116.185E-03    -57.9840E-03    -58.2060E-03    -57.8592E-03     116.060E-03    -58.2060E-03     9.15032E-03     8.82338E+06     5.50981E+06    -119.991E+06    -6.40723E+06    -107.147E+06     7.89620E+06    -38.1233E+06         30.7769
            1760     7.54948E-03     99.9548E-03     919.373E-03    -301.055E-03    -312.932E-03    -299.456E-03     916.254E-03    -311.411E-03     14.7625E-03     116.006E-03    -57.8471E-03    -58.1600E-03    -57.6272E-03     115.786E-03    -58.1600E-03     12.1924E-03     9.83761E+06     5.63674E+06    -115.037E+06    -5.91495E+06    -100.264E+06     6.61571E+06    -40.0009E+06         31.3673
            1761     8.49517E-03     99.9654E-03     906.323E-03    -292.210E-03    -310.304E-03    -291.550E-03     905.080E-03    -309.722E-03    -39.6857E-03     115.969E-03    -57.8315E-03    -58.1369E-03    -57.5257E-03     115.630E-03    -58.1044E-03     15.2572E-03     11.8398E+06     5.13622E+06    -109.864E+06    -5.78772E+06    -92.2366E+06     5.13622E+06    -42.6987E+06         32.1466
            1762     9.43805E-03     99.9775E-03     901.871E-03    -286.507E-03    -308.326E-03    -286.813E-03     901.595E-03    -307.744E-03    -9.92097E-03     116.300E-03    -58.0258E-03    -58.2727E-03    -57.6538E-03     115.702E-03    -58.0464E-03     20.0628E-03     12.9771E+06    -933.394E+03    -106.968E+06    -6.96307E+06    -87.0277E+06    -933.394E+03    -44.5203E+06         33.3553
            1763     10.3816E-03     99.9973E-03     888.875E-03    -275.675E-03    -305.421E-03    -275.397E-03     888.597E-03    -305.421E-03    -10.9444E-03     116.409E-03    -57.9811E-03    -58.4320E-03    -57.5195E-03     115.497E-03    -57.9811E-03     25.0626E-03     13.1981E+06    -12.0087E+06    -102.670E+06    -8.00203E+06    -81.4700E+06    -12.0087E+06    -44.7152E+06         35.2881
            1764     11.3263E-03     100.021E-03     867.563E-03    -262.795E-03    -302.477E-03    -262.285E-03     867.053E-03    -302.477E-03    -12.4364E-03     116.691E-03    -57.9222E-03    -58.7823E-03    -57.4040E-03     115.313E-03    -57.9222E-03     30.6469E-03     12.5664E+06    -22.6517E+06    -95.2990E+06    -10.4187E+06    -72.3139E+06    -22.6517E+06    -43.9058E+06         38.0314
            1765     12.2712E-03     100.052E-03     860.307E-03    -259.753E-03    -299.347E-03    -259.220E-03     859.774E-03    -299.347E-03    -9.36150E-03     117.939E-03    -57.8328E-03    -60.1222E-03    -57.2763E-03     115.093E-03    -57.8328E-03     43.7606E-03     13.6103E+06    -37.2597E+06    -82.9440E+06    -13.6652E+06    -55.6686E+06    -37.2597E+06    -43.1789E+06         41.5355
            1766     13.2142E-03     100.101E-03     852.238E-03    -250.890E-03    -296.261E-03    -250.591E-03     851.939E-03    -296.261E-03     31.9859E-03     119.872E-03    -57.6580E-03    -62.2272E-03    -56.3816E-03     114.026E-03    -57.6580E-03     63.3136E-03     22.3493E+06    -42.7719E+06    -72.3848E+06    -14.7945E+06    -20.0888E+06    -57.9241E+06    -36.9727E+06         45.7644
            1767     14.1614E-03     100.177E-03     835.288E-03    -234.670E-03    -292.797E-03    -234.435E-03     835.054E-03    -292.797E-03     10.7486E-03     130.457E-03    -57.4563E-03    -73.0483E-03    -56.2619E-03     113.670E-03    -57.4563E-03     108.267E-03     70.6366E+06    -27.2629E+06    -59.8470E+06    -14.4059E+06     57.7796E+06    -59.8470E+06    -23.4685E+06         50.6927
            1768     15.1075E-03     100.331E-03     814.443E-03    -215.987E-03    -288.750E-03    -215.906E-03     814.362E-03    -288.750E-03    -17.5158E-03     150.714E-03    -57.5647E-03    -93.2020E-03    -56.4076E-03     113.919E-03    -57.5647E-03     173.174E-03     136.331E+06     27.0850E+06    -32.2932E+06    -13.7635E+06     135.233E+06     9.65320E+06    -10.8738E+06         55.9916
            1769     16.0542E-03     100.552E-03     807.772E-03    -215.360E-03    -284.641E-03    -215.050E-03     807.462E-03    -284.641E-03    -6.48738E-03     146.633E-03    -57.8316E-03    -88.7929E-03    -53.8913E-03     111.731E-03    -57.8316E-03     165.498E-03     168.774E+06     111.903E+06    -8.97982E+06    -8.87108E+06     168.665E+06     111.903E+06    -3.44378E+06         60.5133
            1770     945.092E-06     101.064E-03         1.43376     112.869E-03        -1.25375    -716.779E-03     896.785E-03     112.869E-03    -874.721E-03     115.655E-03    -57.6684E-03    -57.9902E-03    -57.9400E-03     115.652E-03    -57.7158E-03     1.32703E-03     391.475E+03    -3.98971E+06    -127.154E+06    -2.30630E+06    -126.564E+06    -1.88248E+06    -7.20275E+06         29.1359
            1771     1.88781E-03     101.063E-03         1.12568    -311.208E-03    -524.420E-03    -348.419E-03     949.680E-03    -311.208E-03     239.924E-03     115.738E-03    -57.7489E-03    -57.9941E-03    -57.8949E-03     115.733E-03    -57.8434E-03     1.70794E-03     2.20277E+06     483.368E+03    -118.249E+06    -396.997E+03    -116.054E+06     888.719E+03    -15.2832E+06         29.2173
            1772     2.83172E-03     101.062E-03         1.00204    -320.331E-03    -390.663E-03    -319.274E-03     930.655E-03    -320.331E-03    -171.326E-03     115.458E-03    -57.6180E-03    -57.8479E-03    -57.6061E-03     115.446E-03    -57.8479E-03     2.71381E-03     8.56855E+06     7.04966E+06    -115.070E+06     3.50163E+06    -110.392E+06     7.43919E+06    -23.0780E+06         29.3508
            1773     3.77646E-03     101.062E-03     964.873E-03    -318.616E-03    -349.354E-03    -321.270E-03     938.454E-03    -320.281E-03     51.9701E-03     115.241E-03    -57.4461E-03    -57.8036E-03    -57.4177E-03     115.212E-03    -57.8036E-03     4.26050E-03     15.0421E+06     13.2426E+06    -114.582E+06     7.07188E+06    -107.778E+06     14.4089E+06    -28.6656E+06         29.5454
            1774     4.72033E-03     101.064E-03     953.312E-03    -317.992E-03    -335.063E-03    -319.405E-03     939.983E-03    -320.320E-03    -58.3366E-03     115.008E-03    -57.2897E-03    -57.7256E-03    -57.2292E-03     114.947E-03    -57.7256E-03     6.23292E-03     19.2076E+06     15.9508E+06    -110.913E+06     9.26157E+06    -101.744E+06     16.7275E+06    -33.0071E+06         29.8142
            1775     5.66528E-03     101.066E-03     944.516E-03    -314.522E-03    -330.133E-03    -317.534E-03     937.428E-03    -320.033E-03     7.99453E-03     114.943E-03    -57.2744E-03    -57.6736E-03    -57.1600E-03     114.829E-03    -57.6736E-03     8.64963E-03     22.2871E+06     18.1348E+06    -110.912E+06     9.49507E+06    -100.425E+06     20.4401E+06    -35.4587E+06         30.1731
            1776     6.60989E-03     101.071E-03     934.561E-03    -313.481E-03    -325.304E-03    -314.449E-03     929.714E-03    -319.489E-03    -29.3062E-03     114.899E-03    -57.2801E-03    -57.6228E-03    -57.0857E-03     114.705E-03    -57.6228E-03     11.4202E-03     24.3022E+06     18.2782E+06    -110.587E+06     9.71644E+06    -99.2856E+06     21.5625E+06     -36.736E+06         30.6353
            1777     7.55485E-03     101.078E-03     917.452E-03    -307.380E-03    -319.911E-03    -305.965E-03     914.515E-03    -318.390E-03     2.35952E-03     115.033E-03    -57.3167E-03    -57.7168E-03    -57.1642E-03     114.712E-03    -57.5489E-03     14.6211E-03     24.5813E+06     16.4300E+06    -103.601E+06     10.2186E+06    -90.2169E+06     17.4089E+06    -38.9422E+06         31.2180
            1778     8.49806E-03     101.086E-03     889.781E-03    -285.725E-03    -315.887E-03    -284.020E-03     888.076E-03    -315.887E-03    -35.8969E-03     115.192E-03    -57.4368E-03    -57.7553E-03    -57.1887E-03     114.700E-03    -57.5116E-03     18.1657E-03     25.0583E+06     14.9460E+06    -99.9202E+06     10.1924E+06    -85.0543E+06     14.9460E+06    -40.3942E+06         31.9873
            1779     9.44350E-03     101.101E-03     876.929E-03    -276.314E-03    -312.344E-03    -275.962E-03     876.578E-03    -312.344E-03     14.0127E-03     115.497E-03    -57.4717E-03    -58.0220E-03    -57.1942E-03     114.669E-03    -57.4717E-03     23.5165E-03     24.5350E+06     8.92242E+06    -96.8313E+06     8.10946E+06    -80.4058E+06     8.92242E+06    -41.3157E+06         33.1828
            1780     10.3882E-03     101.119E-03     868.240E-03    -271.041E-03    -308.843E-03    -270.955E-03     868.153E-03    -308.843E-03    -9.21999E-03     115.961E-03    -57.4295E-03    -58.5327E-03    -57.3198E-03     114.748E-03    -57.4295E-03     28.8781E-03     21.9569E+06    -2.40611E+06    -94.5416E+06     4.13026E+06    -76.7150E+06    -2.40611E+06    -41.7902E+06         35.1092
            1781     11.3322E-03     101.143E-03     847.141E-03    -254.905E-03    -305.059E-03    -254.884E-03     847.120E-03    -305.059E-03    -1.74729E-03     116.048E-03    -57.3819E-03    -58.6771E-03    -56.9848E-03     114.356E-03    -57.3819E-03     33.9987E-03     19.8170E+06    -14.6550E+06    -87.8276E+06     358.097E+03    -68.3686E+06    -14.6550E+06    -41.2800E+06         37.8550
            1782     12.2774E-03     101.173E-03     839.936E-03    -253.358E-03    -301.160E-03    -253.303E-03     839.880E-03    -301.160E-03     9.91770E-03     117.431E-03    -57.3120E-03    -60.1335E-03    -56.8045E-03     114.102E-03    -57.3120E-03     47.1947E-03     19.3202E+06    -26.5013E+06    -75.7603E+06    -3.68173E+06    -52.7584E+06    -26.5013E+06    -40.3480E+06         41.3685
            1783     13.2228E-03     101.226E-03     831.424E-03    -245.723E-03    -297.501E-03    -245.452E-03     831.154E-03    -297.501E-03     21.1530E-03     120.568E-03    -57.1720E-03    -63.4176E-03    -57.0173E-03     114.167E-03    -57.1720E-03     66.7801E-03     21.9886E+06    -38.5711E+06    -69.6507E+06    -8.52936E+06    -26.8249E+06    -50.8789E+06    -37.3196E+06         45.6100
            1784     14.1661E-03     101.296E-03     812.936E-03    -229.902E-03    -293.527E-03    -229.659E-03     812.693E-03    -293.527E-03     12.4634E-03     131.470E-03    -56.9654E-03    -74.5418E-03    -56.9158E-03     113.844E-03    -56.9654E-03     111.392E-03     59.8072E+06    -30.0109E+06    -70.7874E+06    -11.4282E+06     41.2244E+06    -70.7874E+06    -26.6572E+06         50.5524
            1785     15.1149E-03     101.452E-03     808.849E-03    -225.631E-03    -289.393E-03    -225.536E-03     808.754E-03    -289.393E-03    -9.66802E-03     151.038E-03    -57.0311E-03    -94.0209E-03    -56.1527E-03     113.169E-03    -57.0311E-03     175.859E-03     125.212E+06     14.2108E+06    -40.7778E+06    -10.5065E+06     123.409E+06    -14.2578E+06    -12.1271E+06         55.8866
            1786     16.0644E-03     101.671E-03     793.588E-03    -214.548E-03    -285.291E-03    -214.307E-03     793.348E-03    -285.291E-03     1.26517E-03     146.027E-03    -57.3197E-03    -88.6538E-03    -53.3229E-03     110.696E-03    -57.3197E-03     165.970E-03     163.958E+06     96.1860E+06    -7.21673E+06    -7.11105E+06     163.852E+06     96.1860E+06    -3.05017E+06         60.4674
            1787     943.920E-06     102.184E-03         1.22269     39.8027E-03    -994.469E-03    -676.960E-03     905.177E-03     39.8027E-03    -575.131E-03     113.853E-03    -56.6544E-03    -57.2010E-03    -56.9757E-03     113.847E-03    -56.8736E-03     1.90512E-03     17.1065E+06     11.7074E+06    -107.735E+06     14.7020E+06    -106.810E+06     13.1875E+06    -9.45745E+06         28.9688
            1788     1.88987E-03     102.185E-03         1.05573    -325.424E-03    -458.008E-03    -352.826E-03     950.548E-03    -325.424E-03     197.872E-03     113.521E-03    -56.6269E-03    -56.8978E-03    -56.6425E-03     113.512E-03    -56.8732E-03     2.30526E-03     20.6779E+06     16.9981E+06    -99.2507E+06     17.1596E+06    -96.1377E+06     17.4035E+06    -18.2044E+06         29.0396
            1789     2.83521E-03     102.183E-03     988.501E-03    -333.971E-03    -382.610E-03    -344.167E-03     950.058E-03    -333.971E-03    -119.317E-03     113.453E-03    -56.6452E-03    -56.8135E-03    -56.6187E-03     113.427E-03    -56.8135E-03     4.00218E-03     24.1947E+06     21.0408E+06    -99.6232E+06     18.4807E+06    -94.2432E+06     21.3747E+06    -25.0790E+06         29.1670
            1790     3.77952E-03     102.184E-03     944.623E-03    -321.901E-03    -345.908E-03    -317.090E-03     927.512E-03    -333.608E-03     19.6261E-03     113.265E-03    -56.4958E-03    -56.7743E-03    -56.4334E-03     113.203E-03    -56.7743E-03     6.25716E-03     28.9309E+06     24.9573E+06    -100.993E+06     20.3260E+06    -93.4987E+06     26.0680E+06    -29.9559E+06         29.3553
            1791     4.72541E-03     102.184E-03     919.182E-03    -306.530E-03    -328.321E-03    -296.036E-03     908.688E-03    -328.321E-03    -51.7231E-03     113.064E-03    -56.3648E-03    -56.7014E-03    -56.2363E-03     112.935E-03    -56.7014E-03     9.00574E-03     31.8404E+06     26.3215E+06    -99.2453E+06     21.9186E+06    -90.1003E+06     27.0982E+06    -33.2281E+06         29.6136
            1792     5.67071E-03     102.188E-03     927.151E-03    -310.125E-03    -328.218E-03    -309.805E-03     922.537E-03    -323.924E-03     17.9862E-03     112.940E-03    -56.3077E-03    -56.6324E-03    -56.0897E-03     112.722E-03    -56.6324E-03     11.8883E-03     33.6611E+06     27.1193E+06    -101.104E+06     23.2457E+06    -91.5865E+06     28.0173E+06    -34.3591E+06         29.9580
            1793     6.61615E-03     102.191E-03     922.625E-03    -312.012E-03    -326.367E-03    -312.648E-03     918.968E-03    -322.073E-03     2.65908E-03     113.010E-03    -56.2984E-03    -56.7144E-03    -56.0819E-03     112.653E-03    -56.5737E-03     15.1455E-03     37.0616E+06     28.8667E+06    -100.382E+06     25.1504E+06    -89.3685E+06     29.7646E+06    -37.0441E+06         30.4051
            1794     7.56189E-03     102.198E-03     899.869E-03    -299.671E-03    -319.957E-03    -297.157E-03     897.355E-03    -319.957E-03     35.1215E-03     113.298E-03    -56.4133E-03    -56.8886E-03    -56.2373E-03     112.749E-03    -56.5156E-03     19.0055E-03     38.5426E+06     27.4105E+06    -95.1265E+06     26.3070E+06    -82.8910E+06     27.4105E+06    -38.4958E+06         30.9754
            1795     8.50774E-03     102.208E-03     887.213E-03    -289.964E-03    -316.951E-03    -288.911E-03     886.160E-03    -316.951E-03    -565.909E-06     113.611E-03    -56.4920E-03    -57.1233E-03    -56.3332E-03     112.821E-03    -56.4920E-03     22.9316E-03     37.7161E+06     25.1921E+06    -92.2583E+06     25.2082E+06    -79.7505E+06     25.1921E+06    -38.2124E+06         31.7404
            1796     9.45260E-03     102.220E-03     869.327E-03    -277.343E-03    -313.543E-03    -276.887E-03     868.871E-03    -313.543E-03     32.8218E-03     114.359E-03    -56.4874E-03    -57.8758E-03    -56.6223E-03     113.105E-03    -56.4874E-03     28.8740E-03     35.9448E+06     20.4722E+06    -88.3466E+06     23.2087E+06    -75.6105E+06     20.4722E+06    -37.5710E+06         32.9420
            1797     10.3975E-03     102.242E-03     848.709E-03    -262.385E-03    -309.557E-03    -262.364E-03     848.689E-03    -309.557E-03    -6.25781E-03     115.012E-03    -56.4830E-03    -58.5335E-03    -56.8601E-03     113.339E-03    -56.4830E-03     33.7475E-03     33.1336E+06     9.70363E+06    -84.9844E+06     19.9054E+06    -71.7562E+06     9.70363E+06    -36.9212E+06         34.8778
            1798     11.3425E-03     102.263E-03     844.931E-03    -262.713E-03    -305.625E-03    -262.693E-03     844.911E-03    -305.625E-03    -6.42238E-03     115.675E-03    -56.4731E-03    -59.2027E-03    -56.9707E-03     113.443E-03    -56.4731E-03     38.9293E-03     29.2929E+06    -5.04854E+06    -79.1571E+06     14.1237E+06    -63.9879E+06    -5.04854E+06    -37.1403E+06         37.6323
            1799     12.2873E-03     102.295E-03     832.075E-03    -256.324E-03    -302.095E-03    -256.311E-03     832.063E-03    -302.095E-03     3.53215E-03     117.325E-03    -56.4698E-03    -60.8559E-03    -56.9186E-03     113.388E-03    -56.4698E-03     51.6548E-03     25.3264E+06    -18.9998E+06    -68.7886E+06     7.84811E+06    -51.3102E+06    -18.9998E+06    -36.2513E+06         41.1565
            1800     13.2329E-03     102.346E-03     805.876E-03    -236.468E-03    -298.162E-03    -236.418E-03     805.826E-03    -298.162E-03    -5.32912E-03     120.620E-03    -56.4015E-03    -64.2289E-03    -56.9294E-03     113.321E-03    -56.4015E-03     71.2449E-03     23.7444E+06    -32.6854E+06    -60.1862E+06     907.306E+03    -28.2710E+06    -41.7636E+06    -33.2123E+06         45.4148
            1801     14.1778E-03     102.422E-03     788.555E-03    -222.713E-03    -293.615E-03    -222.635E-03     788.476E-03    -293.615E-03     307.558E-06     132.191E-03    -56.2170E-03    -75.9998E-03    -57.6080E-03     113.799E-03    -56.2170E-03     115.032E-03     51.2829E+06    -27.5418E+06    -73.9100E+06    -5.83866E+06     29.5797E+06    -73.9100E+06    -27.0298E+06         50.3760
            1802     15.1226E-03     102.568E-03     784.109E-03    -216.261E-03    -288.881E-03    -216.090E-03     783.938E-03    -288.881E-03     10.7123E-03     151.460E-03    -56.2434E-03    -95.2286E-03    -56.2501E-03     112.481E-03    -56.2434E-03     178.390E-03     110.110E+06    -2.94489E+06    -49.2056E+06    -8.49958E+06     106.943E+06    -40.4838E+06    -14.0861E+06         55.7444
            1803     16.0727E-03     102.792E-03     770.249E-03    -210.414E-03    -284.164E-03    -210.276E-03     770.111E-03    -284.164E-03    -1.44928E-03     145.268E-03    -56.5502E-03    -88.6819E-03    -52.4556E-03     109.042E-03    -56.5502E-03     167.134E-03     156.920E+06     77.1989E+06    -6.14766E+06    -5.79690E+06     156.819E+06     76.9499E+06    -2.03335E+06         60.3900
            1804     946.339E-06     103.304E-03         1.09043    -45.3883E-03    -795.363E-03    -633.635E-03     928.701E-03    -45.3883E-03    -376.271E-03     110.619E-03    -54.9784E-03    -55.6414E-03    -55.4597E-03     110.609E-03    -55.1501E-03     2.50592E-03     35.7291E+06     31.3545E+06    -84.3826E+06     33.2470E+06    -82.9753E+06     32.4293E+06    -11.5780E+06         28.6902
            1805     1.89270E-03     103.302E-03     980.952E-03    -329.212E-03    -399.172E-03    -335.385E-03     926.515E-03    -338.562E-03     157.464E-03     110.171E-03    -54.9282E-03    -55.2455E-03    -54.9259E-03     110.142E-03    -55.2188E-03     4.01009E-03     35.6625E+06     30.8941E+06    -79.1303E+06     32.2498E+06    -75.7176E+06     30.8941E+06    -19.2863E+06         28.7492
            1806     2.83887E-03     103.302E-03     952.713E-03    -328.689E-03    -365.150E-03    -339.713E-03     936.626E-03    -338.039E-03    -65.5573E-03     109.949E-03    -54.8407E-03    -55.1100E-03    -54.7725E-03     109.880E-03    -55.1100E-03     6.32266E-03     38.0637E+06     32.4309E+06    -83.0031E+06     32.1405E+06    -77.0800E+06     32.4309E+06    -25.9345E+06         28.8643
            1807     3.78664E-03     103.301E-03     935.419E-03    -325.128E-03    -345.571E-03    -326.043E-03     927.718E-03    -336.955E-03     20.8210E-03     109.838E-03    -54.7973E-03    -55.0411E-03    -54.6667E-03     109.696E-03    -55.0295E-03     9.32083E-03     42.3199E+06     34.3616E+06    -87.0808E+06     33.9881E+06    -78.7490E+06     34.3616E+06    -31.7242E+06         29.0420
            1808     4.73311E-03     103.302E-03     909.322E-03    -304.324E-03    -332.229E-03    -298.626E-03     903.623E-03    -332.229E-03    -8.76994E-03     109.805E-03    -54.8228E-03    -54.9822E-03    -54.5707E-03     109.542E-03    -54.9706E-03     12.8176E-03     45.2139E+06     36.4348E+06    -90.3161E+06     36.0492E+06    -81.1514E+06     36.4348E+06    -34.0204E+06         29.2886
            1809     5.68009E-03     103.304E-03     892.821E-03    -293.599E-03    -325.898E-03    -290.257E-03     889.480E-03    -325.898E-03     24.2347E-03     109.796E-03    -54.7477E-03    -55.0493E-03    -54.4550E-03     109.362E-03    -54.9077E-03     16.5202E-03     48.1759E+06     36.8413E+06    -90.9689E+06     37.9033E+06    -80.6963E+06     36.8413E+06    -36.2919E+06         29.6181
            1810     6.62781E-03     103.308E-03     880.170E-03    -293.287E-03    -320.816E-03    -291.313E-03     878.196E-03    -320.816E-03    -10.2362E-03     110.112E-03    -54.7763E-03    -55.3386E-03    -54.5559E-03     109.423E-03    -54.8701E-03     20.8889E-03     50.6708E+06     38.7673E+06    -90.8629E+06     39.3923E+06    -79.5844E+06     38.7673E+06    -38.2479E+06         30.0479
            1811     7.57396E-03     103.316E-03     878.759E-03    -296.285E-03    -317.309E-03    -295.132E-03     877.606E-03    -317.309E-03     16.9363E-03     110.493E-03    -54.8432E-03    -55.6526E-03    -54.6545E-03     109.495E-03    -54.8432E-03     25.2716E-03     50.1098E+06     37.0557E+06    -89.7406E+06     39.0867E+06    -78.7175E+06     37.0557E+06    -37.6381E+06         30.6108
            1812     8.52102E-03     103.325E-03     877.436E-03    -294.525E-03    -314.757E-03    -294.098E-03     877.009E-03    -314.757E-03    -5.29217E-03     111.311E-03    -54.8356E-03    -56.4755E-03    -55.0743E-03     109.910E-03    -54.8356E-03     30.0086E-03     48.4150E+06     33.4165E+06    -85.4043E+06     37.6022E+06    -74.5915E+06     33.4165E+06    -36.4488E+06         31.3970
            1813     9.46738E-03     103.340E-03     864.009E-03    -284.118E-03    -312.172E-03    -283.846E-03     863.737E-03    -312.172E-03     7.20941E-03     112.656E-03    -54.8894E-03    -57.7648E-03    -55.7143E-03     110.606E-03    -54.8894E-03     36.6239E-03     46.7874E+06     29.1393E+06    -83.7210E+06     36.1286E+06    -73.0622E+06     29.1393E+06    -35.7097E+06         32.6395
            1814     10.4127E-03     103.360E-03     848.191E-03    -272.323E-03    -309.067E-03    -272.226E-03     848.094E-03    -309.067E-03    -16.1235E-03     113.825E-03    -54.9545E-03    -58.8692E-03    -56.2386E-03     111.194E-03    -54.9545E-03     41.9387E-03     43.9477E+06     18.1970E+06    -80.0034E+06     33.9535E+06    -70.0091E+06     18.1970E+06    -33.6912E+06         34.6065
            1815     11.3586E-03     103.383E-03     835.395E-03    -264.507E-03    -305.675E-03    -264.461E-03     835.348E-03    -305.675E-03    -11.6186E-03     115.326E-03    -55.0565E-03    -60.2787E-03    -56.9484E-03     111.995E-03    -55.0565E-03     47.4559E-03     39.5414E+06     7.56376E+06    -70.9608E+06     29.9268E+06    -61.3462E+06     7.56376E+06    -30.8251E+06         37.3695
            1816     12.3025E-03     103.416E-03     812.251E-03    -250.669E-03    -301.970E-03    -250.611E-03     812.192E-03    -301.970E-03    -11.1347E-03     117.938E-03    -55.1789E-03    -62.7736E-03    -57.5236E-03     112.688E-03    -55.1789E-03     59.9354E-03     33.5015E+06    -6.07450E+06    -60.4063E+06     22.6335E+06    -49.5383E+06    -6.07450E+06    -29.1995E+06         40.8922
            1817     13.2467E-03     103.465E-03     788.404E-03    -232.057E-03    -297.593E-03    -231.958E-03     788.305E-03    -297.593E-03    -3.46546E-03     121.736E-03    -55.2395E-03    -66.4975E-03    -57.6338E-03     112.872E-03    -55.2395E-03     79.0118E-03     28.8385E+06    -21.4004E+06    -48.3875E+06     14.7630E+06    -27.1837E+06    -28.5287E+06    -26.8569E+06         45.1650
            1818     14.1930E-03     103.543E-03     771.080E-03    -217.214E-03    -292.577E-03    -217.014E-03     770.879E-03    -292.577E-03     17.0361E-03     133.259E-03    -55.1576E-03    -78.1077E-03    -57.9441E-03     113.095E-03    -55.1576E-03     121.448E-03     45.6766E+06    -17.0332E+06    -62.1454E+06     5.27041E+06     23.3730E+06    -62.1454E+06    -21.9958E+06         50.1684
            1819     15.1385E-03     103.691E-03     749.770E-03    -198.691E-03    -286.943E-03    -198.464E-03     749.543E-03    -286.943E-03     27.2967E-03     152.045E-03    -55.1713E-03    -96.9006E-03    -56.5735E-03     111.718E-03    -55.1713E-03     182.074E-03     94.7149E+06    -7.61214E+06    -51.8579E+06    -4.74909E+06     91.8518E+06    -51.8579E+06    -11.7591E+06         55.6019
            1820     16.0905E-03     103.903E-03     737.430E-03    -194.247E-03    -281.090E-03    -194.115E-03     737.299E-03    -281.090E-03     14.7999E-03     145.313E-03    -55.4976E-03    -89.8035E-03    -52.6869E-03     108.196E-03    -55.4976E-03     169.490E-03     149.235E+06     65.8506E+06    -12.2211E+06    -5.87249E+06     149.148E+06     59.5888E+06    -1.52098E+06         60.3287
            1821     948.886E-06     104.418E-03         1.01314    -104.733E-03    -674.814E-03    -605.571E-03     943.898E-03    -104.733E-03    -259.831E-03     105.189E-03    -52.4643E-03    -52.7262E-03    -52.6690E-03     105.169E-03    -52.5025E-03     3.07047E-03     53.4827E+06     50.7376E+06    -60.3769E+06     51.3371E+06    -59.0647E+06     51.5711E+06    -11.1697E+06         28.2485
            1822     1.89748E-03     104.416E-03     919.329E-03    -322.717E-03    -364.850E-03    -322.173E-03     902.447E-03    -348.513E-03     99.2166E-03     104.910E-03    -52.3622E-03    -52.5506E-03    -52.3256E-03     104.847E-03    -52.5238E-03     5.99840E-03     53.4741E+06     48.3062E+06    -59.8792E+06     50.0906E+06    -56.4957E+06     48.3062E+06    -18.9824E+06         28.3042
            1823     2.84741E-03     104.415E-03     877.073E-03    -301.902E-03    -337.616E-03    -298.394E-03     871.659E-03    -335.710E-03    -15.4465E-03     104.712E-03    -52.2256E-03    -52.4892E-03    -52.1378E-03     104.557E-03    -52.4222E-03     9.47812E-03     55.7017E+06     45.3076E+06    -64.1895E+06     49.2950E+06    -57.7828E+06     45.3076E+06    -26.6546E+06         28.4094
            1824     3.79592E-03     104.414E-03     906.314E-03    -319.298E-03    -338.301E-03    -325.910E-03     903.721E-03    -329.097E-03     30.4180E-03     104.736E-03    -52.2770E-03    -52.4616E-03    -52.0841E-03     104.432E-03    -52.3502E-03     13.3908E-03     57.6102E+06     43.5187E+06    -72.3547E+06     48.6322E+06    -63.3767E+06     43.5187E+06    -32.9106E+06         28.5723
            1825     4.74547E-03     104.415E-03     912.845E-03    -320.007E-03    -336.120E-03    -325.999E-03     911.167E-03    -328.450E-03     1.86716E-03     104.728E-03    -52.2570E-03    -52.4737E-03    -51.9039E-03     104.197E-03    -52.2952E-03     17.7802E-03     58.9684E+06     42.6863E+06    -80.3889E+06     48.6991E+06    -70.1195E+06     42.6863E+06    -36.3375E+06         28.8015
            1826     5.69531E-03     104.417E-03     882.286E-03    -299.175E-03    -326.211E-03    -297.505E-03     880.244E-03    -325.839E-03    -6.95123E-03     105.023E-03    -52.1971E-03    -52.8314E-03    -51.9151E-03     104.145E-03    -52.2354E-03     22.9001E-03     59.8877E+06     41.1464E+06    -81.6719E+06     48.7695E+06    -70.5537E+06     41.1464E+06    -37.9865E+06         29.1129
            1827     6.64369E-03     104.422E-03     861.532E-03    -287.391E-03    -321.002E-03    -286.273E-03     860.414E-03    -321.002E-03    -29.2468E-03     105.534E-03    -52.2059E-03    -53.3304E-03    -51.9960E-03     104.200E-03    -52.2059E-03     28.3931E-03     58.2665E+06     39.6275E+06    -84.6839E+06     47.0781E+06    -73.4955E+06     39.6275E+06    -38.3193E+06         29.5276
            1828     7.59396E-03     104.429E-03     861.196E-03    -292.203E-03    -316.957E-03    -291.756E-03     860.750E-03    -316.957E-03    -8.38139E-03     106.475E-03    -52.2125E-03    -54.2612E-03    -52.3696E-03     104.583E-03    -52.2125E-03     34.0583E-03     56.0003E+06     37.7403E+06    -85.5163E+06     45.5798E+06    -75.0958E+06     37.7403E+06    -36.8890E+06         30.1139
            1829     8.54246E-03     104.440E-03     852.340E-03    -284.322E-03    -313.735E-03    -283.964E-03     851.982E-03    -313.735E-03    -31.6882E-03     107.956E-03    -52.2630E-03    -55.6904E-03    -53.0918E-03     105.358E-03    -52.2630E-03     40.2873E-03     53.7494E+06     34.2217E+06    -80.3234E+06     44.0158E+06    -70.5899E+06     34.2217E+06    -34.7508E+06         30.9924
            1830     9.48986E-03     104.455E-03     841.097E-03    -277.739E-03    -310.425E-03    -277.570E-03     840.928E-03    -310.425E-03    -8.82178E-03     109.871E-03    -52.3895E-03    -57.4759E-03    -53.8788E-03     106.274E-03    -52.3895E-03     47.8404E-03     50.2170E+06     31.1928E+06    -79.4269E+06     40.9398E+06    -70.1497E+06     31.1928E+06    -33.3817E+06         32.3323
            1831     10.4381E-03     104.476E-03     833.833E-03    -274.679E-03    -307.253E-03    -274.542E-03     833.695E-03    -307.253E-03    -3.23158E-03     112.395E-03    -52.5556E-03    -59.8372E-03    -55.3376E-03     107.895E-03    -52.5556E-03     54.3749E-03     44.3586E+06     19.5040E+06    -79.6466E+06     36.5153E+06    -71.8034E+06     19.5040E+06    -30.0265E+06         34.3316
            1832     11.3825E-03     104.502E-03     809.549E-03    -256.226E-03    -303.712E-03    -256.173E-03     809.496E-03    -303.712E-03    -5.43737E-03     114.913E-03    -52.8158E-03    -62.1076E-03    -56.7867E-03     109.592E-03    -52.8158E-03     59.9501E-03     37.3170E+06     9.74537E+06    -67.9567E+06     30.6492E+06    -61.2889E+06     9.74537E+06    -25.4881E+06         37.0842
            1833     12.3285E-03     104.534E-03     782.846E-03    -239.160E-03    -299.294E-03    -238.982E-03     782.668E-03    -299.294E-03    -205.087E-06     119.045E-03    -53.1508E-03    -65.9117E-03    -58.3706E-03     111.504E-03    -53.1508E-03     72.4957E-03     32.7343E+06     1.89481E+06    -53.8390E+06     25.4396E+06    -46.5443E+06     1.89481E+06    -23.8914E+06         40.5774
            1834     13.2722E-03     104.589E-03     769.026E-03    -227.907E-03    -294.398E-03    -227.703E-03     768.822E-03    -294.398E-03     14.9399E-03     124.084E-03    -53.4562E-03    -70.6313E-03    -59.5921E-03     113.045E-03    -53.4562E-03     89.6863E-03     27.6867E+06    -14.2601E+06    -41.7725E+06     19.4710E+06    -29.5062E+06    -18.3107E+06    -20.8353E+06         44.8586
            1835     14.2136E-03     104.662E-03     750.277E-03    -214.716E-03    -289.199E-03    -214.540E-03     750.100E-03    -289.199E-03     23.0245E-03     135.276E-03    -53.6560E-03    -81.6167E-03    -59.2529E-03     112.912E-03    -53.6560E-03     129.318E-03     38.5504E+06    -10.2457E+06    -42.3143E+06     9.34826E+06     16.9082E+06    -40.2660E+06    -12.1145E+06         49.9682
            1836     15.1623E-03     104.811E-03     716.939E-03    -191.331E-03    -283.279E-03    -191.182E-03     716.791E-03    -283.279E-03     13.9748E-03     153.527E-03    -53.7914E-03    -99.7490E-03    -58.2507E-03     112.028E-03    -53.7914E-03     186.614E-03     86.3462E+06    -1.91475E+06    -39.3354E+06    -1.01892E+06     85.4504E+06    -39.3354E+06    -4.61240E+06         55.5523
            1837     16.1091E-03     105.021E-03     684.853E-03    -165.027E-03    -276.389E-03    -164.228E-03     684.054E-03    -276.389E-03     29.1895E-03     145.197E-03    -54.2044E-03    -90.9812E-03    -54.5995E-03     108.815E-03    -54.2044E-03     168.403E-03     144.382E+06     63.6504E+06    -15.3932E+06    -3.89752E+06     144.338E+06     52.1994E+06    -506.588E+03         60.3931
            1838     952.306E-06     105.524E-03     911.351E-03    -138.253E-03    -552.275E-03    -530.176E-03     889.252E-03    -138.253E-03    -103.622E-03     97.3463E-03    -48.4971E-03    -48.8511E-03    -48.7718E-03     97.3052E-03    -48.5352E-03     4.51945E-03     63.0725E+06     59.4108E+06    -39.1141E+06     61.0865E+06    -37.9617E+06     60.2444E+06    -9.72887E+06         27.6144
            1839     1.90543E-03     105.523E-03     895.999E-03    -317.174E-03    -354.557E-03    -331.219E-03     889.107E-03    -333.619E-03     72.7196E-03     97.2935E-03    -48.5494E-03    -48.7456E-03    -48.5509E-03     97.1708E-03    -48.6213E-03     8.06298E-03     63.0997E+06     56.0858E+06    -38.6392E+06     59.1639E+06    -34.7034E+06     56.0858E+06    -18.8942E+06         27.6726
            1840     2.85750E-03     105.521E-03     873.243E-03    -303.341E-03    -341.127E-03    -312.498E-03     871.378E-03    -330.105E-03    -8.45497E-03     97.2790E-03    -48.5288E-03    -48.7532E-03    -48.4144E-03     96.9740E-03    -48.5625E-03     12.8053E-03     64.6399E+06     49.7593E+06    -45.3785E+06     57.1223E+06    -37.8608E+06     49.7593E+06    -27.4995E+06         27.7707
            1841     3.81069E-03     105.522E-03     875.235E-03    -309.047E-03    -333.132E-03    -315.139E-03     874.029E-03    -325.834E-03     10.9209E-03     97.2969E-03    -48.5004E-03    -48.8001E-03    -48.2069E-03     96.7037E-03    -48.5004E-03     18.1117E-03     65.0797E+06     44.5495E+06    -57.7719E+06     54.8692E+06    -47.5615E+06     44.5495E+06    -33.8652E+06         27.9178
            1842     4.76355E-03     105.521E-03     883.286E-03    -313.911E-03    -331.865E-03    -321.203E-03     882.908E-03    -324.195E-03    -21.7654E-03     97.5660E-03    -48.4400E-03    -49.1301E-03    -48.1021E-03     96.5381E-03    -48.4400E-03     23.8693E-03     64.9530E+06     40.8601E+06    -69.6432E+06     53.1029E+06    -57.7931E+06     40.8601E+06    -38.0929E+06         28.1282
            1843     5.71623E-03     105.524E-03     874.822E-03    -309.036E-03    -323.099E-03    -308.832E-03     874.246E-03    -322.728E-03    -20.8880E-03     98.1065E-03    -48.3880E-03    -49.7225E-03    -48.0600E-03     96.4440E-03    -48.3880E-03     30.5430E-03     63.8878E+06     38.2179E+06    -75.4456E+06     52.1763E+06    -63.7341E+06     38.2179E+06    -38.5996E+06         28.4213
            1844     6.67001E-03     105.528E-03     856.118E-03    -295.935E-03    -319.781E-03    -295.032E-03     855.215E-03    -319.781E-03    -828.588E-06     99.1876E-03    -48.3783E-03    -50.8085E-03    -48.3580E-03     96.7371E-03    -48.3783E-03     37.4190E-03     61.0456E+06     37.1056E+06    -79.3054E+06     50.2564E+06    -68.5163E+06     37.1056E+06    -37.3382E+06         28.8462
            1845     7.62192E-03     105.536E-03     840.345E-03    -283.456E-03    -315.926E-03    -282.985E-03     839.873E-03    -315.926E-03     17.2231E-03     101.018E-03    -48.4443E-03    -52.5734E-03    -49.1282E-03     97.5725E-03    -48.4443E-03     44.7844E-03     56.9597E+06     36.1077E+06    -81.3290E+06     46.9712E+06    -71.3405E+06     36.1077E+06    -35.7376E+06         29.5176
            1846     8.57331E-03     105.548E-03     827.371E-03    -275.195E-03    -311.787E-03    -275.017E-03     827.193E-03    -311.787E-03    -20.3892E-03     103.117E-03    -48.5769E-03    -54.5389E-03    -50.0298E-03     98.6079E-03    -48.5769E-03     51.9381E-03     51.0324E+06     32.1117E+06    -79.7194E+06     42.7317E+06    -71.4187E+06     32.1117E+06    -31.6929E+06         30.5608
            1847     9.52529E-03     105.563E-03     812.538E-03    -266.831E-03    -307.647E-03    -266.737E-03     812.443E-03    -307.647E-03    -2.32990E-03     106.432E-03    -48.8218E-03    -57.6088E-03    -51.6141E-03     100.438E-03    -48.8218E-03     60.9133E-03     44.2487E+06     30.4968E+06    -74.3883E+06     36.4869E+06    -67.7812E+06     31.6515E+06    -26.8730E+06         32.0377
            1848     10.4733E-03     105.589E-03     796.121E-03    -254.653E-03    -303.304E-03    -254.387E-03     795.856E-03    -303.304E-03    -3.17905E-03     110.395E-03    -49.1656E-03    -61.2318E-03    -54.0370E-03     103.200E-03    -49.1656E-03     68.3738E-03     34.4982E+06     19.8432E+06    -79.3827E+06     28.2663E+06    -74.3056E+06     20.9979E+06    -23.1324E+06         34.0610
            1849     11.4210E-03     105.617E-03     775.765E-03    -244.548E-03    -298.696E-03    -244.275E-03     775.492E-03    -298.696E-03    -17.6751E-03     114.531E-03    -49.6349E-03    -64.9018E-03    -56.8544E-03     106.484E-03    -49.6349E-03     73.9322E-03     24.6688E+06     8.44059E+06    -66.0344E+06     20.1648E+06    -61.5304E+06     8.44059E+06    -19.2880E+06         36.7940
            1850     12.3642E-03     105.653E-03     755.413E-03    -234.285E-03    -293.948E-03    -234.120E-03     755.249E-03    -293.948E-03     3.36583E-03     120.533E-03    -50.2723E-03    -70.2687E-03    -59.7432E-03     110.008E-03    -50.2723E-03     86.6239E-03     17.3721E+06     3.24628E+06    -47.9620E+06     11.3117E+06    -41.9017E+06     3.24628E+06    -18.7865E+06         40.2553
            1851     13.3047E-03     105.711E-03     740.277E-03    -224.756E-03    -289.090E-03    -224.618E-03     740.139E-03    -289.090E-03     15.9705E-03     126.679E-03    -50.9312E-03    -75.7548E-03    -61.7790E-03     112.703E-03    -50.9312E-03     102.340E-03     8.96989E+06    -15.4023E+06    -42.6340E+06     3.60635E+06    -37.2705E+06    -15.4023E+06    -15.6822E+06         44.5716
            1852     14.2470E-03     105.784E-03     719.273E-03    -210.376E-03    -283.911E-03    -210.322E-03     719.219E-03    -283.911E-03     13.7355E-03     139.095E-03    -51.5382E-03    -87.5601E-03    -63.2247E-03     114.760E-03    -51.5382E-03     138.522E-03     26.8026E+06    -14.5347E+06    -30.9980E+06    -330.747E+03     8.69513E+06    -27.0946E+06    -5.56664E+06         49.8815
            1853     15.1890E-03     105.931E-03     681.326E-03    -182.918E-03    -277.709E-03    -182.799E-03     681.207E-03    -277.709E-03    -2.89156E-03     156.915E-03    -52.0431E-03    -104.874E-03    -62.5332E-03     114.574E-03    -52.0431E-03     191.900E-03     84.9596E+06    -3.84704E+06    -22.3766E+06    -4.33925E+06     84.9203E+06    -21.8450E+06     829.629E+03         55.7065
            1854     16.1337E-03     106.145E-03     635.961E-03    -150.191E-03    -270.218E-03    -149.330E-03     635.099E-03    -270.218E-03     17.9306E-03     146.713E-03    -52.7530E-03    -93.9607E-03    -58.8378E-03     111.590E-03    -52.7530E-03     166.605E-03     143.815E+06     62.8133E+06    -9.82317E+06    -4.33971E+06     143.770E+06     57.3752E+06     921.364E+03         60.6878
            1855     957.821E-06     106.622E-03     836.366E-03    -166.925E-03    -456.379E-03    -448.467E-03     828.454E-03    -166.925E-03    -43.6713E-03     86.9889E-03    -43.2890E-03    -43.7002E-03    -43.6260E-03     86.9146E-03    -43.2890E-03     5.83072E-03     66.6270E+06     61.7485E+06    -18.8831E+06     64.7753E+06    -17.3190E+06     62.0361E+06    -9.94086E+06         26.7829
            1856     1.91465E-03     106.620E-03     885.828E-03    -315.734E-03    -351.892E-03    -348.091E-03     882.027E-03    -315.734E-03     19.4295E-03     87.2422E-03    -43.4592E-03    -43.7837E-03    -43.5433E-03     87.0018E-03    -43.4592E-03     10.6139E-03     69.7825E+06     58.8352E+06    -16.8209E+06     64.4840E+06    -11.5223E+06     58.8352E+06    -20.0635E+06         26.8412
            1857     2.87229E-03     106.619E-03     882.872E-03    -321.926E-03    -337.671E-03    -332.945E-03     881.352E-03    -325.133E-03    -21.8014E-03     87.3384E-03    -43.4555E-03    -43.8822E-03    -43.3320E-03     86.7882E-03    -43.4555E-03     16.4497E-03     72.3291E+06     54.0868E+06    -26.9931E+06     63.1735E+06    -17.8374E+06     54.0868E+06    -28.6082E+06         26.9332
            1858     3.82996E-03     106.617E-03     851.575E-03    -301.575E-03    -323.564E-03    -300.527E-03     850.528E-03    -323.564E-03     37.8314E-03     87.5102E-03    -43.3964E-03    -44.1094E-03    -43.0575E-03     86.4583E-03    -43.3964E-03     22.8590E-03     70.5698E+06     46.6216E+06    -43.6749E+06     59.6494E+06    -32.7545E+06     46.6216E+06    -33.5513E+06         27.0702
            1859     4.78784E-03     106.618E-03     837.946E-03    -292.147E-03    -318.020E-03    -291.417E-03     837.216E-03    -318.020E-03     20.4202E-03     88.0988E-03    -43.3195E-03    -44.7744E-03    -42.9750E-03     86.2994E-03    -43.3195E-03     30.1045E-03     65.4401E+06     37.2049E+06    -58.5224E+06     53.5733E+06    -46.6556E+06     37.2049E+06    -36.4658E+06         27.2712
            1860     5.74583E-03     106.618E-03     846.317E-03    -305.326E-03    -317.902E-03    -308.265E-03     846.145E-03    -314.791E-03     107.869E-06     89.1740E-03    -43.2696E-03    -45.8998E-03    -43.0885E-03     86.3626E-03    -43.2696E-03     37.9519E-03     57.5986E+06     27.5150E+06    -69.5885E+06     45.7794E+06    -57.7693E+06     27.5150E+06    -36.9011E+06         27.5721
            1861     6.70324E-03     106.625E-03     836.241E-03    -297.163E-03    -316.361E-03    -299.941E-03     835.907E-03    -313.250E-03     3.76227E-03     91.1264E-03    -43.3017E-03    -47.8235E-03    -43.6808E-03     86.9837E-03    -43.3017E-03     46.5666E-03     48.2299E+06     21.8899E+06    -76.4260E+06     38.2018E+06    -66.3979E+06     21.8899E+06    -33.8389E+06         28.0687
            1862     7.65994E-03     106.634E-03     805.758E-03    -273.622E-03    -309.940E-03    -273.313E-03     805.449E-03    -309.940E-03     24.8969E-03     93.8823E-03    -43.4537E-03    -50.4299E-03    -44.7890E-03     88.2414E-03    -43.4537E-03     55.3284E-03     37.4361E+06     20.3596E+06    -78.2711E+06     29.4108E+06    -70.2457E+06     20.3596E+06    -29.3321E+06         28.8868
            1863     8.61613E-03     106.648E-03     795.730E-03    -270.416E-03    -305.589E-03    -270.289E-03     795.604E-03    -305.589E-03     14.5065E-03     97.5194E-03    -43.7428E-03    -53.7753E-03    -46.6506E-03     90.3947E-03    -43.7428E-03     63.5978E-03     27.6059E+06     15.2816E+06    -80.4693E+06     18.8919E+06    -74.5767E+06     18.1030E+06    -24.0294E+06         30.0912
            1864     9.56876E-03     106.666E-03     787.717E-03    -265.189E-03    -301.658E-03    -265.091E-03     787.618E-03    -301.658E-03     12.5539E-03     102.582E-03    -44.2036E-03    -58.3719E-03    -49.3491E-03     93.5597E-03    -44.2036E-03     73.5590E-03     23.0286E+06     9.60550E+06    -73.6398E+06     9.63263E+06    -69.7740E+06     19.1356E+06    -17.9306E+06         31.6846
            1865     10.5206E-03     106.696E-03     759.218E-03    -239.918E-03    -297.051E-03    -239.672E-03     758.972E-03    -297.051E-03    -6.73294E-03     108.121E-03    -44.8504E-03    -63.2607E-03    -52.9060E-03     97.7666E-03    -44.8504E-03     81.3615E-03     18.4903E+06     2.10237E+06    -77.8554E+06     1.99306E+06    -74.9847E+06     15.7289E+06    -15.0477E+06         33.7652
            1866     11.4671E-03     106.728E-03     743.838E-03    -235.052E-03    -291.874E-03    -234.779E-03     743.565E-03    -291.874E-03    -16.9712E-03     114.229E-03    -45.6570E-03    -68.5712E-03    -57.3078E-03     102.965E-03    -45.6570E-03     87.6336E-03     10.2992E+06    -4.19808E+06    -65.3814E+06    -3.81937E+06    -62.0200E+06     6.55907E+06    -13.1272E+06         36.5156
            1867     12.4098E-03     106.772E-03     733.258E-03    -232.960E-03    -287.168E-03    -232.898E-03     733.196E-03    -287.168E-03    -6.58436E-03     121.750E-03    -46.6879E-03    -75.0672E-03    -61.4983E-03     108.181E-03    -46.6879E-03     99.5067E-03     7.83088E+06    -5.75588E+06    -42.5079E+06    -8.27807E+06    -38.8663E+06     6.71146E+06    -10.4647E+06         39.9884
            1868     13.3516E-03     106.831E-03     706.647E-03    -213.460E-03    -282.277E-03    -213.262E-03     706.449E-03    -282.277E-03     12.5150E-03     129.657E-03    -47.7886E-03    -81.8816E-03    -65.4851E-03     113.260E-03    -47.7886E-03     113.080E-03    -3.59958E+06    -21.7211E+06    -44.5801E+06    -14.8513E+06    -41.9564E+06    -13.0931E+06    -8.43509E+06         44.4228
            1869     14.2876E-03     106.913E-03     677.440E-03    -192.258E-03    -276.384E-03    -192.040E-03     677.222E-03    -276.384E-03     21.7132E-03     144.005E-03    -48.9093E-03    -95.1081E-03    -69.6743E-03     118.571E-03    -48.9093E-03     146.263E-03     16.6268E+06    -23.0770E+06    -36.5280E+06    -19.4333E+06     4.31893E+06    -27.8638E+06    -5.79425E+06         50.0243
            1870     15.2215E-03     107.061E-03     650.823E-03    -177.079E-03    -269.574E-03    -176.959E-03     650.703E-03    -269.574E-03    -5.65069E-03     159.807E-03    -50.0459E-03    -109.761E-03    -69.5431E-03     119.589E-03    -50.0459E-03     191.268E-03     85.8317E+06    -6.09597E+06    -21.7043E+06    -16.4598E+06     85.3741E+06    -10.8828E+06    -3.61919E+06         56.1416
            1871     16.1634E-03     107.265E-03     620.429E-03    -160.596E-03    -262.436E-03    -160.414E-03     620.248E-03    -262.436E-03    -236.537E-06     150.209E-03    -51.3619E-03    -98.8517E-03    -67.4969E-03     118.854E-03    -51.3619E-03     160.512E-03     142.513E+06     69.5867E+06    -9.09060E+06    -8.88708E+06     142.310E+06     69.5867E+06    -1.80376E+06         61.3136
            1872     963.484E-06     107.706E-03     878.266E-03    -219.824E-03    -436.085E-03    -410.458E-03     876.437E-03    -243.621E-03    -49.8744E-03     74.4710E-03    -37.1422E-03    -37.3294E-03    -37.1469E-03     74.3450E-03    -37.1987E-03     6.86935E-03     73.6845E+06     67.6806E+06     3.58603E+06     70.8049E+06     6.17806E+06     67.9682E+06    -11.0210E+06         25.7681
            1873     1.92731E-03     107.705E-03     837.262E-03    -286.464E-03    -340.145E-03    -303.193E-03     836.088E-03    -322.241E-03    -2.11792E-03     74.5652E-03    -37.0902E-03    -37.4768E-03    -37.0553E-03     74.1635E-03    -37.1101E-03     12.8295E-03     73.5001E+06     57.7650E+06      3.7619E+06     66.4486E+06     10.8134E+06     57.7650E+06    -20.3690E+06         25.8205
            1874     2.89072E-03     107.702E-03     827.403E-03    -302.650E-03    -317.844E-03    -303.724E-03     826.164E-03    -315.531E-03     2.68816E-03     74.9808E-03    -37.0656E-03    -37.9158E-03    -37.0013E-03     74.0663E-03    -37.0656E-03     19.6517E-03     69.3050E+06     46.4529E+06    -11.1570E+06     59.1302E+06    -982.180E+03     46.4529E+06    -26.5909E+06         25.9123
            1875     3.85420E-03     107.701E-03     815.495E-03    -298.155E-03    -312.635E-03    -297.869E-03     814.413E-03    -311.838E-03     22.1181E-03     75.6266E-03    -37.0274E-03    -38.5951E-03    -36.8879E-03     73.9194E-03    -37.0274E-03     27.1160E-03     60.2578E+06     32.0904E+06    -31.9167E+06     49.4133E+06    -21.0722E+06     32.0904E+06    -29.5309E+06         26.0549
            1876     4.81817E-03     107.701E-03     798.732E-03    -287.154E-03    -307.926E-03    -286.270E-03     797.848E-03    -307.926E-03     19.1944E-03     76.7340E-03    -36.9872E-03    -39.7391E-03    -36.8938E-03     73.8886E-03    -36.9872E-03     35.3500E-03     47.8472E+06     16.0056E+06    -48.8855E+06     37.9343E+06    -38.9725E+06     16.0056E+06    -29.2065E+06         26.2760
            1877     5.78173E-03     107.704E-03     803.495E-03    -292.481E-03    -308.053E-03    -295.406E-03     803.308E-03    -304.942E-03     5.20294E-03     78.7352E-03    -37.0136E-03    -41.7150E-03    -37.3868E-03     74.4069E-03    -37.0136E-03     44.2496E-03     30.7620E+06     1.57010E+06    -62.8932E+06     22.3567E+06    -54.4880E+06     1.57010E+06    -26.7051E+06         26.6487
            1878     6.74455E-03     107.709E-03     799.104E-03    -289.217E-03    -306.405E-03    -292.249E-03     799.025E-03    -303.293E-03    -8.20710E-03     81.7308E-03    -37.1679E-03    -44.5655E-03    -38.3563E-03     75.5216E-03    -37.1679E-03     54.0759E-03     12.1814E+06    -6.60019E+06    -73.7847E+06     5.55332E+06    -67.1566E+06    -6.60019E+06    -22.8036E+06         27.2871
            1879     7.70679E-03     107.721E-03     778.305E-03    -272.464E-03    -300.633E-03    -272.403E-03     778.244E-03    -300.633E-03     9.37202E-03     85.8686E-03    -37.4999E-03    -48.3788E-03    -40.2239E-03     77.7136E-03    -37.4999E-03     63.7440E-03     1.41468E+06    -11.6136E+06    -77.7236E+06    -8.80600E+06    -73.4373E+06    -5.67921E+06    -16.9831E+06         28.2664
            1880     8.66581E-03     107.737E-03     762.942E-03    -259.986E-03    -296.684E-03    -259.831E-03     762.786E-03    -296.684E-03     21.7545E-03     91.4943E-03    -38.0591E-03    -53.4389E-03    -43.3845E-03     81.4399E-03    -38.0591E-03     73.3069E-03     1.85358E+06    -17.9940E+06    -79.0387E+06    -19.4614E+06    -76.2264E+06     508.577E+03    -12.8621E+06         29.5912
            1881     9.62205E-03     107.762E-03     749.137E-03    -251.161E-03    -292.365E-03    -250.899E-03     748.876E-03    -292.365E-03     8.12182E-03     98.5364E-03    -38.8460E-03    -59.6733E-03    -47.4725E-03     86.3355E-03    -38.8460E-03     84.1590E-03     5.57466E+06    -23.8457E+06    -74.8392E+06    -25.8543E+06    -72.8306E+06     5.57466E+06    -9.83145E+06         31.2781
            1882     10.5737E-03     107.795E-03     729.591E-03    -237.329E-03    -287.714E-03    -237.166E-03     729.429E-03    -287.714E-03    -4.10583E-03     106.136E-03    -39.8941E-03    -66.2218E-03    -52.6163E-03     92.5302E-03    -39.8941E-03     92.7748E-03     9.02692E+06    -27.1212E+06    -75.0714E+06    -28.5350E+06    -73.6576E+06     9.02692E+06    -8.05635E+06         33.4576
            1883     11.5208E-03     107.838E-03     715.478E-03    -230.744E-03    -282.907E-03    -230.664E-03     715.399E-03    -282.907E-03     13.0190E-03     113.909E-03    -41.1521E-03    -72.7503E-03    -58.5283E-03     99.6869E-03    -41.1521E-03     98.9448E-03     4.32516E+06    -27.0211E+06    -63.9879E+06    -30.1469E+06    -60.8620E+06     4.32516E+06    -8.66737E+06         36.2805
            1884     12.4631E-03     107.885E-03     702.656E-03    -222.876E-03    -278.180E-03    -222.791E-03     702.570E-03    -278.180E-03     10.0296E-03     123.536E-03    -42.6947E-03    -80.8355E-03    -65.0572E-03     107.758E-03    -42.6947E-03     109.071E-03     6.94349E+06    -24.5184E+06    -45.6183E+06    -29.5962E+06    -40.5405E+06     6.94349E+06    -7.44295E+06         39.8296
            1885     13.3975E-03     107.956E-03     671.914E-03    -201.013E-03    -272.914E-03    -200.822E-03     671.724E-03    -272.914E-03     9.97759E-03     134.074E-03    -44.4198E-03    -89.6619E-03    -72.1293E-03     116.541E-03    -44.4198E-03     120.244E-03    -3.20322E+06    -27.6973E+06    -46.8071E+06    -26.5609E+06    -42.8610E+06    -8.28574E+06    -6.84330E+06         44.4657
            1886     14.3273E-03     108.042E-03     634.866E-03    -173.432E-03    -266.427E-03    -173.241E-03     634.675E-03    -266.427E-03     14.5041E-03     148.581E-03    -46.2480E-03    -102.345E-03    -77.2725E-03     123.508E-03    -46.2480E-03     149.441E-03     20.1141E+06    -13.0808E+06    -36.0621E+06    -23.5299E+06     7.58191E+06    -13.0808E+06    -6.43575E+06         50.4175
            1887     15.2555E-03     108.200E-03     618.112E-03    -167.788E-03    -259.182E-03    -167.740E-03     618.063E-03    -259.182E-03     3.15532E-03     164.226E-03    -48.1157E-03    -116.108E-03    -79.2907E-03     127.409E-03    -48.1157E-03     189.015E-03     89.9505E+06     8.31922E+06    -20.7875E+06    -19.9072E+06     89.0702E+06     8.31922E+06    -8.88844E+06         56.8628
            1888     16.1781E-03     108.394E-03     602.916E-03    -161.150E-03    -252.123E-03    -160.977E-03     602.743E-03    -252.123E-03     13.5046E-03     158.416E-03    -50.2132E-03    -108.233E-03    -80.8066E-03     130.990E-03    -50.2132E-03     156.852E-03     137.521E+06     80.5184E+06    -12.7687E+06    -12.0004E+06     136.490E+06     80.7810E+06    -8.93422E+06         62.3308
            1889     970.302E-06     108.776E-03     858.544E-03    -235.408E-03    -417.510E-03    -387.515E-03     855.453E-03    -262.312E-03     11.7413E-03     60.0606E-03    -29.8778E-03    -30.1827E-03    -29.9368E-03     59.8711E-03    -29.9343E-03     7.59266E-03     70.5385E+06     61.5126E+06     25.5254E+06     66.6958E+06     29.3681E+06     61.5126E+06    -10.5932E+06         24.6202
            1890     1.94128E-03     108.774E-03     786.598E-03    -270.915E-03    -314.065E-03    -270.381E-03     786.064E-03    -314.065E-03     4.92618E-03     60.1273E-03    -29.8113E-03    -30.3160E-03    -29.7026E-03     59.5337E-03    -29.8312E-03     14.0224E-03     65.6850E+06     45.7906E+06     21.3112E+06     57.4629E+06     29.5333E+06     45.7906E+06    -16.9107E+06         24.6699
            1891     2.91224E-03     108.772E-03     784.319E-03    -285.775E-03    -311.658E-03    -295.086E-03     783.993E-03    -302.022E-03     17.8131E-03     60.8075E-03    -29.7540E-03    -31.0546E-03    -29.7279E-03     59.4808E-03    -29.7540E-03     21.3803E-03     53.7141E+06     27.4191E+06     708.931E+03     44.8346E+06     9.58848E+06     27.4191E+06    -19.4916E+06         24.7720
            1892     3.88298E-03     108.771E-03     798.737E-03    -301.532E-03    -312.049E-03    -310.999E-03     798.156E-03    -302.001E-03    -41.2886E-03     62.1918E-03    -29.7501E-03    -32.4413E-03    -29.9797E-03     59.7302E-03    -29.7501E-03     29.5962E-03     35.8709E+06     6.81699E+06    -21.9491E+06     28.5676E+06    -14.6458E+06     6.81699E+06    -19.0249E+06         24.9466
            1893     4.85290E-03     108.771E-03     769.835E-03    -281.812E-03    -301.584E-03    -281.643E-03     769.255E-03    -301.172E-03    -28.6092E-03     64.3854E-03    -29.8369E-03    -34.5460E-03    -30.5151E-03     60.3545E-03    -29.8369E-03     38.6050E-03     13.8835E+06    -12.9808E+06    -43.1382E+06     8.84590E+06    -38.1006E+06    -12.9808E+06    -15.4900E+06         25.2442
            1894     5.82256E-03     108.774E-03     745.176E-03    -262.105E-03    -296.343E-03    -262.068E-03     745.139E-03    -296.343E-03     2.70309E-03     67.5573E-03    -30.0656E-03    -37.4902E-03    -31.4983E-03     61.5654E-03    -30.0656E-03     48.2841E-03    -6.98500E+06    -24.5080E+06    -60.1568E+06    -10.6488E+06    -56.9122E+06    -24.0888E+06    -9.34726E+06         25.7569
            1895     6.79094E-03     108.782E-03     755.744E-03    -274.513E-03    -293.591E-03    -275.834E-03     755.716E-03    -292.242E-03    -4.63576E-03     72.0872E-03    -30.4824E-03    -41.6042E-03    -33.3411E-03     63.8241E-03    -30.4824E-03     58.6770E-03    -19.2262E+06    -31.6984E+06    -71.5812E+06    -29.1603E+06    -69.0304E+06    -24.3149E+06    -4.34618E+06         26.5636
            1896     7.75680E-03     108.796E-03     757.674E-03    -277.073E-03    -291.537E-03    -278.358E-03     757.610E-03    -290.188E-03    -7.79632E-03     78.0589E-03    -31.1271E-03    -46.9384E-03    -36.3146E-03     67.4350E-03    -31.1271E-03     69.4546E-03    -17.2960E+06    -41.9141E+06    -76.6817E+06    -43.4032E+06    -75.1855E+06    -17.3031E+06    -2.76141E+06         27.6842
            1897     8.71972E-03     108.819E-03     725.351E-03    -249.251E-03    -287.152E-03    -249.169E-03     725.269E-03    -287.152E-03    -2.08523E-03     85.3717E-03    -32.0287E-03    -53.3478E-03    -40.5549E-03     72.5789E-03    -32.0287E-03     80.0846E-03    -6.72353E+06    -48.6454E+06    -76.3157E+06    -49.5346E+06    -75.4265E+06    -6.72353E+06    -3.67214E+06         29.1081
            1898     9.67800E-03     108.848E-03     698.511E-03    -227.866E-03    -282.084E-03    -227.659E-03     698.304E-03    -282.084E-03    -12.3200E-03     94.5124E-03    -33.2093E-03    -61.2904E-03    -46.2344E-03     79.4564E-03    -33.2093E-03     91.9328E-03     2.06458E+06    -48.5898E+06    -74.3447E+06    -49.5285E+06    -73.4060E+06     2.06458E+06    -4.67384E+06         30.8843
            1899     10.6305E-03     108.892E-03     695.276E-03    -227.836E-03    -276.801E-03    -227.651E-03     695.091E-03    -276.801E-03    -12.0454E-03     104.391E-03    -34.7087E-03    -69.6753E-03    -53.2857E-03     88.0013E-03    -34.7087E-03     101.560E-03     7.85304E+06    -44.5324E+06    -72.5460E+06    -46.0303E+06    -71.0482E+06     7.85304E+06    -5.82176E+06         33.1785
            1900     11.5763E-03     108.941E-03     681.408E-03    -220.188E-03    -271.979E-03    -219.994E-03     681.213E-03    -271.979E-03     2.80007E-03     114.625E-03    -36.5225E-03    -78.1024E-03    -61.6774E-03     98.1997E-03    -36.5225E-03     107.550E-03     7.43217E+06    -36.3444E+06    -60.7633E+06    -40.6632E+06    -56.4445E+06     7.43217E+06    -7.63473E+06         36.1262
            1901     12.5136E-03     109.002E-03     654.453E-03    -200.357E-03    -266.714E-03    -200.152E-03     654.248E-03    -266.714E-03     3.93851E-03     126.693E-03    -38.7133E-03    -87.9721E-03    -70.6663E-03     109.387E-03    -38.7133E-03     116.877E-03     11.5208E+06    -26.9475E+06    -47.3714E+06    -34.9921E+06    -39.3269E+06     11.5208E+06    -9.55541E+06         39.8198
            1902     13.4435E-03     109.084E-03     632.623E-03    -187.401E-03    -260.786E-03    -187.356E-03     632.578E-03    -260.786E-03     960.816E-06     139.841E-03    -41.1450E-03    -98.6941E-03    -79.8934E-03     121.040E-03    -41.1450E-03     128.537E-03    -556.095E+03    -22.9116E+06    -49.3115E+06    -28.7589E+06    -41.8203E+06    -2.19996E+06    -11.5389E+06         44.6966
            1903     14.3632E-03     109.183E-03     608.205E-03    -172.842E-03    -254.375E-03    -172.619E-03     607.982E-03    -254.375E-03     9.61418E-03     154.822E-03    -43.7660E-03    -111.066E-03    -87.0972E-03     130.853E-03    -43.7660E-03     151.700E-03     26.8947E+06     1.44176E+06    -36.7689E+06    -21.7386E+06     11.8508E+06     1.45531E+06    -11.5874E+06         51.0002
            1904     15.2843E-03     109.337E-03     582.122E-03    -154.493E-03    -247.225E-03    -154.216E-03     581.845E-03    -247.225E-03     12.2928E-03     171.024E-03    -46.4661E-03    -124.576E-03    -91.2296E-03     137.677E-03    -46.4661E-03     186.477E-03     95.8708E+06     27.3262E+06    -14.7497E+06    -12.8533E+06     93.9744E+06     27.3262E+06    -12.7322E+06         57.8150
            1905     16.1991E-03     109.555E-03     558.237E-03    -140.812E-03    -239.756E-03    -140.577E-03     558.003E-03    -239.756E-03    -2.27311E-03     167.691E-03    -49.3599E-03    -118.370E-03    -94.0094E-03     143.330E-03    -49.3599E-03     153.026E-03     133.394E+06     85.8990E+06    -7.86551E+06    -6.80207E+06     129.585E+06     88.6450E+06    -11.1771E+06         63.6534
            1906     978.531E-06     109.829E-03     729.573E-03    -210.852E-03    -329.695E-03    -317.866E-03     725.146E-03    -218.255E-03     41.9050E-03     44.6370E-03    -22.0908E-03    -22.5457E-03    -22.3038E-03     44.3950E-03    -22.0908E-03     7.41078E-03     61.0341E+06     46.3029E+06     33.6376E+06     48.2425E+06     47.0435E+06     45.6887E+06    -7.10235E+06         23.4306
            1907     1.95640E-03     109.827E-03     778.213E-03    -270.724E-03    -326.766E-03    -317.924E-03     776.743E-03    -278.096E-03    -7.55629E-03     45.1296E-03    -22.1413E-03    -22.9879E-03    -22.2153E-03     44.3569E-03    -22.1413E-03     13.8856E-03     52.2255E+06     29.3494E+06     18.9941E+06     36.4015E+06     39.4029E+06     24.7646E+06    -9.90292E+06         23.4937
            1908     2.93460E-03     109.826E-03     768.301E-03    -278.351E-03    -314.130E-03    -301.782E-03     767.645E-03    -290.042E-03     32.0667E-03     46.2502E-03    -22.1489E-03    -24.1011E-03    -22.3879E-03     44.5370E-03    -22.1489E-03     21.2087E-03     29.0480E+06     8.31741E+06    -5.56647E+06     18.7949E+06     11.9010E+06     1.10311E+06    -7.13902E+06          23.625
            1909     3.91247E-03     109.824E-03     751.993E-03    -280.438E-03    -300.940E-03    -289.171E-03     751.475E-03    -291.689E-03    -3.70773E-03     48.4219E-03    -22.2592E-03    -26.1618E-03    -23.0369E-03     45.2970E-03    -22.2592E-03     29.4528E-03     4.92129E+06    -19.0365E+06    -29.2984E+06    -3.97006E+06    -17.1633E+06    -22.2803E+06    -876.003E+03         23.8687
            1910     4.88947E-03     109.826E-03     737.805E-03    -271.640E-03    -291.255E-03    -272.681E-03     737.234E-03    -289.643E-03     8.96118E-03     51.8023E-03    -22.5484E-03    -29.2513E-03    -24.2231E-03     46.7741E-03    -22.5484E-03     38.7499E-03    -18.1169E+06    -38.6377E+06    -53.8720E+06    -29.0839E+06    -42.9050E+06    -38.6377E+06     5.10064E+06         24.2946
            1911     5.86452E-03     109.830E-03     717.840E-03    -254.006E-03    -286.536E-03    -254.962E-03     717.596E-03    -285.336E-03     19.5245E-03     56.5153E-03    -23.0584E-03    -33.4558E-03    -26.0894E-03     49.1490E-03    -23.0584E-03     49.0508E-03    -34.7404E+06    -45.3364E+06    -72.6803E+06    -48.8216E+06    -61.8435E+06    -42.0920E+06     8.80810E+06         24.9702
            1912     6.83762E-03     109.842E-03     712.444E-03    -254.219E-03    -282.190E-03    -255.213E-03     712.089E-03    -280.842E-03     18.5977E-03     62.8472E-03    -23.8070E-03    -39.0387E-03    -28.9746E-03     52.7832E-03    -23.8070E-03     60.5731E-03    -32.8416E+06    -50.2947E+06    -79.1483E+06    -58.2384E+06    -71.2045E+06    -32.8416E+06     10.2032E+06         25.9259
            1913     7.80722E-03     109.861E-03     715.264E-03    -259.649E-03    -279.047E-03    -260.706E-03     714.972E-03    -277.698E-03     9.19691E-03     70.6146E-03    -24.8137E-03    -45.7960E-03    -33.0457E-03     57.8643E-03    -24.8137E-03     72.5562E-03    -17.7665E+06    -55.6636E+06    -76.5771E+06    -60.3556E+06    -71.8852E+06    -17.7665E+06     7.37145E+06         27.1649
            1914     8.77275E-03     109.889E-03     694.148E-03    -243.869E-03    -274.531E-03    -243.774E-03     694.053E-03    -274.531E-03     401.290E-06     79.8053E-03    -26.0961E-03    -53.7018E-03    -38.5211E-03     64.6246E-03    -26.0961E-03     84.6531E-03    -5.25256E+06    -57.6243E+06    -72.4903E+06    -59.0337E+06    -71.0809E+06    -5.25256E+06     1.77337E+06         28.6787
            1915     9.73231E-03     109.929E-03     665.981E-03    -221.619E-03    -269.891E-03    -221.287E-03     665.650E-03    -269.891E-03     10.7335E-03     91.0346E-03    -27.7012E-03    -63.3310E-03    -45.7241E-03     73.4277E-03    -27.7012E-03     98.0550E-03     4.02505E+06    -53.8693E+06    -71.1340E+06    -54.7306E+06    -70.2727E+06     4.02505E+06    -3.11619E+06         30.5373
            1916     10.6854E-03     109.982E-03     656.692E-03    -215.617E-03    -264.630E-03    -215.246E-03     656.321E-03    -264.630E-03     19.1849E-03     103.431E-03    -29.6875E-03    -73.7528E-03    -54.9358E-03     84.6142E-03    -29.6875E-03     109.056E-03     9.80627E+06    -44.8629E+06    -69.2649E+06    -48.1894E+06    -65.9383E+06     9.80627E+06    -8.11345E+06         32.9500
            1917     11.6286E-03     110.046E-03     640.909E-03    -205.953E-03    -259.469E-03    -205.729E-03     640.685E-03    -259.469E-03    -8.03163E-03     116.478E-03    -32.0881E-03    -84.3947E-03    -65.6435E-03     97.7264E-03    -32.0881E-03     116.760E-03     11.4689E+06    -31.3924E+06    -59.4610E+06    -39.8329E+06    -51.0205E+06     11.4689E+06    -12.0081E+06         36.0595
            1918     12.5607E-03     110.122E-03     606.245E-03    -177.309E-03    -253.503E-03    -177.059E-03     605.995E-03    -253.503E-03    -6.67260E-03     130.897E-03    -34.9281E-03    -95.9639E-03    -76.5546E-03     111.488E-03    -34.9281E-03     126.859E-03     17.2959E+06    -19.0780E+06    -47.2375E+06    -30.7897E+06    -35.5259E+06     17.2959E+06    -13.7462E+06         39.9417
            1919     13.4849E-03     110.214E-03     586.948E-03    -165.601E-03    -246.664E-03    -165.456E-03     586.803E-03    -246.664E-03     13.2670E-03     146.881E-03    -38.0595E-03    -108.824E-03    -88.1360E-03     126.194E-03    -38.0595E-03     139.423E-03     4.90682E+06    -14.7043E+06    -48.6318E+06    -23.9108E+06    -39.4253E+06     4.90682E+06    -14.4858E+06         45.0646
            1920     14.3999E-03     110.334E-03     581.116E-03    -171.376E-03    -240.079E-03    -171.105E-03     580.845E-03    -240.079E-03     15.4552E-03     164.584E-03    -41.5048E-03    -123.093E-03    -99.2669E-03     140.758E-03    -41.5048E-03     158.499E-03     38.2880E+06     11.8001E+06    -36.9655E+06    -19.4361E+06     20.1182E+06     12.4405E+06    -17.8834E+06         51.6883
            1921     15.3001E-03     110.492E-03     555.782E-03    -154.780E-03    -233.418E-03    -154.528E-03     555.530E-03    -233.418E-03     5.98435E-03     181.082E-03    -45.1091E-03    -136.038E-03    -105.032E-03     150.076E-03    -45.1091E-03     187.972E-03     97.1305E+06     34.3764E+06    -17.9391E+06    -14.1547E+06     93.3461E+06     34.3764E+06    -20.0734E+06         58.8712
            1922     16.2006E-03     110.716E-03     521.474E-03    -132.913E-03    -226.264E-03    -132.772E-03     521.333E-03    -226.264E-03    -12.6428E-03     176.211E-03    -48.7692E-03    -127.505E-03    -105.022E-03     153.728E-03    -48.7692E-03     152.365E-03     125.499E+06     80.8411E+06    -6.43007E+06    -4.68699E+06     116.005E+06     88.5928E+06    -11.7598E+06         65.0314
            1923     985.541E-06     110.867E-03     673.619E-03    -221.877E-03    -279.888E-03    -264.855E-03     671.207E-03    -234.498E-03     7.25148E-03     29.8478E-03    -14.6974E-03    -15.1501E-03    -14.8670E-03     29.5647E-03    -14.6974E-03     6.56462E-03     54.3694E+06     17.5464E+06     13.4539E+06     16.6725E+06     53.4802E+06     15.2170E+06     1.08698E+06         22.3174
            1924     1.97117E-03     110.866E-03     728.591E-03    -253.021E-03    -317.967E-03    -308.165E-03     727.113E-03    -261.346E-03    -25.9273E-03     30.8436E-03    -14.8199E-03    -16.0239E-03    -15.1568E-03     29.9765E-03    -14.8199E-03     12.2143E-03     40.2548E+06    -625.938E+03    -7.43824E+06     142.908E+03     37.8099E+06    -5.76221E+06     4.12860E+06         22.4098
            1925     2.95618E-03     110.863E-03     717.780E-03    -259.024E-03    -297.450E-03    -281.358E-03     716.914E-03    -274.251E-03     3.63053E-03     32.7614E-03    -15.0111E-03    -17.7511E-03    -15.8104E-03     30.8207E-03    -15.0111E-03     19.0574E-03     9.87032E+06    -23.4007E+06    -36.5006E+06    -22.6617E+06     3.24572E+06    -30.6150E+06     11.9558E+06         22.5967
            1926     3.94008E-03     110.864E-03     681.886E-03    -250.147E-03    -272.567E-03    -249.599E-03     681.338E-03    -272.567E-03     8.05240E-03     35.7766E-03    -15.3464E-03    -20.4300E-03    -16.9015E-03     32.2481E-03    -15.3464E-03     26.9828E-03    -14.1145E+06    -46.5638E+06    -62.7669E+06    -45.5217E+06    -28.1159E+06    -49.8076E+06     20.7244E+06         22.9406
            1927     4.92263E-03     110.866E-03     699.773E-03    -262.309E-03    -275.766E-03    -268.213E-03     699.413E-03    -269.502E-03     28.6870E-03     40.2031E-03    -15.8889E-03    -24.3134E-03    -18.6528E-03     34.5426E-03    -15.8889E-03     36.2590E-03    -30.1724E+06    -54.6371E+06    -81.3903E+06    -62.0389E+06    -49.5238E+06    -54.6371E+06     24.7363E+06         23.5018
            1928     5.90321E-03     110.875E-03     701.830E-03    -258.729E-03    -275.127E-03    -264.719E-03     701.556E-03    -268.863E-03     25.8666E-03     46.3265E-03    -16.6727E-03    -29.6535E-03    -21.3541E-03     38.0271E-03    -16.6727E-03     47.2182E-03    -40.4058E+06    -52.6318E+06    -90.9364E+06    -71.9420E+06    -63.7776E+06    -48.2544E+06     22.7044E+06         24.3118
            1929     6.88023E-03     110.890E-03     667.431E-03    -232.511E-03    -265.810E-03    -231.798E-03     666.718E-03    -265.810E-03     47.3484E-03     54.1633E-03    -17.7004E-03    -36.4679E-03    -25.0816E-03     42.7771E-03    -17.7004E-03     59.9322E-03    -36.0144E+06    -54.5775E+06    -88.6344E+06    -74.4280E+06    -68.7839E+06    -36.0144E+06     16.3195E+06         25.3824
            1930     7.85375E-03     110.917E-03     651.854E-03    -224.177E-03    -260.601E-03    -223.283E-03     650.960E-03    -260.601E-03     52.5441E-03     63.5408E-03    -19.0011E-03    -44.5393E-03    -30.0544E-03     49.0559E-03    -19.0011E-03     73.5316E-03    -20.1747E+06    -57.7020E+06    -77.9019E+06    -69.4730E+06    -66.1309E+06    -20.1747E+06     8.92934E+06         26.7186
            1931     8.82145E-03     110.952E-03     657.593E-03    -235.707E-03    -258.195E-03    -237.024E-03     657.217E-03    -256.501E-03     27.7453E-03     74.7203E-03    -20.6238E-03    -54.0837E-03    -36.7257E-03     57.3623E-03    -20.6238E-03     87.8701E-03    -4.69222E+06    -56.7819E+06    -68.6686E+06    -61.2080E+06    -64.2425E+06    -4.69222E+06     2.25091E+06         28.3185
            1932     9.78296E-03     111.002E-03     645.336E-03    -229.469E-03    -255.088E-03    -230.768E-03     644.942E-03    -253.395E-03     29.4651E-03     88.4385E-03    -22.6246E-03    -65.8128E-03    -45.6312E-03     68.2569E-03    -22.6246E-03     103.950E-03     6.16153E+06    -49.2693E+06    -66.4686E+06    -52.8480E+06    -62.8899E+06     6.16153E+06    -4.87804E+06         30.2619
            1933     10.7349E-03     111.069E-03     613.021E-03    -206.218E-03    -249.273E-03    -205.689E-03     612.492E-03    -249.273E-03     38.8349E-03     103.395E-03    -25.0691E-03    -78.3300E-03    -56.5918E-03     81.6569E-03    -25.0691E-03     117.781E-03     12.1938E+06    -35.9453E+06    -65.4891E+06    -44.0109E+06    -57.4235E+06     12.1938E+06    -12.5023E+06         32.7899
            1934     11.6759E-03     111.150E-03     590.482E-03    -188.852E-03    -243.864E-03    -188.604E-03     590.234E-03    -243.864E-03     12.0152E-03     118.421E-03    -27.9642E-03    -90.4548E-03    -68.5504E-03     96.5167E-03    -27.9642E-03     127.821E-03     13.5015E+06    -23.9672E+06    -58.8181E+06    -36.0931E+06    -46.6923E+06     13.5015E+06    -16.3608E+06         36.0653
            1935     12.6078E-03     111.240E-03     573.553E-03    -174.332E-03    -237.844E-03    -174.025E-03     573.246E-03    -237.844E-03    -7.56497E-03     135.765E-03    -31.3355E-03    -104.429E-03    -81.8147E-03     113.150E-03    -31.3355E-03     140.198E-03     18.6127E+06    -12.9359E+06    -49.3781E+06    -30.5310E+06    -31.7831E+06     18.6127E+06    -17.7909E+06         40.1441
            1936     13.5257E-03     111.354E-03     548.111E-03    -155.685E-03    -231.308E-03    -155.320E-03     547.747E-03    -231.308E-03     9.20886E-03     155.921E-03    -35.1164E-03    -120.811E-03    -96.9087E-03     132.019E-03    -35.1164E-03     155.377E-03     12.7470E+06    -7.84768E+06    -53.1311E+06    -22.4412E+06    -34.1058E+06     8.31523E+06    -22.6462E+06         45.4934
            1937     14.4282E-03     111.491E-03     529.066E-03    -146.888E-03    -224.379E-03    -146.732E-03     528.911E-03    -224.379E-03     14.9822E-03     176.010E-03    -39.3078E-03    -136.713E-03    -110.151E-03     149.448E-03    -39.3078E-03     174.301E-03     49.5444E+06     19.5430E+06    -35.1161E+06    -10.8720E+06     24.6734E+06     20.1699E+06    -23.6539E+06         52.3814
            1938     15.3233E-03     111.671E-03     513.943E-03    -143.933E-03    -217.244E-03    -143.845E-03     513.855E-03    -217.244E-03     7.46660E-03     193.728E-03    -43.7222E-03    -150.055E-03    -117.768E-03     161.442E-03    -43.7222E-03     200.375E-03     94.5306E+06     48.3242E+06    -8.67246E+06    -5.15683E+06     91.0149E+06     48.3242E+06    -18.0710E+06         59.8360
            1939     16.2134E-03     111.889E-03     488.117E-03    -125.546E-03    -210.034E-03    -125.431E-03     488.002E-03    -210.034E-03     4.42729E-03     188.335E-03    -48.1291E-03    -140.284E-03    -117.906E-03     165.957E-03    -48.1291E-03     158.012E-03     116.601E+06     83.2555E+06    -5.40578E+06    -3.92510E+06     103.038E+06     95.3378E+06    -9.89519E+06         66.1720
            1940     992.045E-06     111.890E-03     678.705E-03    -240.972E-03    -303.370E-03    -286.683E-03     675.822E-03    -254.776E-03     26.2747E-03     17.4229E-03    -8.47313E-03    -8.95007E-03    -8.67950E-03     17.1524E-03    -8.47313E-03     4.96317E-03     44.5312E+06    -26.7924E+06    -34.8338E+06    -30.6486E+06     42.0612E+06    -28.5076E+06     12.1036E+06         21.3996
            1941     1.98348E-03     111.888E-03     644.650E-03    -232.323E-03    -272.124E-03    -238.007E-03     642.383E-03    -264.173E-03     8.31875E-03     18.8853E-03    -8.73856E-03    -10.1467E-03    -9.30089E-03     18.0396E-03    -8.73856E-03     9.48387E-03     29.6510E+06    -40.1320E+06    -53.4430E+06    -44.6284E+06     21.3880E+06    -40.6835E+06     23.4910E+06         21.5267
            1942     2.97374E-03     111.888E-03     639.786E-03    -229.557E-03    -268.369E-03    -242.083E-03     639.347E-03    -255.405E-03    -32.1103E-03     21.4954E-03    -9.14687E-03    -12.3494E-03    -10.4329E-03     19.5789E-03    -9.14687E-03     15.4055E-03     3.76833E+06    -53.0018E+06    -79.3222E+06    -61.6206E+06    -13.9333E+06    -53.0018E+06     33.0439E+06         21.7777
            1943     3.96292E-03     111.890E-03     651.860E-03    -241.824E-03    -263.259E-03    -251.752E-03     651.521E-03    -252.993E-03    -4.11948E-03     25.2537E-03    -9.70313E-03    -15.5507E-03    -11.9550E-03     21.6580E-03    -9.70313E-03     22.9364E-03    -15.9416E+06    -60.4659E+06    -98.1563E+06    -73.5162E+06    -40.5816E+06    -60.4659E+06     37.6097E+06         22.2147
            1944     4.95012E-03     111.896E-03     651.464E-03    -240.511E-03    -262.882E-03    -250.722E-03     651.357E-03    -252.564E-03     4.25269E-03     30.5093E-03    -10.4326E-03    -20.0795E-03    -14.1510E-03     24.5807E-03    -10.4326E-03     32.3882E-03    -28.8454E+06    -59.1749E+06    -104.755E+06    -79.2408E+06    -54.3594E+06    -59.1749E+06     35.7571E+06         22.8756
            1945     5.93476E-03     111.908E-03     638.919E-03    -233.434E-03    -256.188E-03    -238.384E-03     638.805E-03    -251.124E-03    -6.83844E-03     37.5302E-03    -11.3881E-03    -26.1424E-03    -17.2736E-03     28.6614E-03    -11.3881E-03     43.9670E-03    -37.7924E+06    -50.5797E+06    -100.352E+06    -78.6868E+06    -61.0096E+06    -49.0275E+06     28.9782E+06         23.7764
            1946     6.91607E-03     111.930E-03     618.922E-03    -217.706E-03    -247.554E-03    -217.270E-03     618.486E-03    -247.554E-03     12.9318E-03     46.3983E-03    -12.5885E-03    -33.8087E-03    -21.4660E-03     34.0556E-03    -12.5885E-03     57.7750E-03    -33.8493E+06    -48.4382E+06    -87.3112E+06    -74.4682E+06    -60.2926E+06    -34.8378E+06     18.3571E+06         24.9289
            1947     7.89258E-03     111.962E-03     596.647E-03    -201.644E-03    -242.324E-03    -200.937E-03     595.940E-03    -242.324E-03     24.4008E-03     57.1307E-03    -14.0750E-03    -43.0584E-03    -27.0803E-03     41.1527E-03    -14.0750E-03     73.2770E-03    -20.7482E+06    -54.2713E+06    -73.2615E+06    -69.1227E+06    -58.4100E+06    -20.7482E+06     7.49866E+06         26.3412
            1948     8.86390E-03     112.008E-03     599.922E-03    -210.614E-03    -239.320E-03    -211.936E-03     599.551E-03    -237.626E-03     18.0828E-03     70.0444E-03    -15.9086E-03    -54.1302E-03    -34.6551E-03     50.5693E-03    -15.9086E-03     90.2229E-03    -7.05255E+06    -52.8729E+06    -64.1520E+06    -61.4766E+06    -55.5483E+06    -7.05255E+06    -1.42928E+06         28.0179
            1949     9.82663E-03     112.069E-03     602.263E-03    -217.789E-03    -236.076E-03    -219.368E-03     602.148E-03    -234.383E-03     15.4233E-03     86.2188E-03    -18.1666E-03    -68.0479E-03    -44.7454E-03     62.9163E-03    -18.1666E-03     110.362E-03     4.83193E+06    -41.7181E+06    -62.3188E+06    -50.8454E+06    -53.1915E+06     4.83193E+06    -9.85763E+06         30.0460
            1950     10.7793E-03     112.154E-03     571.507E-03    -196.116E-03    -230.612E-03    -195.772E-03     571.162E-03    -230.612E-03     28.1373E-03     103.368E-03    -20.9102E-03    -82.4538E-03    -56.8164E-03     77.7303E-03    -20.9102E-03     127.936E-03     11.9521E+06    -29.6815E+06    -61.6213E+06    -41.9882E+06    -49.3146E+06     11.9521E+06    -15.4975E+06         32.6868
            1951     11.7218E-03     112.249E-03     547.754E-03    -178.024E-03    -225.434E-03    -177.734E-03     547.465E-03    -225.434E-03     25.3195E-03     120.642E-03    -24.1543E-03    -96.4825E-03    -70.4653E-03     94.6247E-03    -24.1543E-03     140.803E-03     13.1395E+06    -21.0374E+06    -58.5221E+06    -36.5571E+06    -43.0024E+06     13.1395E+06    -18.3909E+06         36.1221
            1952     12.6500E-03     112.361E-03     541.186E-03    -175.671E-03    -219.968E-03    -175.476E-03     540.992E-03    -219.968E-03    -5.11742E-03     141.028E-03    -27.9371E-03    -113.091E-03    -85.9960E-03     113.933E-03    -27.9371E-03     156.683E-03     19.0413E+06    -6.35502E+06    -49.8256E+06    -29.9049E+06    -26.2757E+06     19.0413E+06    -21.0750E+06         40.3874
            1953     13.5647E-03     112.497E-03     516.179E-03    -153.822E-03    -214.022E-03    -153.220E-03     515.578E-03    -214.022E-03     11.3427E-03     165.088E-03    -32.2071E-03    -132.886E-03    -103.678E-03     135.881E-03    -32.2071E-03     176.997E-03     19.7900E+06     37.1376E+03    -53.9479E+06    -24.5580E+06    -20.2483E+06     10.6856E+06    -30.1515E+06         45.9219
            1954     14.4637E-03     112.663E-03     481.883E-03    -126.794E-03    -206.777E-03    -126.068E-03     481.156E-03    -206.777E-03     35.6873E-03     186.577E-03    -36.9427E-03    -149.638E-03    -118.788E-03     155.727E-03    -36.9427E-03     194.001E-03     48.6245E+06     13.2177E+06    -46.6863E+06    -20.4943E+06     22.4326E+06     13.2177E+06    -34.3857E+06         52.9910
            1955     15.3527E-03     112.850E-03     459.529E-03    -116.114E-03    -198.639E-03    -115.720E-03     459.136E-03    -198.639E-03     23.6734E-03     205.835E-03    -42.0233E-03    -163.806E-03    -129.265E-03     171.294E-03    -42.0233E-03     215.108E-03     82.5637E+06     44.2911E+06    -18.9895E+06    -13.0017E+06     76.5759E+06     44.2911E+06    -21.3727E+06         60.6016
            1956     16.2302E-03     113.093E-03     445.199E-03    -107.572E-03    -190.800E-03    -107.441E-03     445.068E-03    -190.800E-03     7.21365E-03     202.912E-03    -47.2281E-03    -155.702E-03    -133.511E-03     180.721E-03    -47.2281E-03     160.923E-03     110.051E+06     81.4520E+06    -7.55114E+06    -6.61738E+06     92.4884E+06     98.0813E+06    -7.79155E+06         67.0123
            1957     996.119E-06     112.902E-03     632.066E-03    -233.049E-03    -279.166E-03    -269.635E-03     628.014E-03    -238.527E-03     46.2176E-03     8.70775E-03    -4.15556E-03    -4.55249E-03    -4.35084E-03     8.50609E-03    -4.15556E-03     3.00882E-03     15.6124E+06    -77.2908E+06    -95.5428E+06    -87.6718E+06     7.74133E+06    -77.2908E+06     26.5961E+06         20.7495
            1958     1.99170E-03     112.902E-03     593.260E-03    -217.851E-03    -251.036E-03    -219.507E-03     591.061E-03    -247.181E-03     11.4095E-03     10.3638E-03    -4.52654E-03    -5.83708E-03    -5.14630E-03     9.67306E-03    -4.52654E-03     6.38547E-03     10.0054E+06    -74.3574E+06    -108.414E+06    -92.5567E+06    -5.85217E+06    -74.3574E+06     39.6689E+06         20.8996
            1959     2.98627E-03     112.903E-03     584.993E-03    -211.720E-03    -241.856E-03    -216.408E-03     584.669E-03    -236.843E-03    -7.23840E-03     13.1419E-03    -5.03150E-03    -8.11070E-03    -6.41321E-03     11.4444E-03    -5.03150E-03     11.3761E-03    -7.88917E+06    -70.8735E+06    -115.416E+06    -91.4518E+06    -31.8533E+06    -70.8735E+06     44.0139E+06         21.1908
            1960     3.97887E-03     112.907E-03     613.696E-03    -233.418E-03    -247.003E-03    -245.446E-03     613.410E-03    -234.689E-03     26.1672E-03     17.2409E-03    -5.65176E-03    -11.5891E-03    -8.15568E-03     13.8075E-03    -5.65176E-03     18.5381E-03    -21.8275E+06    -68.7529E+06    -115.738E+06    -86.4401E+06    -51.1257E+06    -68.7529E+06     43.4315E+06         21.6818
            1961     4.96991E-03     112.916E-03     605.758E-03    -226.479E-03    -242.904E-03    -233.419E-03     605.396E-03    -235.602E-03     21.9055E-03     23.0257E-03    -6.44084E-03    -16.5865E-03    -10.6027E-03     17.0420E-03    -6.44084E-03     28.2617E-03    -27.7233E+06    -62.5007E+06    -110.600E+06    -81.8985E+06    -56.4246E+06    -62.5007E+06     39.3166E+06         22.3988
            1962     5.95794E-03     112.933E-03     584.999E-03    -213.296E-03    -233.354E-03    -213.008E-03     584.711E-03    -233.354E-03    -5.86831E-03     30.4793E-03    -7.44932E-03    -23.0292E-03    -13.8271E-03     21.2772E-03    -7.44932E-03     40.2956E-03    -34.0810E+06    -50.3782E+06    -96.8241E+06    -76.7103E+06    -54.1947E+06    -50.3782E+06     28.9925E+06         23.3527
            1963     6.94274E-03     112.959E-03     572.767E-03    -205.489E-03    -229.444E-03    -205.202E-03     572.480E-03    -229.444E-03    -4.03998E-03     39.9386E-03    -8.69521E-03    -31.2386E-03    -18.0833E-03     26.7834E-03    -8.69521E-03     55.1715E-03    -31.7321E+06    -44.1531E+06    -79.1730E+06    -69.5309E+06    -50.1418E+06    -35.3854E+06     16.5334E+06         24.5559
            1964     7.92324E-03     113.000E-03     559.134E-03    -195.114E-03    -225.118E-03    -194.567E-03     558.587E-03    -225.118E-03     18.2893E-03     51.7169E-03    -10.2367E-03    -41.4827E-03    -24.0178E-03     34.2520E-03    -10.2367E-03     72.6484E-03    -19.3941E+06    -45.3232E+06    -64.1151E+06    -60.9197E+06    -48.5186E+06    -19.3941E+06     5.64359E+06         26.0198
            1965     8.89676E-03     113.056E-03     540.567E-03    -181.127E-03    -220.060E-03    -180.297E-03     539.737E-03    -220.060E-03     31.2893E-03     66.0437E-03    -12.1305E-03    -53.9175E-03    -31.9808E-03     44.1070E-03    -12.1305E-03     92.6261E-03    -6.04559E+06    -40.1623E+06    -56.7991E+06    -52.8083E+06    -44.1532E+06    -6.04559E+06    -5.04234E+06         27.7521
            1966     9.86294E-03     113.131E-03     532.854E-03    -179.985E-03    -214.750E-03    -179.502E-03     532.371E-03    -214.750E-03     20.1494E-03     83.9675E-03    -14.4568E-03    -69.5067E-03    -42.4410E-03     56.9017E-03    -14.4568E-03     116.846E-03     3.97051E+06    -30.9161E+06    -59.1525E+06    -45.8357E+06    -44.2329E+06     3.97051E+06    -13.6235E+06         29.8485
            1967     10.8196E-03     113.231E-03     531.353E-03    -184.914E-03    -210.026E-03    -184.733E-03     531.172E-03    -210.026E-03     14.9105E-03     103.015E-03    -17.2997E-03    -85.7103E-03    -55.5110E-03     72.8156E-03    -17.2997E-03     138.112E-03     11.8226E+06    -22.6215E+06    -59.6688E+06    -38.4204E+06    -43.8699E+06     11.8226E+06    -18.1505E+06         32.5939
            1968     11.7622E-03     113.346E-03     512.272E-03    -172.850E-03    -205.357E-03    -172.446E-03     511.868E-03    -205.357E-03     28.3450E-03     122.809E-03    -20.7117E-03    -102.094E-03    -70.8346E-03     91.5493E-03    -20.7117E-03     155.325E-03     16.5626E+06    -11.7425E+06      -55.37E+06    -29.9576E+06    -37.1550E+06     16.5626E+06    -21.4625E+06         36.1840
            1969     12.6912E-03     113.481E-03     487.713E-03    -153.957E-03    -199.709E-03    -153.566E-03     487.322E-03    -199.709E-03     22.4244E-03     146.420E-03    -24.7302E-03    -121.687E-03    -88.5564E-03     113.289E-03    -24.7302E-03     176.218E-03     22.2689E+06     3.86215E+06    -46.4785E+06    -21.5490E+06    -21.0674E+06     22.2689E+06    -24.7169E+06         40.6218
            1970     13.6051E-03     113.642E-03     473.952E-03    -143.580E-03    -193.101E-03    -142.774E-03     473.146E-03    -193.101E-03     37.4742E-03     173.253E-03    -29.3255E-03    -143.928E-03    -108.202E-03     137.526E-03    -29.3255E-03     200.373E-03     23.8077E+06     12.3246E+06    -40.2274E+06    -18.2193E+06    -5.01080E+06     19.1350E+06    -27.5587E+06         46.2997
            1971     14.5013E-03     113.839E-03     452.921E-03    -127.643E-03    -185.889E-03    -126.706E-03     451.985E-03    -185.889E-03     42.9583E-03     196.986E-03    -34.4820E-03    -162.504E-03    -126.412E-03     160.894E-03    -34.4820E-03     215.783E-03     44.5622E+06     17.5566E+06    -38.2617E+06    -21.5102E+06     27.6148E+06     17.7525E+06    -31.1029E+06         53.4825
            1972     15.3794E-03     114.043E-03     417.369E-03    -102.873E-03    -177.854E-03    -102.551E-03     417.047E-03    -177.854E-03     19.8196E-03     220.902E-03    -40.1663E-03    -180.724E-03    -142.775E-03     182.953E-03    -40.1663E-03     234.904E-03     67.9774E+06     33.7237E+06    -32.3399E+06    -23.2622E+06     58.8997E+06     33.7237E+06    -27.6853E+06         61.2186
            1973     16.2479E-03     114.309E-03     397.142E-03    -93.9524E-03    -170.013E-03    -93.6230E-03     396.813E-03    -170.013E-03     16.9102E-03     220.055E-03    -46.2154E-03    -173.825E-03    -151.034E-03     197.264E-03    -46.2154E-03     166.445E-03     98.7891E+06     66.5251E+06    -19.0525E+06    -15.4007E+06     74.9901E+06     86.6723E+06    -15.4230E+06         67.6975
            1974     998.362E-06     113.907E-03     564.815E-03    -212.986E-03    -244.059E-03    -225.012E-03     561.548E-03    -228.766E-03    -8.29908E-03     4.02982E-03    -1.87868E-03    -2.15130E-03    -1.99557E-03     3.88018E-03    -1.88477E-03     1.72470E-03    -31.8984E+06    -121.371E+06    -140.802E+06    -128.474E+06    -42.7548E+06    -122.843E+06     31.1419E+06         20.3666
            1975     1.99581E-03     113.908E-03     541.212E-03    -200.899E-03    -228.322E-03    -204.931E-03     539.407E-03    -222.485E-03    -40.1588E-03     5.48731E-03    -2.21561E-03    -3.27163E-03    -2.69751E-03     4.91319E-03    -2.21561E-03     4.21515E-03    -15.7238E+06    -97.5531E+06    -135.065E+06    -115.401E+06    -35.3884E+06    -97.5531E+06     43.9341E+06         20.5129
            1976     2.99238E-03     113.911E-03     544.325E-03    -209.421E-03    -218.978E-03    -210.774E-03     543.697E-03    -216.996E-03     24.9163E-03     7.98512E-03    -2.63754E-03    -5.34751E-03    -3.81709E-03     6.45470E-03    -2.63754E-03     8.38186E-03    -21.6892E+06    -88.1826E+06    -130.521E+06    -105.907E+06    -46.3028E+06    -88.1826E+06     45.0490E+06         20.8135
            1977     3.98831E-03     113.917E-03     544.178E-03    -204.578E-03    -216.784E-03    -206.108E-03     543.660E-03    -214.737E-03     36.2330E-03     12.0135E-03    -3.18515E-03    -8.82784E-03    -5.54437E-03     8.73004E-03    -3.18515E-03     15.1037E-03    -32.8177E+06    -84.9500E+06    -124.530E+06    -99.1904E+06    -58.1574E+06    -84.9500E+06     40.6127E+06         21.3228
            1978     4.98181E-03     113.930E-03     546.209E-03    -203.826E-03    -214.941E-03    -205.697E-03     545.792E-03    -212.653E-03     33.3780E-03     17.8114E-03    -3.92827E-03    -13.8821E-03    -7.90958E-03     11.8389E-03    -3.92827E-03     24.7198E-03    -33.7410E+06    -72.9161E+06    -107.445E+06    -86.3680E+06    -54.8176E+06    -72.9161E+06     32.1363E+06         22.0597
            1979     5.97287E-03     113.951E-03     548.151E-03    -205.059E-03    -216.256E-03    -209.638E-03     547.757E-03    -211.283E-03     21.4495E-03     25.2772E-03    -4.87758E-03    -20.3994E-03    -10.9388E-03     15.8165E-03    -4.87758E-03     36.9573E-03    -32.7362E+06    -54.9111E+06    -83.2068E+06    -70.0037E+06    -45.9393E+06    -54.9111E+06     21.2260E+06         23.0322
            1980     6.96059E-03     113.983E-03     533.956E-03    -191.966E-03    -214.199E-03    -196.351E-03     533.608E-03    -209.467E-03     6.06872E-03     35.1559E-03    -6.06339E-03    -29.0932E-03    -15.1410E-03     21.2037E-03    -6.06339E-03     52.9180E-03    -29.1422E+06    -42.2067E+06    -63.8115E+06    -57.5225E+06    -41.5737E+06    -36.0641E+06     11.4455E+06         24.2535
            1981     7.94386E-03     114.030E-03     508.593E-03    -175.845E-03    -205.648E-03    -175.220E-03     507.968E-03    -205.648E-03     26.9959E-03     47.4317E-03    -7.52708E-03    -39.9072E-03    -20.8196E-03     28.3442E-03    -7.52708E-03     72.1059E-03    -19.4841E+06    -37.2161E+06    -52.4154E+06    -50.1736E+06    -39.4579E+06    -19.4841E+06     3.30904E+06         25.7381
            1982     8.92179E-03     114.097E-03     488.242E-03    -160.706E-03    -200.167E-03    -159.668E-03     487.204E-03    -200.167E-03     49.6244E-03     62.6481E-03    -9.32330E-03    -53.3305E-03    -28.5101E-03     37.8278E-03    -9.32330E-03     95.0156E-03    -5.21448E+06    -29.5232E+06    -48.6730E+06    -45.8536E+06    -32.3426E+06    -5.21448E+06    -5.41329E+06         27.4999
            1983     9.89168E-03     114.184E-03     478.800E-03    -157.631E-03    -194.311E-03    -156.896E-03     478.064E-03    -194.311E-03     34.3480E-03     82.1356E-03    -11.5621E-03    -70.5751E-03    -39.2842E-03     50.8447E-03    -11.5621E-03     123.128E-03     6.07502E+06    -21.3729E+06    -53.7240E+06    -40.9647E+06    -34.1322E+06     6.07502E+06    -14.8225E+06         29.6388
            1984     10.8509E-03     114.302E-03     471.666E-03    -158.796E-03    -188.868E-03    -158.603E-03     471.472E-03    -188.868E-03     17.8163E-03     102.767E-03    -14.3329E-03    -88.4283E-03    -52.8387E-03     67.1776E-03    -14.3329E-03     148.537E-03     13.7968E+06    -12.5745E+06    -57.7814E+06    -33.4296E+06    -36.9263E+06     13.7968E+06    -22.3992E+06         32.4618
            1985     11.7981E-03     114.438E-03     454.525E-03    -149.629E-03    -183.329E-03    -149.169E-03     454.065E-03    -183.329E-03     31.6405E-03     124.572E-03    -17.7111E-03    -106.852E-03    -69.1837E-03     86.9029E-03    -17.7111E-03     170.533E-03     19.5622E+06    -1.40844E+06    -55.3082E+06    -24.6605E+06    -32.0561E+06     19.5622E+06    -26.5864E+06         36.1871
            1986     12.7308E-03     114.596E-03     434.803E-03    -137.066E-03    -177.095E-03    -136.543E-03     434.280E-03    -177.095E-03     28.3267E-03     151.412E-03    -21.7831E-03    -129.624E-03    -89.3455E-03     111.133E-03    -21.7831E-03     196.653E-03     26.2476E+06     12.0822E+06    -46.3177E+06    -18.0702E+06    -16.1653E+06     26.2476E+06    -28.4187E+06         40.7764
            1987     13.6430E-03     114.789E-03     421.157E-03    -128.599E-03    -170.357E-03    -127.916E-03     420.475E-03    -170.357E-03     31.6321E-03     180.822E-03    -26.5604E-03    -154.262E-03    -111.270E-03     137.830E-03    -26.5604E-03     223.856E-03     29.2936E+06     23.8391E+06    -34.8729E+06    -11.6493E+06     1.03661E+06     28.8724E+06    -28.4412E+06         46.5713
            1988     14.5390E-03     115.012E-03     402.789E-03    -114.834E-03    -163.161E-03    -114.258E-03     402.214E-03    -163.161E-03     20.8995E-03     208.197E-03    -32.0276E-03    -176.170E-03    -133.212E-03     165.238E-03    -32.0276E-03     241.809E-03     42.4698E+06     33.1201E+06    -18.7537E+06    -4.04518E+06     27.5652E+06     33.3160E+06    -23.7902E+06         53.8601
            1989     15.4157E-03     115.254E-03     377.713E-03    -100.658E-03    -155.251E-03    -100.475E-03     377.530E-03    -155.251E-03     6.23079E-03     239.046E-03    -38.2875E-03    -200.754E-03    -157.021E-03     195.313E-03    -38.2875E-03     263.135E-03      68.647E+06     49.6521E+06    -5.10372E+06     738.394E+03     57.1247E+06     55.3323E+06    -17.6355E+06         61.7016
            1990     16.2624E-03     115.550E-03     351.482E-03    -89.5537E-03    -147.824E-03    -89.1312E-03     351.059E-03    -147.824E-03     20.2767E-03     240.936E-03    -45.1748E-03    -195.744E-03    -170.946E-03     216.139E-03    -45.1748E-03     178.909E-03     101.252E+06     61.5379E+06    -4.73458E+06    -1.45177E+06     62.8372E+06     96.6698E+06    -13.2564E+06         68.2198
            1991     998.494E-06     114.909E-03     491.165E-03    -177.171E-03    -220.493E-03    -202.850E-03     489.302E-03    -192.952E-03    -22.7864E-03     2.46051E-03    -1.16922E-03    -1.29128E-03    -1.18706E-03     2.37796E-03    -1.19090E-03     931.895E-06    -78.0914E+06    -173.896E+06    -182.817E+06    -174.923E+06    -83.0980E+06    -176.784E+06     14.0943E+06         20.2164
            1992     1.99730E-03     114.912E-03     486.413E-03    -179.850E-03    -204.812E-03    -186.911E-03     484.292E-03    -195.630E-03     7.63980E-03     3.17442E-03    -1.28005E-03    -1.89424E-03    -1.48347E-03     2.76749E-03    -1.28388E-03     2.63658E-03    -50.2770E+06    -142.203E+06    -165.698E+06    -146.042E+06    -60.9775E+06    -151.159E+06     24.8563E+06         20.3398
            1993     2.99555E-03     114.915E-03     495.532E-03    -190.918E-03    -199.368E-03    -195.982E-03     494.933E-03    -193.706E-03     38.2918E-03     5.31747E-03    -1.52852E-03    -3.78867E-03    -2.37394E-03     3.90274E-03    -1.52852E-03     6.53176E-03    -43.1422E+06    -113.987E+06    -146.424E+06    -117.202E+06    -58.1571E+06    -128.194E+06     29.6838E+06         20.6284
            1994     3.99195E-03     114.924E-03     473.754E-03    -175.192E-03    -191.678E-03    -174.302E-03     472.864E-03    -191.678E-03     38.2176E-03     9.45202E-03    -2.00425E-03    -7.44779E-03    -4.06162E-03     6.06586E-03    -2.00425E-03     13.4842E-03    -45.4115E+06    -89.9109E+06    -120.036E+06    -92.9058E+06    -59.8744E+06    -102.579E+06     26.0255E+06         21.1301
            1995     4.98685E-03     114.939E-03     466.386E-03    -169.674E-03    -187.456E-03    -168.500E-03     464.971E-03    -187.216E-03     50.4461E-03     15.0548E-03    -2.65892E-03    -12.3952E-03    -6.24548E-03     8.90504E-03    -2.65892E-03     22.8575E-03    -40.6250E+06    -74.1611E+06    -95.0407E+06    -76.1336E+06    -50.7068E+06    -82.9865E+06     18.4101E+06         21.8565
            1996     5.97985E-03     114.964E-03     483.998E-03    -181.060E-03    -193.068E-03    -188.021E-03     482.794E-03    -184.903E-03     50.7956E-03     22.2206E-03    -3.50601E-03    -18.7134E-03    -9.00645E-03     12.5136E-03    -3.50601E-03     34.8016E-03    -34.6828E+06    -63.2241E+06    -76.5905E+06    -68.3902E+06    -40.3024E+06    -65.8049E+06     12.0704E+06         22.8138
            1997     6.97033E-03     115.001E-03     483.541E-03    -178.566E-03    -195.640E-03    -189.012E-03     482.754E-03    -184.408E-03     29.7034E-03     31.9068E-03    -4.57361E-03    -27.3372E-03    -12.7564E-03     17.3260E-03    -4.57361E-03     51.0052E-03    -29.1816E+06    -50.2747E+06    -65.9352E+06    -63.0635E+06    -34.5350E+06    -47.7929E+06     5.55188E+06         24.0162
            1998     7.95633E-03     115.056E-03     460.361E-03    -162.457E-03    -185.495E-03    -164.437E-03     459.033E-03    -182.187E-03     37.4869E-03     44.1113E-03    -5.88286E-03    -38.2310E-03    -17.7468E-03     23.6271E-03    -5.88286E-03     71.1428E-03    -20.0289E+06    -35.0348E+06    -55.8301E+06    -52.5396E+06    -30.3384E+06    -28.0158E+06    -3.34368E+06         25.4829
            1999     8.93772E-03     115.129E-03     445.353E-03    -154.050E-03    -177.944E-03    -152.686E-03     443.989E-03    -177.944E-03     51.6155E-03     59.9312E-03    -7.50553E-03    -52.4302E-03    -25.0555E-03     32.5565E-03    -7.50553E-03     96.4013E-03    -2.36315E+06    -19.0454E+06    -45.6151E+06    -37.1985E+06    -24.2331E+06    -5.59213E+06    -10.4052E+06         27.2368
            2000     9.91205E-03     115.231E-03     430.343E-03    -145.889E-03    -173.030E-03    -145.333E-03     429.787E-03    -173.030E-03     34.5389E-03     80.3418E-03    -9.54779E-03    -70.7994E-03    -35.4793E-03     45.0218E-03    -9.54779E-03     127.803E-03     11.7838E+06    -10.3023E+06    -42.4436E+06    -27.5776E+06    -25.1683E+06     11.7838E+06    -14.6047E+06         29.3835
            2001     10.8762E-03     115.364E-03     407.983E-03    -127.958E-03    -167.215E-03    -127.758E-03     407.783E-03    -167.215E-03     18.8357E-03     102.162E-03    -12.0974E-03    -90.0607E-03    -48.9035E-03     61.0047E-03    -12.0974E-03     157.451E-03     20.0776E+06    -4.72946E+06    -47.4930E+06    -26.2436E+06    -25.9788E+06     20.0776E+06    -21.2559E+06         32.2493
            2002     11.8285E-03     115.520E-03     396.498E-03    -124.936E-03    -160.817E-03    -124.720E-03     396.282E-03    -160.817E-03     11.9267E-03     126.286E-03    -15.3010E-03    -110.979E-03    -66.5785E-03     81.8855E-03    -15.3010E-03     184.754E-03     24.5811E+06     3.84728E+06    -54.0181E+06    -25.2103E+06    -24.9605E+06     24.5811E+06    -28.8024E+06         36.0696
            2003     12.7629E-03     115.707E-03     389.135E-03    -127.347E-03    -154.682E-03    -127.187E-03     388.975E-03    -154.682E-03     2.31896E-03     155.535E-03    -19.2831E-03    -136.247E-03    -88.4183E-03     107.706E-03    -19.2831E-03     215.743E-03     30.8415E+06     15.7470E+06    -49.3465E+06    -21.2605E+06    -12.3390E+06     30.8415E+06    -31.7404E+06         40.7708
            2004     13.6803E-03     115.930E-03     365.226E-03    -109.028E-03    -148.073E-03    -108.740E-03     364.938E-03    -148.073E-03     12.2783E-03     187.532E-03    -24.0868E-03    -163.443E-03    -113.031E-03     137.120E-03    -24.0868E-03     245.864E-03     35.6643E+06     27.8301E+06    -41.7108E+06    -16.8136E+06     3.35404E+06     35.2432E+06    -32.8908E+06         46.6692
            2005     14.5765E-03     116.186E-03     338.047E-03    -87.7705E-03    -140.173E-03    -87.4317E-03     337.708E-03    -140.173E-03     11.7670E-03     219.683E-03    -29.7921E-03    -189.890E-03    -140.185E-03     169.977E-03    -29.7921E-03     267.030E-03     43.0072E+06     39.3015E+06    -33.1080E+06    -13.2402E+06     20.5222E+06     41.9187E+06    -31.4615E+06         54.0622
            2006     15.4448E-03     116.473E-03     324.105E-03    -85.4104E-03    -131.514E-03    -85.1973E-03     323.892E-03    -131.514E-03     7.49994E-03     255.702E-03    -36.4974E-03    -219.205E-03    -169.381E-03     205.879E-03    -36.4974E-03     290.937E-03     61.6416E+06     53.8115E+06    -15.7775E+06    -6.43483E+06     45.1363E+06     60.9742E+06    -21.4658E+06         61.9873
            2007     16.2912E-03     116.816E-03     304.866E-03    -81.1163E-03    -123.974E-03    -80.8707E-03     304.621E-03    -123.974E-03     5.15783E-03     261.290E-03    -44.1363E-03    -217.143E-03    -189.754E-03     233.901E-03    -44.1363E-03     192.751E-03     100.759E+06     53.2031E+06    -6.48011E+06    -3.93129E+06     50.6543E+06     100.759E+06    -8.27586E+06         68.4573
            2008     997.890E-06     115.912E-03     391.856E-03    -119.970E-03    -182.903E-03    -182.090E-03     391.042E-03    -119.970E-03    -8.26425E-03     3.39212E-03    -1.65607E-03    -1.73607E-03    -1.64035E-03     3.37641E-03    -1.73607E-03     265.262E-06    -91.1282E+06    -189.762E+06    -194.372E+06    -191.257E+06    -91.8699E+06    -192.136E+06    -4.66600E+06         20.2722
            2009     1.99577E-03     115.914E-03     439.453E-03    -158.041E-03    -187.985E-03    -186.503E-03     437.970E-03    -158.041E-03     38.7131E-03     3.45275E-03    -1.63457E-03    -1.81817E-03    -1.63789E-03     3.32364E-03    -1.68574E-03     1.06038E-03    -69.8440E+06    -168.808E+06    -183.765E+06    -172.823E+06    -71.8300E+06    -177.763E+06    -4.84900E+06         20.3771
            2010     2.99435E-03     115.918E-03     430.215E-03    -161.658E-03    -177.686E-03    -172.309E-03     429.211E-03    -166.031E-03     30.0585E-03     4.74469E-03    -1.76047E-03    -2.98388E-03    -2.17042E-03     3.93186E-03    -1.76110E-03     4.15681E-03    -57.7296E+06    -145.394E+06    -164.010E+06    -145.079E+06    -62.4543E+06    -159.601E+06    -4.16296E+06         20.6363
            2011     3.99246E-03     115.928E-03     407.805E-03    -152.283E-03    -165.082E-03    -151.548E-03     407.070E-03    -165.082E-03     22.1410E-03     7.95355E-03    -2.01694E-03    -5.93645E-03    -3.42494E-03     5.44204E-03    -2.01694E-03     10.4457E-03    -51.7105E+06    -120.842E+06    -141.433E+06    -114.704E+06    -58.4936E+06    -140.789E+06    -5.02392E+06         21.1068
            2012     4.98846E-03     115.947E-03     401.896E-03    -149.378E-03    -162.768E-03    -148.943E-03     400.340E-03    -161.647E-03     54.7192E-03     12.9452E-03    -2.46241E-03    -10.4832E-03    -5.29227E-03     7.75435E-03    -2.46241E-03     19.3878E-03    -41.9995E+06    -95.1993E+06    -123.527E+06    -87.8004E+06    -49.3983E+06    -123.527E+06    -4.51585E+06         21.7986
            2013     5.98196E-03     115.975E-03     403.301E-03    -147.682E-03    -163.305E-03    -150.754E-03     402.061E-03    -158.993E-03     43.6943E-03     20.1342E-03    -3.19368E-03    -16.9407E-03    -7.90647E-03     11.0999E-03    -3.19368E-03     31.8160E-03    -30.9051E+06    -70.1319E+06    -95.3691E+06    -64.7809E+06    -39.5982E+06    -92.0269E+06    -2.91816E+06         22.7089
            2014     6.97213E-03     116.017E-03     410.461E-03    -149.771E-03    -165.735E-03    -157.383E-03     409.576E-03    -157.239E-03     16.8236E-03     29.6700E-03    -4.16357E-03    -25.5101E-03    -11.2581E-03     15.4179E-03    -4.16357E-03     48.2967E-03    -20.0571E+06    -46.5213E+06    -66.1225E+06    -46.8519E+06    -29.4240E+06    -56.4250E+06    -3.84630E+06         23.8483
            2015     7.96062E-03     116.075E-03     418.288E-03    -154.789E-03    -169.298E-03    -166.326E-03     416.846E-03    -156.319E-03     30.5880E-03     41.6590E-03    -5.32643E-03    -36.3334E-03    -15.7852E-03     21.1109E-03    -5.32643E-03     68.7128E-03    -13.4029E+06    -27.5755E+06    -49.1691E+06    -38.8130E+06    -20.9463E+06    -30.3882E+06    -9.07325E+06         25.2448
            2016     8.94452E-03     116.158E-03     401.679E-03    -142.980E-03    -162.302E-03    -149.256E-03     400.281E-03    -154.629E-03     49.4490E-03     57.5131E-03    -6.77284E-03    -50.7441E-03    -22.4222E-03     29.1911E-03    -6.77284E-03     95.1499E-03    -6.23781E+06    -13.7195E+06    -49.1914E+06    -39.8199E+06    -19.0088E+06    -10.3199E+06    -13.6004E+06         26.9337
            2017     9.92134E-03     116.270E-03     372.980E-03    -123.669E-03    -150.373E-03    -122.910E-03     372.221E-03    -150.373E-03     37.3608E-03     77.7320E-03    -8.56795E-03    -69.1705E-03    -31.5652E-03     40.1267E-03    -8.56795E-03     128.184E-03     7.87407E+06    -4.21161E+06    -50.8382E+06    -36.6860E+06    -17.6772E+06     7.18750E+06    -18.5413E+06         29.0408
            2018     10.8917E-03     116.417E-03     360.538E-03    -116.809E-03    -144.462E-03    -116.036E-03     359.765E-03    -144.462E-03     30.9516E-03     100.590E-03    -10.8413E-03    -89.7475E-03    -44.6983E-03     55.5404E-03    -10.8413E-03     161.626E-03     24.1240E+06     3.59092E+06    -45.5069E+06    -24.7355E+06    -17.1804E+06     24.1240E+06    -23.7494E+06         31.9146
            2019     11.8480E-03     116.595E-03     354.743E-03    -116.828E-03    -138.346E-03    -115.637E-03     353.551E-03    -138.346E-03     29.8153E-03     126.660E-03    -13.7814E-03    -112.877E-03    -62.9152E-03     76.6979E-03    -13.7814E-03     194.385E-03     35.1368E+06     9.22173E+06    -43.3320E+06    -16.4650E+06    -17.6452E+06     35.1368E+06    -26.0238E+06         35.7757
            2020     12.7879E-03     116.810E-03     339.326E-03    -108.982E-03    -131.769E-03    -107.349E-03     337.693E-03    -131.769E-03     31.5731E-03     158.294E-03    -17.5592E-03    -140.732E-03    -86.4541E-03     104.016E-03    -17.5592E-03     230.208E-03     42.8124E+06     19.0466E+06    -41.0230E+06    -15.9953E+06    -5.98102E+06     42.8124E+06    -28.6594E+06         40.5312
            2021     13.7083E-03     117.063E-03     320.781E-03    -98.6903E-03    -124.143E-03    -96.9850E-03     319.076E-03    -124.143E-03     39.8670E-03     193.900E-03    -22.3399E-03    -171.556E-03    -115.431E-03     137.775E-03    -22.3399E-03     263.083E-03     49.7003E+06     31.5532E+06    -36.8806E+06    -14.6188E+06     9.29142E+06     49.7003E+06    -31.5154E+06         46.4891
            2022     14.6022E-03     117.363E-03     303.193E-03    -88.3519E-03    -115.721E-03    -87.3196E-03     302.160E-03    -115.721E-03     33.5818E-03     229.436E-03    -28.2054E-03    -201.229E-03    -146.231E-03     174.438E-03    -28.2054E-03     287.062E-03     53.8674E+06     37.0798E+06    -30.3301E+06    -11.6995E+06     18.4491E+06     53.8674E+06    -29.7466E+06         53.9319
            2023     15.4684E-03     117.695E-03     279.921E-03    -78.2926E-03    -106.760E-03    -77.9722E-03     279.601E-03    -106.760E-03     16.2133E-03     271.572E-03    -35.1667E-03    -236.405E-03    -179.638E-03     214.805E-03    -35.1667E-03     319.904E-03     58.0661E+06     41.3077E+06    -22.0299E+06    -11.7364E+06     31.0142E+06     58.0661E+06    -22.1125E+06         61.9308
            2024     16.2983E-03     118.091E-03     259.332E-03    -69.7215E-03    -98.8931E-03    -69.4911E-03     259.102E-03    -98.8931E-03    -6.36659E-03     280.429E-03    -43.3506E-03    -237.074E-03    -205.152E-03     248.507E-03    -43.3506E-03     216.528E-03     99.7084E+06     36.7661E+06    -11.4576E+06    -8.72712E+06     34.0356E+06     99.7084E+06    -8.17435E+06         68.4629
            2025     996.453E-06     116.916E-03     336.590E-03    -90.9687E-03    -161.879E-03    -155.357E-03     335.722E-03    -96.6228E-03    -1.41711E-03     6.38627E-03    -3.12714E-03    -3.25922E-03    -3.16844E-03     6.37918E-03    -3.21083E-03    -428.555E-06    -75.2695E+06    -145.581E+06    -151.819E+06    -149.045E+06    -77.0845E+06    -146.540E+06    -10.7264E+06         20.5086
            2026     1.99332E-03     116.919E-03     358.711E-03    -124.377E-03    -153.121E-03    -146.406E-03     357.650E-03    -130.031E-03     20.9738E-03     6.81740E-03    -3.25491E-03    -3.56260E-03    -3.50250E-03     6.80464E-03    -3.30224E-03    -171.461E-06    -60.6778E+06    -136.053E+06    -149.788E+06    -145.934E+06    -64.5320E+06    -136.053E+06    -17.7579E+06         20.6127
            2027     2.98914E-03     116.923E-03     359.583E-03    -133.895E-03    -151.340E-03    -148.214E-03     358.542E-03    -135.979E-03     17.6472E-03     7.78875E-03    -3.50436E-03    -4.28443E-03    -4.11424E-03     7.61919E-03    -3.50499E-03     1.63957E-03    -48.0523E+06    -129.236E+06    -146.538E+06    -140.294E+06    -54.2963E+06    -129.236E+06    -23.4351E+06         20.8411
            2028     3.98458E-03     116.934E-03     351.739E-03    -133.120E-03    -148.773E-03    -143.305E-03     351.471E-03    -138.320E-03    -315.141E-06     9.34586E-03    -3.72502E-03    -5.62079E-03    -4.74030E-03     8.46538E-03    -3.72502E-03     5.77027E-03    -38.8007E+06    -124.405E+06    -149.025E+06    -130.371E+06    -50.1753E+06    -131.684E+06    -30.3151E+06         21.2674
            2029     4.98012E-03     116.954E-03     342.109E-03    -130.089E-03    -142.565E-03    -133.668E-03     341.157E-03    -138.034E-03     37.5562E-03     12.3719E-03    -4.00115E-03    -8.37125E-03    -5.71689E-03     9.71749E-03    -4.00115E-03     12.9066E-03    -30.2296E+06    -110.706E+06    -147.709E+06    -112.309E+06    -46.1278E+06    -130.208E+06    -34.5009E+06         21.9066
            2030     5.97473E-03     116.985E-03     333.249E-03    -123.675E-03    -138.006E-03    -124.817E-03     332.357E-03    -135.971E-03     30.0082E-03     18.0392E-03    -4.47089E-03    -13.5624E-03    -7.56272E-03     12.0395E-03    -4.47089E-03     24.2612E-03    -20.1580E+06    -91.0330E+06    -125.429E+06    -86.2226E+06    -40.0507E+06    -110.347E+06     -33.799E+06         22.7454
            2031     6.96750E-03     117.030E-03     336.065E-03    -125.064E-03    -136.537E-03    -127.610E-03     335.700E-03    -133.627E-03    -1.07484E-03     26.4748E-03    -5.13692E-03    -21.3317E-03    -10.3942E-03     15.5374E-03    -5.13692E-03     39.9314E-03    -8.02131E+06    -72.2148E+06    -91.6244E+06    -57.3237E+06    -29.5300E+06    -85.0068E+06    -29.2369E+06         23.7782
            2032     7.95563E-03     117.095E-03     344.695E-03    -126.581E-03    -141.622E-03    -135.309E-03     343.751E-03    -131.951E-03     14.8526E-03     38.3155E-03    -6.09173E-03    -32.2228E-03    -14.5862E-03     20.6789E-03    -6.09173E-03     61.0139E-03    -4.39013E+06    -44.9633E+06    -56.9288E+06    -33.5484E+06    -22.0697E+06    -50.6642E+06    -19.9105E+06         25.0225
            2033     8.93919E-03     117.183E-03     337.601E-03    -118.741E-03    -138.419E-03    -125.895E-03     336.063E-03    -129.728E-03     46.8953E-03     54.2121E-03    -7.37910E-03    -46.8354E-03    -20.5655E-03     27.9422E-03    -7.37910E-03     88.6249E-03     3.09993E+06    -11.0653E+06    -39.3447E+06    -19.1111E+06    -17.1337E+06    -11.0653E+06    -12.8427E+06         26.5564
            2034     9.91894E-03     117.303E-03     322.615E-03    -110.265E-03    -126.692E-03    -109.978E-03     321.309E-03    -125.673E-03     45.9883E-03     74.3601E-03    -8.96091E-03    -65.4030E-03    -29.0915E-03     38.0486E-03    -8.96091E-03     122.568E-03     20.7257E+06     6.12712E+06    -35.9253E+06    -16.4071E+06    -7.77082E+06     15.1054E+06    -15.2619E+06         28.5777
            2035     10.8906E-03     117.462E-03     311.188E-03    -104.688E-03    -120.270E-03    -103.079E-03     309.579E-03    -120.270E-03     49.5505E-03     97.7061E-03    -10.9871E-03    -86.7186E-03    -41.2235E-03     52.2110E-03    -10.9871E-03     158.938E-03     30.6667E+06     6.15512E+06    -39.4720E+06    -23.6437E+06    -9.67313E+06     30.6667E+06    -20.3230E+06         31.4282
            2036     11.8516E-03     117.661E-03     297.142E-03    -95.4254E-03    -113.864E-03    -93.0006E-03     294.717E-03    -113.864E-03     61.1114E-03     124.590E-03    -13.6195E-03    -110.969E-03    -58.5090E-03     72.1299E-03    -13.6195E-03     195.847E-03     41.5217E+06     11.7878E+06    -48.3052E+06    -26.7990E+06    -9.71840E+06     41.5217E+06    -26.4903E+06         35.2604
            2037     12.7982E-03     117.899E-03     283.467E-03    -86.5455E-03    -106.301E-03    -84.2198E-03     281.142E-03    -106.301E-03     56.5684E-03     159.436E-03    -17.1517E-03    -142.282E-03    -84.4250E-03     101.578E-03    -17.1517E-03     237.213E-03     56.4111E+06     25.0104E+06    -42.9162E+06    -17.1596E+06    -746.179E+03     56.4111E+06    -31.1312E+06         39.9564
            2038     13.7184E-03     118.195E-03     274.421E-03    -88.4980E-03    -98.2254E-03    -86.6971E-03     272.621E-03    -98.2254E-03     45.5807E-03     199.020E-03    -21.8439E-03    -177.174E-03    -117.146E-03     138.993E-03    -21.8439E-03     275.026E-03     66.7616E+06     32.2522E+06    -29.3473E+06    -7.49854E+06     10.4034E+06     66.7616E+06    -28.3630E+06         45.8390
            2039     14.6098E-03     118.534E-03     257.618E-03    -83.2968E-03    -90.0928E-03    -82.0784E-03     256.400E-03    -90.0928E-03     21.7468E-03     235.360E-03    -27.6822E-03    -207.676E-03    -148.086E-03     175.769E-03    -27.6822E-03     301.997E-03     69.3853E+06     32.3744E+06    -22.1665E+06    -6.65612E+06     16.8640E+06     69.3853E+06    -24.2117E+06         53.2351
            2040     15.4795E-03     118.911E-03     230.485E-03    -70.1613E-03    -81.1541E-03    -69.5797E-03     229.903E-03    -81.1541E-03     7.28691E-03     285.299E-03    -34.5222E-03    -250.776E-03    -184.039E-03     218.562E-03    -34.5222E-03     353.675E-03     64.7104E+06     27.2823E+06    -15.3002E+06    -3.04927E+06     15.0314E+06     64.7104E+06    -15.1385E+06         61.2245
            2041     16.3147E-03     119.389E-03     209.313E-03    -61.9362E-03    -74.0360E-03    -62.9186E-03     209.144E-03    -72.8839E-03     144.579E-06     300.784E-03    -42.7858E-03    -258.002E-03    -217.111E-03     259.894E-03    -42.7858E-03     258.879E-03     107.048E+06     27.8147E+06    -1.50301E+06     4.96494E+06     21.3467E+06     107.048E+06    -766.309E+03         67.8218
            2042     994.844E-06     117.925E-03     323.183E-03    -86.5713E-03    -161.879E-03    -148.120E-03     321.013E-03    -98.1589E-03    -12.4203E-03     11.4036E-03    -5.55995E-03    -5.84372E-03    -5.79813E-03     11.3799E-03    -5.58184E-03    -1.24733E-03    -57.7834E+06    -97.1730E+06    -103.431E+06    -101.664E+06    -59.5507E+06    -97.1730E+06    -8.60657E+06         20.9261
            2043     1.98859E-03     117.927E-03     281.710E-03    -97.6425E-03    -118.206E-03    -96.8247E-03     280.548E-03    -117.861E-03    -7.42444E-03     12.7597E-03    -5.95743E-03    -6.80145E-03    -6.76660E-03     12.7249E-03    -5.95743E-03    -1.57610E-03    -42.6944E+06    -89.4314E+06    -105.302E+06    -100.100E+06    -47.8955E+06    -89.4314E+06    -16.6002E+06         21.0444
            2044     2.98131E-03     117.934E-03     282.016E-03    -99.9173E-03    -118.943E-03    -105.988E-03     280.699E-03    -111.556E-03    -10.4832E-03     14.3123E-03    -6.47761E-03    -7.83433E-03    -7.79908E-03     14.2771E-03    -6.47761E-03    -820.436E-06    -28.7975E+06    -77.4171E+06    -104.732E+06    -94.7893E+06    -38.7404E+06    -77.4171E+06    -24.9568E+06         21.2573
            2045     3.97277E-03     117.945E-03     294.651E-03    -109.053E-03    -129.452E-03    -126.159E-03     294.365E-03    -112.060E-03     9.30325E-03     15.7031E-03    -6.98350E-03    -8.72022E-03    -8.58045E-03     15.5633E-03    -6.98350E-03     1.57313E-03    -17.8930E+06    -70.8540E+06    -106.999E+06    -91.2379E+06    -33.6543E+06    -70.8540E+06    -33.5765E+06         21.6397
            2046     4.96393E-03     117.966E-03     291.286E-03    -109.206E-03    -127.660E-03    -121.786E-03     290.241E-03    -114.035E-03     37.0082E-03     17.3781E-03    -7.40482E-03    -9.97370E-03    -9.28210E-03     16.6865E-03    -7.40482E-03     6.26678E-03    -10.5026E+06    -77.0839E+06    -116.353E+06    -94.2078E+06    -32.6478E+06    -77.0839E+06    -42.9662E+06         22.2152
            2047     5.95467E-03     117.997E-03     276.615E-03    -102.683E-03    -117.580E-03    -105.885E-03     275.628E-03    -113.391E-03     32.9108E-03     20.2998E-03    -7.82196E-03    -12.4722E-03    -10.2419E-03     18.0695E-03    -7.82196E-03     14.2337E-03    -3.87114E+06    -84.7391E+06    -124.500E+06    -96.4607E+06    -31.9104E+06    -84.7391E+06    -50.8079E+06         22.9685
            2048     6.94405E-03     118.045E-03     268.409E-03    -99.7415E-03    -111.708E-03    -99.5677E-03     267.321E-03    -110.795E-03     29.2581E-03     25.4523E-03    -8.32427E-03    -17.1235E-03    -11.8022E-03     20.1309E-03    -8.32427E-03     26.3609E-03     2.04719E+06    -81.2221E+06    -124.064E+06    -90.2261E+06    -28.9027E+06    -84.1103E+06    -53.1666E+06         23.8793
            2049     7.93314E-03     118.113E-03     265.474E-03    -96.6605E-03    -107.438E-03    -94.5897E-03     263.403E-03    -107.438E-03     50.2903E-03     34.4710E-03    -9.02177E-03    -25.4393E-03    -14.5888E-03     23.6204E-03    -9.02177E-03     44.9702E-03     1.01996E+06    -64.8779E+06    -106.954E+06    -71.8727E+06    -31.1727E+06    -67.7661E+06    -46.8365E+06         24.9256
            2050     8.91919E-03     118.207E-03     270.642E-03    -97.6682E-03    -104.827E-03    -96.8760E-03     268.832E-03    -103.809E-03     50.2132E-03     48.2990E-03    -9.99974E-03    -38.2894E-03    -19.3864E-03     29.3960E-03    -9.99974E-03     70.9668E-03     10.2522E+06    -36.4132E+06    -78.5239E+06    -44.0727E+06    -24.1989E+06    -36.4132E+06    -35.4474E+06         26.2291
            2051     9.89852E-03     118.334E-03     271.242E-03    -97.6506E-03    -101.660E-03    -97.9279E-03     269.947E-03    -100.087E-03     42.1994E-03     67.6322E-03    -11.3491E-03    -56.2837E-03    -26.9446E-03     38.2931E-03    -11.3491E-03     105.136E-03     24.9744E+06    -10.1475E+06    -43.6088E+06    -20.4218E+06    -12.1519E+06     3.79179E+06    -20.0637E+06         28.1066
            2052     10.8699E-03     118.504E-03     253.340E-03    -84.2517E-03    -95.8874E-03    -83.4833E-03     252.017E-03    -95.3327E-03     40.1236E-03     91.1569E-03    -13.1329E-03    -78.0218E-03    -37.7390E-03     50.8741E-03    -13.1329E-03     144.051E-03     40.9831E+06     6.59164E+06    -21.4756E+06    -9.01689E+06    -5.86706E+06     40.9831E+06    -9.74116E+06         30.8349
            2053     11.8339E-03     118.715E-03     230.407E-03    -67.7377E-03    -88.8820E-03    -66.2813E-03     228.950E-03    -88.8820E-03     39.0859E-03     119.996E-03    -15.4957E-03    -104.499E-03    -55.3059E-03     70.8027E-03    -15.4957E-03     185.527E-03     64.6099E+06     20.3890E+06    -21.6521E+06    -8.70699E+06     7.44388E+06     64.6099E+06    -14.9691E+06         34.4513
            2054     12.7800E-03     118.982E-03     222.149E-03    -65.3998E-03    -81.4326E-03    -64.3977E-03     221.147E-03    -81.4326E-03     32.1751E-03     157.395E-03    -18.8194E-03    -138.574E-03    -82.6912E-03     101.512E-03    -18.8194E-03     231.303E-03     73.5119E+06     27.1365E+06    -34.1112E+06    -16.7344E+06     9.75980E+06     73.5119E+06    -25.5006E+06         38.8805
            2055     13.7028E-03     119.314E-03     213.940E-03    -67.7576E-03    -73.7353E-03    -67.3362E-03     213.518E-03    -73.7353E-03     20.3379E-03     196.707E-03    -23.3183E-03    -173.401E-03    -113.637E-03     136.943E-03    -23.3183E-03     272.083E-03     77.7196E+06     28.6433E+06    -44.1630E+06    -22.7324E+06     7.21270E+06     77.7196E+06    -31.0074E+06         44.5071
            2056     14.6005E-03     119.697E-03     190.986E-03    -58.4597E-03    -65.5284E-03    -58.1317E-03     190.658E-03    -65.5284E-03    -1.02802E-03     231.815E-03    -28.8140E-03    -203.014E-03    -141.379E-03     170.180E-03    -28.8140E-03     303.131E-03     88.2532E+06     30.0340E+06    -34.8352E+06    -15.8160E+06     11.0148E+06     88.2532E+06    -28.9906E+06         51.7060
            2057     15.4764E-03     120.105E-03     166.626E-03    -47.4436E-03    -55.9277E-03    -47.0226E-03     166.205E-03    -55.9277E-03     765.145E-06     288.140E-03    -34.9955E-03    -253.143E-03    -179.185E-03     214.181E-03    -34.9955E-03     371.749E-03     58.0004E+06     9.25692E+06    -32.4100E+06    -14.3199E+06    -8.83316E+06     58.0004E+06    -18.1679E+06         59.5340
            2058     16.3276E-03     120.665E-03     152.159E-03    -43.2672E-03    -48.5134E-03    -44.9650E-03     151.933E-03    -46.5892E-03     6.39546E-03     312.113E-03    -42.7841E-03    -269.344E-03    -218.549E-03     261.318E-03    -42.7841E-03     303.647E-03     94.2969E+06     15.1434E+06    -26.2642E+06    -15.4209E+06     4.30010E+06     94.2969E+06    -5.57805E+06         65.8358
            2059     991.187E-06     118.938E-03     255.856E-03    -41.7614E-03    -160.838E-03    -146.829E-03     247.781E-03    -47.6950E-03    -23.2570E-03     19.4686E-03    -9.50124E-03    -9.96710E-03    -9.93065E-03     19.4348E-03    -9.50385E-03    -1.89261E-03    -37.4604E+06    -54.0782E+06    -62.4858E+06    -55.8553E+06    -44.0909E+06    -54.0782E+06    -7.41114E+06         21.5594
            2060     1.98085E-03     118.944E-03     233.273E-03    -79.6390E-03    -103.635E-03    -83.2131E-03     227.416E-03    -94.2038E-03     31.7948E-03     21.3705E-03    -10.0677E-03    -11.3018E-03    -11.2254E-03     21.2941E-03    -10.0677E-03    -3.12332E-03    -21.5367E+06    -45.4887E+06    -61.8951E+06    -52.8822E+06    -30.5495E+06    -45.4887E+06    -14.9927E+06         21.6999
            2061     2.96899E-03     118.952E-03     212.384E-03    -73.3928E-03    -94.7003E-03    -77.1374E-03     210.591E-03    -89.1631E-03     6.02771E-03     23.4789E-03    -10.7472E-03    -12.7335E-03    -12.6284E-03     23.3738E-03    -10.7472E-03    -3.79895E-03    -10.9880E+06    -40.1292E+06    -64.2539E+06    -52.2963E+06    -22.9455E+06    -40.1292E+06    -21.9473E+06         21.9160
            2062     3.95619E-03     118.966E-03     214.486E-03    -77.6262E-03    -93.4463E-03    -84.2588E-03     214.179E-03    -86.5067E-03     18.5975E-03     25.8211E-03    -11.5141E-03    -14.3071E-03    -14.2145E-03     25.7285E-03    -11.5141E-03    -3.22494E-03    -3.58603E+06    -32.6828E+06    -68.8489E+06    -53.5035E+06    -18.9314E+06    -32.6828E+06    -27.1743E+06         22.2606
            2063     4.94112E-03     118.987E-03     228.737E-03    -85.0354E-03    -103.032E-03    -98.6534E-03     226.100E-03    -86.7768E-03     44.6745E-03     28.2229E-03    -12.3227E-03    -15.8983E-03    -15.7932E-03     28.1179E-03    -12.3227E-03    -904.264E-06     4.16716E+06    -28.1980E+06    -74.3879E+06    -54.6765E+06    -15.5443E+06    -28.1980E+06    -33.3549E+06         22.7684
            2064     5.92434E-03     119.020E-03     223.489E-03    -81.1788E-03    -97.7427E-03    -88.1450E-03     219.770E-03    -87.0575E-03     55.0472E-03     30.3896E-03    -13.1122E-03    -17.2812E-03    -16.9142E-03     30.0226E-03    -13.1122E-03     3.83932E-03     10.4565E+06    -30.5354E+06    -84.8488E+06    -59.6599E+06    -14.7325E+06    -30.5354E+06    -41.7544E+06         23.4360
            2065     6.90733E-03     119.068E-03     206.024E-03    -72.1045E-03    -86.1869E-03    -71.3357E-03     203.885E-03    -84.8169E-03     37.1380E-03     33.3227E-03    -13.9051E-03    -19.4222E-03    -18.1196E-03     32.0200E-03    -13.9051E-03     11.8527E-03     9.58984E+06    -33.4995E+06    -99.7597E+06    -70.4064E+06    -19.7634E+06    -33.4995E+06    -48.3505E+06         24.2426
            2066     7.88817E-03     119.137E-03     204.483E-03    -73.3374E-03    -83.6493E-03    -72.5929E-03     201.588E-03    -81.4987E-03     49.7908E-03     38.3156E-03    -14.7403E-03    -23.5637E-03    -19.9393E-03     34.6912E-03    -14.7403E-03     24.2826E-03     4.93611E+06    -38.1852E+06    -114.604E+06    -81.9838E+06    -27.6841E+06    -38.1852E+06    -53.1175E+06         25.1555
            2067     8.86737E-03     119.232E-03     210.586E-03    -76.6201E-03    -81.8707E-03    -77.1030E-03     207.685E-03    -78.4860E-03     51.9995E-03     46.5398E-03    -15.6994E-03    -30.8336E-03    -22.6209E-03     38.3271E-03    -15.6994E-03     43.4577E-03     5.36837E+06    -37.7345E+06    -119.454E+06    -85.0930E+06    -28.9930E+06    -37.7345E+06    -55.1153E+06         26.2741
            2068     9.84456E-03     119.365E-03     207.878E-03    -73.5251E-03    -76.9721E-03    -73.9852E-03     206.550E-03    -75.1835E-03     34.1956E-03     59.6604E-03    -16.8955E-03    -42.7743E-03    -26.8285E-03     43.7145E-03    -16.8955E-03     71.3449E-03     7.31098E+06    -24.3280E+06    -101.727E+06    -70.6969E+06    -29.9586E+06    -18.0886E+06    -46.2101E+06         27.9057
            2069     10.8188E-03     119.540E-03     197.125E-03    -65.8368E-03    -71.3330E-03    -65.8843E-03     196.618E-03    -70.7784E-03     21.3594E-03     78.9065E-03    -18.4458E-03    -60.4625E-03    -34.7158E-03     53.1599E-03    -18.4458E-03     106.538E-03     25.1569E+06     1.38769E+06    -68.6438E+06    -43.8366E+06    -18.8456E+06     20.5829E+06    -30.5790E+06         30.2901
            2070     11.7818E-03     119.765E-03     189.038E-03    -56.2147E-03    -68.8099E-03    -58.6795E-03     187.803E-03    -65.1103E-03     28.3830E-03     107.696E-03    -20.6488E-03    -87.0462E-03    -50.9416E-03     71.5910E-03    -20.6488E-03     150.583E-03     70.1448E+06     18.6096E+06    -33.9246E+06    -21.7657E+06     6.45059E+06     70.1448E+06    -16.3769E+06         33.4132
            2071     12.7247E-03     120.057E-03     179.775E-03    -52.1842E-03    -62.8576E-03    -54.3928E-03     177.426E-03    -58.3003E-03     41.7476E-03     146.528E-03    -23.7886E-03    -122.738E-03    -76.8284E-03     100.618E-03    -23.7886E-03     202.168E-03     102.320E+06     25.5946E+06    -17.2326E+06    -13.1509E+06     21.5129E+06     102.320E+06    -9.42106E+06         37.3254
            2072     13.6426E-03     120.417E-03     160.601E-03    -48.5444E-03    -51.7195E-03    -47.6987E-03     158.361E-03    -50.3250E-03     37.1408E-03     183.437E-03    -27.8869E-03    -155.562E-03    -103.024E-03     130.899E-03    -27.8869E-03     245.205E-03     112.719E+06     36.6604E+06    -22.8237E+06    -12.2230E+06     26.0596E+06     112.719E+06    -17.5664E+06         42.4803
            2073     14.5484E-03     120.824E-03     139.942E-03    -40.0828E-03    -45.5213E-03    -43.2226E-03     138.943E-03    -41.3821E-03     15.5873E-03     215.561E-03    -32.6814E-03    -182.896E-03    -126.665E-03     159.330E-03    -32.6814E-03     277.290E-03     100.267E+06     23.9845E+06    -33.7520E+06    -18.1932E+06     8.42569E+06     100.267E+06    -23.4441E+06         49.1718
            2074     15.4407E-03     121.274E-03     121.525E-03    -28.9897E-03    -41.5306E-03    -39.0165E-03     121.377E-03    -31.3566E-03     5.90212E-03     273.343E-03    -38.1647E-03    -235.173E-03    -165.824E-03     203.993E-03    -38.1647E-03     348.955E-03     66.0301E+06    -228.291E+03    -42.3085E+06    -21.7769E+06    -20.7600E+06     66.0301E+06    -19.1133E+06         56.3963
            2075     16.2944E-03     121.888E-03     109.536E-03    -19.7004E-03    -36.2144E-03    -34.0622E-03     109.190E-03    -21.5065E-03     8.13416E-03     293.494E-03    -44.7046E-03    -248.797E-03    -190.597E-03     235.294E-03    -44.7046E-03     326.114E-03     80.6432E+06     6.57306E+06    -41.7120E+06    -26.3204E+06    -8.81850E+06     80.6432E+06    -16.4055E+06         62.2548
            2076     985.319E-06     119.963E-03     162.168E-03     2.71338E-03    -125.697E-03    -110.946E-03     147.417E-03     2.71338E-03    -52.3594E-03     31.0824E-03    -15.2202E-03    -15.8629E-03    -15.5845E-03     31.0462E-03    -15.4625E-03    -2.35507E-03    -1.36674E+06    -11.5258E+06    -33.0460E+06    -7.38644E+06    -27.5910E+06    -10.9611E+06    -10.1259E+06         22.4060
            2077     1.96967E-03     119.970E-03     162.056E-03    -56.2289E-03    -73.9220E-03    -65.6566E-03     153.791E-03    -56.2289E-03     18.6671E-03     32.8741E-03    -15.8110E-03    -17.0643E-03    -16.9611E-03     32.7709E-03    -15.8110E-03    -4.45922E-03     3.65820E+06    -11.5421E+06    -29.2179E+06    -8.39426E+06    -17.1655E+06    -11.5421E+06    -13.8023E+06         22.5643
            2078     2.95242E-03     119.981E-03     158.850E-03    -55.5148E-03    -74.0610E-03    -68.2968E-03     157.217E-03    -59.6469E-03     19.3507E-03     35.8938E-03    -16.5980E-03    -19.2949E-03    -19.1172E-03     35.7161E-03    -16.5980E-03    -6.22772E-03     8.18197E+06    -6.30558E+06    -29.8487E+06    -10.5634E+06    -11.1033E+06    -6.30558E+06    -16.8298E+06         22.8075
            2079     3.93229E-03     119.997E-03     149.697E-03    -54.3176E-03    -66.1640E-03    -59.0340E-03     148.654E-03    -60.4053E-03     26.8844E-03     39.6389E-03    -17.6786E-03    -21.9574E-03    -21.7192E-03     39.4007E-03    -17.6786E-03    -7.60384E-03     15.1262E+06     3.25788E+06    -31.6405E+06    -11.0277E+06    -7.18763E+06     4.95901E+06    -20.9824E+06         23.1487
            2080     4.90946E-03     120.023E-03     144.026E-03    -55.6277E-03    -65.5490E-03    -58.9788E-03     141.338E-03    -59.5090E-03     36.2892E-03     43.3622E-03    -18.9326E-03    -24.4271E-03    -24.1936E-03     43.1287E-03    -18.9326E-03    -7.73482E-03     23.4546E+06     10.0966E+06    -33.0890E+06    -12.5206E+06    -4.72231E+06     17.7050E+06    -23.6533E+06         23.6110
            2081     5.88406E-03     120.057E-03     151.766E-03    -57.0606E-03    -70.1108E-03    -64.6945E-03     148.275E-03    -58.9864E-03     38.2447E-03     47.3384E-03    -20.2527E-03    -27.0803E-03    -26.8931E-03     47.1512E-03    -20.2527E-03    -6.39511E-03     28.6362E+06     6.57420E+06    -36.9284E+06    -19.6812E+06    -3.07297E+06     21.0362E+06    -23.7847E+06         24.2091
            2082     6.85584E-03     120.107E-03     152.612E-03    -55.6120E-03    -65.2004E-03    -61.1653E-03     151.330E-03    -58.3658E-03     14.4194E-03     51.6184E-03    -21.6645E-03    -29.9460E-03    -29.7169E-03     51.3894E-03    -21.6645E-03    -3.62126E-03     27.9770E+06    -2.04927E+06    -48.3973E+06    -31.3611E+06    -7.18202E+06     16.0736E+06    -25.8355E+06         24.9348
            2083     7.82429E-03     120.177E-03     146.475E-03    -52.3292E-03    -60.5353E-03    -53.0893E-03     143.334E-03    -56.6346E-03     35.0289E-03     56.1353E-03    -23.2139E-03    -32.9131E-03    -32.4025E-03     55.6247E-03    -23.2139E-03     1.72490E-03     26.2913E+06    -3.32492E+06    -63.1003E+06    -41.9055E+06    -12.9088E+06     14.6804E+06    -31.9045E+06         25.7812
            2084     8.78909E-03     120.273E-03     145.899E-03    -52.5066E-03    -59.2098E-03    -52.9711E-03     141.211E-03    -54.0582E-03     59.5505E-03     61.0928E-03    -24.8660E-03    -36.2334E-03    -34.6936E-03     59.5531E-03    -24.8660E-03     10.8578E-03     24.9553E+06     434.987E+03    -79.4522E+06    -52.1132E+06    -17.1545E+06     15.2057E+06    -40.9202E+06         26.7894
            2085     9.75109E-03     120.404E-03     146.781E-03    -49.9193E-03    -55.9669E-03    -53.0210E-03     144.955E-03    -51.0392E-03     34.3474E-03     67.0134E-03    -26.5883E-03    -40.4346E-03    -36.5440E-03     63.1228E-03    -26.5883E-03     24.9464E-03     18.6722E+06    -7.39684E+06    -97.6195E+06    -63.8767E+06    -31.9891E+06     9.52167E+06    -46.5178E+06         28.1307
            2086     10.7097E-03     120.578E-03     136.986E-03    -42.8395E-03    -48.9638E-03    -44.2986E-03     136.518E-03    -47.0372E-03     7.32119E-03     76.6818E-03    -28.5117E-03    -48.1645E-03    -40.1760E-03     68.6932E-03    -28.5117E-03     46.5900E-03     20.0748E+06    -3.01023E+06    -100.169E+06    -68.2384E+06    -30.3670E+06     15.5008E+06    -46.1154E+06         30.0320
            2087     11.6627E-03     120.809E-03     136.998E-03    -38.5030E-03    -48.4990E-03    -39.4171E-03     130.994E-03    -41.5807E-03     38.7699E-03     94.9880E-03    -30.9921E-03    -63.9883E-03    -49.6334E-03     80.6332E-03    -30.9921E-03     79.2700E-03     52.1495E+06     16.1396E+06    -80.3601E+06    -53.1474E+06    -11.0732E+06     52.1495E+06    -40.4510E+06         32.5166
            2088     12.6045E-03     121.114E-03     132.301E-03    -34.6809E-03    -43.6631E-03    -36.4037E-03     125.041E-03    -34.6809E-03     61.5423E-03     120.417E-03    -34.2123E-03    -86.2007E-03    -63.7904E-03     98.0065E-03    -34.2123E-03     120.537E-03     95.2440E+06     24.2988E+06    -44.8540E+06    -23.8554E+06     3.30021E+06     95.2440E+06    -25.6747E+06         35.7133
            2089     13.5296E-03     121.500E-03     107.375E-03    -26.5629E-03    -32.2765E-03    -29.4949E-03     104.593E-03    -26.5629E-03     38.8675E-03     144.042E-03    -37.9212E-03    -106.117E-03    -76.6028E-03     114.528E-03    -37.9212E-03     157.553E-03     117.316E+06     35.3615E+06    -14.7119E+06    -5.05347E+06     25.7030E+06     117.316E+06    -4.41656E+06         40.0541
            2090     14.4389E-03     121.919E-03     90.8767E-03    -17.7219E-03    -25.8974E-03    -24.4333E-03     89.4125E-03    -17.7219E-03     14.4616E-03     172.748E-03    -42.1567E-03    -130.592E-03    -96.8373E-03     138.993E-03    -42.1567E-03     187.864E-03     120.134E+06     40.7178E+06    -13.7275E+06    -1.98806E+06     28.9783E+06     120.134E+06     4.78371E+06         45.6328
            2091     15.3228E-03     122.399E-03     82.9945E-03    -8.24051E-03    -26.2980E-03    -25.5065E-03     82.2030E-03    -8.24051E-03    -8.61683E-03     220.937E-03    -47.1795E-03    -173.812E-03    -127.204E-03     174.329E-03    -47.1795E-03     252.598E-03     114.313E+06     30.3246E+06    -21.8094E+06     2.90130E+06     5.61388E+06     114.313E+06    -8.97359E+06         51.6868
            2092     16.1825E-03     123.036E-03     69.9424E-03     860.939E-06    -27.4582E-03    -25.2599E-03     67.7441E-03     860.939E-06    -8.14628E-03     219.912E-03    -51.6056E-03    -168.362E-03    -114.745E-03     166.295E-03    -51.6056E-03     264.553E-03     73.7402E+06     15.6386E+06    -33.3499E+06    -5.04143E+06    -12.6699E+06     73.7402E+06    -9.96709E+06         56.7781
            2093     977.977E-06     121.001E-03     115.976E-03     8.45097E-03    -114.978E-03    -102.969E-03     76.0617E-03     36.3563E-03    -63.1908E-03     45.9297E-03    -22.5124E-03    -23.4185E-03    -23.0712E-03     45.8868E-03    -22.8167E-03    -3.27028E-03     53.8802E+06     46.2446E+06    -10.9471E+06     49.3628E+06    -8.89497E+06     48.7098E+06    -8.92304E+06         23.2382
            2094     1.95549E-03     121.010E-03     90.1270E-03    -34.7405E-03    -48.4965E-03    -40.9493E-03     82.5798E-03    -34.7405E-03    -28.1410E-03     47.5989E-03    -23.1450E-03    -24.4525E-03    -24.2963E-03     47.5049E-03    -23.2071E-03    -5.06041E-03     47.1327E+06     36.4239E+06    -11.2331E+06     42.3332E+06    -7.80806E+06     37.7983E+06    -10.7885E+06         23.4059
            2095     2.93094E-03     121.023E-03     92.2831E-03    -36.6035E-03    -48.7535E-03    -39.5852E-03     83.1148E-03    -36.6035E-03    -32.1191E-03     51.4451E-03    -24.0755E-03    -27.3624E-03    -27.1977E-03     51.2804E-03    -24.0755E-03    -7.06137E-03     41.6485E+06     35.3723E+06    -9.60886E+06     35.4226E+06    -4.49644E+06     36.4859E+06    -12.1798E+06         23.6809
            2096     3.90189E-03     121.046E-03     91.7282E-03    -36.7652E-03    -46.7868E-03    -38.8903E-03     84.0459E-03    -36.9795E-03    -8.97798E-03     56.5540E-03    -25.4400E-03    -31.1127E-03    -30.8524E-03     56.2938E-03    -25.4400E-03    -9.37049E-03     43.9794E+06     34.7118E+06    -7.01325E+06     28.6071E+06     90.1748E+03     42.9806E+06    -12.0618E+06         24.0512
            2097     4.86969E-03     121.074E-03     84.4059E-03    -34.7975E-03    -42.9426E-03    -39.7062E-03     83.3095E-03    -36.9375E-03     555.962E-06     62.9547E-03    -27.2027E-03    -35.7576E-03    -35.3807E-03     62.5777E-03    -27.2027E-03    -12.0713E-03     52.4802E+06     30.0902E+06    -8.60208E+06     21.3116E+06     176.470E+03     52.4802E+06    -10.9298E+06         24.5117
            2098     5.83334E-03     121.115E-03     82.0110E-03    -29.7942E-03    -44.0433E-03    -36.9837E-03     81.6557E-03    -36.4985E-03    -452.453E-06     70.5272E-03    -29.3325E-03    -41.2024E-03    -40.6887E-03     70.0135E-03    -29.3325E-03    -15.0375E-03     63.6808E+06     25.7344E+06    -8.38550E+06     17.9461E+06    -597.181E+03     63.6808E+06    -8.76700E+06         25.0769
            2099     6.78877E-03     121.171E-03     84.0399E-03    -27.6958E-03    -40.4620E-03    -28.8142E-03     79.6937E-03    -34.9974E-03    -13.1491E-03     78.8328E-03    -31.7921E-03    -47.0477E-03    -46.3582E-03     78.1433E-03    -31.7921E-03    -18.2766E-03     73.4848E+06     25.4740E+06    -7.62860E+06     18.1016E+06    -256.206E+03     73.4848E+06    -8.02900E+06         25.7565
            2100     7.73883E-03     121.244E-03     88.2314E-03    -28.5460E-03    -41.5996E-03    -28.0398E-03     78.7463E-03    -32.6206E-03     22.5444E-03     87.2770E-03    -34.5237E-03    -52.7529E-03    -51.8046E-03     86.3287E-03    -34.5237E-03    -21.7446E-03     75.3638E+06     26.2817E+06    -13.8053E+06     14.6766E+06    -2.20025E+06     75.3638E+06    -9.80733E+06         26.5543
            2101     8.68196E-03     121.345E-03     88.8274E-03    -28.6018E-03    -41.2806E-03    -31.4059E-03     80.5043E-03    -30.1534E-03     58.5634E-03     95.4774E-03    -37.5158E-03    -57.9628E-03    -56.5930E-03     94.1077E-03    -37.5158E-03    -25.6000E-03     74.9918E+06     27.7606E+06    -25.1873E+06     5.79896E+06    -3.22559E+06     74.9918E+06    -12.2393E+06         27.4729
            2102     9.61768E-03     121.474E-03     82.8460E-03    -25.2035E-03    -33.0204E-03    -25.4529E-03     77.2705E-03    -27.1955E-03     38.2408E-03     103.546E-03    -40.8043E-03    -62.7449E-03    -60.5601E-03     101.361E-03    -40.8043E-03    -29.9551E-03     73.7648E+06     21.3259E+06    -40.2067E+06    -2.57502E+06    -16.3058E+06     73.7648E+06    -16.2388E+06         28.6058
            2103     10.5465E-03     121.644E-03     74.2230E-03    -18.3979E-03    -27.1762E-03    -19.1529E-03     70.7982E-03    -22.9964E-03     16.5450E-03     111.693E-03    -44.4321E-03    -67.2583E-03    -63.4611E-03     107.895E-03    -44.4321E-03    -33.2040E-03     73.6655E+06      18.949E+06    -46.8251E+06    -6.79185E+06    -21.0842E+06     73.6655E+06    -24.3399E+06         30.1104
            2104     11.4656E-03     121.869E-03     74.8658E-03    -15.0160E-03    -27.7598E-03    -16.9184E-03     66.6308E-03    -17.6225E-03     39.5066E-03     118.658E-03    -48.4754E-03    -70.1814E-03    -64.2528E-03     112.729E-03    -48.4754E-03    -29.1366E-03     79.5376E+06     24.3025E+06    -44.3621E+06    -10.6968E+06    -9.36273E+06     79.5376E+06    -31.8415E+06         32.0547
            2105     12.3657E-03     122.169E-03     72.2074E-03    -11.1616E-03    -23.1124E-03    -10.3062E-03     59.4013E-03    -11.1616E-03     56.7719E-03     119.410E-03    -51.0848E-03    -68.3300E-03    -58.9029E-03     111.638E-03    -52.7393E-03    -12.9786E-03     84.6088E+06     13.1224E+06    -45.5056E+06    -18.0719E+06    -14.3112E+06     84.6088E+06    -27.7472E+06         34.5651
            2106     13.2653E-03     122.528E-03     57.2632E-03    -3.76486E-03    -15.2265E-03    -8.96716E-03     51.0039E-03    -3.76486E-03     29.3040E-03     118.535E-03    -49.4894E-03    -69.0454E-03    -51.6221E-03     108.510E-03    -56.8873E-03     7.27106E-03     90.0144E+06     14.8744E+06    -39.8578E+06    -18.4895E+06    -6.49387E+06     90.0144E+06    -13.5660E+06         37.8640
            2107     14.1726E-03     122.952E-03     51.5754E-03     4.31132E-03    -13.0407E-03    -9.58753E-03     48.1222E-03     4.31132E-03     18.5922E-03     129.572E-03    -46.6510E-03    -82.9547E-03    -56.4571E-03     117.883E-03    -61.4602E-03     26.3129E-03     118.115E+06     38.4755E+06    -18.7590E+06    -700.039E+03     20.4166E+06     118.115E+06     -154.92E+03         42.0191
            2108     15.0350E-03     123.463E-03     49.8140E-03     12.8660E-03    -17.4023E-03    -13.5595E-03     45.9712E-03     12.8660E-03     7.34755E-03     133.910E-03    -31.2093E-03    -102.795E-03    -50.2020E-03     116.072E-03    -65.9636E-03     80.7743E-03     120.219E+06     48.5196E+06    -8.55492E+06     7.85144E+06     32.1132E+06     120.219E+06     1.34102E+06         46.6616
            2109     15.9221E-03     124.020E-03     40.2574E-03     20.5369E-03    -22.7185E-03    -19.4628E-03     36.5412E-03     20.9974E-03    -2.73784E-03     107.619E-03    -13.1615E-03    -94.5179E-03    -14.5720E-03     82.7108E-03    -68.1992E-03     107.664E-03     63.2497E+06     20.4763E+06    -31.8757E+06     11.0661E+06     2.39721E+06     38.3869E+06     7.44800E+06         50.5542


